     Program PWSCF v.6.7GPU starts on 18Aug2021 at 18:21:15

     R & G space division:  proc/nbgrp/npool/nimage =       6
     Reading input from /storage/home/hcoda1/3/ntian30/research/carbon/CH3_vib_side_on/ads_slab/CH3_a/out_0019/pw.inp
Warning: card &CELL ignored
Warning: card   CELL_DYNAMICS='IPI', ignored
Warning: card / ignored

     Current dimensions of program PWSCF are:
     Max number of different atomic species (ntypx) = 10
     Max number of k-points (npk) =  40000
     Max angular momentum in pseudopotentials (lmaxx) =  3
     Presently no symmetry can be used with electric field

     Message from routine cell_base_init:
     DEPRECATED: use true lattice parameter, not A to a.u. conversion factor

     IMPORTANT: XC functional enforced from input :
     Exchange-correlation= BEEF-VDW
                           (   1   4  43  14   2   0   0)
     Any further DFT definition will be discarded
     Please, verify this is what you really want

  @ DRIVER MODE: Connecting to
 qe_1139763_2594175.sched-torque.pace.gatech.edumbsyweoe_scratch
  using UNIX socket
  @ DRIVER MODE: Message from server: STATUS
  @ DRIVER MODE: Message from server: INIT
  @ DRIVER MODE: Receiving replica           0          -1
  @ DRIVER MODE: Receiving encoded integer          25
  @ DRIVER MODE:  SCF:  T  FORCE:  T  STRESS:  F  VC:  F  ENSEMBLE:  F
  @ DRIVER MODE:  SCF:  T  FORCE:  T  STRESS:  F  VC:  F  ENSEMBLE:  F

     Using Slab Decomposition

     bravais-lattice index     =            0
     lattice parameter (alat)  =       1.8897  a.u.
     unit-cell volume          =    6658.9804 (a.u.)^3
     number of atoms/cell      =           51
     number of atomic types    =            4
     number of electrons       =       385.00
     number of Kohn-Sham states=          202
     kinetic-energy cutoff     =      29.3995  Ry
     charge density cutoff     =     293.9946  Ry
     scf convergence threshold =      7.3E-08
     mixing beta               =       0.0500
     number of iterations used =            8  plain     mixing
     Exchange-correlation= BEEF-VDW
                           (   1   4  43  14   2   0   0)

     celldm(1)=   1.889726  celldm(2)=   0.000000  celldm(3)=   0.000000
     celldm(4)=   0.000000  celldm(5)=   0.000000  celldm(6)=   0.000000

     crystal axes: (cart. coord. in units of alat)
               a(1) = (   6.579727   0.000000   0.000000 )
               a(2) = (  -0.000775   5.961596   0.000000 )
               a(3) = (   0.000000   0.000000  25.155947 )

     reciprocal axes: (cart. coord. in units 2 pi/alat)
               b(1) = (  0.151982  0.000020  0.000000 )
               b(2) = (  0.000000  0.167740  0.000000 )
               b(3) = (  0.000000  0.000000  0.039752 )

     PseudoPot. # 1 for Ti read from file:
     /storage/coda1/p-amedford6/0/shared/rich_project_chbe-medford/medford-share/data/pseudos_module/espresso/nninc/pbe/van/Ti.UPF
     MD5 check sum: 8e4df49b7f0d34bbd5052bf3f5ea0213
     Pseudo is Ultrasoft, Zval = 12.0
     Generated by new atomic code, or converted to UPF format
     Using radial grid of  851 points,  6 beta functions with:
                l(1) =   0
                l(2) =   0
                l(3) =   1
                l(4) =   1
                l(5) =   2
                l(6) =   2
     Q(r) pseudized with  8 coefficients,  rinner =    1.000   1.000   1.000
                                                       1.000   1.000

     PseudoPot. # 2 for O  read from file:
     /storage/coda1/p-amedford6/0/shared/rich_project_chbe-medford/medford-share/data/pseudos_module/espresso/nninc/pbe/van/O.UPF
     MD5 check sum: 78c19812648e8988a0fe644b0f25305e
     Pseudo is Ultrasoft, Zval =  6.0
     Generated by new atomic code, or converted to UPF format
     Using radial grid of  737 points,  4 beta functions with:
                l(1) =   0
                l(2) =   0
                l(3) =   1
                l(4) =   1
     Q(r) pseudized with  8 coefficients,  rinner =    0.800   0.800   0.800

     PseudoPot. # 3 for C  read from file:
     /storage/coda1/p-amedford6/0/shared/rich_project_chbe-medford/medford-share/data/pseudos_module/espresso/nninc/pbe/van/C.UPF
     MD5 check sum: 1a69bf6b8db32088f5b2163dbdb77a27
     Pseudo is Ultrasoft, Zval =  4.0
     Generated by new atomic code, or converted to UPF format
     Using radial grid of  721 points,  4 beta functions with:
                l(1) =   0
                l(2) =   0
                l(3) =   1
                l(4) =   1
     Q(r) pseudized with  8 coefficients,  rinner =    0.800   0.800   0.800

     PseudoPot. # 4 for H  read from file:
     /storage/coda1/p-amedford6/0/shared/rich_project_chbe-medford/medford-share/data/pseudos_module/espresso/nninc/pbe/van/H.UPF
     MD5 check sum: b5ee9d7bfd3a09ee7748110bda690ff7
     Pseudo is Ultrasoft, Zval =  1.0
     Generated by new atomic code, or converted to UPF format
     Using radial grid of  615 points,  1 beta functions with:
                l(1) =   0
     Q(r) pseudized with  8 coefficients,  rinner =    0.800

     atomic species   valence    mass     pseudopotential
        Ti1           12.00    47.86700     Ti( 1.00)
        O1             6.00    15.99900     O ( 1.00)
        C1             4.00    12.01100     C ( 1.00)
        H1             1.00     1.00800     H ( 1.00)

     No symmetry found

   Cartesian axes

     site n.     atom                  positions (alat units)
         1           Ti1 tau(   1) = (   0.0004258   2.9801865   6.0000000  )
         2           Ti1 tau(   2) = (   3.2906075   1.4906267   6.0002472  )
         3           O1  tau(   3) = (   0.0006271   0.0005054   7.9858123  )
         4           O1  tau(   4) = (   3.2906025   0.0005020   7.3038282  )
         5           O1  tau(   5) = (   4.5942328   1.4918067   9.2879030  )
         6           O1  tau(   6) = (   1.9868534   1.4903216   9.2879459  )
         7           Ti1 tau(   7) = (   3.3226903   2.9514341   9.1576891  )
         8           Ti1 tau(   8) = (   0.0343464   1.5915341   9.3698150  )
         9           O1  tau(   9) = (   3.2914246   5.9565917  11.3520874  )
        10           O1  tau(  10) = (   0.0056322   0.0001635  10.6062760  )
        11           O1  tau(  11) = (   1.2817320   1.4815673  12.6483243  )
        12           O1  tau(  12) = (   5.2831613   1.4908443  12.6423163  )
        13           Ti1 tau(  13) = (   0.0382653   2.9371430  12.8126397  )
        14           Ti1 tau(  14) = (   3.3532929   1.4821923  12.4951370  )
        15           O1  tau(  15) = (   6.5662424   5.9331786  14.6600200  )
        16           O1  tau(  16) = (   3.2816364   5.9551084  13.9465949  )
        17           O1  tau(  17) = (   4.5315606   1.5040344  16.0986503  )
        18           O1  tau(  18) = (   2.0287349   1.4998145  16.0995964  )
        19           Ti1 tau(  19) = (   3.2668404   2.9769305  15.7222481  )
        20           Ti1 tau(  20) = (   6.5415330   1.4777109  16.1743724  )
        21           O1  tau(  21) = (   3.2904802   0.0005063   4.7018136  )
        22           O1  tau(  22) = (   6.5659521   0.0029676  17.1944956  )
        23           O1  tau(  23) = (   1.3043587   1.4918075   6.0039043  )
        24           O1  tau(  24) = (   5.2767064   1.4903225   6.0039473  )
        25           Ti1 tau(  25) = (   0.0000382   5.9609847   6.0000000  )
        26           Ti1 tau(  26) = (   3.2902200   4.4714249   6.0002472  )
        27           O1  tau(  27) = (   0.0002396   2.9813036   7.9858123  )
        28           O1  tau(  28) = (   3.2902150   2.9813002   7.3038282  )
        29           O1  tau(  29) = (   4.5938453   4.4726049   9.2879030  )
        30           O1  tau(  30) = (   1.9864658   4.4711199   9.2879459  )
        31           Ti1 tau(  31) = (   3.3086233   5.9367107   9.1526142  )
        32           Ti1 tau(  32) = (   0.0357814   4.5182409   9.2638332  )
        33           O1  tau(  33) = (   3.2921447   2.9709340  11.3500156  )
        34           O1  tau(  34) = (   0.0064783   2.9842416  10.5732297  )
        35           O1  tau(  35) = (   1.2836142   4.4569143  12.6423601  )
        36           O1  tau(  36) = (   5.2821634   4.4598214  12.6376843  )
        37           Ti1 tau(  37) = (   0.0453433   5.9192801  12.5257453  )
        38           Ti1 tau(  38) = (   3.3504828   4.4607682  12.4868234  )
        39           O1  tau(  39) = (   0.0004961   2.9772524  14.7247240  )
        40           O1  tau(  40) = (   3.2810368   2.9729593  13.9290527  )
        41           O1  tau(  41) = (   4.5304642   4.4591278  16.0913236  )
        42           O1  tau(  42) = (   2.0231910   4.4609068  16.0933517  )
        43           Ti1 tau(  43) = (   3.2586866   5.9546939  15.7393459  )
        44           Ti1 tau(  44) = (   6.5465221   4.6060206  15.8931146  )
        45           O1  tau(  45) = (   3.2900926   2.9813045   4.7018136  )
        46           O1  tau(  46) = (   1.3039711   4.4726057   6.0039043  )
        47           O1  tau(  47) = (   5.2763189   4.4711207   6.0039473  )
        48           C1  tau(  48) = (   6.5676456   2.8990966  17.8516705  )
        49           H1  tau(  49) = (   6.5659762   3.9554521  18.1205428  )
        50           H1  tau(  50) = (   0.8773746   2.4756544  18.3284787  )
        51           H1  tau(  51) = (   5.6745275   2.4719798  18.3396978  )

     number of k points=    10  Fermi-Dirac smearing, width (Ry)=  0.0073
                       cart. coord. in units 2pi/alat
        k(    1) = (   0.0000000   0.0000000   0.0000000), wk =   0.1250000
        k(    2) = (   0.0000000   0.0419351   0.0000000), wk =   0.2500000
        k(    3) = (   0.0000000  -0.0838702   0.0000000), wk =   0.1250000
        k(    4) = (   0.0379955   0.0000049   0.0000000), wk =   0.2500000
        k(    5) = (   0.0379955   0.0419400   0.0000000), wk =   0.2500000
        k(    6) = (   0.0379955  -0.0838652   0.0000000), wk =   0.2500000
        k(    7) = (   0.0379955  -0.0419301   0.0000000), wk =   0.2500000
        k(    8) = (  -0.0759910  -0.0000099   0.0000000), wk =   0.1250000
        k(    9) = (  -0.0759910   0.0419252   0.0000000), wk =   0.2500000
        k(   10) = (  -0.0759910  -0.0838800   0.0000000), wk =   0.1250000

     Initial potential from superposition of free atoms

     starting charge  368.99918, renormalised to  385.00000

     negative rho (up, down):  2.032E-02 0.000E+00

     %%%%%%%%%%%%%%%%%%%%%%%%%%%%%%%%%%%%%%%%%%%%%%%%%%%%%%%%%%%%%%%%%%%%%%%%
     %                                                                      %
     % You are using vdW-DF, which was implemented by the Thonhauser group. %
     % Please cite the following two papers that made this development      %
     % possible and the two reviews that describe the various versions:     %
     %                                                                      %
     %   T. Thonhauser et al., PRL 115, 136402 (2015).                      %
     %   T. Thonhauser et al., PRB 76, 125112 (2007).                       %
     %   K. Berland et al., Rep. Prog. Phys. 78, 066501 (2015).             %
     %   D.C. Langreth et al., J. Phys.: Condens. Matter 21, 084203 (2009). %
     %                                                                      %
     %                                                                      %
     % If you are calculating the stress with vdW-DF, please also cite:     %
     %                                                                      %
     %   R. Sabatini et al., J. Phys.: Condens. Matter 24, 424209 (2012).   %
     %                                                                      %
     %%%%%%%%%%%%%%%%%%%%%%%%%%%%%%%%%%%%%%%%%%%%%%%%%%%%%%%%%%%%%%%%%%%%%%%%

     Adding external electric field

     Computed dipole along edir(3) :
        Dipole               -1.9974 Ry au,         -5.0769 Debye
        Dipole field         -0.0038 Ry au,

        Potential amp.        0.3494 Ry
        Total length         46.3494 bohr

     Starting wfcs are  291 atomic wfcs
  @ DRIVER MODE: Message from server: STATUS
  @ DRIVER MODE: Message from server: POSDATA
  @ DRIVER MODE: Reading and sharing cell
  @ DRIVER MODE: Reading and sharing positions
  @ DRIVER MODE: Received positions

     Self-consistent Calculation

     iteration #  1     ecut=    29.40 Ry     beta= 0.05
     Davidson diagonalization with overlap
     c_bands:  2 eigenvalues not converged
     c_bands:  1 eigenvalues not converged
     c_bands:  3 eigenvalues not converged
     c_bands:  1 eigenvalues not converged
     ethr =  1.00E-05,  avg # of iterations = 18.5

[...]

     total energy              =   -2900.52395511 Ry
     estimated scf accuracy    <      12.59776941 Ry

     iteration #  2     ecut=    29.40 Ry     beta= 0.05
     Davidson diagonalization with overlap
     ethr =  3.27E-03,  avg # of iterations =  1.0

[...]

     iteration # 42     ecut=    29.40 Ry     beta= 0.05
     Davidson diagonalization with overlap
     ethr =  9.77E-11,  avg # of iterations =  7.2

[...]

     total energy              =   -2899.02555479 Ry
     estimated scf accuracy    <       0.00000013 Ry

     iteration # 45     ecut=    29.40 Ry     beta= 0.05
     Davidson diagonalization with overlap
     c_bands:  1 eigenvalues not converged
     ethr =  2.73E-11,  avg # of iterations =  6.4

     negative rho (up, down):  1.949E-02 0.000E+00

     Adding external electric field

     Computed dipole along edir(3) :
        Dipole                0.4670 Ry au,          1.1869 Debye
        Dipole field          0.0009 Ry au,

        Potential amp.       -0.0817 Ry
        Total length         46.3494 bohr

     End of self-consistent calculation

          k = 0.0000 0.0000 0.0000 ( 18029 PWs)   bands (ev):

   -56.2368 -56.2160 -56.2002 -56.1797 -56.1267 -56.1253 -56.0889 -56.0735
   -56.0038 -55.9975 -55.9650 -55.9613 -55.8919 -55.8702 -55.2535 -55.2194
   -32.7805 -32.7043 -32.6038 -32.5747 -32.5419 -32.5277 -32.5041 -32.4737
   -32.4641 -32.4596 -32.4451 -32.4421 -32.4382 -32.3984 -32.3974 -32.3633
   -32.3602 -32.3576 -32.3424 -32.3265 -32.3063 -32.3022 -32.2914 -32.2759
   -32.2741 -32.2543 -32.2498 -32.2403 -32.2322 -32.2252 -32.2174 -32.1894
   -32.1654 -32.1566 -32.1388 -32.1315 -32.1098 -32.0982 -32.0907 -32.0799
   -32.0757 -31.9723 -31.6637 -31.5657 -31.5434 -31.4802 -31.3941 -31.2831
   -16.9848 -16.6860 -16.5418 -16.3931 -16.3653 -16.2465 -16.0645 -15.9287
   -15.9145 -15.8399 -15.8120 -15.8067 -15.7763 -15.7585 -15.7500 -15.7432
   -15.6898 -15.6857 -15.6504 -15.6401 -15.6102 -15.5362 -15.5127 -15.4529
   -15.4115 -15.3552 -15.2597 -15.2315 -15.1977 -13.7545 -13.6361  -9.4694
    -4.3415  -4.1726  -4.1470  -4.1282  -4.0438  -3.8052  -3.7873  -3.5390
    -3.4181  -3.3973  -3.3728  -3.3680  -3.3185  -3.1797  -3.0908  -3.0649
    -3.0632  -3.0509  -3.0224  -3.0153  -2.9832  -2.9803  -2.9472  -2.9256
    -2.8972  -2.7307  -2.6536  -2.6474  -2.5855  -2.5379  -2.5226  -2.5034
    -2.4678  -2.4582  -2.4428  -2.4275  -2.3749  -2.2874  -2.2410  -2.1463
    -2.0668  -2.0363  -1.9451  -1.8543  -1.7796  -1.6888  -1.6618  -1.6363
    -1.5594  -1.5537  -1.4864  -1.4405  -1.4247  -1.3309  -1.2666  -1.2345
    -1.1350  -1.0951  -1.0043  -0.9887  -0.9750  -0.9587  -0.9464  -0.7693
    -0.7216  -0.6990  -0.6906  -0.5704  -0.5577  -0.5327  -0.5013  -0.4432
    -0.4035  -0.3491  -0.3183  -0.2726  -0.2545  -0.2485  -0.2322  -0.2085
    -0.1278  -0.0491  -0.0306   0.0630   0.1148   0.2363   0.3024   0.4076
     0.4948   0.6730   0.7708   0.8148   0.8484   0.9388   1.3605   1.4230
     2.9522   2.9940   3.0188   3.0534   3.0655   3.2226   3.3282   3.4052
     3.4072   3.4470

[...]

          k = 0.0380-0.0419 0.0000 ( 17876 PWs)   bands (ev):

[...]

          k =-0.0760-0.0000 0.0000 ( 17886 PWs)   bands (ev):

[...]

          k =-0.0760-0.0839 0.0000 ( 17948 PWs)   bands (ev):

   -56.2252 -56.2117 -56.1986 -56.1969 -56.1204 -56.1152 -56.0990 -56.0796
   -55.9996 -55.9823 -55.9816 -55.9585 -55.8946 -55.8729 -55.2370 -55.2359
   -32.5840 -32.5813 -32.5278 -32.5170 -32.5132 -32.5098 -32.4955 -32.4885
   -32.4529 -32.4368 -32.4255 -32.4215 -32.3916 -32.3724 -32.3654 -32.3568
   -32.3543 -32.3517 -32.3431 -32.3402 -32.3260 -32.3200 -32.3147 -32.3104
   -32.2995 -32.2991 -32.2972 -32.2767 -32.2432 -32.2410 -32.2357 -32.2275
   -32.2012 -32.1848 -32.1838 -32.1753 -32.1635 -32.1351 -32.1269 -32.1193
   -32.0895 -32.0211 -31.5567 -31.5554 -31.4771 -31.4762 -31.4377 -31.4368
   -16.4200 -16.3951 -16.1658 -16.1566 -16.1488 -16.0842 -15.9990 -15.9771
   -15.9603 -15.9561 -15.9015 -15.8828 -15.8742 -15.8378 -15.7800 -15.7717
   -15.7643 -15.7409 -15.6896 -15.6833 -15.6282 -15.6026 -15.5876 -15.5838
   -15.5655 -15.5611 -15.4634 -15.4199 -15.3864 -13.7384 -13.7363  -9.4851
    -3.7126  -3.6810  -3.4169  -3.3711  -3.3658  -3.2867  -3.2035  -3.1731
    -3.1481  -3.1375  -3.0840  -3.0753  -3.0730  -3.0686  -3.0383  -3.0282
    -3.0040  -2.9924  -2.9873  -2.9747  -2.9299  -2.8658  -2.8575  -2.8567
    -2.8454  -2.8000  -2.7900  -2.7829  -2.7638  -2.7630  -2.7086  -2.5108
    -2.4909  -2.4347  -2.3777  -2.3578  -2.3311  -2.3215  -2.2957  -2.2713
    -2.2058  -2.1365  -2.0178  -1.9794  -1.9562  -1.9414  -1.8875  -1.8381
    -1.7222  -1.6818  -1.6556  -1.6371  -1.5712  -1.4980  -1.4729  -1.4579
    -1.3743  -1.3471  -1.3051  -1.2408  -1.2041  -1.1909  -1.1397  -1.1267
    -1.0407  -0.9805  -0.9448  -0.9011  -0.8906  -0.8572  -0.8086  -0.7579
    -0.7449  -0.6841  -0.6222  -0.5235  -0.3157  -0.2300  -0.2209  -0.1786
    -0.1206  -0.0956   0.0128   0.0466   0.0611   0.1551   0.2212   0.2872
     0.3046   0.3297   0.3974   0.8903   1.1309   1.1317   1.2234   1.2338
     3.1565   3.1665   3.1961   3.2634   3.4098   3.4158   3.4352   3.4406
     3.5333   3.5837

     the Fermi energy is     2.9194 ev

!    total energy              =   -2899.02571532 Ry
     estimated scf accuracy    <       0.00000007 Ry
     smearing contrib. (-TS)   =      -0.02330287 Ry
     internal energy E=F+TS    =   -2899.00241245 Ry

     The total energy is F=E-TS. E is the sum of the following terms:
     one-electron contribution =  -24814.57289023 Ry
     hartree contribution      =   12486.22924969 Ry
     xc contribution           =    -474.69570075 Ry
     ewald contribution        =    9904.03651733 Ry
     electric field correction =       0.00041152 Ry

     convergence has been achieved in  45 iterations

     Forces acting on atoms (cartesian axes, Ry/au):

     atom    1 type  1   force =    -0.00012856   -0.00194109    0.10693982
     atom    2 type  1   force =    -0.00037762    0.00069312   -0.18020544
     atom    3 type  2   force =     0.00035354   -0.00663792   -0.03350599
     atom    4 type  2   force =     0.00056938   -0.00063287    0.04568154
     atom    5 type  2   force =    -0.01962161   -0.00121573    0.00434775
     atom    6 type  2   force =     0.02145591   -0.00007059    0.00423225
     atom    7 type  1   force =    -0.00029257    0.00035013   -0.00014308
     atom    8 type  1   force =    -0.00049343    0.00048520    0.00014860
     atom    9 type  2   force =    -0.00004631   -0.00039062   -0.00055607
     atom   10 type  2   force =     0.00010180    0.00045931   -0.00038969
     atom   11 type  2   force =     0.00014309   -0.00002425   -0.00004927
     atom   12 type  2   force =     0.00026058   -0.00015002   -0.00005045
     atom   13 type  1   force =    -0.00055956    0.00008651    0.00068422
     atom   14 type  1   force =    -0.00057261    0.00015927    0.00002449
     atom   15 type  2   force =    -0.00002950    0.00035101   -0.00023533
     atom   16 type  2   force =    -0.00003178   -0.00003914    0.00049015
     atom   17 type  2   force =    -0.00096396   -0.00092065   -0.00028315
     atom   18 type  2   force =     0.00073757   -0.00076166   -0.00034615
     atom   19 type  1   force =    -0.00019958    0.00043040   -0.00035939
     atom   20 type  1   force =     0.00038883    0.00074857    0.00055518
     atom   21 type  2   force =     0.00000432    0.00003068    0.10432205
     atom   22 type  2   force =    -0.00006288   -0.00029950   -0.00071931
     atom   23 type  2   force =    -0.06878309    0.00083790   -0.02966052
     atom   24 type  2   force =     0.06854054    0.00129735   -0.02973532
     atom   25 type  1   force =    -0.00010716    0.00130991    0.11810074
     atom   26 type  1   force =    -0.00021308   -0.00066816   -0.18051677
     atom   27 type  2   force =     0.00055785    0.00239582   -0.02741628
     atom   28 type  2   force =     0.00073210   -0.00049168    0.04719760
     atom   29 type  2   force =    -0.01935571    0.00075432    0.00374940
     atom   30 type  2   force =     0.01930243    0.00249328    0.00343295
     atom   31 type  1   force =    -0.00008324   -0.00073604    0.00035044
     atom   32 type  1   force =    -0.00042356    0.00003967    0.00035199
     atom   33 type  2   force =    -0.00013328    0.00036193   -0.00073875
     atom   34 type  2   force =    -0.00007780    0.00003990   -0.00016688
     atom   35 type  2   force =     0.00042487    0.00022836   -0.00043382
     atom   36 type  2   force =    -0.00079615    0.00002457   -0.00041951
     atom   37 type  1   force =    -0.00055788    0.00051642    0.00062461
     atom   38 type  1   force =     0.00014959   -0.00042841    0.00035198
     atom   39 type  2   force =    -0.00030845   -0.00014742   -0.00023687
     atom   40 type  2   force =    -0.00004175    0.00077920    0.00059993
     atom   41 type  2   force =    -0.00019114    0.00121449   -0.00016632
     atom   42 type  2   force =     0.00039923    0.00126328   -0.00041191
     atom   43 type  1   force =    -0.00015122    0.00064793   -0.00022108
     atom   44 type  1   force =     0.00041668   -0.00000078    0.00010751
     atom   45 type  2   force =    -0.00000345    0.00005621    0.10433128
     atom   46 type  2   force =    -0.06831859   -0.00103566   -0.02972118
     atom   47 type  2   force =     0.06817360   -0.00065180   -0.02976229
     atom   48 type  3   force =    -0.00816035   -0.00403205    0.00375763
     atom   49 type  4   force =     0.00003553   -0.00071058   -0.00001438
     atom   50 type  4   force =    -0.00100597    0.00006461    0.00023202
     atom   51 type  4   force =     0.00934440    0.00386723   -0.00414890

     Total force =     0.377677     Total SCF correction =     0.000613
  @ DRIVER MODE: Message from server: STATUS
  @ DRIVER MODE: Message from server: GETFORCE
  @ DRIVER MODE: Returning v,forces,stress,ensemble

     Writing output data file ./calc.save/
  @ DRIVER MODE: Message from server: EXIT
  @ DRIVE MODE: Exiting

     General routines

     Parallel routines

   This run was terminated on:  18:40:29  18Aug2021

   JOB DONE.