     Program PWSCF v.6.7GPU starts on  9Sep2021 at 12:54:16

     R & G space division:  proc/nbgrp/npool/nimage =      10
     Reading input from /storage/home/hcoda1/3/ntian30/research/carbon/CxH_vib/CH3_calc/ads_slab/CH3NNH3_a/out_0046/pw.inp
Warning: card &CELL ignored
Warning: card   CELL_DYNAMICS='IPI', ignored
Warning: card / ignored

     Current dimensions of program PWSCF are:
     Max number of different atomic species (ntypx) = 10
     Max number of k-points (npk) =  40000
     Max angular momentum in pseudopotentials (lmaxx) =  3
     Presently no symmetry can be used with electric field

     Message from routine cell_base_init:
     DEPRECATED: use true lattice parameter, not A to a.u. conversion factor

     IMPORTANT: XC functional enforced from input :
     Exchange-correlation= BEEF-VDW
                           (   1   4  43  14   2   0   0)
     Any further DFT definition will be discarded
     Please, verify this is what you really want

  @ DRIVER MODE: Connecting to
 qe_1139763_2767402.sched-torque.pace.gatech.eduofmqiofp_scratch
  using UNIX socket
  @ DRIVER MODE: Message from server: STATUS
  @ DRIVER MODE: Message from server: INIT
  @ DRIVER MODE: Receiving replica           0          -1
  @ DRIVER MODE: Receiving encoded integer          25
  @ DRIVER MODE:  SCF:  T  FORCE:  T  STRESS:  F  VC:  F  ENSEMBLE:  F
  @ DRIVER MODE:  SCF:  T  FORCE:  T  STRESS:  F  VC:  F  ENSEMBLE:  F

     Using Slab Decomposition

     bravais-lattice index     =            0
     lattice parameter (alat)  =       1.8897  a.u.
     unit-cell volume          =    6658.9804 (a.u.)^3
     number of atoms/cell      =           56
     number of atomic types    =            5
     number of electrons       =       398.00
     number of Kohn-Sham states=          209
     kinetic-energy cutoff     =      29.3995  Ry
     charge density cutoff     =     293.9946  Ry
     scf convergence threshold =      7.3E-08
     mixing beta               =       0.0500
     number of iterations used =            8  plain     mixing
     Exchange-correlation= BEEF-VDW
                           (   1   4  43  14   2   0   0)

     celldm(1)=   1.889726  celldm(2)=   0.000000  celldm(3)=   0.000000
     celldm(4)=   0.000000  celldm(5)=   0.000000  celldm(6)=   0.000000

     crystal axes: (cart. coord. in units of alat)
               a(1) = (   6.579727   0.000000   0.000000 )
               a(2) = (  -0.000775   5.961596   0.000000 )
               a(3) = (   0.000000   0.000000  25.155947 )

     reciprocal axes: (cart. coord. in units 2 pi/alat)
               b(1) = (  0.151982  0.000020  0.000000 )
               b(2) = (  0.000000  0.167740  0.000000 )
               b(3) = (  0.000000  0.000000  0.039752 )

     PseudoPot. # 1 for Ti read from file:
     /storage/coda1/p-amedford6/0/shared/rich_project_chbe-medford/medford-share/data/pseudos_module/espresso/nninc/pbe/van/Ti.UPF
     MD5 check sum: 8e4df49b7f0d34bbd5052bf3f5ea0213
     Pseudo is Ultrasoft, Zval = 12.0
     Generated by new atomic code, or converted to UPF format
     Using radial grid of  851 points,  6 beta functions with:
                l(1) =   0
                l(2) =   0
                l(3) =   1
                l(4) =   1
                l(5) =   2
                l(6) =   2
     Q(r) pseudized with  8 coefficients,  rinner =    1.000   1.000   1.000
                                                       1.000   1.000

     PseudoPot. # 2 for O  read from file:
     /storage/coda1/p-amedford6/0/shared/rich_project_chbe-medford/medford-share/data/pseudos_module/espresso/nninc/pbe/van/O.UPF
     MD5 check sum: 78c19812648e8988a0fe644b0f25305e
     Pseudo is Ultrasoft, Zval =  6.0
     Generated by new atomic code, or converted to UPF format
     Using radial grid of  737 points,  4 beta functions with:
                l(1) =   0
                l(2) =   0
                l(3) =   1
                l(4) =   1
     Q(r) pseudized with  8 coefficients,  rinner =    0.800   0.800   0.800

     PseudoPot. # 3 for N  read from file:
     /storage/coda1/p-amedford6/0/shared/rich_project_chbe-medford/medford-share/data/pseudos_module/espresso/nninc/pbe/van/N.UPF
     MD5 check sum: 90d10febe142ad51ac9d5be1deb811c4
     Pseudo is Ultrasoft, Zval =  5.0
     Generated by new atomic code, or converted to UPF format
     Using radial grid of  729 points,  4 beta functions with:
                l(1) =   0
                l(2) =   0
                l(3) =   1
                l(4) =   1
     Q(r) pseudized with  8 coefficients,  rinner =    0.800   0.800   0.800

     PseudoPot. # 4 for C  read from file:
     /storage/coda1/p-amedford6/0/shared/rich_project_chbe-medford/medford-share/data/pseudos_module/espresso/nninc/pbe/van/C.UPF
     MD5 check sum: 1a69bf6b8db32088f5b2163dbdb77a27
     Pseudo is Ultrasoft, Zval =  4.0
     Generated by new atomic code, or converted to UPF format
     Using radial grid of  721 points,  4 beta functions with:
                l(1) =   0
                l(2) =   0
                l(3) =   1
                l(4) =   1
     Q(r) pseudized with  8 coefficients,  rinner =    0.800   0.800   0.800

     PseudoPot. # 5 for H  read from file:
     /storage/coda1/p-amedford6/0/shared/rich_project_chbe-medford/medford-share/data/pseudos_module/espresso/nninc/pbe/van/H.UPF
     MD5 check sum: b5ee9d7bfd3a09ee7748110bda690ff7
     Pseudo is Ultrasoft, Zval =  1.0
     Generated by new atomic code, or converted to UPF format
     Using radial grid of  615 points,  1 beta functions with:
                l(1) =   0
     Q(r) pseudized with  8 coefficients,  rinner =    0.800

     atomic species   valence    mass     pseudopotential
        Ti1           12.00    47.86700     Ti( 1.00)
        O1             6.00    15.99900     O ( 1.00)
        N1             5.00    14.00700     N ( 1.00)
        C1             4.00    12.01100     C ( 1.00)
        H1             1.00     1.00800     H ( 1.00)

     No symmetry found

   Cartesian axes

     site n.     atom                  positions (alat units)
         1           Ti1 tau(   1) = (   0.0004258   2.9801865   6.0000000  )
         2           Ti1 tau(   2) = (   3.2906075   1.4906267   6.0002472  )
         3           O1  tau(   3) = (   0.0006271   0.0005054   7.9858123  )
         4           O1  tau(   4) = (   3.2906025   0.0005020   7.3038282  )
         5           O1  tau(   5) = (   4.5942328   1.4918067   9.2879030  )
         6           O1  tau(   6) = (   1.9868534   1.4903216   9.2879459  )
         7           Ti1 tau(   7) = (   3.2907910   2.8959150   9.1758416  )
         8           Ti1 tau(   8) = (   0.0015273   1.4827037   9.2680791  )
         9           O1  tau(   9) = (   3.2915376   0.0135470  11.3011085  )
        10           O1  tau(  10) = (   0.0116148   5.9584955  10.6183126  )
        11           O1  tau(  11) = (   1.3264285   1.5112823  12.6233503  )
        12           O1  tau(  12) = (   5.3038506   1.5117067  12.6402039  )
        13           Ti1 tau(  13) = (   6.4820107   2.9926285  12.7699842  )
        14           Ti1 tau(  14) = (   3.1705855   1.5046985  12.4703807  )
        15           O1  tau(  15) = (   0.0265921   0.0018185  14.6022993  )
        16           O1  tau(  16) = (   3.3077976   0.0231332  13.8844522  )
        17           O1  tau(  17) = (   4.5431088   1.5356983  16.0582573  )
        18           O1  tau(  18) = (   2.0919096   1.5355568  16.0602035  )
        19           Ti1 tau(  19) = (   3.3160089   3.0194793  15.6930983  )
        20           Ti1 tau(  20) = (   0.0166562   1.5958061  16.1043543  )
        21           O1  tau(  21) = (   3.2904802   0.0005063   4.7018136  )
        22           O1  tau(  22) = (   0.0292894   0.0555714  17.2141426  )
        23           O1  tau(  23) = (   1.3043587   1.4918075   6.0039043  )
        24           O1  tau(  24) = (   5.2767064   1.4903225   6.0039473  )
        25           Ti1 tau(  25) = (   0.0000382   5.9609847   6.0000000  )
        26           Ti1 tau(  26) = (   3.2902200   4.4714249   6.0002472  )
        27           O1  tau(  27) = (   0.0002396   2.9813036   7.9858123  )
        28           O1  tau(  28) = (   3.2902150   2.9813002   7.3038282  )
        29           O1  tau(  29) = (   4.5938453   4.4726049   9.2879030  )
        30           O1  tau(  30) = (   1.9864658   4.4711199   9.2879459  )
        31           Ti1 tau(  31) = (   3.2891106   5.8743827   9.1763621  )
        32           Ti1 tau(  32) = (   0.0006254   4.4649316   9.2693709  )
        33           O1  tau(  33) = (   3.2938734   2.9940915  11.3014364  )
        34           O1  tau(  34) = (   0.0092240   2.9805883  10.6323155  )
        35           O1  tau(  35) = (   1.3265148   4.4779228  12.6213786  )
        36           O1  tau(  36) = (   5.3043665   4.4729268  12.6387898  )
        37           Ti1 tau(  37) = (   6.5102921   0.0103953  12.7821347  )
        38           Ti1 tau(  38) = (   3.1702703   4.4844908  12.4724723  )
        39           O1  tau(  39) = (   0.0044238   2.9856840  14.6711682  )
        40           O1  tau(  40) = (   3.3052367   3.0047533  13.8869641  )
        41           O1  tau(  41) = (   4.5463945   4.5179403  16.0573015  )
        42           O1  tau(  42) = (   2.0913021   4.5186677  16.0620504  )
        43           Ti1 tau(  43) = (   3.3128124   0.0388915  15.6953448  )
        44           Ti1 tau(  44) = (   0.0191476   4.5695365  16.1495174  )
        45           O1  tau(  45) = (   3.2900926   2.9813045   4.7018136  )
        46           O1  tau(  46) = (   1.3039711   4.4726057   6.0039043  )
        47           O1  tau(  47) = (   5.2763189   4.4711207   6.0039473  )
        48           N1  tau(  48) = (   0.0657769   3.0188755  17.3428317  )
        49           N1  tau(  49) = (   6.3710133   2.5762042  22.6422586  )
        50           C1  tau(  50) = (   0.3130180   3.0007025  18.7658599  )
        51           H1  tau(  51) = (   0.2928038   4.0066326  19.1970245  )
        52           H1  tau(  52) = (   6.1505335   2.3845869  19.2855718  )
        53           H1  tau(  53) = (   1.2957935   2.5555442  18.9776258  )
        54           H1  tau(  54) = (   5.9555952   3.1943721  23.3306195  )
        55           H1  tau(  55) = (   0.0098814   1.7153999  23.1148127  )
        56           H1  tau(  56) = (   0.6724875   2.9916800  22.3598805  )

     number of k points=    10  Fermi-Dirac smearing, width (Ry)=  0.0073
                       cart. coord. in units 2pi/alat
        k(    1) = (   0.0000000   0.0000000   0.0000000), wk =   0.1250000
        k(    2) = (   0.0000000   0.0419351   0.0000000), wk =   0.2500000
        k(    3) = (   0.0000000  -0.0838702   0.0000000), wk =   0.1250000
        k(    4) = (   0.0379955   0.0000049   0.0000000), wk =   0.2500000
        k(    5) = (   0.0379955   0.0419400   0.0000000), wk =   0.2500000
        k(    6) = (   0.0379955  -0.0838652   0.0000000), wk =   0.2500000
        k(    7) = (   0.0379955  -0.0419301   0.0000000), wk =   0.2500000
        k(    8) = (  -0.0759910  -0.0000099   0.0000000), wk =   0.1250000
        k(    9) = (  -0.0759910   0.0419252   0.0000000), wk =   0.2500000
        k(   10) = (  -0.0759910  -0.0838800   0.0000000), wk =   0.1250000

     Initial potential from superposition of free atoms

     starting charge  381.99914, renormalised to  398.00000

     negative rho (up, down):  7.232E-03 0.000E+00

     %%%%%%%%%%%%%%%%%%%%%%%%%%%%%%%%%%%%%%%%%%%%%%%%%%%%%%%%%%%%%%%%%%%%%%%%
     %                                                                      %
     % You are using vdW-DF, which was implemented by the Thonhauser group. %
     % Please cite the following two papers that made this development      %
     % possible and the two reviews that describe the various versions:     %
     %                                                                      %
     %   T. Thonhauser et al., PRL 115, 136402 (2015).                      %
     %   T. Thonhauser et al., PRB 76, 125112 (2007).                       %
     %   K. Berland et al., Rep. Prog. Phys. 78, 066501 (2015).             %
     %   D.C. Langreth et al., J. Phys.: Condens. Matter 21, 084203 (2009). %
     %                                                                      %
     %                                                                      %
     % If you are calculating the stress with vdW-DF, please also cite:     %
     %                                                                      %
     %   R. Sabatini et al., J. Phys.: Condens. Matter 24, 424209 (2012).   %
     %                                                                      %
     %%%%%%%%%%%%%%%%%%%%%%%%%%%%%%%%%%%%%%%%%%%%%%%%%%%%%%%%%%%%%%%%%%%%%%%%

     Adding external electric field

     Computed dipole along edir(3) :
        Dipole              -12.0378 Ry au,        -30.5970 Debye
        Dipole field         -0.0227 Ry au,

        Potential amp.        2.1058 Ry
        Total length         46.3494 bohr

     Starting wfcs are  302 atomic wfcs
  @ DRIVER MODE: Message from server: STATUS
  @ DRIVER MODE: Message from server: POSDATA
  @ DRIVER MODE: Reading and sharing cell
  @ DRIVER MODE: Reading and sharing positions
  @ DRIVER MODE: Received positions

     Self-consistent Calculation

     iteration #  1     ecut=    29.40 Ry     beta= 0.05
     Davidson diagonalization with overlap
     c_bands:  1 eigenvalues not converged
     c_bands:  1 eigenvalues not converged
     c_bands:  1 eigenvalues not converged
     c_bands:  1 eigenvalues not converged
     c_bands:  1 eigenvalues not converged
     c_bands:  1 eigenvalues not converged
     c_bands:  1 eigenvalues not converged
     c_bands:  2 eigenvalues not converged
     c_bands:  1 eigenvalues not converged
     ethr =  1.00E-05,  avg # of iterations = 19.6

[...]

     total energy              =   -2520.01152183 Ry
     estimated scf accuracy    <    4725.49333480 Ry

     iteration #  2     ecut=    29.40 Ry     beta= 0.05
     Davidson diagonalization with overlap
     ethr =  1.00E-02,  avg # of iterations = 21.7

[...]

     iteration # 55     ecut=    29.40 Ry     beta= 0.05
     Davidson diagonalization with overlap
     c_bands:  1 eigenvalues not converged
     ethr =  7.25E-07,  avg # of iterations = 11.0

[...]

     total energy              =   -2942.90429077 Ry
     estimated scf accuracy    <       0.00000011 Ry

     iteration # 84     ecut=    29.40 Ry     beta= 0.05
     Davidson diagonalization with overlap
     ethr =  2.69E-11,  avg # of iterations =  5.5

     negative rho (up, down):  9.764E-03 0.000E+00

     Adding external electric field

     Computed dipole along edir(3) :
        Dipole                0.6815 Ry au,          1.7322 Debye
        Dipole field          0.0013 Ry au,

        Potential amp.       -0.1192 Ry
        Total length         46.3494 bohr

     End of self-consistent calculation

          k = 0.0000 0.0000 0.0000 ( 18029 PWs)   bands (ev):

   -56.5047 -56.4711 -55.6130 -55.6041 -55.5777 -55.5716 -55.4748 -55.4393
   -55.2600 -55.2249 -55.1685 -55.1619 -55.1346 -55.0493 -54.6094 -54.5661
   -32.9322 -32.7785 -32.7503 -32.6816 -32.5906 -32.5583 -32.0922 -32.0706
   -32.0162 -31.9008 -31.8598 -31.8204 -31.8181 -31.7846 -31.7557 -31.7547
   -31.7532 -31.7355 -31.7246 -31.7206 -31.6996 -31.6834 -31.6572 -31.6435
   -31.6305 -31.6102 -31.6036 -31.5798 -31.5607 -31.5069 -31.4916 -31.4828
   -31.4037 -31.3989 -31.3793 -31.3353 -31.3272 -31.2958 -31.2791 -31.2553
   -31.2362 -31.1851 -31.1366 -30.8538 -30.8301 -30.8129 -30.7877 -30.6677
   -16.6662 -16.2243 -15.9961 -15.8661 -15.7927 -15.7442 -15.6912 -15.5749
   -15.4977 -15.4951 -15.4580 -15.4215 -15.3521 -15.2093 -15.1115 -15.0549
   -15.0128 -14.8982 -14.8321 -14.8054 -14.7954 -14.7640 -14.7464 -14.5479
   -14.5042 -14.4137 -14.4045 -14.2677 -14.0653 -14.0322 -13.6668 -13.5568
   -12.6979  -7.4293  -4.2333  -4.1135  -4.0847  -3.7204  -3.4785  -3.3923
    -3.2893  -3.2770  -3.2034  -3.0840  -3.0309  -2.9850  -2.8703  -2.8677
    -2.7249  -2.7062  -2.6797  -2.6690  -2.6323  -2.5854  -2.5555  -2.5081
    -2.5027  -2.4937  -2.3400  -2.2427  -2.1762  -2.1478  -2.1327  -2.1033
    -2.0277  -2.0029  -1.9919  -1.9837  -1.8953  -1.7462  -1.7404  -1.7123
    -1.6673  -1.6670  -1.6233  -1.6119  -1.4706  -1.3956  -1.2855  -1.2800
    -1.2436  -1.1766  -1.1746  -1.0718  -1.0019  -0.9498  -0.9111  -0.8052
    -0.7614  -0.7351  -0.6497  -0.5790  -0.5453  -0.5291  -0.5059  -0.4085
    -0.3915  -0.3687  -0.2855  -0.2760  -0.2278  -0.1400  -0.1193  -0.1156
    -0.0276  -0.0195   0.0824   0.1190   0.1610   0.1891   0.2790   0.3078
     0.4088   0.4525   0.4683   0.5904   0.6078   0.6672   0.7425   0.8042
     0.8245   0.8532   0.8855   0.8962   0.9782   1.0980   1.1026   1.1296
     1.2055   1.2521   1.4071   1.4460   1.7306   1.7423   2.4152   2.7705
     2.9322   3.2308   3.4317   3.5384   3.7477   3.7613   3.7671   3.9438
     3.9942

[...]

          k = 0.0380-0.0419 0.0000 ( 17876 PWs)   bands (ev):

[...]

          k =-0.0760-0.0000 0.0000 ( 17886 PWs)   bands (ev):

[...]

          k =-0.0760-0.0839 0.0000 ( 17948 PWs)   bands (ev):

   -56.4880 -56.4877 -55.5949 -55.5941 -55.5913 -55.5858 -55.4590 -55.4549
   -55.2449 -55.2398 -55.1592 -55.1515 -55.1514 -55.0519 -54.6003 -54.5751
   -32.7643 -32.7640 -32.7492 -32.7489 -32.6347 -32.6344 -31.9210 -31.9186
   -31.8953 -31.8890 -31.8504 -31.8495 -31.8074 -31.8049 -31.8047 -31.8038
   -31.7817 -31.7797 -31.7783 -31.7746 -31.7102 -31.7067 -31.6614 -31.6558
   -31.5955 -31.5871 -31.5273 -31.5226 -31.4958 -31.4957 -31.4883 -31.4437
   -31.4427 -31.4114 -31.3771 -31.3769 -31.3727 -31.3378 -31.3377 -31.3308
   -31.2950 -31.2570 -30.9988 -30.9262 -30.8263 -30.7990 -30.7951 -30.7531
   -16.0130 -16.0111 -15.9813 -15.9810 -15.7067 -15.7031 -15.6557 -15.6537
   -15.4843 -15.4780 -15.2681 -15.2597 -15.2556 -15.2515 -15.1234 -15.1168
   -15.0586 -15.0411 -14.9577 -14.9535 -14.8918 -14.8816 -14.8458 -14.8274
   -14.5062 -14.4852 -14.3669 -14.3485 -14.2134 -14.0315 -13.6603 -13.6602
   -12.7143  -7.4199  -4.1271  -4.0854  -3.1133  -3.1127  -3.0418  -3.0408
    -2.9185  -2.9134  -2.8452  -2.8445  -2.7340  -2.7316  -2.6788  -2.5992
    -2.5977  -2.5953  -2.5759  -2.5561  -2.4442  -2.4367  -2.4242  -2.4056
    -2.3603  -2.3573  -2.3475  -2.2669  -2.2530  -2.2169  -2.1770  -2.0708
    -2.0586  -2.0438  -2.0141  -1.9532  -1.9429  -1.9278  -1.8785  -1.8615
    -1.7781  -1.7226  -1.6598  -1.5527  -1.5484  -1.5390  -1.5268  -1.3717
    -1.3324  -1.3042  -1.2980  -1.2891  -1.2448  -1.1463  -1.1388  -0.9966
    -0.9962  -0.9242  -0.8438  -0.8281  -0.7979  -0.6675  -0.6245  -0.5840
    -0.5775  -0.5554  -0.5312  -0.5112  -0.4786  -0.3326  -0.3203  -0.2896
    -0.2491  -0.2414  -0.1948  -0.1274  -0.0397   0.0236   0.0252   0.0892
     0.1522   0.2120   0.2926   0.3082   0.3132   0.5942   0.6773   0.7652
     0.8415   0.9091   0.9736   0.9955   1.0644   1.0961   1.1283   1.2334
     1.2374   1.2545   1.2549   1.3260   1.3280   1.7076   2.3071   3.3446
     3.3449   3.4130   3.4134   3.7372   3.7428   3.8531   3.8634   3.9733
     3.9772

     the Fermi energy is     2.6032 ev

!    total energy              =   -2942.90429705 Ry
     estimated scf accuracy    <       0.00000004 Ry
     smearing contrib. (-TS)   =      -0.00455259 Ry
     internal energy E=F+TS    =   -2942.89974446 Ry

     The total energy is F=E-TS. E is the sum of the following terms:
     one-electron contribution =  -23043.07346471 Ry
     hartree contribution      =   11612.15953081 Ry
     xc contribution           =    -487.44949675 Ry
     ewald contribution        =    8975.46280977 Ry
     electric field correction =       0.00087643 Ry

     convergence has been achieved in  84 iterations

     Forces acting on atoms (cartesian axes, Ry/au):

     atom    1 type  1   force =     0.00000772   -0.00050386    0.12496071
     atom    2 type  1   force =    -0.00013138   -0.00063393   -0.16061491
     atom    3 type  2   force =     0.00017162   -0.00022233   -0.06935665
     atom    4 type  2   force =    -0.00004196   -0.00027859    0.02763945
     atom    5 type  2   force =    -0.01718645    0.00222284   -0.00888981
     atom    6 type  2   force =     0.01886932    0.00287417   -0.00921083
     atom    7 type  1   force =     0.00088186   -0.00376251    0.02232015
     atom    8 type  1   force =    -0.00036589   -0.00328125    0.11351519
     atom    9 type  2   force =     0.00050383   -0.00039647    0.00004167
     atom   10 type  2   force =    -0.00234599    0.00260132   -0.07317657
     atom   11 type  2   force =     0.00013643   -0.00095028   -0.00010111
     atom   12 type  2   force =    -0.00000976   -0.00058149   -0.00002424
     atom   13 type  1   force =     0.00019708   -0.00018680   -0.00028920
     atom   14 type  1   force =    -0.00007781   -0.00053652   -0.00002807
     atom   15 type  2   force =    -0.00035232   -0.00099469    0.00085048
     atom   16 type  2   force =    -0.00013119   -0.00016746    0.00046913
     atom   17 type  2   force =     0.00089381   -0.00042885   -0.00033381
     atom   18 type  2   force =    -0.00058887   -0.00046349   -0.00030049
     atom   19 type  1   force =    -0.00024625    0.00006481   -0.00053985
     atom   20 type  1   force =     0.00054311   -0.00088188   -0.00097126
     atom   21 type  2   force =     0.00005275   -0.00006229    0.09969577
     atom   22 type  2   force =     0.00015145   -0.00038365   -0.00093964
     atom   23 type  2   force =    -0.07922039   -0.00005988   -0.03252133
     atom   24 type  2   force =     0.07907697    0.00037170   -0.03254714
     atom   25 type  1   force =     0.00002752   -0.00049610    0.12430844
     atom   26 type  1   force =    -0.00012902   -0.00048059   -0.16062377
     atom   27 type  2   force =     0.00028229   -0.00044396   -0.06836056
     atom   28 type  2   force =     0.00000366   -0.00013655    0.02749786
     atom   29 type  2   force =    -0.01764503    0.00173307   -0.00896376
     atom   30 type  2   force =     0.01921957    0.00199681   -0.00930078
     atom   31 type  1   force =     0.00080660   -0.00116904    0.02193891
     atom   32 type  1   force =    -0.00029430    0.00070949    0.11415159
     atom   33 type  2   force =    -0.00007766    0.00004109   -0.00057770
     atom   34 type  2   force =    -0.00201751    0.00206175   -0.07183945
     atom   35 type  2   force =     0.00002368   -0.00021008    0.00013291
     atom   36 type  2   force =    -0.00052898    0.00020553    0.00022297
     atom   37 type  1   force =     0.00087758    0.00095444   -0.00022153
     atom   38 type  1   force =    -0.00020589    0.00026852   -0.00016365
     atom   39 type  2   force =    -0.00001947   -0.00029621   -0.00000166
     atom   40 type  2   force =    -0.00001015   -0.00019474   -0.00023815
     atom   41 type  2   force =     0.00023313   -0.00042839   -0.00031478
     atom   42 type  2   force =    -0.00000727   -0.00038918   -0.00036420
     atom   43 type  1   force =    -0.00036182    0.00007380   -0.00042226
     atom   44 type  1   force =     0.00006320    0.00093259    0.00031419
     atom   45 type  2   force =     0.00003904   -0.00007156    0.09971080
     atom   46 type  2   force =    -0.07922449   -0.00002723   -0.03252414
     atom   47 type  2   force =     0.07907977    0.00041688   -0.03252599
     atom   48 type  3   force =    -0.00033801    0.00102413   -0.00096597
     atom   49 type  3   force =    -0.00323736    0.01110729   -0.00521522
     atom   50 type  4   force =    -0.00008859    0.00056124    0.00144472
     atom   51 type  5   force =    -0.00051016   -0.00047758   -0.00046707
     atom   52 type  5   force =     0.00000463    0.00020572   -0.00016868
     atom   53 type  5   force =    -0.00013993    0.00043154   -0.00012681
     atom   54 type  5   force =     0.00032409    0.00070824   -0.00069916
     atom   55 type  5   force =     0.00326998   -0.01232548    0.00572950
     atom   56 type  5   force =    -0.00020680    0.00035592   -0.00101424

     Total force =     0.427043     Total SCF correction =     0.000651
  @ DRIVER MODE: Message from server: STATUS
  @ DRIVER MODE: Message from server: GETFORCE
  @ DRIVER MODE: Returning v,forces,stress,ensemble

     Writing output data file ./calc.save/
  @ DRIVER MODE: Message from server: EXIT
  @ DRIVE MODE: Exiting

     General routines

     Parallel routines

   This run was terminated on:  13:15:10   9Sep2021

   JOB DONE.