     Program PWSCF v.6.7GPU starts on 24Aug2021 at 18:40:32

     R & G space division:  proc/nbgrp/npool/nimage =      72
     Reading input from /storage/home/hcoda1/3/ntian30/research/carbon/CH2_vib/ads_slab/CH2NHHH_a/out_0023/pw.inp
Warning: card &CELL ignored
Warning: card   CELL_DYNAMICS='IPI', ignored
Warning: card / ignored

     Current dimensions of program PWSCF are:
     Max number of different atomic species (ntypx) = 10
     Max number of k-points (npk) =  40000
     Max angular momentum in pseudopotentials (lmaxx) =  3
     Presently no symmetry can be used with electric field

     Message from routine cell_base_init:
     DEPRECATED: use true lattice parameter, not A to a.u. conversion factor

     IMPORTANT: XC functional enforced from input :
     Exchange-correlation= BEEF-VDW
                           (   1   4  43  14   2   0   0)
     Any further DFT definition will be discarded
     Please, verify this is what you really want

  @ DRIVER MODE: Connecting to
 qe_1139763_2641440.sched-torque.pace.gatech.eduia9efdbp_scratch
  using UNIX socket
  @ DRIVER MODE: Message from server: STATUS
  @ DRIVER MODE: Message from server: INIT
  @ DRIVER MODE: Receiving replica           0          -1
  @ DRIVER MODE: Receiving encoded integer          25
  @ DRIVER MODE:  SCF:  T  FORCE:  T  STRESS:  F  VC:  F  ENSEMBLE:  F
  @ DRIVER MODE:  SCF:  T  FORCE:  T  STRESS:  F  VC:  F  ENSEMBLE:  F

     Using Slab Decomposition

     bravais-lattice index     =            0
     lattice parameter (alat)  =       1.8897  a.u.
     unit-cell volume          =    6658.9804 (a.u.)^3
     number of atoms/cell      =           54
     number of atomic types    =            5
     number of electrons       =       392.00
     number of Kohn-Sham states=          206
     kinetic-energy cutoff     =      29.3995  Ry
     charge density cutoff     =     293.9946  Ry
     scf convergence threshold =      7.3E-08
     mixing beta               =       0.0500
     number of iterations used =            8  plain     mixing
     Exchange-correlation= BEEF-VDW
                           (   1   4  43  14   2   0   0)

     celldm(1)=   1.889726  celldm(2)=   0.000000  celldm(3)=   0.000000
     celldm(4)=   0.000000  celldm(5)=   0.000000  celldm(6)=   0.000000

     crystal axes: (cart. coord. in units of alat)
               a(1) = (   6.579727   0.000000   0.000000 )
               a(2) = (  -0.000775   5.961596   0.000000 )
               a(3) = (   0.000000   0.000000  25.155947 )

     reciprocal axes: (cart. coord. in units 2 pi/alat)
               b(1) = (  0.151982  0.000020  0.000000 )
               b(2) = (  0.000000  0.167740  0.000000 )
               b(3) = (  0.000000  0.000000  0.039752 )

     PseudoPot. # 1 for Ti read from file:
     /storage/coda1/p-amedford6/0/shared/rich_project_chbe-medford/medford-share/data/pseudos_module/espresso/nninc/pbe/van/Ti.UPF
     MD5 check sum: 8e4df49b7f0d34bbd5052bf3f5ea0213
     Pseudo is Ultrasoft, Zval = 12.0
     Generated by new atomic code, or converted to UPF format
     Using radial grid of  851 points,  6 beta functions with:
                l(1) =   0
                l(2) =   0
                l(3) =   1
                l(4) =   1
                l(5) =   2
                l(6) =   2
     Q(r) pseudized with  8 coefficients,  rinner =    1.000   1.000   1.000
                                                       1.000   1.000

     PseudoPot. # 2 for O  read from file:
     /storage/coda1/p-amedford6/0/shared/rich_project_chbe-medford/medford-share/data/pseudos_module/espresso/nninc/pbe/van/O.UPF
     MD5 check sum: 78c19812648e8988a0fe644b0f25305e
     Pseudo is Ultrasoft, Zval =  6.0
     Generated by new atomic code, or converted to UPF format
     Using radial grid of  737 points,  4 beta functions with:
                l(1) =   0
                l(2) =   0
                l(3) =   1
                l(4) =   1
     Q(r) pseudized with  8 coefficients,  rinner =    0.800   0.800   0.800

     PseudoPot. # 3 for N  read from file:
     /storage/coda1/p-amedford6/0/shared/rich_project_chbe-medford/medford-share/data/pseudos_module/espresso/nninc/pbe/van/N.UPF
     MD5 check sum: 90d10febe142ad51ac9d5be1deb811c4
     Pseudo is Ultrasoft, Zval =  5.0
     Generated by new atomic code, or converted to UPF format
     Using radial grid of  729 points,  4 beta functions with:
                l(1) =   0
                l(2) =   0
                l(3) =   1
                l(4) =   1
     Q(r) pseudized with  8 coefficients,  rinner =    0.800   0.800   0.800

     PseudoPot. # 4 for C  read from file:
     /storage/coda1/p-amedford6/0/shared/rich_project_chbe-medford/medford-share/data/pseudos_module/espresso/nninc/pbe/van/C.UPF
     MD5 check sum: 1a69bf6b8db32088f5b2163dbdb77a27
     Pseudo is Ultrasoft, Zval =  4.0
     Generated by new atomic code, or converted to UPF format
     Using radial grid of  721 points,  4 beta functions with:
                l(1) =   0
                l(2) =   0
                l(3) =   1
                l(4) =   1
     Q(r) pseudized with  8 coefficients,  rinner =    0.800   0.800   0.800

     PseudoPot. # 5 for H  read from file:
     /storage/coda1/p-amedford6/0/shared/rich_project_chbe-medford/medford-share/data/pseudos_module/espresso/nninc/pbe/van/H.UPF
     MD5 check sum: b5ee9d7bfd3a09ee7748110bda690ff7
     Pseudo is Ultrasoft, Zval =  1.0
     Generated by new atomic code, or converted to UPF format
     Using radial grid of  615 points,  1 beta functions with:
                l(1) =   0
     Q(r) pseudized with  8 coefficients,  rinner =    0.800

     atomic species   valence    mass     pseudopotential
        Ti1           12.00    47.86700     Ti( 1.00)
        O1             6.00    15.99900     O ( 1.00)
        N1             5.00    14.00700     N ( 1.00)
        C1             4.00    12.01100     C ( 1.00)
        H1             1.00     1.00800     H ( 1.00)

     No symmetry found

   Cartesian axes

     site n.     atom                  positions (alat units)
         1           Ti1 tau(   1) = (   0.0004258   2.9801865   6.0000000  )
         2           Ti1 tau(   2) = (   3.2906075   1.4906267   6.0002472  )
         3           O1  tau(   3) = (   0.0006271   0.0005054   7.9858123  )
         4           O1  tau(   4) = (   3.2906025   0.0005020   7.3038282  )
         5           O1  tau(   5) = (   4.5942328   1.4918067   9.2879030  )
         6           O1  tau(   6) = (   1.9868534   1.4903216   9.2879459  )
         7           Ti1 tau(   7) = (   3.2907910   2.8959150   9.1758416  )
         8           Ti1 tau(   8) = (   0.0015273   1.4827037   9.2680791  )
         9           O1  tau(   9) = (   3.2947057   0.0061428  11.3716447  )
        10           O1  tau(  10) = (   0.0116148   5.9584955  10.6183126  )
        11           O1  tau(  11) = (   1.2915649   1.4936813  12.6925814  )
        12           O1  tau(  12) = (   5.2970661   1.4944705  12.6810846  )
        13           Ti1 tau(  13) = (   0.0178387   2.9746902  12.5081746  )
        14           Ti1 tau(  14) = (   3.3154821   1.4870708  12.5273966  )
        15           O1  tau(  15) = (   6.5751158   5.8850184  14.6937530  )
        16           O1  tau(  16) = (   3.3021755   5.9482827  13.9948957  )
        17           O1  tau(  17) = (   4.5403780   1.5298489  16.1548813  )
        18           O1  tau(  18) = (   2.0255877   1.5226301  16.1187562  )
        19           Ti1 tau(  19) = (   3.2919084   3.0021400  15.7465462  )
        20           Ti1 tau(  20) = (   0.0121818   1.3098915  15.8601907  )
        21           O1  tau(  21) = (   3.2904802   0.0005063   4.7018136  )
        22           O1  tau(  22) = (   6.5726150   0.1553292  17.2405045  )
        23           O1  tau(  23) = (   1.3043587   1.4918075   6.0039043  )
        24           O1  tau(  24) = (   5.2767064   1.4903225   6.0039473  )
        25           Ti1 tau(  25) = (   0.0000382   5.9609847   6.0000000  )
        26           Ti1 tau(  26) = (   3.2902200   4.4714249   6.0002472  )
        27           O1  tau(  27) = (   0.0002396   2.9813036   7.9858123  )
        28           O1  tau(  28) = (   3.2902150   2.9813002   7.3038282  )
        29           O1  tau(  29) = (   4.5938453   4.4726049   9.2879030  )
        30           O1  tau(  30) = (   1.9864658   4.4711199   9.2879459  )
        31           Ti1 tau(  31) = (   3.2891106   5.8743827   9.1763621  )
        32           Ti1 tau(  32) = (   0.0006254   4.4649316   9.2693709  )
        33           O1  tau(  33) = (   3.2927311   2.9710310  11.3658552  )
        34           O1  tau(  34) = (   0.0092240   2.9805883  10.6323155  )
        35           O1  tau(  35) = (   1.2954064   4.4636889  12.6531092  )
        36           O1  tau(  36) = (   5.2951753   4.4642890  12.6444158  )
        37           Ti1 tau(  37) = (   0.0208150   5.9452171  12.5004641  )
        38           Ti1 tau(  38) = (   3.3163264   4.4646888  12.5160798  )
        39           O1  tau(  39) = (   6.5606049   3.0383603  14.9590055  )
        40           O1  tau(  40) = (   3.3003749   3.0012653  13.9593002  )
        41           O1  tau(  41) = (   4.5325621   4.4784225  16.2386555  )
        42           O1  tau(  42) = (   2.0180351   4.4745910  16.2101397  )
        43           Ti1 tau(  43) = (   3.2993765   0.0184524  15.7908042  )
        44           Ti1 tau(  44) = (   0.0223033   4.5207704  16.0490861  )
        45           O1  tau(  45) = (   3.2900926   2.9813045   4.7018136  )
        46           O1  tau(  46) = (   1.3039711   4.4726057   6.0039043  )
        47           O1  tau(  47) = (   5.2763189   4.4711207   6.0039473  )
        48           N1  tau(  48) = (   6.4337409   3.4053151  18.1409392  )
        49           C1  tau(  49) = (   1.0285230   3.1422446  19.0018829  )
        50           H1  tau(  50) = (   0.7475518   3.0234394  20.0507379  )
        51           H1  tau(  51) = (   1.7227964   3.9744885  18.8989305  )
        52           H1  tau(  52) = (   5.9280473   4.2150708  18.4935385  )
        53           H1  tau(  53) = (   5.7900178   2.6175148  18.1880975  )
        54           H1  tau(  54) = (   1.5159085   2.2300880  18.6641165  )

     number of k points=    10  Fermi-Dirac smearing, width (Ry)=  0.0073
                       cart. coord. in units 2pi/alat
        k(    1) = (   0.0000000   0.0000000   0.0000000), wk =   0.1250000
        k(    2) = (   0.0000000   0.0419351   0.0000000), wk =   0.2500000
        k(    3) = (   0.0000000  -0.0838702   0.0000000), wk =   0.1250000
        k(    4) = (   0.0379955   0.0000049   0.0000000), wk =   0.2500000
        k(    5) = (   0.0379955   0.0419400   0.0000000), wk =   0.2500000
        k(    6) = (   0.0379955  -0.0838652   0.0000000), wk =   0.2500000
        k(    7) = (   0.0379955  -0.0419301   0.0000000), wk =   0.2500000
        k(    8) = (  -0.0759910  -0.0000099   0.0000000), wk =   0.1250000
        k(    9) = (  -0.0759910   0.0419252   0.0000000), wk =   0.2500000
        k(   10) = (  -0.0759910  -0.0838800   0.0000000), wk =   0.1250000

     Initial potential from superposition of free atoms

     starting charge  375.99915, renormalised to  392.00000

     negative rho (up, down):  1.645E-02 0.000E+00

     %%%%%%%%%%%%%%%%%%%%%%%%%%%%%%%%%%%%%%%%%%%%%%%%%%%%%%%%%%%%%%%%%%%%%%%%
     %                                                                      %
     % You are using vdW-DF, which was implemented by the Thonhauser group. %
     % Please cite the following two papers that made this development      %
     % possible and the two reviews that describe the various versions:     %
     %                                                                      %
     %   T. Thonhauser et al., PRL 115, 136402 (2015).                      %
     %   T. Thonhauser et al., PRB 76, 125112 (2007).                       %
     %   K. Berland et al., Rep. Prog. Phys. 78, 066501 (2015).             %
     %   D.C. Langreth et al., J. Phys.: Condens. Matter 21, 084203 (2009). %
     %                                                                      %
     %                                                                      %
     % If you are calculating the stress with vdW-DF, please also cite:     %
     %                                                                      %
     %   R. Sabatini et al., J. Phys.: Condens. Matter 24, 424209 (2012).   %
     %                                                                      %
     %%%%%%%%%%%%%%%%%%%%%%%%%%%%%%%%%%%%%%%%%%%%%%%%%%%%%%%%%%%%%%%%%%%%%%%%

     Adding external electric field

     Computed dipole along edir(3) :
        Dipole               -7.5115 Ry au,        -19.0924 Debye
        Dipole field         -0.0142 Ry au,

        Potential amp.        1.3140 Ry
        Total length         46.3494 bohr

     Starting wfcs are  297 atomic wfcs
  @ DRIVER MODE: Message from server: STATUS
  @ DRIVER MODE: Message from server: POSDATA
  @ DRIVER MODE: Reading and sharing cell
  @ DRIVER MODE: Reading and sharing positions
  @ DRIVER MODE: Received positions

     Self-consistent Calculation

     iteration #  1     ecut=    29.40 Ry     beta= 0.05
     Davidson diagonalization with overlap
     c_bands:  1 eigenvalues not converged
     c_bands:  1 eigenvalues not converged
     c_bands:  2 eigenvalues not converged
     c_bands:  1 eigenvalues not converged
     c_bands:  1 eigenvalues not converged
     c_bands:  1 eigenvalues not converged
     ethr =  1.00E-05,  avg # of iterations = 19.3

[...]

     total energy              =   -2681.19978227 Ry
     estimated scf accuracy    <    2661.08958779 Ry

[...]

     iteration #  3     ecut=    29.40 Ry     beta= 0.05
     Davidson diagonalization with overlap
     ethr =  1.00E-02,  avg # of iterations = 15.7

[...]

     iteration # 65     ecut=    29.40 Ry     beta= 0.05
     Davidson diagonalization with overlap
     c_bands:  1 eigenvalues not converged
     ethr =  4.40E-11,  avg # of iterations = 16.7

[...]

     total energy              =   -2921.63252128 Ry
     estimated scf accuracy    <       0.00000015 Ry

     iteration # 66     ecut=    29.40 Ry     beta= 0.05
     Davidson diagonalization with overlap
     ethr =  3.72E-11,  avg # of iterations = 12.9

     negative rho (up, down):  1.723E-02 0.000E+00

     Adding external electric field

     Computed dipole along edir(3) :
        Dipole                1.3049 Ry au,          3.3168 Debye
        Dipole field          0.0025 Ry au,

        Potential amp.       -0.2283 Ry
        Total length         46.3494 bohr

     End of self-consistent calculation

          k = 0.0000 0.0000 0.0000 ( 18029 PWs)   bands (ev):

   -55.4321 -55.3950 -55.3818 -55.3570 -55.3477 -55.3147 -55.3097 -55.2753
   -55.2492 -55.2322 -55.2148 -55.2134 -55.1798 -55.1000 -54.4107 -54.3766
   -32.0015 -31.8865 -31.8743 -31.7985 -31.7491 -31.7391 -31.7364 -31.7195
   -31.6743 -31.6709 -31.6424 -31.6402 -31.6269 -31.6196 -31.6021 -31.5950
   -31.5875 -31.5753 -31.5701 -31.5470 -31.5345 -31.5311 -31.5031 -31.4956
   -31.4874 -31.4800 -31.4749 -31.4518 -31.4403 -31.4391 -31.4321 -31.4131
   -31.4124 -31.4061 -31.4002 -31.3971 -31.3633 -31.3537 -31.3418 -31.3248
   -31.3059 -31.2957 -30.8200 -30.7259 -30.7038 -30.6364 -30.5496 -30.4387
   -16.2946 -16.1617 -15.9766 -15.8318 -15.7495 -15.6301 -15.5188 -15.5049
   -15.3644 -15.2827 -15.1669 -15.1419 -15.1130 -15.0906 -15.0822 -15.0652
   -14.9744 -14.9694 -14.9573 -14.9245 -14.9235 -14.8792 -14.8688 -14.8268
   -14.8053 -14.8030 -14.6834 -14.5898 -14.5174 -14.2879 -12.9132 -12.7958
   -10.2119  -6.3074  -4.8134  -3.9567  -3.6108  -3.4527  -3.3697  -3.3353
    -3.3226  -3.1913  -3.0540  -2.9016  -2.8537  -2.8162  -2.7239  -2.6473
    -2.6396  -2.6206  -2.4664  -2.4316  -2.3869  -2.3383  -2.3001  -2.2420
    -2.2216  -2.2131  -2.2004  -2.1831  -2.1746  -2.0567  -2.0008  -1.9171
    -1.8580  -1.8353  -1.7850  -1.7647  -1.7447  -1.7209  -1.7114  -1.6708
    -1.6456  -1.6256  -1.5721  -1.4609  -1.3571  -1.3068  -1.1874  -1.0669
    -1.0295  -1.0177  -0.9664  -0.9386  -0.9171  -0.8595  -0.8079  -0.7789
    -0.7252  -0.6638  -0.6023  -0.5526  -0.4795  -0.4759  -0.4172  -0.3681
    -0.2472  -0.2148  -0.1977  -0.1700  -0.0793  -0.0412   0.0026   0.0826
     0.0937   0.1131   0.2070   0.2175   0.2913   0.3399   0.3567   0.4500
     0.4848   0.4971   0.5017   0.5240   0.5541   0.6040   0.6456   0.6721
     0.7390   0.8654   1.0785   1.1588   1.1826   1.5087   1.5184   1.6121
     1.7958   2.1881   2.2363   3.6659   3.7364   3.8122   3.8185   3.8313
     3.9041   4.1385   4.1622   4.1701   4.1768   4.1976

[...]

          k = 0.0380-0.0419 0.0000 ( 17876 PWs)   bands (ev):

[...]

          k =-0.0760-0.0000 0.0000 ( 17886 PWs)   bands (ev):

[...]

          k =-0.0760-0.0839 0.0000 ( 17948 PWs)   bands (ev):

   -55.4179 -55.4089 -55.3649 -55.3645 -55.3556 -55.3111 -55.2938 -55.2911
   -55.2357 -55.2336 -55.2299 -55.1971 -55.1964 -55.1013 -54.3937 -54.3934
   -31.8086 -31.8040 -31.8014 -31.7189 -31.6930 -31.6894 -31.6892 -31.6562
   -31.6562 -31.6409 -31.6344 -31.6316 -31.6249 -31.6026 -31.5875 -31.5710
   -31.5670 -31.5644 -31.5628 -31.5576 -31.5574 -31.5546 -31.5115 -31.5095
   -31.5067 -31.5026 -31.5000 -31.4870 -31.4847 -31.4844 -31.4828 -31.4667
   -31.4631 -31.4472 -31.4434 -31.4294 -31.4264 -31.4239 -31.3780 -31.3779
   -31.3715 -31.3106 -30.7166 -30.7164 -30.6326 -30.6324 -30.5931 -30.5930
   -16.1314 -15.7826 -15.6965 -15.6406 -15.4651 -15.4373 -15.4232 -15.4036
   -15.2745 -15.2487 -15.2233 -15.2006 -15.1795 -15.1421 -15.1344 -15.1295
   -15.0519 -15.0388 -15.0331 -15.0185 -14.9492 -14.9402 -14.9363 -14.9302
   -14.8797 -14.8760 -14.8328 -14.7825 -14.7792 -14.5640 -12.8974 -12.8972
   -10.2152  -6.2779  -4.8103  -3.9204  -2.9661  -2.9304  -2.8967  -2.8948
    -2.6813  -2.6435  -2.6082  -2.5842  -2.4926  -2.4503  -2.4315  -2.4308
    -2.3565  -2.3358  -2.3244  -2.2729  -2.2680  -2.2561  -2.2326  -2.2003
    -2.1750  -2.1605  -2.1507  -2.1321  -2.0885  -2.0746  -2.0549  -2.0345
    -2.0286  -2.0161  -1.9869  -1.9470  -1.8164  -1.8052  -1.7446  -1.6373
    -1.6324  -1.5571  -1.5467  -1.5018  -1.4882  -1.4636  -1.4291  -1.2494
    -1.2074  -1.1768  -1.1673  -1.1128  -1.0366  -1.0200  -0.9572  -0.9358
    -0.9177  -0.8131  -0.7700  -0.7549  -0.6649  -0.6564  -0.5735  -0.5239
    -0.4632  -0.4374  -0.4030  -0.3868  -0.3847  -0.3370  -0.3312  -0.2474
    -0.2016  -0.1655  -0.1520  -0.1197   0.0791   0.0861   0.1086   0.2542
     0.2740   0.4092   0.4365   0.4879   0.5676   0.6006   0.6811   0.7140
     0.8437   0.8743   0.8768   0.9464   0.9607   1.0227   1.0332   1.9688
     1.9695   2.0563   2.0565   3.8166   3.9083   3.9283   3.9709   4.0839
     4.1587   4.1830   4.2047   4.2519   4.2550   4.3161

     the Fermi energy is     3.7297 ev

!    total energy              =   -2921.63254452 Ry
     estimated scf accuracy    <       0.00000005 Ry
     smearing contrib. (-TS)   =      -0.03703013 Ry
     internal energy E=F+TS    =   -2921.59551439 Ry

     The total energy is F=E-TS. E is the sum of the following terms:
     one-electron contribution =  -24082.63894313 Ry
     hartree contribution      =   12130.45804558 Ry
     xc contribution           =    -481.76085227 Ry
     ewald contribution        =    9512.34302202 Ry
     electric field correction =       0.00321342 Ry

     convergence has been achieved in  66 iterations

     Forces acting on atoms (cartesian axes, Ry/au):

     atom    1 type  1   force =     0.00005571   -0.00024252    0.09320203
     atom    2 type  1   force =    -0.00012932   -0.00043501   -0.17824294
     atom    3 type  2   force =     0.00002053   -0.00040629   -0.02023335
     atom    4 type  2   force =    -0.00001329   -0.00187760    0.05853280
     atom    5 type  2   force =    -0.00995161   -0.00082557    0.00750287
     atom    6 type  2   force =     0.01147016   -0.00027256    0.00680107
     atom    7 type  1   force =    -0.00038898    0.00195365   -0.01463573
     atom    8 type  1   force =     0.00011003   -0.00011899   -0.00501425
     atom    9 type  2   force =    -0.00011682   -0.00005419    0.00001352
     atom   10 type  2   force =    -0.00117948    0.00218682   -0.00032559
     atom   11 type  2   force =    -0.00001630   -0.00019480    0.00006198
     atom   12 type  2   force =     0.00059094   -0.00051227    0.00012346
     atom   13 type  1   force =    -0.00072037    0.00034568   -0.00033297
     atom   14 type  1   force =    -0.00000646   -0.00059465    0.00004755
     atom   15 type  2   force =     0.00004283   -0.00056530   -0.00041471
     atom   16 type  2   force =     0.00023301    0.00059663    0.00048694
     atom   17 type  2   force =     0.00002146   -0.00055771    0.00033485
     atom   18 type  2   force =     0.00018747   -0.00010092    0.00034364
     atom   19 type  1   force =     0.00011266   -0.00037493    0.00179205
     atom   20 type  1   force =    -0.00022353    0.00047458    0.00029037
     atom   21 type  2   force =     0.00001043   -0.00009722    0.10387886
     atom   22 type  2   force =     0.00018737   -0.00017437    0.00049561
     atom   23 type  2   force =    -0.07047386   -0.00018433   -0.02693976
     atom   24 type  2   force =     0.07029835    0.00025798   -0.02698240
     atom   25 type  1   force =    -0.00001147   -0.00015793    0.09270959
     atom   26 type  1   force =    -0.00020363   -0.00049561   -0.17826534
     atom   27 type  2   force =     0.00007496   -0.00024555   -0.01928507
     atom   28 type  2   force =     0.00001650   -0.00165710    0.05788227
     atom   29 type  2   force =    -0.01052313   -0.00097857    0.00820252
     atom   30 type  2   force =     0.01192692   -0.00053286    0.00743198
     atom   31 type  1   force =    -0.00034321    0.00605100   -0.01541979
     atom   32 type  1   force =     0.00011571   -0.00038992   -0.00543439
     atom   33 type  2   force =     0.00030843   -0.00010308   -0.00031852
     atom   34 type  2   force =    -0.00063689   -0.00204677   -0.00051014
     atom   35 type  2   force =    -0.00040337   -0.00002199    0.00023482
     atom   36 type  2   force =     0.00067171   -0.00007155   -0.00004407
     atom   37 type  1   force =    -0.00035842   -0.00023839    0.00026949
     atom   38 type  1   force =     0.00002305    0.00041846   -0.00002550
     atom   39 type  2   force =     0.00022861   -0.00010783    0.00018593
     atom   40 type  2   force =     0.00017141    0.00026184    0.00009372
     atom   41 type  2   force =    -0.00046900    0.00027606   -0.00009210
     atom   42 type  2   force =     0.00047358    0.00085244   -0.00009785
     atom   43 type  1   force =     0.00048381    0.00064261    0.00028195
     atom   44 type  1   force =     0.00045897    0.00049951    0.00029075
     atom   45 type  2   force =     0.00001957   -0.00009455    0.10385145
     atom   46 type  2   force =    -0.07045258   -0.00012872   -0.02688343
     atom   47 type  2   force =     0.07028074    0.00030032   -0.02693538
     atom   48 type  3   force =    -0.00066846   -0.00210041    0.00047014
     atom   49 type  4   force =     0.00147621    0.00015552   -0.00205575
     atom   50 type  5   force =     0.00018627    0.00108399    0.00038112
     atom   51 type  5   force =    -0.00069130   -0.00068475    0.00207163
     atom   52 type  5   force =    -0.00086824   -0.00040893    0.00018024
     atom   53 type  5   force =    -0.00098055    0.00057486   -0.00021638
     atom   54 type  5   force =    -0.00042715    0.00112179    0.00026024

     Total force =     0.366044     Total SCF correction =     0.000636
  @ DRIVER MODE: Message from server: STATUS
  @ DRIVER MODE: Message from server: GETFORCE
  @ DRIVER MODE: Returning v,forces,stress,ensemble

     Writing output data file ./calc.save/
  @ DRIVER MODE: Message from server: EXIT
  @ DRIVE MODE: Exiting

     General routines

     Parallel routines

   This run was terminated on:  19: 3:41  24Aug2021

   JOB DONE.