     Program PWSCF v.6.7GPU starts on 10Sep2021 at 18:18:54

     R & G space division:  proc/nbgrp/npool/nimage =      10
     Reading input from /storage/home/hcoda1/3/ntian30/research/carbon/CxH_vib/CH2_calc/ads_slab/CH2N2H_e/out_0002/pw.inp
Warning: card &CELL ignored
Warning: card   CELL_DYNAMICS='IPI', ignored
Warning: card / ignored

     Current dimensions of program PWSCF are:
     Max number of different atomic species (ntypx) = 10
     Max number of k-points (npk) =  40000
     Max angular momentum in pseudopotentials (lmaxx) =  3
     Presently no symmetry can be used with electric field

     Message from routine cell_base_init:
     DEPRECATED: use true lattice parameter, not A to a.u. conversion factor

     IMPORTANT: XC functional enforced from input :
     Exchange-correlation= BEEF-VDW
                           (   1   4  43  14   2   0   0)
     Any further DFT definition will be discarded
     Please, verify this is what you really want

  @ DRIVER MODE: Connecting to
 qe_1139763_2792041.sched-torque.pace.gatech.edua6zyzpzo_scratch
  using UNIX socket
  @ DRIVER MODE: Message from server: STATUS
  @ DRIVER MODE: Message from server: INIT
  @ DRIVER MODE: Receiving replica           0          -1
  @ DRIVER MODE: Receiving encoded integer          25
  @ DRIVER MODE:  SCF:  T  FORCE:  T  STRESS:  F  VC:  F  ENSEMBLE:  F
  @ DRIVER MODE:  SCF:  T  FORCE:  T  STRESS:  F  VC:  F  ENSEMBLE:  F

     Using Slab Decomposition

     bravais-lattice index     =            0
     lattice parameter (alat)  =       1.8897  a.u.
     unit-cell volume          =    6658.9804 (a.u.)^3
     number of atoms/cell      =           53
     number of atomic types    =            5
     number of electrons       =       395.00
     number of Kohn-Sham states=          207
     kinetic-energy cutoff     =      29.3995  Ry
     charge density cutoff     =     293.9946  Ry
     scf convergence threshold =      7.3E-08
     mixing beta               =       0.0500
     number of iterations used =            8  plain     mixing
     Exchange-correlation= BEEF-VDW
                           (   1   4  43  14   2   0   0)

     celldm(1)=   1.889726  celldm(2)=   0.000000  celldm(3)=   0.000000
     celldm(4)=   0.000000  celldm(5)=   0.000000  celldm(6)=   0.000000

     crystal axes: (cart. coord. in units of alat)
               a(1) = (   6.579727   0.000000   0.000000 )
               a(2) = (  -0.000775   5.961596   0.000000 )
               a(3) = (   0.000000   0.000000  25.155947 )

     reciprocal axes: (cart. coord. in units 2 pi/alat)
               b(1) = (  0.151982  0.000020  0.000000 )
               b(2) = (  0.000000  0.167740  0.000000 )
               b(3) = (  0.000000  0.000000  0.039752 )

     PseudoPot. # 1 for Ti read from file:
     /storage/coda1/p-amedford6/0/shared/rich_project_chbe-medford/medford-share/data/pseudos_module/espresso/nninc/pbe/van/Ti.UPF
     MD5 check sum: 8e4df49b7f0d34bbd5052bf3f5ea0213
     Pseudo is Ultrasoft, Zval = 12.0
     Generated by new atomic code, or converted to UPF format
     Using radial grid of  851 points,  6 beta functions with:
                l(1) =   0
                l(2) =   0
                l(3) =   1
                l(4) =   1
                l(5) =   2
                l(6) =   2
     Q(r) pseudized with  8 coefficients,  rinner =    1.000   1.000   1.000
                                                       1.000   1.000

     PseudoPot. # 2 for O  read from file:
     /storage/coda1/p-amedford6/0/shared/rich_project_chbe-medford/medford-share/data/pseudos_module/espresso/nninc/pbe/van/O.UPF
     MD5 check sum: 78c19812648e8988a0fe644b0f25305e
     Pseudo is Ultrasoft, Zval =  6.0
     Generated by new atomic code, or converted to UPF format
     Using radial grid of  737 points,  4 beta functions with:
                l(1) =   0
                l(2) =   0
                l(3) =   1
                l(4) =   1
     Q(r) pseudized with  8 coefficients,  rinner =    0.800   0.800   0.800

     PseudoPot. # 3 for N  read from file:
     /storage/coda1/p-amedford6/0/shared/rich_project_chbe-medford/medford-share/data/pseudos_module/espresso/nninc/pbe/van/N.UPF
     MD5 check sum: 90d10febe142ad51ac9d5be1deb811c4
     Pseudo is Ultrasoft, Zval =  5.0
     Generated by new atomic code, or converted to UPF format
     Using radial grid of  729 points,  4 beta functions with:
                l(1) =   0
                l(2) =   0
                l(3) =   1
                l(4) =   1
     Q(r) pseudized with  8 coefficients,  rinner =    0.800   0.800   0.800

     PseudoPot. # 4 for C  read from file:
     /storage/coda1/p-amedford6/0/shared/rich_project_chbe-medford/medford-share/data/pseudos_module/espresso/nninc/pbe/van/C.UPF
     MD5 check sum: 1a69bf6b8db32088f5b2163dbdb77a27
     Pseudo is Ultrasoft, Zval =  4.0
     Generated by new atomic code, or converted to UPF format
     Using radial grid of  721 points,  4 beta functions with:
                l(1) =   0
                l(2) =   0
                l(3) =   1
                l(4) =   1
     Q(r) pseudized with  8 coefficients,  rinner =    0.800   0.800   0.800

     PseudoPot. # 5 for H  read from file:
     /storage/coda1/p-amedford6/0/shared/rich_project_chbe-medford/medford-share/data/pseudos_module/espresso/nninc/pbe/van/H.UPF
     MD5 check sum: b5ee9d7bfd3a09ee7748110bda690ff7
     Pseudo is Ultrasoft, Zval =  1.0
     Generated by new atomic code, or converted to UPF format
     Using radial grid of  615 points,  1 beta functions with:
                l(1) =   0
     Q(r) pseudized with  8 coefficients,  rinner =    0.800

     atomic species   valence    mass     pseudopotential
        Ti1           12.00    47.86700     Ti( 1.00)
        O1             6.00    15.99900     O ( 1.00)
        N1             5.00    14.00700     N ( 1.00)
        C1             4.00    12.01100     C ( 1.00)
        H1             1.00     1.00800     H ( 1.00)

     No symmetry found

   Cartesian axes

     site n.     atom                  positions (alat units)
         1           Ti1 tau(   1) = (   0.0004258   2.9801865   6.0000000  )
         2           Ti1 tau(   2) = (   3.2906075   1.4906267   6.0002472  )
         3           O1  tau(   3) = (   0.0006271   0.0005054   7.9858123  )
         4           O1  tau(   4) = (   3.2906025   0.0005020   7.3038282  )
         5           O1  tau(   5) = (   4.5942328   1.4918067   9.2879030  )
         6           O1  tau(   6) = (   1.9868534   1.4903216   9.2879459  )
         7           Ti1 tau(   7) = (   3.2907910   2.8959150   9.1758416  )
         8           Ti1 tau(   8) = (   0.0015273   1.4827037   9.2680791  )
         9           O1  tau(   9) = (   3.2922140   0.0036562  11.3253104  )
        10           O1  tau(  10) = (   0.0116148   5.9584955  10.6183126  )
        11           O1  tau(  11) = (   1.2860832   1.4889729  12.6258215  )
        12           O1  tau(  12) = (   5.2729595   1.4828594  12.6177116  )
        13           Ti1 tau(  13) = (   0.0641184   3.0073180  12.5883652  )
        14           Ti1 tau(  14) = (   3.3767723   1.4911129  12.4765728  )
        15           O1  tau(  15) = (   6.5781935   5.9569561  14.6821271  )
        16           O1  tau(  16) = (   3.2819581   0.0025077  13.9050320  )
        17           O1  tau(  17) = (   4.5172158   1.5234625  16.0337941  )
        18           O1  tau(  18) = (   2.0475084   1.5263597  16.0453316  )
        19           Ti1 tau(  19) = (   3.2743797   3.0127756  15.6984511  )
        20           Ti1 tau(  20) = (   6.5512008   1.5842238  15.7855373  )
        21           O1  tau(  21) = (   3.2904802   0.0005063   4.7018136  )
        22           O1  tau(  22) = (   6.5742344   0.0609322  17.2932839  )
        23           O1  tau(  23) = (   1.3043587   1.4918075   6.0039043  )
        24           O1  tau(  24) = (   5.2767064   1.4903225   6.0039473  )
        25           Ti1 tau(  25) = (   0.0000382   5.9609847   6.0000000  )
        26           Ti1 tau(  26) = (   3.2902200   4.4714249   6.0002472  )
        27           O1  tau(  27) = (   0.0002396   2.9813036   7.9858123  )
        28           O1  tau(  28) = (   3.2902150   2.9813002   7.3038282  )
        29           O1  tau(  29) = (   4.5938453   4.4726049   9.2879030  )
        30           O1  tau(  30) = (   1.9864658   4.4711199   9.2879459  )
        31           Ti1 tau(  31) = (   3.2891106   5.8743827   9.1763621  )
        32           Ti1 tau(  32) = (   0.0006254   4.4649316   9.2693709  )
        33           O1  tau(  33) = (   3.2917412   2.9831059  11.3263362  )
        34           O1  tau(  34) = (   0.0092240   2.9805883  10.6323155  )
        35           O1  tau(  35) = (   1.2859270   4.4784489  12.6216084  )
        36           O1  tau(  36) = (   5.2779610   4.4756213  12.6128944  )
        37           Ti1 tau(  37) = (   0.0616295   0.0157230  12.5710002  )
        38           Ti1 tau(  38) = (   3.3796684   4.4726909  12.4790056  )
        39           O1  tau(  39) = (   6.5693437   2.9756239  14.6354252  )
        40           O1  tau(  40) = (   3.2842310   3.0020566  13.9003041  )
        41           O1  tau(  41) = (   4.5171552   4.5052370  16.0986928  )
        42           O1  tau(  42) = (   2.0408908   4.5012300  16.0971631  )
        43           Ti1 tau(  43) = (   3.2680294   0.0293594  15.7040856  )
        44           Ti1 tau(  44) = (   6.5592110   4.6908586  16.1766550  )
        45           O1  tau(  45) = (   3.2900926   2.9813045   4.7018136  )
        46           O1  tau(  46) = (   1.3039711   4.4726057   6.0039043  )
        47           O1  tau(  47) = (   5.2763189   4.4711207   6.0039473  )
        48           N1  tau(  48) = (   0.1031655   2.5901963  18.5587852  )
        49           N1  tau(  49) = (   6.5755498   2.9338716  17.3126873  )
        50           C1  tau(  50) = (   0.1889803   3.3462807  19.6294495  )
        51           H1  tau(  51) = (   0.2540540   2.8541835  20.5836859  )
        52           H1  tau(  52) = (   0.1890997   4.4171571  19.5098884  )
        53           H1  tau(  53) = (   0.0969130   1.5623892  18.6894177  )

     number of k points=    10  Fermi-Dirac smearing, width (Ry)=  0.0073
                       cart. coord. in units 2pi/alat
        k(    1) = (   0.0000000   0.0000000   0.0000000), wk =   0.1250000
        k(    2) = (   0.0000000   0.0419351   0.0000000), wk =   0.2500000
        k(    3) = (   0.0000000  -0.0838702   0.0000000), wk =   0.1250000
        k(    4) = (   0.0379955   0.0000049   0.0000000), wk =   0.2500000
        k(    5) = (   0.0379955   0.0419400   0.0000000), wk =   0.2500000
        k(    6) = (   0.0379955  -0.0838652   0.0000000), wk =   0.2500000
        k(    7) = (   0.0379955  -0.0419301   0.0000000), wk =   0.2500000
        k(    8) = (  -0.0759910  -0.0000099   0.0000000), wk =   0.1250000
        k(    9) = (  -0.0759910   0.0419252   0.0000000), wk =   0.2500000
        k(   10) = (  -0.0759910  -0.0838800   0.0000000), wk =   0.1250000

     Initial potential from superposition of free atoms

     starting charge  378.99916, renormalised to  395.00000

     negative rho (up, down):  1.523E-02 0.000E+00

     %%%%%%%%%%%%%%%%%%%%%%%%%%%%%%%%%%%%%%%%%%%%%%%%%%%%%%%%%%%%%%%%%%%%%%%%
     %                                                                      %
     % You are using vdW-DF, which was implemented by the Thonhauser group. %
     % Please cite the following two papers that made this development      %
     % possible and the two reviews that describe the various versions:     %
     %                                                                      %
     %   T. Thonhauser et al., PRL 115, 136402 (2015).                      %
     %   T. Thonhauser et al., PRB 76, 125112 (2007).                       %
     %   K. Berland et al., Rep. Prog. Phys. 78, 066501 (2015).             %
     %   D.C. Langreth et al., J. Phys.: Condens. Matter 21, 084203 (2009). %
     %                                                                      %
     %                                                                      %
     % If you are calculating the stress with vdW-DF, please also cite:     %
     %                                                                      %
     %   R. Sabatini et al., J. Phys.: Condens. Matter 24, 424209 (2012).   %
     %                                                                      %
     %%%%%%%%%%%%%%%%%%%%%%%%%%%%%%%%%%%%%%%%%%%%%%%%%%%%%%%%%%%%%%%%%%%%%%%%

     Adding external electric field

     Computed dipole along edir(3) :
        Dipole               -8.7485 Ry au,        -22.2364 Debye
        Dipole field         -0.0165 Ry au,

        Potential amp.        1.5304 Ry
        Total length         46.3494 bohr

     Starting wfcs are  299 atomic wfcs
  @ DRIVER MODE: Message from server: STATUS
  @ DRIVER MODE: Message from server: POSDATA
  @ DRIVER MODE: Reading and sharing cell
  @ DRIVER MODE: Reading and sharing positions
  @ DRIVER MODE: Received positions

     Self-consistent Calculation

     iteration #  1     ecut=    29.40 Ry     beta= 0.05
     Davidson diagonalization with overlap
     c_bands:  2 eigenvalues not converged
     c_bands:  1 eigenvalues not converged
     c_bands:  1 eigenvalues not converged
     c_bands:  3 eigenvalues not converged
     c_bands:  2 eigenvalues not converged
     c_bands:  1 eigenvalues not converged
     c_bands:  1 eigenvalues not converged
     ethr =  1.00E-05,  avg # of iterations = 19.1

[...]

     total energy              =   -2617.01044853 Ry
     estimated scf accuracy    <    3577.42416178 Ry

     iteration #  2     ecut=    29.40 Ry     beta= 0.05
     Davidson diagonalization with overlap
     ethr =  1.00E-02,  avg # of iterations = 21.9

[...]

     iteration # 63     ecut=    29.40 Ry     beta= 0.05
     Davidson diagonalization with overlap
     c_bands:  2 eigenvalues not converged
     ethr =  2.04E-10,  avg # of iterations =  8.9

[...]

     total energy              =   -2939.15583707 Ry
     estimated scf accuracy    <       0.00000014 Ry

     iteration # 68     ecut=    29.40 Ry     beta= 0.05
     Davidson diagonalization with overlap
     ethr =  3.57E-11,  avg # of iterations =  6.5

     negative rho (up, down):  1.569E-02 0.000E+00

     Adding external electric field

     Computed dipole along edir(3) :
        Dipole                1.1209 Ry au,          2.8490 Debye
        Dipole field          0.0021 Ry au,

        Potential amp.       -0.1961 Ry
        Total length         46.3494 bohr

     End of self-consistent calculation

          k = 0.0000 0.0000 0.0000 ( 18029 PWs)   bands (ev):

   -55.5857 -55.5829 -55.5516 -55.5469 -55.4540 -55.4344 -55.4177 -55.3999
   -55.3992 -55.3660 -55.3615 -55.3278 -54.9551 -54.8672 -54.5641 -54.5300
   -32.1376 -32.0685 -31.9548 -31.8982 -31.8952 -31.8871 -31.8785 -31.8527
   -31.8297 -31.8102 -31.7780 -31.7684 -31.7621 -31.7378 -31.7357 -31.7228
   -31.6903 -31.6808 -31.6705 -31.6575 -31.6544 -31.6428 -31.6086 -31.6022
   -31.5926 -31.5890 -31.5845 -31.5758 -31.5653 -31.5633 -31.5389 -31.5287
   -31.5153 -31.5097 -31.5013 -31.4744 -31.4621 -31.1943 -31.1863 -31.1478
   -31.0999 -31.0461 -30.9711 -30.8830 -30.8605 -30.7880 -30.7015 -30.5903
   -18.9337 -16.3412 -16.0645 -15.8168 -15.7366 -15.7200 -15.6041 -15.4318
   -15.3154 -15.2640 -15.1611 -15.1602 -15.1232 -15.0894 -15.0411 -15.0380
   -15.0334 -15.0059 -14.9970 -14.9767 -14.9468 -14.9287 -14.8891 -14.7900
   -14.7716 -14.7217 -14.6931 -14.6668 -14.6470 -14.2629 -13.0663 -12.9499
   -12.7045  -8.8768  -6.3311  -4.8598  -3.7166  -3.6496  -3.5589  -3.4936
    -3.4589  -3.4272  -3.2312  -3.1907  -3.1416  -2.8352  -2.7746  -2.7561
    -2.7460  -2.7164  -2.4919  -2.4529  -2.4015  -2.3710  -2.3593  -2.3570
    -2.3553  -2.3255  -2.3072  -2.1660  -2.1314  -2.0410  -2.0018  -1.9952
    -1.9864  -1.8990  -1.8673  -1.8407  -1.8310  -1.8207  -1.7930  -1.7837
    -1.7752  -1.6413  -1.5623  -1.4106  -1.3901  -1.3497  -1.2181  -1.1945
    -1.0626  -1.0456  -1.0166  -0.9795  -0.9597  -0.8910  -0.7709  -0.7492
    -0.7135  -0.6986  -0.6080  -0.5697  -0.5022  -0.4674  -0.4435  -0.3961
    -0.3572  -0.3479  -0.3259  -0.2000  -0.0698  -0.0123  -0.0031   0.0241
     0.0926   0.1303   0.1906   0.2407   0.2506   0.2871   0.3386   0.3832
     0.3952   0.3975   0.4128   0.4509   0.5920   0.6086   0.6737   0.7192
     0.7625   0.8777   0.9293   1.0655   1.1573   1.3162   1.3854   1.4582
     1.5305   1.6504   2.0288   2.0458   2.0747   3.5443   3.6330   3.6769
     3.6822   3.7879   3.8836   3.9957   4.0151   4.0356   4.0908

[...]

          k = 0.0380-0.0419 0.0000 ( 17876 PWs)   bands (ev):

[...]

          k =-0.0760-0.0000 0.0000 ( 17886 PWs)   bands (ev):

[...]

          k =-0.0760-0.0839 0.0000 ( 17948 PWs)   bands (ev):

   -55.5688 -55.5683 -55.5651 -55.5644 -55.4414 -55.4302 -55.4201 -55.4134
   -55.3829 -55.3826 -55.3453 -55.3441 -54.9523 -54.8698 -54.5470 -54.5470
   -31.9410 -31.9393 -31.8840 -31.8835 -31.8642 -31.8635 -31.8371 -31.8368
   -31.8024 -31.7899 -31.7657 -31.7595 -31.7250 -31.7170 -31.7021 -31.6996
   -31.6977 -31.6945 -31.6883 -31.6880 -31.6855 -31.6829 -31.6547 -31.6470
   -31.6286 -31.6260 -31.6194 -31.6136 -31.5835 -31.5822 -31.5769 -31.5754
   -31.5608 -31.5601 -31.5600 -31.5577 -31.3648 -31.2309 -31.1951 -31.1618
   -31.1021 -31.0901 -30.8733 -30.8732 -30.7839 -30.7838 -30.7448 -30.7448
   -18.9299 -15.7713 -15.7566 -15.5304 -15.5150 -15.5040 -15.4950 -15.3476
   -15.3206 -15.2823 -15.2793 -15.2076 -15.1622 -15.1457 -15.1301 -15.1276
   -15.1091 -15.1008 -15.0526 -15.0455 -15.0445 -15.0264 -15.0199 -14.9055
   -14.9015 -14.8936 -14.8411 -14.7919 -14.6749 -14.3906 -13.0517 -13.0517
   -12.7103  -8.8770  -6.3254  -4.8212  -3.6639  -3.3315  -3.0590  -3.0477
    -2.7578  -2.7469  -2.7446  -2.7014  -2.5089  -2.5041  -2.4901  -2.4580
    -2.4245  -2.4132  -2.4034  -2.3891  -2.3835  -2.3351  -2.3131  -2.2680
    -2.2550  -2.2518  -2.2504  -2.2148  -2.2044  -2.1623  -2.1517  -2.1283
    -2.1163  -2.0845  -2.0534  -1.9065  -1.8204  -1.8014  -1.7277  -1.7208
    -1.6882  -1.6510  -1.6373  -1.5929  -1.5580  -1.4416  -1.3294  -1.2874
    -1.2730  -1.1728  -1.1365  -1.0983  -1.0457  -0.9715  -0.9634  -0.9343
    -0.8684  -0.7962  -0.7798  -0.7571  -0.6931  -0.6690  -0.5951  -0.5740
    -0.5487  -0.5439  -0.4877  -0.4220  -0.4060  -0.3543  -0.3462  -0.3053
    -0.2708  -0.2416  -0.2222  -0.0828  -0.0815  -0.0413   0.0934   0.1494
     0.3819   0.4314   0.4514   0.5228   0.6227   0.6710   0.6846   0.7263
     0.7356   0.7508   0.8108   0.9406   0.9461   1.0149   1.0558   1.1578
     1.8222   1.8226   1.8946   1.8947   1.9055   3.8402   3.8666   3.8794
     3.9032   4.0510   4.0609   4.0809   4.0815   4.2010   4.2221

     the Fermi energy is     3.5457 ev

!    total energy              =   -2939.15586012 Ry
     estimated scf accuracy    <       0.00000004 Ry
     smearing contrib. (-TS)   =      -0.02147255 Ry
     internal energy E=F+TS    =   -2939.13438757 Ry

     The total energy is F=E-TS. E is the sum of the following terms:
     one-electron contribution =  -24212.84952673 Ry
     hartree contribution      =   12196.28008918 Ry
     xc contribution           =    -485.25475377 Ry
     ewald contribution        =    9562.68743281 Ry
     electric field correction =       0.00237093 Ry

     convergence has been achieved in  68 iterations

     Forces acting on atoms (cartesian axes, Ry/au):

     atom    1 type  1   force =     0.00009293   -0.00017823    0.09640874
     atom    2 type  1   force =    -0.00018405   -0.00073126   -0.17542974
     atom    3 type  2   force =     0.00004736   -0.00013448   -0.02408193
     atom    4 type  2   force =     0.00007692   -0.00141088    0.05271163
     atom    5 type  2   force =    -0.01134869   -0.00007924    0.00338776
     atom    6 type  2   force =     0.01299926    0.00063225    0.00223364
     atom    7 type  1   force =    -0.00119223    0.00046826   -0.01224027
     atom    8 type  1   force =     0.00043268    0.00234389    0.02519751
     atom    9 type  2   force =    -0.00025004    0.00018867    0.00002909
     atom   10 type  2   force =    -0.00120468    0.00198318   -0.01305008
     atom   11 type  2   force =     0.00058224    0.00016415    0.00023892
     atom   12 type  2   force =    -0.00049998    0.00006659    0.00011148
     atom   13 type  1   force =    -0.00049737    0.00027350    0.00019697
     atom   14 type  1   force =     0.00061351   -0.00036959   -0.00028736
     atom   15 type  2   force =    -0.00001148    0.00028306    0.00003407
     atom   16 type  2   force =    -0.00001852    0.00018184    0.00056234
     atom   17 type  2   force =    -0.00049911   -0.00001689   -0.00004770
     atom   18 type  2   force =     0.00022355   -0.00016447   -0.00030894
     atom   19 type  1   force =     0.00010828    0.00076624    0.00046443
     atom   20 type  1   force =    -0.00007289    0.00036369   -0.00006181
     atom   21 type  2   force =     0.00010039   -0.00012485    0.10317110
     atom   22 type  2   force =    -0.00026797    0.00017293    0.00017534
     atom   23 type  2   force =    -0.07148749   -0.00021383   -0.02774090
     atom   24 type  2   force =     0.07149077    0.00025030   -0.02775071
     atom   25 type  1   force =     0.00011453   -0.00025052    0.09593373
     atom   26 type  1   force =    -0.00010812   -0.00044137   -0.17557594
     atom   27 type  2   force =     0.00009768   -0.00013276   -0.02332791
     atom   28 type  2   force =     0.00011134   -0.00121887    0.05267429
     atom   29 type  2   force =    -0.01159810   -0.00030052    0.00347090
     atom   30 type  2   force =     0.01318053    0.00015819    0.00227509
     atom   31 type  1   force =    -0.00119241    0.00346249   -0.01236160
     atom   32 type  1   force =     0.00054396   -0.00377991    0.02549469
     atom   33 type  2   force =     0.00002986   -0.00017286   -0.00002763
     atom   34 type  2   force =    -0.00098366    0.00046359   -0.02168616
     atom   35 type  2   force =     0.00014669    0.00000817    0.00018023
     atom   36 type  2   force =    -0.00014242    0.00002594    0.00007029
     atom   37 type  1   force =    -0.00043789   -0.00032572    0.00017374
     atom   38 type  1   force =     0.00043391    0.00027328   -0.00028203
     atom   39 type  2   force =    -0.00007913   -0.00043485    0.00029312
     atom   40 type  2   force =    -0.00012762   -0.00008399    0.00011838
     atom   41 type  2   force =    -0.00077580   -0.00019435   -0.00025366
     atom   42 type  2   force =     0.00091331    0.00004785   -0.00000294
     atom   43 type  1   force =    -0.00004687   -0.00076774    0.00010376
     atom   44 type  1   force =    -0.00002312   -0.00002435    0.00014804
     atom   45 type  2   force =     0.00010341   -0.00010892    0.10319084
     atom   46 type  2   force =    -0.07149038   -0.00015295   -0.02773094
     atom   47 type  2   force =     0.07149653    0.00029430   -0.02773790
     atom   48 type  3   force =    -0.00526392   -0.00188779   -0.00253945
     atom   49 type  3   force =     0.00214853   -0.00029515    0.00066704
     atom   50 type  4   force =     0.00159952    0.00123081    0.00183555
     atom   51 type  5   force =     0.00043868   -0.00039288    0.00031767
     atom   52 type  5   force =    -0.00003204   -0.00057091    0.00038318
     atom   53 type  5   force =     0.00170964    0.00085693    0.00027202

     Total force =     0.366837     Total SCF correction =     0.000396
  @ DRIVER MODE: Message from server: STATUS
  @ DRIVER MODE: Message from server: GETFORCE
  @ DRIVER MODE: Returning v,forces,stress,ensemble

     Writing output data file ./calc.save/
  @ DRIVER MODE: Message from server: EXIT
  @ DRIVE MODE: Exiting

     General routines

     Parallel routines

   This run was terminated on:  18:37:40  10Sep2021

   JOB DONE.