     Program PWSCF v.6.7GPU starts on 10Sep2021 at 15: 3: 4

     R & G space division:  proc/nbgrp/npool/nimage =      10
     Reading input from /storage/home/hcoda1/3/ntian30/research/carbon/CxH_vib/CH3_calc/ads_slab/CH3N2H2O_e/out_0053/pw.inp
Warning: card &CELL ignored
Warning: card   CELL_DYNAMICS='IPI', ignored
Warning: card / ignored

     Current dimensions of program PWSCF are:
     Max number of different atomic species (ntypx) = 10
     Max number of k-points (npk) =  40000
     Max angular momentum in pseudopotentials (lmaxx) =  3
     Presently no symmetry can be used with electric field

     Message from routine cell_base_init:
     DEPRECATED: use true lattice parameter, not A to a.u. conversion factor

     IMPORTANT: XC functional enforced from input :
     Exchange-correlation= BEEF-VDW
                           (   1   4  43  14   2   0   0)
     Any further DFT definition will be discarded
     Please, verify this is what you really want

  @ DRIVER MODE: Connecting to
 qe_1139763_2779715.sched-torque.pace.gatech.edui10d0wz6_scratch
  using UNIX socket
  @ DRIVER MODE: Message from server: STATUS
  @ DRIVER MODE: Message from server: INIT
  @ DRIVER MODE: Receiving replica           0          -1
  @ DRIVER MODE: Receiving encoded integer          25
  @ DRIVER MODE:  SCF:  T  FORCE:  T  STRESS:  F  VC:  F  ENSEMBLE:  F
  @ DRIVER MODE:  SCF:  T  FORCE:  T  STRESS:  F  VC:  F  ENSEMBLE:  F

     Using Slab Decomposition

     bravais-lattice index     =            0
     lattice parameter (alat)  =       1.8897  a.u.
     unit-cell volume          =    6658.9804 (a.u.)^3
     number of atoms/cell      =           56
     number of atomic types    =            5
     number of electrons       =       403.00
     number of Kohn-Sham states=          211
     kinetic-energy cutoff     =      29.3995  Ry
     charge density cutoff     =     293.9946  Ry
     scf convergence threshold =      7.3E-08
     mixing beta               =       0.0500
     number of iterations used =            8  plain     mixing
     Exchange-correlation= BEEF-VDW
                           (   1   4  43  14   2   0   0)

     celldm(1)=   1.889726  celldm(2)=   0.000000  celldm(3)=   0.000000
     celldm(4)=   0.000000  celldm(5)=   0.000000  celldm(6)=   0.000000

     crystal axes: (cart. coord. in units of alat)
               a(1) = (   6.579727   0.000000   0.000000 )
               a(2) = (  -0.000775   5.961596   0.000000 )
               a(3) = (   0.000000   0.000000  25.155947 )

     reciprocal axes: (cart. coord. in units 2 pi/alat)
               b(1) = (  0.151982  0.000020  0.000000 )
               b(2) = (  0.000000  0.167740  0.000000 )
               b(3) = (  0.000000  0.000000  0.039752 )

     PseudoPot. # 1 for Ti read from file:
     /storage/coda1/p-amedford6/0/shared/rich_project_chbe-medford/medford-share/data/pseudos_module/espresso/nninc/pbe/van/Ti.UPF
     MD5 check sum: 8e4df49b7f0d34bbd5052bf3f5ea0213
     Pseudo is Ultrasoft, Zval = 12.0
     Generated by new atomic code, or converted to UPF format
     Using radial grid of  851 points,  6 beta functions with:
                l(1) =   0
                l(2) =   0
                l(3) =   1
                l(4) =   1
                l(5) =   2
                l(6) =   2
     Q(r) pseudized with  8 coefficients,  rinner =    1.000   1.000   1.000
                                                       1.000   1.000

     PseudoPot. # 2 for O  read from file:
     /storage/coda1/p-amedford6/0/shared/rich_project_chbe-medford/medford-share/data/pseudos_module/espresso/nninc/pbe/van/O.UPF
     MD5 check sum: 78c19812648e8988a0fe644b0f25305e
     Pseudo is Ultrasoft, Zval =  6.0
     Generated by new atomic code, or converted to UPF format
     Using radial grid of  737 points,  4 beta functions with:
                l(1) =   0
                l(2) =   0
                l(3) =   1
                l(4) =   1
     Q(r) pseudized with  8 coefficients,  rinner =    0.800   0.800   0.800

     PseudoPot. # 3 for N  read from file:
     /storage/coda1/p-amedford6/0/shared/rich_project_chbe-medford/medford-share/data/pseudos_module/espresso/nninc/pbe/van/N.UPF
     MD5 check sum: 90d10febe142ad51ac9d5be1deb811c4
     Pseudo is Ultrasoft, Zval =  5.0
     Generated by new atomic code, or converted to UPF format
     Using radial grid of  729 points,  4 beta functions with:
                l(1) =   0
                l(2) =   0
                l(3) =   1
                l(4) =   1
     Q(r) pseudized with  8 coefficients,  rinner =    0.800   0.800   0.800

     PseudoPot. # 4 for C  read from file:
     /storage/coda1/p-amedford6/0/shared/rich_project_chbe-medford/medford-share/data/pseudos_module/espresso/nninc/pbe/van/C.UPF
     MD5 check sum: 1a69bf6b8db32088f5b2163dbdb77a27
     Pseudo is Ultrasoft, Zval =  4.0
     Generated by new atomic code, or converted to UPF format
     Using radial grid of  721 points,  4 beta functions with:
                l(1) =   0
                l(2) =   0
                l(3) =   1
                l(4) =   1
     Q(r) pseudized with  8 coefficients,  rinner =    0.800   0.800   0.800

     PseudoPot. # 5 for H  read from file:
     /storage/coda1/p-amedford6/0/shared/rich_project_chbe-medford/medford-share/data/pseudos_module/espresso/nninc/pbe/van/H.UPF
     MD5 check sum: b5ee9d7bfd3a09ee7748110bda690ff7
     Pseudo is Ultrasoft, Zval =  1.0
     Generated by new atomic code, or converted to UPF format
     Using radial grid of  615 points,  1 beta functions with:
                l(1) =   0
     Q(r) pseudized with  8 coefficients,  rinner =    0.800

     atomic species   valence    mass     pseudopotential
        Ti1           12.00    47.86700     Ti( 1.00)
        O1             6.00    15.99900     O ( 1.00)
        N1             5.00    14.00700     N ( 1.00)
        C1             4.00    12.01100     C ( 1.00)
        H1             1.00     1.00800     H ( 1.00)

     No symmetry found

   Cartesian axes

     site n.     atom                  positions (alat units)
         1           Ti1 tau(   1) = (   0.0004258   2.9801865   6.0000000  )
         2           Ti1 tau(   2) = (   3.2906075   1.4906267   6.0002472  )
         3           O1  tau(   3) = (   0.0006271   0.0005054   7.9858123  )
         4           O1  tau(   4) = (   3.2906025   0.0005020   7.3038282  )
         5           O1  tau(   5) = (   4.5942328   1.4918067   9.2879030  )
         6           O1  tau(   6) = (   1.9868534   1.4903216   9.2879459  )
         7           Ti1 tau(   7) = (   3.2907910   2.8959150   9.1758416  )
         8           Ti1 tau(   8) = (   0.0015273   1.4827037   9.2680791  )
         9           O1  tau(   9) = (   3.2823942   0.0140684  11.3428430  )
        10           O1  tau(  10) = (   0.0116148   5.9584955  10.6183126  )
        11           O1  tau(  11) = (   1.2742013   1.4978990  12.6323156  )
        12           O1  tau(  12) = (   5.2614901   1.5083079  12.6129891  )
        13           Ti1 tau(  13) = (   0.0550148   2.9595524  12.6160221  )
        14           Ti1 tau(  14) = (   3.3718896   1.5084997  12.4944496  )
        15           O1  tau(  15) = (   6.5380961   0.0278828  14.6255036  )
        16           O1  tau(  16) = (   3.2758616   0.0189586  13.9121306  )
        17           O1  tau(  17) = (   4.4976875   1.5333668  16.0433440  )
        18           O1  tau(  18) = (   1.9922867   1.5271532  16.0291573  )
        19           Ti1 tau(  19) = (   3.1858679   3.0241111  15.7732818  )
        20           Ti1 tau(  20) = (   6.4842391   1.5502874  15.8011710  )
        21           O1  tau(  21) = (   3.2904802   0.0005063   4.7018136  )
        22           O1  tau(  22) = (   6.5196731   0.0665875  17.1891134  )
        23           O1  tau(  23) = (   1.3043587   1.4918075   6.0039043  )
        24           O1  tau(  24) = (   5.2767064   1.4903225   6.0039473  )
        25           Ti1 tau(  25) = (   0.0000382   5.9609847   6.0000000  )
        26           Ti1 tau(  26) = (   3.2902200   4.4714249   6.0002472  )
        27           O1  tau(  27) = (   0.0002396   2.9813036   7.9858123  )
        28           O1  tau(  28) = (   3.2902150   2.9813002   7.3038282  )
        29           O1  tau(  29) = (   4.5938453   4.4726049   9.2879030  )
        30           O1  tau(  30) = (   1.9864658   4.4711199   9.2879459  )
        31           Ti1 tau(  31) = (   3.2891106   5.8743827   9.1763621  )
        32           Ti1 tau(  32) = (   0.0006254   4.4649316   9.2693709  )
        33           O1  tau(  33) = (   3.2807012   2.9937711  11.3380227  )
        34           O1  tau(  34) = (   0.0092240   2.9805883  10.6323155  )
        35           O1  tau(  35) = (   1.2734598   4.4826339  12.6318047  )
        36           O1  tau(  36) = (   5.2665626   4.4910389  12.6093644  )
        37           Ti1 tau(  37) = (   0.0550181   5.9329888  12.5453996  )
        38           Ti1 tau(  38) = (   3.3741151   4.4737790  12.4977360  )
        39           O1  tau(  39) = (   6.5373474   2.9946220  14.6524478  )
        40           O1  tau(  40) = (   3.2677173   3.0168568  13.9399215  )
        41           O1  tau(  41) = (   4.4884636   4.5316779  16.1079578  )
        42           O1  tau(  42) = (   1.9830865   4.5332738  16.0531499  )
        43           Ti1 tau(  43) = (   3.2469912   0.0413792  15.7000251  )
        44           Ti1 tau(  44) = (   6.5198411   4.7064707  16.0702691  )
        45           O1  tau(  45) = (   3.2900926   2.9813045   4.7018136  )
        46           O1  tau(  46) = (   1.3039711   4.4726057   6.0039043  )
        47           O1  tau(  47) = (   5.2763189   4.4711207   6.0039473  )
        48           N1  tau(  48) = (   0.0943371   2.6987919  18.6315974  )
        49           N1  tau(  49) = (   6.5718678   2.9345059  17.4339123  )
        50           C1  tau(  50) = (   0.1779456   3.8407003  19.5793842  )
        51           H1  tau(  51) = (   6.4148796   4.7858965  19.1557567  )
        52           H1  tau(  52) = (   6.1971438   3.5603257  20.4715321  )
        53           H1  tau(  53) = (   1.2306852   3.9282498  19.8556806  )
        54           O1  tau(  54) = (   3.3096034   3.0730741  18.2289406  )
        55           H1  tau(  55) = (   4.0988663   3.6297178  18.3192648  )
        56           H1  tau(  56) = (   3.5789210   2.1977314  18.5401991  )

     number of k points=    10  Fermi-Dirac smearing, width (Ry)=  0.0073
                       cart. coord. in units 2pi/alat
        k(    1) = (   0.0000000   0.0000000   0.0000000), wk =   0.1250000
        k(    2) = (   0.0000000   0.0419351   0.0000000), wk =   0.2500000
        k(    3) = (   0.0000000  -0.0838702   0.0000000), wk =   0.1250000
        k(    4) = (   0.0379955   0.0000049   0.0000000), wk =   0.2500000
        k(    5) = (   0.0379955   0.0419400   0.0000000), wk =   0.2500000
        k(    6) = (   0.0379955  -0.0838652   0.0000000), wk =   0.2500000
        k(    7) = (   0.0379955  -0.0419301   0.0000000), wk =   0.2500000
        k(    8) = (  -0.0759910  -0.0000099   0.0000000), wk =   0.1250000
        k(    9) = (  -0.0759910   0.0419252   0.0000000), wk =   0.2500000
        k(   10) = (  -0.0759910  -0.0838800   0.0000000), wk =   0.1250000

     Initial potential from superposition of free atoms

     starting charge  386.99914, renormalised to  403.00000

     negative rho (up, down):  1.478E-02 0.000E+00

     %%%%%%%%%%%%%%%%%%%%%%%%%%%%%%%%%%%%%%%%%%%%%%%%%%%%%%%%%%%%%%%%%%%%%%%%
     %                                                                      %
     % You are using vdW-DF, which was implemented by the Thonhauser group. %
     % Please cite the following two papers that made this development      %
     % possible and the two reviews that describe the various versions:     %
     %                                                                      %
     %   T. Thonhauser et al., PRL 115, 136402 (2015).                      %
     %   T. Thonhauser et al., PRB 76, 125112 (2007).                       %
     %   K. Berland et al., Rep. Prog. Phys. 78, 066501 (2015).             %
     %   D.C. Langreth et al., J. Phys.: Condens. Matter 21, 084203 (2009). %
     %                                                                      %
     %                                                                      %
     % If you are calculating the stress with vdW-DF, please also cite:     %
     %                                                                      %
     %   R. Sabatini et al., J. Phys.: Condens. Matter 24, 424209 (2012).   %
     %                                                                      %
     %%%%%%%%%%%%%%%%%%%%%%%%%%%%%%%%%%%%%%%%%%%%%%%%%%%%%%%%%%%%%%%%%%%%%%%%

     Adding external electric field

     Computed dipole along edir(3) :
        Dipole              -13.2292 Ry au,        -33.6254 Debye
        Dipole field         -0.0250 Ry au,

        Potential amp.        2.3143 Ry
        Total length         46.3494 bohr

     Starting wfcs are  305 atomic wfcs
  @ DRIVER MODE: Message from server: STATUS
  @ DRIVER MODE: Message from server: POSDATA
  @ DRIVER MODE: Reading and sharing cell
  @ DRIVER MODE: Reading and sharing positions
  @ DRIVER MODE: Received positions

     Self-consistent Calculation

     iteration #  1     ecut=    29.40 Ry     beta= 0.05
     Davidson diagonalization with overlap
     c_bands:  5 eigenvalues not converged
     c_bands:  2 eigenvalues not converged
     c_bands:  5 eigenvalues not converged
     c_bands:  5 eigenvalues not converged
     c_bands:  1 eigenvalues not converged
     c_bands:  1 eigenvalues not converged
     c_bands:  4 eigenvalues not converged
     c_bands:  2 eigenvalues not converged
     c_bands:  1 eigenvalues not converged
     ethr =  1.00E-05,  avg # of iterations = 26.9

[...]

     total energy              =   -2368.09880377 Ry
     estimated scf accuracy    <    6912.62450866 Ry

     iteration #  2     ecut=    29.40 Ry     beta= 0.05
     Davidson diagonalization with overlap
     ethr =  1.00E-02,  avg # of iterations = 23.0

[...]

     iteration # 59     ecut=    29.40 Ry     beta= 0.05
     Davidson diagonalization with overlap
     c_bands:  1 eigenvalues not converged
     ethr =  1.05E-09,  avg # of iterations = 13.9

[...]

     total energy              =   -2973.98645388 Ry
     estimated scf accuracy    <       0.00000023 Ry

     iteration # 67     ecut=    29.40 Ry     beta= 0.05
     Davidson diagonalization with overlap
     ethr =  2.41E-11,  avg # of iterations = 11.4

     negative rho (up, down):  1.505E-02 0.000E+00

     Adding external electric field

     Computed dipole along edir(3) :
        Dipole                0.9031 Ry au,          2.2954 Debye
        Dipole field          0.0017 Ry au,

        Potential amp.       -0.1580 Ry
        Total length         46.3494 bohr

     End of self-consistent calculation

          k = 0.0000 0.0000 0.0000 ( 18029 PWs)   bands (ev):

   -55.6054 -55.5714 -55.5695 -55.5337 -55.5011 -55.4509 -55.4410 -55.4168
   -55.4045 -55.3828 -55.3813 -55.3473 -55.0110 -54.8394 -54.5849 -54.5509
   -32.1144 -32.0881 -31.9614 -31.9450 -31.9154 -31.8983 -31.8836 -31.8711
   -31.8487 -31.8086 -31.8008 -31.7700 -31.7578 -31.7483 -31.7398 -31.7297
   -31.7099 -31.7005 -31.6982 -31.6627 -31.6587 -31.6482 -31.6354 -31.6098
   -31.6052 -31.6006 -31.5953 -31.5883 -31.5807 -31.5714 -31.5567 -31.5565
   -31.5477 -31.5341 -31.5235 -31.5112 -31.4931 -31.2883 -31.2016 -31.1000
   -31.0951 -31.0584 -30.9922 -30.9036 -30.8811 -30.8088 -30.7223 -30.6114
   -19.0574 -18.3032 -16.3201 -16.0792 -15.8773 -15.7620 -15.7212 -15.5287
   -15.4306 -15.3320 -15.2353 -15.1670 -15.1438 -15.1366 -15.1327 -15.1070
   -15.0824 -15.0705 -15.0490 -15.0326 -15.0178 -14.9580 -14.9444 -14.9355
   -14.8460 -14.7912 -14.7567 -14.7378 -14.6801 -14.6615 -14.1799 -13.0874
   -12.9710 -11.2885  -6.8833  -6.7438  -4.1974  -4.0596  -3.8016  -3.6903
    -3.5586  -3.5114  -3.4499  -3.4202  -3.2230  -3.1038  -3.0233  -2.8460
    -2.7886  -2.7610  -2.7315  -2.6601  -2.5240  -2.4736  -2.4225  -2.4160
    -2.4042  -2.3727  -2.3679  -2.3470  -2.2476  -2.2441  -2.1922  -2.1525
    -2.0831  -2.0036  -1.9849  -1.9375  -1.9185  -1.9064  -1.8782  -1.8548
    -1.8442  -1.8092  -1.7968  -1.7231  -1.6203  -1.5517  -1.5029  -1.4649
    -1.4006  -1.3873  -1.2201  -1.1560  -1.1103  -1.0737  -1.0549  -1.0345
    -1.0007  -0.9931  -0.8841  -0.7598  -0.7557  -0.6758  -0.6154  -0.5372
    -0.5280  -0.4508  -0.3945  -0.3761  -0.3636  -0.3525  -0.3238  -0.2509
    -0.1054  -0.0619  -0.0373  -0.0022   0.0268   0.0929   0.1362   0.2057
     0.2407   0.2817   0.3168   0.3409   0.3651   0.3728   0.3880   0.4001
     0.4194   0.6016   0.6619   0.6831   0.7481   0.7774   0.9204   0.9868
     1.0509   1.1575   1.3624   1.4371   1.5280   1.6293   2.0086   2.0544
     2.7714   3.5288   3.6137   3.6605   3.7025   3.7751   3.7926   3.9652
     3.9843   4.0270   4.1185

[...]

          k = 0.0380-0.0419 0.0000 ( 17876 PWs)   bands (ev):

[...]

          k =-0.0760-0.0000 0.0000 ( 17886 PWs)   bands (ev):

[...]

          k =-0.0760-0.0839 0.0000 ( 17948 PWs)   bands (ev):

   -55.5887 -55.5879 -55.5526 -55.5504 -55.4943 -55.4576 -55.4287 -55.4169
   -55.4005 -55.3986 -55.3671 -55.3617 -55.0094 -54.8409 -54.5679 -54.5678
   -31.9285 -31.9131 -31.9036 -31.9031 -31.8841 -31.8833 -31.8534 -31.8190
   -31.7965 -31.7928 -31.7838 -31.7637 -31.7609 -31.7419 -31.7204 -31.7158
   -31.7139 -31.7092 -31.7085 -31.7075 -31.7066 -31.7045 -31.7002 -31.6609
   -31.6496 -31.6364 -31.6264 -31.6127 -31.6001 -31.5993 -31.5974 -31.5900
   -31.5811 -31.5775 -31.5707 -31.5671 -31.4288 -31.2901 -31.2071 -31.1560
   -31.1011 -31.0844 -30.8939 -30.8938 -30.8050 -30.8049 -30.7656 -30.7656
   -19.0526 -18.3048 -15.7667 -15.6846 -15.5622 -15.5236 -15.4801 -15.4364
   -15.4162 -15.3232 -15.3037 -15.2940 -15.2430 -15.2288 -15.2058 -15.1621
   -15.1398 -15.1306 -15.1264 -15.0907 -15.0623 -15.0456 -15.0421 -15.0364
   -14.9741 -14.9252 -14.9232 -14.9183 -14.7915 -14.6627 -14.3585 -13.0728
   -13.0727 -11.2862  -6.8821  -6.7594  -4.1265  -3.8654  -3.7816  -3.2773
    -3.0515  -2.8899  -2.8200  -2.7297  -2.7003  -2.6929  -2.5494  -2.5169
    -2.4871  -2.4395  -2.4348  -2.4308  -2.4236  -2.4078  -2.4011  -2.3850
    -2.3335  -2.3207  -2.2959  -2.2826  -2.2756  -2.2581  -2.2363  -2.2261
    -2.2042  -2.1702  -2.1559  -2.1205  -2.1147  -2.0238  -1.8383  -1.8285
    -1.7813  -1.7481  -1.7340  -1.7088  -1.6719  -1.6584  -1.6503  -1.5986
    -1.4744  -1.4338  -1.3461  -1.2982  -1.2810  -1.2284  -1.1646  -1.1407
    -1.0708  -1.0259  -0.9894  -0.9674  -0.9446  -0.7998  -0.7874  -0.7338
    -0.7207  -0.6835  -0.6363  -0.5778  -0.5655  -0.5553  -0.5387  -0.5055
    -0.4370  -0.3677  -0.3560  -0.3278  -0.2767  -0.2603  -0.2169  -0.1282
    -0.1091  -0.0723   0.0256   0.1276   0.2193   0.3538   0.4396   0.4629
     0.5189   0.5962   0.6943   0.7040   0.7125   0.7486   0.7723   0.8326
     0.9263   0.9463   0.9732   1.0960   1.8006   1.8013   1.8740   1.8742
     2.8124   3.7899   3.8494   3.8951   3.9142   4.0068   4.0399   4.0619
     4.0644   4.1115   4.2039

     the Fermi energy is     3.5279 ev

!    total energy              =   -2973.98647994 Ry
     estimated scf accuracy    <       0.00000004 Ry
     smearing contrib. (-TS)   =      -0.02192025 Ry
     internal energy E=F+TS    =   -2973.96455969 Ry

     The total energy is F=E-TS. E is the sum of the following terms:
     one-electron contribution =  -23875.81638125 Ry
     hartree contribution      =   12032.34611780 Ry
     xc contribution           =    -494.08597501 Ry
     ewald contribution        =    9363.59013965 Ry
     electric field correction =       0.00153912 Ry

     convergence has been achieved in  67 iterations

     Forces acting on atoms (cartesian axes, Ry/au):

     atom    1 type  1   force =     0.00006174   -0.00016613    0.09644992
     atom    2 type  1   force =    -0.00015840   -0.00063631   -0.17545823
     atom    3 type  2   force =    -0.00003615    0.00002168   -0.02463854
     atom    4 type  2   force =     0.00005869   -0.00136570    0.05308974
     atom    5 type  2   force =    -0.01207623    0.00003659    0.00386571
     atom    6 type  2   force =     0.01329458    0.00071252    0.00207086
     atom    7 type  1   force =    -0.00148438    0.00064445   -0.01047793
     atom    8 type  1   force =     0.00072319    0.00972543    0.02662160
     atom    9 type  2   force =    -0.00040686    0.00009258   -0.00032387
     atom   10 type  2   force =    -0.00180902    0.00306928   -0.01772587
     atom   11 type  2   force =    -0.00014797   -0.00023398    0.00011821
     atom   12 type  2   force =    -0.00017991   -0.00028983   -0.00030107
     atom   13 type  1   force =    -0.00020935   -0.00021175   -0.00010265
     atom   14 type  1   force =    -0.00036470   -0.00017668   -0.00035973
     atom   15 type  2   force =     0.00003024   -0.00088050    0.00022896
     atom   16 type  2   force =     0.00006131    0.00016310   -0.00000382
     atom   17 type  2   force =    -0.00009934   -0.00053373    0.00033492
     atom   18 type  2   force =     0.00027929   -0.00040658    0.00043605
     atom   19 type  1   force =     0.00034358    0.00004456   -0.00016841
     atom   20 type  1   force =     0.00035923   -0.00069396    0.00013997
     atom   21 type  2   force =     0.00008282   -0.00004531    0.10322344
     atom   22 type  2   force =     0.00052960   -0.00046762   -0.00032420
     atom   23 type  2   force =    -0.07148364   -0.00008626   -0.02773662
     atom   24 type  2   force =     0.07141993    0.00029874   -0.02773750
     atom   25 type  1   force =     0.00007281   -0.00029486    0.09592058
     atom   26 type  1   force =    -0.00025363   -0.00023468   -0.17572751
     atom   27 type  2   force =     0.00007060   -0.00009158   -0.02365701
     atom   28 type  2   force =     0.00006254   -0.00118961    0.05337198
     atom   29 type  2   force =    -0.01231531    0.00061724    0.00390290
     atom   30 type  2   force =     0.01347137    0.00109854    0.00207271
     atom   31 type  1   force =    -0.00129930    0.00372582   -0.00846263
     atom   32 type  1   force =     0.00085075   -0.01167385    0.02704554
     atom   33 type  2   force =    -0.00002187    0.00012976   -0.00010870
     atom   34 type  2   force =    -0.00128327    0.00168595   -0.02363807
     atom   35 type  2   force =    -0.00023274   -0.00003838    0.00004009
     atom   36 type  2   force =     0.00004715   -0.00002780    0.00017951
     atom   37 type  1   force =     0.00000261   -0.00018089    0.00015633
     atom   38 type  1   force =    -0.00056702   -0.00029612    0.00053577
     atom   39 type  2   force =     0.00021503   -0.00061145    0.00049939
     atom   40 type  2   force =    -0.00001584   -0.00010394    0.00016916
     atom   41 type  2   force =     0.00022057   -0.00047749   -0.00038513
     atom   42 type  2   force =     0.00016296   -0.00033105   -0.00050151
     atom   43 type  1   force =     0.00070804   -0.00054802    0.00011544
     atom   44 type  1   force =    -0.00003388   -0.00019260   -0.00081649
     atom   45 type  2   force =     0.00009028   -0.00005704    0.10321405
     atom   46 type  2   force =    -0.07146891   -0.00007576   -0.02774125
     atom   47 type  2   force =     0.07141587    0.00035776   -0.02775636
     atom   48 type  3   force =    -0.00043786   -0.00063520    0.00112249
     atom   49 type  3   force =     0.00020412    0.00062715   -0.00047079
     atom   50 type  4   force =    -0.00048885    0.00133310   -0.00039374
     atom   51 type  5   force =     0.00138104   -0.00073682    0.00025661
     atom   52 type  5   force =     0.00025223    0.00006647   -0.00039847
     atom   53 type  5   force =    -0.00002744   -0.00013229    0.00041077
     atom   54 type  2   force =    -0.00241885    0.00450068   -0.00243857
     atom   55 type  5   force =     0.00036209    0.00008657    0.00033193
     atom   56 type  5   force =     0.00248645   -0.00491419    0.00193004

     Total force =     0.367904     Total SCF correction =     0.000488
  @ DRIVER MODE: Message from server: STATUS
  @ DRIVER MODE: Message from server: GETFORCE
  @ DRIVER MODE: Returning v,forces,stress,ensemble

     Writing output data file ./calc.save/
  @ DRIVER MODE: Message from server: EXIT
  @ DRIVE MODE: Exiting

     General routines

     Parallel routines

   This run was terminated on:  15:22:27  10Sep2021

   JOB DONE.