     Program PWSCF v.6.7GPU starts on 28Sep2021 at 16:34:32

     R & G space division:  proc/nbgrp/npool/nimage =       8
     Reading input from /storage/home/hcoda1/3/ntian30/research/carbon/CxH_vib/H2O_calc/ads_slab/CH3OHN2H2O_a/out_0046/pw.inp
Warning: card &CELL ignored
Warning: card   CELL_DYNAMICS='IPI', ignored
Warning: card / ignored

     Current dimensions of program PWSCF are:
     Max number of different atomic species (ntypx) = 10
     Max number of k-points (npk) =  40000
     Max angular momentum in pseudopotentials (lmaxx) =  3
     Presently no symmetry can be used with electric field

     Message from routine cell_base_init:
     DEPRECATED: use true lattice parameter, not A to a.u. conversion factor

     IMPORTANT: XC functional enforced from input :
     Exchange-correlation= BEEF-VDW
                           (   1   4  43  14   2   0   0)
     Any further DFT definition will be discarded
     Please, verify this is what you really want

  @ DRIVER MODE: Connecting to
 qe_1139763_3000313.sched-torque.pace.gatech.educbkp6v4v_scratch
  using UNIX socket
  @ DRIVER MODE: Message from server: STATUS
  @ DRIVER MODE: Message from server: INIT
  @ DRIVER MODE: Receiving replica           0          -1
  @ DRIVER MODE: Receiving encoded integer          25
  @ DRIVER MODE:  SCF:  T  FORCE:  T  STRESS:  F  VC:  F  ENSEMBLE:  F
  @ DRIVER MODE:  SCF:  T  FORCE:  T  STRESS:  F  VC:  F  ENSEMBLE:  F

     Using Slab Decomposition

     bravais-lattice index     =            0
     lattice parameter (alat)  =       1.8897  a.u.
     unit-cell volume          =    6658.9804 (a.u.)^3
     number of atoms/cell      =           58
     number of atomic types    =            5
     number of electrons       =       410.00
     number of Kohn-Sham states=          215
     kinetic-energy cutoff     =      29.3995  Ry
     charge density cutoff     =     293.9946  Ry
     scf convergence threshold =      7.3E-08
     mixing beta               =       0.0500
     number of iterations used =            8  plain     mixing
     Exchange-correlation= BEEF-VDW
                           (   1   4  43  14   2   0   0)

     celldm(1)=   1.889726  celldm(2)=   0.000000  celldm(3)=   0.000000
     celldm(4)=   0.000000  celldm(5)=   0.000000  celldm(6)=   0.000000

     crystal axes: (cart. coord. in units of alat)
               a(1) = (   6.579727   0.000000   0.000000 )
               a(2) = (  -0.000775   5.961596   0.000000 )
               a(3) = (   0.000000   0.000000  25.155947 )

     reciprocal axes: (cart. coord. in units 2 pi/alat)
               b(1) = (  0.151982  0.000020  0.000000 )
               b(2) = (  0.000000  0.167740  0.000000 )
               b(3) = (  0.000000  0.000000  0.039752 )

     PseudoPot. # 1 for Ti read from file:
     /storage/coda1/p-amedford6/0/shared/rich_project_chbe-medford/medford-share/data/pseudos_module/espresso/nninc/pbe/van/Ti.UPF
     MD5 check sum: 8e4df49b7f0d34bbd5052bf3f5ea0213
     Pseudo is Ultrasoft, Zval = 12.0
     Generated by new atomic code, or converted to UPF format
     Using radial grid of  851 points,  6 beta functions with:
                l(1) =   0
                l(2) =   0
                l(3) =   1
                l(4) =   1
                l(5) =   2
                l(6) =   2
     Q(r) pseudized with  8 coefficients,  rinner =    1.000   1.000   1.000
                                                       1.000   1.000

     PseudoPot. # 2 for O  read from file:
     /storage/coda1/p-amedford6/0/shared/rich_project_chbe-medford/medford-share/data/pseudos_module/espresso/nninc/pbe/van/O.UPF
     MD5 check sum: 78c19812648e8988a0fe644b0f25305e
     Pseudo is Ultrasoft, Zval =  6.0
     Generated by new atomic code, or converted to UPF format
     Using radial grid of  737 points,  4 beta functions with:
                l(1) =   0
                l(2) =   0
                l(3) =   1
                l(4) =   1
     Q(r) pseudized with  8 coefficients,  rinner =    0.800   0.800   0.800

     PseudoPot. # 3 for C  read from file:
     /storage/coda1/p-amedford6/0/shared/rich_project_chbe-medford/medford-share/data/pseudos_module/espresso/nninc/pbe/van/C.UPF
     MD5 check sum: 1a69bf6b8db32088f5b2163dbdb77a27
     Pseudo is Ultrasoft, Zval =  4.0
     Generated by new atomic code, or converted to UPF format
     Using radial grid of  721 points,  4 beta functions with:
                l(1) =   0
                l(2) =   0
                l(3) =   1
                l(4) =   1
     Q(r) pseudized with  8 coefficients,  rinner =    0.800   0.800   0.800

     PseudoPot. # 4 for H  read from file:
     /storage/coda1/p-amedford6/0/shared/rich_project_chbe-medford/medford-share/data/pseudos_module/espresso/nninc/pbe/van/H.UPF
     MD5 check sum: b5ee9d7bfd3a09ee7748110bda690ff7
     Pseudo is Ultrasoft, Zval =  1.0
     Generated by new atomic code, or converted to UPF format
     Using radial grid of  615 points,  1 beta functions with:
                l(1) =   0
     Q(r) pseudized with  8 coefficients,  rinner =    0.800

     PseudoPot. # 5 for N  read from file:
     /storage/coda1/p-amedford6/0/shared/rich_project_chbe-medford/medford-share/data/pseudos_module/espresso/nninc/pbe/van/N.UPF
     MD5 check sum: 90d10febe142ad51ac9d5be1deb811c4
     Pseudo is Ultrasoft, Zval =  5.0
     Generated by new atomic code, or converted to UPF format
     Using radial grid of  729 points,  4 beta functions with:
                l(1) =   0
                l(2) =   0
                l(3) =   1
                l(4) =   1
     Q(r) pseudized with  8 coefficients,  rinner =    0.800   0.800   0.800

     atomic species   valence    mass     pseudopotential
        Ti1           12.00    47.86700     Ti( 1.00)
        O1             6.00    15.99900     O ( 1.00)
        C1             4.00    12.01100     C ( 1.00)
        H1             1.00     1.00800     H ( 1.00)
        N1             5.00    14.00700     N ( 1.00)

     No symmetry found

   Cartesian axes

     site n.     atom                  positions (alat units)
         1           Ti1 tau(   1) = (   0.0004258   2.9801865   6.0000000  )
         2           Ti1 tau(   2) = (   3.2906075   1.4906267   6.0002472  )
         3           O1  tau(   3) = (   0.0006271   0.0005054   7.9858123  )
         4           O1  tau(   4) = (   3.2906025   0.0005020   7.3038282  )
         5           O1  tau(   5) = (   4.5942328   1.4918067   9.2879030  )
         6           O1  tau(   6) = (   1.9868534   1.4903216   9.2879459  )
         7           Ti1 tau(   7) = (   3.3250738   2.9918783   9.1599549  )
         8           Ti1 tau(   8) = (   0.0412716   1.4903975   9.2658274  )
         9           O1  tau(   9) = (   3.2852344   0.0116916  11.3753809  )
        10           O1  tau(  10) = (   6.5701620   0.0027176  10.6052010  )
        11           O1  tau(  11) = (   1.2758103   1.4969824  12.6410148  )
        12           O1  tau(  12) = (   5.2796941   1.4985041  12.6691897  )
        13           Ti1 tau(  13) = (   6.5531116   2.9870417  12.5348353  )
        14           Ti1 tau(  14) = (   3.2504356   1.4995581  12.5215122  )
        15           O1  tau(  15) = (   0.0383206   0.0046779  14.6787597  )
        16           O1  tau(  16) = (   3.2537876   0.0095675  14.0320577  )
        17           O1  tau(  17) = (   4.5855444   1.5609978  16.0639115  )
        18           O1  tau(  18) = (   2.0343745   1.5440679  16.2001998  )
        19           Ti1 tau(  19) = (   3.3058624   3.0043567  15.7064231  )
        20           Ti1 tau(  20) = (   6.5549511   1.4266458  15.8675638  )
        21           O1  tau(  21) = (   3.2904802   0.0005063   4.7018136  )
        22           O1  tau(  22) = (   6.4974171   0.0126247  17.2237355  )
        23           O1  tau(  23) = (   1.3043587   1.4918075   6.0039043  )
        24           O1  tau(  24) = (   5.2767064   1.4903225   6.0039473  )
        25           Ti1 tau(  25) = (   0.0000382   5.9609847   6.0000000  )
        26           Ti1 tau(  26) = (   3.2902200   4.4714249   6.0002472  )
        27           O1  tau(  27) = (   0.0002396   2.9813036   7.9858123  )
        28           O1  tau(  28) = (   3.2902150   2.9813002   7.3038282  )
        29           O1  tau(  29) = (   4.5938453   4.4726049   9.2879030  )
        30           O1  tau(  30) = (   1.9864658   4.4711199   9.2879459  )
        31           Ti1 tau(  31) = (   3.3194574   0.0113313   9.1541029  )
        32           Ti1 tau(  32) = (   0.0414074   4.4589881   9.2683624  )
        33           O1  tau(  33) = (   3.2821265   2.9896323  11.3676027  )
        34           O1  tau(  34) = (   6.5712111   2.9825298  10.6251173  )
        35           O1  tau(  35) = (   1.2751242   4.4805681  12.6359318  )
        36           O1  tau(  36) = (   5.2791817   4.4782367  12.6627471  )
        37           Ti1 tau(  37) = (   6.5506445   0.0032150  12.4806913  )
        38           Ti1 tau(  38) = (   3.2507345   4.4881811  12.5195668  )
        39           O1  tau(  39) = (   0.0469291   2.9928743  14.8464778  )
        40           O1  tau(  40) = (   3.2514374   2.9975957  13.9281162  )
        41           O1  tau(  41) = (   4.5866068   4.4203933  16.0984022  )
        42           O1  tau(  42) = (   2.0418857   4.4579080  16.2200674  )
        43           Ti1 tau(  43) = (   3.2648600   0.0292614  15.8571223  )
        44           Ti1 tau(  44) = (   6.5763064   4.6169283  15.9626260  )
        45           O1  tau(  45) = (   3.2900926   2.9813045   4.7018136  )
        46           O1  tau(  46) = (   1.3039711   4.4726057   6.0039043  )
        47           O1  tau(  47) = (   5.2763189   4.4711207   6.0039473  )
        48           C1  tau(  48) = (   6.0301898   2.9050411  18.9351799  )
        49           O1  tau(  49) = (   0.1575529   2.9516393  17.6723866  )
        50           H1  tau(  50) = (   4.9714676   2.8818909  18.6991823  )
        51           H1  tau(  51) = (   1.1132637   2.8218831  17.8130049  )
        52           H1  tau(  52) = (   6.2985093   1.9952365  19.4696065  )
        53           H1  tau(  53) = (   6.2732381   3.7939772  19.5169533  )
        54           N1  tau(  54) = (   4.8840950   3.1052494  22.6850861  )
        55           N1  tau(  55) = (   4.2680757   3.3503818  21.7970487  )
        56           O1  tau(  56) = (   3.8772584   0.1141246  18.3039653  )
        57           H1  tau(  57) = (   4.8407149   0.0692883  18.0716375  )
        58           H1  tau(  58) = (   3.6680196   5.2122673  18.6877519  )

     number of k points=    10  Fermi-Dirac smearing, width (Ry)=  0.0073
                       cart. coord. in units 2pi/alat
        k(    1) = (   0.0000000   0.0000000   0.0000000), wk =   0.1250000
        k(    2) = (   0.0000000   0.0419351   0.0000000), wk =   0.2500000
        k(    3) = (   0.0000000  -0.0838702   0.0000000), wk =   0.1250000
        k(    4) = (   0.0379955   0.0000049   0.0000000), wk =   0.2500000
        k(    5) = (   0.0379955   0.0419400   0.0000000), wk =   0.2500000
        k(    6) = (   0.0379955  -0.0838652   0.0000000), wk =   0.2500000
        k(    7) = (   0.0379955  -0.0419301   0.0000000), wk =   0.2500000
        k(    8) = (  -0.0759910  -0.0000099   0.0000000), wk =   0.1250000
        k(    9) = (  -0.0759910   0.0419252   0.0000000), wk =   0.2500000
        k(   10) = (  -0.0759910  -0.0838800   0.0000000), wk =   0.1250000

     Initial potential from superposition of free atoms

     starting charge  393.99913, renormalised to  410.00000

     negative rho (up, down):  9.555E-03 0.000E+00

     %%%%%%%%%%%%%%%%%%%%%%%%%%%%%%%%%%%%%%%%%%%%%%%%%%%%%%%%%%%%%%%%%%%%%%%%
     %                                                                      %
     % You are using vdW-DF, which was implemented by the Thonhauser group. %
     % Please cite the following two papers that made this development      %
     % possible and the two reviews that describe the various versions:     %
     %                                                                      %
     %   T. Thonhauser et al., PRL 115, 136402 (2015).                      %
     %   T. Thonhauser et al., PRB 76, 125112 (2007).                       %
     %   K. Berland et al., Rep. Prog. Phys. 78, 066501 (2015).             %
     %   D.C. Langreth et al., J. Phys.: Condens. Matter 21, 084203 (2009). %
     %                                                                      %
     %                                                                      %
     % If you are calculating the stress with vdW-DF, please also cite:     %
     %                                                                      %
     %   R. Sabatini et al., J. Phys.: Condens. Matter 24, 424209 (2012).   %
     %                                                                      %
     %%%%%%%%%%%%%%%%%%%%%%%%%%%%%%%%%%%%%%%%%%%%%%%%%%%%%%%%%%%%%%%%%%%%%%%%

     Adding external electric field

     Computed dipole along edir(3) :
        Dipole              -20.0784 Ry au,        -51.0342 Debye
        Dipole field         -0.0379 Ry au,

        Potential amp.        3.5124 Ry
        Total length         46.3494 bohr

     Starting wfcs are  310 atomic wfcs
  @ DRIVER MODE: Message from server: STATUS
  @ DRIVER MODE: Message from server: POSDATA
  @ DRIVER MODE: Reading and sharing cell
  @ DRIVER MODE: Reading and sharing positions
  @ DRIVER MODE: Received positions

     Self-consistent Calculation

     iteration #  1     ecut=    29.40 Ry     beta= 0.05
     Davidson diagonalization with overlap
     c_bands:  1 eigenvalues not converged
     c_bands:  1 eigenvalues not converged
     c_bands:  5 eigenvalues not converged
     c_bands:  1 eigenvalues not converged
     c_bands:  4 eigenvalues not converged
     c_bands:  3 eigenvalues not converged
     ethr =  1.00E-05,  avg # of iterations = 32.1

[...]

     total energy              =   -2098.63368097 Ry
     estimated scf accuracy    <   10668.27437654 Ry

     iteration #  2     ecut=    29.40 Ry     beta= 0.05
     Davidson diagonalization with overlap
     ethr =  1.00E-02,  avg # of iterations = 30.4

[...]

     iteration # 80     ecut=    29.40 Ry     beta= 0.05
     Davidson diagonalization with overlap
     c_bands:  1 eigenvalues not converged
     ethr =  4.29E-11,  avg # of iterations = 10.4

[...]

     total energy              =   -3007.66317660 Ry
     estimated scf accuracy    <       0.00000019 Ry

     iteration # 81     ecut=    29.40 Ry     beta= 0.05
     Davidson diagonalization with overlap
     ethr =  4.29E-11,  avg # of iterations = 11.0

     negative rho (up, down):  1.050E-02 0.000E+00

     Adding external electric field

     Computed dipole along edir(3) :
        Dipole                1.2231 Ry au,          3.1089 Debye
        Dipole field          0.0023 Ry au,

        Potential amp.       -0.2140 Ry
        Total length         46.3494 bohr

     End of self-consistent calculation

          k = 0.0000 0.0000 0.0000 ( 18029 PWs)   bands (ev):

   -54.9410 -54.9171 -54.9049 -54.8828 -54.8677 -54.8622 -54.8352 -54.8157
   -54.7878 -54.7851 -54.7506 -54.7299 -54.6985 -54.6960 -54.0052 -53.9712
   -31.5068 -31.4805 -31.4130 -31.3198 -31.2607 -31.2549 -31.2429 -31.2410
   -31.2057 -31.1710 -31.1619 -31.1598 -31.1554 -31.1320 -31.1255 -31.1196
   -31.1032 -31.0846 -31.0788 -31.0770 -31.0704 -31.0624 -31.0397 -31.0339
   -31.0331 -31.0273 -31.0125 -31.0103 -31.0094 -30.9736 -30.9563 -30.9362
   -30.9347 -30.9338 -30.9256 -30.9243 -30.9144 -30.8842 -30.8699 -30.8656
   -30.8610 -30.8415 -30.4172 -30.3149 -30.2933 -30.2334 -30.1470 -30.0361
   -21.5701 -19.8100 -18.2762 -15.7739 -15.5278 -15.3885 -15.2911 -15.1678
   -15.0375 -14.9636 -14.8432 -14.7712 -14.6770 -14.6635 -14.6457 -14.6236
   -14.5914 -14.5652 -14.5083 -14.5034 -14.4485 -14.4451 -14.4345 -14.4236
   -14.3910 -14.3741 -14.3443 -14.3352 -14.1727 -14.1072 -14.0475 -13.9025
   -12.5061 -12.3868 -10.8227  -6.8714  -6.5547  -6.0340  -4.8409  -4.7497
    -4.7041  -4.6270  -3.5264  -3.1072  -2.9561  -2.9191  -2.8979  -2.8771
    -2.7499  -2.6594  -2.6289  -2.4711  -2.3781  -2.2425  -2.2149  -2.1832
    -2.1448  -2.0770  -2.0212  -1.9341  -1.9048  -1.8641  -1.8446  -1.8212
    -1.8064  -1.7788  -1.7490  -1.6767  -1.6392  -1.5545  -1.5376  -1.4494
    -1.3979  -1.3895  -1.3465  -1.2837  -1.2802  -1.2699  -1.2290  -1.2156
    -1.2076  -1.1974  -1.1904  -1.0281  -0.9843  -0.9500  -0.8268  -0.7172
    -0.6242  -0.6140  -0.5114  -0.4979  -0.4347  -0.4303  -0.3911  -0.3516
    -0.2894  -0.1926  -0.1336  -0.0874  -0.0752   0.0354   0.1014   0.1164
     0.1778   0.2524   0.2674   0.2890   0.3189   0.4057   0.4733   0.5154
     0.5501   0.6144   0.6242   0.6718   0.7005   0.7418   0.8271   0.8808
     0.8848   0.9715   0.9888   1.0017   1.0274   1.0328   1.1311   1.1653
     1.2091   1.2372   1.3886   1.4244   1.6145   1.6504   1.9101   2.0088
     2.0204   2.1817   2.6062   2.6608   4.1490   4.2171   4.2537   4.2608
     4.2754   4.3549   4.6372   4.6471   4.6575   4.6691   4.6770

[...]

          k = 0.0380-0.0419 0.0000 ( 17876 PWs)   bands (ev):

[...]

          k =-0.0760-0.0000 0.0000 ( 17886 PWs)   bands (ev):

[...]

          k =-0.0760-0.0839 0.0000 ( 17948 PWs)   bands (ev):

   -54.9238 -54.9218 -54.9017 -54.8981 -54.8629 -54.8576 -54.8280 -54.8233
   -54.7951 -54.7701 -54.7653 -54.7144 -54.7116 -54.7001 -53.9882 -53.9881
   -31.3932 -31.3156 -31.3054 -31.2296 -31.2262 -31.2034 -31.1960 -31.1944
   -31.1876 -31.1647 -31.1500 -31.1482 -31.1405 -31.1345 -31.1155 -31.1014
   -31.0860 -31.0841 -31.0751 -31.0739 -31.0720 -31.0711 -31.0655 -31.0601
   -31.0351 -31.0301 -31.0258 -31.0205 -31.0204 -31.0179 -31.0168 -31.0164
   -31.0163 -30.9875 -30.9787 -30.9681 -30.9668 -30.9396 -30.9372 -30.9012
   -30.8981 -30.8834 -30.3059 -30.3058 -30.2301 -30.2297 -30.1903 -30.1901
   -21.5699 -19.8064 -18.2751 -15.3488 -15.2356 -15.0698 -14.9613 -14.9516
   -14.9230 -14.8636 -14.8205 -14.7892 -14.7493 -14.7390 -14.7097 -14.6919
   -14.6869 -14.6289 -14.5452 -14.5395 -14.5257 -14.4903 -14.4634 -14.4494
   -14.4474 -14.4331 -14.3960 -14.3942 -14.3750 -14.3639 -14.3070 -14.2140
   -12.4881 -12.4874 -10.8254  -6.8705  -6.5569  -6.0364  -4.8365  -4.7553
    -4.7000  -4.6156  -3.5180  -2.7653  -2.5399  -2.5030  -2.4300  -2.2638
    -2.1846  -2.1636  -2.0879  -2.0640  -2.0286  -1.9503  -1.9465  -1.9122
    -1.8725  -1.8482  -1.8423  -1.8240  -1.8051  -1.7722  -1.7518  -1.7301
    -1.7171  -1.7017  -1.6556  -1.6467  -1.6109  -1.6074  -1.5923  -1.5807
    -1.5613  -1.5508  -1.4693  -1.4414  -1.4003  -1.3147  -1.2986  -1.1691
    -1.1635  -1.1160  -1.0812  -1.0426  -1.0238  -1.0013  -0.9770  -0.9459
    -0.9149  -0.7433  -0.7223  -0.6787  -0.6273  -0.6211  -0.5486  -0.5331
    -0.4784  -0.4462  -0.3566  -0.3156  -0.2762  -0.1675  -0.1407  -0.1283
     0.0101   0.0158   0.0606   0.0622   0.1051   0.1431   0.1562   0.1626
     0.2377   0.2698   0.3061   0.3321   0.3559   0.5343   0.5702   0.6292
     0.7192   0.7366   0.9155   0.9456   0.9892   1.0701   1.1314   1.1857
     1.2076   1.3166   1.3235   1.3470   1.4384   1.4868   1.4880   1.5180
     2.3716   2.3746   2.4752   2.4781   4.2737   4.4043   4.4106   4.4904
     4.5645   4.6569   4.6621   4.6724   4.7017   4.7116   4.7146

     the Fermi energy is     4.2052 ev

!    total energy              =   -3007.66319718 Ry
     estimated scf accuracy    <       0.00000006 Ry
     smearing contrib. (-TS)   =      -0.03684060 Ry
     internal energy E=F+TS    =   -3007.62635658 Ry

     The total energy is F=E-TS. E is the sum of the following terms:
     one-electron contribution =  -22338.91832978 Ry
     hartree contribution      =   11271.20615767 Ry
     xc contribution           =    -502.07581775 Ry
     ewald contribution        =    8562.15880999 Ry
     electric field correction =       0.00282329 Ry

     convergence has been achieved in  81 iterations

     Forces acting on atoms (cartesian axes, Ry/au):

     atom    1 type  1   force =    -0.00026534   -0.00002071    0.09254692
     atom    2 type  1   force =    -0.00013491    0.00114743   -0.18320395
     atom    3 type  2   force =     0.00054954   -0.00040230   -0.02389630
     atom    4 type  2   force =     0.00079689    0.00020857    0.05084314
     atom    5 type  2   force =    -0.01549216   -0.00014677    0.00436875
     atom    6 type  2   force =     0.01420814   -0.00033035    0.00505610
     atom    7 type  1   force =    -0.00011908    0.00020254    0.00004050
     atom    8 type  1   force =    -0.00006825    0.00018517   -0.00001317
     atom    9 type  2   force =     0.00006990    0.00004198    0.00012951
     atom   10 type  2   force =    -0.00000200    0.00001790   -0.00005336
     atom   11 type  2   force =     0.00016817    0.00001182   -0.00013550
     atom   12 type  2   force =     0.00004431    0.00003040   -0.00006137
     atom   13 type  1   force =     0.00018235    0.00011126   -0.00002598
     atom   14 type  1   force =     0.00027115    0.00015912   -0.00010443
     atom   15 type  2   force =     0.00027919    0.00039217    0.00001985
     atom   16 type  2   force =     0.00015346   -0.00001722    0.00017618
     atom   17 type  2   force =    -0.00001161    0.00012375    0.00007788
     atom   18 type  2   force =     0.00022485    0.00000036    0.00022362
     atom   19 type  1   force =     0.00009576   -0.00014962    0.00015821
     atom   20 type  1   force =     0.00018031   -0.00006351   -0.00009161
     atom   21 type  2   force =     0.00002992    0.00001475    0.10484515
     atom   22 type  2   force =    -0.00023290   -0.00004448   -0.00003898
     atom   23 type  2   force =    -0.06801081   -0.00011029   -0.02683007
     atom   24 type  2   force =     0.06787071    0.00034363   -0.02687305
     atom   25 type  1   force =    -0.00011218   -0.00002531    0.09599767
     atom   26 type  1   force =    -0.00011308   -0.00144488   -0.18311471
     atom   27 type  2   force =     0.00050044   -0.00019703   -0.02270523
     atom   28 type  2   force =     0.00086454    0.00018012    0.05123171
     atom   29 type  2   force =    -0.01540914    0.00050576    0.00454239
     atom   30 type  2   force =     0.01416367    0.00078178    0.00524224
     atom   31 type  1   force =    -0.00010421    0.00005725   -0.00000831
     atom   32 type  1   force =    -0.00006683    0.00015903   -0.00005831
     atom   33 type  2   force =     0.00012318   -0.00002770    0.00017825
     atom   34 type  2   force =    -0.00000164    0.00006990    0.00003279
     atom   35 type  2   force =     0.00012510    0.00000138   -0.00003082
     atom   36 type  2   force =     0.00008435   -0.00000135    0.00009375
     atom   37 type  1   force =     0.00016732    0.00005854   -0.00010601
     atom   38 type  1   force =     0.00015477   -0.00002012    0.00004008
     atom   39 type  2   force =     0.00016685   -0.00009150   -0.00020109
     atom   40 type  2   force =     0.00002383   -0.00018318    0.00003691
     atom   41 type  2   force =     0.00018501    0.00000991   -0.00000269
     atom   42 type  2   force =    -0.00002185    0.00002745    0.00007092
     atom   43 type  1   force =    -0.00004120   -0.00018161    0.00123813
     atom   44 type  1   force =     0.00005793    0.00013737    0.00043539
     atom   45 type  2   force =     0.00003403    0.00001747    0.10478571
     atom   46 type  2   force =    -0.06801775   -0.00050980   -0.02681915
     atom   47 type  2   force =     0.06787639   -0.00009207   -0.02690063
     atom   48 type  3   force =    -0.00013433   -0.00005295   -0.00011964
     atom   49 type  2   force =    -0.00024824   -0.00012719   -0.00005484
     atom   50 type  4   force =    -0.00010151   -0.00041810    0.00008840
     atom   51 type  4   force =     0.00008077   -0.00012123    0.00010545
     atom   52 type  4   force =     0.00029776   -0.00034508    0.00007260
     atom   53 type  4   force =     0.00008999    0.00013519   -0.00018834
     atom   54 type  5   force =    -0.00739600    0.00262061   -0.01041655
     atom   55 type  5   force =     0.00683239   -0.00262932    0.00953577
     atom   56 type  2   force =     0.00131242    0.00055977   -0.00093588
     atom   57 type  4   force =    -0.00105463   -0.00044485    0.00028059
     atom   58 type  4   force =    -0.00110571   -0.00011387    0.00049538

     Total force =     0.368508     Total SCF correction =     0.000663
  @ DRIVER MODE: Message from server: STATUS
  @ DRIVER MODE: Message from server: GETFORCE
  @ DRIVER MODE: Returning v,forces,stress,ensemble

     Writing output data file ./calc.save/
  @ DRIVER MODE: Message from server: EXIT
  @ DRIVE MODE: Exiting

     General routines

     Parallel routines

   This run was terminated on:  17: 5: 7  28Sep2021

   JOB DONE.