     Program PWSCF v.6.7GPU starts on 23Aug2021 at 20:27:56

     R & G space division:  proc/nbgrp/npool/nimage =       6
     Reading input from /storage/home/hcoda1/3/ntian30/research/carbon/CH2_vib/ads_slab/CH2NNHHH_a/out_0015/pw.inp
Warning: card &CELL ignored
Warning: card   CELL_DYNAMICS='IPI', ignored
Warning: card / ignored

     Current dimensions of program PWSCF are:
     Max number of different atomic species (ntypx) = 10
     Max number of k-points (npk) =  40000
     Max angular momentum in pseudopotentials (lmaxx) =  3
     Presently no symmetry can be used with electric field

     Message from routine cell_base_init:
     DEPRECATED: use true lattice parameter, not A to a.u. conversion factor

     IMPORTANT: XC functional enforced from input :
     Exchange-correlation= BEEF-VDW
                           (   1   4  43  14   2   0   0)
     Any further DFT definition will be discarded
     Please, verify this is what you really want

  @ DRIVER MODE: Connecting to
 qe_1139763_2632806.sched-torque.pace.gatech.eduh2lwj2yc_scratch
  using UNIX socket
  @ DRIVER MODE: Message from server: STATUS
  @ DRIVER MODE: Message from server: INIT
  @ DRIVER MODE: Receiving replica           0          -1
  @ DRIVER MODE: Receiving encoded integer          25
  @ DRIVER MODE:  SCF:  T  FORCE:  T  STRESS:  F  VC:  F  ENSEMBLE:  F
  @ DRIVER MODE:  SCF:  T  FORCE:  T  STRESS:  F  VC:  F  ENSEMBLE:  F

     Using Slab Decomposition

     bravais-lattice index     =            0
     lattice parameter (alat)  =       1.8897  a.u.
     unit-cell volume          =    6658.9804 (a.u.)^3
     number of atoms/cell      =           55
     number of atomic types    =            5
     number of electrons       =       397.00
     number of Kohn-Sham states=          208
     kinetic-energy cutoff     =      29.3995  Ry
     charge density cutoff     =     293.9946  Ry
     scf convergence threshold =      7.3E-08
     mixing beta               =       0.0500
     number of iterations used =            8  plain     mixing
     Exchange-correlation= BEEF-VDW
                           (   1   4  43  14   2   0   0)

     celldm(1)=   1.889726  celldm(2)=   0.000000  celldm(3)=   0.000000
     celldm(4)=   0.000000  celldm(5)=   0.000000  celldm(6)=   0.000000

     crystal axes: (cart. coord. in units of alat)
               a(1) = (   6.579727   0.000000   0.000000 )
               a(2) = (  -0.000775   5.961596   0.000000 )
               a(3) = (   0.000000   0.000000  25.155947 )

     reciprocal axes: (cart. coord. in units 2 pi/alat)
               b(1) = (  0.151982  0.000020  0.000000 )
               b(2) = (  0.000000  0.167740  0.000000 )
               b(3) = (  0.000000  0.000000  0.039752 )

     PseudoPot. # 1 for Ti read from file:
     /storage/coda1/p-amedford6/0/shared/rich_project_chbe-medford/medford-share/data/pseudos_module/espresso/nninc/pbe/van/Ti.UPF
     MD5 check sum: 8e4df49b7f0d34bbd5052bf3f5ea0213
     Pseudo is Ultrasoft, Zval = 12.0
     Generated by new atomic code, or converted to UPF format
     Using radial grid of  851 points,  6 beta functions with:
                l(1) =   0
                l(2) =   0
                l(3) =   1
                l(4) =   1
                l(5) =   2
                l(6) =   2
     Q(r) pseudized with  8 coefficients,  rinner =    1.000   1.000   1.000
                                                       1.000   1.000

     PseudoPot. # 2 for O  read from file:
     /storage/coda1/p-amedford6/0/shared/rich_project_chbe-medford/medford-share/data/pseudos_module/espresso/nninc/pbe/van/O.UPF
     MD5 check sum: 78c19812648e8988a0fe644b0f25305e
     Pseudo is Ultrasoft, Zval =  6.0
     Generated by new atomic code, or converted to UPF format
     Using radial grid of  737 points,  4 beta functions with:
                l(1) =   0
                l(2) =   0
                l(3) =   1
                l(4) =   1
     Q(r) pseudized with  8 coefficients,  rinner =    0.800   0.800   0.800

     PseudoPot. # 3 for N  read from file:
     /storage/coda1/p-amedford6/0/shared/rich_project_chbe-medford/medford-share/data/pseudos_module/espresso/nninc/pbe/van/N.UPF
     MD5 check sum: 90d10febe142ad51ac9d5be1deb811c4
     Pseudo is Ultrasoft, Zval =  5.0
     Generated by new atomic code, or converted to UPF format
     Using radial grid of  729 points,  4 beta functions with:
                l(1) =   0
                l(2) =   0
                l(3) =   1
                l(4) =   1
     Q(r) pseudized with  8 coefficients,  rinner =    0.800   0.800   0.800

     PseudoPot. # 4 for C  read from file:
     /storage/coda1/p-amedford6/0/shared/rich_project_chbe-medford/medford-share/data/pseudos_module/espresso/nninc/pbe/van/C.UPF
     MD5 check sum: 1a69bf6b8db32088f5b2163dbdb77a27
     Pseudo is Ultrasoft, Zval =  4.0
     Generated by new atomic code, or converted to UPF format
     Using radial grid of  721 points,  4 beta functions with:
                l(1) =   0
                l(2) =   0
                l(3) =   1
                l(4) =   1
     Q(r) pseudized with  8 coefficients,  rinner =    0.800   0.800   0.800

     PseudoPot. # 5 for H  read from file:
     /storage/coda1/p-amedford6/0/shared/rich_project_chbe-medford/medford-share/data/pseudos_module/espresso/nninc/pbe/van/H.UPF
     MD5 check sum: b5ee9d7bfd3a09ee7748110bda690ff7
     Pseudo is Ultrasoft, Zval =  1.0
     Generated by new atomic code, or converted to UPF format
     Using radial grid of  615 points,  1 beta functions with:
                l(1) =   0
     Q(r) pseudized with  8 coefficients,  rinner =    0.800

     atomic species   valence    mass     pseudopotential
        Ti1           12.00    47.86700     Ti( 1.00)
        O1             6.00    15.99900     O ( 1.00)
        N1             5.00    14.00700     N ( 1.00)
        C1             4.00    12.01100     C ( 1.00)
        H1             1.00     1.00800     H ( 1.00)

     No symmetry found

   Cartesian axes

     site n.     atom                  positions (alat units)
         1           Ti1 tau(   1) = (   0.0004258   2.9801865   6.0000000  )
         2           Ti1 tau(   2) = (   3.2906075   1.4906267   6.0002472  )
         3           O1  tau(   3) = (   0.0006271   0.0005054   7.9858123  )
         4           O1  tau(   4) = (   3.2906025   0.0005020   7.3038282  )
         5           O1  tau(   5) = (   4.5942328   1.4918067   9.2879030  )
         6           O1  tau(   6) = (   1.9868534   1.4903216   9.2879459  )
         7           Ti1 tau(   7) = (   3.2907910   2.8959150   9.1758416  )
         8           Ti1 tau(   8) = (   0.0015273   1.4827037   9.2680791  )
         9           O1  tau(   9) = (   3.2797308   5.9473376  11.3602069  )
        10           O1  tau(  10) = (   0.0116148   5.9584955  10.6183126  )
        11           O1  tau(  11) = (   1.2902197   1.4970218  12.6485984  )
        12           O1  tau(  12) = (   5.2825647   1.4998509  12.6204812  )
        13           Ti1 tau(  13) = (   6.5707130   2.9731531  12.5352273  )
        14           Ti1 tau(  14) = (   3.2824754   1.4851695  12.4964603  )
        15           O1  tau(  15) = (   6.5335774   0.0914421  14.6722524  )
        16           O1  tau(  16) = (   3.3157438   0.0180770  13.9903400  )
        17           O1  tau(  17) = (   4.5084513   1.5196572  16.2619966  )
        18           O1  tau(  18) = (   2.0062152   1.4815140  16.1839734  )
        19           Ti1 tau(  19) = (   3.2259906   2.9465836  15.7211513  )
        20           Ti1 tau(  20) = (   6.5090593   1.4075841  16.1508600  )
        21           O1  tau(  21) = (   3.2904802   0.0005063   4.7018136  )
        22           O1  tau(  22) = (   6.5630310   5.8123487  17.2302531  )
        23           O1  tau(  23) = (   1.3043587   1.4918075   6.0039043  )
        24           O1  tau(  24) = (   5.2767064   1.4903225   6.0039473  )
        25           Ti1 tau(  25) = (   0.0000382   5.9609847   6.0000000  )
        26           Ti1 tau(  26) = (   3.2902200   4.4714249   6.0002472  )
        27           O1  tau(  27) = (   0.0002396   2.9813036   7.9858123  )
        28           O1  tau(  28) = (   3.2902150   2.9813002   7.3038282  )
        29           O1  tau(  29) = (   4.5938453   4.4726049   9.2879030  )
        30           O1  tau(  30) = (   1.9864658   4.4711199   9.2879459  )
        31           Ti1 tau(  31) = (   3.2891106   5.8743827   9.1763621  )
        32           Ti1 tau(  32) = (   0.0006254   4.4649316   9.2693709  )
        33           O1  tau(  33) = (   3.2783824   2.9878764  11.3535400  )
        34           O1  tau(  34) = (   0.0092240   2.9805883  10.6323155  )
        35           O1  tau(  35) = (   1.2857266   4.4729298  12.7006550  )
        36           O1  tau(  36) = (   5.2845514   4.4687958  12.6640455  )
        37           Ti1 tau(  37) = (   6.5734551   0.0101047  12.5124135  )
        38           Ti1 tau(  38) = (   3.2852174   4.4611384  12.5175569  )
        39           O1  tau(  39) = (   6.5279837   2.9480221  14.9030702  )
        40           O1  tau(  40) = (   3.2956390   2.9588503  13.9390168  )
        41           O1  tau(  41) = (   4.4992944   4.4159585  16.2207858  )
        42           O1  tau(  42) = (   2.0104883   4.4624356  16.0673450  )
        43           Ti1 tau(  43) = (   3.2790961   0.0058003  15.7788240  )
        44           Ti1 tau(  44) = (   0.0606790   4.6093333  15.7554573  )
        45           O1  tau(  45) = (   3.2900926   2.9813045   4.7018136  )
        46           O1  tau(  46) = (   1.3039711   4.4726057   6.0039043  )
        47           O1  tau(  47) = (   5.2763189   4.4711207   6.0039473  )
        48           N1  tau(  48) = (   0.0403274   2.7191540  18.0026804  )
        49           C1  tau(  49) = (   0.9398849   2.4944932  18.9664025  )
        50           H1  tau(  50) = (   0.9073005   3.0083022  19.9142263  )
        51           H1  tau(  51) = (   1.7098349   1.7704235  18.7615287  )
        52           N1  tau(  52) = (   5.5765855   3.6054979  18.4816711  )
        53           H1  tau(  53) = (   5.9881759   4.5320851  18.7147717  )
        54           H1  tau(  54) = (   4.9344470   3.8465857  17.6610935  )
        55           H1  tau(  55) = (   5.0674124   3.1947177  19.2767304  )

     number of k points=    10  Fermi-Dirac smearing, width (Ry)=  0.0073
                       cart. coord. in units 2pi/alat
        k(    1) = (   0.0000000   0.0000000   0.0000000), wk =   0.1250000
        k(    2) = (   0.0000000   0.0419351   0.0000000), wk =   0.2500000
        k(    3) = (   0.0000000  -0.0838702   0.0000000), wk =   0.1250000
        k(    4) = (   0.0379955   0.0000049   0.0000000), wk =   0.2500000
        k(    5) = (   0.0379955   0.0419400   0.0000000), wk =   0.2500000
        k(    6) = (   0.0379955  -0.0838652   0.0000000), wk =   0.2500000
        k(    7) = (   0.0379955  -0.0419301   0.0000000), wk =   0.2500000
        k(    8) = (  -0.0759910  -0.0000099   0.0000000), wk =   0.1250000
        k(    9) = (  -0.0759910   0.0419252   0.0000000), wk =   0.2500000
        k(   10) = (  -0.0759910  -0.0838800   0.0000000), wk =   0.1250000

     Initial potential from superposition of free atoms

     starting charge  380.99914, renormalised to  397.00000

     negative rho (up, down):  1.589E-02 0.000E+00

     %%%%%%%%%%%%%%%%%%%%%%%%%%%%%%%%%%%%%%%%%%%%%%%%%%%%%%%%%%%%%%%%%%%%%%%%
     %                                                                      %
     % You are using vdW-DF, which was implemented by the Thonhauser group. %
     % Please cite the following two papers that made this development      %
     % possible and the two reviews that describe the various versions:     %
     %                                                                      %
     %   T. Thonhauser et al., PRL 115, 136402 (2015).                      %
     %   T. Thonhauser et al., PRB 76, 125112 (2007).                       %
     %   K. Berland et al., Rep. Prog. Phys. 78, 066501 (2015).             %
     %   D.C. Langreth et al., J. Phys.: Condens. Matter 21, 084203 (2009). %
     %                                                                      %
     %                                                                      %
     % If you are calculating the stress with vdW-DF, please also cite:     %
     %                                                                      %
     %   R. Sabatini et al., J. Phys.: Condens. Matter 24, 424209 (2012).   %
     %                                                                      %
     %%%%%%%%%%%%%%%%%%%%%%%%%%%%%%%%%%%%%%%%%%%%%%%%%%%%%%%%%%%%%%%%%%%%%%%%

     Adding external electric field

     Computed dipole along edir(3) :
        Dipole              -10.3122 Ry au,        -26.2111 Debye
        Dipole field         -0.0195 Ry au,

        Potential amp.        1.8040 Ry
        Total length         46.3494 bohr

     Starting wfcs are  301 atomic wfcs
  @ DRIVER MODE: Message from server: STATUS
  @ DRIVER MODE: Message from server: POSDATA
  @ DRIVER MODE: Reading and sharing cell
  @ DRIVER MODE: Reading and sharing positions
  @ DRIVER MODE: Received positions

     Self-consistent Calculation

     iteration #  1     ecut=    29.40 Ry     beta= 0.05
     Davidson diagonalization with overlap
     c_bands:  3 eigenvalues not converged
     c_bands:  2 eigenvalues not converged
     c_bands:  3 eigenvalues not converged
     c_bands:  2 eigenvalues not converged
     c_bands:  3 eigenvalues not converged
     c_bands:  2 eigenvalues not converged
     c_bands:  3 eigenvalues not converged
     c_bands:  2 eigenvalues not converged
     c_bands:  2 eigenvalues not converged
     c_bands:  3 eigenvalues not converged
     ethr =  1.00E-05,  avg # of iterations = 20.0

[...]

     total energy              =   -2480.05682704 Ry
     estimated scf accuracy    <    5159.15260847 Ry

     iteration #  2     ecut=    29.40 Ry     beta= 0.05
     Davidson diagonalization with overlap
     ethr =  1.00E-02,  avg # of iterations = 22.7

[...]

     iteration # 81     ecut=    29.40 Ry     beta= 0.05
     Davidson diagonalization with overlap
     c_bands:  1 eigenvalues not converged
     ethr =  5.98E-11,  avg # of iterations = 15.3

[...]

     total energy              =   -2941.49085911 Ry
     estimated scf accuracy    <       0.00000008 Ry

     iteration # 82     ecut=    29.40 Ry     beta= 0.05
     Davidson diagonalization with overlap
     ethr =  1.94E-11,  avg # of iterations = 13.7

     negative rho (up, down):  1.344E-02 0.000E+00

     Adding external electric field

     Computed dipole along edir(3) :
        Dipole                1.3633 Ry au,          3.4652 Debye
        Dipole field          0.0026 Ry au,

        Potential amp.       -0.2385 Ry
        Total length         46.3494 bohr

     End of self-consistent calculation

          k = 0.0000 0.0000 0.0000 ( 18029 PWs)   bands (ev):

   -55.2832 -55.2444 -55.2442 -55.2103 -55.1590 -55.1569 -55.1204 -55.0935
   -55.0762 -55.0751 -55.0587 -55.0418 -54.9559 -54.7902 -54.2626 -54.2285
   -31.8554 -31.7351 -31.6453 -31.6101 -31.5833 -31.5808 -31.5782 -31.5340
   -31.5313 -31.4911 -31.4894 -31.4887 -31.4567 -31.4536 -31.4396 -31.4180
   -31.4029 -31.3981 -31.3937 -31.3925 -31.3566 -31.3512 -31.3376 -31.3241
   -31.3013 -31.2960 -31.2898 -31.2857 -31.2733 -31.2701 -31.2603 -31.2503
   -31.2435 -31.2383 -31.2085 -31.2040 -31.1971 -31.1848 -31.1474 -31.1047
   -31.0609 -30.9318 -30.6714 -30.5786 -30.5565 -30.4879 -30.4011 -30.2902
   -19.2263 -16.1248 -15.8627 -15.7347 -15.5431 -15.4771 -15.3815 -15.2437
   -15.1923 -15.1312 -15.0818 -15.0413 -15.0284 -14.9628 -14.9056 -14.8173
   -14.8157 -14.7982 -14.7885 -14.7767 -14.7734 -14.7112 -14.7084 -14.6812
   -14.6667 -14.6564 -14.5156 -14.4317 -14.3703 -14.2773 -14.0249 -12.7651
   -12.6478  -9.1543  -7.8008  -7.0627  -6.0212  -3.8185  -3.4625  -3.2897
    -3.2429  -3.2027  -3.1780  -3.0094  -2.9276  -2.6603  -2.5925  -2.5526
    -2.5052  -2.4938  -2.4683  -2.2960  -2.2659  -2.2260  -2.1894  -2.1655
    -2.1258  -2.0981  -2.0820  -2.0528  -2.0397  -2.0376  -1.8557  -1.7850
    -1.7642  -1.7023  -1.6838  -1.6677  -1.6104  -1.5814  -1.5685  -1.5661
    -1.5430  -1.5260  -1.5038  -1.4603  -1.3733  -1.2819  -1.2374  -1.2162
    -1.1025  -1.0392  -0.9146  -0.8720  -0.8579  -0.8306  -0.7590  -0.6926
    -0.6650  -0.6291  -0.4890  -0.4844  -0.3999  -0.3903  -0.3171  -0.3003
    -0.2604  -0.2145  -0.1030  -0.0697  -0.0483   0.0036   0.0670   0.0889
     0.1707   0.2250   0.2816   0.2956   0.3752   0.4150   0.4528   0.4745
     0.5614   0.6032   0.6627   0.6691   0.7062   0.7094   0.7346   0.8212
     0.8345   0.8540   0.8950   1.0644   1.2650   1.3168   1.3373   1.6701
     1.6895   1.7601   1.9454   2.3349   2.3825   3.8179   3.8833   3.9539
     3.9683   3.9786   4.0503   4.0953   4.2853   4.3144   4.3174   4.3388

[...]

          k = 0.0380-0.0419 0.0000 ( 17876 PWs)   bands (ev):

[...]

          k =-0.0760-0.0000 0.0000 ( 17886 PWs)   bands (ev):

[...]

          k =-0.0760-0.0839 0.0000 ( 17948 PWs)   bands (ev):

   -55.2710 -55.2561 -55.2273 -55.2272 -55.1552 -55.1449 -55.1323 -55.0798
   -55.0771 -55.0743 -55.0591 -55.0583 -54.9543 -54.7917 -54.2455 -54.2455
   -31.6649 -31.6519 -31.5781 -31.5502 -31.5502 -31.5464 -31.5194 -31.5193
   -31.4918 -31.4834 -31.4788 -31.4750 -31.4207 -31.4118 -31.4117 -31.4082
   -31.4062 -31.4020 -31.3954 -31.3803 -31.3680 -31.3574 -31.3532 -31.3466
   -31.3466 -31.3445 -31.3430 -31.3275 -31.3105 -31.3076 -31.2912 -31.2885
   -31.2837 -31.2821 -31.2819 -31.2508 -31.2394 -31.2379 -31.1648 -31.0915
   -31.0618 -31.0094 -30.5691 -30.5691 -30.4840 -30.4839 -30.4445 -30.4445
   -19.2225 -15.5899 -15.5135 -15.4577 -15.3676 -15.2896 -15.2698 -15.2598
   -15.2265 -15.1596 -15.1363 -15.0711 -15.0360 -14.9907 -14.9879 -14.9726
   -14.8880 -14.8688 -14.8537 -14.8494 -14.7885 -14.7871 -14.7601 -14.7376
   -14.7311 -14.7273 -14.6276 -14.6266 -14.4623 -14.4313 -14.1978 -12.7494
   -12.7494  -9.1413  -7.8107  -7.0469  -6.0316  -3.8416  -2.8512  -2.7646
    -2.6754  -2.5187  -2.4813  -2.4714  -2.4167  -2.3253  -2.2994  -2.2864
    -2.2659  -2.2587  -2.1858  -2.1806  -2.1366  -2.1151  -2.1041  -2.0984
    -2.0645  -2.0511  -2.0374  -2.0008  -1.9924  -1.9764  -1.9419  -1.9224
    -1.8979  -1.8701  -1.8560  -1.8267  -1.7032  -1.6741  -1.6302  -1.5695
    -1.5429  -1.4761  -1.4708  -1.3697  -1.3566  -1.3457  -1.3046  -1.2905
    -1.2714  -1.1076  -1.0631  -1.0277  -1.0162  -1.0102  -0.8543  -0.8378
    -0.7698  -0.7539  -0.7390  -0.6626  -0.6213  -0.6057  -0.5250  -0.4854
    -0.4555  -0.4346  -0.2924  -0.2798  -0.2545  -0.2399  -0.2333  -0.1407
    -0.1202  -0.0843  -0.0502  -0.0121   0.0043   0.0635   0.2170   0.2433
     0.2803   0.4244   0.4397   0.5251   0.5726   0.6996   0.7643   0.7665
     0.8477   0.9177   1.0196   1.0321   1.0518   1.1374   1.1836   1.1885
     1.1897   2.1182   2.1190   2.2025   2.2028   3.6946   3.9576   4.0797
     4.0860   4.1283   4.2512   4.3347   4.3583   4.3960   4.3983   4.4743

     the Fermi energy is     3.8728 ev

!    total energy              =   -2941.49087634 Ry
     estimated scf accuracy    <       0.00000007 Ry
     smearing contrib. (-TS)   =      -0.04232451 Ry
     internal energy E=F+TS    =   -2941.44855183 Ry

     The total energy is F=E-TS. E is the sum of the following terms:
     one-electron contribution =  -23922.03074861 Ry
     hartree contribution      =   12054.19815709 Ry
     xc contribution           =    -486.86285086 Ry
     ewald contribution        =    9413.24338312 Ry
     electric field correction =       0.00350743 Ry

     convergence has been achieved in  82 iterations

     Forces acting on atoms (cartesian axes, Ry/au):

     atom    1 type  1   force =     0.00016846   -0.00016504    0.09402432
     atom    2 type  1   force =    -0.00005703   -0.00043014   -0.17755219
     atom    3 type  2   force =     0.00006691   -0.00004453   -0.02098855
     atom    4 type  2   force =     0.00001693   -0.00180394    0.05732708
     atom    5 type  2   force =    -0.01085824   -0.00090500    0.00783280
     atom    6 type  2   force =     0.01206946   -0.00033709    0.00622919
     atom    7 type  1   force =    -0.00065649    0.00289968   -0.01527855
     atom    8 type  1   force =     0.00059600    0.00235904    0.00237403
     atom    9 type  2   force =    -0.00010342    0.00013520    0.00091557
     atom   10 type  2   force =    -0.00165451   -0.00049181   -0.00380649
     atom   11 type  2   force =    -0.00003506   -0.00023496    0.00019598
     atom   12 type  2   force =    -0.00020262   -0.00039447    0.00026510
     atom   13 type  1   force =     0.00043013    0.00109321    0.00060261
     atom   14 type  1   force =     0.00020057   -0.00062434    0.00037176
     atom   15 type  2   force =    -0.00018388    0.00032912    0.00054344
     atom   16 type  2   force =    -0.00016287   -0.00024949   -0.00121363
     atom   17 type  2   force =     0.00009700   -0.00024826    0.00014535
     atom   18 type  2   force =    -0.00078546   -0.00032528    0.00004640
     atom   19 type  1   force =    -0.00056713    0.00105678   -0.00046100
     atom   20 type  1   force =    -0.00031037    0.00128864   -0.00117835
     atom   21 type  2   force =     0.00010871   -0.00004077    0.10378473
     atom   22 type  2   force =     0.00006378    0.00022824    0.00049278
     atom   23 type  2   force =    -0.07064596   -0.00018548   -0.02704817
     atom   24 type  2   force =     0.07059166    0.00029262   -0.02708362
     atom   25 type  1   force =     0.00015244   -0.00024653    0.09336229
     atom   26 type  1   force =    -0.00000954   -0.00037473   -0.17777092
     atom   27 type  2   force =     0.00010819   -0.00040206   -0.02001354
     atom   28 type  2   force =     0.00003406   -0.00146679    0.05681310
     atom   29 type  2   force =    -0.01076102   -0.00066021    0.00675013
     atom   30 type  2   force =     0.01187866   -0.00016734    0.00510557
     atom   31 type  1   force =    -0.00063152    0.00410035   -0.01558385
     atom   32 type  1   force =     0.00067509   -0.00281138    0.00215107
     atom   33 type  2   force =     0.00015528   -0.00022243   -0.00059273
     atom   34 type  2   force =    -0.00109121    0.00271968   -0.00201149
     atom   35 type  2   force =     0.00010279    0.00019732    0.00008743
     atom   36 type  2   force =    -0.00034501    0.00033501   -0.00008334
     atom   37 type  1   force =     0.00046720   -0.00008806    0.00030982
     atom   38 type  1   force =     0.00009366    0.00089475    0.00016834
     atom   39 type  2   force =    -0.00004702   -0.00100048    0.00042288
     atom   40 type  2   force =    -0.00023336   -0.00043183    0.00060044
     atom   41 type  2   force =    -0.00024013   -0.00008512   -0.00016742
     atom   42 type  2   force =     0.00011985    0.00000295    0.00021597
     atom   43 type  1   force =    -0.00002016   -0.00143891    0.00093183
     atom   44 type  1   force =    -0.00006067   -0.00081267   -0.00136397
     atom   45 type  2   force =     0.00009502   -0.00008031    0.10376785
     atom   46 type  2   force =    -0.07066220   -0.00009112   -0.02705271
     atom   47 type  2   force =     0.07061234    0.00029234   -0.02709416
     atom   48 type  3   force =    -0.00067008   -0.00018732    0.00026259
     atom   49 type  4   force =     0.00134147   -0.00436801   -0.00370736
     atom   50 type  5   force =    -0.00018282    0.00369923    0.00412131
     atom   51 type  5   force =    -0.00029829    0.00045657   -0.00066543
     atom   52 type  3   force =    -0.00015016    0.00047083    0.00048779
     atom   53 type  5   force =     0.00033854   -0.00150180   -0.00066979
     atom   54 type  5   force =     0.00043319   -0.00022244    0.00103385
     atom   55 type  5   force =     0.00060888    0.00028858   -0.00035612

     Total force =     0.365804     Total SCF correction =     0.000731
  @ DRIVER MODE: Message from server: STATUS
  @ DRIVER MODE: Message from server: GETFORCE
  @ DRIVER MODE: Returning v,forces,stress,ensemble

     Writing output data file ./calc.save/
  @ DRIVER MODE: Message from server: EXIT
  @ DRIVE MODE: Exiting

     General routines

     Parallel routines

   This run was terminated on:  21: 6:11  23Aug2021

   JOB DONE.