     Program PWSCF v.6.7GPU starts on 25Aug2021 at  8:39:52

     R & G space division:  proc/nbgrp/npool/nimage =       6
     Reading input from /storage/home/hcoda1/3/ntian30/research/carbon/CH3_vib_end_on/ads_slab/CH3NHNH2_a/out_0029/pw.inp
Warning: card &CELL ignored
Warning: card   CELL_DYNAMICS='IPI', ignored
Warning: card / ignored

     Current dimensions of program PWSCF are:
     Max number of different atomic species (ntypx) = 10
     Max number of k-points (npk) =  40000
     Max angular momentum in pseudopotentials (lmaxx) =  3
     Presently no symmetry can be used with electric field

     Message from routine cell_base_init:
     DEPRECATED: use true lattice parameter, not A to a.u. conversion factor

     IMPORTANT: XC functional enforced from input :
     Exchange-correlation= BEEF-VDW
                           (   1   4  43  14   2   0   0)
     Any further DFT definition will be discarded
     Please, verify this is what you really want

  @ DRIVER MODE: Connecting to
 qe_1139763_2643871.sched-torque.pace.gatech.edu6h3bwqqr_scratch
  using UNIX socket
  @ DRIVER MODE: Message from server: STATUS
  @ DRIVER MODE: Message from server: INIT
  @ DRIVER MODE: Receiving replica           0          -1
  @ DRIVER MODE: Receiving encoded integer          25
  @ DRIVER MODE:  SCF:  T  FORCE:  T  STRESS:  F  VC:  F  ENSEMBLE:  F
  @ DRIVER MODE:  SCF:  T  FORCE:  T  STRESS:  F  VC:  F  ENSEMBLE:  F

     Using Slab Decomposition

     bravais-lattice index     =            0
     lattice parameter (alat)  =       1.8897  a.u.
     unit-cell volume          =    6658.9804 (a.u.)^3
     number of atoms/cell      =           56
     number of atomic types    =            5
     number of electrons       =       398.00
     number of Kohn-Sham states=          209
     kinetic-energy cutoff     =      29.3995  Ry
     charge density cutoff     =     293.9946  Ry
     scf convergence threshold =      7.3E-08
     mixing beta               =       0.0500
     number of iterations used =            8  plain     mixing
     Exchange-correlation= BEEF-VDW
                           (   1   4  43  14   2   0   0)

     celldm(1)=   1.889726  celldm(2)=   0.000000  celldm(3)=   0.000000
     celldm(4)=   0.000000  celldm(5)=   0.000000  celldm(6)=   0.000000

     crystal axes: (cart. coord. in units of alat)
               a(1) = (   6.579727   0.000000   0.000000 )
               a(2) = (  -0.000775   5.961596   0.000000 )
               a(3) = (   0.000000   0.000000  25.155947 )

     reciprocal axes: (cart. coord. in units 2 pi/alat)
               b(1) = (  0.151982  0.000020  0.000000 )
               b(2) = (  0.000000  0.167740  0.000000 )
               b(3) = (  0.000000  0.000000  0.039752 )

     PseudoPot. # 1 for Ti read from file:
     /storage/coda1/p-amedford6/0/shared/rich_project_chbe-medford/medford-share/data/pseudos_module/espresso/nninc/pbe/van/Ti.UPF
     MD5 check sum: 8e4df49b7f0d34bbd5052bf3f5ea0213
     Pseudo is Ultrasoft, Zval = 12.0
     Generated by new atomic code, or converted to UPF format
     Using radial grid of  851 points,  6 beta functions with:
                l(1) =   0
                l(2) =   0
                l(3) =   1
                l(4) =   1
                l(5) =   2
                l(6) =   2
     Q(r) pseudized with  8 coefficients,  rinner =    1.000   1.000   1.000
                                                       1.000   1.000

     PseudoPot. # 2 for O  read from file:
     /storage/coda1/p-amedford6/0/shared/rich_project_chbe-medford/medford-share/data/pseudos_module/espresso/nninc/pbe/van/O.UPF
     MD5 check sum: 78c19812648e8988a0fe644b0f25305e
     Pseudo is Ultrasoft, Zval =  6.0
     Generated by new atomic code, or converted to UPF format
     Using radial grid of  737 points,  4 beta functions with:
                l(1) =   0
                l(2) =   0
                l(3) =   1
                l(4) =   1
     Q(r) pseudized with  8 coefficients,  rinner =    0.800   0.800   0.800

     PseudoPot. # 3 for N  read from file:
     /storage/coda1/p-amedford6/0/shared/rich_project_chbe-medford/medford-share/data/pseudos_module/espresso/nninc/pbe/van/N.UPF
     MD5 check sum: 90d10febe142ad51ac9d5be1deb811c4
     Pseudo is Ultrasoft, Zval =  5.0
     Generated by new atomic code, or converted to UPF format
     Using radial grid of  729 points,  4 beta functions with:
                l(1) =   0
                l(2) =   0
                l(3) =   1
                l(4) =   1
     Q(r) pseudized with  8 coefficients,  rinner =    0.800   0.800   0.800

     PseudoPot. # 4 for C  read from file:
     /storage/coda1/p-amedford6/0/shared/rich_project_chbe-medford/medford-share/data/pseudos_module/espresso/nninc/pbe/van/C.UPF
     MD5 check sum: 1a69bf6b8db32088f5b2163dbdb77a27
     Pseudo is Ultrasoft, Zval =  4.0
     Generated by new atomic code, or converted to UPF format
     Using radial grid of  721 points,  4 beta functions with:
                l(1) =   0
                l(2) =   0
                l(3) =   1
                l(4) =   1
     Q(r) pseudized with  8 coefficients,  rinner =    0.800   0.800   0.800

     PseudoPot. # 5 for H  read from file:
     /storage/coda1/p-amedford6/0/shared/rich_project_chbe-medford/medford-share/data/pseudos_module/espresso/nninc/pbe/van/H.UPF
     MD5 check sum: b5ee9d7bfd3a09ee7748110bda690ff7
     Pseudo is Ultrasoft, Zval =  1.0
     Generated by new atomic code, or converted to UPF format
     Using radial grid of  615 points,  1 beta functions with:
                l(1) =   0
     Q(r) pseudized with  8 coefficients,  rinner =    0.800

     atomic species   valence    mass     pseudopotential
        Ti1           12.00    47.86700     Ti( 1.00)
        O1             6.00    15.99900     O ( 1.00)
        N1             5.00    14.00700     N ( 1.00)
        C1             4.00    12.01100     C ( 1.00)
        H1             1.00     1.00800     H ( 1.00)

     No symmetry found

   Cartesian axes

     site n.     atom                  positions (alat units)
         1           Ti1 tau(   1) = (   0.0004258   2.9801865   6.0000000  )
         2           Ti1 tau(   2) = (   3.2906075   1.4906267   6.0002472  )
         3           O1  tau(   3) = (   0.0006271   0.0005054   7.9858123  )
         4           O1  tau(   4) = (   3.2906025   0.0005020   7.3038282  )
         5           O1  tau(   5) = (   4.5942328   1.4918067   9.2879030  )
         6           O1  tau(   6) = (   1.9868534   1.4903216   9.2879459  )
         7           Ti1 tau(   7) = (   3.2907910   2.8959150   9.1758416  )
         8           Ti1 tau(   8) = (   0.0015273   1.4827037   9.2680791  )
         9           O1  tau(   9) = (   3.2714441   0.0289406  11.3813764  )
        10           O1  tau(  10) = (   0.0116148   5.9584955  10.6183126  )
        11           O1  tau(  11) = (   1.2692032   1.5162281  12.7122965  )
        12           O1  tau(  12) = (   5.2779133   1.5159715  12.6811497  )
        13           Ti1 tau(  13) = (   6.5579218   3.0031650  12.5037829  )
        14           Ti1 tau(  14) = (   3.2791490   1.5128154  12.5375672  )
        15           O1  tau(  15) = (   6.5208524   5.8954130  14.6845636  )
        16           O1  tau(  16) = (   3.2849572   0.0099931  14.0031570  )
        17           O1  tau(  17) = (   4.4884262   1.5607690  16.1641467  )
        18           O1  tau(  18) = (   1.9729656   1.5430890  16.0903287  )
        19           Ti1 tau(  19) = (   3.2372663   3.0309179  15.7728032  )
        20           Ti1 tau(  20) = (   6.5553692   1.3539605  15.8053163  )
        21           O1  tau(  21) = (   3.2904802   0.0005063   4.7018136  )
        22           O1  tau(  22) = (   6.5123495   0.2165906  17.2215032  )
        23           O1  tau(  23) = (   1.3043587   1.4918075   6.0039043  )
        24           O1  tau(  24) = (   5.2767064   1.4903225   6.0039473  )
        25           Ti1 tau(  25) = (   0.0000382   5.9609847   6.0000000  )
        26           Ti1 tau(  26) = (   3.2902200   4.4714249   6.0002472  )
        27           O1  tau(  27) = (   0.0002396   2.9813036   7.9858123  )
        28           O1  tau(  28) = (   3.2902150   2.9813002   7.3038282  )
        29           O1  tau(  29) = (   4.5938453   4.4726049   9.2879030  )
        30           O1  tau(  30) = (   1.9864658   4.4711199   9.2879459  )
        31           Ti1 tau(  31) = (   3.2891106   5.8743827   9.1763621  )
        32           Ti1 tau(  32) = (   0.0006254   4.4649316   9.2693709  )
        33           O1  tau(  33) = (   3.2699379   2.9911670  11.3762017  )
        34           O1  tau(  34) = (   0.0092240   2.9805883  10.6323155  )
        35           O1  tau(  35) = (   1.2730946   4.4825978  12.6662957  )
        36           O1  tau(  36) = (   5.2742290   4.4829497  12.6320226  )
        37           Ti1 tau(  37) = (   6.5783117   0.0079037  12.5026730  )
        38           Ti1 tau(  38) = (   3.2784283   4.4905194  12.5286134  )
        39           O1  tau(  39) = (   6.5033290   3.0824797  14.9867588  )
        40           O1  tau(  40) = (   3.2824109   3.0350539  13.9807796  )
        41           O1  tau(  41) = (   4.4804250   4.5097483  16.2808085  )
        42           O1  tau(  42) = (   1.9642025   4.5165872  16.2225063  )
        43           Ti1 tau(  43) = (   3.2609991   0.0502580  15.7998297  )
        44           Ti1 tau(  44) = (   6.5501253   4.5826093  16.0954727  )
        45           O1  tau(  45) = (   3.2900926   2.9813045   4.7018136  )
        46           O1  tau(  46) = (   1.3039711   4.4726057   6.0039043  )
        47           O1  tau(  47) = (   5.2763189   4.4711207   6.0039473  )
        48           N1  tau(  48) = (   0.8845045   3.2634721  19.1145209  )
        49           N1  tau(  49) = (   6.3504243   3.3997271  18.1887592  )
        50           C1  tau(  50) = (   1.2927081   4.5631590  19.6429350  )
        51           H1  tau(  51) = (   0.4658632   5.1229972  20.1056819  )
        52           H1  tau(  52) = (   2.0600825   4.3818216  20.3858833  )
        53           H1  tau(  53) = (   1.7018904   5.1738364  18.8453250  )
        54           H1  tau(  54) = (   0.5628611   2.6866381  19.8888112  )
        55           H1  tau(  55) = (   5.6051421   3.9827062  18.5884547  )
        56           H1  tau(  56) = (   5.9567982   2.4624696  18.0937858  )

     number of k points=    10  Fermi-Dirac smearing, width (Ry)=  0.0073
                       cart. coord. in units 2pi/alat
        k(    1) = (   0.0000000   0.0000000   0.0000000), wk =   0.1250000
        k(    2) = (   0.0000000   0.0419351   0.0000000), wk =   0.2500000
        k(    3) = (   0.0000000  -0.0838702   0.0000000), wk =   0.1250000
        k(    4) = (   0.0379955   0.0000049   0.0000000), wk =   0.2500000
        k(    5) = (   0.0379955   0.0419400   0.0000000), wk =   0.2500000
        k(    6) = (   0.0379955  -0.0838652   0.0000000), wk =   0.2500000
        k(    7) = (   0.0379955  -0.0419301   0.0000000), wk =   0.2500000
        k(    8) = (  -0.0759910  -0.0000099   0.0000000), wk =   0.1250000
        k(    9) = (  -0.0759910   0.0419252   0.0000000), wk =   0.2500000
        k(   10) = (  -0.0759910  -0.0838800   0.0000000), wk =   0.1250000

     Initial potential from superposition of free atoms

     starting charge  381.99914, renormalised to  398.00000

     negative rho (up, down):  1.417E-02 0.000E+00

     %%%%%%%%%%%%%%%%%%%%%%%%%%%%%%%%%%%%%%%%%%%%%%%%%%%%%%%%%%%%%%%%%%%%%%%%
     %                                                                      %
     % You are using vdW-DF, which was implemented by the Thonhauser group. %
     % Please cite the following two papers that made this development      %
     % possible and the two reviews that describe the various versions:     %
     %                                                                      %
     %   T. Thonhauser et al., PRL 115, 136402 (2015).                      %
     %   T. Thonhauser et al., PRB 76, 125112 (2007).                       %
     %   K. Berland et al., Rep. Prog. Phys. 78, 066501 (2015).             %
     %   D.C. Langreth et al., J. Phys.: Condens. Matter 21, 084203 (2009). %
     %                                                                      %
     %                                                                      %
     % If you are calculating the stress with vdW-DF, please also cite:     %
     %                                                                      %
     %   R. Sabatini et al., J. Phys.: Condens. Matter 24, 424209 (2012).   %
     %                                                                      %
     %%%%%%%%%%%%%%%%%%%%%%%%%%%%%%%%%%%%%%%%%%%%%%%%%%%%%%%%%%%%%%%%%%%%%%%%

     Adding external electric field

     Computed dipole along edir(3) :
        Dipole              -11.7163 Ry au,        -29.7798 Debye
        Dipole field         -0.0221 Ry au,

        Potential amp.        2.0496 Ry
        Total length         46.3494 bohr

     Starting wfcs are  302 atomic wfcs
  @ DRIVER MODE: Message from server: STATUS
  @ DRIVER MODE: Message from server: POSDATA
  @ DRIVER MODE: Reading and sharing cell
  @ DRIVER MODE: Reading and sharing positions
  @ DRIVER MODE: Received positions

     Self-consistent Calculation

     iteration #  1     ecut=    29.40 Ry     beta= 0.05
     Davidson diagonalization with overlap
     c_bands:  3 eigenvalues not converged
     c_bands:  1 eigenvalues not converged
     c_bands:  1 eigenvalues not converged
     c_bands:  4 eigenvalues not converged
     c_bands:  1 eigenvalues not converged
     c_bands:  4 eigenvalues not converged
     c_bands:  5 eigenvalues not converged
     c_bands:  2 eigenvalues not converged
     ethr =  1.00E-05,  avg # of iterations = 21.9

[...]

     total energy              =   -2424.54405613 Ry
     estimated scf accuracy    <    5830.31937753 Ry

     iteration #  2     ecut=    29.40 Ry     beta= 0.05
     Davidson diagonalization with overlap
     ethr =  1.00E-02,  avg # of iterations = 22.0

[...]

     iteration # 69     ecut=    29.40 Ry     beta= 0.05
     Davidson diagonalization with overlap
     c_bands:  2 eigenvalues not converged
     c_bands:  2 eigenvalues not converged
     ethr =  1.31E-10,  avg # of iterations = 16.4

[...]

     total energy              =   -2942.84385609 Ry
     estimated scf accuracy    <       0.00000011 Ry

     iteration # 73     ecut=    29.40 Ry     beta= 0.05
     Davidson diagonalization with overlap
     ethr =  2.70E-11,  avg # of iterations =  6.8

     negative rho (up, down):  1.514E-02 0.000E+00

     Adding external electric field

     Computed dipole along edir(3) :
        Dipole                1.4955 Ry au,          3.8013 Debye
        Dipole field          0.0028 Ry au,

        Potential amp.       -0.2616 Ry
        Total length         46.3494 bohr

     End of self-consistent calculation

          k = 0.0000 0.0000 0.0000 ( 18029 PWs)   bands (ev):

   -55.2018 -55.1647 -55.1539 -55.1252 -55.1198 -55.0830 -55.0801 -55.0453
   -55.0256 -55.0128 -54.9912 -54.9866 -54.9529 -54.8565 -54.1860 -54.1519
   -31.7682 -31.6521 -31.6468 -31.5683 -31.5150 -31.5140 -31.5112 -31.4927
   -31.4428 -31.4393 -31.4115 -31.4092 -31.3989 -31.3822 -31.3691 -31.3633
   -31.3563 -31.3465 -31.3392 -31.3221 -31.3064 -31.3038 -31.2719 -31.2682
   -31.2577 -31.2564 -31.2383 -31.2283 -31.2110 -31.2106 -31.2060 -31.1855
   -31.1851 -31.1822 -31.1749 -31.1725 -31.1391 -31.1295 -31.1149 -31.0980
   -31.0696 -31.0504 -30.5955 -30.5010 -30.4789 -30.4118 -30.3250 -30.2142
   -17.9602 -16.0353 -15.7728 -15.6276 -15.5154 -15.4039 -15.2846 -15.2538
   -15.1340 -15.0579 -14.9240 -14.8977 -14.8752 -14.8518 -14.8399 -14.8272
   -14.7512 -14.7448 -14.7291 -14.7006 -14.6986 -14.6535 -14.6436 -14.6042
   -14.5793 -14.5582 -14.4537 -14.3652 -14.2912 -14.0748 -13.4446 -12.6887
   -12.5712  -9.7203  -6.6003  -6.0892  -4.5919  -3.3739  -3.2746  -3.2256
    -3.1392  -3.1055  -3.0960  -3.0004  -2.9498  -2.7921  -2.6497  -2.6243
    -2.4930  -2.4179  -2.4016  -2.3772  -2.2475  -2.2123  -2.1611  -2.1221
    -2.0628  -2.0325  -2.0085  -1.9927  -1.9618  -1.9527  -1.9277  -1.8386
    -1.7791  -1.6864  -1.6691  -1.6015  -1.5936  -1.5606  -1.5396  -1.4942
    -1.4838  -1.4345  -1.4270  -1.4144  -1.3945  -1.2665  -1.2230  -1.1132
    -1.0520  -0.9644  -0.8434  -0.8035  -0.7896  -0.6987  -0.6898  -0.6581
    -0.5813  -0.5785  -0.5476  -0.4394  -0.3745  -0.3109  -0.2519  -0.2257
    -0.1923  -0.1151  -0.0242   0.0120   0.0287   0.0518   0.1520   0.1871
     0.2426   0.3095   0.3210   0.3343   0.4138   0.4551   0.5302   0.5668
     0.5845   0.6733   0.6996   0.7275   0.7280   0.7658   0.7802   0.8197
     0.8685   0.8953   0.9816   1.0435   1.1028   1.3474   1.4000   1.4062
     1.7322   1.7402   1.8366   2.0201   2.4131   2.4614   3.8947   3.9634
     4.0392   4.0443   4.0666   4.1305   4.3683   4.3914   4.4003   4.4025
     4.4292

[...]

          k = 0.0380-0.0419 0.0000 ( 17876 PWs)   bands (ev):

[...]

          k =-0.0760-0.0000 0.0000 ( 17886 PWs)   bands (ev):

[...]

          k =-0.0760-0.0839 0.0000 ( 17948 PWs)   bands (ev):

   -55.1880 -55.1783 -55.1369 -55.1366 -55.1239 -55.0787 -55.0657 -55.0596
   -55.0171 -55.0097 -55.0067 -54.9700 -54.9696 -54.8576 -54.1691 -54.1687
   -31.5763 -31.5755 -31.5686 -31.4837 -31.4620 -31.4618 -31.4588 -31.4281
   -31.4280 -31.4128 -31.4019 -31.4003 -31.3915 -31.3660 -31.3565 -31.3436
   -31.3423 -31.3386 -31.3356 -31.3298 -31.3281 -31.3220 -31.2830 -31.2797
   -31.2794 -31.2780 -31.2605 -31.2591 -31.2566 -31.2562 -31.2517 -31.2427
   -31.2399 -31.2228 -31.2196 -31.2037 -31.2029 -31.2002 -31.1507 -31.1505
   -31.1262 -31.0741 -30.4917 -30.4914 -30.4081 -30.4078 -30.3685 -30.3683
   -17.9570 -15.5602 -15.4304 -15.4012 -15.2447 -15.2085 -15.1753 -15.1619
   -15.0410 -15.0037 -14.9789 -14.9696 -14.9520 -14.9116 -14.9059 -14.8991
   -14.8286 -14.8095 -14.8052 -14.7829 -14.7245 -14.7155 -14.7117 -14.7041
   -14.6535 -14.6498 -14.5694 -14.5590 -14.5558 -14.3762 -13.4480 -12.6727
   -12.6726  -9.7362  -6.5846  -6.0895  -4.5707  -3.2491  -2.9552  -2.6927
    -2.6879  -2.6598  -2.4586  -2.3960  -2.3654  -2.3599  -2.2625  -2.2259
    -2.2015  -2.1979  -2.1326  -2.1179  -2.0870  -2.0569  -2.0406  -2.0270
    -2.0113  -1.9971  -1.9716  -1.9341  -1.9260  -1.9178  -1.8860  -1.8643
    -1.8412  -1.8190  -1.8054  -1.7870  -1.7610  -1.7386  -1.6021  -1.5703
    -1.4999  -1.4574  -1.4133  -1.4090  -1.3374  -1.3010  -1.2508  -1.2386
    -1.2215  -1.0819  -1.0234  -0.9727  -0.9526  -0.9416  -0.8127  -0.7985
    -0.7256  -0.7078  -0.6915  -0.6171  -0.5660  -0.5277  -0.5141  -0.4209
    -0.4054  -0.3390  -0.2368  -0.2142  -0.2002  -0.1595  -0.1565  -0.1093
    -0.1022  -0.0181   0.0262   0.0612   0.0720   0.1078   0.3005   0.3165
     0.3266   0.4797   0.4953   0.6371   0.6807   0.7471   0.8060   0.8449
     0.9067   0.9440   1.0538   1.0865   1.1018   1.1095   1.1714   1.1833
     1.2462   1.2569   2.1927   2.1933   2.2813   2.2815   4.0406   4.1480
     4.1556   4.1973   4.3172   4.3473   4.4098   4.4370   4.4787   4.4820
     4.5415

     the Fermi energy is     3.9580 ev

!    total energy              =   -2942.84387390 Ry
     estimated scf accuracy    <       0.00000006 Ry
     smearing contrib. (-TS)   =      -0.03707589 Ry
     internal energy E=F+TS    =   -2942.80679801 Ry

     The total energy is F=E-TS. E is the sum of the following terms:
     one-electron contribution =  -23367.08011907 Ry
     hartree contribution      =   11777.71664613 Ry
     xc contribution           =    -487.74555824 Ry
     ewald contribution        =    9134.29801233 Ry
     electric field correction =       0.00422084 Ry

     convergence has been achieved in  73 iterations

     Forces acting on atoms (cartesian axes, Ry/au):

     atom    1 type  1   force =     0.00017715   -0.00032862    0.09330606
     atom    2 type  1   force =    -0.00006356   -0.00042381   -0.17823262
     atom    3 type  2   force =     0.00002621   -0.00032216   -0.02003132
     atom    4 type  2   force =     0.00002077   -0.00183329    0.05923637
     atom    5 type  2   force =    -0.01046761   -0.00025950    0.00863686
     atom    6 type  2   force =     0.01147981    0.00041074    0.00644794
     atom    7 type  1   force =    -0.00100247    0.00212928   -0.01400607
     atom    8 type  1   force =     0.00081372   -0.00094126   -0.00573700
     atom    9 type  2   force =    -0.00010535    0.00012514   -0.00000522
     atom   10 type  2   force =    -0.00185562    0.00411340    0.00026864
     atom   11 type  2   force =    -0.00007587   -0.00064494    0.00028124
     atom   12 type  2   force =    -0.00000435   -0.00041432    0.00053803
     atom   13 type  1   force =     0.00003825    0.00009314    0.00031098
     atom   14 type  1   force =    -0.00037445   -0.00000407    0.00007654
     atom   15 type  2   force =     0.00051914    0.00023254   -0.00030776
     atom   16 type  2   force =     0.00032145   -0.00035320   -0.00007887
     atom   17 type  2   force =    -0.00058074   -0.00001862   -0.00002417
     atom   18 type  2   force =     0.00053765   -0.00019408    0.00000395
     atom   19 type  1   force =    -0.00003703   -0.00053519    0.00021671
     atom   20 type  1   force =     0.00069623    0.00009517    0.00094299
     atom   21 type  2   force =     0.00012430   -0.00012382    0.10403754
     atom   22 type  2   force =    -0.00041718    0.00021259   -0.00031830
     atom   23 type  2   force =    -0.07027547   -0.00021844   -0.02685467
     atom   24 type  2   force =     0.07026635    0.00021836   -0.02688106
     atom   25 type  1   force =     0.00007820   -0.00032516    0.09262293
     atom   26 type  1   force =    -0.00003379   -0.00059285   -0.17834904
     atom   27 type  2   force =     0.00012997   -0.00016532   -0.01908225
     atom   28 type  2   force =     0.00005021   -0.00163451    0.05860159
     atom   29 type  2   force =    -0.01106791   -0.00055870    0.00931504
     atom   30 type  2   force =     0.01198531   -0.00002071    0.00720553
     atom   31 type  1   force =    -0.00092751    0.00646813   -0.01506667
     atom   32 type  1   force =     0.00085923    0.00100976   -0.00587624
     atom   33 type  2   force =     0.00017572   -0.00057172   -0.00003217
     atom   34 type  2   force =    -0.00185913   -0.00052096   -0.00049252
     atom   35 type  2   force =    -0.00045791    0.00006380   -0.00043766
     atom   36 type  2   force =     0.00035640   -0.00011801    0.00018084
     atom   37 type  1   force =    -0.00051026   -0.00025060    0.00018686
     atom   38 type  1   force =    -0.00004433   -0.00014052   -0.00008876
     atom   39 type  2   force =     0.00029362   -0.00058324    0.00000852
     atom   40 type  2   force =    -0.00060385   -0.00051116    0.00024673
     atom   41 type  2   force =    -0.00022361   -0.00073714   -0.00068933
     atom   42 type  2   force =     0.00046953   -0.00009488   -0.00013559
     atom   43 type  1   force =     0.00022779   -0.00020718   -0.00019729
     atom   44 type  1   force =     0.00054512    0.00005579    0.00082041
     atom   45 type  2   force =     0.00013582   -0.00014330    0.10400342
     atom   46 type  2   force =    -0.07027570   -0.00016206   -0.02682760
     atom   47 type  2   force =     0.07024657    0.00025906   -0.02688485
     atom   48 type  3   force =     0.00072731    0.00150141   -0.00092803
     atom   49 type  3   force =    -0.00014901   -0.00110514    0.00005351
     atom   50 type  4   force =    -0.00431638   -0.00043721   -0.00622404
     atom   51 type  5   force =    -0.00038219    0.00141850    0.00104031
     atom   52 type  5   force =     0.00571060   -0.00143310    0.00666170
     atom   53 type  5   force =     0.00015929    0.00052174   -0.00173764
     atom   54 type  5   force =    -0.00003969   -0.00174974    0.00073158
     atom   55 type  5   force =     0.00006020   -0.00053208   -0.00017469
     atom   56 type  5   force =    -0.00108094    0.00028208   -0.00028141

     Total force =     0.366530     Total SCF correction =     0.000711
  @ DRIVER MODE: Message from server: STATUS
  @ DRIVER MODE: Message from server: GETFORCE
  @ DRIVER MODE: Returning v,forces,stress,ensemble

     Writing output data file ./calc.save/
  @ DRIVER MODE: Message from server: EXIT
  @ DRIVE MODE: Exiting

     General routines

     Parallel routines

   This run was terminated on:   9:12: 3  25Aug2021

   JOB DONE.