     Program PWSCF v.6.7GPU starts on 12Oct2021 at 10:40:57

     R & G space division:  proc/nbgrp/npool/nimage =       8
     Reading input from /storage/home/hcoda1/3/ntian30/research/carbon/ACS_vib/ads_slab/N2H6/out_0005/pw.inp
Warning: card &CELL ignored
Warning: card   CELL_DYNAMICS='IPI', ignored
Warning: card / ignored

     Current dimensions of program PWSCF are:
     Max number of different atomic species (ntypx) = 10
     Max number of k-points (npk) =  40000
     Max angular momentum in pseudopotentials (lmaxx) =  3
     Presently no symmetry can be used with electric field

     Message from routine cell_base_init:
     DEPRECATED: use true lattice parameter, not A to a.u. conversion factor

     IMPORTANT: XC functional enforced from input :
     Exchange-correlation= BEEF-VDW
                           (   1   4  43  14   2   0   0)
     Any further DFT definition will be discarded
     Please, verify this is what you really want

  @ DRIVER MODE: Connecting to
 qe_1139763_3181315.sched-torque.pace.gatech.edueanjm3av_scratch
  using UNIX socket
  @ DRIVER MODE: Message from server: STATUS
  @ DRIVER MODE: Message from server: INIT
  @ DRIVER MODE: Receiving replica           0          -1
  @ DRIVER MODE: Receiving encoded integer          25
  @ DRIVER MODE:  SCF:  T  FORCE:  T  STRESS:  F  VC:  F  ENSEMBLE:  F
  @ DRIVER MODE:  SCF:  T  FORCE:  T  STRESS:  F  VC:  F  ENSEMBLE:  F

     Using Slab Decomposition

     bravais-lattice index     =            0
     lattice parameter (alat)  =       1.8897  a.u.
     unit-cell volume          =    6658.9804 (a.u.)^3
     number of atoms/cell      =           55
     number of atomic types    =            4
     number of electrons       =       394.00
     number of Kohn-Sham states=          207
     kinetic-energy cutoff     =      29.3995  Ry
     charge density cutoff     =     293.9946  Ry
     scf convergence threshold =      7.3E-08
     mixing beta               =       0.0500
     number of iterations used =            8  plain     mixing
     Exchange-correlation= BEEF-VDW
                           (   1   4  43  14   2   0   0)

     celldm(1)=   1.889726  celldm(2)=   0.000000  celldm(3)=   0.000000
     celldm(4)=   0.000000  celldm(5)=   0.000000  celldm(6)=   0.000000

     crystal axes: (cart. coord. in units of alat)
               a(1) = (   6.579727   0.000000   0.000000 )
               a(2) = (  -0.000775   5.961596   0.000000 )
               a(3) = (   0.000000   0.000000  25.155947 )

     reciprocal axes: (cart. coord. in units 2 pi/alat)
               b(1) = (  0.151982  0.000020  0.000000 )
               b(2) = (  0.000000  0.167740  0.000000 )
               b(3) = (  0.000000  0.000000  0.039752 )

     PseudoPot. # 1 for Ti read from file:
     /storage/coda1/p-amedford6/0/shared/rich_project_chbe-medford/medford-share/data/pseudos_module/espresso/nninc/pbe/van/Ti.UPF
     MD5 check sum: 8e4df49b7f0d34bbd5052bf3f5ea0213
     Pseudo is Ultrasoft, Zval = 12.0
     Generated by new atomic code, or converted to UPF format
     Using radial grid of  851 points,  6 beta functions with:
                l(1) =   0
                l(2) =   0
                l(3) =   1
                l(4) =   1
                l(5) =   2
                l(6) =   2
     Q(r) pseudized with  8 coefficients,  rinner =    1.000   1.000   1.000
                                                       1.000   1.000

     PseudoPot. # 2 for O  read from file:
     /storage/coda1/p-amedford6/0/shared/rich_project_chbe-medford/medford-share/data/pseudos_module/espresso/nninc/pbe/van/O.UPF
     MD5 check sum: 78c19812648e8988a0fe644b0f25305e
     Pseudo is Ultrasoft, Zval =  6.0
     Generated by new atomic code, or converted to UPF format
     Using radial grid of  737 points,  4 beta functions with:
                l(1) =   0
                l(2) =   0
                l(3) =   1
                l(4) =   1
     Q(r) pseudized with  8 coefficients,  rinner =    0.800   0.800   0.800

     PseudoPot. # 3 for N  read from file:
     /storage/coda1/p-amedford6/0/shared/rich_project_chbe-medford/medford-share/data/pseudos_module/espresso/nninc/pbe/van/N.UPF
     MD5 check sum: 90d10febe142ad51ac9d5be1deb811c4
     Pseudo is Ultrasoft, Zval =  5.0
     Generated by new atomic code, or converted to UPF format
     Using radial grid of  729 points,  4 beta functions with:
                l(1) =   0
                l(2) =   0
                l(3) =   1
                l(4) =   1
     Q(r) pseudized with  8 coefficients,  rinner =    0.800   0.800   0.800

     PseudoPot. # 4 for H  read from file:
     /storage/coda1/p-amedford6/0/shared/rich_project_chbe-medford/medford-share/data/pseudos_module/espresso/nninc/pbe/van/H.UPF
     MD5 check sum: b5ee9d7bfd3a09ee7748110bda690ff7
     Pseudo is Ultrasoft, Zval =  1.0
     Generated by new atomic code, or converted to UPF format
     Using radial grid of  615 points,  1 beta functions with:
                l(1) =   0
     Q(r) pseudized with  8 coefficients,  rinner =    0.800

     atomic species   valence    mass     pseudopotential
        Ti1           12.00    47.86700     Ti( 1.00)
        O1             6.00    15.99900     O ( 1.00)
        N1             5.00    14.00700     N ( 1.00)
        H1             1.00     1.00800     H ( 1.00)

     No symmetry found

   Cartesian axes

     site n.     atom                  positions (alat units)
         1           Ti1 tau(   1) = (   0.0004258   2.9801865   6.0000000  )
         2           Ti1 tau(   2) = (   3.2906075   1.4906267   6.0002472  )
         3           O1  tau(   3) = (   0.0006271   0.0005054   7.9858123  )
         4           O1  tau(   4) = (   3.2906025   0.0005020   7.3038282  )
         5           O1  tau(   5) = (   4.5942328   1.4918067   9.2879030  )
         6           O1  tau(   6) = (   1.9868534   1.4903216   9.2879459  )
         7           Ti1 tau(   7) = (   3.2905188   2.9817269   9.1608671  )
         8           Ti1 tau(   8) = (   0.0008727   1.4903491   9.2579811  )
         9           O1  tau(   9) = (   3.2897677   5.9391746  11.3820438  )
        10           O1  tau(  10) = (  -0.0000005   5.9544960  10.6146985  )
        11           O1  tau(  11) = (   1.2884133   1.4789655  12.6516217  )
        12           O1  tau(  12) = (   5.2921206   1.4788385  12.6515509  )
        13           Ti1 tau(  13) = (   0.0005720   2.9629092  12.4975245  )
        14           Ti1 tau(  14) = (   3.2903801   1.4745319  12.5205501  )
        15           O1  tau(  15) = (   0.0004407   0.0388239  14.7059933  )
        16           O1  tau(  16) = (   3.2897445   5.9465346  14.0037610  )
        17           O1  tau(  17) = (   4.5472543   1.4569283  16.2215039  )
        18           O1  tau(  18) = (   2.0329396   1.4568822  16.2213506  )
        19           Ti1 tau(  19) = (   3.2899346   2.9358424  15.7577366  )
        20           Ti1 tau(  20) = (   0.0004932   1.4309995  16.0137732  )
        21           O1  tau(  21) = (   3.2904802   0.0005063   4.7018136  )
        22           O1  tau(  22) = (  -0.0003511   5.7889056  17.2622344  )
        23           O1  tau(  23) = (   1.3043587   1.4918075   6.0039043  )
        24           O1  tau(  24) = (   5.2767064   1.4903225   6.0039473  )
        25           Ti1 tau(  25) = (   0.0000382   5.9609847   6.0000000  )
        26           Ti1 tau(  26) = (   3.2902200   4.4714249   6.0002472  )
        27           O1  tau(  27) = (   0.0002396   2.9813036   7.9858123  )
        28           O1  tau(  28) = (   3.2902150   2.9813002   7.3038282  )
        29           O1  tau(  29) = (   4.5938453   4.4726049   9.2879030  )
        30           O1  tau(  30) = (   1.9864658   4.4711199   9.2879459  )
        31           Ti1 tau(  31) = (   3.2908958   0.0009406   9.1591437  )
        32           Ti1 tau(  32) = (   0.0004876   4.4725358   9.2579169  )
        33           O1  tau(  33) = (   3.2901541   2.9707129  11.3740276  )
        34           O1  tau(  34) = (   0.0003862   2.9798045  10.6274311  )
        35           O1  tau(  35) = (   1.2860740   4.4511954  12.6821393  )
        36           O1  tau(  36) = (   5.2936768   4.4510845  12.6820400  )
        37           Ti1 tau(  37) = (   0.0001324   5.9497034  12.4914426  )
        38           Ti1 tau(  38) = (   3.2900283   4.4525324  12.5305491  )
        39           O1  tau(  39) = (   0.0000299   2.9046373  14.9484161  )
        40           O1  tau(  40) = (   3.2901113   2.9423191  13.9685580  )
        41           O1  tau(  41) = (   4.5465916   4.4073028  16.1601725  )
        42           O1  tau(  42) = (   2.0329218   4.4072560  16.1600144  )
        43           Ti1 tau(  43) = (   3.2897320   5.9176933  15.7983882  )
        44           Ti1 tau(  44) = (   0.0000796   4.6311109  15.9036278  )
        45           O1  tau(  45) = (   3.2900926   2.9813045   4.7018136  )
        46           O1  tau(  46) = (   1.3039711   4.4726057   6.0039043  )
        47           O1  tau(  47) = (   5.2763189   4.4711207   6.0039473  )
        48           N1  tau(  48) = (   6.5791966   2.5420708  18.0561808  )
        49           H1  tau(  49) = (   6.5785613   1.6509345  18.5577087  )
        50           H1  tau(  50) = (   0.8131443   3.0604954  18.3807411  )
        51           H1  tau(  51) = (   5.7641953   3.0602838  18.3787844  )
        52           N1  tau(  52) = (  -0.0000615   4.8677125  20.5088556  )
        53           H1  tau(  53) = (   6.5774456   5.1124690  21.4935560  )
        54           H1  tau(  54) = (   0.8078797   5.3121143  20.0844266  )
        55           H1  tau(  55) = (   5.7710899   5.3082688  20.0816402  )

     number of k points=    10  Fermi-Dirac smearing, width (Ry)=  0.0073
                       cart. coord. in units 2pi/alat
        k(    1) = (   0.0000000   0.0000000   0.0000000), wk =   0.1250000
        k(    2) = (   0.0000000   0.0419351   0.0000000), wk =   0.2500000
        k(    3) = (   0.0000000  -0.0838702   0.0000000), wk =   0.1250000
        k(    4) = (   0.0379955   0.0000049   0.0000000), wk =   0.2500000
        k(    5) = (   0.0379955   0.0419400   0.0000000), wk =   0.2500000
        k(    6) = (   0.0379955  -0.0838652   0.0000000), wk =   0.2500000
        k(    7) = (   0.0379955  -0.0419301   0.0000000), wk =   0.2500000
        k(    8) = (  -0.0759910  -0.0000099   0.0000000), wk =   0.1250000
        k(    9) = (  -0.0759910   0.0419252   0.0000000), wk =   0.2500000
        k(   10) = (  -0.0759910  -0.0838800   0.0000000), wk =   0.1250000

     Initial potential from superposition of free atoms

     starting charge  377.99918, renormalised to  394.00000

     negative rho (up, down):  1.302E-02 0.000E+00

     %%%%%%%%%%%%%%%%%%%%%%%%%%%%%%%%%%%%%%%%%%%%%%%%%%%%%%%%%%%%%%%%%%%%%%%%
     %                                                                      %
     % You are using vdW-DF, which was implemented by the Thonhauser group. %
     % Please cite the following two papers that made this development      %
     % possible and the two reviews that describe the various versions:     %
     %                                                                      %
     %   T. Thonhauser et al., PRL 115, 136402 (2015).                      %
     %   T. Thonhauser et al., PRB 76, 125112 (2007).                       %
     %   K. Berland et al., Rep. Prog. Phys. 78, 066501 (2015).             %
     %   D.C. Langreth et al., J. Phys.: Condens. Matter 21, 084203 (2009). %
     %                                                                      %
     %                                                                      %
     % If you are calculating the stress with vdW-DF, please also cite:     %
     %                                                                      %
     %   R. Sabatini et al., J. Phys.: Condens. Matter 24, 424209 (2012).   %
     %                                                                      %
     %%%%%%%%%%%%%%%%%%%%%%%%%%%%%%%%%%%%%%%%%%%%%%%%%%%%%%%%%%%%%%%%%%%%%%%%

     Adding external electric field

     Computed dipole along edir(3) :
        Dipole               -9.7136 Ry au,        -24.6895 Debye
        Dipole field         -0.0183 Ry au,

        Potential amp.        1.6992 Ry
        Total length         46.3494 bohr

     Starting wfcs are  298 atomic wfcs
  @ DRIVER MODE: Message from server: STATUS
  @ DRIVER MODE: Message from server: POSDATA
  @ DRIVER MODE: Reading and sharing cell
  @ DRIVER MODE: Reading and sharing positions
  @ DRIVER MODE: Received positions

     Self-consistent Calculation

     iteration #  1     ecut=    29.40 Ry     beta= 0.05
     Davidson diagonalization with overlap
     c_bands:  1 eigenvalues not converged
     c_bands:  1 eigenvalues not converged
     c_bands:  1 eigenvalues not converged
     c_bands:  1 eigenvalues not converged
     ethr =  1.00E-05,  avg # of iterations = 18.0

[...]

     total energy              =   -2598.00418625 Ry
     estimated scf accuracy    <    3722.13328908 Ry

     iteration #  2     ecut=    29.40 Ry     beta= 0.05
     Davidson diagonalization with overlap
     ethr =  1.00E-02,  avg # of iterations = 22.9

[...]

     iteration # 62     ecut=    29.40 Ry     beta= 0.05
     Davidson diagonalization with overlap
     c_bands:  1 eigenvalues not converged
     c_bands:  2 eigenvalues not converged
     c_bands:  1 eigenvalues not converged
     c_bands:  1 eigenvalues not converged
     c_bands:  1 eigenvalues not converged
     ethr =  3.41E-11,  avg # of iterations = 19.0

[...]

     total energy              =   -2931.48022029 Ry
     estimated scf accuracy    <       0.00000008 Ry

     iteration # 65     ecut=    29.40 Ry     beta= 0.05
     Davidson diagonalization with overlap
     ethr =  1.97E-11,  avg # of iterations =  2.4

     negative rho (up, down):  1.426E-02 0.000E+00

     Adding external electric field

     Computed dipole along edir(3) :
        Dipole                1.3702 Ry au,          3.4826 Debye
        Dipole field          0.0026 Ry au,

        Potential amp.       -0.2397 Ry
        Total length         46.3494 bohr

     End of self-consistent calculation

          k = 0.0000 0.0000 0.0000 ( 18029 PWs)   bands (ev):

   -55.2763 -55.2398 -55.2283 -55.1965 -55.1941 -55.1614 -55.1475 -55.1131
   -55.1062 -55.0772 -55.0720 -55.0549 -55.0207 -54.9454 -54.3186 -54.2845
   -31.8442 -31.7302 -31.7275 -31.6337 -31.5940 -31.5830 -31.5801 -31.5666
   -31.5204 -31.5184 -31.4828 -31.4828 -31.4733 -31.4678 -31.4489 -31.4336
   -31.4291 -31.4162 -31.4120 -31.3856 -31.3799 -31.3703 -31.3601 -31.3481
   -31.3447 -31.3319 -31.3268 -31.3136 -31.2843 -31.2786 -31.2622 -31.2578
   -31.2519 -31.2486 -31.2453 -31.2381 -31.2047 -31.2000 -31.1870 -31.1689
   -31.1481 -31.1475 -30.7305 -30.6289 -30.6073 -30.5467 -30.4602 -30.3493
   -16.1077 -15.8706 -15.7405 -15.5817 -15.4917 -15.4484 -15.3517 -15.3269
   -15.2183 -15.1427 -15.0096 -14.9756 -14.9344 -14.9271 -14.9192 -14.8997
   -14.8935 -14.8230 -14.8208 -14.7933 -14.7844 -14.7624 -14.7610 -14.7417
   -14.7124 -14.6592 -14.6393 -14.5096 -14.4285 -14.3706 -14.1210 -12.8201
   -12.7009  -5.6065  -5.4793  -4.9668  -4.8167  -3.4387  -3.2847  -3.2520
    -3.1994  -3.1880  -3.0346  -2.8739  -2.7284  -2.7050  -2.5555  -2.5267
    -2.4745  -2.4527  -2.3008  -2.2782  -2.2312  -2.2076  -2.1559  -2.1457
    -2.1423  -2.1266  -2.0476  -2.0368  -2.0209  -1.8858  -1.8654  -1.7541
    -1.7133  -1.6575  -1.6489  -1.6407  -1.6054  -1.5875  -1.5465  -1.5361
    -1.5193  -1.5020  -1.4841  -1.3217  -1.3023  -1.1951  -1.1385  -1.0432
    -1.0268  -0.8826  -0.8469  -0.7579  -0.7447  -0.7222  -0.7073  -0.6750
    -0.6265  -0.5186  -0.4285  -0.4077  -0.3468  -0.3226  -0.2840  -0.1963
    -0.0924  -0.0640  -0.0312  -0.0287   0.0879   0.1122   0.1569   0.2239
     0.2268   0.2439   0.2679   0.3570   0.3726   0.4707   0.4942   0.5016
     0.5500   0.6392   0.6433   0.6575   0.6676   0.6938   0.7646   0.7714
     0.8708   0.8939   1.0103   1.2211   1.2926   1.3189   1.5976   1.6580
     1.7066   1.8693   2.2897   2.3421   3.8220   3.8887   3.9217   3.9547
     3.9911   4.0319   4.3193   4.3273   4.3397   4.3442   4.3808

[...]

          k = 0.0380-0.0419 0.0000 ( 17876 PWs)   bands (ev):

[...]

          k =-0.0760-0.0000 0.0000 ( 17886 PWs)   bands (ev):

[...]

          k =-0.0760-0.0839 0.0000 ( 17948 PWs)   bands (ev):

   -55.2608 -55.2550 -55.2113 -55.2110 -55.1950 -55.1579 -55.1313 -55.1293
   -55.0903 -55.0875 -55.0807 -55.0401 -55.0356 -54.9466 -54.3016 -54.3014
   -31.6495 -31.6453 -31.6442 -31.5651 -31.5424 -31.5422 -31.5355 -31.5038
   -31.5037 -31.4772 -31.4772 -31.4735 -31.4699 -31.4507 -31.4306 -31.4114
   -31.4065 -31.4047 -31.4047 -31.3983 -31.3974 -31.3946 -31.3556 -31.3546
   -31.3512 -31.3479 -31.3452 -31.3443 -31.3423 -31.3298 -31.3296 -31.3246
   -31.3219 -31.2878 -31.2858 -31.2701 -31.2673 -31.2620 -31.2252 -31.2241
   -31.2199 -31.1522 -30.6199 -30.6198 -30.5432 -30.5430 -30.5035 -30.5034
   -15.6264 -15.5146 -15.5031 -15.4689 -15.3158 -15.2947 -15.2574 -15.2426
   -15.1239 -15.0884 -15.0691 -15.0529 -15.0202 -15.0165 -15.0095 -14.9728
   -14.8889 -14.8690 -14.8636 -14.8513 -14.8251 -14.7875 -14.7821 -14.7755
   -14.7745 -14.7394 -14.7358 -14.6933 -14.6907 -14.6854 -14.3705 -12.8020
   -12.8019  -5.5872  -5.4821  -4.9303  -4.8257  -2.7876  -2.7324  -2.7313
    -2.5409  -2.4696  -2.4602  -2.4355  -2.3545  -2.3144  -2.2856  -2.2600
    -2.2316  -2.1872  -2.1835  -2.1623  -2.1537  -2.1459  -2.0924  -2.0740
    -2.0484  -1.9945  -1.9703  -1.9620  -1.9505  -1.9411  -1.9365  -1.9130
    -1.9107  -1.8846  -1.8736  -1.8177  -1.6671  -1.6506  -1.5724  -1.5137
    -1.4991  -1.4974  -1.4140  -1.3942  -1.3394  -1.3302  -1.3247  -1.0811
    -1.0618  -1.0588  -1.0535  -1.0235  -0.9065  -0.8977  -0.8252  -0.7960
    -0.7772  -0.6803  -0.6594  -0.5996  -0.5958  -0.4885  -0.4871  -0.4284
    -0.3001  -0.2931  -0.2804  -0.2556  -0.2538  -0.2121  -0.2079  -0.1005
    -0.0646  -0.0137  -0.0024   0.0302   0.1787   0.2353   0.2436   0.2778
     0.4110   0.4301   0.5658   0.5730   0.6280   0.7379   0.7672   0.8067
     0.8348   0.9837   0.9946   1.0157   1.1076   1.1217   1.1594   1.1659
     2.0574   2.0589   2.1602   2.1605   3.9825   4.0642   4.0898   4.1293
     4.2339   4.3324   4.3474   4.3484   4.3824   4.3854   4.4817

     the Fermi energy is     3.8856 ev

!    total energy              =   -2931.48024673 Ry
     estimated scf accuracy    <       0.00000004 Ry
     smearing contrib. (-TS)   =      -0.03685126 Ry
     internal energy E=F+TS    =   -2931.44339547 Ry

     The total energy is F=E-TS. E is the sum of the following terms:
     one-electron contribution =  -23483.63183228 Ry
     hartree contribution      =   11832.55471372 Ry
     xc contribution           =    -484.16145055 Ry
     ewald contribution        =    9203.79163087 Ry
     electric field correction =       0.00354276 Ry

     convergence has been achieved in  65 iterations

     Forces acting on atoms (cartesian axes, Ry/au):

     atom    1 type  1   force =     0.00008801   -0.00010425    0.09074422
     atom    2 type  1   force =    -0.00005939    0.00052903   -0.18273100
     atom    3 type  2   force =     0.00005416   -0.00002995   -0.02344960
     atom    4 type  2   force =     0.00001774   -0.00006068    0.05277938
     atom    5 type  2   force =    -0.01301424   -0.00097222    0.00606132
     atom    6 type  2   force =     0.01296056   -0.00048023    0.00605147
     atom    7 type  1   force =     0.00000092    0.00067210   -0.00330249
     atom    8 type  1   force =     0.00002267   -0.00014749    0.00138324
     atom    9 type  2   force =    -0.00003200   -0.00016050   -0.00047361
     atom   10 type  2   force =     0.00001825   -0.00005884   -0.00022130
     atom   11 type  2   force =     0.00016770    0.00017162    0.00016601
     atom   12 type  2   force =    -0.00008475    0.00016666    0.00014307
     atom   13 type  1   force =    -0.00020013   -0.00018782    0.00004668
     atom   14 type  1   force =     0.00014927    0.00046139   -0.00098812
     atom   15 type  2   force =     0.00002315   -0.00082319    0.00003079
     atom   16 type  2   force =    -0.00002823    0.00000831    0.00045409
     atom   17 type  2   force =     0.00033656   -0.00002661    0.00048870
     atom   18 type  2   force =    -0.00036902   -0.00003098    0.00049006
     atom   19 type  1   force =     0.00006898    0.00003056    0.00025557
     atom   20 type  1   force =    -0.00003485   -0.00091692   -0.00072440
     atom   21 type  2   force =     0.00005616    0.00012558    0.10489277
     atom   22 type  2   force =     0.00000897    0.00005031    0.00123171
     atom   23 type  2   force =    -0.06829029   -0.00021800   -0.02627124
     atom   24 type  2   force =     0.06819976    0.00021937   -0.02631582
     atom   25 type  1   force =     0.00009453    0.00004718    0.09036675
     atom   26 type  1   force =    -0.00005779   -0.00044344   -0.18291445
     atom   27 type  2   force =     0.00005143   -0.00093633   -0.02256210
     atom   28 type  2   force =     0.00001849   -0.00006879    0.05255550
     atom   29 type  2   force =    -0.01330917   -0.00073456    0.00528384
     atom   30 type  2   force =     0.01324587   -0.00024082    0.00527118
     atom   31 type  1   force =     0.00001046   -0.00071955   -0.00308460
     atom   32 type  1   force =     0.00001587   -0.00006084    0.00150880
     atom   33 type  2   force =    -0.00002983   -0.00015929    0.00020205
     atom   34 type  2   force =     0.00002034    0.00007458   -0.00047589
     atom   35 type  2   force =     0.00013628   -0.00014105    0.00022905
     atom   36 type  2   force =    -0.00005850   -0.00015491    0.00020567
     atom   37 type  1   force =    -0.00019812    0.00005370    0.00096096
     atom   38 type  1   force =     0.00014591   -0.00028899   -0.00096607
     atom   39 type  2   force =     0.00001462    0.00025020   -0.00029447
     atom   40 type  2   force =    -0.00003056   -0.00001639    0.00109153
     atom   41 type  2   force =     0.00053025   -0.00015064    0.00026104
     atom   42 type  2   force =    -0.00057583   -0.00015016    0.00026914
     atom   43 type  1   force =     0.00007254    0.00009629    0.00055444
     atom   44 type  1   force =    -0.00003571    0.00098013   -0.00126031
     atom   45 type  2   force =     0.00005508    0.00013954    0.10486232
     atom   46 type  2   force =    -0.06829001   -0.00010115   -0.02630614
     atom   47 type  2   force =     0.06819704    0.00033895   -0.02634944
     atom   48 type  3   force =    -0.00047813   -0.00087883    0.01078946
     atom   49 type  4   force =     0.00002300    0.00519074   -0.00364896
     atom   50 type  4   force =    -0.00209205   -0.00087014   -0.00256879
     atom   51 type  4   force =     0.00251580   -0.00112669   -0.00274824
     atom   52 type  3   force =    -0.00000962    0.00068949    0.00039078
     atom   53 type  4   force =    -0.00001774    0.00119328   -0.00143910
     atom   54 type  4   force =     0.00008507   -0.00002167   -0.00046573
     atom   55 type  4   force =    -0.00010952   -0.00000705   -0.00045972

     Total force =     0.366474     Total SCF correction =     0.000479
  @ DRIVER MODE: Message from server: STATUS
  @ DRIVER MODE: Message from server: GETFORCE
  @ DRIVER MODE: Returning v,forces,stress,ensemble

     Writing output data file ./calc.save/
  @ DRIVER MODE: Message from server: EXIT
  @ DRIVE MODE: Exiting

     General routines

     Parallel routines

   This run was terminated on:  11: 8:21  12Oct2021

   JOB DONE.