     Program PWSCF v.6.7GPU starts on  9Sep2021 at  0:20:40

     R & G space division:  proc/nbgrp/npool/nimage =      10
     Reading input from /storage/home/hcoda1/3/ntian30/research/carbon/CxH_vib/CH3_calc/ads_slab/CH3NHNH2_a/out_0008/pw.inp
Warning: card &CELL ignored
Warning: card   CELL_DYNAMICS='IPI', ignored
Warning: card / ignored

     Current dimensions of program PWSCF are:
     Max number of different atomic species (ntypx) = 10
     Max number of k-points (npk) =  40000
     Max angular momentum in pseudopotentials (lmaxx) =  3
     Presently no symmetry can be used with electric field

     Message from routine cell_base_init:
     DEPRECATED: use true lattice parameter, not A to a.u. conversion factor

     IMPORTANT: XC functional enforced from input :
     Exchange-correlation= BEEF-VDW
                           (   1   4  43  14   2   0   0)
     Any further DFT definition will be discarded
     Please, verify this is what you really want

  @ DRIVER MODE: Connecting to
 qe_1139763_2767398.sched-torque.pace.gatech.edud96qstbz_scratch
  using UNIX socket
  @ DRIVER MODE: Message from server: STATUS
  @ DRIVER MODE: Message from server: INIT
  @ DRIVER MODE: Receiving replica           0          -1
  @ DRIVER MODE: Receiving encoded integer          25
  @ DRIVER MODE:  SCF:  T  FORCE:  T  STRESS:  F  VC:  F  ENSEMBLE:  F
  @ DRIVER MODE:  SCF:  T  FORCE:  T  STRESS:  F  VC:  F  ENSEMBLE:  F

     Using Slab Decomposition

     bravais-lattice index     =            0
     lattice parameter (alat)  =       1.8897  a.u.
     unit-cell volume          =    6658.9804 (a.u.)^3
     number of atoms/cell      =           56
     number of atomic types    =            5
     number of electrons       =       398.00
     number of Kohn-Sham states=          209
     kinetic-energy cutoff     =      29.3995  Ry
     charge density cutoff     =     293.9946  Ry
     scf convergence threshold =      7.3E-08
     mixing beta               =       0.0500
     number of iterations used =            8  plain     mixing
     Exchange-correlation= BEEF-VDW
                           (   1   4  43  14   2   0   0)

     celldm(1)=   1.889726  celldm(2)=   0.000000  celldm(3)=   0.000000
     celldm(4)=   0.000000  celldm(5)=   0.000000  celldm(6)=   0.000000

     crystal axes: (cart. coord. in units of alat)
               a(1) = (   6.579727   0.000000   0.000000 )
               a(2) = (  -0.000775   5.961596   0.000000 )
               a(3) = (   0.000000   0.000000  25.155947 )

     reciprocal axes: (cart. coord. in units 2 pi/alat)
               b(1) = (  0.151982  0.000020  0.000000 )
               b(2) = (  0.000000  0.167740  0.000000 )
               b(3) = (  0.000000  0.000000  0.039752 )

     PseudoPot. # 1 for Ti read from file:
     /storage/coda1/p-amedford6/0/shared/rich_project_chbe-medford/medford-share/data/pseudos_module/espresso/nninc/pbe/van/Ti.UPF
     MD5 check sum: 8e4df49b7f0d34bbd5052bf3f5ea0213
     Pseudo is Ultrasoft, Zval = 12.0
     Generated by new atomic code, or converted to UPF format
     Using radial grid of  851 points,  6 beta functions with:
                l(1) =   0
                l(2) =   0
                l(3) =   1
                l(4) =   1
                l(5) =   2
                l(6) =   2
     Q(r) pseudized with  8 coefficients,  rinner =    1.000   1.000   1.000
                                                       1.000   1.000

     PseudoPot. # 2 for O  read from file:
     /storage/coda1/p-amedford6/0/shared/rich_project_chbe-medford/medford-share/data/pseudos_module/espresso/nninc/pbe/van/O.UPF
     MD5 check sum: 78c19812648e8988a0fe644b0f25305e
     Pseudo is Ultrasoft, Zval =  6.0
     Generated by new atomic code, or converted to UPF format
     Using radial grid of  737 points,  4 beta functions with:
                l(1) =   0
                l(2) =   0
                l(3) =   1
                l(4) =   1
     Q(r) pseudized with  8 coefficients,  rinner =    0.800   0.800   0.800

     PseudoPot. # 3 for N  read from file:
     /storage/coda1/p-amedford6/0/shared/rich_project_chbe-medford/medford-share/data/pseudos_module/espresso/nninc/pbe/van/N.UPF
     MD5 check sum: 90d10febe142ad51ac9d5be1deb811c4
     Pseudo is Ultrasoft, Zval =  5.0
     Generated by new atomic code, or converted to UPF format
     Using radial grid of  729 points,  4 beta functions with:
                l(1) =   0
                l(2) =   0
                l(3) =   1
                l(4) =   1
     Q(r) pseudized with  8 coefficients,  rinner =    0.800   0.800   0.800

     PseudoPot. # 4 for C  read from file:
     /storage/coda1/p-amedford6/0/shared/rich_project_chbe-medford/medford-share/data/pseudos_module/espresso/nninc/pbe/van/C.UPF
     MD5 check sum: 1a69bf6b8db32088f5b2163dbdb77a27
     Pseudo is Ultrasoft, Zval =  4.0
     Generated by new atomic code, or converted to UPF format
     Using radial grid of  721 points,  4 beta functions with:
                l(1) =   0
                l(2) =   0
                l(3) =   1
                l(4) =   1
     Q(r) pseudized with  8 coefficients,  rinner =    0.800   0.800   0.800

     PseudoPot. # 5 for H  read from file:
     /storage/coda1/p-amedford6/0/shared/rich_project_chbe-medford/medford-share/data/pseudos_module/espresso/nninc/pbe/van/H.UPF
     MD5 check sum: b5ee9d7bfd3a09ee7748110bda690ff7
     Pseudo is Ultrasoft, Zval =  1.0
     Generated by new atomic code, or converted to UPF format
     Using radial grid of  615 points,  1 beta functions with:
                l(1) =   0
     Q(r) pseudized with  8 coefficients,  rinner =    0.800

     atomic species   valence    mass     pseudopotential
        Ti1           12.00    47.86700     Ti( 1.00)
        O1             6.00    15.99900     O ( 1.00)
        N1             5.00    14.00700     N ( 1.00)
        C1             4.00    12.01100     C ( 1.00)
        H1             1.00     1.00800     H ( 1.00)

     No symmetry found

   Cartesian axes

     site n.     atom                  positions (alat units)
         1           Ti1 tau(   1) = (   0.0004258   2.9801865   6.0000000  )
         2           Ti1 tau(   2) = (   3.2906075   1.4906267   6.0002472  )
         3           O1  tau(   3) = (   0.0006271   0.0005054   7.9858123  )
         4           O1  tau(   4) = (   3.2906025   0.0005020   7.3038282  )
         5           O1  tau(   5) = (   4.5942328   1.4918067   9.2879030  )
         6           O1  tau(   6) = (   1.9868534   1.4903216   9.2879459  )
         7           Ti1 tau(   7) = (   3.2907910   2.8959150   9.1758416  )
         8           Ti1 tau(   8) = (   0.0015273   1.4827037   9.2680791  )
         9           O1  tau(   9) = (   3.2714441   0.0289406  11.3813764  )
        10           O1  tau(  10) = (   0.0116148   5.9584955  10.6183126  )
        11           O1  tau(  11) = (   1.2692032   1.5162281  12.7122965  )
        12           O1  tau(  12) = (   5.2779133   1.5159715  12.6811497  )
        13           Ti1 tau(  13) = (   6.5579218   3.0031650  12.5037829  )
        14           Ti1 tau(  14) = (   3.2791490   1.5128154  12.5375672  )
        15           O1  tau(  15) = (   6.5208524   5.8954130  14.6845636  )
        16           O1  tau(  16) = (   3.2849572   0.0099931  14.0031570  )
        17           O1  tau(  17) = (   4.4884262   1.5607690  16.1641467  )
        18           O1  tau(  18) = (   1.9729656   1.5430890  16.0903287  )
        19           Ti1 tau(  19) = (   3.2372663   3.0309179  15.7728032  )
        20           Ti1 tau(  20) = (   6.5553692   1.3539605  15.8053163  )
        21           O1  tau(  21) = (   3.2904802   0.0005063   4.7018136  )
        22           O1  tau(  22) = (   6.5123495   0.2165906  17.2215032  )
        23           O1  tau(  23) = (   1.3043587   1.4918075   6.0039043  )
        24           O1  tau(  24) = (   5.2767064   1.4903225   6.0039473  )
        25           Ti1 tau(  25) = (   0.0000382   5.9609847   6.0000000  )
        26           Ti1 tau(  26) = (   3.2902200   4.4714249   6.0002472  )
        27           O1  tau(  27) = (   0.0002396   2.9813036   7.9858123  )
        28           O1  tau(  28) = (   3.2902150   2.9813002   7.3038282  )
        29           O1  tau(  29) = (   4.5938453   4.4726049   9.2879030  )
        30           O1  tau(  30) = (   1.9864658   4.4711199   9.2879459  )
        31           Ti1 tau(  31) = (   3.2891106   5.8743827   9.1763621  )
        32           Ti1 tau(  32) = (   0.0006254   4.4649316   9.2693709  )
        33           O1  tau(  33) = (   3.2699379   2.9911670  11.3762017  )
        34           O1  tau(  34) = (   0.0092240   2.9805883  10.6323155  )
        35           O1  tau(  35) = (   1.2730946   4.4825978  12.6662957  )
        36           O1  tau(  36) = (   5.2742290   4.4829497  12.6320226  )
        37           Ti1 tau(  37) = (   6.5783117   0.0079037  12.5026730  )
        38           Ti1 tau(  38) = (   3.2784283   4.4905194  12.5286134  )
        39           O1  tau(  39) = (   6.5033290   3.0824797  14.9867588  )
        40           O1  tau(  40) = (   3.2824109   3.0350539  13.9807796  )
        41           O1  tau(  41) = (   4.4804250   4.5097483  16.2808085  )
        42           O1  tau(  42) = (   1.9642025   4.5165872  16.2225063  )
        43           Ti1 tau(  43) = (   3.2609991   0.0502580  15.7998297  )
        44           Ti1 tau(  44) = (   6.5501253   4.5826093  16.0954727  )
        45           O1  tau(  45) = (   3.2900926   2.9813045   4.7018136  )
        46           O1  tau(  46) = (   1.3039711   4.4726057   6.0039043  )
        47           O1  tau(  47) = (   5.2763189   4.4711207   6.0039473  )
        48           N1  tau(  48) = (   0.8845045   3.2634721  19.1145209  )
        49           N1  tau(  49) = (   6.3604243   3.3997271  18.1887592  )
        50           C1  tau(  50) = (   1.2927081   4.5631590  19.6429350  )
        51           H1  tau(  51) = (   0.4658632   5.1229972  20.1056819  )
        52           H1  tau(  52) = (   2.0600825   4.3818216  20.3958833  )
        53           H1  tau(  53) = (   1.7018904   5.1738364  18.8453250  )
        54           H1  tau(  54) = (   0.5628611   2.6866381  19.8888112  )
        55           H1  tau(  55) = (   5.6051421   3.9827062  18.5884547  )
        56           H1  tau(  56) = (   5.9567982   2.4624696  18.0937858  )

     number of k points=    10  Fermi-Dirac smearing, width (Ry)=  0.0073
                       cart. coord. in units 2pi/alat
        k(    1) = (   0.0000000   0.0000000   0.0000000), wk =   0.1250000
        k(    2) = (   0.0000000   0.0419351   0.0000000), wk =   0.2500000
        k(    3) = (   0.0000000  -0.0838702   0.0000000), wk =   0.1250000
        k(    4) = (   0.0379955   0.0000049   0.0000000), wk =   0.2500000
        k(    5) = (   0.0379955   0.0419400   0.0000000), wk =   0.2500000
        k(    6) = (   0.0379955  -0.0838652   0.0000000), wk =   0.2500000
        k(    7) = (   0.0379955  -0.0419301   0.0000000), wk =   0.2500000
        k(    8) = (  -0.0759910  -0.0000099   0.0000000), wk =   0.1250000
        k(    9) = (  -0.0759910   0.0419252   0.0000000), wk =   0.2500000
        k(   10) = (  -0.0759910  -0.0838800   0.0000000), wk =   0.1250000

     Initial potential from superposition of free atoms

     starting charge  381.99914, renormalised to  398.00000

     negative rho (up, down):  1.416E-02 0.000E+00

     %%%%%%%%%%%%%%%%%%%%%%%%%%%%%%%%%%%%%%%%%%%%%%%%%%%%%%%%%%%%%%%%%%%%%%%%
     %                                                                      %
     % You are using vdW-DF, which was implemented by the Thonhauser group. %
     % Please cite the following two papers that made this development      %
     % possible and the two reviews that describe the various versions:     %
     %                                                                      %
     %   T. Thonhauser et al., PRL 115, 136402 (2015).                      %
     %   T. Thonhauser et al., PRB 76, 125112 (2007).                       %
     %   K. Berland et al., Rep. Prog. Phys. 78, 066501 (2015).             %
     %   D.C. Langreth et al., J. Phys.: Condens. Matter 21, 084203 (2009). %
     %                                                                      %
     %                                                                      %
     % If you are calculating the stress with vdW-DF, please also cite:     %
     %                                                                      %
     %   R. Sabatini et al., J. Phys.: Condens. Matter 24, 424209 (2012).   %
     %                                                                      %
     %%%%%%%%%%%%%%%%%%%%%%%%%%%%%%%%%%%%%%%%%%%%%%%%%%%%%%%%%%%%%%%%%%%%%%%%

     Adding external electric field

     Computed dipole along edir(3) :
        Dipole              -11.7171 Ry au,        -29.7818 Debye
        Dipole field         -0.0221 Ry au,

        Potential amp.        2.0497 Ry
        Total length         46.3494 bohr

     Starting wfcs are  302 atomic wfcs
  @ DRIVER MODE: Message from server: STATUS
  @ DRIVER MODE: Message from server: POSDATA
  @ DRIVER MODE: Reading and sharing cell
  @ DRIVER MODE: Reading and sharing positions
  @ DRIVER MODE: Received positions

     Self-consistent Calculation

     iteration #  1     ecut=    29.40 Ry     beta= 0.05
     Davidson diagonalization with overlap
     c_bands:  3 eigenvalues not converged
     c_bands:  1 eigenvalues not converged
     c_bands:  1 eigenvalues not converged
     c_bands:  4 eigenvalues not converged
     c_bands:  1 eigenvalues not converged
     c_bands:  4 eigenvalues not converged
     c_bands:  5 eigenvalues not converged
     c_bands:  2 eigenvalues not converged
     ethr =  1.00E-05,  avg # of iterations = 21.9

[...]

     total energy              =   -2424.60544163 Ry
     estimated scf accuracy    <    5829.98981059 Ry

     iteration #  2     ecut=    29.40 Ry     beta= 0.05
     Davidson diagonalization with overlap
     ethr =  1.00E-02,  avg # of iterations = 22.4

[...]

     iteration # 96     ecut=    29.40 Ry     beta= 0.05
     Davidson diagonalization with overlap
     c_bands:  1 eigenvalues not converged
     ethr =  1.02E-10,  avg # of iterations = 15.7

[...]

     total energy              =   -2942.84376754 Ry
     estimated scf accuracy    <       0.00000023 Ry

     iteration # 98     ecut=    29.40 Ry     beta= 0.05
     Davidson diagonalization with overlap
     ethr =  5.80E-11,  avg # of iterations = 11.3

     negative rho (up, down):  1.512E-02 0.000E+00

     Adding external electric field

     Computed dipole along edir(3) :
        Dipole                1.4944 Ry au,          3.7983 Debye
        Dipole field          0.0028 Ry au,

        Potential amp.       -0.2614 Ry
        Total length         46.3494 bohr

     End of self-consistent calculation

          k = 0.0000 0.0000 0.0000 ( 18029 PWs)   bands (ev):

   -55.2017 -55.1645 -55.1538 -55.1249 -55.1197 -55.0832 -55.0801 -55.0452
   -55.0259 -55.0128 -54.9915 -54.9865 -54.9528 -54.8562 -54.1862 -54.1521
   -31.7680 -31.6517 -31.6468 -31.5682 -31.5152 -31.5141 -31.5113 -31.4926
   -31.4429 -31.4394 -31.4114 -31.4092 -31.3989 -31.3819 -31.3689 -31.3632
   -31.3562 -31.3465 -31.3391 -31.3223 -31.3064 -31.3039 -31.2720 -31.2681
   -31.2577 -31.2567 -31.2379 -31.2286 -31.2110 -31.2106 -31.2061 -31.1854
   -31.1853 -31.1821 -31.1752 -31.1726 -31.1393 -31.1296 -31.1148 -31.0979
   -31.0695 -31.0500 -30.5957 -30.5011 -30.4791 -30.4120 -30.3252 -30.2144
   -18.0080 -16.0353 -15.7730 -15.6276 -15.5154 -15.4042 -15.2846 -15.2538
   -15.1341 -15.0580 -14.9238 -14.8975 -14.8751 -14.8518 -14.8399 -14.8275
   -14.7516 -14.7450 -14.7290 -14.7007 -14.6989 -14.6537 -14.6439 -14.6045
   -14.5795 -14.5581 -14.4537 -14.3655 -14.2915 -14.0738 -13.4093 -12.6890
   -12.5715  -9.7075  -6.6262  -6.0572  -4.5955  -3.3737  -3.2459  -3.2256
    -3.1376  -3.1035  -3.0963  -3.0049  -2.9512  -2.7922  -2.6495  -2.6243
    -2.4932  -2.4181  -2.4017  -2.3773  -2.2474  -2.2125  -2.1614  -2.1222
    -2.0629  -2.0327  -2.0087  -1.9930  -1.9619  -1.9527  -1.9277  -1.8375
    -1.7794  -1.6876  -1.6703  -1.6015  -1.5946  -1.5608  -1.5397  -1.4944
    -1.4841  -1.4354  -1.4273  -1.4151  -1.3947  -1.2677  -1.2233  -1.1134
    -1.0520  -0.9650  -0.8437  -0.8036  -0.7896  -0.6987  -0.6898  -0.6597
    -0.5816  -0.5782  -0.5478  -0.4396  -0.3745  -0.3109  -0.2522  -0.2248
    -0.1926  -0.1150  -0.0237   0.0118   0.0286   0.0521   0.1518   0.1869
     0.2426   0.3093   0.3209   0.3342   0.4137   0.4550   0.5301   0.5670
     0.5848   0.6731   0.6996   0.7273   0.7279   0.7658   0.7800   0.8198
     0.8683   0.8951   0.9816   1.0545   1.1035   1.3478   1.4001   1.4059
     1.7320   1.7399   1.8364   2.0198   2.4129   2.4612   3.8947   3.9634
     4.0393   4.0442   4.0668   4.1305   4.3684   4.3913   4.4004   4.4026
     4.4291

[...]

          k = 0.0380-0.0419 0.0000 ( 17876 PWs)   bands (ev):

[...]

          k =-0.0760-0.0000 0.0000 ( 17886 PWs)   bands (ev):

[...]

          k =-0.0760-0.0839 0.0000 ( 17948 PWs)   bands (ev):

   -55.1879 -55.1781 -55.1369 -55.1365 -55.1235 -55.0788 -55.0658 -55.0595
   -55.0171 -55.0100 -55.0069 -54.9701 -54.9694 -54.8573 -54.1691 -54.1690
   -31.5762 -31.5751 -31.5684 -31.4838 -31.4620 -31.4617 -31.4587 -31.4281
   -31.4280 -31.4128 -31.4018 -31.4002 -31.3914 -31.3656 -31.3565 -31.3435
   -31.3426 -31.3388 -31.3356 -31.3298 -31.3279 -31.3219 -31.2829 -31.2797
   -31.2795 -31.2780 -31.2602 -31.2592 -31.2566 -31.2562 -31.2516 -31.2431
   -31.2401 -31.2232 -31.2198 -31.2039 -31.2031 -31.2001 -31.1508 -31.1503
   -31.1258 -31.0740 -30.4918 -30.4917 -30.4082 -30.4082 -30.3687 -30.3686
   -18.0048 -15.5601 -15.4303 -15.4013 -15.2448 -15.2087 -15.1753 -15.1620
   -15.0410 -15.0039 -14.9788 -14.9697 -14.9522 -14.9116 -14.9061 -14.8993
   -14.8287 -14.8095 -14.8052 -14.7829 -14.7247 -14.7158 -14.7119 -14.7043
   -14.6538 -14.6501 -14.5692 -14.5594 -14.5561 -14.3750 -13.4125 -12.6730
   -12.6728  -9.7236  -6.6122  -6.0554  -4.5752  -3.2150  -2.9621  -2.6928
    -2.6877  -2.6599  -2.4587  -2.3961  -2.3654  -2.3598  -2.2625  -2.2261
    -2.2014  -2.1979  -2.1331  -2.1179  -2.0868  -2.0572  -2.0410  -2.0269
    -2.0116  -1.9974  -1.9718  -1.9343  -1.9262  -1.9175  -1.8849  -1.8642
    -1.8414  -1.8192  -1.8058  -1.7871  -1.7613  -1.7391  -1.6027  -1.5703
    -1.4997  -1.4616  -1.4136  -1.4093  -1.3375  -1.3012  -1.2509  -1.2388
    -1.2219  -1.0824  -1.0236  -0.9727  -0.9528  -0.9418  -0.8129  -0.7987
    -0.7257  -0.7080  -0.6917  -0.6184  -0.5658  -0.5278  -0.5142  -0.4209
    -0.4056  -0.3393  -0.2370  -0.2143  -0.2002  -0.1597  -0.1567  -0.1094
    -0.1024  -0.0183   0.0260   0.0610   0.0718   0.1076   0.3010   0.3164
     0.3267   0.4798   0.4963   0.6370   0.6806   0.7473   0.8060   0.8448
     0.9065   0.9438   1.0613   1.0891   1.1016   1.1114   1.1713   1.1831
     1.2459   1.2566   2.1925   2.1931   2.2810   2.2814   4.0406   4.1480
     4.1557   4.1973   4.3172   4.3479   4.4097   4.4369   4.4786   4.4818
     4.5417

     the Fermi energy is     3.9581 ev

!    total energy              =   -2942.84376886 Ry
     estimated scf accuracy    <       0.00000006 Ry
     smearing contrib. (-TS)   =      -0.03707624 Ry
     internal energy E=F+TS    =   -2942.80669263 Ry

     The total energy is F=E-TS. E is the sum of the following terms:
     one-electron contribution =  -23366.82958390 Ry
     hartree contribution      =   11777.59174143 Ry
     xc contribution           =    -487.73828214 Ry
     ewald contribution        =    9134.16521784 Ry
     electric field correction =       0.00421414 Ry

     convergence has been achieved in  98 iterations

     Forces acting on atoms (cartesian axes, Ry/au):

     atom    1 type  1   force =     0.00018054   -0.00032843    0.09326369
     atom    2 type  1   force =    -0.00005571   -0.00043470   -0.17824906
     atom    3 type  2   force =     0.00002645   -0.00031863   -0.02005169
     atom    4 type  2   force =     0.00002083   -0.00182837    0.05924438
     atom    5 type  2   force =    -0.01046020   -0.00026696    0.00863429
     atom    6 type  2   force =     0.01147235    0.00040566    0.00644862
     atom    7 type  1   force =    -0.00099442    0.00211851   -0.01398999
     atom    8 type  1   force =     0.00081707   -0.00094540   -0.00573628
     atom    9 type  2   force =    -0.00010117    0.00012173   -0.00002019
     atom   10 type  2   force =    -0.00185217    0.00411458    0.00025996
     atom   11 type  2   force =    -0.00005985   -0.00063872    0.00028337
     atom   12 type  2   force =    -0.00002003   -0.00040933    0.00053956
     atom   13 type  1   force =     0.00005101    0.00010641    0.00034255
     atom   14 type  1   force =    -0.00036567    0.00000389    0.00007970
     atom   15 type  2   force =     0.00054511    0.00021587   -0.00038322
     atom   16 type  2   force =     0.00032668   -0.00035484   -0.00007210
     atom   17 type  2   force =    -0.00054265    0.00003327    0.00005229
     atom   18 type  2   force =     0.00058498   -0.00019465    0.00003862
     atom   19 type  1   force =    -0.00008033   -0.00051886    0.00017929
     atom   20 type  1   force =     0.00071084    0.00013711    0.00107987
     atom   21 type  2   force =     0.00012145   -0.00012672    0.10404561
     atom   22 type  2   force =    -0.00038432    0.00022545   -0.00038897
     atom   23 type  2   force =    -0.07026952   -0.00022439   -0.02686532
     atom   24 type  2   force =     0.07026121    0.00021268   -0.02688965
     atom   25 type  1   force =     0.00007662   -0.00030774    0.09258315
     atom   26 type  1   force =    -0.00003185   -0.00058469   -0.17837446
     atom   27 type  2   force =     0.00012740   -0.00017266   -0.01910149
     atom   28 type  2   force =     0.00005085   -0.00164159    0.05860469
     atom   29 type  2   force =    -0.01106123   -0.00056193    0.00931822
     atom   30 type  2   force =     0.01198390   -0.00002373    0.00720676
     atom   31 type  1   force =    -0.00093432    0.00645886   -0.01505349
     atom   32 type  1   force =     0.00086521    0.00101305   -0.00586976
     atom   33 type  2   force =     0.00017451   -0.00056865   -0.00004897
     atom   34 type  2   force =    -0.00185765   -0.00052578   -0.00049508
     atom   35 type  2   force =    -0.00043928    0.00005949   -0.00043255
     atom   36 type  2   force =     0.00033946   -0.00011981    0.00017963
     atom   37 type  1   force =    -0.00051547   -0.00025971    0.00020120
     atom   38 type  1   force =    -0.00003744   -0.00014202   -0.00007715
     atom   39 type  2   force =     0.00026936   -0.00057892   -0.00006028
     atom   40 type  2   force =    -0.00060332   -0.00050911    0.00024757
     atom   41 type  2   force =    -0.00000889   -0.00086444   -0.00051375
     atom   42 type  2   force =     0.00061806   -0.00004862   -0.00017979
     atom   43 type  1   force =     0.00016455   -0.00022697   -0.00019808
     atom   44 type  1   force =     0.00080598    0.00018719    0.00079200
     atom   45 type  2   force =     0.00013236   -0.00014490    0.10398311
     atom   46 type  2   force =    -0.07028155   -0.00016359   -0.02683980
     atom   47 type  2   force =     0.07024647    0.00026173   -0.02689488
     atom   48 type  3   force =     0.00551870    0.00118565    0.00335995
     atom   49 type  3   force =    -0.01749893   -0.00059725   -0.00036669
     atom   50 type  4   force =     0.00123792   -0.00191530    0.00039205
     atom   51 type  5   force =    -0.00098702    0.00137973    0.00056120
     atom   52 type  5   force =     0.00035538   -0.00012066   -0.00018888
     atom   53 type  5   force =     0.00077155    0.00040979   -0.00123348
     atom   54 type  5   force =     0.00018754   -0.00182821    0.00071242
     atom   55 type  5   force =     0.00757881   -0.00462780   -0.00381120
     atom   56 type  5   force =     0.00281985    0.00447345   -0.00024750

     Total force =     0.366985     Total SCF correction =     0.000701
  @ DRIVER MODE: Message from server: STATUS
  @ DRIVER MODE: Message from server: GETFORCE
  @ DRIVER MODE: Returning v,forces,stress,ensemble

     Writing output data file ./calc.save/
  @ DRIVER MODE: Message from server: EXIT
  @ DRIVE MODE: Exiting

     General routines

     Parallel routines

   This run was terminated on:   0:45:53   9Sep2021

   JOB DONE.