     Program PWSCF v.6.7GPU starts on 23Sep2021 at  5:10:10

     R & G space division:  proc/nbgrp/npool/nimage =      10
     Reading input from /storage/home/hcoda1/3/ntian30/research/carbon/CxH_vib/H2O_calc/ads_slab/CHNHNHH2O_b/out_0039/pw.inp
Warning: card &CELL ignored
Warning: card   CELL_DYNAMICS='IPI', ignored
Warning: card / ignored

     Current dimensions of program PWSCF are:
     Max number of different atomic species (ntypx) = 10
     Max number of k-points (npk) =  40000
     Max angular momentum in pseudopotentials (lmaxx) =  3
     Presently no symmetry can be used with electric field

     Message from routine cell_base_init:
     DEPRECATED: use true lattice parameter, not A to a.u. conversion factor

     IMPORTANT: XC functional enforced from input :
     Exchange-correlation= BEEF-VDW
                           (   1   4  43  14   2   0   0)
     Any further DFT definition will be discarded
     Please, verify this is what you really want

  @ DRIVER MODE: Connecting to
 qe_1139763_2937311.sched-torque.pace.gatech.edu8fs8grrk_scratch
  using UNIX socket
  @ DRIVER MODE: Message from server: STATUS
  @ DRIVER MODE: Message from server: INIT
  @ DRIVER MODE: Receiving replica           0          -1
  @ DRIVER MODE: Receiving encoded integer          25
  @ DRIVER MODE:  SCF:  T  FORCE:  T  STRESS:  F  VC:  F  ENSEMBLE:  F
  @ DRIVER MODE:  SCF:  T  FORCE:  T  STRESS:  F  VC:  F  ENSEMBLE:  F

     Using Slab Decomposition

     bravais-lattice index     =            0
     lattice parameter (alat)  =       1.8897  a.u.
     unit-cell volume          =    6658.9804 (a.u.)^3
     number of atoms/cell      =           56
     number of atomic types    =            5
     number of electrons       =       403.00
     number of Kohn-Sham states=          211
     kinetic-energy cutoff     =      29.3995  Ry
     charge density cutoff     =     293.9946  Ry
     scf convergence threshold =      7.3E-08
     mixing beta               =       0.0500
     number of iterations used =            8  plain     mixing
     Exchange-correlation= BEEF-VDW
                           (   1   4  43  14   2   0   0)

     celldm(1)=   1.889726  celldm(2)=   0.000000  celldm(3)=   0.000000
     celldm(4)=   0.000000  celldm(5)=   0.000000  celldm(6)=   0.000000

     crystal axes: (cart. coord. in units of alat)
               a(1) = (   6.579727   0.000000   0.000000 )
               a(2) = (  -0.000775   5.961596   0.000000 )
               a(3) = (   0.000000   0.000000  25.155947 )

     reciprocal axes: (cart. coord. in units 2 pi/alat)
               b(1) = (  0.151982  0.000020  0.000000 )
               b(2) = (  0.000000  0.167740  0.000000 )
               b(3) = (  0.000000  0.000000  0.039752 )

     PseudoPot. # 1 for Ti read from file:
     /storage/coda1/p-amedford6/0/shared/rich_project_chbe-medford/medford-share/data/pseudos_module/espresso/nninc/pbe/van/Ti.UPF
     MD5 check sum: 8e4df49b7f0d34bbd5052bf3f5ea0213
     Pseudo is Ultrasoft, Zval = 12.0
     Generated by new atomic code, or converted to UPF format
     Using radial grid of  851 points,  6 beta functions with:
                l(1) =   0
                l(2) =   0
                l(3) =   1
                l(4) =   1
                l(5) =   2
                l(6) =   2
     Q(r) pseudized with  8 coefficients,  rinner =    1.000   1.000   1.000
                                                       1.000   1.000

     PseudoPot. # 2 for O  read from file:
     /storage/coda1/p-amedford6/0/shared/rich_project_chbe-medford/medford-share/data/pseudos_module/espresso/nninc/pbe/van/O.UPF
     MD5 check sum: 78c19812648e8988a0fe644b0f25305e
     Pseudo is Ultrasoft, Zval =  6.0
     Generated by new atomic code, or converted to UPF format
     Using radial grid of  737 points,  4 beta functions with:
                l(1) =   0
                l(2) =   0
                l(3) =   1
                l(4) =   1
     Q(r) pseudized with  8 coefficients,  rinner =    0.800   0.800   0.800

     PseudoPot. # 3 for N  read from file:
     /storage/coda1/p-amedford6/0/shared/rich_project_chbe-medford/medford-share/data/pseudos_module/espresso/nninc/pbe/van/N.UPF
     MD5 check sum: 90d10febe142ad51ac9d5be1deb811c4
     Pseudo is Ultrasoft, Zval =  5.0
     Generated by new atomic code, or converted to UPF format
     Using radial grid of  729 points,  4 beta functions with:
                l(1) =   0
                l(2) =   0
                l(3) =   1
                l(4) =   1
     Q(r) pseudized with  8 coefficients,  rinner =    0.800   0.800   0.800

     PseudoPot. # 4 for C  read from file:
     /storage/coda1/p-amedford6/0/shared/rich_project_chbe-medford/medford-share/data/pseudos_module/espresso/nninc/pbe/van/C.UPF
     MD5 check sum: 1a69bf6b8db32088f5b2163dbdb77a27
     Pseudo is Ultrasoft, Zval =  4.0
     Generated by new atomic code, or converted to UPF format
     Using radial grid of  721 points,  4 beta functions with:
                l(1) =   0
                l(2) =   0
                l(3) =   1
                l(4) =   1
     Q(r) pseudized with  8 coefficients,  rinner =    0.800   0.800   0.800

     PseudoPot. # 5 for H  read from file:
     /storage/coda1/p-amedford6/0/shared/rich_project_chbe-medford/medford-share/data/pseudos_module/espresso/nninc/pbe/van/H.UPF
     MD5 check sum: b5ee9d7bfd3a09ee7748110bda690ff7
     Pseudo is Ultrasoft, Zval =  1.0
     Generated by new atomic code, or converted to UPF format
     Using radial grid of  615 points,  1 beta functions with:
                l(1) =   0
     Q(r) pseudized with  8 coefficients,  rinner =    0.800

     atomic species   valence    mass     pseudopotential
        Ti1           12.00    47.86700     Ti( 1.00)
        O1             6.00    15.99900     O ( 1.00)
        N1             5.00    14.00700     N ( 1.00)
        C1             4.00    12.01100     C ( 1.00)
        H1             1.00     1.00800     H ( 1.00)

     No symmetry found

   Cartesian axes

     site n.     atom                  positions (alat units)
         1           Ti1 tau(   1) = (   0.0004258   2.9801865   6.0000000  )
         2           Ti1 tau(   2) = (   3.2906075   1.4906267   6.0002472  )
         3           O1  tau(   3) = (   0.0006271   0.0005054   7.9858123  )
         4           O1  tau(   4) = (   3.2906025   0.0005020   7.3038282  )
         5           O1  tau(   5) = (   4.5942328   1.4918067   9.2879030  )
         6           O1  tau(   6) = (   1.9868534   1.4903216   9.2879459  )
         7           Ti1 tau(   7) = (   3.2907910   2.8959150   9.1758416  )
         8           Ti1 tau(   8) = (   0.0015273   1.4827037   9.2680791  )
         9           O1  tau(   9) = (   3.2780774   5.9605562  11.3537357  )
        10           O1  tau(  10) = (   0.0116148   5.9584955  10.6183126  )
        11           O1  tau(  11) = (   1.2922713   1.4781662  12.6511241  )
        12           O1  tau(  12) = (   5.2965393   1.5043564  12.6031353  )
        13           Ti1 tau(  13) = (   6.5273184   3.0207086  12.5807821  )
        14           Ti1 tau(  14) = (   3.2344070   1.4559942  12.5004267  )
        15           O1  tau(  15) = (   6.4759410   0.0295824  14.6525783  )
        16           O1  tau(  16) = (   3.3604338   0.0238249  13.9383540  )
        17           O1  tau(  17) = (   4.5324113   1.5808541  16.1066768  )
        18           O1  tau(  18) = (   1.9684897   1.4712893  15.8817925  )
        19           Ti1 tau(  19) = (   3.2566353   3.0739815  15.8599551  )
        20           Ti1 tau(  20) = (   6.5466614   1.5318677  15.7800735  )
        21           O1  tau(  21) = (   3.2904802   0.0005063   4.7018136  )
        22           O1  tau(  22) = (   6.5744325   0.0155309  17.2227980  )
        23           O1  tau(  23) = (   1.3043587   1.4918075   6.0039043  )
        24           O1  tau(  24) = (   5.2767064   1.4903225   6.0039473  )
        25           Ti1 tau(  25) = (   0.0000382   5.9609847   6.0000000  )
        26           Ti1 tau(  26) = (   3.2902200   4.4714249   6.0002472  )
        27           O1  tau(  27) = (   0.0002396   2.9813036   7.9858123  )
        28           O1  tau(  28) = (   3.2902150   2.9813002   7.3038282  )
        29           O1  tau(  29) = (   4.5938453   4.4726049   9.2879030  )
        30           O1  tau(  30) = (   1.9864658   4.4711199   9.2879459  )
        31           Ti1 tau(  31) = (   3.2891106   5.8743827   9.1763621  )
        32           Ti1 tau(  32) = (   0.0006254   4.4649316   9.2693709  )
        33           O1  tau(  33) = (   3.2727763   2.9788165  11.3438337  )
        34           O1  tau(  34) = (   0.0092240   2.9805883  10.6323155  )
        35           O1  tau(  35) = (   1.2865780   4.4896361  12.6556599  )
        36           O1  tau(  36) = (   5.2967437   4.4749066  12.6066920  )
        37           Ti1 tau(  37) = (   6.5467059   0.0356701  12.5108493  )
        38           Ti1 tau(  38) = (   3.2305653   4.4019604  12.5605372  )
        39           O1  tau(  39) = (   6.5199767   2.9846217  14.6905747  )
        40           O1  tau(  40) = (   3.2851694   3.0254550  13.9321539  )
        41           O1  tau(  41) = (   4.5310495   4.4602642  16.1636806  )
        42           O1  tau(  42) = (   1.9842988   4.5744318  15.9411167  )
        43           Ti1 tau(  43) = (   3.2691225   0.1036042  15.7405456  )
        44           Ti1 tau(  44) = (   6.5697781   4.6877429  16.0360384  )
        45           O1  tau(  45) = (   3.2900926   2.9813045   4.7018136  )
        46           O1  tau(  46) = (   1.3039711   4.4726057   6.0039043  )
        47           O1  tau(  47) = (   5.2763189   4.4711207   6.0039473  )
        48           N1  tau(  48) = (   1.2792381   2.8578196  18.3696018  )
        49           N1  tau(  49) = (   0.1888888   2.9646215  17.5057353  )
        50           C1  tau(  50) = (   2.5352320   2.9081513  18.0382144  )
        51           H1  tau(  51) = (   3.1442446   2.7411670  18.9317345  )
        52           H1  tau(  52) = (   1.0014291   2.6635404  19.3302151  )
        53           H1  tau(  53) = (   5.9397212   2.8571719  18.0851170  )
        54           O1  tau(  54) = (   3.2630597   0.0241043  18.2348460  )
        55           H1  tau(  55) = (   4.0455299   5.4198958  18.2485053  )
        56           H1  tau(  56) = (   2.4923979   5.4091459  18.3156537  )

     number of k points=    10  Fermi-Dirac smearing, width (Ry)=  0.0073
                       cart. coord. in units 2pi/alat
        k(    1) = (   0.0000000   0.0000000   0.0000000), wk =   0.1250000
        k(    2) = (   0.0000000   0.0419351   0.0000000), wk =   0.2500000
        k(    3) = (   0.0000000  -0.0838702   0.0000000), wk =   0.1250000
        k(    4) = (   0.0379955   0.0000049   0.0000000), wk =   0.2500000
        k(    5) = (   0.0379955   0.0419400   0.0000000), wk =   0.2500000
        k(    6) = (   0.0379955  -0.0838652   0.0000000), wk =   0.2500000
        k(    7) = (   0.0379955  -0.0419301   0.0000000), wk =   0.2500000
        k(    8) = (  -0.0759910  -0.0000099   0.0000000), wk =   0.1250000
        k(    9) = (  -0.0759910   0.0419252   0.0000000), wk =   0.2500000
        k(   10) = (  -0.0759910  -0.0838800   0.0000000), wk =   0.1250000

     Initial potential from superposition of free atoms

     starting charge  386.99914, renormalised to  403.00000

     negative rho (up, down):  1.738E-02 0.000E+00

     %%%%%%%%%%%%%%%%%%%%%%%%%%%%%%%%%%%%%%%%%%%%%%%%%%%%%%%%%%%%%%%%%%%%%%%%
     %                                                                      %
     % You are using vdW-DF, which was implemented by the Thonhauser group. %
     % Please cite the following two papers that made this development      %
     % possible and the two reviews that describe the various versions:     %
     %                                                                      %
     %   T. Thonhauser et al., PRL 115, 136402 (2015).                      %
     %   T. Thonhauser et al., PRB 76, 125112 (2007).                       %
     %   K. Berland et al., Rep. Prog. Phys. 78, 066501 (2015).             %
     %   D.C. Langreth et al., J. Phys.: Condens. Matter 21, 084203 (2009). %
     %                                                                      %
     %                                                                      %
     % If you are calculating the stress with vdW-DF, please also cite:     %
     %                                                                      %
     %   R. Sabatini et al., J. Phys.: Condens. Matter 24, 424209 (2012).   %
     %                                                                      %
     %%%%%%%%%%%%%%%%%%%%%%%%%%%%%%%%%%%%%%%%%%%%%%%%%%%%%%%%%%%%%%%%%%%%%%%%

     Adding external electric field

     Computed dipole along edir(3) :
        Dipole              -12.3463 Ry au,        -31.3811 Debye
        Dipole field         -0.0233 Ry au,

        Potential amp.        2.1598 Ry
        Total length         46.3494 bohr

     Starting wfcs are  305 atomic wfcs
  @ DRIVER MODE: Message from server: STATUS
  @ DRIVER MODE: Message from server: POSDATA
  @ DRIVER MODE: Reading and sharing cell
  @ DRIVER MODE: Reading and sharing positions
  @ DRIVER MODE: Received positions

     Self-consistent Calculation

     iteration #  1     ecut=    29.40 Ry     beta= 0.05
     Davidson diagonalization with overlap
     c_bands:  5 eigenvalues not converged
     c_bands:  3 eigenvalues not converged
     c_bands:  3 eigenvalues not converged
     c_bands:  1 eigenvalues not converged
     c_bands:  2 eigenvalues not converged
     c_bands:  2 eigenvalues not converged
     c_bands:  5 eigenvalues not converged
     c_bands:  2 eigenvalues not converged
     c_bands:  4 eigenvalues not converged
     ethr =  1.00E-05,  avg # of iterations = 29.3

[...]

     total energy              =   -2358.70457441 Ry
     estimated scf accuracy    <    6971.23404084 Ry

     iteration #  2     ecut=    29.40 Ry     beta= 0.05
     Davidson diagonalization with overlap
     ethr =  1.00E-02,  avg # of iterations = 25.2

[...]

     iteration # 69     ecut=    29.40 Ry     beta= 0.05
     Davidson diagonalization with overlap
     c_bands:  1 eigenvalues not converged
     c_bands:  1 eigenvalues not converged
     c_bands:  1 eigenvalues not converged
     ethr =  3.09E-11,  avg # of iterations = 16.1

[...]

     total energy              =   -2973.93994054 Ry
     estimated scf accuracy    <       0.00000009 Ry

     iteration # 70     ecut=    29.40 Ry     beta= 0.05
     Davidson diagonalization with overlap
     ethr =  2.11E-11,  avg # of iterations = 10.2

     negative rho (up, down):  1.725E-02 0.000E+00

     Adding external electric field

     Computed dipole along edir(3) :
        Dipole                1.4001 Ry au,          3.5588 Debye
        Dipole field          0.0026 Ry au,

        Potential amp.       -0.2449 Ry
        Total length         46.3494 bohr

     End of self-consistent calculation

          k = 0.0000 0.0000 0.0000 ( 18029 PWs)   bands (ev):

   -55.3195 -55.2854 -55.2098 -55.1859 -55.1668 -55.1553 -55.1401 -55.1181
   -55.1063 -55.1038 -55.0972 -55.0626 -54.9920 -54.8339 -54.2999 -54.2658
   -31.8037 -31.7307 -31.6567 -31.6497 -31.6399 -31.6113 -31.5868 -31.5645
   -31.5198 -31.5011 -31.4719 -31.4636 -31.4553 -31.4407 -31.4256 -31.4211
   -31.3979 -31.3798 -31.3767 -31.3646 -31.3350 -31.3328 -31.3286 -31.3255
   -31.3226 -31.3188 -31.3148 -31.2967 -31.2887 -31.2788 -31.2721 -31.2716
   -31.2614 -31.2601 -31.2516 -31.2479 -31.2400 -31.2147 -31.2097 -31.0901
   -31.0750 -31.0494 -30.7067 -30.6187 -30.5963 -30.5237 -30.4372 -30.3260
   -18.9292 -18.6543 -15.9775 -15.7937 -15.6126 -15.4736 -15.3916 -15.1601
   -15.1016 -15.0631 -14.9819 -14.9592 -14.8588 -14.8398 -14.8382 -14.8200
   -14.8171 -14.7620 -14.7470 -14.7426 -14.6939 -14.6870 -14.6618 -14.6462
   -14.5937 -14.5151 -14.5063 -14.4602 -14.4148 -14.3683 -14.0230 -13.4137
   -12.8008 -12.6843  -8.8035  -7.2711  -6.7220  -4.3215  -3.7835  -3.3606
    -3.2842  -3.2489  -3.2241  -3.0881  -2.9711  -2.8509  -2.7555  -2.6685
    -2.5843  -2.4799  -2.4237  -2.3774  -2.3165  -2.2571  -2.2311  -2.1453
    -2.1255  -2.1061  -2.0847  -2.0579  -2.0285  -1.9910  -1.8690  -1.8581
    -1.7757  -1.7199  -1.6825  -1.6629  -1.6388  -1.6336  -1.6006  -1.5806
    -1.5722  -1.5604  -1.5598  -1.5244  -1.3848  -1.3618  -1.3322  -1.3102
    -1.1629  -1.0255  -0.9367  -0.9343  -0.8250  -0.7600  -0.7569  -0.7185
    -0.7027  -0.6008  -0.5150  -0.4790  -0.4539  -0.3756  -0.3180  -0.2626
    -0.2107  -0.1757  -0.1086  -0.0848  -0.0682  -0.0514   0.0180   0.0804
     0.1416   0.2269   0.2702   0.2947   0.3858   0.3997   0.4229   0.4876
     0.5197   0.5645   0.5999   0.6292   0.6525   0.6829   0.7082   0.7515
     0.7895   0.9152   0.9333   0.9620   0.9832   1.1575   1.2069   1.3100
     1.3400   1.4417   1.4841   1.6628   1.7240   1.8037   1.9159   2.2941
     2.3399   3.7898   3.9012   3.9353   3.9604   3.9997   4.0510   4.2574
     4.3305   4.3720   4.4298

[...]

          k = 0.0380-0.0419 0.0000 ( 17876 PWs)   bands (ev):

[...]

          k =-0.0760-0.0000 0.0000 ( 17886 PWs)   bands (ev):

[...]

          k =-0.0760-0.0839 0.0000 ( 17948 PWs)   bands (ev):

   -55.3026 -55.3020 -55.2003 -55.1825 -55.1755 -55.1439 -55.1300 -55.1232
   -55.1225 -55.1074 -55.0840 -55.0760 -54.9903 -54.8355 -54.2828 -54.2828
   -31.6192 -31.6188 -31.5969 -31.5965 -31.5650 -31.5333 -31.5023 -31.4896
   -31.4825 -31.4672 -31.4487 -31.4433 -31.4394 -31.4300 -31.4250 -31.4235
   -31.4220 -31.4217 -31.4163 -31.4006 -31.3900 -31.3755 -31.3647 -31.3625
   -31.3576 -31.3531 -31.3440 -31.3314 -31.3255 -31.3241 -31.3088 -31.2996
   -31.2964 -31.2956 -31.2939 -31.2912 -31.2607 -31.2334 -31.2194 -31.1463
   -31.0925 -31.0780 -30.6090 -30.6089 -30.5196 -30.5195 -30.4805 -30.4805
   -18.9204 -18.6587 -15.3549 -15.3199 -15.2816 -15.2545 -15.2385 -15.1176
   -15.1037 -15.0682 -15.0267 -15.0134 -14.9832 -14.9545 -14.9058 -14.8972
   -14.8630 -14.8434 -14.8043 -14.7778 -14.7585 -14.7541 -14.7373 -14.7157
   -14.6721 -14.6503 -14.6379 -14.6336 -14.5816 -14.4874 -14.2084 -13.4362
   -12.7861 -12.7861  -8.7992  -7.1963  -6.7227  -4.5280  -3.5731  -2.8459
    -2.6691  -2.6304  -2.5749  -2.4878  -2.4407  -2.3189  -2.3122  -2.2892
    -2.2442  -2.2313  -2.1907  -2.1502  -2.1445  -2.1165  -2.1043  -2.0594
    -2.0484  -2.0450  -2.0309  -1.9982  -1.9916  -1.9712  -1.9475  -1.9441
    -1.9334  -1.9173  -1.8842  -1.8771  -1.8495  -1.8307  -1.6814  -1.6047
    -1.5627  -1.4851  -1.4622  -1.4452  -1.4263  -1.3917  -1.3715  -1.3457
    -1.3174  -1.1718  -1.0328  -0.9962  -0.9719  -0.8728  -0.8578  -0.8387
    -0.7912  -0.7497  -0.7147  -0.6565  -0.6469  -0.6013  -0.5799  -0.4600
    -0.4227  -0.3243  -0.2877  -0.2857  -0.2689  -0.2533  -0.2364  -0.2107
    -0.1613  -0.0898  -0.0742  -0.0257  -0.0018   0.0008   0.0139   0.1599
     0.2307   0.2512   0.3533   0.3834   0.5582   0.7225   0.7340   0.8019
     0.8647   0.9201   0.9538   0.9937   1.0040   1.0696   1.0945   1.1991
     1.2094   1.2582   1.2633   1.3417   1.3546   2.0877   2.0894   2.1598
     2.1600   4.1538   4.1698   4.1977   4.2608   4.3042   4.3158   4.3531
     4.3568   4.4598   4.4751

     the Fermi energy is     3.8080 ev

!    total energy              =   -2973.93996062 Ry
     estimated scf accuracy    <       0.00000003 Ry
     smearing contrib. (-TS)   =      -0.02071959 Ry
     internal energy E=F+TS    =   -2973.91924103 Ry

     The total energy is F=E-TS. E is the sum of the following terms:
     one-electron contribution =  -24339.09426767 Ry
     hartree contribution      =   12267.25072082 Ry
     xc contribution           =    -494.12873615 Ry
     ewald contribution        =    9592.04934244 Ry
     electric field correction =       0.00369953 Ry

     convergence has been achieved in  70 iterations

     Forces acting on atoms (cartesian axes, Ry/au):

     atom    1 type  1   force =     0.00002351   -0.00009425    0.09507957
     atom    2 type  1   force =     0.00017880   -0.00069655   -0.17561563
     atom    3 type  2   force =     0.00008852   -0.00004819   -0.02294489
     atom    4 type  2   force =     0.00002110   -0.00143336    0.05288621
     atom    5 type  2   force =    -0.01001326   -0.00031241    0.00380852
     atom    6 type  2   force =     0.01113684    0.00020383    0.00206355
     atom    7 type  1   force =    -0.00021453    0.00178276   -0.00587527
     atom    8 type  1   force =     0.00080980    0.01008375    0.01604919
     atom    9 type  2   force =    -0.00015815    0.00087006    0.00033057
     atom   10 type  2   force =    -0.00227323    0.00217674   -0.01801713
     atom   11 type  2   force =     0.00023400   -0.00003350    0.00007569
     atom   12 type  2   force =    -0.00034116   -0.00018418    0.00055680
     atom   13 type  1   force =    -0.00002435    0.00125763    0.00017694
     atom   14 type  1   force =    -0.00012297    0.00010303   -0.00001399
     atom   15 type  2   force =     0.00012193    0.00023518    0.00000105
     atom   16 type  2   force =    -0.00037735    0.00044212   -0.00018321
     atom   17 type  2   force =    -0.00023378   -0.00034619    0.00012382
     atom   18 type  2   force =    -0.00001133   -0.00004855    0.00048798
     atom   19 type  1   force =    -0.00051101    0.00047943   -0.00026842
     atom   20 type  1   force =    -0.00025444   -0.00009307    0.00011135
     atom   21 type  2   force =     0.00009098   -0.00008545    0.10317363
     atom   22 type  2   force =     0.00038914    0.00005385    0.00064288
     atom   23 type  2   force =    -0.07161376   -0.00016789   -0.02756181
     atom   24 type  2   force =     0.07157211    0.00024631   -0.02761065
     atom   25 type  1   force =     0.00023756   -0.00039165    0.09518986
     atom   26 type  1   force =    -0.00003853   -0.00019709   -0.17578348
     atom   27 type  2   force =     0.00012192   -0.00012199   -0.02196980
     atom   28 type  2   force =     0.00001496   -0.00139598    0.05321631
     atom   29 type  2   force =    -0.01035747   -0.00022692    0.00365125
     atom   30 type  2   force =     0.01139534    0.00042503    0.00191882
     atom   31 type  1   force =    -0.00030344    0.00266596   -0.00007437
     atom   32 type  1   force =     0.00067367   -0.01114448    0.01692634
     atom   33 type  2   force =     0.00037493   -0.00027389    0.00000467
     atom   34 type  2   force =    -0.00033897    0.00144025   -0.01894798
     atom   35 type  2   force =    -0.00001531   -0.00035245   -0.00016885
     atom   36 type  2   force =     0.00001142   -0.00024606    0.00043273
     atom   37 type  1   force =    -0.00005450   -0.00122051    0.00033388
     atom   38 type  1   force =    -0.00039763    0.00088304    0.00005900
     atom   39 type  2   force =     0.00010181    0.00003756    0.00011088
     atom   40 type  2   force =    -0.00049127   -0.00060570   -0.00002475
     atom   41 type  2   force =     0.00029161   -0.00025720    0.00008818
     atom   42 type  2   force =    -0.00026059   -0.00040052   -0.00032064
     atom   43 type  1   force =    -0.00024211   -0.00040813    0.00040384
     atom   44 type  1   force =     0.00004419   -0.00037684    0.00015155
     atom   45 type  2   force =     0.00010035   -0.00010258    0.10319035
     atom   46 type  2   force =    -0.07159845   -0.00016824   -0.02755518
     atom   47 type  2   force =     0.07159928    0.00024470   -0.02756681
     atom   48 type  3   force =     0.00026286   -0.00056399    0.00030702
     atom   49 type  3   force =     0.00003607    0.00010592   -0.00017547
     atom   50 type  4   force =     0.00027394   -0.00052149    0.00040140
     atom   51 type  5   force =    -0.00013422   -0.00051479   -0.00022212
     atom   52 type  5   force =    -0.00002924   -0.00100633   -0.00081112
     atom   53 type  5   force =     0.00016920   -0.00040111   -0.00061143
     atom   54 type  2   force =    -0.00002015    0.01748954   -0.00136349
     atom   55 type  5   force =     0.00741191   -0.00799894    0.00036192
     atom   56 type  5   force =    -0.00735655   -0.00878621    0.00137074

     Total force =     0.365932     Total SCF correction =     0.000634
  @ DRIVER MODE: Message from server: STATUS
  @ DRIVER MODE: Message from server: GETFORCE
  @ DRIVER MODE: Returning v,forces,stress,ensemble

     Writing output data file ./calc.save/
  @ DRIVER MODE: Message from server: EXIT
  @ DRIVE MODE: Exiting

     General routines

     Parallel routines

   This run was terminated on:   5:30:45  23Sep2021

   JOB DONE.