     Program PWSCF v.6.7GPU starts on 12Oct2021 at 21:15:19

     R & G space division:  proc/nbgrp/npool/nimage =       8
     Reading input from /storage/home/hcoda1/3/ntian30/research/carbon/ACS_vib/ads_slab/N2H6/out_0030/pw.inp
Warning: card &CELL ignored
Warning: card   CELL_DYNAMICS='IPI', ignored
Warning: card / ignored

     Current dimensions of program PWSCF are:
     Max number of different atomic species (ntypx) = 10
     Max number of k-points (npk) =  40000
     Max angular momentum in pseudopotentials (lmaxx) =  3
     Presently no symmetry can be used with electric field

     Message from routine cell_base_init:
     DEPRECATED: use true lattice parameter, not A to a.u. conversion factor

     IMPORTANT: XC functional enforced from input :
     Exchange-correlation= BEEF-VDW
                           (   1   4  43  14   2   0   0)
     Any further DFT definition will be discarded
     Please, verify this is what you really want

  @ DRIVER MODE: Connecting to
 qe_1139763_3181315.sched-torque.pace.gatech.edui1vxwhqd_scratch
  using UNIX socket
  @ DRIVER MODE: Message from server: STATUS
  @ DRIVER MODE: Message from server: INIT
  @ DRIVER MODE: Receiving replica           0          -1
  @ DRIVER MODE: Receiving encoded integer          25
  @ DRIVER MODE:  SCF:  T  FORCE:  T  STRESS:  F  VC:  F  ENSEMBLE:  F
  @ DRIVER MODE:  SCF:  T  FORCE:  T  STRESS:  F  VC:  F  ENSEMBLE:  F

     Using Slab Decomposition

     bravais-lattice index     =            0
     lattice parameter (alat)  =       1.8897  a.u.
     unit-cell volume          =    6658.9804 (a.u.)^3
     number of atoms/cell      =           55
     number of atomic types    =            4
     number of electrons       =       394.00
     number of Kohn-Sham states=          207
     kinetic-energy cutoff     =      29.3995  Ry
     charge density cutoff     =     293.9946  Ry
     scf convergence threshold =      7.3E-08
     mixing beta               =       0.0500
     number of iterations used =            8  plain     mixing
     Exchange-correlation= BEEF-VDW
                           (   1   4  43  14   2   0   0)

     celldm(1)=   1.889726  celldm(2)=   0.000000  celldm(3)=   0.000000
     celldm(4)=   0.000000  celldm(5)=   0.000000  celldm(6)=   0.000000

     crystal axes: (cart. coord. in units of alat)
               a(1) = (   6.579727   0.000000   0.000000 )
               a(2) = (  -0.000775   5.961596   0.000000 )
               a(3) = (   0.000000   0.000000  25.155947 )

     reciprocal axes: (cart. coord. in units 2 pi/alat)
               b(1) = (  0.151982  0.000020  0.000000 )
               b(2) = (  0.000000  0.167740  0.000000 )
               b(3) = (  0.000000  0.000000  0.039752 )

     PseudoPot. # 1 for Ti read from file:
     /storage/coda1/p-amedford6/0/shared/rich_project_chbe-medford/medford-share/data/pseudos_module/espresso/nninc/pbe/van/Ti.UPF
     MD5 check sum: 8e4df49b7f0d34bbd5052bf3f5ea0213
     Pseudo is Ultrasoft, Zval = 12.0
     Generated by new atomic code, or converted to UPF format
     Using radial grid of  851 points,  6 beta functions with:
                l(1) =   0
                l(2) =   0
                l(3) =   1
                l(4) =   1
                l(5) =   2
                l(6) =   2
     Q(r) pseudized with  8 coefficients,  rinner =    1.000   1.000   1.000
                                                       1.000   1.000

     PseudoPot. # 2 for O  read from file:
     /storage/coda1/p-amedford6/0/shared/rich_project_chbe-medford/medford-share/data/pseudos_module/espresso/nninc/pbe/van/O.UPF
     MD5 check sum: 78c19812648e8988a0fe644b0f25305e
     Pseudo is Ultrasoft, Zval =  6.0
     Generated by new atomic code, or converted to UPF format
     Using radial grid of  737 points,  4 beta functions with:
                l(1) =   0
                l(2) =   0
                l(3) =   1
                l(4) =   1
     Q(r) pseudized with  8 coefficients,  rinner =    0.800   0.800   0.800

     PseudoPot. # 3 for N  read from file:
     /storage/coda1/p-amedford6/0/shared/rich_project_chbe-medford/medford-share/data/pseudos_module/espresso/nninc/pbe/van/N.UPF
     MD5 check sum: 90d10febe142ad51ac9d5be1deb811c4
     Pseudo is Ultrasoft, Zval =  5.0
     Generated by new atomic code, or converted to UPF format
     Using radial grid of  729 points,  4 beta functions with:
                l(1) =   0
                l(2) =   0
                l(3) =   1
                l(4) =   1
     Q(r) pseudized with  8 coefficients,  rinner =    0.800   0.800   0.800

     PseudoPot. # 4 for H  read from file:
     /storage/coda1/p-amedford6/0/shared/rich_project_chbe-medford/medford-share/data/pseudos_module/espresso/nninc/pbe/van/H.UPF
     MD5 check sum: b5ee9d7bfd3a09ee7748110bda690ff7
     Pseudo is Ultrasoft, Zval =  1.0
     Generated by new atomic code, or converted to UPF format
     Using radial grid of  615 points,  1 beta functions with:
                l(1) =   0
     Q(r) pseudized with  8 coefficients,  rinner =    0.800

     atomic species   valence    mass     pseudopotential
        Ti1           12.00    47.86700     Ti( 1.00)
        O1             6.00    15.99900     O ( 1.00)
        N1             5.00    14.00700     N ( 1.00)
        H1             1.00     1.00800     H ( 1.00)

     No symmetry found

   Cartesian axes

     site n.     atom                  positions (alat units)
         1           Ti1 tau(   1) = (   0.0004258   2.9801865   6.0000000  )
         2           Ti1 tau(   2) = (   3.2906075   1.4906267   6.0002472  )
         3           O1  tau(   3) = (   0.0006271   0.0005054   7.9858123  )
         4           O1  tau(   4) = (   3.2906025   0.0005020   7.3038282  )
         5           O1  tau(   5) = (   4.5942328   1.4918067   9.2879030  )
         6           O1  tau(   6) = (   1.9868534   1.4903216   9.2879459  )
         7           Ti1 tau(   7) = (   3.2905188   2.9817269   9.1608671  )
         8           Ti1 tau(   8) = (   0.0008727   1.4903491   9.2579811  )
         9           O1  tau(   9) = (   3.2897677   5.9391746  11.3820438  )
        10           O1  tau(  10) = (  -0.0000005   5.9544960  10.6146985  )
        11           O1  tau(  11) = (   1.2884133   1.4789655  12.6516217  )
        12           O1  tau(  12) = (   5.2921206   1.4788385  12.6515509  )
        13           Ti1 tau(  13) = (   0.0005720   2.9629092  12.4975245  )
        14           Ti1 tau(  14) = (   3.2903801   1.4745319  12.5205501  )
        15           O1  tau(  15) = (   0.0004407   0.0388239  14.7059933  )
        16           O1  tau(  16) = (   3.2897445   5.9465346  14.0037610  )
        17           O1  tau(  17) = (   4.5472543   1.4569283  16.2215039  )
        18           O1  tau(  18) = (   2.0329396   1.4568822  16.2213506  )
        19           Ti1 tau(  19) = (   3.2899346   2.9358424  15.7577366  )
        20           Ti1 tau(  20) = (   0.0004932   1.4309995  16.0137732  )
        21           O1  tau(  21) = (   3.2904802   0.0005063   4.7018136  )
        22           O1  tau(  22) = (  -0.0003511   5.7889056  17.2622344  )
        23           O1  tau(  23) = (   1.3043587   1.4918075   6.0039043  )
        24           O1  tau(  24) = (   5.2767064   1.4903225   6.0039473  )
        25           Ti1 tau(  25) = (   0.0000382   5.9609847   6.0000000  )
        26           Ti1 tau(  26) = (   3.2902200   4.4714249   6.0002472  )
        27           O1  tau(  27) = (   0.0002396   2.9813036   7.9858123  )
        28           O1  tau(  28) = (   3.2902150   2.9813002   7.3038282  )
        29           O1  tau(  29) = (   4.5938453   4.4726049   9.2879030  )
        30           O1  tau(  30) = (   1.9864658   4.4711199   9.2879459  )
        31           Ti1 tau(  31) = (   3.2908958   0.0009406   9.1591437  )
        32           Ti1 tau(  32) = (   0.0004876   4.4725358   9.2579169  )
        33           O1  tau(  33) = (   3.2901541   2.9707129  11.3740276  )
        34           O1  tau(  34) = (   0.0003862   2.9798045  10.6274311  )
        35           O1  tau(  35) = (   1.2860740   4.4511954  12.6821393  )
        36           O1  tau(  36) = (   5.2936768   4.4510845  12.6820400  )
        37           Ti1 tau(  37) = (   0.0001324   5.9497034  12.4914426  )
        38           Ti1 tau(  38) = (   3.2900283   4.4525324  12.5305491  )
        39           O1  tau(  39) = (   0.0000299   2.9046373  14.9484161  )
        40           O1  tau(  40) = (   3.2901113   2.9423191  13.9685580  )
        41           O1  tau(  41) = (   4.5465916   4.4073028  16.1601725  )
        42           O1  tau(  42) = (   2.0329218   4.4072560  16.1600144  )
        43           Ti1 tau(  43) = (   3.2897320   5.9176933  15.7983882  )
        44           Ti1 tau(  44) = (   0.0000796   4.6311109  15.9036278  )
        45           O1  tau(  45) = (   3.2900926   2.9813045   4.7018136  )
        46           O1  tau(  46) = (   1.3039711   4.4726057   6.0039043  )
        47           O1  tau(  47) = (   5.2763189   4.4711207   6.0039473  )
        48           N1  tau(  48) = (   6.5791966   2.5420708  18.0661808  )
        49           H1  tau(  49) = (   6.5785613   1.6509345  18.5577087  )
        50           H1  tau(  50) = (   0.8131443   3.0604954  18.3807411  )
        51           H1  tau(  51) = (   5.7641953   3.0602838  18.3787844  )
        52           N1  tau(  52) = (  -0.0000615   4.8677125  20.5188556  )
        53           H1  tau(  53) = (   6.5774456   5.1124690  21.4935560  )
        54           H1  tau(  54) = (   0.8078797   5.3121143  20.0844266  )
        55           H1  tau(  55) = (   5.7710899   5.3082688  20.0816402  )

     number of k points=    10  Fermi-Dirac smearing, width (Ry)=  0.0073
                       cart. coord. in units 2pi/alat
        k(    1) = (   0.0000000   0.0000000   0.0000000), wk =   0.1250000
        k(    2) = (   0.0000000   0.0419351   0.0000000), wk =   0.2500000
        k(    3) = (   0.0000000  -0.0838702   0.0000000), wk =   0.1250000
        k(    4) = (   0.0379955   0.0000049   0.0000000), wk =   0.2500000
        k(    5) = (   0.0379955   0.0419400   0.0000000), wk =   0.2500000
        k(    6) = (   0.0379955  -0.0838652   0.0000000), wk =   0.2500000
        k(    7) = (   0.0379955  -0.0419301   0.0000000), wk =   0.2500000
        k(    8) = (  -0.0759910  -0.0000099   0.0000000), wk =   0.1250000
        k(    9) = (  -0.0759910   0.0419252   0.0000000), wk =   0.2500000
        k(   10) = (  -0.0759910  -0.0838800   0.0000000), wk =   0.1250000

     Initial potential from superposition of free atoms

     starting charge  377.99918, renormalised to  394.00000

     negative rho (up, down):  1.301E-02 0.000E+00

     %%%%%%%%%%%%%%%%%%%%%%%%%%%%%%%%%%%%%%%%%%%%%%%%%%%%%%%%%%%%%%%%%%%%%%%%
     %                                                                      %
     % You are using vdW-DF, which was implemented by the Thonhauser group. %
     % Please cite the following two papers that made this development      %
     % possible and the two reviews that describe the various versions:     %
     %                                                                      %
     %   T. Thonhauser et al., PRL 115, 136402 (2015).                      %
     %   T. Thonhauser et al., PRB 76, 125112 (2007).                       %
     %   K. Berland et al., Rep. Prog. Phys. 78, 066501 (2015).             %
     %   D.C. Langreth et al., J. Phys.: Condens. Matter 21, 084203 (2009). %
     %                                                                      %
     %                                                                      %
     % If you are calculating the stress with vdW-DF, please also cite:     %
     %                                                                      %
     %   R. Sabatini et al., J. Phys.: Condens. Matter 24, 424209 (2012).   %
     %                                                                      %
     %%%%%%%%%%%%%%%%%%%%%%%%%%%%%%%%%%%%%%%%%%%%%%%%%%%%%%%%%%%%%%%%%%%%%%%%

     Adding external electric field

     Computed dipole along edir(3) :
        Dipole               -9.7216 Ry au,        -24.7098 Debye
        Dipole field         -0.0183 Ry au,

        Potential amp.        1.7006 Ry
        Total length         46.3494 bohr

     Starting wfcs are  298 atomic wfcs
  @ DRIVER MODE: Message from server: STATUS
  @ DRIVER MODE: Message from server: POSDATA
  @ DRIVER MODE: Reading and sharing cell
  @ DRIVER MODE: Reading and sharing positions
  @ DRIVER MODE: Received positions

     Self-consistent Calculation

     iteration #  1     ecut=    29.40 Ry     beta= 0.05
     Davidson diagonalization with overlap
     c_bands:  1 eigenvalues not converged
     c_bands:  1 eigenvalues not converged
     c_bands:  1 eigenvalues not converged
     c_bands:  1 eigenvalues not converged
     ethr =  1.00E-05,  avg # of iterations = 18.0

[...]

     total energy              =   -2597.47036710 Ry
     estimated scf accuracy    <    3727.61862184 Ry

     iteration #  2     ecut=    29.40 Ry     beta= 0.05
     Davidson diagonalization with overlap
     ethr =  1.00E-02,  avg # of iterations = 23.2

[...]

     iteration # 92     ecut=    29.40 Ry     beta= 0.05
     Davidson diagonalization with overlap
     c_bands:  1 eigenvalues not converged
     ethr =  2.49E-11,  avg # of iterations = 15.4

[...]

     total energy              =   -2931.48012439 Ry
     estimated scf accuracy    <       0.00000008 Ry

     iteration # 93     ecut=    29.40 Ry     beta= 0.05
     Davidson diagonalization with overlap
     ethr =  1.91E-11,  avg # of iterations =  7.7

     negative rho (up, down):  1.427E-02 0.000E+00

     Adding external electric field

     Computed dipole along edir(3) :
        Dipole                1.3558 Ry au,          3.4460 Debye
        Dipole field          0.0026 Ry au,

        Potential amp.       -0.2372 Ry
        Total length         46.3494 bohr

     End of self-consistent calculation

          k = 0.0000 0.0000 0.0000 ( 18029 PWs)   bands (ev):

   -55.2855 -55.2490 -55.2374 -55.2070 -55.2032 -55.1705 -55.1569 -55.1225
   -55.1155 -55.0864 -55.0813 -55.0641 -55.0300 -54.9546 -54.3280 -54.2939
   -31.8535 -31.7403 -31.7366 -31.6431 -31.6031 -31.5922 -31.5894 -31.5758
   -31.5296 -31.5275 -31.4922 -31.4920 -31.4824 -31.4776 -31.4581 -31.4435
   -31.4384 -31.4256 -31.4213 -31.3948 -31.3890 -31.3798 -31.3695 -31.3573
   -31.3544 -31.3412 -31.3362 -31.3232 -31.2933 -31.2880 -31.2714 -31.2671
   -31.2611 -31.2580 -31.2546 -31.2474 -31.2140 -31.2092 -31.1963 -31.1782
   -31.1576 -31.1568 -30.7400 -30.6382 -30.6166 -30.5560 -30.4696 -30.3587
   -16.1170 -15.8798 -15.7498 -15.5915 -15.5014 -15.4611 -15.3617 -15.3364
   -15.2278 -15.1522 -15.0192 -14.9852 -14.9435 -14.9363 -14.9286 -14.9091
   -14.9030 -14.8323 -14.8063 -14.8023 -14.7939 -14.7718 -14.7703 -14.7510
   -14.7217 -14.6685 -14.6483 -14.5191 -14.4379 -14.3799 -14.1305 -12.8295
   -12.7103  -5.6528  -5.5123  -5.0200  -4.7412  -3.4479  -3.2941  -3.2592
    -3.2086  -3.1973  -3.0440  -2.8832  -2.7341  -2.7147  -2.5651  -2.5360
    -2.4840  -2.4620  -2.3108  -2.2853  -2.2408  -2.2146  -2.1654  -2.1551
    -2.1475  -2.1359  -2.0570  -2.0457  -2.0303  -1.8943  -1.8746  -1.7633
    -1.7230  -1.6670  -1.6534  -1.6485  -1.6147  -1.5967  -1.5561  -1.5453
    -1.5286  -1.5033  -1.4932  -1.3289  -1.3023  -1.2039  -1.1430  -1.0522
    -1.0362  -0.8920  -0.8564  -0.7677  -0.7487  -0.7315  -0.7172  -0.6843
    -0.6359  -0.5281  -0.4385  -0.4171  -0.3564  -0.3320  -0.2934  -0.2056
    -0.1019  -0.0733  -0.0406  -0.0381   0.0784   0.1030   0.1482   0.2145
     0.2345   0.2485   0.2597   0.3488   0.3631   0.4613   0.4850   0.4921
     0.5407   0.6297   0.6339   0.6482   0.6581   0.6845   0.7552   0.7617
     0.8614   0.8845   1.0009   1.2119   1.2832   1.3096   1.5881   1.6486
     1.6972   1.8599   2.2803   2.3327   3.8128   3.8794   3.9125   3.9455
     3.9819   4.0227   4.3101   4.3180   4.3306   4.3350   4.3715

[...]

          k = 0.0380-0.0419 0.0000 ( 17876 PWs)   bands (ev):

[...]

          k =-0.0760-0.0000 0.0000 ( 17886 PWs)   bands (ev):

[...]

          k =-0.0760-0.0839 0.0000 ( 17948 PWs)   bands (ev):

   -55.2699 -55.2644 -55.2203 -55.2202 -55.2054 -55.1670 -55.1405 -55.1388
   -55.0997 -55.0968 -55.0899 -55.0490 -55.0452 -54.9559 -54.3109 -54.3109
   -31.6587 -31.6546 -31.6545 -31.5742 -31.5515 -31.5514 -31.5447 -31.5130
   -31.5128 -31.4866 -31.4864 -31.4828 -31.4791 -31.4605 -31.4401 -31.4207
   -31.4158 -31.4142 -31.4140 -31.4080 -31.4067 -31.4039 -31.3649 -31.3639
   -31.3606 -31.3573 -31.3546 -31.3538 -31.3517 -31.3388 -31.3386 -31.3339
   -31.3313 -31.2971 -31.2950 -31.2792 -31.2763 -31.2715 -31.2345 -31.2332
   -31.2295 -31.1614 -30.6292 -30.6291 -30.5527 -30.5525 -30.5129 -30.5128
   -15.6368 -15.5240 -15.5157 -15.4782 -15.3252 -15.3042 -15.2667 -15.2519
   -15.1335 -15.0975 -15.0782 -15.0623 -15.0299 -15.0258 -15.0187 -14.9820
   -14.8983 -14.8785 -14.8730 -14.8608 -14.8102 -14.7968 -14.7914 -14.7848
   -14.7839 -14.7487 -14.7452 -14.7033 -14.7001 -14.6948 -14.3796 -12.8114
   -12.8113  -5.6350  -5.5156  -4.9834  -4.7498  -2.7970  -2.7407  -2.7406
    -2.5501  -2.4790  -2.4618  -2.4449  -2.3620  -2.3224  -2.2929  -2.2695
    -2.2386  -2.1965  -2.1928  -2.1717  -2.1630  -2.1472  -2.1017  -2.0834
    -2.0578  -2.0041  -1.9795  -1.9713  -1.9591  -1.9504  -1.9458  -1.9224
    -1.9201  -1.8940  -1.8829  -1.8274  -1.6757  -1.6602  -1.5818  -1.5129
    -1.5085  -1.5068  -1.4235  -1.4033  -1.3487  -1.3395  -1.3335  -1.0903
    -1.0682  -1.0681  -1.0629  -1.0306  -0.9164  -0.9071  -0.8345  -0.8051
    -0.7865  -0.6788  -0.6690  -0.6091  -0.6052  -0.4980  -0.4962  -0.4377
    -0.3094  -0.3029  -0.2896  -0.2649  -0.2631  -0.2214  -0.2173  -0.1100
    -0.0739  -0.0231  -0.0116   0.0206   0.1851   0.2258   0.2490   0.2681
     0.4015   0.4227   0.5562   0.5638   0.6187   0.7284   0.7584   0.7972
     0.8253   0.9744   0.9852   1.0067   1.0982   1.1122   1.1500   1.1565
     2.0479   2.0494   2.1509   2.1512   3.9734   4.0551   4.0805   4.1200
     4.2252   4.3232   4.3384   4.3393   4.3731   4.3761   4.4726

     the Fermi energy is     3.8764 ev

!    total energy              =   -2931.48012747 Ry
     estimated scf accuracy    <       0.00000004 Ry
     smearing contrib. (-TS)   =      -0.03684377 Ry
     internal energy E=F+TS    =   -2931.44328369 Ry

     The total energy is F=E-TS. E is the sum of the following terms:
     one-electron contribution =  -23479.42191918 Ry
     hartree contribution      =   11830.37005030 Ry
     xc contribution           =    -484.16907943 Ry
     ewald contribution        =    9201.77419587 Ry
     electric field correction =       0.00346875 Ry

     convergence has been achieved in  93 iterations

     Forces acting on atoms (cartesian axes, Ry/au):

     atom    1 type  1   force =     0.00008839   -0.00010139    0.09070928
     atom    2 type  1   force =    -0.00005982    0.00054371   -0.18274888
     atom    3 type  2   force =     0.00005512   -0.00004411   -0.02345796
     atom    4 type  2   force =     0.00001961   -0.00005949    0.05278352
     atom    5 type  2   force =    -0.01301141   -0.00096506    0.00605410
     atom    6 type  2   force =     0.01295761   -0.00047662    0.00604180
     atom    7 type  1   force =     0.00000128    0.00066374   -0.00329024
     atom    8 type  1   force =     0.00001609   -0.00015677    0.00139991
     atom    9 type  2   force =    -0.00003062   -0.00016112   -0.00049653
     atom   10 type  2   force =     0.00001939   -0.00007111   -0.00021631
     atom   11 type  2   force =     0.00016793    0.00017391    0.00016889
     atom   12 type  2   force =    -0.00008379    0.00016945    0.00014610
     atom   13 type  1   force =    -0.00019833   -0.00020613    0.00002544
     atom   14 type  1   force =     0.00014476    0.00045108   -0.00095060
     atom   15 type  2   force =     0.00002395   -0.00058271    0.00007887
     atom   16 type  2   force =    -0.00002874    0.00000870    0.00043345
     atom   17 type  2   force =     0.00044197    0.00001682    0.00047731
     atom   18 type  2   force =    -0.00047446    0.00001120    0.00047684
     atom   19 type  1   force =     0.00006230    0.00002075    0.00034001
     atom   20 type  1   force =    -0.00003618   -0.00081459    0.00027722
     atom   21 type  2   force =     0.00005842    0.00012576    0.10489361
     atom   22 type  2   force =     0.00000960    0.00013992    0.00119878
     atom   23 type  2   force =    -0.06828015   -0.00021053   -0.02628694
     atom   24 type  2   force =     0.06819211    0.00021308   -0.02633078
     atom   25 type  1   force =     0.00009813    0.00003347    0.09035902
     atom   26 type  1   force =    -0.00005584   -0.00043252   -0.18291522
     atom   27 type  2   force =     0.00004990   -0.00091590   -0.02256340
     atom   28 type  2   force =     0.00001951   -0.00005793    0.05256156
     atom   29 type  2   force =    -0.01329651   -0.00073190    0.00527893
     atom   30 type  2   force =     0.01323447   -0.00023890    0.00526476
     atom   31 type  1   force =     0.00000434   -0.00071203   -0.00308483
     atom   32 type  1   force =     0.00001407   -0.00005314    0.00152706
     atom   33 type  2   force =    -0.00003083   -0.00015730    0.00017304
     atom   34 type  2   force =     0.00002059    0.00008655   -0.00046926
     atom   35 type  2   force =     0.00013134   -0.00013774    0.00024141
     atom   36 type  2   force =    -0.00005321   -0.00014958    0.00021648
     atom   37 type  1   force =    -0.00019461    0.00004896    0.00093233
     atom   38 type  1   force =     0.00014230   -0.00029348   -0.00093463
     atom   39 type  2   force =     0.00001228    0.00027377   -0.00017245
     atom   40 type  2   force =    -0.00003130   -0.00001432    0.00106872
     atom   41 type  2   force =     0.00058923   -0.00017629    0.00024036
     atom   42 type  2   force =    -0.00063321   -0.00017060    0.00025119
     atom   43 type  1   force =     0.00007093    0.00009213    0.00070532
     atom   44 type  1   force =    -0.00003831    0.00097785   -0.00107631
     atom   45 type  2   force =     0.00005679    0.00014531    0.10486627
     atom   46 type  2   force =    -0.06827677   -0.00009447   -0.02630107
     atom   47 type  2   force =     0.06818191    0.00034448   -0.02634267
     atom   48 type  3   force =    -0.00049582    0.00007534   -0.00022571
     atom   49 type  4   force =     0.00002121   -0.00004794    0.00082069
     atom   50 type  4   force =     0.00100766    0.00098000    0.00005651
     atom   51 type  4   force =    -0.00055310    0.00070290   -0.00014203
     atom   52 type  3   force =    -0.00001294    0.00266803   -0.02384977
     atom   53 type  4   force =    -0.00005011    0.00599817    0.01382194
     atom   54 type  4   force =    -0.00422760   -0.00337353    0.00396499
     atom   55 type  4   force =     0.00424047   -0.00335788    0.00399986

     Total force =     0.367430     Total SCF correction =     0.000540
  @ DRIVER MODE: Message from server: STATUS
  @ DRIVER MODE: Message from server: GETFORCE
  @ DRIVER MODE: Returning v,forces,stress,ensemble

     Writing output data file ./calc.save/
  @ DRIVER MODE: Message from server: EXIT
  @ DRIVE MODE: Exiting

     General routines

     Parallel routines

   This run was terminated on:  21:56:15  12Oct2021

   JOB DONE.