     Program PWSCF v.6.7GPU starts on 10Sep2021 at  3:40:33

     R & G space division:  proc/nbgrp/npool/nimage =      10
     Reading input from /storage/home/hcoda1/3/ntian30/research/carbon/CxH_vib/CH3_calc/ads_slab/CH3N2OH_l/out_0021/pw.inp
Warning: card &CELL ignored
Warning: card   CELL_DYNAMICS='IPI', ignored
Warning: card / ignored

     Current dimensions of program PWSCF are:
     Max number of different atomic species (ntypx) = 10
     Max number of k-points (npk) =  40000
     Max angular momentum in pseudopotentials (lmaxx) =  3
     Presently no symmetry can be used with electric field

     Message from routine cell_base_init:
     DEPRECATED: use true lattice parameter, not A to a.u. conversion factor

     IMPORTANT: XC functional enforced from input :
     Exchange-correlation= BEEF-VDW
                           (   1   4  43  14   2   0   0)
     Any further DFT definition will be discarded
     Please, verify this is what you really want

  @ DRIVER MODE: Connecting to
 qe_1139763_2779712.sched-torque.pace.gatech.educ2icaa3i_scratch
  using UNIX socket
  @ DRIVER MODE: Message from server: STATUS
  @ DRIVER MODE: Message from server: INIT
  @ DRIVER MODE: Receiving replica           0          -1
  @ DRIVER MODE: Receiving encoded integer          25
  @ DRIVER MODE:  SCF:  T  FORCE:  T  STRESS:  F  VC:  F  ENSEMBLE:  F
  @ DRIVER MODE:  SCF:  T  FORCE:  T  STRESS:  F  VC:  F  ENSEMBLE:  F

     Using Slab Decomposition

     bravais-lattice index     =            0
     lattice parameter (alat)  =       1.8897  a.u.
     unit-cell volume          =    6658.9804 (a.u.)^3
     number of atoms/cell      =           55
     number of atomic types    =            5
     number of electrons       =       402.00
     number of Kohn-Sham states=          211
     kinetic-energy cutoff     =      29.3995  Ry
     charge density cutoff     =     293.9946  Ry
     scf convergence threshold =      7.3E-08
     mixing beta               =       0.0500
     number of iterations used =            8  plain     mixing
     Exchange-correlation= BEEF-VDW
                           (   1   4  43  14   2   0   0)

     celldm(1)=   1.889726  celldm(2)=   0.000000  celldm(3)=   0.000000
     celldm(4)=   0.000000  celldm(5)=   0.000000  celldm(6)=   0.000000

     crystal axes: (cart. coord. in units of alat)
               a(1) = (   6.579727   0.000000   0.000000 )
               a(2) = (  -0.000775   5.961596   0.000000 )
               a(3) = (   0.000000   0.000000  25.155947 )

     reciprocal axes: (cart. coord. in units 2 pi/alat)
               b(1) = (  0.151982  0.000020  0.000000 )
               b(2) = (  0.000000  0.167740  0.000000 )
               b(3) = (  0.000000  0.000000  0.039752 )

     PseudoPot. # 1 for Ti read from file:
     /storage/coda1/p-amedford6/0/shared/rich_project_chbe-medford/medford-share/data/pseudos_module/espresso/nninc/pbe/van/Ti.UPF
     MD5 check sum: 8e4df49b7f0d34bbd5052bf3f5ea0213
     Pseudo is Ultrasoft, Zval = 12.0
     Generated by new atomic code, or converted to UPF format
     Using radial grid of  851 points,  6 beta functions with:
                l(1) =   0
                l(2) =   0
                l(3) =   1
                l(4) =   1
                l(5) =   2
                l(6) =   2
     Q(r) pseudized with  8 coefficients,  rinner =    1.000   1.000   1.000
                                                       1.000   1.000

     PseudoPot. # 2 for O  read from file:
     /storage/coda1/p-amedford6/0/shared/rich_project_chbe-medford/medford-share/data/pseudos_module/espresso/nninc/pbe/van/O.UPF
     MD5 check sum: 78c19812648e8988a0fe644b0f25305e
     Pseudo is Ultrasoft, Zval =  6.0
     Generated by new atomic code, or converted to UPF format
     Using radial grid of  737 points,  4 beta functions with:
                l(1) =   0
                l(2) =   0
                l(3) =   1
                l(4) =   1
     Q(r) pseudized with  8 coefficients,  rinner =    0.800   0.800   0.800

     PseudoPot. # 3 for N  read from file:
     /storage/coda1/p-amedford6/0/shared/rich_project_chbe-medford/medford-share/data/pseudos_module/espresso/nninc/pbe/van/N.UPF
     MD5 check sum: 90d10febe142ad51ac9d5be1deb811c4
     Pseudo is Ultrasoft, Zval =  5.0
     Generated by new atomic code, or converted to UPF format
     Using radial grid of  729 points,  4 beta functions with:
                l(1) =   0
                l(2) =   0
                l(3) =   1
                l(4) =   1
     Q(r) pseudized with  8 coefficients,  rinner =    0.800   0.800   0.800

     PseudoPot. # 4 for C  read from file:
     /storage/coda1/p-amedford6/0/shared/rich_project_chbe-medford/medford-share/data/pseudos_module/espresso/nninc/pbe/van/C.UPF
     MD5 check sum: 1a69bf6b8db32088f5b2163dbdb77a27
     Pseudo is Ultrasoft, Zval =  4.0
     Generated by new atomic code, or converted to UPF format
     Using radial grid of  721 points,  4 beta functions with:
                l(1) =   0
                l(2) =   0
                l(3) =   1
                l(4) =   1
     Q(r) pseudized with  8 coefficients,  rinner =    0.800   0.800   0.800

     PseudoPot. # 5 for H  read from file:
     /storage/coda1/p-amedford6/0/shared/rich_project_chbe-medford/medford-share/data/pseudos_module/espresso/nninc/pbe/van/H.UPF
     MD5 check sum: b5ee9d7bfd3a09ee7748110bda690ff7
     Pseudo is Ultrasoft, Zval =  1.0
     Generated by new atomic code, or converted to UPF format
     Using radial grid of  615 points,  1 beta functions with:
                l(1) =   0
     Q(r) pseudized with  8 coefficients,  rinner =    0.800

     atomic species   valence    mass     pseudopotential
        Ti1           12.00    47.86700     Ti( 1.00)
        O1             6.00    15.99900     O ( 1.00)
        N1             5.00    14.00700     N ( 1.00)
        C1             4.00    12.01100     C ( 1.00)
        H1             1.00     1.00800     H ( 1.00)

     No symmetry found

   Cartesian axes

     site n.     atom                  positions (alat units)
         1           Ti1 tau(   1) = (   0.0004258   2.9801865   6.0000000  )
         2           Ti1 tau(   2) = (   3.2906075   1.4906267   6.0002472  )
         3           O1  tau(   3) = (   0.0006271   0.0005054   7.9858123  )
         4           O1  tau(   4) = (   3.2906025   0.0005020   7.3038282  )
         5           O1  tau(   5) = (   4.5942328   1.4918067   9.2879030  )
         6           O1  tau(   6) = (   1.9868534   1.4903216   9.2879459  )
         7           Ti1 tau(   7) = (   3.2907910   2.8959150   9.1758416  )
         8           Ti1 tau(   8) = (   0.0015273   1.4827037   9.2680791  )
         9           O1  tau(   9) = (   3.3074573   5.9346435  11.2963613  )
        10           O1  tau(  10) = (   0.0116148   5.9584955  10.6183126  )
        11           O1  tau(  11) = (   1.3055178   1.4819292  12.6272398  )
        12           O1  tau(  12) = (   5.3158762   1.4804127  12.6185516  )
        13           Ti1 tau(  13) = (   0.0186029   2.8424156  12.6464711  )
        14           Ti1 tau(  14) = (   3.3167612   1.2924093  12.6669032  )
        15           O1  tau(  15) = (   0.0012442   5.9356390  14.6370070  )
        16           O1  tau(  16) = (   3.3127944   0.0275565  13.9018093  )
        17           O1  tau(  17) = (   4.5765900   1.5157235  16.0894388  )
        18           O1  tau(  18) = (   2.0422450   1.5317946  16.0210879  )
        19           Ti1 tau(  19) = (   3.3088329   2.9810726  15.6636066  )
        20           Ti1 tau(  20) = (   0.0236821   1.4688588  15.8133175  )
        21           O1  tau(  21) = (   3.2904802   0.0005063   4.7018136  )
        22           O1  tau(  22) = (   0.0676014   5.9495730  17.1734943  )
        23           O1  tau(  23) = (   1.3043587   1.4918075   6.0039043  )
        24           O1  tau(  24) = (   5.2767064   1.4903225   6.0039473  )
        25           Ti1 tau(  25) = (   0.0000382   5.9609847   6.0000000  )
        26           Ti1 tau(  26) = (   3.2902200   4.4714249   6.0002472  )
        27           O1  tau(  27) = (   0.0002396   2.9813036   7.9858123  )
        28           O1  tau(  28) = (   3.2902150   2.9813002   7.3038282  )
        29           O1  tau(  29) = (   4.5938453   4.4726049   9.2879030  )
        30           O1  tau(  30) = (   1.9864658   4.4711199   9.2879459  )
        31           Ti1 tau(  31) = (   3.2891106   5.8743827   9.1763621  )
        32           Ti1 tau(  32) = (   0.0006254   4.4649316   9.2693709  )
        33           O1  tau(  33) = (   3.3041982   3.0170362  11.2630756  )
        34           O1  tau(  34) = (   0.0092240   2.9805883  10.6323155  )
        35           O1  tau(  35) = (   1.3098214   4.4601496  12.6289764  )
        36           O1  tau(  36) = (   5.3139316   4.4642116  12.6209765  )
        37           Ti1 tau(  37) = (   0.0286784   5.8202107  12.5681754  )
        38           Ti1 tau(  38) = (   3.3194384   4.3879401  12.4232525  )
        39           O1  tau(  39) = (   6.5763552   2.9401740  14.6754030  )
        40           O1  tau(  40) = (   3.3328261   2.9762691  13.8808942  )
        41           O1  tau(  41) = (   4.5658580   4.4380642  16.1332302  )
        42           O1  tau(  42) = (   2.0359873   4.4031365  16.0422930  )
        43           Ti1 tau(  43) = (   3.3255947   5.9578944  16.3175027  )
        44           Ti1 tau(  44) = (   0.0374668   4.6230282  16.0307208  )
        45           O1  tau(  45) = (   3.2900926   2.9813045   4.7018136  )
        46           O1  tau(  46) = (   1.3039711   4.4726057   6.0039043  )
        47           O1  tau(  47) = (   5.2763189   4.4711207   6.0039473  )
        48           N1  tau(  48) = (   0.1245995   2.6662279  18.6673576  )
        49           N1  tau(  49) = (   0.0476076   2.8693738  17.4835824  )
        50           C1  tau(  50) = (   0.1295945   3.7926219  19.6405614  )
        51           H1  tau(  51) = (   6.3015398   4.6965717  19.2118634  )
        52           H1  tau(  52) = (   6.1525190   3.4626129  20.5140504  )
        53           H1  tau(  53) = (   1.1733748   3.9370966  19.9287387  )
        54           O1  tau(  54) = (   3.0981659   0.0197753  18.1302257  )
        55           H1  tau(  55) = (   2.1972620   0.2293568  18.4309947  )

     number of k points=    10  Fermi-Dirac smearing, width (Ry)=  0.0073
                       cart. coord. in units 2pi/alat
        k(    1) = (   0.0000000   0.0000000   0.0000000), wk =   0.1250000
        k(    2) = (   0.0000000   0.0419351   0.0000000), wk =   0.2500000
        k(    3) = (   0.0000000  -0.0838702   0.0000000), wk =   0.1250000
        k(    4) = (   0.0379955   0.0000049   0.0000000), wk =   0.2500000
        k(    5) = (   0.0379955   0.0419400   0.0000000), wk =   0.2500000
        k(    6) = (   0.0379955  -0.0838652   0.0000000), wk =   0.2500000
        k(    7) = (   0.0379955  -0.0419301   0.0000000), wk =   0.2500000
        k(    8) = (  -0.0759910  -0.0000099   0.0000000), wk =   0.1250000
        k(    9) = (  -0.0759910   0.0419252   0.0000000), wk =   0.2500000
        k(   10) = (  -0.0759910  -0.0838800   0.0000000), wk =   0.1250000

     Initial potential from superposition of free atoms

     starting charge  385.99915, renormalised to  402.00000

     negative rho (up, down):  1.432E-02 0.000E+00

     %%%%%%%%%%%%%%%%%%%%%%%%%%%%%%%%%%%%%%%%%%%%%%%%%%%%%%%%%%%%%%%%%%%%%%%%
     %                                                                      %
     % You are using vdW-DF, which was implemented by the Thonhauser group. %
     % Please cite the following two papers that made this development      %
     % possible and the two reviews that describe the various versions:     %
     %                                                                      %
     %   T. Thonhauser et al., PRL 115, 136402 (2015).                      %
     %   T. Thonhauser et al., PRB 76, 125112 (2007).                       %
     %   K. Berland et al., Rep. Prog. Phys. 78, 066501 (2015).             %
     %   D.C. Langreth et al., J. Phys.: Condens. Matter 21, 084203 (2009). %
     %                                                                      %
     %                                                                      %
     % If you are calculating the stress with vdW-DF, please also cite:     %
     %                                                                      %
     %   R. Sabatini et al., J. Phys.: Condens. Matter 24, 424209 (2012).   %
     %                                                                      %
     %%%%%%%%%%%%%%%%%%%%%%%%%%%%%%%%%%%%%%%%%%%%%%%%%%%%%%%%%%%%%%%%%%%%%%%%

     Adding external electric field

     Computed dipole along edir(3) :
        Dipole              -11.9923 Ry au,        -30.4815 Debye
        Dipole field         -0.0226 Ry au,

        Potential amp.        2.0979 Ry
        Total length         46.3494 bohr

     Starting wfcs are  304 atomic wfcs
  @ DRIVER MODE: Message from server: STATUS
  @ DRIVER MODE: Message from server: POSDATA
  @ DRIVER MODE: Reading and sharing cell
  @ DRIVER MODE: Reading and sharing positions
  @ DRIVER MODE: Received positions

     Self-consistent Calculation

     iteration #  1     ecut=    29.40 Ry     beta= 0.05
     Davidson diagonalization with overlap
     c_bands:  3 eigenvalues not converged
     c_bands:  5 eigenvalues not converged
     c_bands:  5 eigenvalues not converged
     c_bands:  4 eigenvalues not converged
     c_bands:  1 eigenvalues not converged
     c_bands:  4 eigenvalues not converged
     c_bands:  2 eigenvalues not converged
     c_bands:  5 eigenvalues not converged
     c_bands:  4 eigenvalues not converged
     ethr =  1.00E-05,  avg # of iterations = 23.8

[...]

     total energy              =   -2400.47613215 Ry
     estimated scf accuracy    <    6448.58678355 Ry

     iteration #  2     ecut=    29.40 Ry     beta= 0.05
     Davidson diagonalization with overlap
     ethr =  1.00E-02,  avg # of iterations = 23.1

[...]

     iteration # 60     ecut=    29.40 Ry     beta= 0.05
     Davidson diagonalization with overlap
     c_bands:  1 eigenvalues not converged
     ethr =  4.68E-11,  avg # of iterations =  7.1

[...]

     total energy              =   -2972.75606215 Ry
     estimated scf accuracy    <       0.00000015 Ry

     iteration # 63     ecut=    29.40 Ry     beta= 0.05
     Davidson diagonalization with overlap
     ethr =  2.25E-11,  avg # of iterations =  5.1

     negative rho (up, down):  1.508E-02 0.000E+00

     Adding external electric field

     Computed dipole along edir(3) :
        Dipole                0.5665 Ry au,          1.4398 Debye
        Dipole field          0.0011 Ry au,

        Potential amp.       -0.0991 Ry
        Total length         46.3494 bohr

     End of self-consistent calculation

          k = 0.0000 0.0000 0.0000 ( 18029 PWs)   bands (ev):

   -56.2710 -56.2372 -55.8647 -55.8298 -55.6088 -55.5957 -55.5510 -55.4017
   -55.3539 -55.3455 -55.2308 -55.1813 -55.0700 -55.0426 -55.0377 -55.0037
   -32.7212 -32.5635 -32.5368 -32.4292 -32.3454 -32.3442 -32.3366 -32.0906
   -32.0840 -32.0600 -32.0093 -32.0037 -31.9745 -31.9034 -31.8947 -31.8584
   -31.8316 -31.8295 -31.8199 -31.7736 -31.7544 -31.7481 -31.7154 -31.7136
   -31.6852 -31.6724 -31.6141 -31.5613 -31.5569 -31.5431 -31.5412 -31.5112
   -31.4901 -31.4339 -31.4297 -31.4156 -31.3907 -31.3712 -31.3476 -31.3281
   -31.3031 -31.2805 -31.2802 -31.2730 -31.2581 -31.2527 -31.1682 -31.0562
   -18.9031 -16.5634 -16.3782 -16.2242 -15.9908 -15.8423 -15.7576 -15.7013
   -15.7009 -15.5799 -15.5452 -15.4510 -15.3623 -15.2930 -15.2615 -15.2587
   -15.1645 -15.1031 -15.0541 -15.0313 -15.0014 -14.9803 -14.9675 -14.8867
   -14.8786 -14.8542 -14.8097 -14.6908 -14.6268 -14.3278 -14.3090 -13.5349
   -13.4228 -11.5390  -6.9697  -4.4307  -4.1221  -4.0723  -4.0368  -3.8882
    -3.7755  -3.5680  -3.4515  -3.2654  -3.2501  -3.1494  -2.9831  -2.9747
    -2.9212  -2.8509  -2.7726  -2.7036  -2.6597  -2.6485  -2.5557  -2.4970
    -2.4957  -2.4835  -2.4444  -2.4069  -2.3202  -2.2769  -2.2638  -2.2257
    -2.1806  -2.1323  -2.1285  -2.0824  -2.0569  -1.9971  -1.9331  -1.8964
    -1.8738  -1.8098  -1.7497  -1.7100  -1.6394  -1.5919  -1.5810  -1.5743
    -1.5223  -1.3270  -1.2865  -1.2609  -1.2399  -1.0975  -1.0544  -1.0194
    -0.9552  -0.9386  -0.8485  -0.8238  -0.8070  -0.7811  -0.7099  -0.6960
    -0.6615  -0.6331  -0.4460  -0.4110  -0.3395  -0.3311  -0.2623  -0.2303
    -0.1970  -0.1569  -0.1253  -0.0718  -0.0592  -0.0061   0.0401   0.0688
     0.2100   0.2407   0.3240   0.3318   0.3347   0.3570   0.4347   0.4687
     0.5412   0.5939   0.5998   0.6510   0.7394   0.7788   0.8933   0.9624
     0.9873   1.0081   1.0441   1.0964   1.2175   1.5083   1.5342   1.5730
     2.7074   2.9547   3.0852   3.2316   3.3863   3.4898   3.7964   3.8161
     3.8528   3.8978   3.9443

[...]

          k = 0.0380-0.0419 0.0000 ( 17876 PWs)   bands (ev):

[...]

          k =-0.0760-0.0000 0.0000 ( 17886 PWs)   bands (ev):

[...]

          k =-0.0760-0.0839 0.0000 ( 17948 PWs)   bands (ev):

   -56.2541 -56.2540 -55.8521 -55.8422 -55.6033 -55.5949 -55.5564 -55.3943
   -55.3611 -55.3460 -55.2291 -55.1792 -55.0716 -55.0445 -55.0212 -55.0201
   -32.5491 -32.5490 -32.5373 -32.5372 -32.3813 -32.3809 -32.1713 -32.1622
   -32.0457 -32.0375 -32.0356 -32.0313 -31.9118 -31.8748 -31.8614 -31.8305
   -31.8255 -31.8241 -31.8182 -31.7836 -31.7705 -31.7246 -31.7131 -31.6970
   -31.6352 -31.6324 -31.6275 -31.6005 -31.5963 -31.5931 -31.5544 -31.5477
   -31.4820 -31.4357 -31.4196 -31.4169 -31.3905 -31.3609 -31.3601 -31.3429
   -31.3317 -31.2898 -31.2838 -31.2769 -31.2494 -31.2480 -31.2111 -31.2102
   -18.9002 -16.3630 -15.9742 -15.9660 -15.8350 -15.8295 -15.6567 -15.6448
   -15.6005 -15.5518 -15.5211 -15.4866 -15.3590 -15.3337 -15.2636 -15.2387
   -15.2037 -15.1791 -15.1553 -15.1510 -15.1144 -15.0722 -15.0218 -15.0175
   -14.9677 -14.9662 -14.8409 -14.7655 -14.6871 -14.5096 -14.4631 -13.5262
   -13.5256 -11.5370  -6.9842  -4.3790  -4.1016  -4.0574  -3.8615  -3.1382
    -3.0964  -2.9709  -2.9452  -2.8702  -2.8331  -2.7626  -2.7045  -2.6818
    -2.6689  -2.6581  -2.5935  -2.5646  -2.5595  -2.5172  -2.5021  -2.4951
    -2.4593  -2.4113  -2.3840  -2.3619  -2.3566  -2.3504  -2.2713  -2.2001
    -2.1979  -2.1796  -2.1472  -2.1148  -2.0348  -2.0277  -1.9851  -1.9511
    -1.9205  -1.8302  -1.7897  -1.7490  -1.6985  -1.6634  -1.5842  -1.5816
    -1.5140  -1.4659  -1.3534  -1.3303  -1.3113  -1.2687  -1.2316  -1.1942
    -1.1260  -1.1043  -1.0488  -1.0452  -1.0319  -1.0088  -0.8977  -0.8573
    -0.7649  -0.7243  -0.7010  -0.6762  -0.6338  -0.6268  -0.5562  -0.5332
    -0.4949  -0.4694  -0.4038  -0.3981  -0.3638  -0.2990  -0.1921  -0.0337
     0.0609   0.1041   0.1259   0.1446   0.1900   0.2993   0.3052   0.3793
     0.4515   0.4644   0.4823   0.5112   0.6565   0.7348   0.8416   0.8634
     0.9130   0.9611   1.0205   1.0889   1.3783   1.3858   1.3893   1.3899
     2.7193   3.5055   3.5079   3.5363   3.5475   3.7308   3.7358   3.7534
     3.8986   3.9275   4.1523

     the Fermi energy is     2.8909 ev

!    total energy              =   -2972.75609824 Ry
     estimated scf accuracy    <       0.00000003 Ry
     smearing contrib. (-TS)   =      -0.01288041 Ry
     internal energy E=F+TS    =   -2972.74321783 Ry

     The total energy is F=E-TS. E is the sum of the following terms:
     one-electron contribution =  -23636.68631078 Ry
     hartree contribution      =   11911.38637121 Ry
     xc contribution           =    -493.08803519 Ry
     ewald contribution        =    9245.64415137 Ry
     electric field correction =       0.00060556 Ry

     convergence has been achieved in  63 iterations

     Forces acting on atoms (cartesian axes, Ry/au):

     atom    1 type  1   force =    -0.00000712   -0.00036710    0.10683295
     atom    2 type  1   force =    -0.00004918    0.00019878   -0.16493435
     atom    3 type  2   force =     0.00005564    0.00001834   -0.03811036
     atom    4 type  2   force =     0.00006583   -0.00064037    0.03455733
     atom    5 type  2   force =    -0.00367604   -0.00218359   -0.00715636
     atom    6 type  2   force =     0.00570208   -0.00176872   -0.00683004
     atom    7 type  1   force =     0.00025153   -0.00515997    0.03711966
     atom    8 type  1   force =    -0.00002095    0.01089679    0.05883250
     atom    9 type  2   force =    -0.00043770    0.00030042   -0.00080906
     atom   10 type  2   force =    -0.00076497   -0.00040324   -0.04425944
     atom   11 type  2   force =     0.00029272   -0.00020893    0.00032118
     atom   12 type  2   force =    -0.00063642   -0.00054594   -0.00003226
     atom   13 type  1   force =     0.00005493    0.00033260    0.00046966
     atom   14 type  1   force =    -0.00024705   -0.00006926    0.00048204
     atom   15 type  2   force =    -0.00018706   -0.00033250   -0.00110651
     atom   16 type  2   force =     0.00032592    0.00006685    0.00052850
     atom   17 type  2   force =     0.00002842    0.00039038    0.00017146
     atom   18 type  2   force =     0.00031216    0.00049964   -0.00046447
     atom   19 type  1   force =    -0.00048176   -0.00053475   -0.00043063
     atom   20 type  1   force =     0.00011993   -0.00027254    0.00059605
     atom   21 type  2   force =     0.00004385    0.00021346    0.10035643
     atom   22 type  2   force =     0.00000760   -0.00085198    0.00009018
     atom   23 type  2   force =    -0.07694538   -0.00000777   -0.03002457
     atom   24 type  2   force =     0.07681402    0.00041888   -0.03008218
     atom   25 type  1   force =     0.00005595   -0.00042112    0.10686957
     atom   26 type  1   force =    -0.00017054   -0.00137894   -0.16529821
     atom   27 type  2   force =     0.00012647   -0.00063766   -0.03655691
     atom   28 type  2   force =     0.00003824    0.00111426    0.03013743
     atom   29 type  2   force =    -0.00205838    0.00417866   -0.01013112
     atom   30 type  2   force =     0.00412499    0.00462647   -0.00970679
     atom   31 type  1   force =     0.00022900    0.00323651    0.02266306
     atom   32 type  1   force =    -0.00015200   -0.01397426    0.05887810
     atom   33 type  2   force =    -0.00013937   -0.00118759   -0.00027174
     atom   34 type  2   force =    -0.00070565   -0.00007857   -0.05472588
     atom   35 type  2   force =    -0.00106837    0.00020486    0.00021046
     atom   36 type  2   force =     0.00052199   -0.00001548   -0.00021461
     atom   37 type  1   force =    -0.00013524   -0.00078200   -0.00003398
     atom   38 type  1   force =    -0.00057415    0.00000899    0.00000768
     atom   39 type  2   force =    -0.00031304    0.00053269   -0.00003344
     atom   40 type  2   force =    -0.00024636   -0.00047187    0.00020444
     atom   41 type  2   force =    -0.00091399    0.00004739   -0.00007712
     atom   42 type  2   force =    -0.00017028    0.00010941    0.00061680
     atom   43 type  1   force =     0.00077289    0.00102818   -0.00013226
     atom   44 type  1   force =    -0.00015673    0.00167229    0.00066326
     atom   45 type  2   force =     0.00003553   -0.00000046    0.10016268
     atom   46 type  2   force =    -0.07698613    0.00003162   -0.03005620
     atom   47 type  2   force =     0.07687929    0.00045759   -0.03012161
     atom   48 type  3   force =     0.00040537   -0.00187963    0.00122671
     atom   49 type  3   force =     0.00004290    0.00097815   -0.00047040
     atom   50 type  4   force =     0.00355476   -0.00706736    0.00308871
     atom   51 type  5   force =    -0.00386893    0.00905896   -0.00323957
     atom   52 type  5   force =    -0.00027784   -0.00030609   -0.00020353
     atom   53 type  5   force =    -0.00014524    0.00044022    0.00038897
     atom   54 type  2   force =     0.00105864   -0.00041911   -0.00112457
     atom   55 type  5   force =    -0.00038478    0.00090441    0.00116236

     Total force =     0.379974     Total SCF correction =     0.000375
  @ DRIVER MODE: Message from server: STATUS
  @ DRIVER MODE: Message from server: GETFORCE
  @ DRIVER MODE: Returning v,forces,stress,ensemble

     Writing output data file ./calc.save/
  @ DRIVER MODE: Message from server: EXIT
  @ DRIVE MODE: Exiting

     General routines

     Parallel routines

   This run was terminated on:   3:59:18  10Sep2021

   JOB DONE.