     Program PWSCF v.6.7GPU starts on 16Jul2021 at 17:47:22

     R & G space division:  proc/nbgrp/npool/nimage =      16
     Reading input from /storage/home/hcoda1/3/ntian30/research/carbon/15Jul_vib/ads_slab/CH3NNH3_a/out_0047/pw.inp
Warning: card &CELL ignored
Warning: card   CELL_DYNAMICS='IPI', ignored
Warning: card / ignored

     Current dimensions of program PWSCF are:
     Max number of different atomic species (ntypx) = 10
     Max number of k-points (npk) =  40000
     Max angular momentum in pseudopotentials (lmaxx) =  3
     Presently no symmetry can be used with electric field

     Message from routine cell_base_init:
     DEPRECATED: use true lattice parameter, not A to a.u. conversion factor

     IMPORTANT: XC functional enforced from input :
     Exchange-correlation= BEEF-VDW
                           (   1   4  43  14   2   0   0)
     Any further DFT definition will be discarded
     Please, verify this is what you really want

  @ DRIVER MODE: Connecting to
 qe_1139763_2351650.sched-torque.pace.gatech.edu6iqp6kt__scratch
  using UNIX socket
  @ DRIVER MODE: Message from server: STATUS
  @ DRIVER MODE: Message from server: INIT
  @ DRIVER MODE: Receiving replica           0          -1
  @ DRIVER MODE: Receiving encoded integer          25
  @ DRIVER MODE:  SCF:  T  FORCE:  T  STRESS:  F  VC:  F  ENSEMBLE:  F
  @ DRIVER MODE:  SCF:  T  FORCE:  T  STRESS:  F  VC:  F  ENSEMBLE:  F

     Using Slab Decomposition

     bravais-lattice index     =            0
     lattice parameter (alat)  =       1.8897  a.u.
     unit-cell volume          =    6658.9804 (a.u.)^3
     number of atoms/cell      =           56
     number of atomic types    =            5
     number of electrons       =       398.00
     number of Kohn-Sham states=          209
     kinetic-energy cutoff     =      29.3995  Ry
     charge density cutoff     =     293.9946  Ry
     scf convergence threshold =      7.3E-08
     mixing beta               =       0.0500
     number of iterations used =            8  plain     mixing
     Exchange-correlation= BEEF-VDW
                           (   1   4  43  14   2   0   0)

     celldm(1)=   1.889726  celldm(2)=   0.000000  celldm(3)=   0.000000
     celldm(4)=   0.000000  celldm(5)=   0.000000  celldm(6)=   0.000000

     crystal axes: (cart. coord. in units of alat)
               a(1) = (   6.579727   0.000000   0.000000 )
               a(2) = (  -0.000775   5.961596   0.000000 )
               a(3) = (   0.000000   0.000000  25.155947 )

     reciprocal axes: (cart. coord. in units 2 pi/alat)
               b(1) = (  0.151982  0.000020  0.000000 )
               b(2) = (  0.000000  0.167740  0.000000 )
               b(3) = (  0.000000  0.000000  0.039752 )

     PseudoPot. # 1 for Ti read from file:
     /storage/coda1/p-amedford6/0/shared/rich_project_chbe-medford/medford-share/data/pseudos_module/espresso/nninc/pbe/van/Ti.UPF
     MD5 check sum: 8e4df49b7f0d34bbd5052bf3f5ea0213
     Pseudo is Ultrasoft, Zval = 12.0
     Generated by new atomic code, or converted to UPF format
     Using radial grid of  851 points,  6 beta functions with:
                l(1) =   0
                l(2) =   0
                l(3) =   1
                l(4) =   1
                l(5) =   2
                l(6) =   2
     Q(r) pseudized with  8 coefficients,  rinner =    1.000   1.000   1.000
                                                       1.000   1.000

     PseudoPot. # 2 for O  read from file:
     /storage/coda1/p-amedford6/0/shared/rich_project_chbe-medford/medford-share/data/pseudos_module/espresso/nninc/pbe/van/O.UPF
     MD5 check sum: 78c19812648e8988a0fe644b0f25305e
     Pseudo is Ultrasoft, Zval =  6.0
     Generated by new atomic code, or converted to UPF format
     Using radial grid of  737 points,  4 beta functions with:
                l(1) =   0
                l(2) =   0
                l(3) =   1
                l(4) =   1
     Q(r) pseudized with  8 coefficients,  rinner =    0.800   0.800   0.800

     PseudoPot. # 3 for N  read from file:
     /storage/coda1/p-amedford6/0/shared/rich_project_chbe-medford/medford-share/data/pseudos_module/espresso/nninc/pbe/van/N.UPF
     MD5 check sum: 90d10febe142ad51ac9d5be1deb811c4
     Pseudo is Ultrasoft, Zval =  5.0
     Generated by new atomic code, or converted to UPF format
     Using radial grid of  729 points,  4 beta functions with:
                l(1) =   0
                l(2) =   0
                l(3) =   1
                l(4) =   1
     Q(r) pseudized with  8 coefficients,  rinner =    0.800   0.800   0.800

     PseudoPot. # 4 for C  read from file:
     /storage/coda1/p-amedford6/0/shared/rich_project_chbe-medford/medford-share/data/pseudos_module/espresso/nninc/pbe/van/C.UPF
     MD5 check sum: 1a69bf6b8db32088f5b2163dbdb77a27
     Pseudo is Ultrasoft, Zval =  4.0
     Generated by new atomic code, or converted to UPF format
     Using radial grid of  721 points,  4 beta functions with:
                l(1) =   0
                l(2) =   0
                l(3) =   1
                l(4) =   1
     Q(r) pseudized with  8 coefficients,  rinner =    0.800   0.800   0.800

     PseudoPot. # 5 for H  read from file:
     /storage/coda1/p-amedford6/0/shared/rich_project_chbe-medford/medford-share/data/pseudos_module/espresso/nninc/pbe/van/H.UPF
     MD5 check sum: b5ee9d7bfd3a09ee7748110bda690ff7
     Pseudo is Ultrasoft, Zval =  1.0
     Generated by new atomic code, or converted to UPF format
     Using radial grid of  615 points,  1 beta functions with:
                l(1) =   0
     Q(r) pseudized with  8 coefficients,  rinner =    0.800

     atomic species   valence    mass     pseudopotential
        Ti1           12.00    47.86700     Ti( 1.00)
        O1             6.00    15.99900     O ( 1.00)
        N1             5.00    14.00700     N ( 1.00)
        C1             4.00    12.01100     C ( 1.00)
        H1             1.00     1.00800     H ( 1.00)

     Starting magnetic structure
     atomic species   magnetization
        Ti1          0.000
        O1           0.000
        N1           0.000
        C1           0.025
        H1           0.000

     No symmetry found

   Cartesian axes

     site n.     atom                  positions (alat units)
         1           Ti1 tau(   1) = (   0.0004258   2.9801865   6.0000000  )
         2           Ti1 tau(   2) = (   3.2906075   1.4906267   6.0002472  )
         3           O1  tau(   3) = (   0.0006271   0.0005054   7.9858123  )
         4           O1  tau(   4) = (   3.2906025   0.0005020   7.3038282  )
         5           O1  tau(   5) = (   4.5942328   1.4918067   9.2879030  )
         6           O1  tau(   6) = (   1.9868534   1.4903216   9.2879459  )
         7           Ti1 tau(   7) = (   3.2907910   2.8959150   9.1758416  )
         8           Ti1 tau(   8) = (   0.0015273   1.4827037   9.2680791  )
         9           O1  tau(   9) = (   3.3019049   5.9598586  11.2958584  )
        10           O1  tau(  10) = (   0.0116148   5.9584955  10.6183126  )
        11           O1  tau(  11) = (   1.3346742   1.4914638  12.6145280  )
        12           O1  tau(  12) = (   5.3113054   1.4894223  12.6320738  )
        13           Ti1 tau(  13) = (   6.4919192   2.9607050  12.7581921  )
        14           Ti1 tau(  14) = (   3.1808934   1.4809541  12.4628303  )
        15           O1  tau(  15) = (   0.0259758   5.9327586  14.5948705  )
        16           O1  tau(  16) = (   3.3179433   0.0111293  13.8771559  )
        17           O1  tau(  17) = (   4.5450242   1.5254396  16.0425357  )
        18           O1  tau(  18) = (   2.0945915   1.5254857  16.0466093  )
        19           Ti1 tau(  19) = (   3.3175380   3.0118254  15.6854273  )
        20           Ti1 tau(  20) = (   0.0287691   1.6153805  16.0968480  )
        21           O1  tau(  21) = (   3.2904802   0.0005063   4.7018136  )
        22           O1  tau(  22) = (   0.0272082   0.0527987  17.2096484  )
        23           O1  tau(  23) = (   1.3043587   1.4918075   6.0039043  )
        24           O1  tau(  24) = (   5.2767064   1.4903225   6.0039473  )
        25           Ti1 tau(  25) = (   0.0000382   5.9609847   6.0000000  )
        26           Ti1 tau(  26) = (   3.2902200   4.4714249   6.0002472  )
        27           O1  tau(  27) = (   0.0002396   2.9813036   7.9858123  )
        28           O1  tau(  28) = (   3.2902150   2.9813002   7.3038282  )
        29           O1  tau(  29) = (   4.5938453   4.4726049   9.2879030  )
        30           O1  tau(  30) = (   1.9864658   4.4711199   9.2879459  )
        31           Ti1 tau(  31) = (   3.2891106   5.8743827   9.1763621  )
        32           Ti1 tau(  32) = (   0.0006254   4.4649316   9.2693709  )
        33           O1  tau(  33) = (   3.3007599   2.9794320  11.2948048  )
        34           O1  tau(  34) = (   0.0092240   2.9805883  10.6323155  )
        35           O1  tau(  35) = (   1.3367187   4.4652043  12.6121808  )
        36           O1  tau(  36) = (   5.3110114   4.4536366  12.6300246  )
        37           Ti1 tau(  37) = (   6.5175235   5.9394146  12.7678677  )
        38           Ti1 tau(  38) = (   3.1810223   4.4618757  12.4682998  )
        39           O1  tau(  39) = (   0.0141956   2.9656780  14.6533049  )
        40           O1  tau(  40) = (   3.3125561   2.9946134  13.8784269  )
        41           O1  tau(  41) = (   4.5469694   4.5079638  16.0550352  )
        42           O1  tau(  42) = (   2.0896055   4.5089645  16.0567747  )
        43           Ti1 tau(  43) = (   3.3249511   0.0336637  15.6879192  )
        44           Ti1 tau(  44) = (   0.0309337   4.5948497  16.1324869  )
        45           O1  tau(  45) = (   3.2900926   2.9813045   4.7018136  )
        46           O1  tau(  46) = (   1.3039711   4.4726057   6.0039043  )
        47           O1  tau(  47) = (   5.2763189   4.4711207   6.0039473  )
        48           N1  tau(  48) = (   0.0510883   3.0100077  17.3315927  )
        49           C1  tau(  49) = (   0.2149723   3.0659314  18.7643681  )
        50           H1  tau(  50) = (   6.1109748   3.7957518  19.2115106  )
        51           H1  tau(  51) = (   0.0391147   2.0919789  19.2277120  )
        52           H1  tau(  52) = (   1.2341903   3.3897193  19.0223879  )
        53           N1  tau(  53) = (   4.7717085   1.8344328  21.5424420  )
        54           H1  tau(  54) = (   4.4711387   2.7986659  21.4441960  )
        55           H1  tau(  55) = (   4.1840297   1.2822813  20.9157432  )
        56           H1  tau(  56) = (   4.5427024   1.5537098  22.4892962  )

     number of k points=    10  Fermi-Dirac smearing, width (Ry)=  0.0073
                       cart. coord. in units 2pi/alat
        k(    1) = (   0.0000000   0.0000000   0.0000000), wk =   0.0625000
        k(    2) = (   0.0000000   0.0419351   0.0000000), wk =   0.1250000
        k(    3) = (   0.0000000  -0.0838702   0.0000000), wk =   0.0625000
        k(    4) = (   0.0379955   0.0000049   0.0000000), wk =   0.1250000
        k(    5) = (   0.0379955   0.0419400   0.0000000), wk =   0.1250000
[...]
     % You are using vdW-DF, which was implemented by the Thonhauser group. %
     % Please cite the following two papers that made this development      %
     % possible and the two reviews that describe the various versions:     %
     %                                                                      %
     %   T. Thonhauser et al., PRL 115, 136402 (2015).                      %
     %   T. Thonhauser et al., PRB 76, 125112 (2007).                       %
     %   K. Berland et al., Rep. Prog. Phys. 78, 066501 (2015).             %
     %   D.C. Langreth et al., J. Phys.: Condens. Matter 21, 084203 (2009). %
     %                                                                      %
     %                                                                      %
     % If you are calculating the stress with vdW-DF, please also cite:     %
     %                                                                      %
     %   R. Sabatini et al., J. Phys.: Condens. Matter 24, 424209 (2012).   %
     %                                                                      %
     %%%%%%%%%%%%%%%%%%%%%%%%%%%%%%%%%%%%%%%%%%%%%%%%%%%%%%%%%%%%%%%%%%%%%%%%

     Adding external electric field

     Computed dipole along edir(3) :
        Dipole              -11.2909 Ry au,        -28.6987 Debye
        Dipole field         -0.0213 Ry au,

        Potential amp.        1.9752 Ry
        Total length         46.3494 bohr

[...]

     Starting wfcs are  302 atomic wfcs
  @ DRIVER MODE: Message from server: STATUS
  @ DRIVER MODE: Message from server: POSDATA
  @ DRIVER MODE: Reading and sharing cell
  @ DRIVER MODE: Reading and sharing positions
  @ DRIVER MODE: Received positions

     Self-consistent Calculation

     iteration #  1     ecut=    29.40 Ry     beta= 0.05
     Davidson diagonalization with overlap
     c_bands:  1 eigenvalues not converged
     c_bands:  1 eigenvalues not converged
     c_bands:  2 eigenvalues not converged
     c_bands:  1 eigenvalues not converged
     c_bands:  1 eigenvalues not converged
     c_bands:  1 eigenvalues not converged
     c_bands:  2 eigenvalues not converged
     c_bands:  2 eigenvalues not converged
     c_bands:  1 eigenvalues not converged
     c_bands:  1 eigenvalues not converged
     c_bands:  2 eigenvalues not converged
     c_bands:  1 eigenvalues not converged
     c_bands:  1 eigenvalues not converged
     c_bands:  1 eigenvalues not converged
     c_bands:  2 eigenvalues not converged
     c_bands:  2 eigenvalues not converged
     ethr =  1.00E-05,  avg # of iterations = 19.6

[...]

     total energy              =   -2520.84597547 Ry
     estimated scf accuracy    <    4704.37793273 Ry

     total magnetization       =     0.00 Bohr mag/cell
     absolute magnetization    =     0.01 Bohr mag/cell

[...]

     iteration #  3     ecut=    29.40 Ry     beta= 0.05
     Davidson diagonalization with overlap
     ethr =  1.00E-02,  avg # of iterations = 15.8

[...]

     iteration # 51     ecut=    29.40 Ry     beta= 0.05
     Davidson diagonalization with overlap
     c_bands:  1 eigenvalues not converged
     ethr =  7.66E-08,  avg # of iterations =  9.2

[...]

     total energy              =   -2942.90772116 Ry
     estimated scf accuracy    <       0.00000008 Ry

[...]

     iteration # 68     ecut=    29.40 Ry     beta= 0.05
     Davidson diagonalization with overlap
     ethr =  1.91E-11,  avg # of iterations =  4.9

     negative rho (up, down):  5.676E-03 5.676E-03

[...]

     Adding external electric field

     Computed dipole along edir(3) :
        Dipole                0.4159 Ry au,          1.0571 Debye
        Dipole field          0.0008 Ry au,

        Potential amp.       -0.0728 Ry
        Total length         46.3494 bohr

     Magnetic moment per site  (integrated on atomic sphere of radius R)
     atom   1 (R=0.735)  charge=  8.0053  magn= -0.0001
     atom   2 (R=0.735)  charge=  8.0011  magn=  0.0000
     atom   3 (R=0.735)  charge=  4.9959  magn=  0.0000
     atom   4 (R=0.735)  charge=  5.0345  magn=  0.0000
     atom   5 (R=0.735)  charge=  4.9982  magn=  0.0000
     atom   6 (R=0.735)  charge=  4.9994  magn=  0.0000
     atom   7 (R=0.735)  charge=  7.9947  magn= -0.0000
     atom   8 (R=0.735)  charge=  7.9823  magn= -0.0000
     atom   9 (R=0.735)  charge=  5.0127  magn=  0.0000
     atom  10 (R=0.735)  charge=  4.9434  magn=  0.0000
     atom  11 (R=0.735)  charge=  4.9999  magn=  0.0000
     atom  12 (R=0.735)  charge=  5.0035  magn=  0.0000
     atom  13 (R=0.735)  charge=  7.9933  magn= -0.0000
     atom  14 (R=0.735)  charge=  8.0007  magn= -0.0000
     atom  15 (R=0.735)  charge=  4.9894  magn=  0.0000
     atom  16 (R=0.735)  charge=  5.0146  magn=  0.0000
     atom  17 (R=0.735)  charge=  4.9900  magn= -0.0000
     atom  18 (R=0.735)  charge=  4.9888  magn= -0.0000
     atom  19 (R=0.735)  charge=  8.0208  magn=  0.0000
     atom  20 (R=0.735)  charge=  8.0242  magn=  0.0000
     atom  21 (R=0.735)  charge=  4.8827  magn= -0.0000
     atom  22 (R=0.735)  charge=  4.9720  magn= -0.0000
     atom  23 (R=0.735)  charge=  4.9883  magn=  0.0000
     atom  24 (R=0.735)  charge=  4.9885  magn=  0.0001
     atom  25 (R=0.735)  charge=  8.0054  magn= -0.0001
     atom  26 (R=0.735)  charge=  8.0011  magn=  0.0000
     atom  27 (R=0.735)  charge=  4.9957  magn=  0.0000
     atom  28 (R=0.735)  charge=  5.0347  magn=  0.0000
     atom  29 (R=0.735)  charge=  4.9989  magn=  0.0000
     atom  30 (R=0.735)  charge=  5.0001  magn=  0.0000
     atom  31 (R=0.735)  charge=  7.9948  magn= -0.0000
     atom  32 (R=0.735)  charge=  7.9826  magn= -0.0000
     atom  33 (R=0.735)  charge=  5.0125  magn=  0.0000
     atom  34 (R=0.735)  charge=  4.9424  magn=  0.0000
     atom  35 (R=0.735)  charge=  5.0005  magn=  0.0000
     atom  36 (R=0.735)  charge=  5.0043  magn=  0.0000
     atom  37 (R=0.735)  charge=  7.9990  magn= -0.0000
     atom  38 (R=0.735)  charge=  8.0004  magn= -0.0000
     atom  39 (R=0.735)  charge=  4.9853  magn=  0.0000
     atom  40 (R=0.735)  charge=  5.0160  magn=  0.0000
     atom  41 (R=0.735)  charge=  4.9884  magn= -0.0000
     atom  42 (R=0.735)  charge=  4.9878  magn= -0.0000
     atom  43 (R=0.735)  charge=  8.0214  magn=  0.0000
     atom  44 (R=0.735)  charge=  8.0216  magn=  0.0000
     atom  45 (R=0.735)  charge=  4.8827  magn= -0.0001
     atom  46 (R=0.735)  charge=  4.9883  magn=  0.0000
     atom  47 (R=0.735)  charge=  4.9885  magn=  0.0000
     atom  48 (R=0.418)  charge=  1.3136  magn= -0.0000
     atom  49 (R=0.451)  charge=  0.8534  magn=  0.0000
     atom  50 (R=0.418)  charge=  0.4371  magn= -0.0000
     atom  51 (R=0.418)  charge=  0.4391  magn= -0.0000
     atom  52 (R=0.418)  charge=  0.4339  magn= -0.0000
     atom  53 (R=0.418)  charge=  1.3286  magn= -0.0000
     atom  54 (R=0.418)  charge=  0.4522  magn= -0.0000
     atom  55 (R=0.418)  charge=  0.4463  magn= -0.0000
     atom  56 (R=0.418)  charge=  0.4536  magn=  0.0000

     End of self-consistent calculation

 ------ SPIN UP ------------

          k = 0.0000 0.0000 0.0000 ( 18029 PWs)   bands (ev):

   -56.6319 -56.5983 -55.7567 -55.7448 -55.7218 -55.7120 -55.6117 -55.5763
   -55.3938 -55.3580 -55.2974 -55.2923 -55.2634 -55.1944 -54.7288 -54.6169
   -33.0598 -32.9065 -32.8784 -32.8076 -32.7166 -32.6858 -32.2275 -32.2212
   -32.1543 -32.0407 -31.9947 -31.9703 -31.9520 -31.9306 -31.8970 -31.8926
   -31.8916 -31.8857 -31.8601 -31.8576 -31.8461 -31.8191 -31.7943 -31.7793
   -31.7663 -31.7479 -31.7383 -31.7136 -31.6896 -31.6357 -31.6244 -31.6116
   -31.5351 -31.5319 -31.5081 -31.4680 -31.4598 -31.4246 -31.4225 -31.3981
   -31.3757 -31.3138 -31.2343 -30.9745 -30.9591 -30.8761 -30.8387 -30.7487
   -16.7970 -16.3651 -16.1345 -15.9949 -15.9294 -15.8731 -15.8305 -15.7047
   -15.6368 -15.6286 -15.5869 -15.5593 -15.4877 -15.3480 -15.2494 -15.1969
   -15.1524 -15.0319 -14.9707 -14.9384 -14.9278 -14.8851 -14.8753 -14.6817
   -14.6586 -14.5649 -14.5434 -14.4229 -14.1881 -13.7956 -13.6855 -13.6745
   -12.8009  -7.4987  -4.3621  -3.8609  -3.7742  -3.7127  -3.6224  -3.5360
    -3.4289  -3.4146  -3.3281  -3.2135  -3.1694  -3.1216  -3.0052  -3.0039
    -2.8556  -2.8109  -2.8079  -2.8056  -2.7564  -2.6975  -2.6735  -2.6422
    -2.6331  -2.6034  -2.4770  -2.3807  -2.3092  -2.2860  -2.2803  -2.2443
    -2.1692  -2.1397  -2.1311  -2.1275  -2.0200  -1.8747  -1.8684  -1.8453
    -1.8035  -1.7978  -1.7554  -1.7421  -1.6245  -1.5340  -1.4314  -1.4153
    -1.3712  -1.3148  -1.3070  -1.2172  -1.1392  -1.0482  -1.0471  -0.9374
    -0.8901  -0.8732  -0.7827  -0.7232  -0.6839  -0.6576  -0.6452  -0.5451
    -0.5223  -0.5124  -0.4284  -0.4166  -0.3675  -0.2783  -0.2556  -0.2467
    -0.1645  -0.1619  -0.0666  -0.0248   0.0153   0.0504   0.1665   0.1838
     0.2820   0.3106   0.3384   0.4512   0.4672   0.5326   0.6071   0.6697
     0.6975   0.7244   0.7532   0.7727   0.8472   0.9591   0.9684   1.0705
     1.1026   1.2773   1.3161   1.3999   1.6014   1.6351   2.3044   2.6427
     2.8021   3.1005   3.2879   3.4009   3.6171   3.6337   3.6384   3.8067
     3.8597

[...]

          k =-0.0760-0.0000 0.0000 ( 17886 PWs)   bands (ev):

[...]

 ------ SPIN DOWN ----------

[...]

          k = 0.0380-0.0419 0.0000 ( 17876 PWs)   bands (ev):

[...]

          k =-0.0760-0.0839 0.0000 ( 17948 PWs)   bands (ev):

   -56.6155 -56.6151 -55.7416 -55.7358 -55.7291 -55.7286 -55.5944 -55.5937
   -55.3800 -55.3716 -55.2892 -55.2803 -55.2802 -55.1976 -54.7259 -54.6197
   -32.8926 -32.8924 -32.8769 -32.8767 -32.7610 -32.7607 -32.0573 -32.0550
   -32.0458 -32.0392 -31.9862 -31.9852 -31.9427 -31.9423 -31.9400 -31.9389
   -31.9310 -31.9281 -31.9260 -31.9243 -31.8469 -31.8449 -31.7960 -31.7931
   -31.7308 -31.7205 -31.6616 -31.6536 -31.6245 -31.6244 -31.6184 -31.5783
   -31.5741 -31.5466 -31.5124 -31.5057 -31.5056 -31.4665 -31.4665 -31.4634
   -31.4400 -31.4004 -31.1145 -30.9941 -30.9586 -30.9281 -30.8412 -30.8040
   -16.1456 -16.1435 -16.1106 -16.1103 -15.8421 -15.8385 -15.7960 -15.7935
   -15.6198 -15.6136 -15.4070 -15.3984 -15.3917 -15.3903 -15.2624 -15.2565
   -15.1910 -15.1806 -15.0913 -15.0821 -15.0258 -15.0193 -14.9767 -14.9557
   -14.6455 -14.6363 -14.5155 -14.4981 -14.3318 -13.7893 -13.7891 -13.6737
   -12.8172  -7.4888  -3.7772  -3.7253  -3.2446  -3.2443  -3.1806  -3.1796
    -3.0584  -3.0543  -2.9751  -2.9744  -2.8768  -2.8755  -2.7611  -2.7327
    -2.7297  -2.7286  -2.7118  -2.6637  -2.5762  -2.5730  -2.5627  -2.5482
    -2.4897  -2.4877  -2.4655  -2.3999  -2.3862  -2.3547  -2.3170  -2.2027
    -2.1924  -2.1804  -2.1486  -2.0853  -2.0782  -2.0653  -2.0228  -1.9902
    -1.9134  -1.8408  -1.8026  -1.6894  -1.6847  -1.6729  -1.6611  -1.5073
    -1.4670  -1.4365  -1.4293  -1.4233  -1.3755  -1.2804  -1.2730  -1.1412
    -1.1395  -1.0655  -0.9838  -0.9626  -0.9342  -0.8056  -0.7616  -0.7270
    -0.7193  -0.6913  -0.6711  -0.6495  -0.6058  -0.4702  -0.4584  -0.4195
    -0.3851  -0.3629  -0.3286  -0.2709  -0.1850  -0.1064  -0.1059  -0.0514
     0.0170   0.0777   0.1650   0.1750   0.1804   0.4614   0.5401   0.6296
     0.7054   0.7715   0.8350   0.8660   0.9214   0.9661   1.1027   1.1059
     1.1251   1.1255   1.1845   1.1883   1.3828   1.6415   2.1940   3.2152
     3.2155   3.2823   3.2827   3.6063   3.6122   3.7203   3.7297   3.8363
     3.8413

     the Fermi energy is     2.4830 ev

!    total energy              =   -2942.90775542 Ry
     estimated scf accuracy    <       0.00000006 Ry
     smearing contrib. (-TS)   =      -0.00487859 Ry
     internal energy E=F+TS    =   -2942.90287684 Ry

     The total energy is F=E-TS. E is the sum of the following terms:
     one-electron contribution =  -23242.60224693 Ry
     hartree contribution      =   11711.50339857 Ry
     xc contribution           =    -487.46680911 Ry
     ewald contribution        =    9075.66245422 Ry
     electric field correction =       0.00032642 Ry

     total magnetization       =    -0.00 Bohr mag/cell
     absolute magnetization    =     0.00 Bohr mag/cell

     convergence has been achieved in  68 iterations

     Forces acting on atoms (cartesian axes, Ry/au):

     atom    1 type  1   force =     0.00003648   -0.00040924    0.12404475
     atom    2 type  1   force =    -0.00010508   -0.00057292   -0.16068259
     atom    3 type  2   force =     0.00023434   -0.00026975   -0.06798581
     atom    4 type  2   force =     0.00001287   -0.00029213    0.02758176
     atom    5 type  2   force =    -0.01615120    0.00175245   -0.00937037
     atom    6 type  2   force =     0.01818275    0.00219161   -0.00899206
     atom    7 type  1   force =     0.00114844   -0.00377537    0.02168893
     atom    8 type  1   force =    -0.00057786   -0.00291119    0.11106094
     atom    9 type  2   force =    -0.00018113    0.00030538   -0.00045805
     atom   10 type  2   force =    -0.00195799    0.00129331   -0.07321279
     atom   11 type  2   force =     0.00021703   -0.00010847    0.00018114
     atom   12 type  2   force =    -0.00025622    0.00022074    0.00021423
     atom   13 type  1   force =    -0.00008302    0.00008163   -0.00041423
     atom   14 type  1   force =    -0.00059680    0.00045516    0.00042576
     atom   15 type  2   force =     0.00027828    0.00001145    0.00016656
     atom   16 type  2   force =    -0.00049262   -0.00036845    0.00057313
     atom   17 type  2   force =    -0.00059630    0.00024065    0.00009260
     atom   18 type  2   force =     0.00002815    0.00024929    0.00009347
     atom   19 type  1   force =     0.00037254   -0.00054451    0.00002748
     atom   20 type  1   force =    -0.00008921    0.00010247    0.00017529
     atom   21 type  2   force =     0.00005148   -0.00000962    0.09975336
     atom   22 type  2   force =     0.00026847   -0.00002904   -0.00038683
     atom   23 type  2   force =    -0.07915250    0.00000006   -0.03246095
     atom   24 type  2   force =     0.07903879    0.00043976   -0.03248159
     atom   25 type  1   force =     0.00001737   -0.00041595    0.12356316
     atom   26 type  1   force =    -0.00010080   -0.00046451   -0.16081774
     atom   27 type  2   force =     0.00033013   -0.00048539   -0.06703705
     atom   28 type  2   force =     0.00002747   -0.00012068    0.02730799
     atom   29 type  2   force =    -0.01662608    0.00127537   -0.00947697
     atom   30 type  2   force =     0.01855571    0.00165371   -0.00911021
     atom   31 type  1   force =     0.00116511   -0.00138077    0.02111285
     atom   32 type  1   force =    -0.00052934    0.00034466    0.11170853
     atom   33 type  2   force =    -0.00016185   -0.00024790    0.00006422
     atom   34 type  2   force =    -0.00132264    0.00066865   -0.07266591
     atom   35 type  2   force =    -0.00079029   -0.00042999   -0.00001467
     atom   36 type  2   force =     0.00010871   -0.00001746    0.00011422
     atom   37 type  1   force =     0.00007004    0.00063406    0.00022528
     atom   38 type  1   force =    -0.00022551    0.00002561   -0.00016263
     atom   39 type  2   force =     0.00013426   -0.00018180    0.00090651
     atom   40 type  2   force =    -0.00018435   -0.00046667    0.00033757
     atom   41 type  2   force =     0.00007611   -0.00009275    0.00005873
     atom   42 type  2   force =     0.00040863    0.00001539    0.00001962
     atom   43 type  1   force =    -0.00023707   -0.00012082    0.00008271
     atom   44 type  1   force =    -0.00024597    0.00048862    0.00009852
     atom   45 type  2   force =     0.00002444   -0.00003264    0.09977816
     atom   46 type  2   force =    -0.07915779    0.00005272   -0.03246131
     atom   47 type  2   force =     0.07903909    0.00047707   -0.03247520
     atom   48 type  3   force =     0.00090392    0.00073587   -0.00135387
     atom   49 type  4   force =     0.00008655   -0.00049276    0.00007689
     atom   50 type  5   force =    -0.00007774    0.00076099    0.00082016
     atom   51 type  5   force =     0.00026835    0.00049907   -0.00010942
     atom   52 type  5   force =    -0.00027014   -0.00024691    0.00001058
     atom   53 type  3   force =    -0.00442301   -0.00484532   -0.00680192
     atom   54 type  5   force =     0.00004292    0.00037880   -0.00044208
     atom   55 type  5   force =     0.00545278    0.00499467    0.00663247
     atom   56 type  5   force =    -0.00198871   -0.00101618    0.00037667

     Total force =     0.424602     Total SCF correction =     0.000866
  @ DRIVER MODE: Message from server: STATUS
  @ DRIVER MODE: Message from server: GETFORCE
  @ DRIVER MODE: Returning v,forces,stress,ensemble

     Writing output data file ./calc.save/
  @ DRIVER MODE: Message from server: EXIT
  @ DRIVE MODE: Exiting

     General routines

     Parallel routines

   This run was terminated on:  18:15:54  16Jul2021

   JOB DONE.