     Program PWSCF v.6.7GPU starts on 10Sep2021 at 22: 8:43

     R & G space division:  proc/nbgrp/npool/nimage =      10
     Reading input from /storage/home/hcoda1/3/ntian30/research/carbon/CxH_vib/CH2_calc/ads_slab/CH2O_c/out_0013/pw.inp
Warning: card &CELL ignored
Warning: card   CELL_DYNAMICS='IPI', ignored
Warning: card / ignored

     Current dimensions of program PWSCF are:
     Max number of different atomic species (ntypx) = 10
     Max number of k-points (npk) =  40000
     Max angular momentum in pseudopotentials (lmaxx) =  3
     Presently no symmetry can be used with electric field

     Message from routine cell_base_init:
     DEPRECATED: use true lattice parameter, not A to a.u. conversion factor

     IMPORTANT: XC functional enforced from input :
     Exchange-correlation= BEEF-VDW
                           (   1   4  43  14   2   0   0)
     Any further DFT definition will be discarded
     Please, verify this is what you really want

  @ DRIVER MODE: Connecting to
 qe_1139763_2792043.sched-torque.pace.gatech.eduz3t_ig4t_scratch
  using UNIX socket
  @ DRIVER MODE: Message from server: STATUS
  @ DRIVER MODE: Message from server: INIT
  @ DRIVER MODE: Receiving replica           0          -1
  @ DRIVER MODE: Receiving encoded integer          25
  @ DRIVER MODE:  SCF:  T  FORCE:  T  STRESS:  F  VC:  F  ENSEMBLE:  F
  @ DRIVER MODE:  SCF:  T  FORCE:  T  STRESS:  F  VC:  F  ENSEMBLE:  F

     Using Slab Decomposition

     bravais-lattice index     =            0
     lattice parameter (alat)  =       1.8897  a.u.
     unit-cell volume          =    6658.9804 (a.u.)^3
     number of atoms/cell      =           51
     number of atomic types    =            4
     number of electrons       =       390.00
     number of Kohn-Sham states=          205
     kinetic-energy cutoff     =      29.3995  Ry
     charge density cutoff     =     293.9946  Ry
     scf convergence threshold =      7.3E-08
     mixing beta               =       0.0500
     number of iterations used =            8  plain     mixing
     Exchange-correlation= BEEF-VDW
                           (   1   4  43  14   2   0   0)

     celldm(1)=   1.889726  celldm(2)=   0.000000  celldm(3)=   0.000000
     celldm(4)=   0.000000  celldm(5)=   0.000000  celldm(6)=   0.000000

     crystal axes: (cart. coord. in units of alat)
               a(1) = (   6.579727   0.000000   0.000000 )
               a(2) = (  -0.000775   5.961596   0.000000 )
               a(3) = (   0.000000   0.000000  25.155947 )

     reciprocal axes: (cart. coord. in units 2 pi/alat)
               b(1) = (  0.151982  0.000020  0.000000 )
               b(2) = (  0.000000  0.167740  0.000000 )
               b(3) = (  0.000000  0.000000  0.039752 )

     PseudoPot. # 1 for O  read from file:
     /storage/coda1/p-amedford6/0/shared/rich_project_chbe-medford/medford-share/data/pseudos_module/espresso/nninc/pbe/van/O.UPF
     MD5 check sum: 78c19812648e8988a0fe644b0f25305e
     Pseudo is Ultrasoft, Zval =  6.0
     Generated by new atomic code, or converted to UPF format
     Using radial grid of  737 points,  4 beta functions with:
                l(1) =   0
                l(2) =   0
                l(3) =   1
                l(4) =   1
     Q(r) pseudized with  8 coefficients,  rinner =    0.800   0.800   0.800

     PseudoPot. # 2 for Ti read from file:
     /storage/coda1/p-amedford6/0/shared/rich_project_chbe-medford/medford-share/data/pseudos_module/espresso/nninc/pbe/van/Ti.UPF
     MD5 check sum: 8e4df49b7f0d34bbd5052bf3f5ea0213
     Pseudo is Ultrasoft, Zval = 12.0
     Generated by new atomic code, or converted to UPF format
     Using radial grid of  851 points,  6 beta functions with:
                l(1) =   0
                l(2) =   0
                l(3) =   1
                l(4) =   1
                l(5) =   2
                l(6) =   2
     Q(r) pseudized with  8 coefficients,  rinner =    1.000   1.000   1.000
                                                       1.000   1.000

     PseudoPot. # 3 for C  read from file:
     /storage/coda1/p-amedford6/0/shared/rich_project_chbe-medford/medford-share/data/pseudos_module/espresso/nninc/pbe/van/C.UPF
     MD5 check sum: 1a69bf6b8db32088f5b2163dbdb77a27
     Pseudo is Ultrasoft, Zval =  4.0
     Generated by new atomic code, or converted to UPF format
     Using radial grid of  721 points,  4 beta functions with:
                l(1) =   0
                l(2) =   0
                l(3) =   1
                l(4) =   1
     Q(r) pseudized with  8 coefficients,  rinner =    0.800   0.800   0.800

     PseudoPot. # 4 for H  read from file:
     /storage/coda1/p-amedford6/0/shared/rich_project_chbe-medford/medford-share/data/pseudos_module/espresso/nninc/pbe/van/H.UPF
     MD5 check sum: b5ee9d7bfd3a09ee7748110bda690ff7
     Pseudo is Ultrasoft, Zval =  1.0
     Generated by new atomic code, or converted to UPF format
     Using radial grid of  615 points,  1 beta functions with:
                l(1) =   0
     Q(r) pseudized with  8 coefficients,  rinner =    0.800

     atomic species   valence    mass     pseudopotential
        O1             6.00    15.99900     O ( 1.00)
        Ti1           12.00    47.86700     Ti( 1.00)
        C1             4.00    12.01100     C ( 1.00)
        H1             1.00     1.00800     H ( 1.00)

     No symmetry found

   Cartesian axes

     site n.     atom                  positions (alat units)
         1           O1  tau(   1) = (   3.2904802   0.0005063   4.7018136  )
         2           O1  tau(   2) = (   3.2900926   2.9813045   4.7018136  )
         3           Ti1 tau(   3) = (   0.0004258   2.9801865   6.0000000  )
         4           Ti1 tau(   4) = (   0.0000382   5.9609847   6.0000000  )
         5           Ti1 tau(   5) = (   3.2906075   1.4906267   6.0002472  )
         6           Ti1 tau(   6) = (   3.2902200   4.4714249   6.0002472  )
         7           O1  tau(   7) = (   1.3043587   1.4918075   6.0039043  )
         8           O1  tau(   8) = (   1.3039711   4.4726057   6.0039043  )
         9           O1  tau(   9) = (   5.2767064   1.4903225   6.0039473  )
        10           O1  tau(  10) = (   5.2763189   4.4711207   6.0039473  )
        11           O1  tau(  11) = (   3.2906025   0.0005020   7.3038282  )
        12           O1  tau(  12) = (   3.2902150   2.9813002   7.3038282  )
        13           O1  tau(  13) = (   0.0006271   0.0005054   7.9858123  )
        14           O1  tau(  14) = (   0.0002396   2.9813036   7.9858123  )
        15           Ti1 tau(  15) = (   3.3026304   0.0558743   9.1529855  )
        16           Ti1 tau(  16) = (   3.3164045   3.0327615   9.1572159  )
        17           Ti1 tau(  17) = (   0.0278175   4.5359734   9.2551557  )
        18           Ti1 tau(  18) = (   0.0245227   1.6138560   9.3625275  )
        19           O1  tau(  19) = (   4.5942328   1.4918067   9.2879030  )
        20           O1  tau(  20) = (   4.5938453   4.4726049   9.2879030  )
        21           O1  tau(  21) = (   1.9868534   1.4903216   9.2879459  )
        22           O1  tau(  22) = (   1.9864658   4.4711199   9.2879459  )
        23           O1  tau(  23) = (   0.0082563   0.0105963  10.6032901  )
        24           O1  tau(  24) = (   0.0079484   2.9900140  10.5841352  )
        25           O1  tau(  25) = (   3.3038251   2.9929121  11.3473413  )
        26           O1  tau(  26) = (   3.3033308   0.0102956  11.3494618  )
        27           Ti1 tau(  27) = (   0.0317432   0.0173395  12.5007832  )
        28           Ti1 tau(  28) = (   3.3306627   4.4867663  12.4909107  )
        29           Ti1 tau(  29) = (   3.3307827   1.5098530  12.4883691  )
        30           Ti1 tau(  30) = (   0.0330478   2.9976760  12.7859357  )
        31           O1  tau(  31) = (   1.3012438   4.4818129  12.6408784  )
        32           O1  tau(  32) = (   1.3024292   1.5014896  12.6394904  )
        33           O1  tau(  33) = (   5.3013637   4.4812751  12.6442516  )
        34           O1  tau(  34) = (   5.3009141   1.5012301  12.6421300  )
        35           O1  tau(  35) = (   3.3022887   2.9886358  13.9251823  )
        36           O1  tau(  36) = (   3.3062039   0.0095056  13.9482717  )
        37           O1  tau(  37) = (   0.0260699   0.0177473  14.6866479  )
        38           O1  tau(  38) = (   0.0273203   2.9953000  14.7270975  )
        39           Ti1 tau(  39) = (   3.3120190   2.9903054  15.7171600  )
        40           Ti1 tau(  40) = (   3.3230935   0.0106652  15.7391692  )
        41           Ti1 tau(  41) = (   0.0328368   4.5824378  15.9539421  )
        42           Ti1 tau(  42) = (   0.0326753   1.3890416  16.0019494  )
        43           O1  tau(  43) = (   4.5622593   4.4711273  16.0916796  )
        44           O1  tau(  44) = (   4.5612194   1.5125715  16.1009491  )
        45           O1  tau(  45) = (   2.0595944   1.5153445  16.1103626  )
        46           O1  tau(  46) = (   2.0577381   4.4687033  16.1006481  )
        47           O1  tau(  47) = (   0.0167757   0.0040543  17.2075325  )
        48           O1  tau(  48) = (   6.5679879   3.0050237  17.4360139  )
        49           C1  tau(  49) = (   6.3840651   3.0748419  18.6981053  )
        50           H1  tau(  50) = (   6.2909919   4.0539401  19.1613311  )
        51           H1  tau(  51) = (   6.3054763   2.1576074  19.2739789  )

     number of k points=    10  Fermi-Dirac smearing, width (Ry)=  0.0073
                       cart. coord. in units 2pi/alat
        k(    1) = (   0.0000000   0.0000000   0.0000000), wk =   0.1250000
        k(    2) = (   0.0000000   0.0419351   0.0000000), wk =   0.2500000
        k(    3) = (   0.0000000  -0.0838702   0.0000000), wk =   0.1250000
        k(    4) = (   0.0379955   0.0000049   0.0000000), wk =   0.2500000
        k(    5) = (   0.0379955   0.0419400   0.0000000), wk =   0.2500000
        k(    6) = (   0.0379955  -0.0838652   0.0000000), wk =   0.2500000
        k(    7) = (   0.0379955  -0.0419301   0.0000000), wk =   0.2500000
        k(    8) = (  -0.0759910  -0.0000099   0.0000000), wk =   0.1250000
        k(    9) = (  -0.0759910   0.0419252   0.0000000), wk =   0.2500000
        k(   10) = (  -0.0759910  -0.0838800   0.0000000), wk =   0.1250000

     Initial potential from superposition of free atoms

     starting charge  373.99919, renormalised to  390.00000

     negative rho (up, down):  1.845E-02 0.000E+00

     %%%%%%%%%%%%%%%%%%%%%%%%%%%%%%%%%%%%%%%%%%%%%%%%%%%%%%%%%%%%%%%%%%%%%%%%
     %                                                                      %
     % You are using vdW-DF, which was implemented by the Thonhauser group. %
     % Please cite the following two papers that made this development      %
     % possible and the two reviews that describe the various versions:     %
     %                                                                      %
     %   T. Thonhauser et al., PRL 115, 136402 (2015).                      %
     %   T. Thonhauser et al., PRB 76, 125112 (2007).                       %
     %   K. Berland et al., Rep. Prog. Phys. 78, 066501 (2015).             %
     %   D.C. Langreth et al., J. Phys.: Condens. Matter 21, 084203 (2009). %
     %                                                                      %
     %                                                                      %
     % If you are calculating the stress with vdW-DF, please also cite:     %
     %                                                                      %
     %   R. Sabatini et al., J. Phys.: Condens. Matter 24, 424209 (2012).   %
     %                                                                      %
     %%%%%%%%%%%%%%%%%%%%%%%%%%%%%%%%%%%%%%%%%%%%%%%%%%%%%%%%%%%%%%%%%%%%%%%%

     Adding external electric field

     Computed dipole along edir(3) :
        Dipole               -5.1802 Ry au,        -13.1669 Debye
        Dipole field         -0.0098 Ry au,

        Potential amp.        0.9062 Ry
        Total length         46.3494 bohr

     Starting wfcs are  294 atomic wfcs
  @ DRIVER MODE: Message from server: STATUS
  @ DRIVER MODE: Message from server: POSDATA
  @ DRIVER MODE: Reading and sharing cell
  @ DRIVER MODE: Reading and sharing positions
  @ DRIVER MODE: Received positions

     Self-consistent Calculation

     iteration #  1     ecut=    29.40 Ry     beta= 0.05
     Davidson diagonalization with overlap
     c_bands:  5 eigenvalues not converged
     c_bands:  4 eigenvalues not converged
     c_bands:  2 eigenvalues not converged
     c_bands:  1 eigenvalues not converged
     c_bands:  2 eigenvalues not converged
     c_bands:  5 eigenvalues not converged
     c_bands:  2 eigenvalues not converged
     c_bands:  3 eigenvalues not converged
     c_bands:  2 eigenvalues not converged
     ethr =  1.00E-05,  avg # of iterations = 20.9

[...]

     total energy              =   -2823.06424679 Ry
     estimated scf accuracy    <    1181.41423583 Ry

     iteration #  2     ecut=    29.40 Ry     beta= 0.05
     Davidson diagonalization with overlap
     ethr =  1.00E-02,  avg # of iterations = 17.0

[...]

     iteration # 74     ecut=    29.40 Ry     beta= 0.05
     Davidson diagonalization with overlap
     c_bands:  1 eigenvalues not converged
     c_bands:  1 eigenvalues not converged
     c_bands:  1 eigenvalues not converged
     ethr =  3.31E-11,  avg # of iterations = 18.5

[...]

     total energy              =   -2930.16727379 Ry
     estimated scf accuracy    <       0.00000007 Ry

     iteration # 76     ecut=    29.40 Ry     beta= 0.05
     Davidson diagonalization with overlap
     ethr =  1.91E-11,  avg # of iterations = 11.2

     negative rho (up, down):  1.727E-02 0.000E+00

     Adding external electric field

     Computed dipole along edir(3) :
        Dipole                0.9316 Ry au,          2.3678 Debye
        Dipole field          0.0018 Ry au,

        Potential amp.       -0.1630 Ry
        Total length         46.3494 bohr

     End of self-consistent calculation

          k = 0.0000 0.0000 0.0000 ( 18029 PWs)   bands (ev):

   -55.8211 -55.8096 -55.7848 -55.7734 -55.7119 -55.6974 -55.6749 -55.6025
   -55.6009 -55.5900 -55.5798 -55.5564 -55.5251 -55.4870 -54.8477 -54.8136
   -32.3794 -32.2936 -32.1882 -32.1714 -32.1270 -32.1227 -32.1157 -32.0968
   -32.0695 -32.0523 -32.0502 -32.0241 -31.9943 -31.9911 -31.9798 -31.9579
   -31.9418 -31.9413 -31.9318 -31.9154 -31.8932 -31.8869 -31.8844 -31.8723
   -31.8635 -31.8462 -31.8444 -31.8211 -31.8158 -31.8152 -31.7901 -31.7622
   -31.7566 -31.7343 -31.7338 -31.7309 -31.7092 -31.7089 -31.6949 -31.6781
   -31.6758 -31.6752 -31.2578 -31.1599 -31.1377 -31.0744 -30.9884 -30.8772
   -19.8411 -16.5910 -16.2969 -16.1508 -16.0168 -15.9676 -15.8524 -15.6947
   -15.6159 -15.5496 -15.4940 -15.4415 -15.4042 -15.4030 -15.3736 -15.3602
   -15.3545 -15.3469 -15.2727 -15.2707 -15.2362 -15.2184 -15.2075 -15.1185
   -15.0580 -14.9978 -14.9513 -14.8929 -14.8396 -14.8260 -13.3481 -13.2296
    -9.2965  -5.5385  -5.5195  -3.9401  -3.7634  -3.7241  -3.7084  -3.6514
    -3.5298  -3.4235  -3.3965  -3.1062  -3.0185  -2.9886  -2.9779  -2.9651
    -2.8230  -2.7797  -2.6655  -2.6625  -2.6509  -2.6461  -2.6261  -2.5906
    -2.5836  -2.5394  -2.5168  -2.4078  -2.3678  -2.2582  -2.2446  -2.2155
    -2.1565  -2.1315  -2.1007  -2.0875  -2.0580  -2.0541  -2.0517  -2.0068
    -1.9062  -1.8184  -1.7507  -1.6689  -1.6306  -1.5383  -1.3794  -1.3100
    -1.2692  -1.2341  -1.1845  -1.1655  -1.1353  -1.1134  -1.0908  -1.0813
    -0.9843  -0.8722  -0.8620  -0.7635  -0.7031  -0.6846  -0.6694  -0.5786
    -0.5600  -0.5493  -0.4558  -0.3142  -0.3045  -0.3004  -0.1817  -0.1507
    -0.1277  -0.0828  -0.0579  -0.0234   0.0073   0.0624   0.1068   0.1173
     0.1641   0.1818   0.2073   0.3086   0.3610   0.3727   0.4268   0.4638
     0.6452   0.6657   0.8070   0.8726   1.0790   1.1772   1.2325   1.3460
     1.7649   1.8227   3.3443   3.3758   3.4007   3.4505   3.4967   3.5385
     3.5917   3.7867   3.8040   3.8127   3.8377

[...]

          k = 0.0380-0.0419 0.0000 ( 17876 PWs)   bands (ev):

[...]

          k =-0.0760-0.0000 0.0000 ( 17886 PWs)   bands (ev):

[...]

          k =-0.0760-0.0839 0.0000 ( 17948 PWs)   bands (ev):

   -55.8093 -55.7965 -55.7917 -55.7910 -55.7023 -55.6941 -55.6845 -55.6056
   -55.5976 -55.5760 -55.5736 -55.5709 -55.5312 -55.4895 -54.8312 -54.8299
   -32.1808 -32.1806 -32.1171 -32.1035 -32.1021 -32.0967 -32.0822 -32.0770
   -32.0626 -32.0337 -32.0256 -32.0108 -31.9946 -31.9578 -31.9466 -31.9380
   -31.9365 -31.9337 -31.9255 -31.9219 -31.9050 -31.9021 -31.8984 -31.8974
   -31.8945 -31.8913 -31.8795 -31.8566 -31.8292 -31.8283 -31.8276 -31.8059
   -31.8009 -31.7833 -31.7802 -31.7740 -31.7710 -31.7700 -31.7435 -31.7167
   -31.7096 -31.6846 -31.1511 -31.1496 -31.0712 -31.0702 -31.0319 -31.0309
   -19.8333 -16.0230 -15.9924 -15.8757 -15.7627 -15.7497 -15.7070 -15.6641
   -15.6162 -15.5578 -15.5549 -15.5069 -15.4878 -15.4837 -15.4391 -15.4063
   -15.3583 -15.3522 -15.3410 -15.3400 -15.2862 -15.2826 -15.2359 -15.2286
   -15.2078 -15.1688 -15.1654 -15.0951 -15.0605 -15.0049 -13.3320 -13.3298
    -9.2975  -5.5171  -5.5007  -3.5560  -3.3118  -3.2783  -3.1085  -2.9804
    -2.9706  -2.9121  -2.8283  -2.7910  -2.7462  -2.6964  -2.6932  -2.6713
    -2.6590  -2.6451  -2.6412  -2.6330  -2.5875  -2.5678  -2.5263  -2.4825
    -2.4745  -2.4612  -2.4554  -2.4153  -2.3994  -2.3878  -2.3805  -2.3746
    -2.3033  -2.2275  -2.1559  -2.0808  -2.0278  -2.0079  -1.9766  -1.9420
    -1.9071  -1.8900  -1.8730  -1.7489  -1.7261  -1.5776  -1.5617  -1.5388
    -1.5299  -1.4762  -1.4693  -1.3480  -1.2714  -1.2653  -1.1957  -1.1758
    -1.1471  -1.0985  -1.0762  -0.9963  -0.9540  -0.9112  -0.8572  -0.7967
    -0.7849  -0.7188  -0.7085  -0.6278  -0.6072  -0.5858  -0.5811  -0.5106
    -0.4766  -0.3973  -0.3863  -0.3634  -0.2627  -0.1973  -0.1924   0.0026
     0.1743   0.1791   0.1989   0.2987   0.3292   0.3722   0.4281   0.4437
     0.5304   0.5850   0.6760   0.6961   0.7049   0.7857   1.5359   1.5370
     1.6281   1.6386   3.2986   3.5633   3.6004   3.6043   3.6648   3.8180
     3.8211   3.8382   3.8475   3.9796   4.0016

     the Fermi energy is     3.3295 ev

!    total energy              =   -2930.16728602 Ry
     estimated scf accuracy    <       0.00000006 Ry
     smearing contrib. (-TS)   =      -0.03342839 Ry
     internal energy E=F+TS    =   -2930.13385764 Ry

     The total energy is F=E-TS. E is the sum of the following terms:
     one-electron contribution =  -24668.11696168 Ry
     hartree contribution      =   12419.51113358 Ry
     xc contribution           =    -481.26801266 Ry
     ewald contribution        =    9799.73834548 Ry
     electric field correction =       0.00163765 Ry

     convergence has been achieved in  76 iterations

     Forces acting on atoms (cartesian axes, Ry/au):

     atom    1 type  1   force =    -0.00010030    0.00004920    0.10427598
     atom    2 type  1   force =    -0.00009519    0.00005074    0.10433536
     atom    3 type  2   force =    -0.00025379   -0.00195908    0.10280764
     atom    4 type  2   force =    -0.00014978    0.00159310    0.11372466
     atom    5 type  2   force =    -0.00032904    0.00058411   -0.18044262
     atom    6 type  2   force =    -0.00019942   -0.00014038   -0.18078834
     atom    7 type  1   force =    -0.06898177    0.00062790   -0.02908873
     atom    8 type  1   force =    -0.06850547   -0.00120565   -0.02913134
     atom    9 type  1   force =     0.06861818    0.00111739   -0.02916646
     atom   10 type  1   force =     0.06823572   -0.00080833   -0.02922096
     atom   11 type  1   force =     0.00037518    0.00051131    0.04558938
     atom   12 type  1   force =     0.00056912    0.00076136    0.04712560
     atom   13 type  1   force =     0.00028180   -0.00577510   -0.03304900
     atom   14 type  1   force =     0.00033301    0.00397740   -0.02582854
     atom   15 type  2   force =     0.00003111   -0.00027837    0.00028419
     atom   16 type  2   force =     0.00013396    0.00013389   -0.00006471
     atom   17 type  2   force =    -0.00022183   -0.00067576    0.00127668
     atom   18 type  2   force =    -0.00028328   -0.00035645    0.00065055
     atom   19 type  1   force =    -0.01791430    0.00015074    0.00393922
     atom   20 type  1   force =    -0.01643091    0.00130277    0.00321022
     atom   21 type  1   force =     0.01954798   -0.00097794    0.00433466
     atom   22 type  1   force =     0.01780841    0.00103104    0.00344172
     atom   23 type  1   force =    -0.00014317   -0.00026398    0.00012735
     atom   24 type  1   force =    -0.00022468    0.00003540   -0.00000281
     atom   25 type  1   force =    -0.00002709   -0.00010532   -0.00088407
     atom   26 type  1   force =    -0.00011577    0.00023416   -0.00017153
     atom   27 type  2   force =    -0.00004576   -0.00075839   -0.00092312
     atom   28 type  2   force =     0.00014564    0.00068010    0.00012311
     atom   29 type  2   force =     0.00009265   -0.00089010    0.00049606
     atom   30 type  2   force =    -0.00025207    0.00136958   -0.00047051
     atom   31 type  1   force =    -0.00020160   -0.00033408    0.00040544
     atom   32 type  1   force =    -0.00024787    0.00035824    0.00000742
     atom   33 type  1   force =    -0.00000241   -0.00038421    0.00050953
     atom   34 type  1   force =     0.00020659    0.00042966    0.00022534
     atom   35 type  1   force =     0.00014875   -0.00004989   -0.00138332
     atom   36 type  1   force =    -0.00006801    0.00032320   -0.00012998
     atom   37 type  1   force =    -0.00075815    0.00011255    0.00041914
     atom   38 type  1   force =     0.00006803   -0.00023265   -0.00059618
     atom   39 type  2   force =    -0.00079874    0.00065611    0.00129563
     atom   40 type  2   force =    -0.00105298   -0.00006470    0.00039909
     atom   41 type  2   force =     0.00058505   -0.00090391   -0.00064685
     atom   42 type  2   force =     0.00079630    0.00100580   -0.00065271
     atom   43 type  1   force =    -0.00034549    0.00022177    0.00055707
     atom   44 type  1   force =     0.00055312    0.00016245    0.00053883
     atom   45 type  1   force =    -0.00061070   -0.00005718    0.00037289
     atom   46 type  1   force =     0.00017320    0.00014899    0.00054505
     atom   47 type  1   force =    -0.00045739    0.00079956    0.00147647
     atom   48 type  1   force =    -0.00026865    0.00009715    0.00125284
     atom   49 type  3   force =    -0.00131344    0.00033320   -0.00002494
     atom   50 type  4   force =     0.00104054   -0.00170677   -0.00044845
     atom   51 type  4   force =     0.00065468   -0.00093063   -0.00063195

     Total force =     0.374469     Total SCF correction =     0.000564
  @ DRIVER MODE: Message from server: STATUS
  @ DRIVER MODE: Message from server: GETFORCE
  @ DRIVER MODE: Returning v,forces,stress,ensemble

     Writing output data file ./calc.save/
  @ DRIVER MODE: Message from server: EXIT
  @ DRIVE MODE: Exiting

     General routines

     Parallel routines

   This run was terminated on:  22:28: 2  10Sep2021

   JOB DONE.