     Program PWSCF v.6.7GPU starts on 23Aug2021 at 18:16:10

     R & G space division:  proc/nbgrp/npool/nimage =       6
     Reading input from /storage/home/hcoda1/3/ntian30/research/carbon/CH2_vib/ads_slab/CH2NNHHH_a/out_0011/pw.inp
Warning: card &CELL ignored
Warning: card   CELL_DYNAMICS='IPI', ignored
Warning: card / ignored

     Current dimensions of program PWSCF are:
     Max number of different atomic species (ntypx) = 10
     Max number of k-points (npk) =  40000
     Max angular momentum in pseudopotentials (lmaxx) =  3
     Presently no symmetry can be used with electric field

     Message from routine cell_base_init:
     DEPRECATED: use true lattice parameter, not A to a.u. conversion factor

     IMPORTANT: XC functional enforced from input :
     Exchange-correlation= BEEF-VDW
                           (   1   4  43  14   2   0   0)
     Any further DFT definition will be discarded
     Please, verify this is what you really want

  @ DRIVER MODE: Connecting to
 qe_1139763_2632806.sched-torque.pace.gatech.edurz0_pxn1_scratch
  using UNIX socket
  @ DRIVER MODE: Message from server: STATUS
  @ DRIVER MODE: Message from server: INIT
  @ DRIVER MODE: Receiving replica           0          -1
  @ DRIVER MODE: Receiving encoded integer          25
  @ DRIVER MODE:  SCF:  T  FORCE:  T  STRESS:  F  VC:  F  ENSEMBLE:  F
  @ DRIVER MODE:  SCF:  T  FORCE:  T  STRESS:  F  VC:  F  ENSEMBLE:  F

     Using Slab Decomposition

     bravais-lattice index     =            0
     lattice parameter (alat)  =       1.8897  a.u.
     unit-cell volume          =    6658.9804 (a.u.)^3
     number of atoms/cell      =           55
     number of atomic types    =            5
     number of electrons       =       397.00
     number of Kohn-Sham states=          208
     kinetic-energy cutoff     =      29.3995  Ry
     charge density cutoff     =     293.9946  Ry
     scf convergence threshold =      7.3E-08
     mixing beta               =       0.0500
     number of iterations used =            8  plain     mixing
     Exchange-correlation= BEEF-VDW
                           (   1   4  43  14   2   0   0)

     celldm(1)=   1.889726  celldm(2)=   0.000000  celldm(3)=   0.000000
     celldm(4)=   0.000000  celldm(5)=   0.000000  celldm(6)=   0.000000

     crystal axes: (cart. coord. in units of alat)
               a(1) = (   6.579727   0.000000   0.000000 )
               a(2) = (  -0.000775   5.961596   0.000000 )
               a(3) = (   0.000000   0.000000  25.155947 )

     reciprocal axes: (cart. coord. in units 2 pi/alat)
               b(1) = (  0.151982  0.000020  0.000000 )
               b(2) = (  0.000000  0.167740  0.000000 )
               b(3) = (  0.000000  0.000000  0.039752 )

     PseudoPot. # 1 for Ti read from file:
     /storage/coda1/p-amedford6/0/shared/rich_project_chbe-medford/medford-share/data/pseudos_module/espresso/nninc/pbe/van/Ti.UPF
     MD5 check sum: 8e4df49b7f0d34bbd5052bf3f5ea0213
     Pseudo is Ultrasoft, Zval = 12.0
     Generated by new atomic code, or converted to UPF format
     Using radial grid of  851 points,  6 beta functions with:
                l(1) =   0
                l(2) =   0
                l(3) =   1
                l(4) =   1
                l(5) =   2
                l(6) =   2
     Q(r) pseudized with  8 coefficients,  rinner =    1.000   1.000   1.000
                                                       1.000   1.000

     PseudoPot. # 2 for O  read from file:
     /storage/coda1/p-amedford6/0/shared/rich_project_chbe-medford/medford-share/data/pseudos_module/espresso/nninc/pbe/van/O.UPF
     MD5 check sum: 78c19812648e8988a0fe644b0f25305e
     Pseudo is Ultrasoft, Zval =  6.0
     Generated by new atomic code, or converted to UPF format
     Using radial grid of  737 points,  4 beta functions with:
                l(1) =   0
                l(2) =   0
                l(3) =   1
                l(4) =   1
     Q(r) pseudized with  8 coefficients,  rinner =    0.800   0.800   0.800

     PseudoPot. # 3 for N  read from file:
     /storage/coda1/p-amedford6/0/shared/rich_project_chbe-medford/medford-share/data/pseudos_module/espresso/nninc/pbe/van/N.UPF
     MD5 check sum: 90d10febe142ad51ac9d5be1deb811c4
     Pseudo is Ultrasoft, Zval =  5.0
     Generated by new atomic code, or converted to UPF format
     Using radial grid of  729 points,  4 beta functions with:
                l(1) =   0
                l(2) =   0
                l(3) =   1
                l(4) =   1
     Q(r) pseudized with  8 coefficients,  rinner =    0.800   0.800   0.800

     PseudoPot. # 4 for C  read from file:
     /storage/coda1/p-amedford6/0/shared/rich_project_chbe-medford/medford-share/data/pseudos_module/espresso/nninc/pbe/van/C.UPF
     MD5 check sum: 1a69bf6b8db32088f5b2163dbdb77a27
     Pseudo is Ultrasoft, Zval =  4.0
     Generated by new atomic code, or converted to UPF format
     Using radial grid of  721 points,  4 beta functions with:
                l(1) =   0
                l(2) =   0
                l(3) =   1
                l(4) =   1
     Q(r) pseudized with  8 coefficients,  rinner =    0.800   0.800   0.800

     PseudoPot. # 5 for H  read from file:
     /storage/coda1/p-amedford6/0/shared/rich_project_chbe-medford/medford-share/data/pseudos_module/espresso/nninc/pbe/van/H.UPF
     MD5 check sum: b5ee9d7bfd3a09ee7748110bda690ff7
     Pseudo is Ultrasoft, Zval =  1.0
     Generated by new atomic code, or converted to UPF format
     Using radial grid of  615 points,  1 beta functions with:
                l(1) =   0
     Q(r) pseudized with  8 coefficients,  rinner =    0.800

     atomic species   valence    mass     pseudopotential
        Ti1           12.00    47.86700     Ti( 1.00)
        O1             6.00    15.99900     O ( 1.00)
        N1             5.00    14.00700     N ( 1.00)
        C1             4.00    12.01100     C ( 1.00)
        H1             1.00     1.00800     H ( 1.00)

     No symmetry found

   Cartesian axes

     site n.     atom                  positions (alat units)
         1           Ti1 tau(   1) = (   0.0004258   2.9801865   6.0000000  )
         2           Ti1 tau(   2) = (   3.2906075   1.4906267   6.0002472  )
         3           O1  tau(   3) = (   0.0006271   0.0005054   7.9858123  )
         4           O1  tau(   4) = (   3.2906025   0.0005020   7.3038282  )
         5           O1  tau(   5) = (   4.5942328   1.4918067   9.2879030  )
         6           O1  tau(   6) = (   1.9868534   1.4903216   9.2879459  )
         7           Ti1 tau(   7) = (   3.2907910   2.8959150   9.1758416  )
         8           Ti1 tau(   8) = (   0.0015273   1.4827037   9.2680791  )
         9           O1  tau(   9) = (   3.2797308   5.9473376  11.3602069  )
        10           O1  tau(  10) = (   0.0116148   5.9584955  10.6183126  )
        11           O1  tau(  11) = (   1.2902197   1.4970218  12.6485984  )
        12           O1  tau(  12) = (   5.2825647   1.4998509  12.6204812  )
        13           Ti1 tau(  13) = (   6.5707130   2.9731531  12.5352273  )
        14           Ti1 tau(  14) = (   3.2824754   1.4851695  12.4964603  )
        15           O1  tau(  15) = (   6.5335774   0.0914421  14.6722524  )
        16           O1  tau(  16) = (   3.3157438   0.0180770  13.9903400  )
        17           O1  tau(  17) = (   4.5084513   1.5196572  16.2619966  )
        18           O1  tau(  18) = (   2.0062152   1.4815140  16.1839734  )
        19           Ti1 tau(  19) = (   3.2259906   2.9465836  15.7211513  )
        20           Ti1 tau(  20) = (   6.5090593   1.4075841  16.1508600  )
        21           O1  tau(  21) = (   3.2904802   0.0005063   4.7018136  )
        22           O1  tau(  22) = (   6.5630310   5.8123487  17.2302531  )
        23           O1  tau(  23) = (   1.3043587   1.4918075   6.0039043  )
        24           O1  tau(  24) = (   5.2767064   1.4903225   6.0039473  )
        25           Ti1 tau(  25) = (   0.0000382   5.9609847   6.0000000  )
        26           Ti1 tau(  26) = (   3.2902200   4.4714249   6.0002472  )
        27           O1  tau(  27) = (   0.0002396   2.9813036   7.9858123  )
        28           O1  tau(  28) = (   3.2902150   2.9813002   7.3038282  )
        29           O1  tau(  29) = (   4.5938453   4.4726049   9.2879030  )
        30           O1  tau(  30) = (   1.9864658   4.4711199   9.2879459  )
        31           Ti1 tau(  31) = (   3.2891106   5.8743827   9.1763621  )
        32           Ti1 tau(  32) = (   0.0006254   4.4649316   9.2693709  )
        33           O1  tau(  33) = (   3.2783824   2.9878764  11.3535400  )
        34           O1  tau(  34) = (   0.0092240   2.9805883  10.6323155  )
        35           O1  tau(  35) = (   1.2857266   4.4729298  12.7006550  )
        36           O1  tau(  36) = (   5.2845514   4.4687958  12.6640455  )
        37           Ti1 tau(  37) = (   6.5734551   0.0101047  12.5124135  )
        38           Ti1 tau(  38) = (   3.2852174   4.4611384  12.5175569  )
        39           O1  tau(  39) = (   6.5279837   2.9480221  14.9030702  )
        40           O1  tau(  40) = (   3.2956390   2.9588503  13.9390168  )
        41           O1  tau(  41) = (   4.4992944   4.4159585  16.2207858  )
        42           O1  tau(  42) = (   2.0104883   4.4624356  16.0673450  )
        43           Ti1 tau(  43) = (   3.2790961   0.0058003  15.7788240  )
        44           Ti1 tau(  44) = (   0.0606790   4.6093333  15.7554573  )
        45           O1  tau(  45) = (   3.2900926   2.9813045   4.7018136  )
        46           O1  tau(  46) = (   1.3039711   4.4726057   6.0039043  )
        47           O1  tau(  47) = (   5.2763189   4.4711207   6.0039473  )
        48           N1  tau(  48) = (   0.0403274   2.7191540  18.0026804  )
        49           C1  tau(  49) = (   0.9398849   2.4944932  18.9564025  )
        50           H1  tau(  50) = (   0.9073005   3.0183022  19.9142263  )
        51           H1  tau(  51) = (   1.7098349   1.7704235  18.7615287  )
        52           N1  tau(  52) = (   5.5765855   3.6054979  18.4816711  )
        53           H1  tau(  53) = (   5.9881759   4.5320851  18.7147717  )
        54           H1  tau(  54) = (   4.9344470   3.8465857  17.6610935  )
        55           H1  tau(  55) = (   5.0674124   3.1947177  19.2767304  )

     number of k points=    10  Fermi-Dirac smearing, width (Ry)=  0.0073
                       cart. coord. in units 2pi/alat
        k(    1) = (   0.0000000   0.0000000   0.0000000), wk =   0.1250000
        k(    2) = (   0.0000000   0.0419351   0.0000000), wk =   0.2500000
        k(    3) = (   0.0000000  -0.0838702   0.0000000), wk =   0.1250000
        k(    4) = (   0.0379955   0.0000049   0.0000000), wk =   0.2500000
        k(    5) = (   0.0379955   0.0419400   0.0000000), wk =   0.2500000
        k(    6) = (   0.0379955  -0.0838652   0.0000000), wk =   0.2500000
        k(    7) = (   0.0379955  -0.0419301   0.0000000), wk =   0.2500000
        k(    8) = (  -0.0759910  -0.0000099   0.0000000), wk =   0.1250000
        k(    9) = (  -0.0759910   0.0419252   0.0000000), wk =   0.2500000
        k(   10) = (  -0.0759910  -0.0838800   0.0000000), wk =   0.1250000

     Initial potential from superposition of free atoms

     starting charge  380.99914, renormalised to  397.00000

     negative rho (up, down):  1.589E-02 0.000E+00

     %%%%%%%%%%%%%%%%%%%%%%%%%%%%%%%%%%%%%%%%%%%%%%%%%%%%%%%%%%%%%%%%%%%%%%%%
     %                                                                      %
     % You are using vdW-DF, which was implemented by the Thonhauser group. %
     % Please cite the following two papers that made this development      %
     % possible and the two reviews that describe the various versions:     %
     %                                                                      %
     %   T. Thonhauser et al., PRL 115, 136402 (2015).                      %
     %   T. Thonhauser et al., PRB 76, 125112 (2007).                       %
     %   K. Berland et al., Rep. Prog. Phys. 78, 066501 (2015).             %
     %   D.C. Langreth et al., J. Phys.: Condens. Matter 21, 084203 (2009). %
     %                                                                      %
     %                                                                      %
     % If you are calculating the stress with vdW-DF, please also cite:     %
     %                                                                      %
     %   R. Sabatini et al., J. Phys.: Condens. Matter 24, 424209 (2012).   %
     %                                                                      %
     %%%%%%%%%%%%%%%%%%%%%%%%%%%%%%%%%%%%%%%%%%%%%%%%%%%%%%%%%%%%%%%%%%%%%%%%

     Adding external electric field

     Computed dipole along edir(3) :
        Dipole              -10.3091 Ry au,        -26.2030 Debye
        Dipole field         -0.0195 Ry au,

        Potential amp.        1.8034 Ry
        Total length         46.3494 bohr

     Starting wfcs are  301 atomic wfcs
  @ DRIVER MODE: Message from server: STATUS
  @ DRIVER MODE: Message from server: POSDATA
  @ DRIVER MODE: Reading and sharing cell
  @ DRIVER MODE: Reading and sharing positions
  @ DRIVER MODE: Received positions

     Self-consistent Calculation

     iteration #  1     ecut=    29.40 Ry     beta= 0.05
     Davidson diagonalization with overlap
     c_bands:  3 eigenvalues not converged
     c_bands:  2 eigenvalues not converged
     c_bands:  3 eigenvalues not converged
     c_bands:  2 eigenvalues not converged
     c_bands:  3 eigenvalues not converged
     c_bands:  2 eigenvalues not converged
     c_bands:  3 eigenvalues not converged
     c_bands:  2 eigenvalues not converged
     c_bands:  2 eigenvalues not converged
     c_bands:  3 eigenvalues not converged
     ethr =  1.00E-05,  avg # of iterations = 20.0

[...]

     total energy              =   -2480.06893766 Ry
     estimated scf accuracy    <    5158.93072236 Ry

     iteration #  2     ecut=    29.40 Ry     beta= 0.05
     Davidson diagonalization with overlap
     ethr =  1.00E-02,  avg # of iterations = 22.1

[...]

     iteration # 76     ecut=    29.40 Ry     beta= 0.05
     Davidson diagonalization with overlap
     c_bands:  1 eigenvalues not converged
     ethr =  3.32E-11,  avg # of iterations = 11.0

[...]

     total energy              =   -2941.49067780 Ry
     estimated scf accuracy    <       0.00000012 Ry

     iteration # 77     ecut=    29.40 Ry     beta= 0.05
     Davidson diagonalization with overlap
     ethr =  3.13E-11,  avg # of iterations = 12.3

     negative rho (up, down):  1.339E-02 0.000E+00

     Adding external electric field

     Computed dipole along edir(3) :
        Dipole                1.3670 Ry au,          3.4746 Debye
        Dipole field          0.0026 Ry au,

        Potential amp.       -0.2391 Ry
        Total length         46.3494 bohr

     End of self-consistent calculation

          k = 0.0000 0.0000 0.0000 ( 18029 PWs)   bands (ev):

   -55.2783 -55.2396 -55.2394 -55.2055 -55.1541 -55.1522 -55.1156 -55.0889
   -55.0714 -55.0703 -55.0542 -55.0370 -54.9513 -54.7868 -54.2579 -54.2238
   -31.8506 -31.7303 -31.6406 -31.6056 -31.5787 -31.5760 -31.5734 -31.5293
   -31.5266 -31.4863 -31.4847 -31.4842 -31.4528 -31.4488 -31.4348 -31.4132
   -31.3982 -31.3933 -31.3889 -31.3878 -31.3518 -31.3466 -31.3329 -31.3195
   -31.2964 -31.2915 -31.2850 -31.2809 -31.2685 -31.2654 -31.2556 -31.2455
   -31.2389 -31.2341 -31.2039 -31.1992 -31.1923 -31.1800 -31.1437 -31.1008
   -31.0576 -30.9281 -30.6667 -30.5740 -30.5518 -30.4832 -30.3964 -30.2854
   -19.2591 -16.1209 -15.8597 -15.7315 -15.5391 -15.4726 -15.3773 -15.2404
   -15.1890 -15.1339 -15.0775 -15.0395 -15.0241 -14.9585 -14.9013 -14.8128
   -14.8110 -14.8022 -14.7846 -14.7739 -14.7688 -14.7065 -14.7047 -14.6767
   -14.6622 -14.6518 -14.5114 -14.4271 -14.3657 -14.3340 -14.0263 -12.7604
   -12.6431  -9.1552  -7.8183  -7.0849  -6.0200  -3.8638  -3.4581  -3.2852
    -3.2406  -3.1985  -3.1733  -3.0048  -2.9240  -2.6562  -2.5886  -2.5486
    -2.5011  -2.4897  -2.4643  -2.2939  -2.2622  -2.2232  -2.1861  -2.1625
    -2.1224  -2.0935  -2.0776  -2.0488  -2.0361  -2.0335  -1.8509  -1.7806
    -1.7575  -1.7032  -1.6855  -1.6640  -1.6064  -1.5769  -1.5642  -1.5616
    -1.5417  -1.5224  -1.4996  -1.4577  -1.3809  -1.2785  -1.2393  -1.2164
    -1.1054  -1.0398  -0.9101  -0.8701  -0.8538  -0.8263  -0.7544  -0.6900
    -0.6603  -0.6246  -0.4864  -0.4809  -0.3973  -0.3890  -0.3136  -0.2983
    -0.2560  -0.2130  -0.1013  -0.0653  -0.0438   0.0048   0.0694   0.0920
     0.1750   0.2288   0.2859   0.3000   0.3789   0.4182   0.4555   0.4789
     0.5635   0.6075   0.6671   0.6734   0.7101   0.7138   0.7376   0.8238
     0.8382   0.8585   0.8991   1.0681   1.2656   1.3206   1.3419   1.6747
     1.6939   1.7648   1.9501   2.3396   2.3871   3.8226   3.8880   3.9586
     3.9730   3.9828   4.0553   4.1022   4.2899   4.3191   4.3221   4.3418

[...]

          k = 0.0380-0.0419 0.0000 ( 17876 PWs)   bands (ev):

[...]

          k =-0.0760-0.0000 0.0000 ( 17886 PWs)   bands (ev):

[...]

          k =-0.0760-0.0839 0.0000 ( 17948 PWs)   bands (ev):

   -55.2662 -55.2513 -55.2226 -55.2223 -55.1504 -55.1404 -55.1274 -55.0750
   -55.0725 -55.0697 -55.0543 -55.0534 -54.9497 -54.7883 -54.2408 -54.2407
   -31.6601 -31.6472 -31.5736 -31.5456 -31.5453 -31.5418 -31.5147 -31.5146
   -31.4872 -31.4786 -31.4740 -31.4704 -31.4159 -31.4071 -31.4071 -31.4036
   -31.4015 -31.3972 -31.3907 -31.3759 -31.3633 -31.3528 -31.3485 -31.3419
   -31.3417 -31.3398 -31.3384 -31.3226 -31.3060 -31.3030 -31.2866 -31.2840
   -31.2790 -31.2774 -31.2771 -31.2467 -31.2346 -31.2332 -31.1611 -31.0875
   -31.0585 -31.0060 -30.5645 -30.5645 -30.4792 -30.4791 -30.4398 -30.4398
   -19.2554 -15.5865 -15.5100 -15.4551 -15.3674 -15.2858 -15.2656 -15.2562
   -15.2240 -15.1573 -15.1342 -15.0683 -15.0330 -14.9862 -14.9834 -14.9689
   -14.8836 -14.8643 -14.8493 -14.8451 -14.7839 -14.7825 -14.7555 -14.7331
   -14.7264 -14.7227 -14.6230 -14.6220 -14.4677 -14.4522 -14.2331 -12.7447
   -12.7447  -9.1422  -7.8282  -7.0690  -6.0308  -3.8866  -2.8470  -2.7604
    -2.6706  -2.5145  -2.4769  -2.4670  -2.4119  -2.3235  -2.2967  -2.2820
    -2.2624  -2.2543  -2.1821  -2.1772  -2.1330  -2.1107  -2.1002  -2.0940
    -2.0602  -2.0482  -2.0344  -1.9964  -1.9879  -1.9730  -1.9382  -1.9180
    -1.8939  -1.8663  -1.8519  -1.8223  -1.7001  -1.6716  -1.6258  -1.5642
    -1.5397  -1.4715  -1.4663  -1.3836  -1.3526  -1.3433  -1.3019  -1.2901
    -1.2841  -1.1050  -1.0600  -1.0241  -1.0116  -1.0063  -0.8511  -0.8340
    -0.7659  -0.7519  -0.7358  -0.6599  -0.6179  -0.6072  -0.5225  -0.4815
    -0.4525  -0.4311  -0.2885  -0.2786  -0.2520  -0.2353  -0.2293  -0.1366
    -0.1160  -0.0800  -0.0457  -0.0077   0.0088   0.0674   0.2187   0.2472
     0.2823   0.4267   0.4438   0.5276   0.5748   0.7032   0.7677   0.7704
     0.8521   0.9217   1.0237   1.0366   1.0527   1.1417   1.1879   1.1930
     1.1943   2.1229   2.1237   2.2071   2.2074   3.6999   3.9612   4.0842
     4.0904   4.1330   4.2547   4.3393   4.3625   4.4007   4.4030   4.4847

     the Fermi energy is     3.8776 ev

!    total energy              =   -2941.49068837 Ry
     estimated scf accuracy    <       0.00000005 Ry
     smearing contrib. (-TS)   =      -0.04236714 Ry
     internal energy E=F+TS    =   -2941.44832123 Ry

     The total energy is F=E-TS. E is the sum of the following terms:
     one-electron contribution =  -23924.02281615 Ry
     hartree contribution      =   12055.22777880 Ry
     xc contribution           =    -486.86310409 Ry
     ewald contribution        =    9414.20629369 Ry
     electric field correction =       0.00352652 Ry

     convergence has been achieved in  77 iterations

     Forces acting on atoms (cartesian axes, Ry/au):

     atom    1 type  1   force =     0.00016689   -0.00017007    0.09403979
     atom    2 type  1   force =    -0.00004703   -0.00043273   -0.17755161
     atom    3 type  2   force =     0.00006622   -0.00004546   -0.02099804
     atom    4 type  2   force =     0.00001733   -0.00180509    0.05732376
     atom    5 type  2   force =    -0.01085328   -0.00090585    0.00782752
     atom    6 type  2   force =     0.01206555   -0.00033716    0.00622433
     atom    7 type  1   force =    -0.00065205    0.00290436   -0.01527903
     atom    8 type  1   force =     0.00059035    0.00236731    0.00236670
     atom    9 type  2   force =    -0.00010325    0.00013387    0.00093848
     atom   10 type  2   force =    -0.00165319   -0.00049879   -0.00381162
     atom   11 type  2   force =    -0.00004216   -0.00023915    0.00021055
     atom   12 type  2   force =    -0.00019707   -0.00039872    0.00027922
     atom   13 type  1   force =     0.00042532    0.00109589    0.00055033
     atom   14 type  1   force =     0.00020486   -0.00061327    0.00033464
     atom   15 type  2   force =    -0.00016913    0.00038217    0.00055312
     atom   16 type  2   force =    -0.00016183   -0.00025409   -0.00115850
     atom   17 type  2   force =     0.00020203   -0.00020810    0.00034755
     atom   18 type  2   force =    -0.00096341   -0.00026907    0.00019520
     atom   19 type  1   force =    -0.00050286    0.00101030   -0.00067000
     atom   20 type  1   force =    -0.00051419    0.00097511   -0.00216366
     atom   21 type  2   force =     0.00010841   -0.00004330    0.10380361
     atom   22 type  2   force =     0.00007097    0.00020747    0.00110474
     atom   23 type  2   force =    -0.07066057   -0.00018215   -0.02707397
     atom   24 type  2   force =     0.07060585    0.00029304   -0.02711072
     atom   25 type  1   force =     0.00014691   -0.00025033    0.09337646
     atom   26 type  1   force =    -0.00001480   -0.00037273   -0.17777458
     atom   27 type  2   force =     0.00011041   -0.00040105   -0.02002224
     atom   28 type  2   force =     0.00003495   -0.00146673    0.05681215
     atom   29 type  2   force =    -0.01075821   -0.00066039    0.00674536
     atom   30 type  2   force =     0.01187746   -0.00016601    0.00510124
     atom   31 type  1   force =    -0.00063370    0.00409820   -0.01559527
     atom   32 type  1   force =     0.00067157   -0.00282588    0.00214232
     atom   33 type  2   force =     0.00015474   -0.00022084   -0.00057721
     atom   34 type  2   force =    -0.00109211    0.00272412   -0.00200789
     atom   35 type  2   force =     0.00009625    0.00020059    0.00009838
     atom   36 type  2   force =    -0.00033556    0.00033817   -0.00006934
     atom   37 type  1   force =     0.00046490   -0.00008255    0.00028427
     atom   38 type  1   force =     0.00009544    0.00088452    0.00011748
     atom   39 type  2   force =    -0.00002146   -0.00090850    0.00054029
     atom   40 type  2   force =    -0.00023428   -0.00042509    0.00063507
     atom   41 type  2   force =    -0.00012274   -0.00016460    0.00012821
     atom   42 type  2   force =    -0.00002332   -0.00005399    0.00039026
     atom   43 type  1   force =    -0.00000027   -0.00139452    0.00075019
     atom   44 type  1   force =    -0.00012685   -0.00079945   -0.00189846
     atom   45 type  2   force =     0.00009622   -0.00007912    0.10378508
     atom   46 type  2   force =    -0.07068455   -0.00009145   -0.02708265
     atom   47 type  2   force =     0.07063665    0.00029034   -0.02711945
     atom   48 type  3   force =    -0.00727730    0.00061559   -0.00895259
     atom   49 type  4   force =     0.00490232    0.00548544    0.02224423
     atom   50 type  5   force =     0.00110509   -0.00468047   -0.01019835
     atom   51 type  5   force =     0.00096559   -0.00129971   -0.00249161
     atom   52 type  3   force =     0.00045376    0.00016784    0.00060946
     atom   53 type  5   force =     0.00052965   -0.00138175   -0.00068136
     atom   54 type  5   force =     0.00034010   -0.00017165    0.00055806
     atom   55 type  5   force =     0.00063939    0.00012552   -0.00012990

     Total force =     0.366878     Total SCF correction =     0.000721
  @ DRIVER MODE: Message from server: STATUS
  @ DRIVER MODE: Message from server: GETFORCE
  @ DRIVER MODE: Returning v,forces,stress,ensemble

     Writing output data file ./calc.save/
  @ DRIVER MODE: Message from server: EXIT
  @ DRIVE MODE: Exiting

     General routines

     Parallel routines

   This run was terminated on:  18:47:54  23Aug2021

   JOB DONE.