     Program PWSCF v.6.7GPU starts on 24Sep2021 at  9:47:40

     R & G space division:  proc/nbgrp/npool/nimage =       8
     Reading input from /storage/home/hcoda1/3/ntian30/research/carbon/CxH_vib/H2O_calc/ads_slab/CH3NH2NHHO_c/out_0053/pw.inp
Warning: card &CELL ignored
Warning: card   CELL_DYNAMICS='IPI', ignored
Warning: card / ignored

     Current dimensions of program PWSCF are:
     Max number of different atomic species (ntypx) = 10
     Max number of k-points (npk) =  40000
     Max angular momentum in pseudopotentials (lmaxx) =  3
     Presently no symmetry can be used with electric field

     Message from routine cell_base_init:
     DEPRECATED: use true lattice parameter, not A to a.u. conversion factor

     IMPORTANT: XC functional enforced from input :
     Exchange-correlation= BEEF-VDW
                           (   1   4  43  14   2   0   0)
     Any further DFT definition will be discarded
     Please, verify this is what you really want

  @ DRIVER MODE: Connecting to
 qe_1139763_2947310.sched-torque.pace.gatech.edudth0vzob_scratch
  using UNIX socket
  @ DRIVER MODE: Message from server: STATUS
  @ DRIVER MODE: Message from server: INIT
  @ DRIVER MODE: Receiving replica           0          -1
  @ DRIVER MODE: Receiving encoded integer          25
  @ DRIVER MODE:  SCF:  T  FORCE:  T  STRESS:  F  VC:  F  ENSEMBLE:  F
  @ DRIVER MODE:  SCF:  T  FORCE:  T  STRESS:  F  VC:  F  ENSEMBLE:  F

     Using Slab Decomposition

     bravais-lattice index     =            0
     lattice parameter (alat)  =       1.8897  a.u.
     unit-cell volume          =    6658.9804 (a.u.)^3
     number of atoms/cell      =           58
     number of atomic types    =            5
     number of electrons       =       405.00
     number of Kohn-Sham states=          212
     kinetic-energy cutoff     =      29.3995  Ry
     charge density cutoff     =     293.9946  Ry
     scf convergence threshold =      7.3E-08
     mixing beta               =       0.0500
     number of iterations used =            8  plain     mixing
     Exchange-correlation= BEEF-VDW
                           (   1   4  43  14   2   0   0)

     celldm(1)=   1.889726  celldm(2)=   0.000000  celldm(3)=   0.000000
     celldm(4)=   0.000000  celldm(5)=   0.000000  celldm(6)=   0.000000

     crystal axes: (cart. coord. in units of alat)
               a(1) = (   6.579727   0.000000   0.000000 )
               a(2) = (  -0.000775   5.961596   0.000000 )
               a(3) = (   0.000000   0.000000  25.155947 )

     reciprocal axes: (cart. coord. in units 2 pi/alat)
               b(1) = (  0.151982  0.000020  0.000000 )
               b(2) = (  0.000000  0.167740  0.000000 )
               b(3) = (  0.000000  0.000000  0.039752 )

     PseudoPot. # 1 for Ti read from file:
     /storage/coda1/p-amedford6/0/shared/rich_project_chbe-medford/medford-share/data/pseudos_module/espresso/nninc/pbe/van/Ti.UPF
     MD5 check sum: 8e4df49b7f0d34bbd5052bf3f5ea0213
     Pseudo is Ultrasoft, Zval = 12.0
     Generated by new atomic code, or converted to UPF format
     Using radial grid of  851 points,  6 beta functions with:
                l(1) =   0
                l(2) =   0
                l(3) =   1
                l(4) =   1
                l(5) =   2
                l(6) =   2
     Q(r) pseudized with  8 coefficients,  rinner =    1.000   1.000   1.000
                                                       1.000   1.000

     PseudoPot. # 2 for O  read from file:
     /storage/coda1/p-amedford6/0/shared/rich_project_chbe-medford/medford-share/data/pseudos_module/espresso/nninc/pbe/van/O.UPF
     MD5 check sum: 78c19812648e8988a0fe644b0f25305e
     Pseudo is Ultrasoft, Zval =  6.0
     Generated by new atomic code, or converted to UPF format
     Using radial grid of  737 points,  4 beta functions with:
                l(1) =   0
                l(2) =   0
                l(3) =   1
                l(4) =   1
     Q(r) pseudized with  8 coefficients,  rinner =    0.800   0.800   0.800

     PseudoPot. # 3 for N  read from file:
     /storage/coda1/p-amedford6/0/shared/rich_project_chbe-medford/medford-share/data/pseudos_module/espresso/nninc/pbe/van/N.UPF
     MD5 check sum: 90d10febe142ad51ac9d5be1deb811c4
     Pseudo is Ultrasoft, Zval =  5.0
     Generated by new atomic code, or converted to UPF format
     Using radial grid of  729 points,  4 beta functions with:
                l(1) =   0
                l(2) =   0
                l(3) =   1
                l(4) =   1
     Q(r) pseudized with  8 coefficients,  rinner =    0.800   0.800   0.800

     PseudoPot. # 4 for C  read from file:
     /storage/coda1/p-amedford6/0/shared/rich_project_chbe-medford/medford-share/data/pseudos_module/espresso/nninc/pbe/van/C.UPF
     MD5 check sum: 1a69bf6b8db32088f5b2163dbdb77a27
     Pseudo is Ultrasoft, Zval =  4.0
     Generated by new atomic code, or converted to UPF format
     Using radial grid of  721 points,  4 beta functions with:
                l(1) =   0
                l(2) =   0
                l(3) =   1
                l(4) =   1
     Q(r) pseudized with  8 coefficients,  rinner =    0.800   0.800   0.800

     PseudoPot. # 5 for H  read from file:
     /storage/coda1/p-amedford6/0/shared/rich_project_chbe-medford/medford-share/data/pseudos_module/espresso/nninc/pbe/van/H.UPF
     MD5 check sum: b5ee9d7bfd3a09ee7748110bda690ff7
     Pseudo is Ultrasoft, Zval =  1.0
     Generated by new atomic code, or converted to UPF format
     Using radial grid of  615 points,  1 beta functions with:
                l(1) =   0
     Q(r) pseudized with  8 coefficients,  rinner =    0.800

     atomic species   valence    mass     pseudopotential
        Ti1           12.00    47.86700     Ti( 1.00)
        O1             6.00    15.99900     O ( 1.00)
        N1             5.00    14.00700     N ( 1.00)
        C1             4.00    12.01100     C ( 1.00)
        H1             1.00     1.00800     H ( 1.00)

     No symmetry found

   Cartesian axes

     site n.     atom                  positions (alat units)
         1           Ti1 tau(   1) = (   0.0004258   2.9801865   6.0000000  )
         2           Ti1 tau(   2) = (   3.2906075   1.4906267   6.0002472  )
         3           O1  tau(   3) = (   0.0006271   0.0005054   7.9858123  )
         4           O1  tau(   4) = (   3.2906025   0.0005020   7.3038282  )
         5           O1  tau(   5) = (   4.5942328   1.4918067   9.2879030  )
         6           O1  tau(   6) = (   1.9868534   1.4903216   9.2879459  )
         7           Ti1 tau(   7) = (   3.2907910   2.8959150   9.1758416  )
         8           Ti1 tau(   8) = (   0.0015273   1.4827037   9.2680791  )
         9           O1  tau(   9) = (   3.2766908   5.9368450  11.3531397  )
        10           O1  tau(  10) = (   0.0116148   5.9584955  10.6183126  )
        11           O1  tau(  11) = (   1.2656210   1.4746568  12.6519442  )
        12           O1  tau(  12) = (   5.2821112   1.4671822  12.6528637  )
        13           Ti1 tau(  13) = (   0.0097886   3.0246942  12.5604876  )
        14           Ti1 tau(  14) = (   3.2716845   1.2919425  12.6923688  )
        15           O1  tau(  15) = (   6.5701288   5.9533353  14.7096902  )
        16           O1  tau(  16) = (   3.2612835   0.0684280  14.0222998  )
        17           O1  tau(  17) = (   4.5366247   1.5847279  16.0182572  )
        18           O1  tau(  18) = (   1.9973522   1.5932486  16.1410213  )
        19           Ti1 tau(  19) = (   3.3011230   3.0369928  15.6528835  )
        20           Ti1 tau(  20) = (   6.4616919   1.5442775  15.7581475  )
        21           O1  tau(  21) = (   3.2904802   0.0005063   4.7018136  )
        22           O1  tau(  22) = (   6.5264998   0.0144113  17.2942622  )
        23           O1  tau(  23) = (   1.3043587   1.4918075   6.0039043  )
        24           O1  tau(  24) = (   5.2767064   1.4903225   6.0039473  )
        25           Ti1 tau(  25) = (   0.0000382   5.9609847   6.0000000  )
        26           Ti1 tau(  26) = (   3.2902200   4.4714249   6.0002472  )
        27           O1  tau(  27) = (   0.0002396   2.9813036   7.9858123  )
        28           O1  tau(  28) = (   3.2902150   2.9813002   7.3038282  )
        29           O1  tau(  29) = (   4.5938453   4.4726049   9.2879030  )
        30           O1  tau(  30) = (   1.9864658   4.4711199   9.2879459  )
        31           Ti1 tau(  31) = (   3.2891106   5.8743827   9.1763621  )
        32           Ti1 tau(  32) = (   0.0006254   4.4649316   9.2693709  )
        33           O1  tau(  33) = (   3.2807216   2.9716845  11.3098041  )
        34           O1  tau(  34) = (   0.0092240   2.9805883  10.6323155  )
        35           O1  tau(  35) = (   1.2724369   4.4570745  12.6376724  )
        36           O1  tau(  36) = (   5.2808598   4.4590940  12.6336130  )
        37           Ti1 tau(  37) = (   6.5522345   0.0346224  12.5198063  )
        38           Ti1 tau(  38) = (   3.2841791   4.3624788  12.4156291  )
        39           O1  tau(  39) = (   6.5678423   2.9906399  14.7075790  )
        40           O1  tau(  40) = (   3.2630306   2.9991211  13.8878987  )
        41           O1  tau(  41) = (   4.5399391   4.4365880  16.1202346  )
        42           O1  tau(  42) = (   1.9952260   4.4486394  16.1468368  )
        43           Ti1 tau(  43) = (   3.1909378   0.0332154  16.1742435  )
        44           Ti1 tau(  44) = (   6.5525253   4.6749982  16.1158565  )
        45           O1  tau(  45) = (   3.2900926   2.9813045   4.7018136  )
        46           O1  tau(  46) = (   1.3039711   4.4726057   6.0039043  )
        47           O1  tau(  47) = (   5.2763189   4.4711207   6.0039473  )
        48           N1  tau(  48) = (   0.9351815   2.3805788  18.4294677  )
        49           N1  tau(  49) = (   6.5001775   2.8750743  17.5309975  )
        50           C1  tau(  50) = (   1.3386797   3.2909482  19.5301671  )
        51           H1  tau(  51) = (   0.4734699   3.4817333  20.1622224  )
        52           H1  tau(  52) = (   2.1262835   2.8019037  20.1042238  )
        53           H1  tau(  53) = (   1.7016266   4.2178517  19.0939426  )
        54           H1  tau(  54) = (   0.6429753   1.4474929  18.7566963  )
        55           H1  tau(  55) = (   5.6191021   2.8022447  18.0351622  )
        56           H1  tau(  56) = (   1.7303324   2.1440475  17.7869061  )
        57           O1  tau(  57) = (   3.3671931   0.1367260  18.0860582  )
        58           H1  tau(  58) = (   4.3009782   5.9598238  18.3144400  )

     number of k points=    10  Fermi-Dirac smearing, width (Ry)=  0.0073
                       cart. coord. in units 2pi/alat
        k(    1) = (   0.0000000   0.0000000   0.0000000), wk =   0.1250000
        k(    2) = (   0.0000000   0.0419351   0.0000000), wk =   0.2500000
        k(    3) = (   0.0000000  -0.0838702   0.0000000), wk =   0.1250000
        k(    4) = (   0.0379955   0.0000049   0.0000000), wk =   0.2500000
        k(    5) = (   0.0379955   0.0419400   0.0000000), wk =   0.2500000
        k(    6) = (   0.0379955  -0.0838652   0.0000000), wk =   0.2500000
        k(    7) = (   0.0379955  -0.0419301   0.0000000), wk =   0.2500000
        k(    8) = (  -0.0759910  -0.0000099   0.0000000), wk =   0.1250000
        k(    9) = (  -0.0759910   0.0419252   0.0000000), wk =   0.2500000
        k(   10) = (  -0.0759910  -0.0838800   0.0000000), wk =   0.1250000

     Initial potential from superposition of free atoms

     starting charge  388.99913, renormalised to  405.00000

     negative rho (up, down):  1.469E-02 0.000E+00

     %%%%%%%%%%%%%%%%%%%%%%%%%%%%%%%%%%%%%%%%%%%%%%%%%%%%%%%%%%%%%%%%%%%%%%%%
     %                                                                      %
     % You are using vdW-DF, which was implemented by the Thonhauser group. %
     % Please cite the following two papers that made this development      %
     % possible and the two reviews that describe the various versions:     %
     %                                                                      %
     %   T. Thonhauser et al., PRL 115, 136402 (2015).                      %
     %   T. Thonhauser et al., PRB 76, 125112 (2007).                       %
     %   K. Berland et al., Rep. Prog. Phys. 78, 066501 (2015).             %
     %   D.C. Langreth et al., J. Phys.: Condens. Matter 21, 084203 (2009). %
     %                                                                      %
     %                                                                      %
     % If you are calculating the stress with vdW-DF, please also cite:     %
     %                                                                      %
     %   R. Sabatini et al., J. Phys.: Condens. Matter 24, 424209 (2012).   %
     %                                                                      %
     %%%%%%%%%%%%%%%%%%%%%%%%%%%%%%%%%%%%%%%%%%%%%%%%%%%%%%%%%%%%%%%%%%%%%%%%

     Adding external electric field

     Computed dipole along edir(3) :
        Dipole              -13.9950 Ry au,        -35.5717 Debye
        Dipole field         -0.0264 Ry au,

        Potential amp.        2.4482 Ry
        Total length         46.3494 bohr

     Starting wfcs are  307 atomic wfcs
  @ DRIVER MODE: Message from server: STATUS
  @ DRIVER MODE: Message from server: POSDATA
  @ DRIVER MODE: Reading and sharing cell
  @ DRIVER MODE: Reading and sharing positions
  @ DRIVER MODE: Received positions

     Self-consistent Calculation

     iteration #  1     ecut=    29.40 Ry     beta= 0.05
     Davidson diagonalization with overlap
     c_bands:  5 eigenvalues not converged
     c_bands:  5 eigenvalues not converged
     c_bands:  1 eigenvalues not converged
     c_bands:  2 eigenvalues not converged
     c_bands:  3 eigenvalues not converged
     ethr =  1.00E-05,  avg # of iterations = 28.6

[...]

     total energy              =   -2225.15086273 Ry
     estimated scf accuracy    <    8520.57994483 Ry

     iteration #  2     ecut=    29.40 Ry     beta= 0.05
     Davidson diagonalization with overlap
     ethr =  1.00E-02,  avg # of iterations = 24.8

[...]

     iteration # 58     ecut=    29.40 Ry     beta= 0.05
     Davidson diagonalization with overlap
     c_bands:  1 eigenvalues not converged
     ethr =  2.00E-08,  avg # of iterations = 13.6

[...]

     total energy              =   -2976.49319905 Ry
     estimated scf accuracy    <       0.00000009 Ry

     iteration # 82     ecut=    29.40 Ry     beta= 0.05
     Davidson diagonalization with overlap
     ethr =  2.30E-11,  avg # of iterations =  3.9

     negative rho (up, down):  1.567E-02 0.000E+00

     Adding external electric field

     Computed dipole along edir(3) :
        Dipole                1.4964 Ry au,          3.8035 Debye
        Dipole field          0.0028 Ry au,

        Potential amp.       -0.2618 Ry
        Total length         46.3494 bohr

     End of self-consistent calculation

          k = 0.0000 0.0000 0.0000 ( 18029 PWs)   bands (ev):

   -55.3020 -55.1776 -55.1436 -55.0078 -54.9984 -54.9950 -54.9729 -54.9648
   -54.9346 -54.8859 -54.8539 -54.8176 -54.7946 -54.7540 -54.1413 -54.1073
   -31.6604 -31.6299 -31.5485 -31.4997 -31.4973 -31.4926 -31.4698 -31.4513
   -31.4233 -31.4186 -31.3744 -31.3373 -31.3299 -31.2824 -31.2695 -31.2622
   -31.2555 -31.2350 -31.2201 -31.2035 -31.1888 -31.1863 -31.1759 -31.1724
   -31.1535 -31.1306 -31.1283 -31.1246 -31.1148 -31.1070 -31.1010 -31.0805
   -31.0710 -31.0589 -31.0413 -31.0282 -31.0271 -31.0154 -31.0123 -31.0098
   -30.9832 -30.9438 -30.5470 -30.4617 -30.4392 -30.3646 -30.2782 -30.1665
   -18.8453 -16.0455 -15.8101 -15.6595 -15.4919 -15.3455 -15.2590 -15.0595
   -14.9435 -14.9102 -14.8853 -14.8115 -14.7095 -14.7088 -14.6649 -14.6377
   -14.6332 -14.6047 -14.5932 -14.5913 -14.5743 -14.5244 -14.5095 -14.4646
   -14.4585 -14.4189 -14.3069 -14.2374 -14.1929 -14.1207 -14.0008 -13.0706
   -12.6403 -12.5242 -10.7644  -7.5564  -6.2183  -5.5647  -3.7319  -3.6199
    -3.4410  -3.1689  -3.1015  -3.0754  -3.0484  -2.8951  -2.7701  -2.5894
    -2.4763  -2.4341  -2.3170  -2.2993  -2.2173  -2.1694  -2.1252  -2.0768
    -2.0474  -1.9818  -1.9643  -1.9599  -1.9315  -1.8650  -1.8371  -1.7220
    -1.6930  -1.6297  -1.5714  -1.5005  -1.4857  -1.4789  -1.4720  -1.4607
    -1.4320  -1.4170  -1.3850  -1.3442  -1.2639  -1.2105  -1.2037  -1.1623
    -1.0797  -0.8946  -0.7721  -0.7493  -0.6896  -0.6461  -0.5950  -0.5828
    -0.5595  -0.5201  -0.4143  -0.4012  -0.3384  -0.3097  -0.2460  -0.1962
    -0.1687  -0.1033  -0.0432   0.0453   0.0659   0.0827   0.1238   0.1716
     0.2424   0.2779   0.3179   0.3481   0.4370   0.4896   0.5494   0.5567
     0.5894   0.6622   0.7177   0.7651   0.7857   0.8049   0.8561   0.8717
     0.9157   0.9710   1.0115   1.0273   1.0977   1.1559   1.2042   1.2363
     1.3347   1.3545   1.5091   1.5643   1.8321   1.8845   1.9522   2.0781
     2.4510   2.4958   3.9309   4.0513   4.0624   4.0851   4.1641   4.2270
     4.3945   4.4011   4.5132   4.6140

[...]

          k = 0.0380-0.0419 0.0000 ( 17876 PWs)   bands (ev):

[...]

          k =-0.0760-0.0000 0.0000 ( 17886 PWs)   bands (ev):

[...]

          k =-0.0760-0.0839 0.0000 ( 17948 PWs)   bands (ev):

   -55.3012 -55.1611 -55.1600 -54.9956 -54.9917 -54.9889 -54.9824 -54.9804
   -54.9278 -54.8927 -54.8436 -54.8278 -54.7874 -54.7611 -54.1247 -54.1238
   -31.5631 -31.5398 -31.4940 -31.4761 -31.4754 -31.4557 -31.4547 -31.4182
   -31.3181 -31.3113 -31.3064 -31.3043 -31.2991 -31.2807 -31.2796 -31.2707
   -31.2704 -31.2493 -31.2468 -31.2184 -31.2056 -31.2019 -31.2014 -31.1947
   -31.1802 -31.1699 -31.1617 -31.1566 -31.1539 -31.1491 -31.1446 -31.1255
   -31.1140 -31.0923 -31.0759 -31.0713 -31.0355 -31.0342 -31.0216 -31.0198
   -31.0132 -30.9958 -30.4523 -30.4516 -30.3605 -30.3594 -30.3218 -30.3211
   -18.8410 -16.0104 -15.3787 -15.1740 -15.1113 -15.0902 -15.0740 -15.0395
   -15.0097 -14.9569 -14.9370 -14.8789 -14.8482 -14.8354 -14.7637 -14.7480
   -14.6926 -14.6632 -14.6506 -14.6110 -14.6063 -14.5840 -14.5517 -14.5431
   -14.4778 -14.4639 -14.4605 -14.3681 -14.3587 -14.2385 -14.1867 -13.0813
   -12.6264 -12.6258 -10.7666  -7.5675  -6.2042  -5.5542  -3.6705  -3.6386
    -3.3962  -2.5900  -2.4511  -2.4374  -2.3063  -2.2923  -2.1967  -2.1500
    -2.0968  -2.0789  -2.0572  -2.0378  -2.0071  -1.9744  -1.9578  -1.9505
    -1.9221  -1.9001  -1.8753  -1.8692  -1.8335  -1.8286  -1.8072  -1.7842
    -1.7740  -1.7388  -1.7256  -1.7215  -1.7073  -1.6539  -1.6352  -1.4744
    -1.4414  -1.3507  -1.3173  -1.2938  -1.2846  -1.2590  -1.2417  -1.2210
    -1.1657  -1.1125  -1.0524  -0.9247  -0.8796  -0.8156  -0.7799  -0.7015
    -0.6611  -0.6274  -0.5988  -0.5751  -0.5418  -0.4843  -0.4079  -0.3527
    -0.3069  -0.2662  -0.1685  -0.1492  -0.1270  -0.1157  -0.0821  -0.0230
    -0.0161   0.0395   0.0585   0.1223   0.1368   0.1524   0.1708   0.2546
     0.3480   0.4287   0.4529   0.5444   0.5613   0.6516   0.6986   0.7976
     0.9117   0.9571   0.9964   1.0061   1.0897   1.0954   1.1509   1.1737
     1.2570   1.3451   1.4092   1.4175   1.4374   1.4913   2.2474   2.2560
     2.3160   2.3163   4.1824   4.3440   4.4240   4.4357   4.4676   4.4786
     4.5109   4.5135   4.5991   4.6084

     the Fermi energy is     3.9501 ev

!    total energy              =   -2976.49320719 Ry
     estimated scf accuracy    <       0.00000005 Ry
     smearing contrib. (-TS)   =      -0.02056705 Ry
     internal energy E=F+TS    =   -2976.47264015 Ry

     The total energy is F=E-TS. E is the sum of the following terms:
     one-electron contribution =  -23617.48513632 Ry
     hartree contribution      =   11908.44641600 Ry
     xc contribution           =    -495.76359364 Ry
     ewald contribution        =    9228.32544815 Ry
     electric field correction =       0.00422567 Ry

     convergence has been achieved in  82 iterations

     Forces acting on atoms (cartesian axes, Ry/au):

     atom    1 type  1   force =     0.00014207   -0.00013479    0.09534118
     atom    2 type  1   force =    -0.00002737    0.00040110   -0.17475902
     atom    3 type  2   force =     0.00004048   -0.00018359   -0.02257843
     atom    4 type  2   force =     0.00001486   -0.00200471    0.05319894
     atom    5 type  2   force =    -0.00814600   -0.00302611    0.00228110
     atom    6 type  2   force =     0.00924215   -0.00232127    0.00057630
     atom    7 type  1   force =    -0.00078964   -0.00509866    0.00571677
     atom    8 type  1   force =     0.00083697    0.00657146    0.01469091
     atom    9 type  2   force =     0.00011467    0.00043698    0.00073747
     atom   10 type  2   force =    -0.00346364    0.00091763   -0.01235282
     atom   11 type  2   force =     0.00001083   -0.00055554    0.00029134
     atom   12 type  2   force =     0.00005466   -0.00043030    0.00023378
     atom   13 type  1   force =     0.00093482    0.00088498    0.00013935
     atom   14 type  1   force =    -0.00018097    0.00012127   -0.00047204
     atom   15 type  2   force =     0.00019577   -0.00074290   -0.00081184
     atom   16 type  2   force =     0.00009199   -0.00010841    0.00096614
     atom   17 type  2   force =    -0.00012936    0.00014348   -0.00012132
     atom   18 type  2   force =    -0.00034771    0.00065790    0.00047128
     atom   19 type  1   force =     0.00058611    0.00032003   -0.00016568
     atom   20 type  1   force =    -0.00028184    0.00008337   -0.00013608
     atom   21 type  2   force =     0.00009234    0.00000034    0.10301736
     atom   22 type  2   force =     0.00011421    0.00017248    0.00045070
     atom   23 type  2   force =    -0.07211674   -0.00022243   -0.02757737
     atom   24 type  2   force =     0.07207249    0.00026391   -0.02759602
     atom   25 type  1   force =     0.00015775   -0.00028633    0.09517960
     atom   26 type  1   force =     0.00001316   -0.00123774   -0.17524059
     atom   27 type  2   force =    -0.00000459    0.00008407   -0.02154233
     atom   28 type  2   force =     0.00005361   -0.00043490    0.04877604
     atom   29 type  2   force =    -0.00786582    0.00198195    0.00252385
     atom   30 type  2   force =     0.00889200    0.00234067    0.00070210
     atom   31 type  1   force =    -0.00069504    0.00833777   -0.00445883
     atom   32 type  1   force =     0.00106160   -0.00751267    0.01447102
     atom   33 type  2   force =     0.00012474    0.00021999   -0.00000769
     atom   34 type  2   force =    -0.00269811   -0.00027653   -0.01822827
     atom   35 type  2   force =    -0.00054426    0.00026714    0.00008197
     atom   36 type  2   force =     0.00070708    0.00039784    0.00024181
     atom   37 type  1   force =     0.00017346   -0.00037223    0.00027294
     atom   38 type  1   force =    -0.00006674   -0.00005075   -0.00076632
     atom   39 type  2   force =     0.00031896    0.00031186   -0.00020821
     atom   40 type  2   force =     0.00021950   -0.00000664    0.00075136
     atom   41 type  2   force =    -0.00032091   -0.00034660   -0.00008154
     atom   42 type  2   force =     0.00046769   -0.00020463    0.00043510
     atom   43 type  1   force =     0.00037199   -0.00026789   -0.00007721
     atom   44 type  1   force =     0.00027107   -0.00022614    0.00021069
     atom   45 type  2   force =     0.00008995   -0.00009749    0.10283051
     atom   46 type  2   force =    -0.07216158   -0.00003656   -0.02760645
     atom   47 type  2   force =     0.07210731    0.00036179   -0.02761118
     atom   48 type  3   force =     0.00488803   -0.00083709   -0.00498844
     atom   49 type  3   force =    -0.00150647    0.00058851    0.00002244
     atom   50 type  4   force =     0.00045797    0.00044629   -0.00023239
     atom   51 type  5   force =     0.00017192    0.00041715   -0.00022601
     atom   52 type  5   force =    -0.00027864   -0.00019854   -0.00052616
     atom   53 type  5   force =     0.00042618    0.00016340   -0.00017624
     atom   54 type  5   force =     0.00029694   -0.00030486   -0.00023954
     atom   55 type  5   force =    -0.00042820   -0.00020319   -0.00021308
     atom   56 type  5   force =    -0.00432973    0.00085982    0.00475883
     atom   57 type  2   force =     0.00019956   -0.00057932   -0.00051552
     atom   58 type  5   force =     0.00036845    0.00055561    0.00014573

     Total force =     0.363651     Total SCF correction =     0.000764
  @ DRIVER MODE: Message from server: STATUS
  @ DRIVER MODE: Message from server: GETFORCE
  @ DRIVER MODE: Returning v,forces,stress,ensemble

     Writing output data file ./calc.save/
  @ DRIVER MODE: Message from server: EXIT
  @ DRIVE MODE: Exiting

     General routines

     Parallel routines

   This run was terminated on:  10:18:10  24Sep2021

   JOB DONE.