     Program PWSCF v.6.7GPU starts on 21Jul2021 at  6:59:16

     R & G space division:  proc/nbgrp/npool/nimage =      16
     Reading input from /storage/home/hcoda1/3/ntian30/research/carbon/15Jul_vib/ads_slab/CH3NHH_a/out_0028/pw.inp
Warning: card &CELL ignored
Warning: card   CELL_DYNAMICS='IPI', ignored
Warning: card / ignored

     Current dimensions of program PWSCF are:
     Max number of different atomic species (ntypx) = 10
     Max number of k-points (npk) =  40000
     Max angular momentum in pseudopotentials (lmaxx) =  3
     Presently no symmetry can be used with electric field

     Message from routine cell_base_init:
     DEPRECATED: use true lattice parameter, not A to a.u. conversion factor

     IMPORTANT: XC functional enforced from input :
     Exchange-correlation= BEEF-VDW
                           (   1   4  43  14   2   0   0)
     Any further DFT definition will be discarded
     Please, verify this is what you really want

  @ DRIVER MODE: Connecting to
 qe_1139763_2382402.sched-torque.pace.gatech.eduziiecpty_scratch
  using UNIX socket
  @ DRIVER MODE: Message from server: STATUS
  @ DRIVER MODE: Message from server: INIT
  @ DRIVER MODE: Receiving replica           0          -1
  @ DRIVER MODE: Receiving encoded integer          25
  @ DRIVER MODE:  SCF:  T  FORCE:  T  STRESS:  F  VC:  F  ENSEMBLE:  F
  @ DRIVER MODE:  SCF:  T  FORCE:  T  STRESS:  F  VC:  F  ENSEMBLE:  F

     Using Slab Decomposition

     bravais-lattice index     =            0
     lattice parameter (alat)  =       1.8897  a.u.
     unit-cell volume          =    6658.9804 (a.u.)^3
     number of atoms/cell      =           54
     number of atomic types    =            5
     number of electrons       =       392.00
     number of Kohn-Sham states=          206
     kinetic-energy cutoff     =      29.3995  Ry
     charge density cutoff     =     293.9946  Ry
     scf convergence threshold =      7.3E-08
     mixing beta               =       0.0500
     number of iterations used =            8  plain     mixing
     Exchange-correlation= BEEF-VDW
                           (   1   4  43  14   2   0   0)

     celldm(1)=   1.889726  celldm(2)=   0.000000  celldm(3)=   0.000000
     celldm(4)=   0.000000  celldm(5)=   0.000000  celldm(6)=   0.000000

     crystal axes: (cart. coord. in units of alat)
               a(1) = (   6.579727   0.000000   0.000000 )
               a(2) = (  -0.000775   5.961596   0.000000 )
               a(3) = (   0.000000   0.000000  25.155947 )

     reciprocal axes: (cart. coord. in units 2 pi/alat)
               b(1) = (  0.151982  0.000020  0.000000 )
               b(2) = (  0.000000  0.167740  0.000000 )
               b(3) = (  0.000000  0.000000  0.039752 )

     PseudoPot. # 1 for Ti read from file:
     /storage/coda1/p-amedford6/0/shared/rich_project_chbe-medford/medford-share/data/pseudos_module/espresso/nninc/pbe/van/Ti.UPF
     MD5 check sum: 8e4df49b7f0d34bbd5052bf3f5ea0213
     Pseudo is Ultrasoft, Zval = 12.0
     Generated by new atomic code, or converted to UPF format
     Using radial grid of  851 points,  6 beta functions with:
                l(1) =   0
                l(2) =   0
                l(3) =   1
                l(4) =   1
                l(5) =   2
                l(6) =   2
     Q(r) pseudized with  8 coefficients,  rinner =    1.000   1.000   1.000
                                                       1.000   1.000

     PseudoPot. # 2 for O  read from file:
     /storage/coda1/p-amedford6/0/shared/rich_project_chbe-medford/medford-share/data/pseudos_module/espresso/nninc/pbe/van/O.UPF
     MD5 check sum: 78c19812648e8988a0fe644b0f25305e
     Pseudo is Ultrasoft, Zval =  6.0
     Generated by new atomic code, or converted to UPF format
     Using radial grid of  737 points,  4 beta functions with:
                l(1) =   0
                l(2) =   0
                l(3) =   1
                l(4) =   1
     Q(r) pseudized with  8 coefficients,  rinner =    0.800   0.800   0.800

     PseudoPot. # 3 for N  read from file:
     /storage/coda1/p-amedford6/0/shared/rich_project_chbe-medford/medford-share/data/pseudos_module/espresso/nninc/pbe/van/N.UPF
     MD5 check sum: 90d10febe142ad51ac9d5be1deb811c4
     Pseudo is Ultrasoft, Zval =  5.0
     Generated by new atomic code, or converted to UPF format
     Using radial grid of  729 points,  4 beta functions with:
                l(1) =   0
                l(2) =   0
                l(3) =   1
                l(4) =   1
     Q(r) pseudized with  8 coefficients,  rinner =    0.800   0.800   0.800

     PseudoPot. # 4 for C  read from file:
     /storage/coda1/p-amedford6/0/shared/rich_project_chbe-medford/medford-share/data/pseudos_module/espresso/nninc/pbe/van/C.UPF
     MD5 check sum: 1a69bf6b8db32088f5b2163dbdb77a27
     Pseudo is Ultrasoft, Zval =  4.0
     Generated by new atomic code, or converted to UPF format
     Using radial grid of  721 points,  4 beta functions with:
                l(1) =   0
                l(2) =   0
                l(3) =   1
                l(4) =   1
     Q(r) pseudized with  8 coefficients,  rinner =    0.800   0.800   0.800

     PseudoPot. # 5 for H  read from file:
     /storage/coda1/p-amedford6/0/shared/rich_project_chbe-medford/medford-share/data/pseudos_module/espresso/nninc/pbe/van/H.UPF
     MD5 check sum: b5ee9d7bfd3a09ee7748110bda690ff7
     Pseudo is Ultrasoft, Zval =  1.0
     Generated by new atomic code, or converted to UPF format
     Using radial grid of  615 points,  1 beta functions with:
                l(1) =   0
     Q(r) pseudized with  8 coefficients,  rinner =    0.800

     atomic species   valence    mass     pseudopotential
        Ti1           12.00    47.86700     Ti( 1.00)
        O1             6.00    15.99900     O ( 1.00)
        N1             5.00    14.00700     N ( 1.00)
        C1             4.00    12.01100     C ( 1.00)
        H1             1.00     1.00800     H ( 1.00)

     Starting magnetic structure
     atomic species   magnetization
        Ti1          0.000
        O1           0.000
        N1           0.000
        C1           0.025
        H1           0.000

     No symmetry found

   Cartesian axes

     site n.     atom                  positions (alat units)
         1           Ti1 tau(   1) = (   0.0004258   2.9801865   6.0000000  )
         2           Ti1 tau(   2) = (   3.2906075   1.4906267   6.0002472  )
         3           O1  tau(   3) = (   0.0006271   0.0005054   7.9858123  )
         4           O1  tau(   4) = (   3.2906025   0.0005020   7.3038282  )
         5           O1  tau(   5) = (   4.5942328   1.4918067   9.2879030  )
         6           O1  tau(   6) = (   1.9868534   1.4903216   9.2879459  )
         7           Ti1 tau(   7) = (   3.2907910   2.8959150   9.1758416  )
         8           Ti1 tau(   8) = (   0.0015273   1.4827037   9.2680791  )
         9           O1  tau(   9) = (   3.2893523   5.9576907  11.3759447  )
        10           O1  tau(  10) = (   0.0116148   5.9584955  10.6183126  )
        11           O1  tau(  11) = (   1.2892553   1.4862333  12.6941169  )
        12           O1  tau(  12) = (   5.2958346   1.4833122  12.6807028  )
        13           Ti1 tau(  13) = (   0.0095698   2.9692159  12.5083673  )
        14           Ti1 tau(  14) = (   3.3108451   1.4743585  12.5306019  )
        15           O1  tau(  15) = (   6.5736105   5.8801748  14.6991865  )
        16           O1  tau(  16) = (   3.2979610   5.9450902  14.0010558  )
        17           O1  tau(  17) = (   4.5273680   1.5185660  16.1654609  )
        18           O1  tau(  18) = (   2.0122787   1.5163527  16.1384539  )
        19           Ti1 tau(  19) = (   3.2802752   2.9921964  15.7561315  )
        20           Ti1 tau(  20) = (   0.0093588   1.3049760  15.8672178  )
        21           O1  tau(  21) = (   3.2904802   0.0005063   4.7018136  )
        22           O1  tau(  22) = (   6.5538635   0.1342075  17.2452287  )
        23           O1  tau(  23) = (   1.3043587   1.4918075   6.0039043  )
        24           O1  tau(  24) = (   5.2767064   1.4903225   6.0039473  )
        25           Ti1 tau(  25) = (   0.0000382   5.9609847   6.0000000  )
        26           Ti1 tau(  26) = (   3.2902200   4.4714249   6.0002472  )
        27           O1  tau(  27) = (   0.0002396   2.9813036   7.9858123  )
        28           O1  tau(  28) = (   3.2902150   2.9813002   7.3038282  )
        29           O1  tau(  29) = (   4.5938453   4.4726049   9.2879030  )
        30           O1  tau(  30) = (   1.9864658   4.4711199   9.2879459  )
        31           Ti1 tau(  31) = (   3.2891106   5.8743827   9.1763621  )
        32           Ti1 tau(  32) = (   0.0006254   4.4649316   9.2693709  )
        33           O1  tau(  33) = (   3.2933707   2.9638296  11.3700534  )
        34           O1  tau(  34) = (   0.0092240   2.9805883  10.6323155  )
        35           O1  tau(  35) = (   1.2923283   4.4540072  12.6594629  )
        36           O1  tau(  36) = (   5.2938616   4.4568750  12.6477176  )
        37           Ti1 tau(  37) = (   0.0202681   5.9396231  12.5027719  )
        38           Ti1 tau(  38) = (   3.3116628   4.4527548  12.5215617  )
        39           O1  tau(  39) = (   6.5466975   3.0260875  14.9671898  )
        40           O1  tau(  40) = (   3.2966604   2.9917109  13.9679302  )
        41           O1  tau(  41) = (   4.5116687   4.4737236  16.2360857  )
        42           O1  tau(  42) = (   2.0028912   4.4646324  16.2202640  )
        43           Ti1 tau(  43) = (   3.2937213   0.0113368  15.7972781  )
        44           Ti1 tau(  44) = (   0.0208052   4.5175143  16.0574476  )
        45           O1  tau(  45) = (   3.2900926   2.9813045   4.7018136  )
        46           O1  tau(  46) = (   1.3039711   4.4726057   6.0039043  )
        47           O1  tau(  47) = (   5.2763189   4.4711207   6.0039473  )
        48           N1  tau(  48) = (   6.3337458   3.3624127  18.1270434  )
        49           C1  tau(  49) = (   0.8795605   3.2639204  19.0799812  )
        50           H1  tau(  50) = (   1.4196110   4.2071110  19.0760701  )
        51           H1  tau(  51) = (   0.5395241   3.0459488  20.0957609  )
        52           H1  tau(  52) = (   1.5475163   2.4796122  18.7548312  )
        53           H1  tau(  53) = (   5.6940081   4.0973896  18.4182617  )
        54           H1  tau(  54) = (   5.7906660   2.4998151  18.1411682  )

     number of k points=    10  Fermi-Dirac smearing, width (Ry)=  0.0073
                       cart. coord. in units 2pi/alat
        k(    1) = (   0.0000000   0.0000000   0.0000000), wk =   0.0625000
        k(    2) = (   0.0000000   0.0419351   0.0000000), wk =   0.1250000
        k(    3) = (   0.0000000  -0.0838702   0.0000000), wk =   0.0625000
        k(    4) = (   0.0379955   0.0000049   0.0000000), wk =   0.1250000
        k(    5) = (   0.0379955   0.0419400   0.0000000), wk =   0.1250000
        k(    6) = (   0.0379955  -0.0838652   0.0000000), wk =   0.1250000
        k(    7) = (   0.0379955  -0.0419301   0.0000000), wk =   0.1250000
[...]
        k(   10) = (  -0.0759910  -0.0838800   0.0000000), wk =   0.0625000

     Initial potential from superposition of free atoms

     starting charge  375.99915, renormalised to  392.00000

     negative rho (up, down):  8.110E-03 8.117E-03

     %%%%%%%%%%%%%%%%%%%%%%%%%%%%%%%%%%%%%%%%%%%%%%%%%%%%%%%%%%%%%%%%%%%%%%%%
     %                                                                      %
     % You are using vdW-DF, which was implemented by the Thonhauser group. %
     % Please cite the following two papers that made this development      %
     % possible and the two reviews that describe the various versions:     %
     %                                                                      %
     %   T. Thonhauser et al., PRL 115, 136402 (2015).                      %
     %   T. Thonhauser et al., PRB 76, 125112 (2007).                       %
     %   K. Berland et al., Rep. Prog. Phys. 78, 066501 (2015).             %
     %   D.C. Langreth et al., J. Phys.: Condens. Matter 21, 084203 (2009). %
     %                                                                      %
     %                                                                      %
     % If you are calculating the stress with vdW-DF, please also cite:     %
     %                                                                      %
     %   R. Sabatini et al., J. Phys.: Condens. Matter 24, 424209 (2012).   %
     %                                                                      %
     %%%%%%%%%%%%%%%%%%%%%%%%%%%%%%%%%%%%%%%%%%%%%%%%%%%%%%%%%%%%%%%%%%%%%%%%

     Adding external electric field

     Computed dipole along edir(3) :
        Dipole               -7.5471 Ry au,        -19.1827 Debye
        Dipole field         -0.0142 Ry au,

        Potential amp.        1.3202 Ry
        Total length         46.3494 bohr

[...]

     Starting wfcs are  297 atomic wfcs
  @ DRIVER MODE: Message from server: STATUS
  @ DRIVER MODE: Message from server: POSDATA
  @ DRIVER MODE: Reading and sharing cell
  @ DRIVER MODE: Reading and sharing positions
  @ DRIVER MODE: Received positions

     Self-consistent Calculation

     iteration #  1     ecut=    29.40 Ry     beta= 0.05
     Davidson diagonalization with overlap
     c_bands:  1 eigenvalues not converged
     c_bands:  2 eigenvalues not converged
     c_bands:  1 eigenvalues not converged
     c_bands:  1 eigenvalues not converged
     c_bands:  1 eigenvalues not converged
     c_bands:  1 eigenvalues not converged
     c_bands:  1 eigenvalues not converged
     c_bands:  2 eigenvalues not converged
     c_bands:  1 eigenvalues not converged
     c_bands:  1 eigenvalues not converged
     c_bands:  1 eigenvalues not converged
     c_bands:  1 eigenvalues not converged
     ethr =  1.00E-05,  avg # of iterations = 19.6

[...]

     total energy              =   -2679.38573544 Ry
     estimated scf accuracy    <    2680.66970941 Ry

     total magnetization       =     0.00 Bohr mag/cell
     absolute magnetization    =     0.01 Bohr mag/cell

[...]

     iteration #  3     ecut=    29.40 Ry     beta= 0.05
     Davidson diagonalization with overlap
     ethr =  1.00E-02,  avg # of iterations = 14.6

[...]

     iteration # 59     ecut=    29.40 Ry     beta= 0.05
     Davidson diagonalization with overlap
     c_bands:  1 eigenvalues not converged
     c_bands:  1 eigenvalues not converged
     ethr =  3.81E-11,  avg # of iterations = 10.3

[...]

     total energy              =   -2921.63317122 Ry
     estimated scf accuracy    <       0.00000012 Ry

[...]

     iteration # 60     ecut=    29.40 Ry     beta= 0.05
     Davidson diagonalization with overlap
     ethr =  3.01E-11,  avg # of iterations =  8.8

     negative rho (up, down):  8.578E-03 8.578E-03

[...]

     Adding external electric field

     Computed dipole along edir(3) :
        Dipole                1.2974 Ry au,          3.2977 Debye
        Dipole field          0.0024 Ry au,

        Potential amp.       -0.2270 Ry
        Total length         46.3494 bohr

     Magnetic moment per site  (integrated on atomic sphere of radius R)
     atom   1 (R=0.738)  charge=  8.0426  magn= -0.0018
     atom   2 (R=0.738)  charge=  8.0243  magn= -0.0003
     atom   3 (R=0.738)  charge=  5.0120  magn=  0.0001
     atom   4 (R=0.738)  charge=  5.0490  magn=  0.0000
     atom   5 (R=0.738)  charge=  5.0183  magn=  0.0000
     atom   6 (R=0.738)  charge=  5.0186  magn= -0.0000
     atom   7 (R=0.738)  charge=  8.0244  magn= -0.0001
     atom   8 (R=0.738)  charge=  8.0255  magn=  0.0002
     atom   9 (R=0.738)  charge=  5.0260  magn= -0.0001
     atom  10 (R=0.738)  charge=  5.0261  magn= -0.0001
     atom  11 (R=0.738)  charge=  5.0131  magn= -0.0001
     atom  12 (R=0.738)  charge=  5.0142  magn= -0.0001
     atom  13 (R=0.738)  charge=  8.0323  magn=  0.0005
     atom  14 (R=0.738)  charge=  8.0300  magn=  0.0006
     atom  15 (R=0.738)  charge=  5.0263  magn= -0.0000
     atom  16 (R=0.738)  charge=  5.0222  magn= -0.0000
     atom  17 (R=0.738)  charge=  4.9995  magn=  0.0000
     atom  18 (R=0.738)  charge=  5.0035  magn=  0.0000
     atom  19 (R=0.738)  charge=  8.0638  magn= -0.0001
     atom  20 (R=0.738)  charge=  8.0765  magn= -0.0000
     atom  21 (R=0.738)  charge=  4.8972  magn=  0.0005
     atom  22 (R=0.738)  charge=  4.9759  magn= -0.0000
     atom  23 (R=0.738)  charge=  5.0093  magn=  0.0003
     atom  24 (R=0.738)  charge=  5.0094  magn=  0.0003
     atom  25 (R=0.738)  charge=  8.0426  magn= -0.0019
     atom  26 (R=0.738)  charge=  8.0244  magn= -0.0003
     atom  27 (R=0.738)  charge=  5.0118  magn=  0.0001
     atom  28 (R=0.738)  charge=  5.0493  magn=  0.0000
     atom  29 (R=0.738)  charge=  5.0191  magn=  0.0000
     atom  30 (R=0.738)  charge=  5.0194  magn=  0.0000
     atom  31 (R=0.738)  charge=  8.0246  magn= -0.0001
     atom  32 (R=0.738)  charge=  8.0257  magn=  0.0002
     atom  33 (R=0.738)  charge=  5.0254  magn= -0.0001
     atom  34 (R=0.738)  charge=  5.0228  magn= -0.0001
     atom  35 (R=0.738)  charge=  5.0162  magn= -0.0001
     atom  36 (R=0.738)  charge=  5.0179  magn= -0.0001
     atom  37 (R=0.738)  charge=  8.0280  magn=  0.0005
     atom  38 (R=0.738)  charge=  8.0303  magn=  0.0006
     atom  39 (R=0.738)  charge=  5.0062  magn= -0.0000
     atom  40 (R=0.738)  charge=  5.0343  magn= -0.0000
     atom  41 (R=0.738)  charge=  4.9974  magn=  0.0000
     atom  42 (R=0.738)  charge=  5.0021  magn=  0.0000
     atom  43 (R=0.738)  charge=  8.0613  magn= -0.0001
     atom  44 (R=0.738)  charge=  8.0414  magn= -0.0001
     atom  45 (R=0.738)  charge=  4.8972  magn=  0.0004
     atom  46 (R=0.738)  charge=  5.0093  magn=  0.0003
     atom  47 (R=0.738)  charge=  5.0095  magn=  0.0003
     atom  48 (R=0.420)  charge=  1.3384  magn= -0.0000
     atom  49 (R=0.446)  charge=  0.8317  magn=  0.0000
     atom  50 (R=0.420)  charge=  0.4444  magn= -0.0000
     atom  51 (R=0.420)  charge=  0.4452  magn= -0.0000
     atom  52 (R=0.420)  charge=  0.4488  magn= -0.0000
     atom  53 (R=0.420)  charge=  0.4504  magn=  0.0000
     atom  54 (R=0.420)  charge=  0.4502  magn=  0.0000

     End of self-consistent calculation

 ------ SPIN UP ------------

          k = 0.0000 0.0000 0.0000 ( 18029 PWs)   bands (ev):

   -55.4339 -55.3974 -55.3820 -55.3564 -55.3478 -55.3164 -55.3122 -55.2777
   -55.2525 -55.2371 -55.2180 -55.2148 -55.1812 -55.1156 -54.4130 -54.3789
   -32.0024 -31.8881 -31.8752 -31.8006 -31.7494 -31.7425 -31.7413 -31.7205
   -31.6747 -31.6705 -31.6443 -31.6425 -31.6266 -31.6182 -31.6038 -31.5991
   -31.5891 -31.5763 -31.5718 -31.5491 -31.5342 -31.5323 -31.5066 -31.4966
   -31.4898 -31.4855 -31.4832 -31.4550 -31.4429 -31.4387 -31.4334 -31.4151
   -31.4139 -31.4118 -31.4022 -31.3994 -31.3663 -31.3582 -31.3432 -31.3261
   -31.3220 -31.2989 -30.8222 -30.7280 -30.7059 -30.6385 -30.5517 -30.4409
   -16.2935 -16.1645 -15.9770 -15.8303 -15.7496 -15.6324 -15.5170 -15.5002
   -15.3641 -15.2822 -15.1629 -15.1379 -15.1187 -15.0958 -15.0845 -15.0682
   -14.9775 -14.9720 -14.9576 -14.9270 -14.9241 -14.8794 -14.8715 -14.8301
   -14.8099 -14.8077 -14.6835 -14.5923 -14.5198 -14.2804 -12.9167 -12.7992
   -10.2483  -6.2828  -4.8359  -3.9809  -3.6079  -3.4536  -3.3641  -3.3383
    -3.3246  -3.1897  -3.0440  -2.8976  -2.8468  -2.8381  -2.7206  -2.6473
    -2.6375  -2.6177  -2.4628  -2.4313  -2.3884  -2.3415  -2.2973  -2.2427
    -2.2240  -2.2179  -2.2026  -2.1807  -2.1702  -2.0533  -2.0005  -1.9167
    -1.8594  -1.8366  -1.7864  -1.7651  -1.7431  -1.7227  -1.7132  -1.6686
    -1.6578  -1.6275  -1.5720  -1.4614  -1.3622  -1.3091  -1.1916  -1.0701
    -1.0300  -1.0171  -0.9792  -0.9354  -0.9190  -0.8540  -0.8101  -0.7796
    -0.7204  -0.6631  -0.6007  -0.5524  -0.4819  -0.4674  -0.4200  -0.3662
    -0.2530  -0.2153  -0.2006  -0.1746  -0.0815  -0.0453  -0.0005   0.0824
     0.0928   0.1084   0.2089   0.2220   0.2921   0.3383   0.3557   0.4482
     0.4865   0.4962   0.5015   0.5255   0.5517   0.6036   0.6413   0.6693
     0.7398   0.8650   1.0812   1.1552   1.1795   1.5060   1.5146   1.6089
     1.7924   2.1848   2.2332   3.6646   3.7351   3.8123   3.8168   3.8336
     3.9027   4.1388   4.1617   4.1702   4.1761   4.1976

[...]

          k =-0.0760-0.0000 0.0000 ( 17886 PWs)   bands (ev):

[...]

 ------ SPIN DOWN ----------

[...]

          k = 0.0380-0.0419 0.0000 ( 17876 PWs)   bands (ev):

[...]

          k =-0.0760-0.0839 0.0000 ( 17948 PWs)   bands (ev):

   -55.4174 -55.4109 -55.3687 -55.3682 -55.3551 -55.3128 -55.2954 -55.2920
   -55.2411 -55.2372 -55.2333 -55.1979 -55.1972 -55.1169 -54.3969 -54.3967
   -31.8079 -31.8060 -31.8031 -31.7186 -31.6935 -31.6925 -31.6921 -31.6597
   -31.6594 -31.6419 -31.6345 -31.6318 -31.6267 -31.5991 -31.5912 -31.5720
   -31.5700 -31.5658 -31.5639 -31.5621 -31.5585 -31.5545 -31.5168 -31.5132
   -31.5077 -31.5071 -31.5051 -31.4886 -31.4883 -31.4881 -31.4840 -31.4703
   -31.4664 -31.4502 -31.4463 -31.4307 -31.4304 -31.4279 -31.3800 -31.3784
   -31.3760 -31.3271 -30.7195 -30.7193 -30.6356 -30.6354 -30.5960 -30.5960
   -16.1348 -15.7788 -15.6870 -15.6396 -15.4661 -15.4369 -15.4205 -15.4053
   -15.2729 -15.2549 -15.2310 -15.2028 -15.1808 -15.1460 -15.1365 -15.1339
   -15.0544 -15.0403 -15.0333 -15.0175 -14.9513 -14.9415 -14.9391 -14.9318
   -14.8814 -14.8778 -14.8152 -14.7853 -14.7822 -14.5707 -12.8993 -12.8993
   -10.2514  -6.2537  -4.8327  -3.9446  -2.9578  -2.9344  -2.8940  -2.8900
    -2.6815  -2.6403  -2.6048  -2.5794  -2.4894  -2.4497  -2.4347  -2.4266
    -2.3550  -2.3385  -2.3204  -2.2755  -2.2693  -2.2557  -2.2336  -2.2036
    -2.1816  -2.1621  -2.1526  -2.1341  -2.0879  -2.0766  -2.0527  -2.0369
    -2.0340  -2.0165  -1.9879  -1.9414  -1.8145  -1.8063  -1.7393  -1.6397
    -1.6350  -1.5584  -1.5453  -1.5102  -1.4848  -1.4654  -1.4233  -1.2497
    -1.2061  -1.1794  -1.1698  -1.1134  -1.0482  -1.0250  -0.9548  -0.9392
    -0.9205  -0.8169  -0.7722  -0.7574  -0.6678  -0.6551  -0.5770  -0.5128
    -0.4678  -0.4415  -0.3965  -0.3891  -0.3868  -0.3393  -0.3317  -0.2506
    -0.2036  -0.1670  -0.1530  -0.1232   0.0736   0.0843   0.1109   0.2511
     0.2802   0.4034   0.4374   0.4895   0.5646   0.5971   0.6788   0.7142
     0.8441   0.8732   0.8748   0.9470   0.9583   1.0203   1.0298   1.9664
     1.9671   2.0540   2.0544   3.8209   3.8998   3.9271   3.9690   4.0801
     4.1552   4.1800   4.2008   4.2506   4.2523   4.3156

     the Fermi energy is     3.7286 ev

!    total energy              =   -2921.63321453 Ry
     estimated scf accuracy    <       0.00000006 Ry
     smearing contrib. (-TS)   =      -0.03709157 Ry
     internal energy E=F+TS    =   -2921.59612296 Ry

     The total energy is F=E-TS. E is the sum of the following terms:
     one-electron contribution =  -24028.64565531 Ry
     hartree contribution      =   12103.40350950 Ry
     xc contribution           =    -481.75494876 Ry
     ewald contribution        =    9485.39779512 Ry
     electric field correction =       0.00317649 Ry

     total magnetization       =    -0.00 Bohr mag/cell
     absolute magnetization    =     0.02 Bohr mag/cell

     convergence has been achieved in  60 iterations

     Forces acting on atoms (cartesian axes, Ry/au):

     atom    1 type  1   force =     0.00002482   -0.00021230    0.09335916
     atom    2 type  1   force =    -0.00019094   -0.00036382   -0.17828287
     atom    3 type  2   force =     0.00002879   -0.00039739   -0.02022776
     atom    4 type  2   force =    -0.00002716   -0.00194707    0.05876862
     atom    5 type  2   force =    -0.01020327   -0.00112164    0.00776865
     atom    6 type  2   force =     0.01167850   -0.00040296    0.00693209
     atom    7 type  1   force =    -0.00049447    0.00211709   -0.01456985
     atom    8 type  1   force =     0.00024671   -0.00049781   -0.00480459
     atom    9 type  2   force =     0.00015231    0.00011658   -0.00007101
     atom   10 type  2   force =    -0.00113981    0.00137763    0.00051491
     atom   11 type  2   force =    -0.00011755    0.00015786    0.00004860
     atom   12 type  2   force =    -0.00002021    0.00036395    0.00022306
     atom   13 type  1   force =    -0.00005986   -0.00018683   -0.00019497
     atom   14 type  1   force =    -0.00014415    0.00012341    0.00027790
     atom   15 type  2   force =    -0.00020523   -0.00031464    0.00007042
     atom   16 type  2   force =    -0.00022578    0.00019614    0.00017274
     atom   17 type  2   force =     0.00012232   -0.00011146    0.00007823
     atom   18 type  2   force =    -0.00003065   -0.00017576    0.00021366
     atom   19 type  1   force =    -0.00027449    0.00030302    0.00037895
     atom   20 type  1   force =    -0.00000863   -0.00008949   -0.00028564
     atom   21 type  2   force =     0.00002709   -0.00005744    0.10393465
     atom   22 type  2   force =     0.00025667    0.00035627    0.00003368
     atom   23 type  2   force =    -0.07044026   -0.00015370   -0.02694080
     atom   24 type  2   force =     0.07028029    0.00028533   -0.02698647
     atom   25 type  1   force =    -0.00001864   -0.00015113    0.09286249
     atom   26 type  1   force =    -0.00021279   -0.00048768   -0.17829638
     atom   27 type  2   force =     0.00008725   -0.00026570   -0.01929388
     atom   28 type  2   force =     0.00004247   -0.00171926    0.05811223
     atom   29 type  2   force =    -0.01072643   -0.00111584    0.00833056
     atom   30 type  2   force =     0.01207357   -0.00084005    0.00745242
     atom   31 type  1   force =    -0.00039955    0.00596943   -0.01543157
     atom   32 type  1   force =     0.00022255   -0.00004520   -0.00518421
     atom   33 type  2   force =    -0.00007974    0.00001501    0.00007700
     atom   34 type  2   force =    -0.00101487   -0.00248425   -0.00002714
     atom   35 type  2   force =    -0.00006924    0.00023919   -0.00007185
     atom   36 type  2   force =    -0.00011433    0.00009628   -0.00001013
     atom   37 type  1   force =    -0.00003520    0.00007464   -0.00021774
     atom   38 type  1   force =    -0.00007367    0.00000455    0.00009886
     atom   39 type  2   force =     0.00021863   -0.00003119    0.00014095
     atom   40 type  2   force =    -0.00030467    0.00024120   -0.00004521
     atom   41 type  2   force =     0.00018058    0.00044091    0.00010101
     atom   42 type  2   force =    -0.00005618    0.00010452    0.00037349
     atom   43 type  1   force =    -0.00031765    0.00029956    0.00010090
     atom   44 type  1   force =    -0.00004351   -0.00023038    0.00010662
     atom   45 type  2   force =     0.00001737   -0.00007487    0.10390203
     atom   46 type  2   force =    -0.07041046   -0.00009813   -0.02688588
     atom   47 type  2   force =     0.07025784    0.00032764   -0.02693708
     atom   48 type  3   force =    -0.00010622   -0.00126459   -0.00045023
     atom   49 type  4   force =    -0.00483453    0.00692055    0.00215632
     atom   50 type  5   force =     0.00002828    0.00165648    0.00025513
     atom   51 type  5   force =     0.00045530    0.00002349   -0.00063946
     atom   52 type  5   force =     0.00511983   -0.00805508   -0.00247757
     atom   53 type  5   force =     0.00015072    0.00071603    0.00156108
     atom   54 type  5   force =     0.00072821    0.00036890   -0.00007415

     Total force =     0.366475     Total SCF correction =     0.000432
  @ DRIVER MODE: Message from server: STATUS
  @ DRIVER MODE: Message from server: GETFORCE
  @ DRIVER MODE: Returning v,forces,stress,ensemble

     Writing output data file ./calc.save/
  @ DRIVER MODE: Message from server: EXIT
  @ DRIVE MODE: Exiting

     General routines

     Parallel routines

   This run was terminated on:   7:24:55  21Jul2021

   JOB DONE.