     Program PWSCF v.6.7GPU starts on 16Sep2021 at  1:50: 1

     R & G space division:  proc/nbgrp/npool/nimage =      10
     Reading input from /storage/home/hcoda1/3/ntian30/research/carbon/CxH_vib/H2O_calc/ads_slab/CH2NNHHH2O_a/out_0030/pw.inp
Warning: card &CELL ignored
Warning: card   CELL_DYNAMICS='IPI', ignored
Warning: card / ignored

     Current dimensions of program PWSCF are:
     Max number of different atomic species (ntypx) = 10
     Max number of k-points (npk) =  40000
     Max angular momentum in pseudopotentials (lmaxx) =  3
     Presently no symmetry can be used with electric field

     Message from routine cell_base_init:
     DEPRECATED: use true lattice parameter, not A to a.u. conversion factor

     IMPORTANT: XC functional enforced from input :
     Exchange-correlation= BEEF-VDW
                           (   1   4  43  14   2   0   0)
     Any further DFT definition will be discarded
     Please, verify this is what you really want

  @ DRIVER MODE: Connecting to
 qe_1139763_2852611.sched-torque.pace.gatech.edueocpjrn0_scratch
  using UNIX socket
  @ DRIVER MODE: Message from server: STATUS
  @ DRIVER MODE: Message from server: INIT
  @ DRIVER MODE: Receiving replica           0          -1
  @ DRIVER MODE: Receiving encoded integer          25
  @ DRIVER MODE:  SCF:  T  FORCE:  T  STRESS:  F  VC:  F  ENSEMBLE:  F
  @ DRIVER MODE:  SCF:  T  FORCE:  T  STRESS:  F  VC:  F  ENSEMBLE:  F

     Using Slab Decomposition

     bravais-lattice index     =            0
     lattice parameter (alat)  =       1.8897  a.u.
     unit-cell volume          =    6658.9804 (a.u.)^3
     number of atoms/cell      =           57
     number of atomic types    =            5
     number of electrons       =       404.00
     number of Kohn-Sham states=          212
     kinetic-energy cutoff     =      29.3995  Ry
     charge density cutoff     =     293.9946  Ry
     scf convergence threshold =      7.3E-08
     mixing beta               =       0.0500
     number of iterations used =            8  plain     mixing
     Exchange-correlation= BEEF-VDW
                           (   1   4  43  14   2   0   0)

     celldm(1)=   1.889726  celldm(2)=   0.000000  celldm(3)=   0.000000
     celldm(4)=   0.000000  celldm(5)=   0.000000  celldm(6)=   0.000000

     crystal axes: (cart. coord. in units of alat)
               a(1) = (   6.579727   0.000000   0.000000 )
               a(2) = (  -0.000775   5.961596   0.000000 )
               a(3) = (   0.000000   0.000000  25.155947 )

     reciprocal axes: (cart. coord. in units 2 pi/alat)
               b(1) = (  0.151982  0.000020  0.000000 )
               b(2) = (  0.000000  0.167740  0.000000 )
               b(3) = (  0.000000  0.000000  0.039752 )

     PseudoPot. # 1 for Ti read from file:
     /storage/coda1/p-amedford6/0/shared/rich_project_chbe-medford/medford-share/data/pseudos_module/espresso/nninc/pbe/van/Ti.UPF
     MD5 check sum: 8e4df49b7f0d34bbd5052bf3f5ea0213
     Pseudo is Ultrasoft, Zval = 12.0
     Generated by new atomic code, or converted to UPF format
     Using radial grid of  851 points,  6 beta functions with:
                l(1) =   0
                l(2) =   0
                l(3) =   1
                l(4) =   1
                l(5) =   2
                l(6) =   2
     Q(r) pseudized with  8 coefficients,  rinner =    1.000   1.000   1.000
                                                       1.000   1.000

     PseudoPot. # 2 for O  read from file:
     /storage/coda1/p-amedford6/0/shared/rich_project_chbe-medford/medford-share/data/pseudos_module/espresso/nninc/pbe/van/O.UPF
     MD5 check sum: 78c19812648e8988a0fe644b0f25305e
     Pseudo is Ultrasoft, Zval =  6.0
     Generated by new atomic code, or converted to UPF format
     Using radial grid of  737 points,  4 beta functions with:
                l(1) =   0
                l(2) =   0
                l(3) =   1
                l(4) =   1
     Q(r) pseudized with  8 coefficients,  rinner =    0.800   0.800   0.800

     PseudoPot. # 3 for N  read from file:
     /storage/coda1/p-amedford6/0/shared/rich_project_chbe-medford/medford-share/data/pseudos_module/espresso/nninc/pbe/van/N.UPF
     MD5 check sum: 90d10febe142ad51ac9d5be1deb811c4
     Pseudo is Ultrasoft, Zval =  5.0
     Generated by new atomic code, or converted to UPF format
     Using radial grid of  729 points,  4 beta functions with:
                l(1) =   0
                l(2) =   0
                l(3) =   1
                l(4) =   1
     Q(r) pseudized with  8 coefficients,  rinner =    0.800   0.800   0.800

     PseudoPot. # 4 for C  read from file:
     /storage/coda1/p-amedford6/0/shared/rich_project_chbe-medford/medford-share/data/pseudos_module/espresso/nninc/pbe/van/C.UPF
     MD5 check sum: 1a69bf6b8db32088f5b2163dbdb77a27
     Pseudo is Ultrasoft, Zval =  4.0
     Generated by new atomic code, or converted to UPF format
     Using radial grid of  721 points,  4 beta functions with:
                l(1) =   0
                l(2) =   0
                l(3) =   1
                l(4) =   1
     Q(r) pseudized with  8 coefficients,  rinner =    0.800   0.800   0.800

     PseudoPot. # 5 for H  read from file:
     /storage/coda1/p-amedford6/0/shared/rich_project_chbe-medford/medford-share/data/pseudos_module/espresso/nninc/pbe/van/H.UPF
     MD5 check sum: b5ee9d7bfd3a09ee7748110bda690ff7
     Pseudo is Ultrasoft, Zval =  1.0
     Generated by new atomic code, or converted to UPF format
     Using radial grid of  615 points,  1 beta functions with:
                l(1) =   0
     Q(r) pseudized with  8 coefficients,  rinner =    0.800

     atomic species   valence    mass     pseudopotential
        Ti1           12.00    47.86700     Ti( 1.00)
        O1             6.00    15.99900     O ( 1.00)
        N1             5.00    14.00700     N ( 1.00)
        C1             4.00    12.01100     C ( 1.00)
        H1             1.00     1.00800     H ( 1.00)

     No symmetry found

   Cartesian axes

     site n.     atom                  positions (alat units)
         1           Ti1 tau(   1) = (   0.0004258   2.9801865   6.0000000  )
         2           Ti1 tau(   2) = (   3.2906075   1.4906267   6.0002472  )
         3           O1  tau(   3) = (   0.0006271   0.0005054   7.9858123  )
         4           O1  tau(   4) = (   3.2906025   0.0005020   7.3038282  )
         5           O1  tau(   5) = (   4.5942328   1.4918067   9.2879030  )
         6           O1  tau(   6) = (   1.9868534   1.4903216   9.2879459  )
         7           Ti1 tau(   7) = (   3.2907910   2.8959150   9.1758416  )
         8           Ti1 tau(   8) = (   0.0015273   1.4827037   9.2680791  )
         9           O1  tau(   9) = (   3.3121314   5.9338840  11.3691909  )
        10           O1  tau(  10) = (   0.0116148   5.9584955  10.6183126  )
        11           O1  tau(  11) = (   1.3134021   1.4784130  12.6451072  )
        12           O1  tau(  12) = (   5.3172625   1.4801399  12.6491864  )
        13           Ti1 tau(  13) = (   0.0380378   2.9573341  12.5222382  )
        14           Ti1 tau(  14) = (   3.3404755   1.4532591  12.5245293  )
        15           O1  tau(  15) = (   0.0239237   0.0366503  14.6894071  )
        16           O1  tau(  16) = (   3.3255740   5.9570089  14.0129324  )
        17           O1  tau(  17) = (   4.5846449   1.4795273  16.1858442  )
        18           O1  tau(  18) = (   2.0539891   1.4908220  16.1938258  )
        19           Ti1 tau(  19) = (   3.3028508   2.9322526  15.7076921  )
        20           Ti1 tau(  20) = (   0.0088316   1.3655950  16.0522487  )
        21           O1  tau(  21) = (   3.2904802   0.0005063   4.7018136  )
        22           O1  tau(  22) = (   0.0586005   5.8320325  17.2288864  )
        23           O1  tau(  23) = (   1.3043587   1.4918075   6.0039043  )
        24           O1  tau(  24) = (   5.2767064   1.4903225   6.0039473  )
        25           Ti1 tau(  25) = (   0.0000382   5.9609847   6.0000000  )
        26           Ti1 tau(  26) = (   3.2902200   4.4714249   6.0002472  )
        27           O1  tau(  27) = (   0.0002396   2.9813036   7.9858123  )
        28           O1  tau(  28) = (   3.2902150   2.9813002   7.3038282  )
        29           O1  tau(  29) = (   4.5938453   4.4726049   9.2879030  )
        30           O1  tau(  30) = (   1.9864658   4.4711199   9.2879459  )
        31           Ti1 tau(  31) = (   3.2891106   5.8743827   9.1763621  )
        32           Ti1 tau(  32) = (   0.0006254   4.4649316   9.2693709  )
        33           O1  tau(  33) = (   3.3142679   2.9660735  11.3641874  )
        34           O1  tau(  34) = (   0.0092240   2.9805883  10.6323155  )
        35           O1  tau(  35) = (   1.3108675   4.4558178  12.6782323  )
        36           O1  tau(  36) = (   5.3175068   4.4537340  12.6790822  )
        37           Ti1 tau(  37) = (   0.0418451   5.9490355  12.4996082  )
        38           Ti1 tau(  38) = (   3.3402151   4.4429940  12.5219265  )
        39           O1  tau(  39) = (   0.0332256   2.9148708  14.9327709  )
        40           O1  tau(  40) = (   3.3156017   2.9437717  13.9283311  )
        41           O1  tau(  41) = (   4.5915719   4.3868214  16.1197993  )
        42           O1  tau(  42) = (   2.0539401   4.4017640  16.0846163  )
        43           Ti1 tau(  43) = (   3.3369130   5.9116756  15.8392261  )
        44           Ti1 tau(  44) = (   0.0533093   4.5818758  15.8415549  )
        45           O1  tau(  45) = (   3.2900926   2.9813045   4.7018136  )
        46           O1  tau(  46) = (   1.3039711   4.4726057   6.0039043  )
        47           O1  tau(  47) = (   5.2763189   4.4711207   6.0039473  )
        48           N1  tau(  48) = (   6.5287229   2.7802708  18.1865785  )
        49           C1  tau(  49) = (   0.9724842   2.7744648  18.9576868  )
        50           H1  tau(  50) = (   0.9153086   3.0669255  20.0057840  )
        51           H1  tau(  51) = (   1.9225290   2.4867234  18.5393133  )
        52           N1  tau(  52) = (   5.2958906   3.1014149  18.7452402  )
        53           H1  tau(  53) = (   5.3913054   3.6367428  19.5974321  )
        54           H1  tau(  54) = (   4.7863746   3.6605970  18.0522289  )
        55           O1  tau(  55) = (   3.2511457   5.8152340  18.3397965  )
        56           H1  tau(  56) = (   3.7467739   0.6636339  18.5518981  )
        57           H1  tau(  57) = (   2.3053106   0.0674530  18.4201010  )

     number of k points=    10  Fermi-Dirac smearing, width (Ry)=  0.0073
                       cart. coord. in units 2pi/alat
        k(    1) = (   0.0000000   0.0000000   0.0000000), wk =   0.1250000
        k(    2) = (   0.0000000   0.0419351   0.0000000), wk =   0.2500000
        k(    3) = (   0.0000000  -0.0838702   0.0000000), wk =   0.1250000
        k(    4) = (   0.0379955   0.0000049   0.0000000), wk =   0.2500000
        k(    5) = (   0.0379955   0.0419400   0.0000000), wk =   0.2500000
        k(    6) = (   0.0379955  -0.0838652   0.0000000), wk =   0.2500000
        k(    7) = (   0.0379955  -0.0419301   0.0000000), wk =   0.2500000
        k(    8) = (  -0.0759910  -0.0000099   0.0000000), wk =   0.1250000
        k(    9) = (  -0.0759910   0.0419252   0.0000000), wk =   0.2500000
        k(   10) = (  -0.0759910  -0.0838800   0.0000000), wk =   0.1250000

     Initial potential from superposition of free atoms

     starting charge  387.99913, renormalised to  404.00000

     negative rho (up, down):  1.527E-02 0.000E+00

     %%%%%%%%%%%%%%%%%%%%%%%%%%%%%%%%%%%%%%%%%%%%%%%%%%%%%%%%%%%%%%%%%%%%%%%%
     %                                                                      %
     % You are using vdW-DF, which was implemented by the Thonhauser group. %
     % Please cite the following two papers that made this development      %
     % possible and the two reviews that describe the various versions:     %
     %                                                                      %
     %   T. Thonhauser et al., PRL 115, 136402 (2015).                      %
     %   T. Thonhauser et al., PRB 76, 125112 (2007).                       %
     %   K. Berland et al., Rep. Prog. Phys. 78, 066501 (2015).             %
     %   D.C. Langreth et al., J. Phys.: Condens. Matter 21, 084203 (2009). %
     %                                                                      %
     %                                                                      %
     % If you are calculating the stress with vdW-DF, please also cite:     %
     %                                                                      %
     %   R. Sabatini et al., J. Phys.: Condens. Matter 24, 424209 (2012).   %
     %                                                                      %
     %%%%%%%%%%%%%%%%%%%%%%%%%%%%%%%%%%%%%%%%%%%%%%%%%%%%%%%%%%%%%%%%%%%%%%%%

     Adding external electric field

     Computed dipole along edir(3) :
        Dipole              -14.3283 Ry au,        -36.4189 Debye
        Dipole field         -0.0270 Ry au,

        Potential amp.        2.5065 Ry
        Total length         46.3494 bohr

     Starting wfcs are  306 atomic wfcs
  @ DRIVER MODE: Message from server: STATUS
  @ DRIVER MODE: Message from server: POSDATA
  @ DRIVER MODE: Reading and sharing cell
  @ DRIVER MODE: Reading and sharing positions
  @ DRIVER MODE: Received positions

     Self-consistent Calculation

     iteration #  1     ecut=    29.40 Ry     beta= 0.05
     Davidson diagonalization with overlap
     c_bands:  4 eigenvalues not converged
     c_bands:  3 eigenvalues not converged
     c_bands:  5 eigenvalues not converged
     c_bands:  1 eigenvalues not converged
     c_bands:  2 eigenvalues not converged
     c_bands:  1 eigenvalues not converged
     c_bands:  2 eigenvalues not converged
     c_bands:  5 eigenvalues not converged
     c_bands:  5 eigenvalues not converged
     ethr =  1.00E-05,  avg # of iterations = 24.6

[...]

     total energy              =   -2233.94755794 Ry
     estimated scf accuracy    <    8445.47182082 Ry

     iteration #  2     ecut=    29.40 Ry     beta= 0.05
     Davidson diagonalization with overlap
     ethr =  1.00E-02,  avg # of iterations = 24.6

[...]

     iteration # 59     ecut=    29.40 Ry     beta= 0.05
     Davidson diagonalization with overlap
     c_bands:  1 eigenvalues not converged
     ethr =  9.31E-10,  avg # of iterations = 15.3

[...]

     total energy              =   -2975.20572148 Ry
     estimated scf accuracy    <       0.00000011 Ry

     iteration # 65     ecut=    29.40 Ry     beta= 0.05
     Davidson diagonalization with overlap
     ethr =  2.78E-11,  avg # of iterations = 11.4

     negative rho (up, down):  1.522E-02 0.000E+00

     Adding external electric field

     Computed dipole along edir(3) :
        Dipole                1.4007 Ry au,          3.5602 Debye
        Dipole field          0.0026 Ry au,

        Potential amp.       -0.2450 Ry
        Total length         46.3494 bohr

     End of self-consistent calculation

          k = 0.0000 0.0000 0.0000 ( 18029 PWs)   bands (ev):

   -55.1905 -55.1546 -55.1507 -55.1166 -55.1026 -55.0708 -55.0371 -55.0329
   -55.0093 -54.9799 -54.9743 -54.9710 -54.9463 -54.8755 -54.1741 -54.1401
   -31.7558 -31.6422 -31.6008 -31.5595 -31.5089 -31.4986 -31.4917 -31.4844
   -31.4398 -31.4052 -31.4018 -31.3953 -31.3932 -31.3670 -31.3441 -31.3354
   -31.3342 -31.3281 -31.3086 -31.3027 -31.2830 -31.2786 -31.2637 -31.2499
   -31.2392 -31.2367 -31.2158 -31.2098 -31.2079 -31.2011 -31.1954 -31.1775
   -31.1727 -31.1624 -31.1575 -31.1445 -31.1234 -31.1194 -31.1079 -31.0910
   -31.0903 -31.0051 -30.5832 -30.4897 -30.4676 -30.3996 -30.3129 -30.2019
   -18.9135 -18.5123 -16.0161 -15.7509 -15.6148 -15.5048 -15.3891 -15.2594
   -15.2117 -15.0806 -15.0210 -14.9076 -14.8795 -14.8372 -14.8179 -14.8130
   -14.7550 -14.7277 -14.7208 -14.6954 -14.6853 -14.6639 -14.6245 -14.6182
   -14.5823 -14.5708 -14.5675 -14.4224 -14.3450 -14.2806 -13.9686 -13.6628
   -12.6764 -12.5591  -8.7985  -6.7017  -6.4436  -6.0509  -4.1246  -3.3590
    -3.2035  -3.1854  -3.1264  -3.0872  -3.0535  -3.0055  -2.9409  -2.7372
    -2.6027  -2.5759  -2.4568  -2.3908  -2.3862  -2.3331  -2.1906  -2.1855
    -2.1302  -2.0909  -2.0408  -2.0206  -1.9975  -1.9738  -1.9396  -1.9203
    -1.8936  -1.7585  -1.7383  -1.6646  -1.6024  -1.5920  -1.5340  -1.5101
    -1.4914  -1.4854  -1.4773  -1.4642  -1.4260  -1.4123  -1.3691  -1.3134
    -1.2093  -1.1281  -1.0296  -0.9512  -0.8866  -0.8250  -0.7631  -0.7540
    -0.6771  -0.6646  -0.5736  -0.5503  -0.5198  -0.4068  -0.3437  -0.3401
    -0.2769  -0.1752  -0.1465  -0.1300  -0.0587   0.0193   0.0381   0.0463
     0.0540   0.1774   0.2307   0.2637   0.2964   0.3671   0.3887   0.4388
     0.4851   0.4916   0.5707   0.6306   0.6848   0.7342   0.7514   0.7761
     0.7936   0.8033   0.8204   0.9015   0.9242   0.9575   1.0105   1.1661
     1.3259   1.4247   1.4410   1.7587   1.7722   1.8490   2.0334   2.4242
     2.4722   3.9057   3.9825   4.0415   4.0478   4.0569   4.1429   4.3872
     4.4029   4.4156   4.4278   4.4715

[...]

          k = 0.0380-0.0419 0.0000 ( 17876 PWs)   bands (ev):

[...]

          k =-0.0760-0.0000 0.0000 ( 17886 PWs)   bands (ev):

[...]

          k =-0.0760-0.0839 0.0000 ( 17948 PWs)   bands (ev):

   -55.1734 -55.1715 -55.1337 -55.1335 -55.1003 -55.0598 -55.0439 -55.0351
   -54.9948 -54.9883 -54.9731 -54.9634 -54.9630 -54.8774 -54.1571 -54.1570
   -31.5652 -31.5550 -31.5257 -31.4574 -31.4572 -31.4510 -31.4420 -31.4252
   -31.4250 -31.4037 -31.3931 -31.3904 -31.3780 -31.3520 -31.3278 -31.3223
   -31.3221 -31.3217 -31.3193 -31.3101 -31.3043 -31.2860 -31.2727 -31.2699
   -31.2558 -31.2533 -31.2531 -31.2522 -31.2424 -31.2382 -31.2283 -31.2267
   -31.2190 -31.2080 -31.2021 -31.1922 -31.1909 -31.1542 -31.1434 -31.1431
   -31.0991 -31.0914 -30.4803 -30.4802 -30.3958 -30.3956 -30.3563 -30.3562
   -18.9112 -18.5114 -15.5330 -15.4865 -15.3312 -15.1968 -15.1935 -15.1533
   -15.0977 -15.0260 -15.0050 -14.9620 -14.9511 -14.9327 -14.8958 -14.8886
   -14.8624 -14.7916 -14.7820 -14.7736 -14.7398 -14.7008 -14.6901 -14.6887
   -14.6719 -14.6421 -14.6389 -14.5415 -14.5393 -14.4467 -14.3080 -13.6777
   -12.6606 -12.6605  -8.7639  -6.7014  -6.3923  -6.0760  -4.1698  -3.1938
    -2.9229  -2.7505  -2.6451  -2.5428  -2.4162  -2.4106  -2.3252  -2.3167
    -2.2358  -2.2015  -2.1893  -2.1734  -2.0824  -2.0688  -2.0585  -2.0369
    -2.0205  -2.0025  -1.9708  -1.9648  -1.9407  -1.9143  -1.9040  -1.9023
    -1.8844  -1.8501  -1.8189  -1.7997  -1.7793  -1.7487  -1.7374  -1.6691
    -1.6291  -1.5417  -1.5062  -1.3919  -1.3899  -1.3713  -1.3115  -1.2928
    -1.2722  -1.2228  -1.2141  -1.1675  -1.0270  -0.9387  -0.9279  -0.8899
    -0.8402  -0.7920  -0.7451  -0.7294  -0.6633  -0.6426  -0.5503  -0.5347
    -0.4340  -0.3911  -0.3790  -0.3631  -0.2806  -0.2170  -0.1697  -0.1497
    -0.1453  -0.0946  -0.0804  -0.0671   0.0047   0.0519   0.0757   0.0901
     0.1318   0.3000   0.3603   0.3742   0.4934   0.5433   0.6472   0.7062
     0.7827   0.8025   0.8386   0.9288   0.9354   1.0120   1.1068   1.1207
     1.1576   1.2014   1.2503   1.2731   1.2780   2.2063   2.2077   2.2921
     2.2923   4.0495   4.1254   4.1837   4.2316   4.2400   4.3611   4.4229
     4.4656   4.4876   4.4901   4.5644

     the Fermi energy is     3.9637 ev

!    total energy              =   -2975.20576636 Ry
     estimated scf accuracy    <       0.00000007 Ry
     smearing contrib. (-TS)   =      -0.03732709 Ry
     internal energy E=F+TS    =   -2975.16843927 Ry

     The total energy is F=E-TS. E is the sum of the following terms:
     one-electron contribution =  -23535.72741078 Ry
     hartree contribution      =   11865.87162926 Ry
     xc contribution           =    -494.97035513 Ry
     ewald contribution        =    9189.65399506 Ry
     electric field correction =       0.00370233 Ry

     convergence has been achieved in  65 iterations

     Forces acting on atoms (cartesian axes, Ry/au):

     atom    1 type  1   force =     0.00006684   -0.00020586    0.09359073
     atom    2 type  1   force =    -0.00021093   -0.00020963   -0.17802895
     atom    3 type  2   force =     0.00011161   -0.00020526   -0.02064832
     atom    4 type  2   force =     0.00004819   -0.00197904    0.05808663
     atom    5 type  2   force =    -0.01002236   -0.00167239    0.00693734
     atom    6 type  2   force =     0.01216774   -0.00103982    0.00745310
     atom    7 type  1   force =     0.00022327    0.00248704   -0.01209605
     atom    8 type  1   force =    -0.00049493    0.00200901   -0.00193460
     atom    9 type  2   force =     0.00006686    0.00005962   -0.00006726
     atom   10 type  2   force =    -0.00044253   -0.00135098   -0.00317067
     atom   11 type  2   force =     0.00013885   -0.00006434   -0.00008444
     atom   12 type  2   force =    -0.00064725   -0.00010518    0.00007389
     atom   13 type  1   force =     0.00050864    0.00098514    0.00028936
     atom   14 type  1   force =    -0.00140131    0.00028957    0.00015826
     atom   15 type  2   force =    -0.00019335    0.00097029    0.00023600
     atom   16 type  2   force =    -0.00000534   -0.00044087    0.00015067
     atom   17 type  2   force =     0.00067520    0.00005137   -0.00021217
     atom   18 type  2   force =     0.00052792    0.00016318   -0.00036134
     atom   19 type  1   force =    -0.00116839    0.00090578    0.00057812
     atom   20 type  1   force =     0.00045415   -0.00010578   -0.00078274
     atom   21 type  2   force =     0.00001245   -0.00002293    0.10382891
     atom   22 type  2   force =     0.00009773    0.00090103   -0.00019984
     atom   23 type  2   force =    -0.07054636   -0.00012031   -0.02696745
     atom   24 type  2   force =     0.07048439    0.00030962   -0.02703093
     atom   25 type  1   force =     0.00001570   -0.00018769    0.09306207
     atom   26 type  1   force =    -0.00008742   -0.00049290   -0.17792830
     atom   27 type  2   force =     0.00017162   -0.00036607   -0.01953068
     atom   28 type  2   force =     0.00010921   -0.00160410    0.05716700
     atom   29 type  2   force =    -0.01007165   -0.00086070    0.00631813
     atom   30 type  2   force =     0.01213272   -0.00061449    0.00687798
     atom   31 type  1   force =     0.00031738    0.00502828   -0.01527798
     atom   32 type  1   force =    -0.00039940   -0.00265971   -0.00236077
     atom   33 type  2   force =    -0.00003212   -0.00025731   -0.00005253
     atom   34 type  2   force =     0.00046447    0.00031328   -0.00055232
     atom   35 type  2   force =    -0.00013201   -0.00038780   -0.00008356
     atom   36 type  2   force =    -0.00043221   -0.00037965    0.00023855
     atom   37 type  1   force =     0.00027067   -0.00103667    0.00051305
     atom   38 type  1   force =    -0.00122706    0.00024329    0.00126561
     atom   39 type  2   force =    -0.00011274   -0.00046596    0.00026190
     atom   40 type  2   force =     0.00003458   -0.00041312    0.00044208
     atom   41 type  2   force =    -0.00010212   -0.00012879    0.00030941
     atom   42 type  2   force =     0.00128736   -0.00026036    0.00003882
     atom   43 type  1   force =    -0.00125964   -0.00066453    0.00005728
     atom   44 type  1   force =     0.00094446    0.00060675    0.00011771
     atom   45 type  2   force =     0.00004101   -0.00002155    0.10376156
     atom   46 type  2   force =    -0.07057756   -0.00007737   -0.02697448
     atom   47 type  2   force =     0.07048161    0.00039123   -0.02700194
     atom   48 type  3   force =    -0.00249549    0.00057862    0.00575174
     atom   49 type  4   force =     0.00149264    0.00048956   -0.00073439
     atom   50 type  5   force =    -0.00031102   -0.00013001   -0.00067684
     atom   51 type  5   force =    -0.00023024    0.00007474   -0.00002565
     atom   52 type  3   force =    -0.00558023   -0.00207935   -0.02409902
     atom   53 type  5   force =     0.00274373    0.00773283    0.01061395
     atom   54 type  5   force =     0.00302513   -0.00422668    0.00846656
     atom   55 type  2   force =    -0.00062135    0.00082785   -0.00014545
     atom   56 type  5   force =    -0.00035217   -0.00034700    0.00087112
     atom   57 type  5   force =     0.00004105   -0.00023387   -0.00048887

     Total force =     0.366994     Total SCF correction =     0.001139
  @ DRIVER MODE: Message from server: STATUS
  @ DRIVER MODE: Message from server: GETFORCE
  @ DRIVER MODE: Returning v,forces,stress,ensemble

     Writing output data file ./calc.save/
  @ DRIVER MODE: Message from server: EXIT
  @ DRIVE MODE: Exiting

     General routines

     Parallel routines

   This run was terminated on:   2: 8:40  16Sep2021

   JOB DONE.