     Program PWSCF v.6.7GPU starts on 23Sep2021 at 20:13: 1

     R & G space division:  proc/nbgrp/npool/nimage =       8
     Reading input from /storage/home/hcoda1/3/ntian30/research/carbon/CxH_vib/H2O_calc/ads_slab/CH2N2HO_b/out_0024/pw.inp
Warning: card &CELL ignored
Warning: card   CELL_DYNAMICS='IPI', ignored
Warning: card / ignored

     Current dimensions of program PWSCF are:
     Max number of different atomic species (ntypx) = 10
     Max number of k-points (npk) =  40000
     Max angular momentum in pseudopotentials (lmaxx) =  3
     Presently no symmetry can be used with electric field

     Message from routine cell_base_init:
     DEPRECATED: use true lattice parameter, not A to a.u. conversion factor

     IMPORTANT: XC functional enforced from input :
     Exchange-correlation= BEEF-VDW
                           (   1   4  43  14   2   0   0)
     Any further DFT definition will be discarded
     Please, verify this is what you really want

  @ DRIVER MODE: Connecting to
 qe_1139763_2947312.sched-torque.pace.gatech.edud6ufstij_scratch
  using UNIX socket
  @ DRIVER MODE: Message from server: STATUS
  @ DRIVER MODE: Message from server: INIT
  @ DRIVER MODE: Receiving replica           0          -1
  @ DRIVER MODE: Receiving encoded integer          25
  @ DRIVER MODE:  SCF:  T  FORCE:  T  STRESS:  F  VC:  F  ENSEMBLE:  F
  @ DRIVER MODE:  SCF:  T  FORCE:  T  STRESS:  F  VC:  F  ENSEMBLE:  F

     Using Slab Decomposition

     bravais-lattice index     =            0
     lattice parameter (alat)  =       1.8897  a.u.
     unit-cell volume          =    6658.9804 (a.u.)^3
     number of atoms/cell      =           54
     number of atomic types    =            5
     number of electrons       =       401.00
     number of Kohn-Sham states=          210
     kinetic-energy cutoff     =      29.3995  Ry
     charge density cutoff     =     293.9946  Ry
     scf convergence threshold =      7.3E-08
     mixing beta               =       0.0500
     number of iterations used =            8  plain     mixing
     Exchange-correlation= BEEF-VDW
                           (   1   4  43  14   2   0   0)

     celldm(1)=   1.889726  celldm(2)=   0.000000  celldm(3)=   0.000000
     celldm(4)=   0.000000  celldm(5)=   0.000000  celldm(6)=   0.000000

     crystal axes: (cart. coord. in units of alat)
               a(1) = (   6.579727   0.000000   0.000000 )
               a(2) = (  -0.000775   5.961596   0.000000 )
               a(3) = (   0.000000   0.000000  25.155947 )

     reciprocal axes: (cart. coord. in units 2 pi/alat)
               b(1) = (  0.151982  0.000020  0.000000 )
               b(2) = (  0.000000  0.167740  0.000000 )
               b(3) = (  0.000000  0.000000  0.039752 )

     PseudoPot. # 1 for Ti read from file:
     /storage/coda1/p-amedford6/0/shared/rich_project_chbe-medford/medford-share/data/pseudos_module/espresso/nninc/pbe/van/Ti.UPF
     MD5 check sum: 8e4df49b7f0d34bbd5052bf3f5ea0213
     Pseudo is Ultrasoft, Zval = 12.0
     Generated by new atomic code, or converted to UPF format
     Using radial grid of  851 points,  6 beta functions with:
                l(1) =   0
                l(2) =   0
                l(3) =   1
                l(4) =   1
                l(5) =   2
                l(6) =   2
     Q(r) pseudized with  8 coefficients,  rinner =    1.000   1.000   1.000
                                                       1.000   1.000

     PseudoPot. # 2 for O  read from file:
     /storage/coda1/p-amedford6/0/shared/rich_project_chbe-medford/medford-share/data/pseudos_module/espresso/nninc/pbe/van/O.UPF
     MD5 check sum: 78c19812648e8988a0fe644b0f25305e
     Pseudo is Ultrasoft, Zval =  6.0
     Generated by new atomic code, or converted to UPF format
     Using radial grid of  737 points,  4 beta functions with:
                l(1) =   0
                l(2) =   0
                l(3) =   1
                l(4) =   1
     Q(r) pseudized with  8 coefficients,  rinner =    0.800   0.800   0.800

     PseudoPot. # 3 for N  read from file:
     /storage/coda1/p-amedford6/0/shared/rich_project_chbe-medford/medford-share/data/pseudos_module/espresso/nninc/pbe/van/N.UPF
     MD5 check sum: 90d10febe142ad51ac9d5be1deb811c4
     Pseudo is Ultrasoft, Zval =  5.0
     Generated by new atomic code, or converted to UPF format
     Using radial grid of  729 points,  4 beta functions with:
                l(1) =   0
                l(2) =   0
                l(3) =   1
                l(4) =   1
     Q(r) pseudized with  8 coefficients,  rinner =    0.800   0.800   0.800

     PseudoPot. # 4 for C  read from file:
     /storage/coda1/p-amedford6/0/shared/rich_project_chbe-medford/medford-share/data/pseudos_module/espresso/nninc/pbe/van/C.UPF
     MD5 check sum: 1a69bf6b8db32088f5b2163dbdb77a27
     Pseudo is Ultrasoft, Zval =  4.0
     Generated by new atomic code, or converted to UPF format
     Using radial grid of  721 points,  4 beta functions with:
                l(1) =   0
                l(2) =   0
                l(3) =   1
                l(4) =   1
     Q(r) pseudized with  8 coefficients,  rinner =    0.800   0.800   0.800

     PseudoPot. # 5 for H  read from file:
     /storage/coda1/p-amedford6/0/shared/rich_project_chbe-medford/medford-share/data/pseudos_module/espresso/nninc/pbe/van/H.UPF
     MD5 check sum: b5ee9d7bfd3a09ee7748110bda690ff7
     Pseudo is Ultrasoft, Zval =  1.0
     Generated by new atomic code, or converted to UPF format
     Using radial grid of  615 points,  1 beta functions with:
                l(1) =   0
     Q(r) pseudized with  8 coefficients,  rinner =    0.800

     atomic species   valence    mass     pseudopotential
        Ti1           12.00    47.86700     Ti( 1.00)
        O1             6.00    15.99900     O ( 1.00)
        N1             5.00    14.00700     N ( 1.00)
        C1             4.00    12.01100     C ( 1.00)
        H1             1.00     1.00800     H ( 1.00)

     No symmetry found

   Cartesian axes

     site n.     atom                  positions (alat units)
         1           Ti1 tau(   1) = (   0.0004258   2.9801865   6.0000000  )
         2           Ti1 tau(   2) = (   3.2906075   1.4906267   6.0002472  )
         3           O1  tau(   3) = (   0.0006271   0.0005054   7.9858123  )
         4           O1  tau(   4) = (   3.2906025   0.0005020   7.3038282  )
         5           O1  tau(   5) = (   4.5942328   1.4918067   9.2879030  )
         6           O1  tau(   6) = (   1.9868534   1.4903216   9.2879459  )
         7           Ti1 tau(   7) = (   3.2907910   2.8959150   9.1758416  )
         8           Ti1 tau(   8) = (   0.0015273   1.4827037   9.2680791  )
         9           O1  tau(   9) = (   3.2935892   5.9488104  11.3374186  )
        10           O1  tau(  10) = (   0.0116148   5.9584955  10.6183126  )
        11           O1  tau(  11) = (   1.2908913   1.5070562  12.6495475  )
        12           O1  tau(  12) = (   5.3136790   1.4931969  12.6373367  )
        13           Ti1 tau(  13) = (   0.0127878   2.8868139  12.6015941  )
        14           Ti1 tau(  14) = (   3.2987545   1.3040885  12.7026746  )
        15           O1  tau(  15) = (   0.0175227   0.0240941  14.6538407  )
        16           O1  tau(  16) = (   3.3064676   0.0741613  13.9771881  )
        17           O1  tau(  17) = (   4.5827780   1.5498142  16.1449436  )
        18           O1  tau(  18) = (   2.0366442   1.5898792  16.0867183  )
        19           Ti1 tau(  19) = (   3.3102262   3.0030951  15.6784192  )
        20           Ti1 tau(  20) = (   0.0574396   1.3488835  16.0050117  )
        21           O1  tau(  21) = (   3.2904802   0.0005063   4.7018136  )
        22           O1  tau(  22) = (   0.0721820   0.0083530  17.1768217  )
        23           O1  tau(  23) = (   1.3043587   1.4918075   6.0039043  )
        24           O1  tau(  24) = (   5.2767064   1.4903225   6.0039473  )
        25           Ti1 tau(  25) = (   0.0000382   5.9609847   6.0000000  )
        26           Ti1 tau(  26) = (   3.2902200   4.4714249   6.0002472  )
        27           O1  tau(  27) = (   0.0002396   2.9813036   7.9858123  )
        28           O1  tau(  28) = (   3.2902150   2.9813002   7.3038282  )
        29           O1  tau(  29) = (   4.5938453   4.4726049   9.2879030  )
        30           O1  tau(  30) = (   1.9864658   4.4711199   9.2879459  )
        31           Ti1 tau(  31) = (   3.2891106   5.8743827   9.1763621  )
        32           Ti1 tau(  32) = (   0.0006254   4.4649316   9.2693709  )
        33           O1  tau(  33) = (   3.2934580   3.0155445  11.2926531  )
        34           O1  tau(  34) = (   0.0092240   2.9805883  10.6323155  )
        35           O1  tau(  35) = (   1.2931599   4.4792858  12.6478595  )
        36           O1  tau(  36) = (   5.3056662   4.4876152  12.6363886  )
        37           Ti1 tau(  37) = (   6.5746511   5.8741161  12.5153022  )
        38           Ti1 tau(  38) = (   3.2863760   4.3878630  12.4273393  )
        39           O1  tau(  39) = (   6.5684735   3.0099032  14.7382625  )
        40           O1  tau(  40) = (   3.3273571   2.9915841  13.8999870  )
        41           O1  tau(  41) = (   4.5754576   4.4629145  16.1269992  )
        42           O1  tau(  42) = (   2.0375947   4.4358961  16.0236521  )
        43           Ti1 tau(  43) = (   3.3857405   0.0156461  16.2930207  )
        44           Ti1 tau(  44) = (   0.0840152   4.5257857  15.8004899  )
        45           O1  tau(  45) = (   3.2900926   2.9813045   4.7018136  )
        46           O1  tau(  46) = (   1.3039711   4.4726057   6.0039043  )
        47           O1  tau(  47) = (   5.2763189   4.4711207   6.0039473  )
        48           N1  tau(  48) = (   6.4876325   3.2951735  18.6921505  )
        49           N1  tau(  49) = (   0.0139976   3.0420413  17.5569154  )
        50           C1  tau(  50) = (   6.3059459   3.6199554  19.9036174  )
        51           H1  tau(  51) = (   5.2963100   3.8231348  20.2472398  )
        52           H1  tau(  52) = (   0.5840524   3.7151184  20.5547593  )
        53           O1  tau(  53) = (   3.1058724   5.9363815  18.1230642  )
        54           H1  tau(  54) = (   2.1709728   0.0855973  18.3648350  )

     number of k points=    10  Fermi-Dirac smearing, width (Ry)=  0.0073
                       cart. coord. in units 2pi/alat
        k(    1) = (   0.0000000   0.0000000   0.0000000), wk =   0.1250000
        k(    2) = (   0.0000000   0.0419351   0.0000000), wk =   0.2500000
        k(    3) = (   0.0000000  -0.0838702   0.0000000), wk =   0.1250000
        k(    4) = (   0.0379955   0.0000049   0.0000000), wk =   0.2500000
        k(    5) = (   0.0379955   0.0419400   0.0000000), wk =   0.2500000
        k(    6) = (   0.0379955  -0.0838652   0.0000000), wk =   0.2500000
        k(    7) = (   0.0379955  -0.0419301   0.0000000), wk =   0.2500000
        k(    8) = (  -0.0759910  -0.0000099   0.0000000), wk =   0.1250000
        k(    9) = (  -0.0759910   0.0419252   0.0000000), wk =   0.2500000
        k(   10) = (  -0.0759910  -0.0838800   0.0000000), wk =   0.1250000

     Initial potential from superposition of free atoms

     starting charge  384.99916, renormalised to  401.00000

     negative rho (up, down):  1.406E-02 0.000E+00

     %%%%%%%%%%%%%%%%%%%%%%%%%%%%%%%%%%%%%%%%%%%%%%%%%%%%%%%%%%%%%%%%%%%%%%%%
     %                                                                      %
     % You are using vdW-DF, which was implemented by the Thonhauser group. %
     % Please cite the following two papers that made this development      %
     % possible and the two reviews that describe the various versions:     %
     %                                                                      %
     %   T. Thonhauser et al., PRL 115, 136402 (2015).                      %
     %   T. Thonhauser et al., PRB 76, 125112 (2007).                       %
     %   K. Berland et al., Rep. Prog. Phys. 78, 066501 (2015).             %
     %   D.C. Langreth et al., J. Phys.: Condens. Matter 21, 084203 (2009). %
     %                                                                      %
     %                                                                      %
     % If you are calculating the stress with vdW-DF, please also cite:     %
     %                                                                      %
     %   R. Sabatini et al., J. Phys.: Condens. Matter 24, 424209 (2012).   %
     %                                                                      %
     %%%%%%%%%%%%%%%%%%%%%%%%%%%%%%%%%%%%%%%%%%%%%%%%%%%%%%%%%%%%%%%%%%%%%%%%

     Adding external electric field

     Computed dipole along edir(3) :
        Dipole              -11.8213 Ry au,        -30.0468 Debye
        Dipole field         -0.0223 Ry au,

        Potential amp.        2.0680 Ry
        Total length         46.3494 bohr

     Starting wfcs are  303 atomic wfcs
  @ DRIVER MODE: Message from server: STATUS
  @ DRIVER MODE: Message from server: POSDATA
  @ DRIVER MODE: Reading and sharing cell
  @ DRIVER MODE: Reading and sharing positions
  @ DRIVER MODE: Received positions

     Self-consistent Calculation

     iteration #  1     ecut=    29.40 Ry     beta= 0.05
     Davidson diagonalization with overlap
     c_bands:  3 eigenvalues not converged
     c_bands:  4 eigenvalues not converged
     c_bands:  1 eigenvalues not converged
     c_bands:  4 eigenvalues not converged
     c_bands:  4 eigenvalues not converged
     c_bands:  1 eigenvalues not converged
     c_bands:  2 eigenvalues not converged
     ethr =  1.00E-05,  avg # of iterations = 22.9

[...]

     total energy              =   -2411.67121773 Ry
     estimated scf accuracy    <    6295.63508048 Ry

     iteration #  2     ecut=    29.40 Ry     beta= 0.05
     Davidson diagonalization with overlap
     ethr =  1.00E-02,  avg # of iterations = 22.7

[...]

     iteration # 40     ecut=    29.40 Ry     beta= 0.05
     Davidson diagonalization with overlap
     c_bands:  1 eigenvalues not converged
     c_bands:  1 eigenvalues not converged
     ethr =  1.49E-06,  avg # of iterations = 11.1

[...]

     total energy              =   -2971.49156060 Ry
     estimated scf accuracy    <       0.00000013 Ry

     iteration # 67     ecut=    29.40 Ry     beta= 0.05
     Davidson diagonalization with overlap
     ethr =  3.26E-11,  avg # of iterations =  5.3

     negative rho (up, down):  1.459E-02 0.000E+00

     Adding external electric field

     Computed dipole along edir(3) :
        Dipole                1.0640 Ry au,          2.7045 Debye
        Dipole field          0.0020 Ry au,

        Potential amp.       -0.1861 Ry
        Total length         46.3494 bohr

     End of self-consistent calculation

          k = 0.0000 0.0000 0.0000 ( 18029 PWs)   bands (ev):

   -55.6931 -55.6591 -55.4778 -55.4741 -55.4440 -55.3349 -55.3168 -55.2830
   -55.2815 -55.2254 -55.1799 -55.0948 -55.0868 -54.9805 -54.6007 -54.5667
   -32.1670 -31.9884 -31.9864 -31.9303 -31.8458 -31.8181 -31.8120 -31.7920
   -31.7896 -31.7557 -31.7516 -31.7477 -31.7146 -31.6970 -31.6821 -31.6518
   -31.6475 -31.6125 -31.5855 -31.5786 -31.5759 -31.5525 -31.5434 -31.5393
   -31.4952 -31.4871 -31.4825 -31.4710 -31.4580 -31.4438 -31.4414 -31.4250
   -31.4243 -31.3682 -31.3640 -31.3611 -31.2939 -31.2820 -31.2581 -31.2299
   -31.2047 -31.1913 -31.0037 -30.9251 -30.9022 -30.8217 -30.7358 -30.6238
   -20.7405 -16.2525 -16.1727 -15.9671 -15.7899 -15.6380 -15.5858 -15.4460
   -15.3753 -15.2746 -15.1951 -15.0958 -15.0755 -15.0348 -14.9986 -14.9967
   -14.9676 -14.9361 -14.9360 -14.9122 -14.8962 -14.8480 -14.7890 -14.7709
   -14.7266 -14.6989 -14.6458 -14.6365 -14.6192 -14.5161 -14.2477 -14.2328
   -13.0987 -12.9837  -7.4057  -6.0745  -5.6766  -5.0431  -3.7614  -3.5810
    -3.5063  -3.3568  -3.2783  -3.2003  -3.0635  -2.9862  -2.9092  -2.7486
    -2.6632  -2.6358  -2.5846  -2.5291  -2.4638  -2.4374  -2.3962  -2.3734
    -2.2937  -2.2526  -2.2304  -2.2089  -2.1548  -2.1260  -2.0900  -2.0051
    -1.9770  -1.9419  -1.8681  -1.8586  -1.8341  -1.8244  -1.7833  -1.7646
    -1.7519  -1.7316  -1.5963  -1.5886  -1.5100  -1.4710  -1.3244  -1.2018
    -1.1361  -1.0674  -1.0523  -0.9704  -0.9338  -0.8535  -0.8339  -0.8048
    -0.7669  -0.7010  -0.6360  -0.6140  -0.5680  -0.5319  -0.3968  -0.3742
    -0.3269  -0.3217  -0.3001  -0.2341  -0.1652  -0.0847  -0.0713  -0.0060
     0.0142   0.0965   0.1785   0.1855   0.2361   0.2587   0.3132   0.3356
     0.3547   0.3880   0.4181   0.4868   0.5497   0.5975   0.6028   0.6360
     0.7033   0.7706   0.8108   0.8439   0.9943   1.0242   1.0398   1.1280
     1.1388   1.2467   1.4041   1.4254   1.6294   1.6316   1.9854   2.0278
     3.4533   3.5836   3.6173   3.6908   3.7768   3.9056   3.9138   4.0414
     4.1598   4.1656

[...]

          k = 0.0380-0.0419 0.0000 ( 17876 PWs)   bands (ev):

[...]

          k =-0.0760-0.0000 0.0000 ( 17886 PWs)   bands (ev):

[...]

          k =-0.0760-0.0839 0.0000 ( 17948 PWs)   bands (ev):

   -55.6766 -55.6756 -55.4733 -55.4621 -55.4595 -55.3286 -55.3031 -55.2950
   -55.2892 -55.2260 -55.1763 -55.0983 -55.0842 -54.9830 -54.5842 -54.5831
   -31.9828 -31.9823 -31.9725 -31.9718 -31.7972 -31.7960 -31.7835 -31.7778
   -31.7418 -31.7213 -31.6966 -31.6872 -31.6862 -31.6690 -31.6549 -31.6505
   -31.6318 -31.6182 -31.6178 -31.6112 -31.5947 -31.5529 -31.5481 -31.5252
   -31.5241 -31.5180 -31.5143 -31.5139 -31.5057 -31.4872 -31.4652 -31.4562
   -31.4292 -31.3884 -31.3749 -31.3533 -31.3402 -31.3260 -31.2973 -31.2861
   -31.2362 -31.1948 -30.9154 -30.9146 -30.8177 -30.8164 -30.7792 -30.7783
   -20.7394 -16.2265 -15.6179 -15.5510 -15.5296 -15.5201 -15.4065 -15.3740
   -15.2417 -15.2406 -15.2175 -15.1587 -15.1481 -15.1175 -15.1081 -15.0832
   -15.0506 -15.0260 -15.0031 -14.9728 -14.9625 -14.9189 -14.8926 -14.8888
   -14.8755 -14.8260 -14.7395 -14.6540 -14.6351 -14.5761 -14.4928 -14.3668
   -13.0863 -13.0856  -7.4063  -6.0780  -5.6794  -5.0207  -3.7347  -3.0978
    -2.8972  -2.7489  -2.7235  -2.5950  -2.5759  -2.4822  -2.4740  -2.4305
    -2.4169  -2.3769  -2.3501  -2.3331  -2.2908  -2.2731  -2.2581  -2.2535
    -2.2355  -2.2050  -2.1966  -2.1923  -2.1835  -2.1529  -2.1246  -2.1108
    -2.0941  -2.0483  -2.0208  -1.9208  -1.8172  -1.7919  -1.7188  -1.7147
    -1.7124  -1.7001  -1.6774  -1.6534  -1.5686  -1.4785  -1.4407  -1.3843
    -1.2097  -1.1956  -1.1733  -1.1513  -1.0949  -1.0461  -1.0182  -0.9664
    -0.9547  -0.9301  -0.8563  -0.7940  -0.7216  -0.7012  -0.6322  -0.5843
    -0.5670  -0.4760  -0.4625  -0.4297  -0.3894  -0.3750  -0.3455  -0.2925
    -0.2772  -0.2585  -0.2290  -0.1903  -0.1555   0.0135   0.1480   0.2119
     0.2287   0.2655   0.3195   0.3859   0.4094   0.5925   0.6051   0.6093
     0.6490   0.7071   0.7330   0.7503   0.8451   0.9573   0.9837   1.0205
     1.0473   1.0666   1.1480   1.2068   1.7963   1.8045   1.8474   1.8481
     3.4550   3.9904   4.0095   4.0108   4.0118   4.1069   4.1312   4.1396
     4.2042   4.2626

     the Fermi energy is     3.4476 ev

!    total energy              =   -2971.49160026 Ry
     estimated scf accuracy    <       0.00000006 Ry
     smearing contrib. (-TS)   =      -0.01886279 Ry
     internal energy E=F+TS    =   -2971.47273746 Ry

     The total energy is F=E-TS. E is the sum of the following terms:
     one-electron contribution =  -23617.83344154 Ry
     hartree contribution      =   11902.76538994 Ry
     xc contribution           =    -492.36531727 Ry
     ewald contribution        =    9235.95849485 Ry
     electric field correction =       0.00213656 Ry

     convergence has been achieved in  67 iterations

     Forces acting on atoms (cartesian axes, Ry/au):

     atom    1 type  1   force =     0.00001264   -0.00040098    0.09767628
     atom    2 type  1   force =    -0.00003773    0.00022195   -0.17212115
     atom    3 type  2   force =     0.00005158   -0.00005235   -0.02537699
     atom    4 type  2   force =     0.00001462   -0.00144596    0.04758748
     atom    5 type  2   force =    -0.00617077   -0.00239913   -0.00086158
     atom    6 type  2   force =     0.00779340   -0.00181551   -0.00152717
     atom    7 type  1   force =    -0.00008422   -0.00483937    0.01892399
     atom    8 type  1   force =     0.00022681    0.01221362    0.02702733
     atom    9 type  2   force =    -0.00010436   -0.00017153   -0.00013232
     atom   10 type  2   force =    -0.00111919    0.00132183   -0.02506099
     atom   11 type  2   force =     0.00013995   -0.00003367    0.00006209
     atom   12 type  2   force =     0.00006468   -0.00003685   -0.00001071
     atom   13 type  1   force =     0.00034411   -0.00021937   -0.00010355
     atom   14 type  1   force =     0.00005334   -0.00012506   -0.00013782
     atom   15 type  2   force =    -0.00030413   -0.00018435   -0.00031735
     atom   16 type  2   force =    -0.00003454   -0.00011093   -0.00051743
     atom   17 type  2   force =    -0.00013107   -0.00005545   -0.00006386
     atom   18 type  2   force =     0.00004687   -0.00018263   -0.00009423
     atom   19 type  1   force =    -0.00017303   -0.00001080   -0.00033343
     atom   20 type  1   force =    -0.00015115   -0.00015489    0.00021502
     atom   21 type  2   force =     0.00005687    0.00008787    0.10225482
     atom   22 type  2   force =     0.00009519    0.00006142   -0.00023933
     atom   23 type  2   force =    -0.07353513   -0.00016125   -0.02811021
     atom   24 type  2   force =     0.07345452    0.00028039   -0.02818500
     atom   25 type  1   force =     0.00014138   -0.00033665    0.09746508
     atom   26 type  1   force =    -0.00004123   -0.00130997   -0.17225288
     atom   27 type  2   force =     0.00009405   -0.00030455   -0.02401308
     atom   28 type  2   force =     0.00004270    0.00031240    0.04321263
     atom   29 type  2   force =    -0.00506088    0.00403628   -0.00278619
     atom   30 type  2   force =     0.00657051    0.00442535   -0.00334317
     atom   31 type  1   force =     0.00000946    0.00580446    0.00694784
     atom   32 type  1   force =     0.00029044   -0.01518862    0.02660991
     atom   33 type  2   force =     0.00038392   -0.00004480    0.00007481
     atom   34 type  2   force =    -0.00138519    0.00100176   -0.02680072
     atom   35 type  2   force =     0.00037088    0.00005492    0.00003147
     atom   36 type  2   force =    -0.00028116   -0.00005911   -0.00008947
     atom   37 type  1   force =     0.00009616   -0.00052061   -0.00003563
     atom   38 type  1   force =     0.00024747    0.00011624    0.00014809
     atom   39 type  2   force =    -0.00012601   -0.00016658   -0.00012430
     atom   40 type  2   force =     0.00005501    0.00002335   -0.00017912
     atom   41 type  2   force =    -0.00017600    0.00008834   -0.00021762
     atom   42 type  2   force =    -0.00027887   -0.00010549   -0.00000654
     atom   43 type  1   force =    -0.00011375    0.00020076   -0.00056155
     atom   44 type  1   force =    -0.00026053    0.00035445    0.00020994
     atom   45 type  2   force =     0.00004906   -0.00008305    0.10205648
     atom   46 type  2   force =    -0.07357220   -0.00007750   -0.02814961
     atom   47 type  2   force =     0.07347924    0.00036037   -0.02819578
     atom   48 type  3   force =    -0.00186206    0.00073787    0.00172444
     atom   49 type  3   force =    -0.00008549   -0.00037379   -0.00079021
     atom   50 type  4   force =    -0.00288277    0.00048308    0.00212592
     atom   51 type  5   force =     0.00318468   -0.00114352   -0.00279652
     atom   52 type  5   force =     0.00037476   -0.00012839   -0.00029318
     atom   53 type  2   force =     0.00038558    0.00071289   -0.00033237
     atom   54 type  5   force =    -0.00015842   -0.00065691   -0.00019259

     Total force =     0.365056     Total SCF correction =     0.000497
  @ DRIVER MODE: Message from server: STATUS
  @ DRIVER MODE: Message from server: GETFORCE
  @ DRIVER MODE: Returning v,forces,stress,ensemble

     Writing output data file ./calc.save/
  @ DRIVER MODE: Message from server: EXIT
  @ DRIVE MODE: Exiting

     General routines

     Parallel routines

   This run was terminated on:  20:34:50  23Sep2021

   JOB DONE.