     Program PWSCF v.6.7GPU starts on 25Sep2021 at 18:10: 3

     R & G space division:  proc/nbgrp/npool/nimage =       8
     Reading input from /storage/home/hcoda1/3/ntian30/research/carbon/CxH_vib/H2O_calc/ads_slab/CH3OHN2HO_a/out_0007/pw.inp
Warning: card &CELL ignored
Warning: card   CELL_DYNAMICS='IPI', ignored
Warning: card / ignored

     Current dimensions of program PWSCF are:
     Max number of different atomic species (ntypx) = 10
     Max number of k-points (npk) =  40000
     Max angular momentum in pseudopotentials (lmaxx) =  3
     Presently no symmetry can be used with electric field

     Message from routine cell_base_init:
     DEPRECATED: use true lattice parameter, not A to a.u. conversion factor

     IMPORTANT: XC functional enforced from input :
     Exchange-correlation= BEEF-VDW
                           (   1   4  43  14   2   0   0)
     Any further DFT definition will be discarded
     Please, verify this is what you really want

  @ DRIVER MODE: Connecting to
 qe_1139763_2971668.sched-torque.pace.gatech.eduptbe1y82_scratch
  using UNIX socket
  @ DRIVER MODE: Message from server: STATUS
  @ DRIVER MODE: Message from server: INIT
  @ DRIVER MODE: Receiving replica           0          -1
  @ DRIVER MODE: Receiving encoded integer          25
  @ DRIVER MODE:  SCF:  T  FORCE:  T  STRESS:  F  VC:  F  ENSEMBLE:  F
  @ DRIVER MODE:  SCF:  T  FORCE:  T  STRESS:  F  VC:  F  ENSEMBLE:  F

     Using Slab Decomposition

     bravais-lattice index     =            0
     lattice parameter (alat)  =       1.8897  a.u.
     unit-cell volume          =    6658.9804 (a.u.)^3
     number of atoms/cell      =           57
     number of atomic types    =            5
     number of electrons       =       409.00
     number of Kohn-Sham states=          214
     kinetic-energy cutoff     =      29.3995  Ry
     charge density cutoff     =     293.9946  Ry
     scf convergence threshold =      7.3E-08
     mixing beta               =       0.0500
     number of iterations used =            8  plain     mixing
     Exchange-correlation= BEEF-VDW
                           (   1   4  43  14   2   0   0)

     celldm(1)=   1.889726  celldm(2)=   0.000000  celldm(3)=   0.000000
     celldm(4)=   0.000000  celldm(5)=   0.000000  celldm(6)=   0.000000

     crystal axes: (cart. coord. in units of alat)
               a(1) = (   6.579727   0.000000   0.000000 )
               a(2) = (  -0.000775   5.961596   0.000000 )
               a(3) = (   0.000000   0.000000  25.155947 )

     reciprocal axes: (cart. coord. in units 2 pi/alat)
               b(1) = (  0.151982  0.000020  0.000000 )
               b(2) = (  0.000000  0.167740  0.000000 )
               b(3) = (  0.000000  0.000000  0.039752 )

     PseudoPot. # 1 for Ti read from file:
     /storage/coda1/p-amedford6/0/shared/rich_project_chbe-medford/medford-share/data/pseudos_module/espresso/nninc/pbe/van/Ti.UPF
     MD5 check sum: 8e4df49b7f0d34bbd5052bf3f5ea0213
     Pseudo is Ultrasoft, Zval = 12.0
     Generated by new atomic code, or converted to UPF format
     Using radial grid of  851 points,  6 beta functions with:
                l(1) =   0
                l(2) =   0
                l(3) =   1
                l(4) =   1
                l(5) =   2
                l(6) =   2
     Q(r) pseudized with  8 coefficients,  rinner =    1.000   1.000   1.000
                                                       1.000   1.000

     PseudoPot. # 2 for O  read from file:
     /storage/coda1/p-amedford6/0/shared/rich_project_chbe-medford/medford-share/data/pseudos_module/espresso/nninc/pbe/van/O.UPF
     MD5 check sum: 78c19812648e8988a0fe644b0f25305e
     Pseudo is Ultrasoft, Zval =  6.0
     Generated by new atomic code, or converted to UPF format
     Using radial grid of  737 points,  4 beta functions with:
                l(1) =   0
                l(2) =   0
                l(3) =   1
                l(4) =   1
     Q(r) pseudized with  8 coefficients,  rinner =    0.800   0.800   0.800

     PseudoPot. # 3 for C  read from file:
     /storage/coda1/p-amedford6/0/shared/rich_project_chbe-medford/medford-share/data/pseudos_module/espresso/nninc/pbe/van/C.UPF
     MD5 check sum: 1a69bf6b8db32088f5b2163dbdb77a27
     Pseudo is Ultrasoft, Zval =  4.0
     Generated by new atomic code, or converted to UPF format
     Using radial grid of  721 points,  4 beta functions with:
                l(1) =   0
                l(2) =   0
                l(3) =   1
                l(4) =   1
     Q(r) pseudized with  8 coefficients,  rinner =    0.800   0.800   0.800

     PseudoPot. # 4 for H  read from file:
     /storage/coda1/p-amedford6/0/shared/rich_project_chbe-medford/medford-share/data/pseudos_module/espresso/nninc/pbe/van/H.UPF
     MD5 check sum: b5ee9d7bfd3a09ee7748110bda690ff7
     Pseudo is Ultrasoft, Zval =  1.0
     Generated by new atomic code, or converted to UPF format
     Using radial grid of  615 points,  1 beta functions with:
                l(1) =   0
     Q(r) pseudized with  8 coefficients,  rinner =    0.800

     PseudoPot. # 5 for N  read from file:
     /storage/coda1/p-amedford6/0/shared/rich_project_chbe-medford/medford-share/data/pseudos_module/espresso/nninc/pbe/van/N.UPF
     MD5 check sum: 90d10febe142ad51ac9d5be1deb811c4
     Pseudo is Ultrasoft, Zval =  5.0
     Generated by new atomic code, or converted to UPF format
     Using radial grid of  729 points,  4 beta functions with:
                l(1) =   0
                l(2) =   0
                l(3) =   1
                l(4) =   1
     Q(r) pseudized with  8 coefficients,  rinner =    0.800   0.800   0.800

     atomic species   valence    mass     pseudopotential
        Ti1           12.00    47.86700     Ti( 1.00)
        O1             6.00    15.99900     O ( 1.00)
        C1             4.00    12.01100     C ( 1.00)
        H1             1.00     1.00800     H ( 1.00)
        N1             5.00    14.00700     N ( 1.00)

     No symmetry found

   Cartesian axes

     site n.     atom                  positions (alat units)
         1           Ti1 tau(   1) = (   0.0004258   2.9801865   6.0000000  )
         2           Ti1 tau(   2) = (   3.2906075   1.4906267   6.0002472  )
         3           O1  tau(   3) = (   0.0006271   0.0005054   7.9858123  )
         4           O1  tau(   4) = (   3.2906025   0.0005020   7.3038282  )
         5           O1  tau(   5) = (   4.5942328   1.4918067   9.2879030  )
         6           O1  tau(   6) = (   1.9868534   1.4903216   9.2879459  )
         7           Ti1 tau(   7) = (   3.3371032   3.0268772   9.1887580  )
         8           Ti1 tau(   8) = (   0.0611061   1.5258697   9.2809523  )
         9           O1  tau(   9) = (   3.3143856   0.0188946  11.3581724  )
        10           O1  tau(  10) = (   0.0164151   0.0031400  10.5895864  )
        11           O1  tau(  11) = (   1.3088961   1.4994640  12.6347600  )
        12           O1  tau(  12) = (   5.3347766   1.4946156  12.6347356  )
        13           Ti1 tau(  13) = (   0.0202478   3.0292801  12.5720800  )
        14           Ti1 tau(  14) = (   3.3188568   1.5851219  12.4260843  )
        15           O1  tau(  15) = (   0.0445434   5.9450813  14.6510506  )
        16           O1  tau(  16) = (   3.3207065   5.8849141  14.0104376  )
        17           O1  tau(  17) = (   4.6249962   1.5116716  16.1313945  )
        18           O1  tau(  18) = (   2.0639035   1.5439872  16.0680944  )
        19           Ti1 tau(  19) = (   3.3360141   2.9454253  15.6763505  )
        20           Ti1 tau(  20) = (   0.0686920   1.3314864  15.9334539  )
        21           O1  tau(  21) = (   3.2904802   0.0005063   4.7018136  )
        22           O1  tau(  22) = (   0.0979609   0.0039778  17.1657837  )
        23           O1  tau(  23) = (   1.3043587   1.4918075   6.0039043  )
        24           O1  tau(  24) = (   5.2767064   1.4903225   6.0039473  )
        25           Ti1 tau(  25) = (   0.0000382   5.9609847   6.0000000  )
        26           Ti1 tau(  26) = (   3.2902200   4.4714249   6.0002472  )
        27           O1  tau(  27) = (   0.0002396   2.9813036   7.9858123  )
        28           O1  tau(  28) = (   3.2902150   2.9813002   7.3038282  )
        29           O1  tau(  29) = (   4.5938453   4.4726049   9.2879030  )
        30           O1  tau(  30) = (   1.9864658   4.4711199   9.2879459  )
        31           Ti1 tau(  31) = (   3.3368545   0.0404040   9.1664313  )
        32           Ti1 tau(  32) = (   0.0604674   4.4799263   9.2696248  )
        33           O1  tau(  33) = (   3.3137611   2.9662427  11.3084074  )
        34           O1  tau(  34) = (   0.0134136   2.9850836  10.6046154  )
        35           O1  tau(  35) = (   1.3054726   4.4719986  12.6384794  )
        36           O1  tau(  36) = (   5.3362180   4.4781181  12.6390536  )
        37           Ti1 tau(  37) = (   0.0365240   0.0487139  12.4702884  )
        38           Ti1 tau(  38) = (   3.3180881   4.6653017  12.7087268  )
        39           O1  tau(  39) = (   0.0228105   2.9918545  14.7761892  )
        40           O1  tau(  40) = (   3.3431522   2.9700269  13.9040455  )
        41           O1  tau(  41) = (   4.6265974   4.4152401  16.1544535  )
        42           O1  tau(  42) = (   2.0571238   4.3592187  16.1146037  )
        43           Ti1 tau(  43) = (   3.3848590   5.9294639  16.2700006  )
        44           Ti1 tau(  44) = (   0.0517009   4.5268197  15.8466567  )
        45           O1  tau(  45) = (   3.2900926   2.9813045   4.7018136  )
        46           O1  tau(  46) = (   1.3039711   4.4726057   6.0039043  )
        47           O1  tau(  47) = (   5.2763189   4.4711207   6.0039473  )
        48           C1  tau(  48) = (   5.9450987   3.0517216  18.8599509  )
        49           O1  tau(  49) = (   0.1702289   3.0084098  17.6484507  )
        50           H1  tau(  50) = (   4.9625852   2.6832861  18.5889656  )
        51           H1  tau(  51) = (   1.1163247   3.1442434  17.8758057  )
        52           H1  tau(  52) = (   6.3899442   2.3914015  19.6026461  )
        53           H1  tau(  53) = (   5.8846647   4.0795385  19.2151274  )
        54           N1  tau(  54) = (   5.7598779   3.1323611  22.9045362  )
        55           N1  tau(  55) = (   4.9845974   3.1850264  22.1203839  )
        56           O1  tau(  56) = (   3.1467188   0.0118795  18.1166202  )
        57           H1  tau(  57) = (   2.2164505   0.0865285  18.3868412  )

     number of k points=    10  Fermi-Dirac smearing, width (Ry)=  0.0073
                       cart. coord. in units 2pi/alat
        k(    1) = (   0.0000000   0.0000000   0.0000000), wk =   0.1250000
        k(    2) = (   0.0000000   0.0419351   0.0000000), wk =   0.2500000
        k(    3) = (   0.0000000  -0.0838702   0.0000000), wk =   0.1250000
        k(    4) = (   0.0379955   0.0000049   0.0000000), wk =   0.2500000
        k(    5) = (   0.0379955   0.0419400   0.0000000), wk =   0.2500000
        k(    6) = (   0.0379955  -0.0838652   0.0000000), wk =   0.2500000
        k(    7) = (   0.0379955  -0.0419301   0.0000000), wk =   0.2500000
        k(    8) = (  -0.0759910  -0.0000099   0.0000000), wk =   0.1250000
        k(    9) = (  -0.0759910   0.0419252   0.0000000), wk =   0.2500000
        k(   10) = (  -0.0759910  -0.0838800   0.0000000), wk =   0.1250000

     Initial potential from superposition of free atoms

     starting charge  392.99914, renormalised to  409.00000

     negative rho (up, down):  9.138E-03 0.000E+00

     %%%%%%%%%%%%%%%%%%%%%%%%%%%%%%%%%%%%%%%%%%%%%%%%%%%%%%%%%%%%%%%%%%%%%%%%
     %                                                                      %
     % You are using vdW-DF, which was implemented by the Thonhauser group. %
     % Please cite the following two papers that made this development      %
     % possible and the two reviews that describe the various versions:     %
     %                                                                      %
     %   T. Thonhauser et al., PRL 115, 136402 (2015).                      %
     %   T. Thonhauser et al., PRB 76, 125112 (2007).                       %
     %   K. Berland et al., Rep. Prog. Phys. 78, 066501 (2015).             %
     %   D.C. Langreth et al., J. Phys.: Condens. Matter 21, 084203 (2009). %
     %                                                                      %
     %                                                                      %
     % If you are calculating the stress with vdW-DF, please also cite:     %
     %                                                                      %
     %   R. Sabatini et al., J. Phys.: Condens. Matter 24, 424209 (2012).   %
     %                                                                      %
     %%%%%%%%%%%%%%%%%%%%%%%%%%%%%%%%%%%%%%%%%%%%%%%%%%%%%%%%%%%%%%%%%%%%%%%%

     Adding external electric field

     Computed dipole along edir(3) :
        Dipole              -18.8687 Ry au,        -47.9594 Debye
        Dipole field         -0.0356 Ry au,

        Potential amp.        3.3008 Ry
        Total length         46.3494 bohr

     Starting wfcs are  309 atomic wfcs
  @ DRIVER MODE: Message from server: STATUS
  @ DRIVER MODE: Message from server: POSDATA
  @ DRIVER MODE: Reading and sharing cell
  @ DRIVER MODE: Reading and sharing positions
  @ DRIVER MODE: Received positions

     Self-consistent Calculation

     iteration #  1     ecut=    29.40 Ry     beta= 0.05
     Davidson diagonalization with overlap
     c_bands:  5 eigenvalues not converged
     c_bands:  5 eigenvalues not converged
     c_bands:  1 eigenvalues not converged
     c_bands:  4 eigenvalues not converged
     c_bands:  1 eigenvalues not converged
     c_bands:  4 eigenvalues not converged
     ethr =  1.00E-05,  avg # of iterations = 27.3

[...]

     total energy              =   -2113.21269714 Ry
     estimated scf accuracy    <   10331.06651163 Ry

     iteration #  2     ecut=    29.40 Ry     beta= 0.05
     Davidson diagonalization with overlap
     ethr =  1.00E-02,  avg # of iterations = 29.6

[...]

     iteration # 76     ecut=    29.40 Ry     beta= 0.05
     Davidson diagonalization with overlap
     c_bands:  1 eigenvalues not converged
     ethr =  5.29E-11,  avg # of iterations = 14.7

[...]

     total energy              =   -3006.45815038 Ry
     estimated scf accuracy    <       0.00000012 Ry

     iteration # 78     ecut=    29.40 Ry     beta= 0.05
     Davidson diagonalization with overlap
     ethr =  2.99E-11,  avg # of iterations = 11.6

     negative rho (up, down):  1.064E-02 0.000E+00

     Adding external electric field

     Computed dipole along edir(3) :
        Dipole                1.0459 Ry au,          2.6583 Debye
        Dipole field          0.0020 Ry au,

        Potential amp.       -0.1830 Ry
        Total length         46.3494 bohr

     End of self-consistent calculation

          k = 0.0000 0.0000 0.0000 ( 18029 PWs)   bands (ev):

   -55.3319 -55.2564 -55.2212 -55.1469 -55.1254 -55.0903 -55.0542 -55.0498
   -55.0481 -55.0286 -55.0187 -54.9886 -54.9023 -54.8258 -54.2159 -54.1818
   -31.7344 -31.7260 -31.6382 -31.6266 -31.5855 -31.5719 -31.5471 -31.5455
   -31.5106 -31.4992 -31.4881 -31.4233 -31.4101 -31.4101 -31.3832 -31.3650
   -31.3565 -31.3393 -31.3386 -31.3273 -31.3198 -31.3152 -31.2692 -31.2672
   -31.2651 -31.2584 -31.2557 -31.2426 -31.2363 -31.2178 -31.2108 -31.2002
   -31.1986 -31.1785 -31.1743 -31.1661 -31.1651 -31.1308 -31.0911 -31.0712
   -31.0402 -31.0297 -30.6220 -30.5358 -30.5132 -30.4390 -30.3527 -30.2411
   -21.4994 -19.7017 -16.1371 -15.9084 -15.7292 -15.5273 -15.4705 -15.4040
   -15.2167 -15.1434 -14.9874 -14.8622 -14.8470 -14.7911 -14.7908 -14.7797
   -14.7509 -14.7257 -14.6805 -14.6690 -14.6637 -14.6601 -14.5987 -14.5562
   -14.5540 -14.5263 -14.5057 -14.3785 -14.3317 -14.2770 -14.1071 -14.0849
   -12.7156 -12.5995 -10.5483  -6.6789  -6.3996  -4.6685  -4.6235  -4.5916
    -4.4190  -3.6530  -3.3631  -3.2574  -3.1573  -3.1385  -3.0733  -3.0223
    -2.8082  -2.6925  -2.6388  -2.5260  -2.3991  -2.3619  -2.3040  -2.2784
    -2.1888  -2.1699  -2.1380  -2.1084  -2.0537  -2.0257  -2.0184  -2.0054
    -1.9293  -1.9231  -1.7932  -1.7882  -1.7320  -1.6399  -1.6222  -1.5991
    -1.5914  -1.5579  -1.5548  -1.5130  -1.4892  -1.4648  -1.4340  -1.3604
    -1.3418  -1.2785  -1.2419  -1.0067  -0.8532  -0.8281  -0.7501  -0.7336
    -0.7032  -0.6741  -0.6540  -0.6427  -0.6060  -0.5907  -0.4871  -0.3832
    -0.3744  -0.3151  -0.2769  -0.2725  -0.1371  -0.0919  -0.0178   0.0050
     0.0372   0.0582   0.1425   0.1914   0.2128   0.2793   0.3108   0.4162
     0.4541   0.4731   0.5142   0.5698   0.6302   0.6638   0.7034   0.7067
     0.7395   0.7887   0.8182   0.8528   0.8751   0.9221   1.0250   1.0623
     1.0728   1.2138   1.2246   1.3066   1.4315   1.4832   1.7565   1.8090
     1.8556   2.0013   2.3778   2.4247   3.8675   3.9701   3.9912   4.0124
     4.0802   4.1620   4.3275   4.3508   4.4149   4.5159

[...]

          k = 0.0380-0.0419 0.0000 ( 17876 PWs)   bands (ev):

[...]

          k =-0.0760-0.0000 0.0000 ( 17886 PWs)   bands (ev):

[...]

          k =-0.0760-0.0839 0.0000 ( 17948 PWs)   bands (ev):

   -55.3311 -55.2432 -55.2342 -55.1410 -55.1210 -55.0960 -55.0537 -55.0491
   -55.0403 -55.0321 -55.0196 -54.9979 -54.8987 -54.8294 -54.1990 -54.1985
   -31.6456 -31.5816 -31.5719 -31.5543 -31.5454 -31.5449 -31.5394 -31.5235
   -31.4613 -31.4568 -31.4177 -31.3967 -31.3847 -31.3796 -31.3632 -31.3613
   -31.3575 -31.3557 -31.3486 -31.3429 -31.3378 -31.3358 -31.3205 -31.3186
   -31.2999 -31.2889 -31.2596 -31.2533 -31.2502 -31.2460 -31.2381 -31.2370
   -31.2302 -31.2254 -31.2216 -31.2171 -31.2146 -31.1765 -31.1579 -31.0952
   -31.0772 -31.0336 -30.5261 -30.5258 -30.4358 -30.4343 -30.3960 -30.3951
   -21.4993 -19.6979 -16.1133 -15.5385 -15.3821 -15.2108 -15.1970 -15.1177
   -15.0262 -15.0086 -14.9774 -14.9645 -14.9476 -14.9229 -14.9150 -14.8810
   -14.8167 -14.7749 -14.7518 -14.7435 -14.6966 -14.6912 -14.6877 -14.6248
   -14.6177 -14.5994 -14.5748 -14.5149 -14.5063 -14.4053 -14.3902 -14.2185
   -12.7018 -12.7009 -10.5503  -6.6792  -6.4015  -4.6623  -4.6304  -4.5811
    -4.4109  -3.6186  -3.3536  -2.6867  -2.6012  -2.5188  -2.4346  -2.3564
    -2.3013  -2.2525  -2.2315  -2.1870  -2.1657  -2.0963  -2.0615  -2.0531
    -2.0334  -2.0313  -2.0009  -1.9856  -1.9727  -1.9515  -1.9229  -1.9057
    -1.8951  -1.8740  -1.8544  -1.8284  -1.8165  -1.8062  -1.7915  -1.7752
    -1.6651  -1.6477  -1.6158  -1.4519  -1.4405  -1.3721  -1.3406  -1.3140
    -1.3100  -1.2799  -1.2641  -1.2217  -1.1166  -1.0889  -1.0400  -0.9921
    -0.9059  -0.8901  -0.8392  -0.7880  -0.7424  -0.7137  -0.6834  -0.6682
    -0.6138  -0.4763  -0.4551  -0.4099  -0.2911  -0.2178  -0.2022  -0.1896
    -0.1676  -0.1448  -0.0982  -0.0900  -0.0281  -0.0158   0.0553   0.0594
     0.0884   0.1101   0.2124   0.3346   0.4135   0.4565   0.5021   0.5513
     0.5854   0.6673   0.7431   0.8299   0.9061   0.9355   0.9492   1.0670
     1.0994   1.1519   1.1980   1.2179   1.2763   1.3121   1.3523   1.3854
     2.1700   2.1837   2.2400   2.2457   4.0486   4.2982   4.3582   4.3753
     4.3851   4.4174   4.4385   4.4899   4.5064   4.5301

     the Fermi energy is     3.8777 ev

!    total energy              =   -3006.45815890 Ry
     estimated scf accuracy    <       0.00000006 Ry
     smearing contrib. (-TS)   =      -0.02082790 Ry
     internal energy E=F+TS    =   -3006.43733100 Ry

     The total energy is F=E-TS. E is the sum of the following terms:
     one-electron contribution =  -22317.79800248 Ry
     hartree contribution      =   11258.40088054 Ry
     xc contribution           =    -501.14213821 Ry
     ewald contribution        =    8554.09986495 Ry
     electric field correction =       0.00206420 Ry

     convergence has been achieved in  78 iterations

     Forces acting on atoms (cartesian axes, Ry/au):

     atom    1 type  1   force =    -0.00037549   -0.00017198    0.09497944
     atom    2 type  1   force =    -0.00035704    0.00512877   -0.17482172
     atom    3 type  2   force =     0.00070852    0.00012816   -0.02673321
     atom    4 type  2   force =     0.00128876    0.00083162    0.05206715
     atom    5 type  2   force =    -0.01096751   -0.00255875    0.00077890
     atom    6 type  2   force =     0.01193932   -0.00380876    0.00178729
     atom    7 type  1   force =    -0.00022496    0.00039812    0.00068006
     atom    8 type  1   force =     0.00013720    0.00022831    0.00015896
     atom    9 type  2   force =     0.00025009    0.00074390   -0.00066890
     atom   10 type  2   force =    -0.00039164    0.00015776    0.00014577
     atom   11 type  2   force =     0.00043578   -0.00014926    0.00010245
     atom   12 type  2   force =    -0.00084420   -0.00014643    0.00035469
     atom   13 type  1   force =     0.00043678    0.00035657   -0.00023908
     atom   14 type  1   force =    -0.00033780   -0.00069989    0.00091270
     atom   15 type  2   force =    -0.00015895   -0.00056746   -0.00100852
     atom   16 type  2   force =    -0.00030035   -0.00000085   -0.00020511
     atom   17 type  2   force =    -0.00113331    0.00024122   -0.00011061
     atom   18 type  2   force =     0.00023756    0.00084760    0.00010958
     atom   19 type  1   force =     0.00045754   -0.00083574    0.00023007
     atom   20 type  1   force =    -0.00056133   -0.00002255    0.00039228
     atom   21 type  2   force =    -0.00000463    0.00007464    0.10302202
     atom   22 type  2   force =     0.00004744   -0.00014967    0.00096158
     atom   23 type  2   force =    -0.07195824    0.00013849   -0.02803206
     atom   24 type  2   force =     0.07179444    0.00063597   -0.02813527
     atom   25 type  1   force =    -0.00035922    0.00026023    0.10242914
     atom   26 type  1   force =    -0.00010766   -0.00475092   -0.17506676
     atom   27 type  2   force =     0.00085039    0.00117326   -0.02485123
     atom   28 type  2   force =     0.00119543    0.00025539    0.05169934
     atom   29 type  2   force =    -0.01193119    0.00381350    0.00172546
     atom   30 type  2   force =     0.01376918    0.00146266    0.00245722
     atom   31 type  1   force =    -0.00029137   -0.00017449    0.00081544
     atom   32 type  1   force =     0.00028599    0.00028748    0.00059003
     atom   33 type  2   force =     0.00000488    0.00020402    0.00009621
     atom   34 type  2   force =    -0.00027231   -0.00031873   -0.00056162
     atom   35 type  2   force =    -0.00022272    0.00004916   -0.00048395
     atom   36 type  2   force =    -0.00038739    0.00009068   -0.00010147
     atom   37 type  1   force =    -0.00005597   -0.00035974    0.00002779
     atom   38 type  1   force =    -0.00055962    0.00026528   -0.00002625
     atom   39 type  2   force =    -0.00018795   -0.00024537    0.00080154
     atom   40 type  2   force =    -0.00020432    0.00013059    0.00031815
     atom   41 type  2   force =    -0.00160717   -0.00015665   -0.00019603
     atom   42 type  2   force =     0.00077285   -0.00033959   -0.00023929
     atom   43 type  1   force =    -0.00000382    0.00055635    0.00035028
     atom   44 type  1   force =    -0.00040737    0.00028441    0.00005183
     atom   45 type  2   force =     0.00000212    0.00014001    0.10260897
     atom   46 type  2   force =    -0.07185209   -0.00062725   -0.02797734
     atom   47 type  2   force =     0.07171005   -0.00013493   -0.02805156
     atom   48 type  3   force =    -0.00447308   -0.00012893    0.00213340
     atom   49 type  2   force =     0.02107529    0.00143008    0.00089611
     atom   50 type  4   force =    -0.00089067   -0.00033385    0.00118749
     atom   51 type  4   force =    -0.01583590   -0.00188629   -0.00544664
     atom   52 type  4   force =    -0.00004311   -0.00002960   -0.00048967
     atom   53 type  4   force =    -0.00020987   -0.00032915   -0.00062571
     atom   54 type  5   force =     0.00014410   -0.00007944    0.00035100
     atom   55 type  5   force =    -0.00049704    0.00006331   -0.00032559
     atom   56 type  2   force =     0.00077265   -0.00056939    0.00033388
     atom   57 type  4   force =    -0.00030107   -0.00080187   -0.00115862

     Total force =     0.365855     Total SCF correction =     0.000744
  @ DRIVER MODE: Message from server: STATUS
  @ DRIVER MODE: Message from server: GETFORCE
  @ DRIVER MODE: Returning v,forces,stress,ensemble

     Writing output data file ./calc.save/
  @ DRIVER MODE: Message from server: EXIT
  @ DRIVE MODE: Exiting

     General routines

     Parallel routines

   This run was terminated on:  18:44:26  25Sep2021

   JOB DONE.