     Program PWSCF v.6.7GPU starts on 15Sep2021 at 17:22:23

     R & G space division:  proc/nbgrp/npool/nimage =      10
     Reading input from /storage/home/hcoda1/3/ntian30/research/carbon/CxH_vib/H2O_calc/ads_slab/CHN2HH2O_a/out_0006/pw.inp
Warning: card &CELL ignored
Warning: card   CELL_DYNAMICS='IPI', ignored
Warning: card / ignored

     Current dimensions of program PWSCF are:
     Max number of different atomic species (ntypx) = 10
     Max number of k-points (npk) =  40000
     Max angular momentum in pseudopotentials (lmaxx) =  3
     Presently no symmetry can be used with electric field

     Message from routine cell_base_init:
     DEPRECATED: use true lattice parameter, not A to a.u. conversion factor

     IMPORTANT: XC functional enforced from input :
     Exchange-correlation= BEEF-VDW
                           (   1   4  43  14   2   0   0)
     Any further DFT definition will be discarded
     Please, verify this is what you really want

  @ DRIVER MODE: Connecting to
 qe_1139763_2852626.sched-torque.pace.gatech.eduqtdann2t_scratch
  using UNIX socket
  @ DRIVER MODE: Message from server: STATUS
  @ DRIVER MODE: Message from server: INIT
  @ DRIVER MODE: Receiving replica           0          -1
  @ DRIVER MODE: Receiving encoded integer          25
  @ DRIVER MODE:  SCF:  T  FORCE:  T  STRESS:  F  VC:  F  ENSEMBLE:  F
  @ DRIVER MODE:  SCF:  T  FORCE:  T  STRESS:  F  VC:  F  ENSEMBLE:  F

     Using Slab Decomposition

     bravais-lattice index     =            0
     lattice parameter (alat)  =       1.8897  a.u.
     unit-cell volume          =    6658.9804 (a.u.)^3
     number of atoms/cell      =           55
     number of atomic types    =            5
     number of electrons       =       402.00
     number of Kohn-Sham states=          211
     kinetic-energy cutoff     =      29.3995  Ry
     charge density cutoff     =     293.9946  Ry
     scf convergence threshold =      7.3E-08
     mixing beta               =       0.0500
     number of iterations used =            8  plain     mixing
     Exchange-correlation= BEEF-VDW
                           (   1   4  43  14   2   0   0)

     celldm(1)=   1.889726  celldm(2)=   0.000000  celldm(3)=   0.000000
     celldm(4)=   0.000000  celldm(5)=   0.000000  celldm(6)=   0.000000

     crystal axes: (cart. coord. in units of alat)
               a(1) = (   6.579727   0.000000   0.000000 )
               a(2) = (  -0.000775   5.961596   0.000000 )
               a(3) = (   0.000000   0.000000  25.155947 )

     reciprocal axes: (cart. coord. in units 2 pi/alat)
               b(1) = (  0.151982  0.000020  0.000000 )
               b(2) = (  0.000000  0.167740  0.000000 )
               b(3) = (  0.000000  0.000000  0.039752 )

     PseudoPot. # 1 for Ti read from file:
     /storage/coda1/p-amedford6/0/shared/rich_project_chbe-medford/medford-share/data/pseudos_module/espresso/nninc/pbe/van/Ti.UPF
     MD5 check sum: 8e4df49b7f0d34bbd5052bf3f5ea0213
     Pseudo is Ultrasoft, Zval = 12.0
     Generated by new atomic code, or converted to UPF format
     Using radial grid of  851 points,  6 beta functions with:
                l(1) =   0
                l(2) =   0
                l(3) =   1
                l(4) =   1
                l(5) =   2
                l(6) =   2
     Q(r) pseudized with  8 coefficients,  rinner =    1.000   1.000   1.000
                                                       1.000   1.000

     PseudoPot. # 2 for O  read from file:
     /storage/coda1/p-amedford6/0/shared/rich_project_chbe-medford/medford-share/data/pseudos_module/espresso/nninc/pbe/van/O.UPF
     MD5 check sum: 78c19812648e8988a0fe644b0f25305e
     Pseudo is Ultrasoft, Zval =  6.0
     Generated by new atomic code, or converted to UPF format
     Using radial grid of  737 points,  4 beta functions with:
                l(1) =   0
                l(2) =   0
                l(3) =   1
                l(4) =   1
     Q(r) pseudized with  8 coefficients,  rinner =    0.800   0.800   0.800

     PseudoPot. # 3 for N  read from file:
     /storage/coda1/p-amedford6/0/shared/rich_project_chbe-medford/medford-share/data/pseudos_module/espresso/nninc/pbe/van/N.UPF
     MD5 check sum: 90d10febe142ad51ac9d5be1deb811c4
     Pseudo is Ultrasoft, Zval =  5.0
     Generated by new atomic code, or converted to UPF format
     Using radial grid of  729 points,  4 beta functions with:
                l(1) =   0
                l(2) =   0
                l(3) =   1
                l(4) =   1
     Q(r) pseudized with  8 coefficients,  rinner =    0.800   0.800   0.800

     PseudoPot. # 4 for C  read from file:
     /storage/coda1/p-amedford6/0/shared/rich_project_chbe-medford/medford-share/data/pseudos_module/espresso/nninc/pbe/van/C.UPF
     MD5 check sum: 1a69bf6b8db32088f5b2163dbdb77a27
     Pseudo is Ultrasoft, Zval =  4.0
     Generated by new atomic code, or converted to UPF format
     Using radial grid of  721 points,  4 beta functions with:
                l(1) =   0
                l(2) =   0
                l(3) =   1
                l(4) =   1
     Q(r) pseudized with  8 coefficients,  rinner =    0.800   0.800   0.800

     PseudoPot. # 5 for H  read from file:
     /storage/coda1/p-amedford6/0/shared/rich_project_chbe-medford/medford-share/data/pseudos_module/espresso/nninc/pbe/van/H.UPF
     MD5 check sum: b5ee9d7bfd3a09ee7748110bda690ff7
     Pseudo is Ultrasoft, Zval =  1.0
     Generated by new atomic code, or converted to UPF format
     Using radial grid of  615 points,  1 beta functions with:
                l(1) =   0
     Q(r) pseudized with  8 coefficients,  rinner =    0.800

     atomic species   valence    mass     pseudopotential
        Ti1           12.00    47.86700     Ti( 1.00)
        O1             6.00    15.99900     O ( 1.00)
        N1             5.00    14.00700     N ( 1.00)
        C1             4.00    12.01100     C ( 1.00)
        H1             1.00     1.00800     H ( 1.00)

     No symmetry found

   Cartesian axes

     site n.     atom                  positions (alat units)
         1           Ti1 tau(   1) = (   0.0004258   2.9801865   6.0000000  )
         2           Ti1 tau(   2) = (   3.2906075   1.4906267   6.0002472  )
         3           O1  tau(   3) = (   0.0006271   0.0005054   7.9858123  )
         4           O1  tau(   4) = (   3.2906025   0.0005020   7.3038282  )
         5           O1  tau(   5) = (   4.5942328   1.4918067   9.2879030  )
         6           O1  tau(   6) = (   1.9868534   1.4903216   9.2879459  )
         7           Ti1 tau(   7) = (   3.2907910   2.8959150   9.1758416  )
         8           Ti1 tau(   8) = (   0.0015273   1.4827037   9.2680791  )
         9           O1  tau(   9) = (   3.2768631   0.0039008  11.3091060  )
        10           O1  tau(  10) = (   0.0116148   5.9584955  10.6183126  )
        11           O1  tau(  11) = (   1.2710838   1.4709840  12.6395574  )
        12           O1  tau(  12) = (   5.2772223   1.5075092  12.6020671  )
        13           Ti1 tau(  13) = (   0.0276258   2.9086511  12.7028215  )
        14           Ti1 tau(  14) = (   3.3492493   1.4375301  12.4845766  )
        15           O1  tau(  15) = (   6.5006329   5.9509897  14.6081112  )
        16           O1  tau(  16) = (   3.3450391   0.0041935  13.9069437  )
        17           O1  tau(  17) = (   4.5555219   1.5659029  16.0522165  )
        18           O1  tau(  18) = (   1.9836904   1.4119734  15.8927236  )
        19           Ti1 tau(  19) = (   3.2827818   2.9316656  15.8555152  )
        20           Ti1 tau(  20) = (   6.5629331   1.3437128  15.9803530  )
        21           O1  tau(  21) = (   3.2904802   0.0005063   4.7018136  )
        22           O1  tau(  22) = (   6.5074089   5.9525318  17.1494500  )
        23           O1  tau(  23) = (   1.3043587   1.4918075   6.0039043  )
        24           O1  tau(  24) = (   5.2767064   1.4903225   6.0039473  )
        25           Ti1 tau(  25) = (   0.0000382   5.9609847   6.0000000  )
        26           Ti1 tau(  26) = (   3.2902200   4.4714249   6.0002472  )
        27           O1  tau(  27) = (   0.0002396   2.9813036   7.9858123  )
        28           O1  tau(  28) = (   3.2902150   2.9813002   7.3038282  )
        29           O1  tau(  29) = (   4.5938453   4.4726049   9.2879030  )
        30           O1  tau(  30) = (   1.9864658   4.4711199   9.2879459  )
        31           Ti1 tau(  31) = (   3.2891106   5.8743827   9.1763621  )
        32           Ti1 tau(  32) = (   0.0006254   4.4649316   9.2693709  )
        33           O1  tau(  33) = (   3.2854303   2.9668816  11.2996989  )
        34           O1  tau(  34) = (   0.0092240   2.9805883  10.6323155  )
        35           O1  tau(  35) = (   1.2743094   4.4851408  12.6236879  )
        36           O1  tau(  36) = (   5.2782958   4.4707264  12.5946799  )
        37           Ti1 tau(  37) = (   0.0481499   5.8920156  12.5607908  )
        38           Ti1 tau(  38) = (   3.3544845   4.3749597  12.5572158  )
        39           O1  tau(  39) = (   6.5410016   3.0017514  14.6365314  )
        40           O1  tau(  40) = (   3.2441134   3.0029108  13.8718978  )
        41           O1  tau(  41) = (   4.5385932   4.4028810  16.0550583  )
        42           O1  tau(  42) = (   1.9619458   4.5383001  15.8611175  )
        43           Ti1 tau(  43) = (   3.2178196   5.9097812  15.7399460  )
        44           Ti1 tau(  44) = (   6.5330930   4.4908980  15.8705378  )
        45           O1  tau(  45) = (   3.2900926   2.9813045   4.7018136  )
        46           O1  tau(  46) = (   1.3039711   4.4726057   6.0039043  )
        47           O1  tau(  47) = (   5.2763189   4.4711207   6.0039473  )
        48           N1  tau(  48) = (   1.2867840   3.0293760  18.3447772  )
        49           C1  tau(  49) = (   2.5003166   3.0326976  17.9707196  )
        50           H1  tau(  50) = (   3.2053588   3.1791635  18.8000936  )
        51           N1  tau(  51) = (   0.2138509   2.9871109  17.4421441  )
        52           H1  tau(  52) = (   5.9621615   2.9869774  18.0311354  )
        53           O1  tau(  53) = (   3.4290693   5.9360351  18.0748810  )
        54           H1  tau(  54) = (   4.3780305   0.1327944  18.2306609  )
        55           H1  tau(  55) = (   2.9458904   0.7245148  18.4607207  )

     number of k points=    10  Fermi-Dirac smearing, width (Ry)=  0.0073
                       cart. coord. in units 2pi/alat
        k(    1) = (   0.0000000   0.0000000   0.0000000), wk =   0.1250000
        k(    2) = (   0.0000000   0.0419351   0.0000000), wk =   0.2500000
        k(    3) = (   0.0000000  -0.0838702   0.0000000), wk =   0.1250000
        k(    4) = (   0.0379955   0.0000049   0.0000000), wk =   0.2500000
        k(    5) = (   0.0379955   0.0419400   0.0000000), wk =   0.2500000
        k(    6) = (   0.0379955  -0.0838652   0.0000000), wk =   0.2500000
        k(    7) = (   0.0379955  -0.0419301   0.0000000), wk =   0.2500000
        k(    8) = (  -0.0759910  -0.0000099   0.0000000), wk =   0.1250000
        k(    9) = (  -0.0759910   0.0419252   0.0000000), wk =   0.2500000
        k(   10) = (  -0.0759910  -0.0838800   0.0000000), wk =   0.1250000

     Initial potential from superposition of free atoms

     starting charge  385.99915, renormalised to  402.00000

     negative rho (up, down):  1.830E-02 0.000E+00

     %%%%%%%%%%%%%%%%%%%%%%%%%%%%%%%%%%%%%%%%%%%%%%%%%%%%%%%%%%%%%%%%%%%%%%%%
     %                                                                      %
     % You are using vdW-DF, which was implemented by the Thonhauser group. %
     % Please cite the following two papers that made this development      %
     % possible and the two reviews that describe the various versions:     %
     %                                                                      %
     %   T. Thonhauser et al., PRL 115, 136402 (2015).                      %
     %   T. Thonhauser et al., PRB 76, 125112 (2007).                       %
     %   K. Berland et al., Rep. Prog. Phys. 78, 066501 (2015).             %
     %   D.C. Langreth et al., J. Phys.: Condens. Matter 21, 084203 (2009). %
     %                                                                      %
     %                                                                      %
     % If you are calculating the stress with vdW-DF, please also cite:     %
     %                                                                      %
     %   R. Sabatini et al., J. Phys.: Condens. Matter 24, 424209 (2012).   %
     %                                                                      %
     %%%%%%%%%%%%%%%%%%%%%%%%%%%%%%%%%%%%%%%%%%%%%%%%%%%%%%%%%%%%%%%%%%%%%%%%

     Adding external electric field

     Computed dipole along edir(3) :
        Dipole              -11.0938 Ry au,        -28.1977 Debye
        Dipole field         -0.0209 Ry au,

        Potential amp.        1.9407 Ry
        Total length         46.3494 bohr

     Starting wfcs are  304 atomic wfcs
  @ DRIVER MODE: Message from server: STATUS
  @ DRIVER MODE: Message from server: POSDATA
  @ DRIVER MODE: Reading and sharing cell
  @ DRIVER MODE: Reading and sharing positions
  @ DRIVER MODE: Received positions

     Self-consistent Calculation

     iteration #  1     ecut=    29.40 Ry     beta= 0.05
     Davidson diagonalization with overlap
     c_bands:  5 eigenvalues not converged
     c_bands:  3 eigenvalues not converged
     c_bands:  1 eigenvalues not converged
     c_bands:  1 eigenvalues not converged
     c_bands:  1 eigenvalues not converged
     c_bands:  2 eigenvalues not converged
     c_bands:  2 eigenvalues not converged
     ethr =  1.00E-05,  avg # of iterations = 31.6

[...]

     total energy              =   -2403.83378343 Ry
     estimated scf accuracy    <    6374.51589022 Ry

     iteration #  2     ecut=    29.40 Ry     beta= 0.05
     Davidson diagonalization with overlap
     ethr =  1.00E-02,  avg # of iterations = 25.1

[...]

     iteration # 43     ecut=    29.40 Ry     beta= 0.05
     Davidson diagonalization with overlap
     c_bands:  1 eigenvalues not converged
     ethr =  2.32E-07,  avg # of iterations =  8.5

[...]

     total energy              =   -2972.69108451 Ry
     estimated scf accuracy    <       0.00000011 Ry

     iteration # 71     ecut=    29.40 Ry     beta= 0.05
     Davidson diagonalization with overlap
     ethr =  2.78E-11,  avg # of iterations =  4.3

     negative rho (up, down):  1.793E-02 0.000E+00

     Adding external electric field

     Computed dipole along edir(3) :
        Dipole                0.3450 Ry au,          0.8768 Debye
        Dipole field          0.0007 Ry au,

        Potential amp.       -0.0603 Ry
        Total length         46.3494 bohr

     End of self-consistent calculation

          k = 0.0000 0.0000 0.0000 ( 18029 PWs)   bands (ev):

   -56.3610 -56.3271 -55.9551 -55.9214 -55.7659 -55.7293 -55.5665 -55.5543
   -55.5533 -55.5303 -55.5200 -55.4473 -55.2484 -55.2407 -55.1623 -55.1283
   -32.8141 -32.6534 -32.6265 -32.5193 -32.4379 -32.4303 -32.4264 -32.2547
   -32.1726 -32.1680 -32.1096 -32.0970 -32.0748 -32.0572 -32.0452 -31.9883
   -31.9803 -31.9766 -31.9466 -31.9231 -31.9052 -31.8797 -31.8573 -31.8454
   -31.8166 -31.7818 -31.7645 -31.7382 -31.7351 -31.7159 -31.7136 -31.7101
   -31.6867 -31.6760 -31.6589 -31.6350 -31.5608 -31.5501 -31.5119 -31.4950
   -31.4931 -31.4696 -31.4649 -31.4363 -31.3790 -31.3347 -31.2940 -31.1824
   -18.7332 -16.8594 -16.6752 -16.3591 -16.1496 -15.9744 -15.8991 -15.8554
   -15.8049 -15.6841 -15.6110 -15.5908 -15.5173 -15.4128 -15.3973 -15.3551
   -15.3151 -15.2849 -15.2716 -15.2406 -15.1902 -15.1479 -15.1391 -15.0623
   -15.0412 -15.0373 -14.8969 -14.8375 -14.8184 -14.7785 -14.5164 -13.6610
   -13.5480 -12.2337  -6.6908  -6.5095  -4.1781  -4.0544  -3.9175  -3.7540
    -3.6763  -3.6258  -3.4353  -3.4005  -3.3792  -3.2573  -3.1315  -3.1015
    -3.0319  -2.9789  -2.9285  -2.8735  -2.8105  -2.7716  -2.7160  -2.6403
    -2.6347  -2.6156  -2.6054  -2.5979  -2.5691  -2.4479  -2.3560  -2.3385
    -2.3210  -2.2812  -2.2631  -2.2460  -2.2019  -2.1620  -2.0828  -2.0743
    -2.0228  -1.9667  -1.9121  -1.8121  -1.7936  -1.7225  -1.7176  -1.6783
    -1.5356  -1.4163  -1.3882  -1.3225  -1.3041  -1.2256  -1.2157  -1.1825
    -1.0860  -1.0771  -1.0324  -1.0077  -0.8884  -0.8610  -0.8179  -0.8009
    -0.7664  -0.6672  -0.6336  -0.5276  -0.4795  -0.4358  -0.4278  -0.3512
    -0.3275  -0.2857  -0.2324  -0.1807  -0.1750  -0.1472  -0.0603  -0.0221
     0.0248   0.0742   0.1087   0.1923   0.2486   0.2897   0.3070   0.3927
     0.4304   0.4467   0.5143   0.5800   0.6335   0.7004   0.7425   0.8556
     0.8614   0.8806   0.9724   1.0839   1.4020   1.4145   1.4547   1.6768
     2.6287   2.8631   2.9845   3.1511   3.2934   3.3467   3.6316   3.6792
     3.7144   3.7456   3.8294

[...]

          k = 0.0380-0.0419 0.0000 ( 17876 PWs)   bands (ev):

[...]

          k =-0.0760-0.0000 0.0000 ( 17886 PWs)   bands (ev):

[...]

          k =-0.0760-0.0839 0.0000 ( 17948 PWs)   bands (ev):

   -56.3446 -56.3434 -55.9400 -55.9363 -55.7545 -55.7406 -55.5536 -55.5511
   -55.5443 -55.5393 -55.5349 -55.4459 -55.2496 -55.2418 -55.1453 -55.1452
   -32.6396 -32.6383 -32.6303 -32.6296 -32.4716 -32.4703 -32.2556 -32.2515
   -32.1448 -32.1415 -32.1324 -32.1251 -32.0549 -32.0447 -31.9819 -31.9726
   -31.9631 -31.9601 -31.9042 -31.8865 -31.8729 -31.8704 -31.8626 -31.8250
   -31.8142 -31.7817 -31.7789 -31.7642 -31.7613 -31.7515 -31.7513 -31.7370
   -31.7319 -31.7203 -31.7026 -31.6316 -31.6080 -31.5548 -31.5228 -31.5060
   -31.4825 -31.4824 -31.4691 -31.3752 -31.3750 -31.3367 -31.3366 -31.3362
   -18.7308 -16.8351 -16.0795 -16.0673 -15.9499 -15.9451 -15.7655 -15.7482
   -15.7101 -15.6836 -15.6403 -15.5552 -15.4919 -15.4864 -15.4793 -15.4110
   -15.3682 -15.3625 -15.3424 -15.3115 -15.2804 -15.2541 -15.1662 -15.1419
   -15.1344 -15.1061 -15.0275 -15.0119 -14.9495 -14.8206 -14.7321 -13.6512
   -13.6505 -12.2552  -6.6824  -6.4210  -3.9630  -3.7761  -3.2481  -3.1902
    -3.1757  -3.0799  -3.0531  -2.9757  -2.8779  -2.8583  -2.8495  -2.8139
    -2.7929  -2.7838  -2.7637  -2.7112  -2.6715  -2.6480  -2.6334  -2.6249
    -2.6183  -2.5876  -2.5690  -2.5405  -2.4831  -2.4707  -2.4288  -2.4227
    -2.3870  -2.3141  -2.3101  -2.3047  -2.2941  -2.2281  -2.1398  -2.1296
    -2.1198  -2.0748  -1.9912  -1.9331  -1.8465  -1.8035  -1.7355  -1.6809
    -1.6309  -1.5992  -1.5860  -1.4913  -1.4341  -1.4178  -1.3782  -1.3187
    -1.2367  -1.2074  -1.1709  -1.1620  -1.1517  -1.0931  -1.0428  -0.9890
    -0.8730  -0.8521  -0.8412  -0.7839  -0.7798  -0.7675  -0.6514  -0.6209
    -0.5740  -0.5471  -0.5306  -0.4862  -0.4647  -0.3827  -0.2937  -0.2468
    -0.1171  -0.0968  -0.0488  -0.0091   0.0055   0.1058   0.1815   0.2052
     0.3491   0.3643   0.3990   0.5358   0.5985   0.6556   0.6702   0.7929
     0.8121   0.8479   1.0117   1.2482   1.2527   1.2708   1.2720   1.6270
     2.6051   3.4027   3.4050   3.4355   3.4376   3.6491   3.6624   3.7435
     3.7867   3.8798   3.9027

     the Fermi energy is     2.8039 ev

!    total energy              =   -2972.69110214 Ry
     estimated scf accuracy    <       0.00000006 Ry
     smearing contrib. (-TS)   =      -0.01334337 Ry
     internal energy E=F+TS    =   -2972.67775877 Ry

     The total energy is F=E-TS. E is the sum of the following terms:
     one-electron contribution =  -24583.84247592 Ry
     hartree contribution      =   12383.87099614 Ry
     xc contribution           =    -493.16408808 Ry
     ewald contribution        =    9720.45758454 Ry
     electric field correction =       0.00022456 Ry

     convergence has been achieved in  71 iterations

     Forces acting on atoms (cartesian axes, Ry/au):

     atom    1 type  1   force =    -0.00001314   -0.00028795    0.10621348
     atom    2 type  1   force =    -0.00021594   -0.00076915   -0.16684311
     atom    3 type  2   force =    -0.00002324   -0.00013729   -0.03912631
     atom    4 type  2   force =    -0.00009996   -0.00036812    0.03629664
     atom    5 type  2   force =    -0.00752741   -0.00012352   -0.00585751
     atom    6 type  2   force =     0.00854259    0.00078501   -0.00754531
     atom    7 type  1   force =    -0.00079443   -0.00146430    0.02012102
     atom    8 type  1   force =     0.00110474    0.01826361    0.06349129
     atom    9 type  2   force =    -0.00008425   -0.00023187    0.00003253
     atom   10 type  2   force =    -0.00265715    0.00204489   -0.04812123
     atom   11 type  2   force =    -0.00023097   -0.00002929   -0.00001250
     atom   12 type  2   force =     0.00035773   -0.00014511   -0.00004172
     atom   13 type  1   force =     0.00005729   -0.00008931    0.00034271
     atom   14 type  1   force =    -0.00047246   -0.00009461    0.00043986
     atom   15 type  2   force =     0.00030417    0.00011026   -0.00081394
     atom   16 type  2   force =    -0.00010449   -0.00026146    0.00004017
     atom   17 type  2   force =    -0.00012973   -0.00015116    0.00018148
     atom   18 type  2   force =     0.00033613    0.00001594   -0.00044082
     atom   19 type  1   force =    -0.00036556    0.00006659    0.00187748
     atom   20 type  1   force =     0.00041380    0.00054120    0.00107615
     atom   21 type  2   force =     0.00004842   -0.00001717    0.10086074
     atom   22 type  2   force =     0.00027101    0.00032454    0.00017143
     atom   23 type  2   force =    -0.07585255   -0.00011525   -0.02989648
     atom   24 type  2   force =     0.07574416    0.00034126   -0.02990512
     atom   25 type  1   force =     0.00019734   -0.00056525    0.10658206
     atom   26 type  1   force =    -0.00005538   -0.00027098   -0.16725644
     atom   27 type  2   force =    -0.00006076   -0.00032136   -0.03777981
     atom   28 type  2   force =     0.00007115   -0.00044987    0.03675269
     atom   29 type  2   force =    -0.00849887    0.00126541   -0.00525162
     atom   30 type  2   force =     0.00945461    0.00122845   -0.00697063
     atom   31 type  1   force =    -0.00129361   -0.00010148    0.02644876
     atom   32 type  1   force =     0.00116324   -0.02137171    0.06406921
     atom   33 type  2   force =    -0.00003797    0.00023823   -0.00034119
     atom   34 type  2   force =    -0.00008798    0.00091704   -0.05986112
     atom   35 type  2   force =    -0.00007726    0.00010846   -0.00026151
     atom   36 type  2   force =    -0.00012171    0.00037791   -0.00028071
     atom   37 type  1   force =     0.00002140   -0.00032430    0.00079488
     atom   38 type  1   force =    -0.00042251   -0.00001588    0.00026218
     atom   39 type  2   force =    -0.00022102    0.00030034   -0.00000434
     atom   40 type  2   force =     0.00050957    0.00015345   -0.00063470
     atom   41 type  2   force =    -0.00024149    0.00031970   -0.00028541
     atom   42 type  2   force =     0.00066959    0.00026433   -0.00007244
     atom   43 type  1   force =    -0.00051095   -0.00003369    0.00052109
     atom   44 type  1   force =     0.00060593   -0.00030301    0.00078450
     atom   45 type  2   force =     0.00002680   -0.00000196    0.10089383
     atom   46 type  2   force =    -0.07586535   -0.00010677   -0.02984945
     atom   47 type  2   force =     0.07573408    0.00032079   -0.02988843
     atom   48 type  3   force =     0.00258517   -0.00010665   -0.00856405
     atom   49 type  4   force =    -0.00383310    0.00113777    0.00501571
     atom   50 type  5   force =     0.00048572   -0.00138312   -0.00050563
     atom   51 type  3   force =     0.00193095    0.00025334    0.00331810
     atom   52 type  5   force =    -0.00039088    0.00026611   -0.00007384
     atom   53 type  2   force =    -0.00053530    0.00005817   -0.00108978
     atom   54 type  5   force =    -0.00026060    0.00010670    0.00051534
     atom   55 type  5   force =     0.00045044   -0.00016788    0.00047183

     Total force =     0.384125     Total SCF correction =     0.000838
  @ DRIVER MODE: Message from server: STATUS
  @ DRIVER MODE: Message from server: GETFORCE
  @ DRIVER MODE: Returning v,forces,stress,ensemble

     Writing output data file ./calc.save/
  @ DRIVER MODE: Message from server: EXIT
  @ DRIVE MODE: Exiting

     General routines

     Parallel routines

   This run was terminated on:  17:40:35  15Sep2021

   JOB DONE.