     Program PWSCF v.6.7GPU starts on 21Sep2021 at  9:24:56

     R & G space division:  proc/nbgrp/npool/nimage =      10
     Reading input from /storage/home/hcoda1/3/ntian30/research/carbon/CxH_vib/H2O_calc/ads_slab/CH3H2O_a/out_0035/pw.inp
Warning: card &CELL ignored
Warning: card   CELL_DYNAMICS='IPI', ignored
Warning: card / ignored

     Current dimensions of program PWSCF are:
     Max number of different atomic species (ntypx) = 10
     Max number of k-points (npk) =  40000
     Max angular momentum in pseudopotentials (lmaxx) =  3
     Presently no symmetry can be used with electric field

     Message from routine cell_base_init:
     DEPRECATED: use true lattice parameter, not A to a.u. conversion factor

     IMPORTANT: XC functional enforced from input :
     Exchange-correlation= BEEF-VDW
                           (   1   4  43  14   2   0   0)
     Any further DFT definition will be discarded
     Please, verify this is what you really want

  @ DRIVER MODE: Connecting to
 qe_1139763_2911776.sched-torque.pace.gatech.edum40x3d3m_scratch
  using UNIX socket
  @ DRIVER MODE: Message from server: STATUS
  @ DRIVER MODE: Message from server: INIT
  @ DRIVER MODE: Receiving replica           0          -1
  @ DRIVER MODE: Receiving encoded integer          25
  @ DRIVER MODE:  SCF:  T  FORCE:  T  STRESS:  F  VC:  F  ENSEMBLE:  F
  @ DRIVER MODE:  SCF:  T  FORCE:  T  STRESS:  F  VC:  F  ENSEMBLE:  F

     Using Slab Decomposition

     bravais-lattice index     =            0
     lattice parameter (alat)  =       1.8897  a.u.
     unit-cell volume          =    6658.9804 (a.u.)^3
     number of atoms/cell      =           54
     number of atomic types    =            4
     number of electrons       =       393.00
     number of Kohn-Sham states=          206
     kinetic-energy cutoff     =      29.3995  Ry
     charge density cutoff     =     293.9946  Ry
     scf convergence threshold =      7.3E-08
     mixing beta               =       0.0500
     number of iterations used =            8  plain     mixing
     Exchange-correlation= BEEF-VDW
                           (   1   4  43  14   2   0   0)

     celldm(1)=   1.889726  celldm(2)=   0.000000  celldm(3)=   0.000000
     celldm(4)=   0.000000  celldm(5)=   0.000000  celldm(6)=   0.000000

     crystal axes: (cart. coord. in units of alat)
               a(1) = (   6.579727   0.000000   0.000000 )
               a(2) = (  -0.000775   5.961596   0.000000 )
               a(3) = (   0.000000   0.000000  25.155947 )

     reciprocal axes: (cart. coord. in units 2 pi/alat)
               b(1) = (  0.151982  0.000020  0.000000 )
               b(2) = (  0.000000  0.167740  0.000000 )
               b(3) = (  0.000000  0.000000  0.039752 )

     PseudoPot. # 1 for Ti read from file:
     /storage/coda1/p-amedford6/0/shared/rich_project_chbe-medford/medford-share/data/pseudos_module/espresso/nninc/pbe/van/Ti.UPF
     MD5 check sum: 8e4df49b7f0d34bbd5052bf3f5ea0213
     Pseudo is Ultrasoft, Zval = 12.0
     Generated by new atomic code, or converted to UPF format
     Using radial grid of  851 points,  6 beta functions with:
                l(1) =   0
                l(2) =   0
                l(3) =   1
                l(4) =   1
                l(5) =   2
                l(6) =   2
     Q(r) pseudized with  8 coefficients,  rinner =    1.000   1.000   1.000
                                                       1.000   1.000

     PseudoPot. # 2 for O  read from file:
     /storage/coda1/p-amedford6/0/shared/rich_project_chbe-medford/medford-share/data/pseudos_module/espresso/nninc/pbe/van/O.UPF
     MD5 check sum: 78c19812648e8988a0fe644b0f25305e
     Pseudo is Ultrasoft, Zval =  6.0
     Generated by new atomic code, or converted to UPF format
     Using radial grid of  737 points,  4 beta functions with:
                l(1) =   0
                l(2) =   0
                l(3) =   1
                l(4) =   1
     Q(r) pseudized with  8 coefficients,  rinner =    0.800   0.800   0.800

     PseudoPot. # 3 for C  read from file:
     /storage/coda1/p-amedford6/0/shared/rich_project_chbe-medford/medford-share/data/pseudos_module/espresso/nninc/pbe/van/C.UPF
     MD5 check sum: 1a69bf6b8db32088f5b2163dbdb77a27
     Pseudo is Ultrasoft, Zval =  4.0
     Generated by new atomic code, or converted to UPF format
     Using radial grid of  721 points,  4 beta functions with:
                l(1) =   0
                l(2) =   0
                l(3) =   1
                l(4) =   1
     Q(r) pseudized with  8 coefficients,  rinner =    0.800   0.800   0.800

     PseudoPot. # 4 for H  read from file:
     /storage/coda1/p-amedford6/0/shared/rich_project_chbe-medford/medford-share/data/pseudos_module/espresso/nninc/pbe/van/H.UPF
     MD5 check sum: b5ee9d7bfd3a09ee7748110bda690ff7
     Pseudo is Ultrasoft, Zval =  1.0
     Generated by new atomic code, or converted to UPF format
     Using radial grid of  615 points,  1 beta functions with:
                l(1) =   0
     Q(r) pseudized with  8 coefficients,  rinner =    0.800

     atomic species   valence    mass     pseudopotential
        Ti1           12.00    47.86700     Ti( 1.00)
        O1             6.00    15.99900     O ( 1.00)
        C1             4.00    12.01100     C ( 1.00)
        H1             1.00     1.00800     H ( 1.00)

     No symmetry found

   Cartesian axes

     site n.     atom                  positions (alat units)
         1           Ti1 tau(   1) = (   0.0004258   2.9801865   6.0000000  )
         2           Ti1 tau(   2) = (   3.2906075   1.4906267   6.0002472  )
         3           O1  tau(   3) = (   0.0006271   0.0005054   7.9858123  )
         4           O1  tau(   4) = (   3.2906025   0.0005020   7.3038282  )
         5           O1  tau(   5) = (   4.5942328   1.4918067   9.2879030  )
         6           O1  tau(   6) = (   1.9868534   1.4903216   9.2879459  )
         7           Ti1 tau(   7) = (   3.3154911   2.9426235   9.1630835  )
         8           Ti1 tau(   8) = (   0.0285409   1.6075342   9.3657832  )
         9           O1  tau(   9) = (   3.2815087   0.0160907  11.3545821  )
        10           O1  tau(  10) = (   0.0024802   0.0106306  10.6007539  )
        11           O1  tau(  11) = (   1.2725489   1.5064038  12.6453836  )
        12           O1  tau(  12) = (   5.2753141   1.5150378  12.6350139  )
        13           Ti1 tau(  13) = (   0.0284581   2.9538459  12.7835337  )
        14           Ti1 tau(  14) = (   3.3388075   1.4895305  12.5082680  )
        15           O1  tau(  15) = (   6.5535251   0.0144872  14.6406477  )
        16           O1  tau(  16) = (   3.2781334   0.0285334  13.9682696  )
        17           O1  tau(  17) = (   4.5366274   1.5703088  16.0558364  )
        18           O1  tau(  18) = (   2.0012422   1.5648880  16.0484572  )
        19           Ti1 tau(  19) = (   3.2604835   3.0254881  15.6976271  )
        20           Ti1 tau(  20) = (   6.5333720   1.5229778  16.1593769  )
        21           O1  tau(  21) = (   3.2904802   0.0005063   4.7018136  )
        22           O1  tau(  22) = (   6.5574971   0.0350135  17.1872057  )
        23           O1  tau(  23) = (   1.3043587   1.4918075   6.0039043  )
        24           O1  tau(  24) = (   5.2767064   1.4903225   6.0039473  )
        25           Ti1 tau(  25) = (   0.0000382   5.9609847   6.0000000  )
        26           Ti1 tau(  26) = (   3.2902200   4.4714249   6.0002472  )
        27           O1  tau(  27) = (   0.0002396   2.9813036   7.9858123  )
        28           O1  tau(  28) = (   3.2902150   2.9813002   7.3038282  )
        29           O1  tau(  29) = (   4.5938453   4.4726049   9.2879030  )
        30           O1  tau(  30) = (   1.9864658   4.4711199   9.2879459  )
        31           Ti1 tau(  31) = (   3.3083403   5.9269411   9.1538128  )
        32           Ti1 tau(  32) = (   0.0303829   4.5362093   9.2612125  )
        33           O1  tau(  33) = (   3.2841341   2.9899418  11.3555480  )
        34           O1  tau(  34) = (   0.0038936   2.9924975  10.5838058  )
        35           O1  tau(  35) = (   1.2726398   4.4822405  12.6394144  )
        36           O1  tau(  36) = (   5.2736595   4.4864409  12.6303220  )
        37           Ti1 tau(  37) = (   0.0300145   5.9360250  12.5182071  )
        38           Ti1 tau(  38) = (   3.3377519   4.4811756  12.4937589  )
        39           O1  tau(  39) = (   6.5654514   3.0136449  14.7225067  )
        40           O1  tau(  40) = (   3.2707049   3.0114760  13.9116621  )
        41           O1  tau(  41) = (   4.5328936   4.4881537  16.0752462  )
        42           O1  tau(  42) = (   1.9999049   4.4921254  16.0707699  )
        43           Ti1 tau(  43) = (   3.2502456   0.0519323  15.7983500  )
        44           Ti1 tau(  44) = (   6.5407796   4.6451211  15.8442649  )
        45           O1  tau(  45) = (   3.2900926   2.9813045   4.7018136  )
        46           O1  tau(  46) = (   1.3039711   4.4726057   6.0039043  )
        47           O1  tau(  47) = (   5.2763189   4.4711207   6.0039473  )
        48           C1  tau(  48) = (   6.5619928   2.8946514  17.8930439  )
        49           H1  tau(  49) = (   6.5552299   3.9601472  18.1196503  )
        50           H1  tau(  50) = (   0.8760557   2.4850835  18.3732843  )
        51           H1  tau(  51) = (   5.6817198   2.4733575  18.3891814  )
        52           O1  tau(  52) = (   3.2572702   0.1178616  18.1992317  )
        53           H1  tau(  53) = (   4.0330629   5.5870706  18.4979137  )
        54           H1  tau(  54) = (   2.4710694   5.5989049  18.5058656  )

     number of k points=    10  Fermi-Dirac smearing, width (Ry)=  0.0073
                       cart. coord. in units 2pi/alat
        k(    1) = (   0.0000000   0.0000000   0.0000000), wk =   0.1250000
        k(    2) = (   0.0000000   0.0419351   0.0000000), wk =   0.2500000
        k(    3) = (   0.0000000  -0.0838702   0.0000000), wk =   0.1250000
        k(    4) = (   0.0379955   0.0000049   0.0000000), wk =   0.2500000
        k(    5) = (   0.0379955   0.0419400   0.0000000), wk =   0.2500000
        k(    6) = (   0.0379955  -0.0838652   0.0000000), wk =   0.2500000
        k(    7) = (   0.0379955  -0.0419301   0.0000000), wk =   0.2500000
        k(    8) = (  -0.0759910  -0.0000099   0.0000000), wk =   0.1250000
        k(    9) = (  -0.0759910   0.0419252   0.0000000), wk =   0.2500000
        k(   10) = (  -0.0759910  -0.0838800   0.0000000), wk =   0.1250000

     Initial potential from superposition of free atoms

     starting charge  376.99916, renormalised to  393.00000

     negative rho (up, down):  1.843E-02 0.000E+00

     %%%%%%%%%%%%%%%%%%%%%%%%%%%%%%%%%%%%%%%%%%%%%%%%%%%%%%%%%%%%%%%%%%%%%%%%
     %                                                                      %
     % You are using vdW-DF, which was implemented by the Thonhauser group. %
     % Please cite the following two papers that made this development      %
     % possible and the two reviews that describe the various versions:     %
     %                                                                      %
     %   T. Thonhauser et al., PRL 115, 136402 (2015).                      %
     %   T. Thonhauser et al., PRB 76, 125112 (2007).                       %
     %   K. Berland et al., Rep. Prog. Phys. 78, 066501 (2015).             %
     %   D.C. Langreth et al., J. Phys.: Condens. Matter 21, 084203 (2009). %
     %                                                                      %
     %                                                                      %
     % If you are calculating the stress with vdW-DF, please also cite:     %
     %                                                                      %
     %   R. Sabatini et al., J. Phys.: Condens. Matter 24, 424209 (2012).   %
     %                                                                      %
     %%%%%%%%%%%%%%%%%%%%%%%%%%%%%%%%%%%%%%%%%%%%%%%%%%%%%%%%%%%%%%%%%%%%%%%%

     Adding external electric field

     Computed dipole along edir(3) :
        Dipole               -6.6589 Ry au,        -16.9253 Debye
        Dipole field         -0.0126 Ry au,

        Potential amp.        1.1649 Ry
        Total length         46.3494 bohr

     Starting wfcs are  297 atomic wfcs
  @ DRIVER MODE: Message from server: STATUS
  @ DRIVER MODE: Message from server: POSDATA
  @ DRIVER MODE: Reading and sharing cell
  @ DRIVER MODE: Reading and sharing positions
  @ DRIVER MODE: Received positions

     Self-consistent Calculation

     iteration #  1     ecut=    29.40 Ry     beta= 0.05
     Davidson diagonalization with overlap
     c_bands:  2 eigenvalues not converged
     c_bands:  2 eigenvalues not converged
     c_bands:  2 eigenvalues not converged
     c_bands:  1 eigenvalues not converged
     c_bands:  1 eigenvalues not converged
     ethr =  1.00E-05,  avg # of iterations = 18.0

[...]

     total energy              =   -2713.80885567 Ry
     estimated scf accuracy    <    2414.28501143 Ry

[...]

     iteration #  3     ecut=    29.40 Ry     beta= 0.05
     Davidson diagonalization with overlap
     ethr =  1.00E-02,  avg # of iterations = 15.3

[...]

     iteration # 63     ecut=    29.40 Ry     beta= 0.05
     Davidson diagonalization with overlap
     c_bands:  1 eigenvalues not converged
     c_bands:  1 eigenvalues not converged
     c_bands:  1 eigenvalues not converged
     ethr =  2.68E-11,  avg # of iterations = 18.0

[...]

     total energy              =   -2933.86691169 Ry
     estimated scf accuracy    <       0.00000039 Ry

     iteration # 64     ecut=    29.40 Ry     beta= 0.05
     Davidson diagonalization with overlap
     ethr =  2.68E-11,  avg # of iterations = 10.5

     negative rho (up, down):  1.750E-02 0.000E+00

     Adding external electric field

     Computed dipole along edir(3) :
        Dipole                0.8157 Ry au,          2.0734 Debye
        Dipole field          0.0015 Ry au,

        Potential amp.       -0.1427 Ry
        Total length         46.3494 bohr

     End of self-consistent calculation

          k = 0.0000 0.0000 0.0000 ( 18029 PWs)   bands (ev):

   -55.8915 -55.8557 -55.8487 -55.8227 -55.8122 -55.7808 -55.7478 -55.6923
   -55.6617 -55.6525 -55.6193 -55.6122 -55.5534 -55.5522 -54.9010 -54.8669
   -32.4063 -32.3606 -32.2641 -32.2430 -32.1831 -32.1635 -32.1626 -32.1290
   -32.1187 -32.1091 -32.0900 -32.0851 -32.0667 -32.0513 -32.0498 -32.0322
   -32.0004 -31.9944 -31.9827 -31.9815 -31.9563 -31.9533 -31.9479 -31.9326
   -31.9296 -31.9070 -31.9033 -31.8900 -31.8846 -31.8765 -31.8738 -31.8484
   -31.8238 -31.8073 -31.7963 -31.7936 -31.7717 -31.7567 -31.7548 -31.7391
   -31.7382 -31.6602 -31.3107 -31.2142 -31.1918 -31.1271 -31.0410 -30.9300
   -19.3507 -16.6166 -16.3405 -16.1919 -16.0531 -16.0169 -15.8171 -15.7051
   -15.5850 -15.5481 -15.4888 -15.4683 -15.4367 -15.4164 -15.4138 -15.3996
   -15.3921 -15.3394 -15.3306 -15.2955 -15.2938 -15.2671 -15.2117 -15.1664
   -15.1121 -15.0586 -15.0103 -14.9441 -14.8871 -14.8769 -13.4018 -13.2838
    -9.3010  -7.1657  -3.9868  -3.8342  -3.8181  -3.7828  -3.7182  -3.6224
    -3.4789  -3.3656  -3.2302  -3.0774  -3.0272  -3.0135  -3.0113  -2.9838
    -2.8856  -2.7613  -2.7354  -2.7082  -2.7030  -2.6845  -2.6830  -2.6471
    -2.6015  -2.5902  -2.5547  -2.5416  -2.3902  -2.3207  -2.3043  -2.2635
    -2.2028  -2.1930  -2.1590  -2.1445  -2.1368  -2.0990  -2.0816  -2.0344
    -1.9853  -1.9129  -1.8306  -1.7757  -1.6747  -1.5839  -1.5234  -1.4683
    -1.4353  -1.3353  -1.3182  -1.2912  -1.2192  -1.1922  -1.1242  -1.0745
    -0.9830  -0.9077  -0.8893  -0.8373  -0.7895  -0.6744  -0.6511  -0.6234
    -0.6184  -0.6042  -0.5820  -0.4254  -0.3973  -0.3332  -0.3246  -0.2122
    -0.2086  -0.1781  -0.1601  -0.1022  -0.0730  -0.0022   0.0341   0.0757
     0.0853   0.1088   0.1192   0.1319   0.2237   0.3136   0.3383   0.4098
     0.4465   0.5626   0.6406   0.7580   0.8497   1.0303   1.0736   1.1232
     1.1998   1.2953   1.7099   1.7687   3.2935   3.3399   3.3599   3.3811
     3.4089   3.5400   3.6611   3.7455   3.7707   3.8028

[...]

          k = 0.0380-0.0419 0.0000 ( 17876 PWs)   bands (ev):

[...]

          k =-0.0760-0.0000 0.0000 ( 17886 PWs)   bands (ev):

[...]

          k =-0.0760-0.0839 0.0000 ( 17948 PWs)   bands (ev):

   -55.8792 -55.8678 -55.8329 -55.8278 -55.8203 -55.7663 -55.7623 -55.6944
   -55.6581 -55.6374 -55.6351 -55.6079 -55.5563 -55.5561 -54.8844 -54.8834
   -32.2187 -32.2022 -32.1834 -32.1716 -32.1701 -32.1533 -32.1249 -32.1212
   -32.1027 -32.1005 -32.0987 -32.0468 -32.0379 -32.0367 -32.0170 -32.0050
   -32.0001 -31.9994 -31.9978 -31.9965 -31.9935 -31.9799 -31.9748 -31.9673
   -31.9575 -31.9561 -31.9518 -31.9122 -31.8919 -31.8915 -31.8842 -31.8828
   -31.8624 -31.8419 -31.8401 -31.8320 -31.8179 -31.8005 -31.7973 -31.7814
   -31.7490 -31.7059 -31.2051 -31.2038 -31.1241 -31.1232 -31.0845 -31.0836
   -19.3499 -16.0793 -15.9668 -15.8490 -15.7721 -15.7500 -15.7156 -15.6667
   -15.6610 -15.5996 -15.5936 -15.5458 -15.5356 -15.5082 -15.4827 -15.4387
   -15.4173 -15.3968 -15.3757 -15.3402 -15.3193 -15.3089 -15.2707 -15.2588
   -15.2464 -15.2186 -15.2070 -15.1447 -15.1015 -15.0567 -13.3859 -13.3843
    -9.3167  -7.1590  -3.7032  -3.3655  -3.1724  -3.1159  -3.0168  -2.9689
    -2.9576  -2.8935  -2.8331  -2.8209  -2.7857  -2.7703  -2.7652  -2.7250
    -2.7224  -2.7092  -2.6774  -2.6738  -2.6637  -2.6322  -2.5856  -2.5710
    -2.5553  -2.5180  -2.5015  -2.4981  -2.4585  -2.4418  -2.4352  -2.4280
    -2.3881  -2.3764  -2.2111  -2.1517  -2.1215  -2.0436  -2.0243  -1.9918
    -1.9823  -1.9539  -1.9311  -1.8943  -1.7540  -1.7170  -1.7132  -1.6311
    -1.6052  -1.5784  -1.4712  -1.4076  -1.3802  -1.3714  -1.3050  -1.2671
    -1.2327  -1.1281  -1.0963  -1.0465  -0.9903  -0.9764  -0.9332  -0.8526
    -0.8466  -0.8119  -0.7961  -0.7732  -0.6553  -0.6116  -0.6018  -0.5538
    -0.5291  -0.5103  -0.4449  -0.4056  -0.4028  -0.3415  -0.2809  -0.2274
     0.0202   0.1224   0.1373   0.1573   0.2270   0.2757   0.4175   0.4308
     0.4390   0.5000   0.5566   0.6349   0.6602   0.6635   0.7421   1.1756
     1.4838   1.4850   1.5732   1.5825   3.5197   3.5234   3.5891   3.6297
     3.7560   3.7612   3.7813   3.7852   3.9015   3.9303

     the Fermi energy is     3.2623 ev

!    total energy              =   -2933.86694369 Ry
     estimated scf accuracy    <       0.00000004 Ry
     smearing contrib. (-TS)   =      -0.02305303 Ry
     internal energy E=F+TS    =   -2933.84389066 Ry

     The total energy is F=E-TS. E is the sum of the following terms:
     one-electron contribution =  -24504.61184460 Ry
     hartree contribution      =   12339.20717481 Ry
     xc contribution           =    -483.57909009 Ry
     ewald contribution        =    9715.13861346 Ry
     electric field correction =       0.00125576 Ry

     convergence has been achieved in  64 iterations

     Forces acting on atoms (cartesian axes, Ry/au):

     atom    1 type  1   force =    -0.00011316   -0.00196060    0.10544272
     atom    2 type  1   force =    -0.00038739    0.00132141   -0.17933051
     atom    3 type  2   force =     0.00026025   -0.00510101   -0.03370467
     atom    4 type  2   force =     0.00051743   -0.00077952    0.04635382
     atom    5 type  2   force =    -0.01891776   -0.00017768    0.00449750
     atom    6 type  2   force =     0.01981853    0.00139834    0.00400919
     atom    7 type  1   force =    -0.00041154   -0.00013572   -0.00041544
     atom    8 type  1   force =     0.00015606    0.00075622    0.00129646
     atom    9 type  2   force =     0.00012055   -0.00045141   -0.00100765
     atom   10 type  2   force =     0.00008509    0.00006214   -0.00008050
     atom   11 type  2   force =    -0.00054464   -0.00010243    0.00016349
     atom   12 type  2   force =     0.00099061   -0.00002225    0.00021386
     atom   13 type  1   force =    -0.00047426   -0.00077814    0.00048196
     atom   14 type  1   force =    -0.00029489   -0.00003403    0.00073866
     atom   15 type  2   force =     0.00003780   -0.00045294    0.00111681
     atom   16 type  2   force =    -0.00010985   -0.00004663   -0.00011613
     atom   17 type  2   force =    -0.00039903   -0.00045394    0.00009705
     atom   18 type  2   force =     0.00055424   -0.00009516   -0.00002283
     atom   19 type  1   force =    -0.00111747    0.00008315    0.00082712
     atom   20 type  1   force =     0.00067760   -0.00036738   -0.00017932
     atom   21 type  2   force =    -0.00001222   -0.00000586    0.10409786
     atom   22 type  2   force =    -0.00031714   -0.00021518    0.00012452
     atom   23 type  2   force =    -0.06929322    0.00063311   -0.02952555
     atom   24 type  2   force =     0.06900731    0.00106842   -0.02958551
     atom   25 type  1   force =    -0.00014137    0.00132808    0.11502762
     atom   26 type  1   force =    -0.00023694   -0.00149064   -0.17962800
     atom   27 type  2   force =     0.00036179    0.00379401   -0.02634359
     atom   28 type  2   force =     0.00059731   -0.00051659    0.04862035
     atom   29 type  2   force =    -0.01841473    0.00190486    0.00402245
     atom   30 type  2   force =     0.01788521    0.00351632    0.00329488
     atom   31 type  1   force =    -0.00050844    0.00059232    0.00007113
     atom   32 type  1   force =     0.00013634   -0.00151277    0.00085483
     atom   33 type  2   force =    -0.00015518    0.00046648   -0.00160235
     atom   34 type  2   force =     0.00001609   -0.00082927   -0.00157517
     atom   35 type  2   force =     0.00012881    0.00019870   -0.00029890
     atom   36 type  2   force =     0.00030779    0.00018280   -0.00027432
     atom   37 type  1   force =     0.00009376    0.00043313   -0.00061762
     atom   38 type  1   force =    -0.00011139    0.00076066    0.00041884
     atom   39 type  2   force =    -0.00011286    0.00015217   -0.00000358
     atom   40 type  2   force =     0.00041021    0.00043270    0.00025375
     atom   41 type  2   force =    -0.00069255   -0.00050594   -0.00020957
     atom   42 type  2   force =     0.00092462   -0.00058929   -0.00048053
     atom   43 type  1   force =    -0.00091586    0.00028082    0.00045719
     atom   44 type  1   force =     0.00070120   -0.00016379   -0.00075691
     atom   45 type  2   force =    -0.00002423   -0.00001737    0.10407787
     atom   46 type  2   force =    -0.06884672   -0.00084626   -0.02955218
     atom   47 type  2   force =     0.06865403   -0.00046582   -0.02961564
     atom   48 type  3   force =    -0.00019732   -0.00054091   -0.00111137
     atom   49 type  4   force =    -0.00003213    0.00039155   -0.00132345
     atom   50 type  4   force =     0.00058325   -0.00003675    0.00037911
     atom   51 type  4   force =    -0.00049816   -0.00004978    0.00040402
     atom   52 type  2   force =    -0.00539138    0.00427105   -0.00394674
     atom   53 type  4   force =     0.00542122   -0.00453726    0.00334704
     atom   54 type  4   force =     0.00022472   -0.00074611    0.00061793

     Total force =     0.375504     Total SCF correction =     0.000438
  @ DRIVER MODE: Message from server: STATUS
  @ DRIVER MODE: Message from server: GETFORCE
  @ DRIVER MODE: Returning v,forces,stress,ensemble

     Writing output data file ./calc.save/
  @ DRIVER MODE: Message from server: EXIT
  @ DRIVE MODE: Exiting

     General routines

     Parallel routines

   This run was terminated on:   9:54:17  21Sep2021

   JOB DONE.