     Program PWSCF v.6.7GPU starts on 10Sep2021 at  8:54:54

     R & G space division:  proc/nbgrp/npool/nimage =      10
     Reading input from /storage/home/hcoda1/3/ntian30/research/carbon/CxH_vib/CH3_calc/ads_slab/CH3N2OH_j/out_0036/pw.inp
Warning: card &CELL ignored
Warning: card   CELL_DYNAMICS='IPI', ignored
Warning: card / ignored

     Current dimensions of program PWSCF are:
     Max number of different atomic species (ntypx) = 10
     Max number of k-points (npk) =  40000
     Max angular momentum in pseudopotentials (lmaxx) =  3
     Presently no symmetry can be used with electric field

     Message from routine cell_base_init:
     DEPRECATED: use true lattice parameter, not A to a.u. conversion factor

     IMPORTANT: XC functional enforced from input :
     Exchange-correlation= BEEF-VDW
                           (   1   4  43  14   2   0   0)
     Any further DFT definition will be discarded
     Please, verify this is what you really want

  @ DRIVER MODE: Connecting to
 qe_1139763_2779713.sched-torque.pace.gatech.edu3c86eghe_scratch
  using UNIX socket
  @ DRIVER MODE: Message from server: STATUS
  @ DRIVER MODE: Message from server: INIT
  @ DRIVER MODE: Receiving replica           0          -1
  @ DRIVER MODE: Receiving encoded integer          25
  @ DRIVER MODE:  SCF:  T  FORCE:  T  STRESS:  F  VC:  F  ENSEMBLE:  F
  @ DRIVER MODE:  SCF:  T  FORCE:  T  STRESS:  F  VC:  F  ENSEMBLE:  F

     Using Slab Decomposition

     bravais-lattice index     =            0
     lattice parameter (alat)  =       1.8897  a.u.
     unit-cell volume          =    6658.9804 (a.u.)^3
     number of atoms/cell      =           55
     number of atomic types    =            5
     number of electrons       =       402.00
     number of Kohn-Sham states=          211
     kinetic-energy cutoff     =      29.3995  Ry
     charge density cutoff     =     293.9946  Ry
     scf convergence threshold =      7.3E-08
     mixing beta               =       0.0500
     number of iterations used =            8  plain     mixing
     Exchange-correlation= BEEF-VDW
                           (   1   4  43  14   2   0   0)

     celldm(1)=   1.889726  celldm(2)=   0.000000  celldm(3)=   0.000000
     celldm(4)=   0.000000  celldm(5)=   0.000000  celldm(6)=   0.000000

     crystal axes: (cart. coord. in units of alat)
               a(1) = (   6.579727   0.000000   0.000000 )
               a(2) = (  -0.000775   5.961596   0.000000 )
               a(3) = (   0.000000   0.000000  25.155947 )

     reciprocal axes: (cart. coord. in units 2 pi/alat)
               b(1) = (  0.151982  0.000020  0.000000 )
               b(2) = (  0.000000  0.167740  0.000000 )
               b(3) = (  0.000000  0.000000  0.039752 )

     PseudoPot. # 1 for Ti read from file:
     /storage/coda1/p-amedford6/0/shared/rich_project_chbe-medford/medford-share/data/pseudos_module/espresso/nninc/pbe/van/Ti.UPF
     MD5 check sum: 8e4df49b7f0d34bbd5052bf3f5ea0213
     Pseudo is Ultrasoft, Zval = 12.0
     Generated by new atomic code, or converted to UPF format
     Using radial grid of  851 points,  6 beta functions with:
                l(1) =   0
                l(2) =   0
                l(3) =   1
                l(4) =   1
                l(5) =   2
                l(6) =   2
     Q(r) pseudized with  8 coefficients,  rinner =    1.000   1.000   1.000
                                                       1.000   1.000

     PseudoPot. # 2 for O  read from file:
     /storage/coda1/p-amedford6/0/shared/rich_project_chbe-medford/medford-share/data/pseudos_module/espresso/nninc/pbe/van/O.UPF
     MD5 check sum: 78c19812648e8988a0fe644b0f25305e
     Pseudo is Ultrasoft, Zval =  6.0
     Generated by new atomic code, or converted to UPF format
     Using radial grid of  737 points,  4 beta functions with:
                l(1) =   0
                l(2) =   0
                l(3) =   1
                l(4) =   1
     Q(r) pseudized with  8 coefficients,  rinner =    0.800   0.800   0.800

     PseudoPot. # 3 for N  read from file:
     /storage/coda1/p-amedford6/0/shared/rich_project_chbe-medford/medford-share/data/pseudos_module/espresso/nninc/pbe/van/N.UPF
     MD5 check sum: 90d10febe142ad51ac9d5be1deb811c4
     Pseudo is Ultrasoft, Zval =  5.0
     Generated by new atomic code, or converted to UPF format
     Using radial grid of  729 points,  4 beta functions with:
                l(1) =   0
                l(2) =   0
                l(3) =   1
                l(4) =   1
     Q(r) pseudized with  8 coefficients,  rinner =    0.800   0.800   0.800

     PseudoPot. # 4 for C  read from file:
     /storage/coda1/p-amedford6/0/shared/rich_project_chbe-medford/medford-share/data/pseudos_module/espresso/nninc/pbe/van/C.UPF
     MD5 check sum: 1a69bf6b8db32088f5b2163dbdb77a27
     Pseudo is Ultrasoft, Zval =  4.0
     Generated by new atomic code, or converted to UPF format
     Using radial grid of  721 points,  4 beta functions with:
                l(1) =   0
                l(2) =   0
                l(3) =   1
                l(4) =   1
     Q(r) pseudized with  8 coefficients,  rinner =    0.800   0.800   0.800

     PseudoPot. # 5 for H  read from file:
     /storage/coda1/p-amedford6/0/shared/rich_project_chbe-medford/medford-share/data/pseudos_module/espresso/nninc/pbe/van/H.UPF
     MD5 check sum: b5ee9d7bfd3a09ee7748110bda690ff7
     Pseudo is Ultrasoft, Zval =  1.0
     Generated by new atomic code, or converted to UPF format
     Using radial grid of  615 points,  1 beta functions with:
                l(1) =   0
     Q(r) pseudized with  8 coefficients,  rinner =    0.800

     atomic species   valence    mass     pseudopotential
        Ti1           12.00    47.86700     Ti( 1.00)
        O1             6.00    15.99900     O ( 1.00)
        N1             5.00    14.00700     N ( 1.00)
        C1             4.00    12.01100     C ( 1.00)
        H1             1.00     1.00800     H ( 1.00)

     No symmetry found

   Cartesian axes

     site n.     atom                  positions (alat units)
         1           Ti1 tau(   1) = (   0.0004258   2.9801865   6.0000000  )
         2           Ti1 tau(   2) = (   3.2906075   1.4906267   6.0002472  )
         3           O1  tau(   3) = (   0.0006271   0.0005054   7.9858123  )
         4           O1  tau(   4) = (   3.2906025   0.0005020   7.3038282  )
         5           O1  tau(   5) = (   4.5942328   1.4918067   9.2879030  )
         6           O1  tau(   6) = (   1.9868534   1.4903216   9.2879459  )
         7           Ti1 tau(   7) = (   3.2907910   2.8959150   9.1758416  )
         8           Ti1 tau(   8) = (   0.0015273   1.4827037   9.2680791  )
         9           O1  tau(   9) = (   3.2817971   0.0424577  11.2706337  )
        10           O1  tau(  10) = (   0.0116148   5.9584955  10.6183126  )
        11           O1  tau(  11) = (   1.2813654   1.4951502  12.6332405  )
        12           O1  tau(  12) = (   5.2815101   1.4921423  12.6269808  )
        13           Ti1 tau(  13) = (   6.5662594   2.8603684  12.6843660  )
        14           Ti1 tau(  14) = (   3.2717346   1.4252475  12.4210995  )
        15           O1  tau(  15) = (   6.5710910   0.0045200  14.6317625  )
        16           O1  tau(  16) = (   3.2759495   0.0084639  13.8932321  )
        17           O1  tau(  17) = (   4.5517014   1.4983445  16.0008815  )
        18           O1  tau(  18) = (   2.0271237   1.5070609  16.0478782  )
        19           Ti1 tau(  19) = (   3.2345769   3.0092735  16.2435900  )
        20           Ti1 tau(  20) = (   6.4941389   1.4975806  15.8145731  )
        21           O1  tau(  21) = (   3.2904802   0.0005063   4.7018136  )
        22           O1  tau(  22) = (   6.5579512   0.0396517  17.1742205  )
        23           O1  tau(  23) = (   1.3043587   1.4918075   6.0039043  )
        24           O1  tau(  24) = (   5.2767064   1.4903225   6.0039473  )
        25           Ti1 tau(  25) = (   0.0000382   5.9609847   6.0000000  )
        26           Ti1 tau(  26) = (   3.2902200   4.4714249   6.0002472  )
        27           O1  tau(  27) = (   0.0002396   2.9813036   7.9858123  )
        28           O1  tau(  28) = (   3.2902150   2.9813002   7.3038282  )
        29           O1  tau(  29) = (   4.5938453   4.4726049   9.2879030  )
        30           O1  tau(  30) = (   1.9864658   4.4711199   9.2879459  )
        31           Ti1 tau(  31) = (   3.2891106   5.8743827   9.1763621  )
        32           Ti1 tau(  32) = (   0.0006254   4.4649316   9.2693709  )
        33           O1  tau(  33) = (   3.2800217   2.9666125  11.2981572  )
        34           O1  tau(  34) = (   0.0092240   2.9805883  10.6323155  )
        35           O1  tau(  35) = (   1.2755083   4.4823741  12.6262202  )
        36           O1  tau(  36) = (   5.2848398   4.4807727  12.6177486  )
        37           Ti1 tau(  37) = (   6.5672004   5.8338186  12.5551636  )
        38           Ti1 tau(  38) = (   3.2732152   4.2974050  12.6602233  )
        39           O1  tau(  39) = (   6.5693882   2.9786051  14.6782399  )
        40           O1  tau(  40) = (   3.2805734   3.0393479  13.9038923  )
        41           O1  tau(  41) = (   4.5335661   4.5240572  16.0872286  )
        42           O1  tau(  42) = (   2.0073973   4.5295938  16.0607137  )
        43           Ti1 tau(  43) = (   3.2598295   0.0330142  15.6732764  )
        44           Ti1 tau(  44) = (   6.5464637   4.6748829  16.0422594  )
        45           O1  tau(  45) = (   3.2900926   2.9813045   4.7018136  )
        46           O1  tau(  46) = (   1.3039711   4.4726057   6.0039043  )
        47           O1  tau(  47) = (   5.2763189   4.4711207   6.0039473  )
        48           N1  tau(  48) = (   0.1126456   2.6876119  18.6539570  )
        49           N1  tau(  49) = (   0.0165868   2.9082207  17.4746156  )
        50           C1  tau(  50) = (   0.2746321   3.7930379  19.6319179  )
        51           H1  tau(  51) = (   0.1055085   4.7742840  19.1878107  )
        52           H1  tau(  52) = (   6.1760284   3.5871646  20.4591619  )
        53           H1  tau(  53) = (   1.2982147   3.7051261  20.0077701  )
        54           O1  tau(  54) = (   3.2987527   2.9937385  18.0942264  )
        55           H1  tau(  55) = (   3.7476408   3.7324850  18.5320624  )

     number of k points=    10  Fermi-Dirac smearing, width (Ry)=  0.0073
                       cart. coord. in units 2pi/alat
        k(    1) = (   0.0000000   0.0000000   0.0000000), wk =   0.1250000
        k(    2) = (   0.0000000   0.0419351   0.0000000), wk =   0.2500000
        k(    3) = (   0.0000000  -0.0838702   0.0000000), wk =   0.1250000
        k(    4) = (   0.0379955   0.0000049   0.0000000), wk =   0.2500000
        k(    5) = (   0.0379955   0.0419400   0.0000000), wk =   0.2500000
        k(    6) = (   0.0379955  -0.0838652   0.0000000), wk =   0.2500000
        k(    7) = (   0.0379955  -0.0419301   0.0000000), wk =   0.2500000
        k(    8) = (  -0.0759910  -0.0000099   0.0000000), wk =   0.1250000
        k(    9) = (  -0.0759910   0.0419252   0.0000000), wk =   0.2500000
        k(   10) = (  -0.0759910  -0.0838800   0.0000000), wk =   0.1250000

     Initial potential from superposition of free atoms

     starting charge  385.99915, renormalised to  402.00000

     negative rho (up, down):  1.466E-02 0.000E+00

     %%%%%%%%%%%%%%%%%%%%%%%%%%%%%%%%%%%%%%%%%%%%%%%%%%%%%%%%%%%%%%%%%%%%%%%%
     %                                                                      %
     % You are using vdW-DF, which was implemented by the Thonhauser group. %
     % Please cite the following two papers that made this development      %
     % possible and the two reviews that describe the various versions:     %
     %                                                                      %
     %   T. Thonhauser et al., PRL 115, 136402 (2015).                      %
     %   T. Thonhauser et al., PRB 76, 125112 (2007).                       %
     %   K. Berland et al., Rep. Prog. Phys. 78, 066501 (2015).             %
     %   D.C. Langreth et al., J. Phys.: Condens. Matter 21, 084203 (2009). %
     %                                                                      %
     %                                                                      %
     % If you are calculating the stress with vdW-DF, please also cite:     %
     %                                                                      %
     %   R. Sabatini et al., J. Phys.: Condens. Matter 24, 424209 (2012).   %
     %                                                                      %
     %%%%%%%%%%%%%%%%%%%%%%%%%%%%%%%%%%%%%%%%%%%%%%%%%%%%%%%%%%%%%%%%%%%%%%%%

     Adding external electric field

     Computed dipole along edir(3) :
        Dipole              -11.9806 Ry au,        -30.4517 Debye
        Dipole field         -0.0226 Ry au,

        Potential amp.        2.0958 Ry
        Total length         46.3494 bohr

     Starting wfcs are  304 atomic wfcs
  @ DRIVER MODE: Message from server: STATUS
  @ DRIVER MODE: Message from server: POSDATA
  @ DRIVER MODE: Reading and sharing cell
  @ DRIVER MODE: Reading and sharing positions
  @ DRIVER MODE: Received positions

     Self-consistent Calculation

     iteration #  1     ecut=    29.40 Ry     beta= 0.05
     Davidson diagonalization with overlap
     c_bands:  4 eigenvalues not converged
     c_bands:  3 eigenvalues not converged
     c_bands:  5 eigenvalues not converged
     c_bands:  5 eigenvalues not converged
     c_bands:  3 eigenvalues not converged
     c_bands:  4 eigenvalues not converged
     c_bands:  2 eigenvalues not converged
     c_bands:  1 eigenvalues not converged
     ethr =  1.00E-05,  avg # of iterations = 25.4

[...]

     total energy              =   -2401.02929987 Ry
     estimated scf accuracy    <    6440.99032032 Ry

     iteration #  2     ecut=    29.40 Ry     beta= 0.05
     Davidson diagonalization with overlap
     ethr =  1.00E-02,  avg # of iterations = 22.5

[...]

     iteration # 75     ecut=    29.40 Ry     beta= 0.05
     Davidson diagonalization with overlap
     c_bands:  2 eigenvalues not converged
     ethr =  1.11E-10,  avg # of iterations =  7.9

[...]

     total energy              =   -2972.74459783 Ry
     estimated scf accuracy    <       0.00000009 Ry

     iteration # 81     ecut=    29.40 Ry     beta= 0.05
     Davidson diagonalization with overlap
     ethr =  2.13E-11,  avg # of iterations =  5.8

     negative rho (up, down):  1.548E-02 0.000E+00

     Adding external electric field

     Computed dipole along edir(3) :
        Dipole                0.6108 Ry au,          1.5526 Debye
        Dipole field          0.0012 Ry au,

        Potential amp.       -0.1069 Ry
        Total length         46.3494 bohr

     End of self-consistent calculation

          k = 0.0000 0.0000 0.0000 ( 18029 PWs)   bands (ev):

   -56.2383 -56.2045 -55.8233 -55.7896 -55.5908 -55.5313 -55.4796 -55.4046
   -55.3806 -55.3257 -55.2355 -55.1634 -55.0831 -55.0108 -54.9895 -54.9768
   -32.6887 -32.5308 -32.5039 -32.3968 -32.3128 -32.3042 -32.3024 -32.0709
   -32.0423 -32.0232 -31.9709 -31.9645 -31.9305 -31.8967 -31.8686 -31.8169
   -31.8076 -31.7919 -31.7541 -31.7345 -31.7268 -31.7063 -31.6935 -31.6919
   -31.6899 -31.6500 -31.6026 -31.5735 -31.5540 -31.5358 -31.5346 -31.4971
   -31.4874 -31.4272 -31.4175 -31.4075 -31.3676 -31.3439 -31.3388 -31.3202
   -31.3146 -31.2911 -31.2385 -31.2262 -31.2262 -31.2114 -31.1416 -31.0297
   -18.8586 -16.5324 -16.3514 -16.1972 -15.9861 -15.8181 -15.7259 -15.7179
   -15.6700 -15.5490 -15.5216 -15.4269 -15.3357 -15.2621 -15.2617 -15.2369
   -15.1404 -15.0840 -15.0577 -15.0174 -14.9974 -14.9905 -14.9775 -14.8792
   -14.8625 -14.8573 -14.7147 -14.6928 -14.6074 -14.3592 -14.2624 -13.5085
   -13.3962 -11.5210  -6.9380  -4.4162  -4.1579  -4.0417  -4.0173  -3.8266
    -3.7480  -3.5304  -3.4313  -3.3546  -3.2324  -3.1467  -2.9569  -2.9457
    -2.8918  -2.8222  -2.7475  -2.6885  -2.6364  -2.6259  -2.5524  -2.5132
    -2.4731  -2.4657  -2.4033  -2.3873  -2.3007  -2.2884  -2.2163  -2.1817
    -2.1510  -2.1212  -2.1016  -2.0410  -2.0333  -2.0000  -1.9701  -1.9189
    -1.8580  -1.8078  -1.7245  -1.6737  -1.6558  -1.5635  -1.5436  -1.5329
    -1.5152  -1.3209  -1.2472  -1.2258  -1.2144  -1.0667  -1.0240  -0.9991
    -0.9191  -0.8954  -0.8483  -0.8082  -0.7602  -0.7036  -0.6726  -0.6666
    -0.6419  -0.5903  -0.4028  -0.3702  -0.3213  -0.2916  -0.2539  -0.1975
    -0.1672  -0.1359  -0.0535  -0.0483  -0.0392  -0.0017   0.0481   0.1291
     0.1889   0.2092   0.3019   0.3082   0.3500   0.3846   0.4410   0.4684
     0.5522   0.5960   0.6114   0.6661   0.6862   0.8747   0.9117   0.9484
     0.9858   1.0137   1.0593   1.1740   1.2426   1.5440   1.5617   1.6012
     2.7531   2.9881   3.1170   3.2730   3.4203   3.5151   3.8260   3.8540
     3.8891   3.9476   4.0190

[...]

          k = 0.0380-0.0419 0.0000 ( 17876 PWs)   bands (ev):

[...]

          k =-0.0760-0.0000 0.0000 ( 17886 PWs)   bands (ev):

[...]

          k =-0.0760-0.0839 0.0000 ( 17948 PWs)   bands (ev):

   -56.2219 -56.2208 -55.8076 -55.8051 -55.5855 -55.5365 -55.4767 -55.4073
   -55.3746 -55.3315 -55.2337 -55.1618 -55.0849 -54.9941 -54.9934 -54.9910
   -32.5169 -32.5157 -32.5050 -32.5043 -32.3493 -32.3481 -32.1271 -32.1232
   -32.0019 -31.9998 -31.9965 -31.9947 -31.8910 -31.8524 -31.8155 -31.8089
   -31.8037 -31.7641 -31.7524 -31.7467 -31.7204 -31.7058 -31.6980 -31.6670
   -31.6610 -31.6253 -31.6205 -31.6015 -31.5941 -31.5643 -31.5580 -31.5443
   -31.4879 -31.4334 -31.4310 -31.4210 -31.3653 -31.3435 -31.3334 -31.3329
   -31.2956 -31.2952 -31.2451 -31.2279 -31.2227 -31.2217 -31.1844 -31.1836
   -18.8549 -16.3386 -15.9423 -15.9300 -15.8066 -15.8000 -15.6278 -15.6113
   -15.5902 -15.5332 -15.5120 -15.4644 -15.3242 -15.3147 -15.2547 -15.2219
   -15.1968 -15.1804 -15.1514 -15.1510 -15.1317 -15.0581 -15.0306 -15.0034
   -14.9544 -14.9504 -14.7848 -14.7190 -14.7049 -14.4912 -14.4592 -13.4993
   -13.4991 -11.5190  -6.9518  -4.3639  -4.0240  -3.9995  -3.9338  -3.1106
    -3.0559  -2.9456  -2.9189  -2.8449  -2.8225  -2.7150  -2.6912  -2.6502
    -2.6367  -2.6331  -2.5778  -2.5556  -2.5332  -2.4890  -2.4772  -2.4643
    -2.4395  -2.3911  -2.3799  -2.3623  -2.3470  -2.3307  -2.2367  -2.2297
    -2.2132  -2.1692  -2.1657  -2.1530  -2.0755  -2.0064  -1.9625  -1.9566
    -1.9245  -1.8675  -1.7868  -1.6825  -1.6605  -1.6058  -1.5785  -1.5027
    -1.4727  -1.4276  -1.3325  -1.3252  -1.2984  -1.2809  -1.2201  -1.2055
    -1.0629  -1.0299  -1.0242  -1.0175  -1.0147  -0.9173  -0.8562  -0.7961
    -0.7452  -0.6617  -0.6481  -0.6271  -0.6084  -0.5988  -0.5797  -0.5554
    -0.4941  -0.4525  -0.4022  -0.3852  -0.2810  -0.2018  -0.1675  -0.1010
    -0.0234   0.0654   0.1439   0.1573   0.1951   0.2495   0.3380   0.3798
     0.4222   0.4909   0.5329   0.6062   0.6676   0.7526   0.7765   0.8653
     0.9766   0.9933   1.0436   1.1310   1.4041   1.4108   1.4174   1.4182
     2.7589   3.5359   3.5398   3.5695   3.5778   3.7776   3.7896   3.9153
     3.9696   3.9947   4.0314

     the Fermi energy is     2.9248 ev

!    total energy              =   -2972.74460692 Ry
     estimated scf accuracy    <       0.00000002 Ry
     smearing contrib. (-TS)   =      -0.01283753 Ry
     internal energy E=F+TS    =   -2972.73176939 Ry

     The total energy is F=E-TS. E is the sum of the following terms:
     one-electron contribution =  -23700.26125548 Ry
     hartree contribution      =   11943.42876653 Ry
     xc contribution           =    -493.12222539 Ry
     ewald contribution        =    9277.22224083 Ry
     electric field correction =       0.00070412 Ry

     convergence has been achieved in  81 iterations

     Forces acting on atoms (cartesian axes, Ry/au):

     atom    1 type  1   force =     0.00008934   -0.00038364    0.10702006
     atom    2 type  1   force =    -0.00004309   -0.00169606   -0.16539606
     atom    3 type  2   force =     0.00003530   -0.00025895   -0.03867848
     atom    4 type  2   force =     0.00004513    0.00076151    0.03118094
     atom    5 type  2   force =    -0.00356160    0.00294795   -0.00840167
     atom    6 type  2   force =     0.00469847    0.00361624   -0.01017122
     atom    7 type  1   force =    -0.00073180    0.00048028    0.02122513
     atom    8 type  1   force =     0.00100760    0.01539326    0.06094939
     atom    9 type  2   force =     0.00011317   -0.00015045    0.00008687
     atom   10 type  2   force =    -0.00289382    0.00226542   -0.04714550
     atom   11 type  2   force =    -0.00005036   -0.00020375   -0.00003037
     atom   12 type  2   force =     0.00001426   -0.00002787    0.00019281
     atom   13 type  1   force =     0.00028381   -0.00013301    0.00010242
     atom   14 type  1   force =     0.00040150   -0.00014993    0.00024094
     atom   15 type  2   force =     0.00015526    0.00014646   -0.00029998
     atom   16 type  2   force =     0.00014457   -0.00015440    0.00002601
     atom   17 type  2   force =     0.00016594    0.00015784    0.00025380
     atom   18 type  2   force =     0.00011527    0.00027009    0.00008840
     atom   19 type  1   force =     0.00004523   -0.00013716   -0.00006515
     atom   20 type  1   force =    -0.00034848    0.00017869    0.00005960
     atom   21 type  2   force =     0.00010283    0.00000041    0.10029498
     atom   22 type  2   force =     0.00002798    0.00004835   -0.00017762
     atom   23 type  2   force =    -0.07669529   -0.00004620   -0.03006320
     atom   24 type  2   force =     0.07668083    0.00038625   -0.03008667
     atom   25 type  1   force =     0.00005824   -0.00043136    0.10696297
     atom   26 type  1   force =    -0.00010793    0.00062848   -0.16570107
     atom   27 type  2   force =     0.00012166   -0.00027280   -0.03749270
     atom   28 type  2   force =     0.00004428   -0.00043803    0.03535884
     atom   29 type  2   force =    -0.00569819   -0.00043489   -0.00598760
     atom   30 type  2   force =     0.00686191    0.00006298   -0.00767541
     atom   31 type  1   force =    -0.00056779   -0.00239849    0.03460764
     atom   32 type  1   force =     0.00111273   -0.01877421    0.06147218
     atom   33 type  2   force =     0.00022394   -0.00012623    0.00004962
     atom   34 type  2   force =    -0.00253717    0.00012710   -0.05385376
     atom   35 type  2   force =     0.00021397   -0.00024751   -0.00012174
     atom   36 type  2   force =     0.00018446   -0.00002296    0.00027390
     atom   37 type  1   force =     0.00035413   -0.00019645   -0.00013635
     atom   38 type  1   force =     0.00047102   -0.00022417    0.00027493
     atom   39 type  2   force =     0.00015896   -0.00045380    0.00025335
     atom   40 type  2   force =    -0.00019077   -0.00005779   -0.00012278
     atom   41 type  2   force =     0.00011440   -0.00038760    0.00012056
     atom   42 type  2   force =     0.00022798   -0.00041337    0.00011994
     atom   43 type  1   force =    -0.00025413    0.00004579   -0.00022682
     atom   44 type  1   force =    -0.00004746   -0.00029212    0.00027902
     atom   45 type  2   force =     0.00009647    0.00010982    0.10049702
     atom   46 type  2   force =    -0.07667490   -0.00006076   -0.03007471
     atom   47 type  2   force =     0.07666616    0.00036053   -0.03010389
     atom   48 type  3   force =     0.00104376   -0.00019115    0.00113709
     atom   49 type  3   force =     0.00011845    0.00023830   -0.00106858
     atom   50 type  4   force =     0.00234196    0.00103504    0.00214807
     atom   51 type  5   force =     0.00075753   -0.00098217    0.00084696
     atom   52 type  5   force =    -0.00071696    0.00012427   -0.00093865
     atom   53 type  5   force =    -0.00378066    0.00007559   -0.00225065
     atom   54 type  2   force =     0.00046214    0.00121761    0.00062441
     atom   55 type  5   force =    -0.00086026   -0.00093098   -0.00047727

     Total force =     0.381401     Total SCF correction =     0.000332
  @ DRIVER MODE: Message from server: STATUS
  @ DRIVER MODE: Message from server: GETFORCE
  @ DRIVER MODE: Returning v,forces,stress,ensemble

     Writing output data file ./calc.save/
  @ DRIVER MODE: Message from server: EXIT
  @ DRIVE MODE: Exiting

     General routines

     Parallel routines

   This run was terminated on:   9:17:30  10Sep2021

   JOB DONE.