     Program PWSCF v.6.7GPU starts on 15Sep2021 at 23:51:32

     R & G space division:  proc/nbgrp/npool/nimage =      10
     Reading input from /storage/home/hcoda1/3/ntian30/research/carbon/CxH_vib/H2O_calc/ads_slab/CH2NHNH2O_a/out_0026/pw.inp
Warning: card &CELL ignored
Warning: card   CELL_DYNAMICS='IPI', ignored
Warning: card / ignored

     Current dimensions of program PWSCF are:
     Max number of different atomic species (ntypx) = 10
     Max number of k-points (npk) =  40000
     Max angular momentum in pseudopotentials (lmaxx) =  3
     Presently no symmetry can be used with electric field

     Message from routine cell_base_init:
     DEPRECATED: use true lattice parameter, not A to a.u. conversion factor

     IMPORTANT: XC functional enforced from input :
     Exchange-correlation= BEEF-VDW
                           (   1   4  43  14   2   0   0)
     Any further DFT definition will be discarded
     Please, verify this is what you really want

  @ DRIVER MODE: Connecting to
 qe_1139763_2852610.sched-torque.pace.gatech.eduqr_75tyn_scratch
  using UNIX socket
  @ DRIVER MODE: Message from server: STATUS
  @ DRIVER MODE: Message from server: INIT
  @ DRIVER MODE: Receiving replica           0          -1
  @ DRIVER MODE: Receiving encoded integer          25
  @ DRIVER MODE:  SCF:  T  FORCE:  T  STRESS:  F  VC:  F  ENSEMBLE:  F
  @ DRIVER MODE:  SCF:  T  FORCE:  T  STRESS:  F  VC:  F  ENSEMBLE:  F

     Using Slab Decomposition

     bravais-lattice index     =            0
     lattice parameter (alat)  =       1.8897  a.u.
     unit-cell volume          =    6658.9804 (a.u.)^3
     number of atoms/cell      =           56
     number of atomic types    =            5
     number of electrons       =       403.00
     number of Kohn-Sham states=          211
     kinetic-energy cutoff     =      29.3995  Ry
     charge density cutoff     =     293.9946  Ry
     scf convergence threshold =      7.3E-08
     mixing beta               =       0.0500
     number of iterations used =            8  plain     mixing
     Exchange-correlation= BEEF-VDW
                           (   1   4  43  14   2   0   0)

     celldm(1)=   1.889726  celldm(2)=   0.000000  celldm(3)=   0.000000
     celldm(4)=   0.000000  celldm(5)=   0.000000  celldm(6)=   0.000000

     crystal axes: (cart. coord. in units of alat)
               a(1) = (   6.579727   0.000000   0.000000 )
               a(2) = (  -0.000775   5.961596   0.000000 )
               a(3) = (   0.000000   0.000000  25.155947 )

     reciprocal axes: (cart. coord. in units 2 pi/alat)
               b(1) = (  0.151982  0.000020  0.000000 )
               b(2) = (  0.000000  0.167740  0.000000 )
               b(3) = (  0.000000  0.000000  0.039752 )

     PseudoPot. # 1 for Ti read from file:
     /storage/coda1/p-amedford6/0/shared/rich_project_chbe-medford/medford-share/data/pseudos_module/espresso/nninc/pbe/van/Ti.UPF
     MD5 check sum: 8e4df49b7f0d34bbd5052bf3f5ea0213
     Pseudo is Ultrasoft, Zval = 12.0
     Generated by new atomic code, or converted to UPF format
     Using radial grid of  851 points,  6 beta functions with:
                l(1) =   0
                l(2) =   0
                l(3) =   1
                l(4) =   1
                l(5) =   2
                l(6) =   2
     Q(r) pseudized with  8 coefficients,  rinner =    1.000   1.000   1.000
                                                       1.000   1.000

     PseudoPot. # 2 for O  read from file:
     /storage/coda1/p-amedford6/0/shared/rich_project_chbe-medford/medford-share/data/pseudos_module/espresso/nninc/pbe/van/O.UPF
     MD5 check sum: 78c19812648e8988a0fe644b0f25305e
     Pseudo is Ultrasoft, Zval =  6.0
     Generated by new atomic code, or converted to UPF format
     Using radial grid of  737 points,  4 beta functions with:
                l(1) =   0
                l(2) =   0
                l(3) =   1
                l(4) =   1
     Q(r) pseudized with  8 coefficients,  rinner =    0.800   0.800   0.800

     PseudoPot. # 3 for H  read from file:
     /storage/coda1/p-amedford6/0/shared/rich_project_chbe-medford/medford-share/data/pseudos_module/espresso/nninc/pbe/van/H.UPF
     MD5 check sum: b5ee9d7bfd3a09ee7748110bda690ff7
     Pseudo is Ultrasoft, Zval =  1.0
     Generated by new atomic code, or converted to UPF format
     Using radial grid of  615 points,  1 beta functions with:
                l(1) =   0
     Q(r) pseudized with  8 coefficients,  rinner =    0.800

     PseudoPot. # 4 for N  read from file:
     /storage/coda1/p-amedford6/0/shared/rich_project_chbe-medford/medford-share/data/pseudos_module/espresso/nninc/pbe/van/N.UPF
     MD5 check sum: 90d10febe142ad51ac9d5be1deb811c4
     Pseudo is Ultrasoft, Zval =  5.0
     Generated by new atomic code, or converted to UPF format
     Using radial grid of  729 points,  4 beta functions with:
                l(1) =   0
                l(2) =   0
                l(3) =   1
                l(4) =   1
     Q(r) pseudized with  8 coefficients,  rinner =    0.800   0.800   0.800

     PseudoPot. # 5 for C  read from file:
     /storage/coda1/p-amedford6/0/shared/rich_project_chbe-medford/medford-share/data/pseudos_module/espresso/nninc/pbe/van/C.UPF
     MD5 check sum: 1a69bf6b8db32088f5b2163dbdb77a27
     Pseudo is Ultrasoft, Zval =  4.0
     Generated by new atomic code, or converted to UPF format
     Using radial grid of  721 points,  4 beta functions with:
                l(1) =   0
                l(2) =   0
                l(3) =   1
                l(4) =   1
     Q(r) pseudized with  8 coefficients,  rinner =    0.800   0.800   0.800

     atomic species   valence    mass     pseudopotential
        Ti1           12.00    47.86700     Ti( 1.00)
        O1             6.00    15.99900     O ( 1.00)
        H1             1.00     1.00800     H ( 1.00)
        N1             5.00    14.00700     N ( 1.00)
        C1             4.00    12.01100     C ( 1.00)

     No symmetry found

   Cartesian axes

     site n.     atom                  positions (alat units)
         1           Ti1 tau(   1) = (   0.0004258   2.9801865   6.0000000  )
         2           Ti1 tau(   2) = (   3.2906075   1.4906267   6.0002472  )
         3           O1  tau(   3) = (   0.0006271   0.0005054   7.9858123  )
         4           O1  tau(   4) = (   3.2906025   0.0005020   7.3038282  )
         5           O1  tau(   5) = (   4.5942328   1.4918067   9.2879030  )
         6           O1  tau(   6) = (   1.9868534   1.4903216   9.2879459  )
         7           Ti1 tau(   7) = (   3.2907910   2.8959150   9.1758416  )
         8           Ti1 tau(   8) = (   0.0015273   1.4827037   9.2680791  )
         9           O1  tau(   9) = (   3.2960012   0.0062018  11.3595187  )
        10           O1  tau(  10) = (   0.0116148   5.9584955  10.6183126  )
        11           O1  tau(  11) = (   1.2731109   1.5057875  12.6314550  )
        12           O1  tau(  12) = (   5.2959999   1.4755877  12.6679080  )
        13           Ti1 tau(  13) = (   0.0553992   2.9538365  12.5526742  )
        14           Ti1 tau(  14) = (   3.3268292   1.5427496  12.5634199  )
        15           O1  tau(  15) = (   0.1371361   5.9015051  14.6217027  )
        16           O1  tau(  16) = (   3.1880369   0.0098958  13.9252199  )
        17           O1  tau(  17) = (   4.6462182   1.4014471  15.8552565  )
        18           O1  tau(  18) = (   2.0822703   1.5558083  16.1249119  )
        19           Ti1 tau(  19) = (   3.3548958   3.0525267  15.8597497  )
        20           Ti1 tau(  20) = (   0.0948755   1.3182250  15.7908873  )
        21           O1  tau(  21) = (   3.2904802   0.0005063   4.7018136  )
        22           O1  tau(  22) = (   0.0722171   0.0319689  17.1393915  )
        23           O1  tau(  23) = (   1.3043587   1.4918075   6.0039043  )
        24           O1  tau(  24) = (   5.2767064   1.4903225   6.0039473  )
        25           Ti1 tau(  25) = (   0.0000382   5.9609847   6.0000000  )
        26           Ti1 tau(  26) = (   3.2902200   4.4714249   6.0002472  )
        27           O1  tau(  27) = (   0.0002396   2.9813036   7.9858123  )
        28           O1  tau(  28) = (   3.2902150   2.9813002   7.3038282  )
        29           O1  tau(  29) = (   4.5938453   4.4726049   9.2879030  )
        30           O1  tau(  30) = (   1.9864658   4.4711199   9.2879459  )
        31           Ti1 tau(  31) = (   3.2891106   5.8743827   9.1763621  )
        32           Ti1 tau(  32) = (   0.0006254   4.4649316   9.2693709  )
        33           O1  tau(  33) = (   3.2982667   2.9897935  11.3544942  )
        34           O1  tau(  34) = (   0.0092240   2.9805883  10.6323155  )
        35           O1  tau(  35) = (   1.2737041   4.4504026  12.6113924  )
        36           O1  tau(  36) = (   5.2903739   4.4874249  12.6576873  )
        37           Ti1 tau(  37) = (   6.5697415   5.9260651  12.4959683  )
        38           Ti1 tau(  38) = (   3.3125242   4.5024033  12.5372123  )
        39           O1  tau(  39) = (   0.0674008   2.9793056  14.8363759  )
        40           O1  tau(  40) = (   3.2999477   2.9756493  13.9369993  )
        41           O1  tau(  41) = (   4.6108370   4.5787535  15.7719701  )
        42           O1  tau(  42) = (   2.0428421   4.3627697  16.1441833  )
        43           Ti1 tau(  43) = (   3.3552955   0.0804576  15.7648105  )
        44           Ti1 tau(  44) = (   6.5672415   4.5273692  15.9765751  )
        45           O1  tau(  45) = (   3.2900926   2.9813045   4.7018136  )
        46           O1  tau(  46) = (   1.3039711   4.4726057   6.0039043  )
        47           O1  tau(  47) = (   5.2763189   4.4711207   6.0039473  )
        48           H1  tau(  48) = (   4.1035413   2.4672077  18.5646977  )
        49           N1  tau(  49) = (   5.6961598   3.2907635  17.7856741  )
        50           C1  tau(  50) = (   6.4968133   2.7471819  18.6454045  )
        51           H1  tau(  51) = (   6.1325458   2.1374441  19.4677963  )
        52           H1  tau(  52) = (   0.9899315   2.9096255  18.5325614  )
        53           N1  tau(  53) = (   4.3409097   3.1788467  17.8642182  )
        54           O1  tau(  54) = (   3.3174094   5.8609012  18.0981057  )
        55           H1  tau(  55) = (   3.6736973   4.9388346  18.2201127  )
        56           H1  tau(  56) = (   2.3597147   5.7972335  18.2603650  )

     number of k points=    10  Fermi-Dirac smearing, width (Ry)=  0.0073
                       cart. coord. in units 2pi/alat
        k(    1) = (   0.0000000   0.0000000   0.0000000), wk =   0.1250000
        k(    2) = (   0.0000000   0.0419351   0.0000000), wk =   0.2500000
        k(    3) = (   0.0000000  -0.0838702   0.0000000), wk =   0.1250000
        k(    4) = (   0.0379955   0.0000049   0.0000000), wk =   0.2500000
        k(    5) = (   0.0379955   0.0419400   0.0000000), wk =   0.2500000
        k(    6) = (   0.0379955  -0.0838652   0.0000000), wk =   0.2500000
        k(    7) = (   0.0379955  -0.0419301   0.0000000), wk =   0.2500000
        k(    8) = (  -0.0759910  -0.0000099   0.0000000), wk =   0.1250000
        k(    9) = (  -0.0759910   0.0419252   0.0000000), wk =   0.2500000
        k(   10) = (  -0.0759910  -0.0838800   0.0000000), wk =   0.1250000

     Initial potential from superposition of free atoms

     starting charge  386.99914, renormalised to  403.00000

     negative rho (up, down):  1.703E-02 0.000E+00

     %%%%%%%%%%%%%%%%%%%%%%%%%%%%%%%%%%%%%%%%%%%%%%%%%%%%%%%%%%%%%%%%%%%%%%%%
     %                                                                      %
     % You are using vdW-DF, which was implemented by the Thonhauser group. %
     % Please cite the following two papers that made this development      %
     % possible and the two reviews that describe the various versions:     %
     %                                                                      %
     %   T. Thonhauser et al., PRL 115, 136402 (2015).                      %
     %   T. Thonhauser et al., PRB 76, 125112 (2007).                       %
     %   K. Berland et al., Rep. Prog. Phys. 78, 066501 (2015).             %
     %   D.C. Langreth et al., J. Phys.: Condens. Matter 21, 084203 (2009). %
     %                                                                      %
     %                                                                      %
     % If you are calculating the stress with vdW-DF, please also cite:     %
     %                                                                      %
     %   R. Sabatini et al., J. Phys.: Condens. Matter 24, 424209 (2012).   %
     %                                                                      %
     %%%%%%%%%%%%%%%%%%%%%%%%%%%%%%%%%%%%%%%%%%%%%%%%%%%%%%%%%%%%%%%%%%%%%%%%

     Adding external electric field

     Computed dipole along edir(3) :
        Dipole              -12.3736 Ry au,        -31.4507 Debye
        Dipole field         -0.0234 Ry au,

        Potential amp.        2.1646 Ry
        Total length         46.3494 bohr

     Starting wfcs are  305 atomic wfcs
  @ DRIVER MODE: Message from server: STATUS
  @ DRIVER MODE: Message from server: POSDATA
  @ DRIVER MODE: Reading and sharing cell
  @ DRIVER MODE: Reading and sharing positions
  @ DRIVER MODE: Received positions

     Self-consistent Calculation

     iteration #  1     ecut=    29.40 Ry     beta= 0.05
     Davidson diagonalization with overlap
     c_bands:  4 eigenvalues not converged
     c_bands:  3 eigenvalues not converged
     c_bands:  3 eigenvalues not converged
     c_bands:  1 eigenvalues not converged
     c_bands:  1 eigenvalues not converged
     c_bands:  4 eigenvalues not converged
     c_bands:  3 eigenvalues not converged
     ethr =  1.00E-05,  avg # of iterations = 27.4

[...]

     total energy              =   -2355.31496948 Ry
     estimated scf accuracy    <    7011.04281494 Ry

     iteration #  2     ecut=    29.40 Ry     beta= 0.05
     Davidson diagonalization with overlap
     ethr =  1.00E-02,  avg # of iterations = 24.9

[...]

     iteration # 84     ecut=    29.40 Ry     beta= 0.05
     Davidson diagonalization with overlap
     c_bands:  1 eigenvalues not converged
     ethr =  2.54E-10,  avg # of iterations = 11.6

[...]

     total energy              =   -2973.97641869 Ry
     estimated scf accuracy    <       0.00000028 Ry

     iteration # 89     ecut=    29.40 Ry     beta= 0.05
     Davidson diagonalization with overlap
     ethr =  3.30E-11,  avg # of iterations = 11.0

     negative rho (up, down):  1.700E-02 0.000E+00

     Adding external electric field

     Computed dipole along edir(3) :
        Dipole                0.9083 Ry au,          2.3087 Debye
        Dipole field          0.0017 Ry au,

        Potential amp.       -0.1589 Ry
        Total length         46.3494 bohr

     End of self-consistent calculation

          k = 0.0000 0.0000 0.0000 ( 18029 PWs)   bands (ev):

   -55.6370 -55.6029 -55.5188 -55.4830 -55.4765 -55.4633 -55.4418 -55.4295
   -55.4244 -55.4071 -55.3903 -55.3897 -55.3561 -55.2389 -54.6230 -54.5890
   -32.1227 -32.0247 -31.9711 -31.9654 -31.9577 -31.9281 -31.9142 -31.8960
   -31.8826 -31.7897 -31.7837 -31.7777 -31.7498 -31.7446 -31.7394 -31.7048
   -31.6945 -31.6814 -31.6764 -31.6684 -31.6616 -31.6600 -31.6442 -31.6414
   -31.6351 -31.6254 -31.6234 -31.6189 -31.6131 -31.6073 -31.6024 -31.5931
   -31.5833 -31.5809 -31.5803 -31.5784 -31.5726 -31.5372 -31.5291 -31.5136
   -31.4397 -31.3674 -31.0301 -30.9415 -30.9191 -30.8469 -30.7604 -30.6493
   -18.4397 -17.7398 -16.3002 -16.1095 -15.8843 -15.7824 -15.7425 -15.5692
   -15.4386 -15.3959 -15.2695 -15.2038 -15.1800 -15.1611 -15.1475 -15.1148
   -15.0914 -15.0677 -15.0658 -15.0466 -15.0221 -14.9993 -14.9715 -14.9535
   -14.9113 -14.7856 -14.7776 -14.7663 -14.7283 -14.6909 -14.2916 -13.1233
   -13.0067 -12.3672  -7.9138  -6.2092  -5.4191  -4.8171  -3.6715  -3.5797
    -3.5470  -3.5235  -3.4462  -3.3274  -3.2300  -3.0352  -2.9261  -2.8965
    -2.8744  -2.7887  -2.7069  -2.6658  -2.5630  -2.5306  -2.5204  -2.4761
    -2.4211  -2.4061  -2.3762  -2.3627  -2.3271  -2.1939  -2.1749  -2.1366
    -2.0254  -2.0089  -2.0006  -1.9583  -1.9548  -1.9240  -1.9133  -1.8960
    -1.8790  -1.8670  -1.7996  -1.7181  -1.6851  -1.6366  -1.5819  -1.5753
    -1.2742  -1.2575  -1.1903  -1.1588  -1.0881  -1.0541  -1.0403  -1.0257
    -0.9941  -0.8940  -0.8046  -0.7854  -0.7222  -0.6606  -0.5613  -0.5474
    -0.4469  -0.3978  -0.3922  -0.3791  -0.3473  -0.2881  -0.2314  -0.1751
    -0.1248  -0.0425   0.0120   0.0209   0.0628   0.1066   0.1362   0.1945
     0.2569   0.2843   0.3173   0.3326   0.3738   0.4340   0.4554   0.4682
     0.5467   0.5868   0.6120   0.7100   0.7192   0.7583   0.8300   1.0147
     1.0604   1.1996   1.3382   1.4015   1.4673   1.5937   1.8688   1.9717
     2.0179   3.4532   3.5871   3.6081   3.6435   3.7154   3.7618   3.9349
     4.0305   4.0524   4.1141

[...]

          k = 0.0380-0.0419 0.0000 ( 17876 PWs)   bands (ev):

[...]

          k =-0.0760-0.0000 0.0000 ( 17886 PWs)   bands (ev):

[...]

          k =-0.0760-0.0839 0.0000 ( 17948 PWs)   bands (ev):

   -55.6199 -55.6198 -55.5041 -55.4973 -55.4612 -55.4573 -55.4463 -55.4460
   -55.4103 -55.4048 -55.4045 -55.3738 -55.3722 -55.2407 -54.6060 -54.6058
   -31.9380 -31.9379 -31.9137 -31.9135 -31.8835 -31.8479 -31.8190 -31.8004
   -31.7898 -31.7745 -31.7653 -31.7528 -31.7485 -31.7397 -31.7396 -31.7323
   -31.7318 -31.7194 -31.7166 -31.7100 -31.6839 -31.6817 -31.6765 -31.6705
   -31.6558 -31.6534 -31.6524 -31.6388 -31.6330 -31.6309 -31.6274 -31.6271
   -31.6232 -31.6204 -31.6200 -31.6154 -31.6139 -31.6025 -31.5872 -31.5366
   -31.4497 -31.4466 -30.9319 -30.9317 -30.8429 -30.8428 -30.8037 -30.8036
   -18.4324 -17.7403 -15.8510 -15.6071 -15.5934 -15.5570 -15.5381 -15.4188
   -15.3738 -15.3698 -15.3489 -15.2938 -15.2581 -15.2211 -15.1897 -15.1720
   -15.1486 -15.1374 -15.0957 -15.0926 -15.0855 -15.0636 -15.0222 -15.0117
   -14.9873 -14.9668 -14.9622 -14.9500 -14.9175 -14.7493 -14.6396 -13.1085
   -13.1084 -12.3831  -7.8737  -6.1942  -5.4774  -4.7376  -3.1454  -3.0662
    -3.0186  -2.8001  -2.7557  -2.7378  -2.7016  -2.6417  -2.5885  -2.5714
    -2.5527  -2.5246  -2.5150  -2.4619  -2.4364  -2.4106  -2.3859  -2.3699
    -2.3605  -2.3474  -2.3211  -2.3019  -2.2798  -2.2696  -2.2460  -2.2356
    -2.2137  -2.2054  -2.1913  -2.1690  -2.0807  -1.9982  -1.8970  -1.8377
    -1.7939  -1.7936  -1.7633  -1.7342  -1.7063  -1.7017  -1.6625  -1.6331
    -1.5613  -1.5014  -1.3191  -1.3053  -1.2606  -1.1761  -1.1751  -1.1275
    -1.1188  -1.0672  -1.0401  -0.9935  -0.9439  -0.9110  -0.8228  -0.6696
    -0.6211  -0.6012  -0.5953  -0.5801  -0.5394  -0.5248  -0.4726  -0.4553
    -0.4388  -0.3730  -0.3420  -0.3379  -0.2874  -0.2693  -0.1570  -0.0589
    -0.0315   0.0224   0.0619   0.1814   0.2935   0.3626   0.4641   0.4784
     0.4969   0.5506   0.6587   0.6685   0.7137   0.7760   0.8413   0.8470
     0.8774   0.9414   0.9534   0.9902   1.7645   1.7662   1.8177   1.8379
     1.8380   3.8619   3.9025   3.9530   3.9592   3.9831   4.0332   4.0405
     4.0711   4.1216   4.1376

     the Fermi energy is     3.4855 ev

!    total energy              =   -2973.97642262 Ry
     estimated scf accuracy    <       0.00000005 Ry
     smearing contrib. (-TS)   =      -0.01978118 Ry
     internal energy E=F+TS    =   -2973.95664145 Ry

     The total energy is F=E-TS. E is the sum of the following terms:
     one-electron contribution =  -24367.60159620 Ry
     hartree contribution      =   12278.36323585 Ry
     xc contribution           =    -494.12501517 Ry
     ewald contribution        =    9609.40517715 Ry
     electric field correction =       0.00155693 Ry

     convergence has been achieved in  89 iterations

     Forces acting on atoms (cartesian axes, Ry/au):

     atom    1 type  1   force =     0.00016648   -0.00031286    0.09439427
     atom    2 type  1   force =    -0.00006843   -0.00076954   -0.17588321
     atom    3 type  2   force =     0.00005852   -0.00019247   -0.02182946
     atom    4 type  2   force =     0.00003744   -0.00133715    0.05333316
     atom    5 type  2   force =    -0.00870076   -0.00018045    0.00365937
     atom    6 type  2   force =     0.01036892    0.00047202    0.00301435
     atom    7 type  1   force =    -0.00045366    0.00080325   -0.00107000
     atom    8 type  1   force =     0.00044730    0.00751050    0.00861386
     atom    9 type  2   force =     0.00046911    0.00015420    0.00006245
     atom   10 type  2   force =    -0.00262553    0.00131820   -0.01722091
     atom   11 type  2   force =    -0.00007506    0.00009052   -0.00040245
     atom   12 type  2   force =     0.00029855    0.00007636   -0.00007208
     atom   13 type  1   force =    -0.00040345   -0.00038219   -0.00022266
     atom   14 type  1   force =     0.00035030    0.00009485    0.00021422
     atom   15 type  2   force =     0.00013020   -0.00006636   -0.00026759
     atom   16 type  2   force =     0.00020749    0.00018591    0.00006480
     atom   17 type  2   force =    -0.00007210   -0.00006993    0.00010354
     atom   18 type  2   force =     0.00006458   -0.00007413   -0.00009446
     atom   19 type  1   force =    -0.00048641    0.00024958   -0.00073439
     atom   20 type  1   force =     0.00015187   -0.00012101    0.00011194
     atom   21 type  2   force =     0.00006878   -0.00000216    0.10325991
     atom   22 type  2   force =    -0.00027591   -0.00043556   -0.00009610
     atom   23 type  2   force =    -0.07153016   -0.00011679   -0.02735157
     atom   24 type  2   force =     0.07146905    0.00037419   -0.02736289
     atom   25 type  1   force =     0.00004887   -0.00021158    0.09437164
     atom   26 type  1   force =    -0.00013841   -0.00029590   -0.17600766
     atom   27 type  2   force =     0.00003806   -0.00018666   -0.02072825
     atom   28 type  2   force =     0.00009509   -0.00112818    0.05372764
     atom   29 type  2   force =    -0.00878338   -0.00002125    0.00342663
     atom   30 type  2   force =     0.01029654    0.00036733    0.00286038
     atom   31 type  1   force =    -0.00032409    0.00464658    0.00187397
     atom   32 type  1   force =     0.00043150   -0.00852516    0.00856991
     atom   33 type  2   force =    -0.00003480    0.00003202   -0.00001203
     atom   34 type  2   force =    -0.00403118   -0.00112047   -0.01181803
     atom   35 type  2   force =     0.00015011    0.00007956    0.00033706
     atom   36 type  2   force =     0.00052692    0.00005849   -0.00021675
     atom   37 type  1   force =     0.00061457   -0.00020409   -0.00001835
     atom   38 type  1   force =     0.00021947   -0.00015933   -0.00010649
     atom   39 type  2   force =    -0.00014590   -0.00002846   -0.00021014
     atom   40 type  2   force =     0.00046440    0.00000676    0.00039873
     atom   41 type  2   force =    -0.00014346    0.00044600    0.00010358
     atom   42 type  2   force =     0.00019139    0.00018113   -0.00012755
     atom   43 type  1   force =    -0.00028499   -0.00013911   -0.00009260
     atom   44 type  1   force =     0.00031309    0.00053735    0.00093123
     atom   45 type  2   force =     0.00005005    0.00000023    0.10333445
     atom   46 type  2   force =    -0.07152540   -0.00003709   -0.02733835
     atom   47 type  2   force =     0.07146815    0.00035848   -0.02736720
     atom   48 type  3   force =     0.00043712   -0.00054416   -0.00067198
     atom   49 type  4   force =     0.00114075    0.00008674   -0.00031817
     atom   50 type  5   force =     0.01153215    0.00014119   -0.00229266
     atom   51 type  3   force =    -0.00029922    0.00040456    0.00106350
     atom   52 type  3   force =    -0.01256837   -0.00188851    0.00107585
     atom   53 type  4   force =    -0.00016927    0.00012843    0.00109838
     atom   54 type  2   force =     0.00040234   -0.00062824    0.00077086
     atom   55 type  3   force =    -0.00039951    0.00036603   -0.00050452
     atom   56 type  3   force =     0.00083025    0.00000834   -0.00033721

     Total force =     0.364202     Total SCF correction =     0.000460
  @ DRIVER MODE: Message from server: STATUS
  @ DRIVER MODE: Message from server: GETFORCE
  @ DRIVER MODE: Returning v,forces,stress,ensemble

     Writing output data file ./calc.save/
  @ DRIVER MODE: Message from server: EXIT
  @ DRIVE MODE: Exiting

     General routines

     Parallel routines

   This run was terminated on:   0:14:13  16Sep2021

   JOB DONE.