     Program PWSCF v.6.7GPU starts on 25Aug2021 at 15:15:13

     R & G space division:  proc/nbgrp/npool/nimage =       6
     Reading input from /storage/home/hcoda1/3/ntian30/research/carbon/CH3_vib_end_on/ads_slab/CH3NHNH2_a/out_0041/pw.inp
Warning: card &CELL ignored
Warning: card   CELL_DYNAMICS='IPI', ignored
Warning: card / ignored

     Current dimensions of program PWSCF are:
     Max number of different atomic species (ntypx) = 10
     Max number of k-points (npk) =  40000
     Max angular momentum in pseudopotentials (lmaxx) =  3
     Presently no symmetry can be used with electric field

     Message from routine cell_base_init:
     DEPRECATED: use true lattice parameter, not A to a.u. conversion factor

     IMPORTANT: XC functional enforced from input :
     Exchange-correlation= BEEF-VDW
                           (   1   4  43  14   2   0   0)
     Any further DFT definition will be discarded
     Please, verify this is what you really want

  @ DRIVER MODE: Connecting to
 qe_1139763_2643871.sched-torque.pace.gatech.educat0ar1d_scratch
  using UNIX socket
  @ DRIVER MODE: Message from server: STATUS
  @ DRIVER MODE: Message from server: INIT
  @ DRIVER MODE: Receiving replica           0          -1
  @ DRIVER MODE: Receiving encoded integer          25
  @ DRIVER MODE:  SCF:  T  FORCE:  T  STRESS:  F  VC:  F  ENSEMBLE:  F
  @ DRIVER MODE:  SCF:  T  FORCE:  T  STRESS:  F  VC:  F  ENSEMBLE:  F

     Using Slab Decomposition

     bravais-lattice index     =            0
     lattice parameter (alat)  =       1.8897  a.u.
     unit-cell volume          =    6658.9804 (a.u.)^3
     number of atoms/cell      =           56
     number of atomic types    =            5
     number of electrons       =       398.00
     number of Kohn-Sham states=          209
     kinetic-energy cutoff     =      29.3995  Ry
     charge density cutoff     =     293.9946  Ry
     scf convergence threshold =      7.3E-08
     mixing beta               =       0.0500
     number of iterations used =            8  plain     mixing
     Exchange-correlation= BEEF-VDW
                           (   1   4  43  14   2   0   0)

     celldm(1)=   1.889726  celldm(2)=   0.000000  celldm(3)=   0.000000
     celldm(4)=   0.000000  celldm(5)=   0.000000  celldm(6)=   0.000000

     crystal axes: (cart. coord. in units of alat)
               a(1) = (   6.579727   0.000000   0.000000 )
               a(2) = (  -0.000775   5.961596   0.000000 )
               a(3) = (   0.000000   0.000000  25.155947 )

     reciprocal axes: (cart. coord. in units 2 pi/alat)
               b(1) = (  0.151982  0.000020  0.000000 )
               b(2) = (  0.000000  0.167740  0.000000 )
               b(3) = (  0.000000  0.000000  0.039752 )

     PseudoPot. # 1 for Ti read from file:
     /storage/coda1/p-amedford6/0/shared/rich_project_chbe-medford/medford-share/data/pseudos_module/espresso/nninc/pbe/van/Ti.UPF
     MD5 check sum: 8e4df49b7f0d34bbd5052bf3f5ea0213
     Pseudo is Ultrasoft, Zval = 12.0
     Generated by new atomic code, or converted to UPF format
     Using radial grid of  851 points,  6 beta functions with:
                l(1) =   0
                l(2) =   0
                l(3) =   1
                l(4) =   1
                l(5) =   2
                l(6) =   2
     Q(r) pseudized with  8 coefficients,  rinner =    1.000   1.000   1.000
                                                       1.000   1.000

     PseudoPot. # 2 for O  read from file:
     /storage/coda1/p-amedford6/0/shared/rich_project_chbe-medford/medford-share/data/pseudos_module/espresso/nninc/pbe/van/O.UPF
     MD5 check sum: 78c19812648e8988a0fe644b0f25305e
     Pseudo is Ultrasoft, Zval =  6.0
     Generated by new atomic code, or converted to UPF format
     Using radial grid of  737 points,  4 beta functions with:
                l(1) =   0
                l(2) =   0
                l(3) =   1
                l(4) =   1
     Q(r) pseudized with  8 coefficients,  rinner =    0.800   0.800   0.800

     PseudoPot. # 3 for N  read from file:
     /storage/coda1/p-amedford6/0/shared/rich_project_chbe-medford/medford-share/data/pseudos_module/espresso/nninc/pbe/van/N.UPF
     MD5 check sum: 90d10febe142ad51ac9d5be1deb811c4
     Pseudo is Ultrasoft, Zval =  5.0
     Generated by new atomic code, or converted to UPF format
     Using radial grid of  729 points,  4 beta functions with:
                l(1) =   0
                l(2) =   0
                l(3) =   1
                l(4) =   1
     Q(r) pseudized with  8 coefficients,  rinner =    0.800   0.800   0.800

     PseudoPot. # 4 for C  read from file:
     /storage/coda1/p-amedford6/0/shared/rich_project_chbe-medford/medford-share/data/pseudos_module/espresso/nninc/pbe/van/C.UPF
     MD5 check sum: 1a69bf6b8db32088f5b2163dbdb77a27
     Pseudo is Ultrasoft, Zval =  4.0
     Generated by new atomic code, or converted to UPF format
     Using radial grid of  721 points,  4 beta functions with:
                l(1) =   0
                l(2) =   0
                l(3) =   1
                l(4) =   1
     Q(r) pseudized with  8 coefficients,  rinner =    0.800   0.800   0.800

     PseudoPot. # 5 for H  read from file:
     /storage/coda1/p-amedford6/0/shared/rich_project_chbe-medford/medford-share/data/pseudos_module/espresso/nninc/pbe/van/H.UPF
     MD5 check sum: b5ee9d7bfd3a09ee7748110bda690ff7
     Pseudo is Ultrasoft, Zval =  1.0
     Generated by new atomic code, or converted to UPF format
     Using radial grid of  615 points,  1 beta functions with:
                l(1) =   0
     Q(r) pseudized with  8 coefficients,  rinner =    0.800

     atomic species   valence    mass     pseudopotential
        Ti1           12.00    47.86700     Ti( 1.00)
        O1             6.00    15.99900     O ( 1.00)
        N1             5.00    14.00700     N ( 1.00)
        C1             4.00    12.01100     C ( 1.00)
        H1             1.00     1.00800     H ( 1.00)

     No symmetry found

   Cartesian axes

     site n.     atom                  positions (alat units)
         1           Ti1 tau(   1) = (   0.0004258   2.9801865   6.0000000  )
         2           Ti1 tau(   2) = (   3.2906075   1.4906267   6.0002472  )
         3           O1  tau(   3) = (   0.0006271   0.0005054   7.9858123  )
         4           O1  tau(   4) = (   3.2906025   0.0005020   7.3038282  )
         5           O1  tau(   5) = (   4.5942328   1.4918067   9.2879030  )
         6           O1  tau(   6) = (   1.9868534   1.4903216   9.2879459  )
         7           Ti1 tau(   7) = (   3.2907910   2.8959150   9.1758416  )
         8           Ti1 tau(   8) = (   0.0015273   1.4827037   9.2680791  )
         9           O1  tau(   9) = (   3.2714441   0.0289406  11.3813764  )
        10           O1  tau(  10) = (   0.0116148   5.9584955  10.6183126  )
        11           O1  tau(  11) = (   1.2692032   1.5162281  12.7122965  )
        12           O1  tau(  12) = (   5.2779133   1.5159715  12.6811497  )
        13           Ti1 tau(  13) = (   6.5579218   3.0031650  12.5037829  )
        14           Ti1 tau(  14) = (   3.2791490   1.5128154  12.5375672  )
        15           O1  tau(  15) = (   6.5208524   5.8954130  14.6845636  )
        16           O1  tau(  16) = (   3.2849572   0.0099931  14.0031570  )
        17           O1  tau(  17) = (   4.4884262   1.5607690  16.1641467  )
        18           O1  tau(  18) = (   1.9729656   1.5430890  16.0903287  )
        19           Ti1 tau(  19) = (   3.2372663   3.0309179  15.7728032  )
        20           Ti1 tau(  20) = (   6.5553692   1.3539605  15.8053163  )
        21           O1  tau(  21) = (   3.2904802   0.0005063   4.7018136  )
        22           O1  tau(  22) = (   6.5123495   0.2165906  17.2215032  )
        23           O1  tau(  23) = (   1.3043587   1.4918075   6.0039043  )
        24           O1  tau(  24) = (   5.2767064   1.4903225   6.0039473  )
        25           Ti1 tau(  25) = (   0.0000382   5.9609847   6.0000000  )
        26           Ti1 tau(  26) = (   3.2902200   4.4714249   6.0002472  )
        27           O1  tau(  27) = (   0.0002396   2.9813036   7.9858123  )
        28           O1  tau(  28) = (   3.2902150   2.9813002   7.3038282  )
        29           O1  tau(  29) = (   4.5938453   4.4726049   9.2879030  )
        30           O1  tau(  30) = (   1.9864658   4.4711199   9.2879459  )
        31           Ti1 tau(  31) = (   3.2891106   5.8743827   9.1763621  )
        32           Ti1 tau(  32) = (   0.0006254   4.4649316   9.2693709  )
        33           O1  tau(  33) = (   3.2699379   2.9911670  11.3762017  )
        34           O1  tau(  34) = (   0.0092240   2.9805883  10.6323155  )
        35           O1  tau(  35) = (   1.2730946   4.4825978  12.6662957  )
        36           O1  tau(  36) = (   5.2742290   4.4829497  12.6320226  )
        37           Ti1 tau(  37) = (   6.5783117   0.0079037  12.5026730  )
        38           Ti1 tau(  38) = (   3.2784283   4.4905194  12.5286134  )
        39           O1  tau(  39) = (   6.5033290   3.0824797  14.9867588  )
        40           O1  tau(  40) = (   3.2824109   3.0350539  13.9807796  )
        41           O1  tau(  41) = (   4.4804250   4.5097483  16.2808085  )
        42           O1  tau(  42) = (   1.9642025   4.5165872  16.2225063  )
        43           Ti1 tau(  43) = (   3.2609991   0.0502580  15.7998297  )
        44           Ti1 tau(  44) = (   6.5501253   4.5826093  16.0954727  )
        45           O1  tau(  45) = (   3.2900926   2.9813045   4.7018136  )
        46           O1  tau(  46) = (   1.3039711   4.4726057   6.0039043  )
        47           O1  tau(  47) = (   5.2763189   4.4711207   6.0039473  )
        48           N1  tau(  48) = (   0.8845045   3.2634721  19.1145209  )
        49           N1  tau(  49) = (   6.3504243   3.3997271  18.1887592  )
        50           C1  tau(  50) = (   1.2927081   4.5631590  19.6429350  )
        51           H1  tau(  51) = (   0.4658632   5.1229972  20.1056819  )
        52           H1  tau(  52) = (   2.0600825   4.3818216  20.3958833  )
        53           H1  tau(  53) = (   1.7018904   5.1738364  18.8453250  )
        54           H1  tau(  54) = (   0.5628611   2.6866381  19.8788112  )
        55           H1  tau(  55) = (   5.6051421   3.9827062  18.5884547  )
        56           H1  tau(  56) = (   5.9567982   2.4624696  18.0937858  )

     number of k points=    10  Fermi-Dirac smearing, width (Ry)=  0.0073
                       cart. coord. in units 2pi/alat
        k(    1) = (   0.0000000   0.0000000   0.0000000), wk =   0.1250000
        k(    2) = (   0.0000000   0.0419351   0.0000000), wk =   0.2500000
        k(    3) = (   0.0000000  -0.0838702   0.0000000), wk =   0.1250000
        k(    4) = (   0.0379955   0.0000049   0.0000000), wk =   0.2500000
        k(    5) = (   0.0379955   0.0419400   0.0000000), wk =   0.2500000
        k(    6) = (   0.0379955  -0.0838652   0.0000000), wk =   0.2500000
        k(    7) = (   0.0379955  -0.0419301   0.0000000), wk =   0.2500000
        k(    8) = (  -0.0759910  -0.0000099   0.0000000), wk =   0.1250000
        k(    9) = (  -0.0759910   0.0419252   0.0000000), wk =   0.2500000
        k(   10) = (  -0.0759910  -0.0838800   0.0000000), wk =   0.1250000

     Initial potential from superposition of free atoms

     starting charge  381.99914, renormalised to  398.00000

     negative rho (up, down):  1.416E-02 0.000E+00

     %%%%%%%%%%%%%%%%%%%%%%%%%%%%%%%%%%%%%%%%%%%%%%%%%%%%%%%%%%%%%%%%%%%%%%%%
     %                                                                      %
     % You are using vdW-DF, which was implemented by the Thonhauser group. %
     % Please cite the following two papers that made this development      %
     % possible and the two reviews that describe the various versions:     %
     %                                                                      %
     %   T. Thonhauser et al., PRL 115, 136402 (2015).                      %
     %   T. Thonhauser et al., PRB 76, 125112 (2007).                       %
     %   K. Berland et al., Rep. Prog. Phys. 78, 066501 (2015).             %
     %   D.C. Langreth et al., J. Phys.: Condens. Matter 21, 084203 (2009). %
     %                                                                      %
     %                                                                      %
     % If you are calculating the stress with vdW-DF, please also cite:     %
     %                                                                      %
     %   R. Sabatini et al., J. Phys.: Condens. Matter 24, 424209 (2012).   %
     %                                                                      %
     %%%%%%%%%%%%%%%%%%%%%%%%%%%%%%%%%%%%%%%%%%%%%%%%%%%%%%%%%%%%%%%%%%%%%%%%

     Adding external electric field

     Computed dipole along edir(3) :
        Dipole              -11.7163 Ry au,        -29.7798 Debye
        Dipole field         -0.0221 Ry au,

        Potential amp.        2.0496 Ry
        Total length         46.3494 bohr

     Starting wfcs are  302 atomic wfcs
  @ DRIVER MODE: Message from server: STATUS
  @ DRIVER MODE: Message from server: POSDATA
  @ DRIVER MODE: Reading and sharing cell
  @ DRIVER MODE: Reading and sharing positions
  @ DRIVER MODE: Received positions

     Self-consistent Calculation

     iteration #  1     ecut=    29.40 Ry     beta= 0.05
     Davidson diagonalization with overlap
     c_bands:  3 eigenvalues not converged
     c_bands:  1 eigenvalues not converged
     c_bands:  1 eigenvalues not converged
     c_bands:  4 eigenvalues not converged
     c_bands:  1 eigenvalues not converged
     c_bands:  4 eigenvalues not converged
     c_bands:  5 eigenvalues not converged
     c_bands:  2 eigenvalues not converged
     ethr =  1.00E-05,  avg # of iterations = 21.9

[...]

     total energy              =   -2424.60215327 Ry
     estimated scf accuracy    <    5829.65759902 Ry

     iteration #  2     ecut=    29.40 Ry     beta= 0.05
     Davidson diagonalization with overlap
     ethr =  1.00E-02,  avg # of iterations = 22.5

[...]

     iteration # 62     ecut=    29.40 Ry     beta= 0.05
     Davidson diagonalization with overlap
     c_bands:  1 eigenvalues not converged
     c_bands:  1 eigenvalues not converged
     ethr =  7.69E-11,  avg # of iterations = 13.8

[...]

     total energy              =   -2942.84379969 Ry
     estimated scf accuracy    <       0.00000010 Ry

     iteration # 65     ecut=    29.40 Ry     beta= 0.05
     Davidson diagonalization with overlap
     ethr =  2.45E-11,  avg # of iterations =  9.5

     negative rho (up, down):  1.513E-02 0.000E+00

     Adding external electric field

     Computed dipole along edir(3) :
        Dipole                1.4957 Ry au,          3.8017 Debye
        Dipole field          0.0028 Ry au,

        Potential amp.       -0.2617 Ry
        Total length         46.3494 bohr

     End of self-consistent calculation

          k = 0.0000 0.0000 0.0000 ( 18029 PWs)   bands (ev):

   -55.2009 -55.1638 -55.1530 -55.1244 -55.1189 -55.0824 -55.0793 -55.0444
   -55.0252 -55.0122 -54.9908 -54.9858 -54.9522 -54.8558 -54.1853 -54.1513
   -31.7673 -31.6512 -31.6460 -31.5674 -31.5144 -31.5133 -31.5106 -31.4919
   -31.4420 -31.4386 -31.4106 -31.4085 -31.3981 -31.3813 -31.3682 -31.3626
   -31.3554 -31.3457 -31.3383 -31.3215 -31.3057 -31.3030 -31.2713 -31.2673
   -31.2568 -31.2559 -31.2375 -31.2278 -31.2103 -31.2097 -31.2054 -31.1847
   -31.1846 -31.1813 -31.1744 -31.1719 -31.1386 -31.1289 -31.1142 -31.0973
   -31.0690 -31.0497 -30.5948 -30.5003 -30.4782 -30.4112 -30.3244 -30.2135
   -17.9725 -16.0346 -15.7723 -15.6270 -15.5147 -15.4033 -15.2839 -15.2531
   -15.1334 -15.0573 -14.9234 -14.8971 -14.8746 -14.8510 -14.8392 -14.8265
   -14.7507 -14.7442 -14.7283 -14.7000 -14.6980 -14.6529 -14.6431 -14.6037
   -14.5787 -14.5575 -14.4529 -14.3647 -14.2906 -14.0744 -13.4464 -12.6881
   -12.5706  -9.7324  -6.6094  -6.0884  -4.5974  -3.3730  -3.2593  -3.2248
    -3.1383  -3.1056  -3.0954  -3.0062  -2.9510  -2.7914  -2.6493  -2.6238
    -2.4923  -2.4173  -2.4009  -2.3765  -2.2467  -2.2117  -2.1605  -2.1216
    -2.0623  -2.0321  -2.0079  -1.9922  -1.9612  -1.9521  -1.9269  -1.8382
    -1.7784  -1.6857  -1.6684  -1.6007  -1.5929  -1.5600  -1.5389  -1.4936
    -1.4832  -1.4339  -1.4264  -1.4139  -1.3939  -1.2661  -1.2225  -1.1126
    -1.0514  -0.9639  -0.8429  -0.8029  -0.7888  -0.6982  -0.6893  -0.6575
    -0.5807  -0.5779  -0.5469  -0.4388  -0.3739  -0.3102  -0.2513  -0.2252
    -0.1917  -0.1144  -0.0237   0.0126   0.0294   0.0524   0.1526   0.1877
     0.2433   0.3102   0.3217   0.3349   0.4143   0.4557   0.5310   0.5675
     0.5851   0.6739   0.7002   0.7282   0.7287   0.7664   0.7808   0.8203
     0.8691   0.8959   0.9824   1.0463   1.1034   1.3480   1.4005   1.4068
     1.7328   1.7408   1.8372   2.0206   2.4137   2.4621   3.8955   3.9642
     4.0400   4.0450   4.0674   4.1312   4.3691   4.3923   4.4012   4.4034
     4.4301

[...]

          k = 0.0380-0.0419 0.0000 ( 17876 PWs)   bands (ev):

[...]

          k =-0.0760-0.0000 0.0000 ( 17886 PWs)   bands (ev):

[...]

          k =-0.0760-0.0839 0.0000 ( 17948 PWs)   bands (ev):

   -55.1871 -55.1774 -55.1362 -55.1357 -55.1231 -55.0781 -55.0649 -55.0588
   -55.0165 -55.0093 -55.0062 -54.9693 -54.9689 -54.8570 -54.1684 -54.1680
   -31.5754 -31.5746 -31.5676 -31.4830 -31.4612 -31.4609 -31.4580 -31.4273
   -31.4272 -31.4119 -31.4010 -31.3994 -31.3907 -31.3651 -31.3558 -31.3428
   -31.3418 -31.3380 -31.3348 -31.3292 -31.3272 -31.3212 -31.2822 -31.2790
   -31.2787 -31.2774 -31.2597 -31.2582 -31.2559 -31.2555 -31.2509 -31.2424
   -31.2394 -31.2224 -31.2191 -31.2032 -31.2023 -31.1995 -31.1500 -31.1497
   -31.1256 -31.0734 -30.4911 -30.4907 -30.4075 -30.4072 -30.3679 -30.3677
   -17.9693 -15.5596 -15.4296 -15.4005 -15.2441 -15.2079 -15.1746 -15.1612
   -15.0404 -15.0031 -14.9784 -14.9690 -14.9514 -14.9110 -14.9053 -14.8984
   -14.8279 -14.8087 -14.8044 -14.7821 -14.7239 -14.7150 -14.7111 -14.7035
   -14.6529 -14.6493 -14.5689 -14.5585 -14.5553 -14.3758 -13.4498 -12.6721
   -12.6720  -9.7485  -6.5933  -6.0883  -4.5767  -3.2311  -2.9661  -2.6920
    -2.6876  -2.6591  -2.4580  -2.3953  -2.3646  -2.3594  -2.2619  -2.2252
    -2.2008  -2.1973  -2.1321  -2.1172  -2.0866  -2.0563  -2.0401  -2.0263
    -2.0110  -1.9968  -1.9710  -1.9335  -1.9255  -1.9173  -1.8858  -1.8636
    -1.8406  -1.8185  -1.8048  -1.7865  -1.7604  -1.7381  -1.6013  -1.5696
    -1.4993  -1.4570  -1.4128  -1.4085  -1.3368  -1.3003  -1.2502  -1.2379
    -1.2210  -1.0815  -1.0229  -0.9720  -0.9519  -0.9410  -0.8122  -0.7978
    -0.7251  -0.7072  -0.6908  -0.6165  -0.5653  -0.5270  -0.5134  -0.4201
    -0.4047  -0.3383  -0.2362  -0.2135  -0.1996  -0.1588  -0.1558  -0.1087
    -0.1016  -0.0174   0.0268   0.0618   0.0727   0.1084   0.3011   0.3171
     0.3272   0.4803   0.4959   0.6377   0.6813   0.7477   0.8066   0.8455
     0.9073   0.9446   1.0565   1.0876   1.1024   1.1103   1.1720   1.1839
     1.2467   1.2574   2.1933   2.1939   2.2820   2.2822   4.0415   4.1487
     4.1564   4.1980   4.3180   4.3480   4.4104   4.4377   4.4796   4.4827
     4.5425

     the Fermi energy is     3.9588 ev

!    total energy              =   -2942.84382832 Ry
     estimated scf accuracy    <       0.00000004 Ry
     smearing contrib. (-TS)   =      -0.03707784 Ry
     internal energy E=F+TS    =   -2942.80675048 Ry

     The total energy is F=E-TS. E is the sum of the following terms:
     one-electron contribution =  -23367.15527117 Ry
     hartree contribution      =   11777.75743271 Ry
     xc contribution           =    -487.74735845 Ry
     ewald contribution        =    9134.33422469 Ry
     electric field correction =       0.00422174 Ry

     convergence has been achieved in  65 iterations

     Forces acting on atoms (cartesian axes, Ry/au):

     atom    1 type  1   force =     0.00017712   -0.00032511    0.09330412
     atom    2 type  1   force =    -0.00006380   -0.00042047   -0.17823217
     atom    3 type  2   force =     0.00002735   -0.00032100   -0.02003409
     atom    4 type  2   force =     0.00002134   -0.00183357    0.05923026
     atom    5 type  2   force =    -0.01046673   -0.00026181    0.00864336
     atom    6 type  2   force =     0.01148204    0.00040955    0.00645445
     atom    7 type  1   force =    -0.00100389    0.00213327   -0.01399708
     atom    8 type  1   force =     0.00081654   -0.00094238   -0.00573422
     atom    9 type  2   force =    -0.00009837    0.00012564    0.00000013
     atom   10 type  2   force =    -0.00185563    0.00411501    0.00027073
     atom   11 type  2   force =    -0.00007141   -0.00064295    0.00028166
     atom   12 type  2   force =    -0.00000573   -0.00041155    0.00053888
     atom   13 type  1   force =     0.00004423    0.00008669    0.00030888
     atom   14 type  1   force =    -0.00037673   -0.00000491    0.00006370
     atom   15 type  2   force =     0.00051761    0.00024692   -0.00033231
     atom   16 type  2   force =     0.00032112   -0.00034921   -0.00005955
     atom   17 type  2   force =    -0.00059021   -0.00001757   -0.00001761
     atom   18 type  2   force =     0.00054253   -0.00019072    0.00002565
     atom   19 type  1   force =    -0.00002044   -0.00052982    0.00021716
     atom   20 type  1   force =     0.00068845    0.00011899    0.00089256
     atom   21 type  2   force =     0.00012523   -0.00012520    0.10403270
     atom   22 type  2   force =    -0.00038697    0.00022253   -0.00021645
     atom   23 type  2   force =    -0.07026952   -0.00021626   -0.02686493
     atom   24 type  2   force =     0.07026077    0.00022127   -0.02688928
     atom   25 type  1   force =     0.00007707   -0.00032031    0.09262075
     atom   26 type  1   force =    -0.00003694   -0.00059757   -0.17834478
     atom   27 type  2   force =     0.00013023   -0.00016642   -0.01909002
     atom   28 type  2   force =     0.00005124   -0.00163236    0.05858885
     atom   29 type  2   force =    -0.01106803   -0.00055722    0.00932111
     atom   30 type  2   force =     0.01198800   -0.00002015    0.00721075
     atom   31 type  1   force =    -0.00093304    0.00647417   -0.01506338
     atom   32 type  1   force =     0.00085979    0.00101403   -0.00587883
     atom   33 type  2   force =     0.00017631   -0.00057193   -0.00003456
     atom   34 type  2   force =    -0.00185911   -0.00052133   -0.00048959
     atom   35 type  2   force =    -0.00045614    0.00006439   -0.00043520
     atom   36 type  2   force =     0.00035548   -0.00011600    0.00018102
     atom   37 type  1   force =    -0.00050998   -0.00025005    0.00018467
     atom   38 type  1   force =    -0.00004806   -0.00015164   -0.00009856
     atom   39 type  2   force =     0.00030070   -0.00060363   -0.00000809
     atom   40 type  2   force =    -0.00060316   -0.00051349    0.00026740
     atom   41 type  2   force =    -0.00024522   -0.00072717   -0.00069958
     atom   42 type  2   force =     0.00046232   -0.00008926   -0.00010181
     atom   43 type  1   force =     0.00023697   -0.00021498   -0.00021254
     atom   44 type  1   force =     0.00050726   -0.00002060    0.00086604
     atom   45 type  2   force =     0.00013545   -0.00014192    0.10399871
     atom   46 type  2   force =    -0.07027056   -0.00016371   -0.02683916
     atom   47 type  2   force =     0.07024128    0.00025699   -0.02689540
     atom   48 type  3   force =     0.00391990    0.00800811   -0.00992692
     atom   49 type  3   force =    -0.00015181   -0.00063501   -0.00100136
     atom   50 type  4   force =     0.00028296   -0.00228292    0.00043639
     atom   51 type  5   force =    -0.00079767    0.00145594    0.00068225
     atom   52 type  5   force =     0.00038565   -0.00020767   -0.00017076
     atom   53 type  5   force =     0.00078164    0.00032378   -0.00122255
     atom   54 type  5   force =    -0.00273225   -0.00792732    0.01066176
     atom   55 type  5   force =     0.00007711   -0.00052629   -0.00011090
     atom   56 type  5   force =    -0.00107227    0.00027418   -0.00028225

     Total force =     0.366824     Total SCF correction =     0.000386
  @ DRIVER MODE: Message from server: STATUS
  @ DRIVER MODE: Message from server: GETFORCE
  @ DRIVER MODE: Returning v,forces,stress,ensemble

     Writing output data file ./calc.save/
  @ DRIVER MODE: Message from server: EXIT
  @ DRIVE MODE: Exiting

     General routines

     Parallel routines

   This run was terminated on:  15:44:36  25Aug2021

   JOB DONE.