     Program PWSCF v.6.7GPU starts on 24Aug2021 at 11:47:30

     R & G space division:  proc/nbgrp/npool/nimage =      72
     Reading input from /storage/home/hcoda1/3/ntian30/research/carbon/CH2_vib/ads_slab/CH2NH_a/out_0006/pw.inp
Warning: card &CELL ignored
Warning: card   CELL_DYNAMICS='IPI', ignored
Warning: card / ignored

     Current dimensions of program PWSCF are:
     Max number of different atomic species (ntypx) = 10
     Max number of k-points (npk) =  40000
     Max angular momentum in pseudopotentials (lmaxx) =  3
     Presently no symmetry can be used with electric field

     Message from routine cell_base_init:
     DEPRECATED: use true lattice parameter, not A to a.u. conversion factor

     IMPORTANT: XC functional enforced from input :
     Exchange-correlation= BEEF-VDW
                           (   1   4  43  14   2   0   0)
     Any further DFT definition will be discarded
     Please, verify this is what you really want

  @ DRIVER MODE: Connecting to
 qe_1139763_2641438.sched-torque.pace.gatech.eduzelx53sv_scratch
  using UNIX socket
  @ DRIVER MODE: Message from server: STATUS
  @ DRIVER MODE: Message from server: INIT
  @ DRIVER MODE: Receiving replica           0          -1
  @ DRIVER MODE: Receiving encoded integer          25
  @ DRIVER MODE:  SCF:  T  FORCE:  T  STRESS:  F  VC:  F  ENSEMBLE:  F
  @ DRIVER MODE:  SCF:  T  FORCE:  T  STRESS:  F  VC:  F  ENSEMBLE:  F

     Using Slab Decomposition

     bravais-lattice index     =            0
     lattice parameter (alat)  =       1.8897  a.u.
     unit-cell volume          =    6658.9804 (a.u.)^3
     number of atoms/cell      =           52
     number of atomic types    =            5
     number of electrons       =       390.00
     number of Kohn-Sham states=          205
     kinetic-energy cutoff     =      29.3995  Ry
     charge density cutoff     =     293.9946  Ry
     scf convergence threshold =      7.3E-08
     mixing beta               =       0.0500
     number of iterations used =            8  plain     mixing
     Exchange-correlation= BEEF-VDW
                           (   1   4  43  14   2   0   0)

     celldm(1)=   1.889726  celldm(2)=   0.000000  celldm(3)=   0.000000
     celldm(4)=   0.000000  celldm(5)=   0.000000  celldm(6)=   0.000000

     crystal axes: (cart. coord. in units of alat)
               a(1) = (   6.579727   0.000000   0.000000 )
               a(2) = (  -0.000775   5.961596   0.000000 )
               a(3) = (   0.000000   0.000000  25.155947 )

     reciprocal axes: (cart. coord. in units 2 pi/alat)
               b(1) = (  0.151982  0.000020  0.000000 )
               b(2) = (  0.000000  0.167740  0.000000 )
               b(3) = (  0.000000  0.000000  0.039752 )

     PseudoPot. # 1 for Ti read from file:
     /storage/coda1/p-amedford6/0/shared/rich_project_chbe-medford/medford-share/data/pseudos_module/espresso/nninc/pbe/van/Ti.UPF
     MD5 check sum: 8e4df49b7f0d34bbd5052bf3f5ea0213
     Pseudo is Ultrasoft, Zval = 12.0
     Generated by new atomic code, or converted to UPF format
     Using radial grid of  851 points,  6 beta functions with:
                l(1) =   0
                l(2) =   0
                l(3) =   1
                l(4) =   1
                l(5) =   2
                l(6) =   2
     Q(r) pseudized with  8 coefficients,  rinner =    1.000   1.000   1.000
                                                       1.000   1.000

     PseudoPot. # 2 for O  read from file:
     /storage/coda1/p-amedford6/0/shared/rich_project_chbe-medford/medford-share/data/pseudos_module/espresso/nninc/pbe/van/O.UPF
     MD5 check sum: 78c19812648e8988a0fe644b0f25305e
     Pseudo is Ultrasoft, Zval =  6.0
     Generated by new atomic code, or converted to UPF format
     Using radial grid of  737 points,  4 beta functions with:
                l(1) =   0
                l(2) =   0
                l(3) =   1
                l(4) =   1
     Q(r) pseudized with  8 coefficients,  rinner =    0.800   0.800   0.800

     PseudoPot. # 3 for N  read from file:
     /storage/coda1/p-amedford6/0/shared/rich_project_chbe-medford/medford-share/data/pseudos_module/espresso/nninc/pbe/van/N.UPF
     MD5 check sum: 90d10febe142ad51ac9d5be1deb811c4
     Pseudo is Ultrasoft, Zval =  5.0
     Generated by new atomic code, or converted to UPF format
     Using radial grid of  729 points,  4 beta functions with:
                l(1) =   0
                l(2) =   0
                l(3) =   1
                l(4) =   1
     Q(r) pseudized with  8 coefficients,  rinner =    0.800   0.800   0.800

     PseudoPot. # 4 for C  read from file:
     /storage/coda1/p-amedford6/0/shared/rich_project_chbe-medford/medford-share/data/pseudos_module/espresso/nninc/pbe/van/C.UPF
     MD5 check sum: 1a69bf6b8db32088f5b2163dbdb77a27
     Pseudo is Ultrasoft, Zval =  4.0
     Generated by new atomic code, or converted to UPF format
     Using radial grid of  721 points,  4 beta functions with:
                l(1) =   0
                l(2) =   0
                l(3) =   1
                l(4) =   1
     Q(r) pseudized with  8 coefficients,  rinner =    0.800   0.800   0.800

     PseudoPot. # 5 for H  read from file:
     /storage/coda1/p-amedford6/0/shared/rich_project_chbe-medford/medford-share/data/pseudos_module/espresso/nninc/pbe/van/H.UPF
     MD5 check sum: b5ee9d7bfd3a09ee7748110bda690ff7
     Pseudo is Ultrasoft, Zval =  1.0
     Generated by new atomic code, or converted to UPF format
     Using radial grid of  615 points,  1 beta functions with:
                l(1) =   0
     Q(r) pseudized with  8 coefficients,  rinner =    0.800

     atomic species   valence    mass     pseudopotential
        Ti1           12.00    47.86700     Ti( 1.00)
        O1             6.00    15.99900     O ( 1.00)
        N1             5.00    14.00700     N ( 1.00)
        C1             4.00    12.01100     C ( 1.00)
        H1             1.00     1.00800     H ( 1.00)

     No symmetry found

   Cartesian axes

     site n.     atom                  positions (alat units)
         1           Ti1 tau(   1) = (   0.0004258   2.9801865   6.0000000  )
         2           Ti1 tau(   2) = (   3.2906075   1.4906267   6.0002472  )
         3           O1  tau(   3) = (   0.0006271   0.0005054   7.9858123  )
         4           O1  tau(   4) = (   3.2906025   0.0005020   7.3038282  )
         5           O1  tau(   5) = (   4.5942328   1.4918067   9.2879030  )
         6           O1  tau(   6) = (   1.9868534   1.4903216   9.2879459  )
         7           Ti1 tau(   7) = (   3.2907910   2.8959150   9.1758416  )
         8           Ti1 tau(   8) = (   0.0015273   1.4827037   9.2680791  )
         9           O1  tau(   9) = (   3.2859541   5.9290403  11.3715426  )
        10           O1  tau(  10) = (   0.0116148   5.9584955  10.6183126  )
        11           O1  tau(  11) = (   1.2917987   1.4688796  12.6526629  )
        12           O1  tau(  12) = (   5.2888266   1.4686376  12.6403033  )
        13           Ti1 tau(  13) = (   0.0074927   2.9495069  12.5376589  )
        14           Ti1 tau(  14) = (   3.2957121   1.4606513  12.5174744  )
        15           O1  tau(  15) = (   6.5702453   0.0264740  14.6787910  )
        16           O1  tau(  16) = (   3.3001739   5.9406727  13.9930656  )
        17           O1  tau(  17) = (   4.5367710   1.4643441  16.2106543  )
        18           O1  tau(  18) = (   2.0349547   1.4576396  16.1973481  )
        19           Ti1 tau(  19) = (   3.2821410   2.9383233  15.7467721  )
        20           Ti1 tau(  20) = (   6.5624771   1.3975196  16.0657228  )
        21           O1  tau(  21) = (   3.2904802   0.0005063   4.7018136  )
        22           O1  tau(  22) = (   0.0049924   5.8117904  17.2112648  )
        23           O1  tau(  23) = (   1.3043587   1.4918075   6.0039043  )
        24           O1  tau(  24) = (   5.2767064   1.4903225   6.0039473  )
        25           Ti1 tau(  25) = (   0.0000382   5.9609847   6.0000000  )
        26           Ti1 tau(  26) = (   3.2902200   4.4714249   6.0002472  )
        27           O1  tau(  27) = (   0.0002396   2.9813036   7.9858123  )
        28           O1  tau(  28) = (   3.2902150   2.9813002   7.3038282  )
        29           O1  tau(  29) = (   4.5938453   4.4726049   9.2879030  )
        30           O1  tau(  30) = (   1.9864658   4.4711199   9.2879459  )
        31           Ti1 tau(  31) = (   3.2891106   5.8743827   9.1763621  )
        32           Ti1 tau(  32) = (   0.0006254   4.4649316   9.2693709  )
        33           O1  tau(  33) = (   3.2878059   2.9597088  11.3652031  )
        34           O1  tau(  34) = (   0.0092240   2.9805883  10.6323155  )
        35           O1  tau(  35) = (   1.2887225   4.4431869  12.6829221  )
        36           O1  tau(  36) = (   5.2901277   4.4428847  12.6690855  )
        37           Ti1 tau(  37) = (   0.0035388   5.9380168  12.5099366  )
        38           Ti1 tau(  38) = (   3.2962120   4.4389810  12.5267566  )
        39           O1  tau(  39) = (   6.5655450   2.9014274  14.9049457  )
        40           O1  tau(  40) = (   3.2937888   2.9365130  13.9572806  )
        41           O1  tau(  41) = (   4.5374039   4.4072578  16.1608974  )
        42           O1  tau(  42) = (   2.0345115   4.4188705  16.1151926  )
        43           Ti1 tau(  43) = (   3.2925710   5.9161036  15.7896908  )
        44           Ti1 tau(  44) = (   0.0121651   4.6006060  15.8502786  )
        45           O1  tau(  45) = (   3.2900926   2.9813045   4.7018136  )
        46           O1  tau(  46) = (   1.3039711   4.4726057   6.0039043  )
        47           O1  tau(  47) = (   5.2763189   4.4711207   6.0039473  )
        48           N1  tau(  48) = (   6.5581919   2.6818180  17.9622317  )
        49           C1  tau(  49) = (   0.8403426   2.5546117  18.8965076  )
        50           H1  tau(  50) = (   0.6793733   2.9585088  19.8916666  )
        51           H1  tau(  51) = (   1.7584391   2.0155774  18.6961775  )
        52           H1  tau(  52) = (   5.7198555   3.1867788  18.2393814  )

     number of k points=    10  Fermi-Dirac smearing, width (Ry)=  0.0073
                       cart. coord. in units 2pi/alat
        k(    1) = (   0.0000000   0.0000000   0.0000000), wk =   0.1250000
        k(    2) = (   0.0000000   0.0419351   0.0000000), wk =   0.2500000
        k(    3) = (   0.0000000  -0.0838702   0.0000000), wk =   0.1250000
        k(    4) = (   0.0379955   0.0000049   0.0000000), wk =   0.2500000
        k(    5) = (   0.0379955   0.0419400   0.0000000), wk =   0.2500000
        k(    6) = (   0.0379955  -0.0838652   0.0000000), wk =   0.2500000
        k(    7) = (   0.0379955  -0.0419301   0.0000000), wk =   0.2500000
        k(    8) = (  -0.0759910  -0.0000099   0.0000000), wk =   0.1250000
        k(    9) = (  -0.0759910   0.0419252   0.0000000), wk =   0.2500000
        k(   10) = (  -0.0759910  -0.0838800   0.0000000), wk =   0.1250000

     Initial potential from superposition of free atoms

     starting charge  373.99917, renormalised to  390.00000

     negative rho (up, down):  1.700E-02 0.000E+00

     %%%%%%%%%%%%%%%%%%%%%%%%%%%%%%%%%%%%%%%%%%%%%%%%%%%%%%%%%%%%%%%%%%%%%%%%
     %                                                                      %
     % You are using vdW-DF, which was implemented by the Thonhauser group. %
     % Please cite the following two papers that made this development      %
     % possible and the two reviews that describe the various versions:     %
     %                                                                      %
     %   T. Thonhauser et al., PRL 115, 136402 (2015).                      %
     %   T. Thonhauser et al., PRB 76, 125112 (2007).                       %
     %   K. Berland et al., Rep. Prog. Phys. 78, 066501 (2015).             %
     %   D.C. Langreth et al., J. Phys.: Condens. Matter 21, 084203 (2009). %
     %                                                                      %
     %                                                                      %
     % If you are calculating the stress with vdW-DF, please also cite:     %
     %                                                                      %
     %   R. Sabatini et al., J. Phys.: Condens. Matter 24, 424209 (2012).   %
     %                                                                      %
     %%%%%%%%%%%%%%%%%%%%%%%%%%%%%%%%%%%%%%%%%%%%%%%%%%%%%%%%%%%%%%%%%%%%%%%%

     Adding external electric field

     Computed dipole along edir(3) :
        Dipole               -6.0520 Ry au,        -15.3828 Debye
        Dipole field         -0.0114 Ry au,

        Potential amp.        1.0587 Ry
        Total length         46.3494 bohr

     Starting wfcs are  295 atomic wfcs
  @ DRIVER MODE: Message from server: STATUS
  @ DRIVER MODE: Message from server: POSDATA
  @ DRIVER MODE: Reading and sharing cell
  @ DRIVER MODE: Reading and sharing positions
  @ DRIVER MODE: Received positions

     Self-consistent Calculation

     iteration #  1     ecut=    29.40 Ry     beta= 0.05
     Davidson diagonalization with overlap
     c_bands:  1 eigenvalues not converged
     c_bands:  1 eigenvalues not converged
     ethr =  1.00E-05,  avg # of iterations = 16.8

[...]

     total energy              =   -2758.70442566 Ry
     estimated scf accuracy    <    1761.09155871 Ry

     iteration #  2     ecut=    29.40 Ry     beta= 0.05
     Davidson diagonalization with overlap
     ethr =  1.00E-02,  avg # of iterations = 18.7

[...]

     iteration # 59     ecut=    29.40 Ry     beta= 0.05
     Davidson diagonalization with overlap
     c_bands:  1 eigenvalues not converged
     c_bands:  3 eigenvalues not converged
     ethr =  2.11E-09,  avg # of iterations = 16.9

[...]

     total energy              =   -2919.11570443 Ry
     estimated scf accuracy    <       0.00000061 Ry

     iteration # 67     ecut=    29.40 Ry     beta= 0.05
     Davidson diagonalization with overlap
     ethr =  1.01E-10,  avg # of iterations = 11.5

     negative rho (up, down):  1.721E-02 0.000E+00

     Adding external electric field

     Computed dipole along edir(3) :
        Dipole                1.2719 Ry au,          3.2329 Debye
        Dipole field          0.0024 Ry au,

        Potential amp.       -0.2225 Ry
        Total length         46.3494 bohr

     End of self-consistent calculation

          k = 0.0000 0.0000 0.0000 ( 18029 PWs)   bands (ev):

   -55.5362 -55.4995 -55.4980 -55.4639 -55.4291 -55.4120 -55.3744 -55.3516
   -55.3514 -55.3263 -55.3169 -55.3118 -55.2929 -55.1291 -54.5185 -54.4844
   -32.1030 -31.9889 -31.8995 -31.8582 -31.8518 -31.8407 -31.8375 -31.8288
   -31.7876 -31.7769 -31.7445 -31.7433 -31.7427 -31.7071 -31.6896 -31.6715
   -31.6680 -31.6591 -31.6524 -31.6484 -31.6104 -31.6076 -31.5919 -31.5815
   -31.5577 -31.5551 -31.5533 -31.5434 -31.5385 -31.5357 -31.5232 -31.5148
   -31.5102 -31.5046 -31.5003 -31.4741 -31.4671 -31.4657 -31.4548 -31.4360
   -31.3518 -31.2711 -30.9275 -30.8343 -30.8122 -30.7440 -30.6572 -30.5463
   -16.6282 -16.3360 -16.0684 -15.8966 -15.7885 -15.7260 -15.5901 -15.5176
   -15.4367 -15.3335 -15.2431 -15.1767 -15.1636 -15.1450 -15.1377 -15.0735
   -15.0700 -15.0536 -15.0288 -15.0273 -14.9739 -14.9651 -14.9334 -14.9215
   -14.9104 -14.8435 -14.7547 -14.6851 -14.6248 -14.2091 -13.0214 -12.9042
    -9.3377  -6.3207  -4.7463  -3.6917  -3.5381  -3.4452  -3.4324  -3.4169
    -3.2627  -3.1259  -2.9212  -2.8428  -2.7934  -2.7443  -2.7152  -2.6981
    -2.6309  -2.5119  -2.4414  -2.3953  -2.3727  -2.3598  -2.3432  -2.3154
    -2.3073  -2.2704  -2.2363  -2.2021  -2.0872  -1.9979  -1.9606  -1.9217
    -1.8659  -1.8570  -1.8278  -1.8205  -1.8137  -1.7955  -1.7557  -1.7487
    -1.6976  -1.5627  -1.5447  -1.4280  -1.3893  -1.2762  -1.1741  -1.1705
    -1.0848  -1.0818  -1.0124  -0.9638  -0.9323  -0.9196  -0.8690  -0.8271
    -0.7320  -0.6410  -0.5799  -0.5378  -0.5023  -0.4741  -0.4092  -0.3128
    -0.3087  -0.2972  -0.2012  -0.1183  -0.0939  -0.0444  -0.0092   0.0345
     0.0509   0.1598   0.2013   0.2457   0.2609   0.3396   0.3640   0.4200
     0.4247   0.4602   0.4676   0.5300   0.5825   0.6023   0.6447   0.6705
     0.8275   1.0825   1.0864   1.1286   1.4128   1.4421   1.5038   1.6887
     2.0791   2.1268   3.5631   3.6354   3.7006   3.7135   3.7529   3.7999
     3.9714   4.0477   4.0643   4.0686   4.0996

[...]

          k = 0.0380-0.0419 0.0000 ( 17876 PWs)   bands (ev):

[...]

          k =-0.0760-0.0000 0.0000 ( 17886 PWs)   bands (ev):

[...]

          k =-0.0760-0.0839 0.0000 ( 17948 PWs)   bands (ev):

   -55.5216 -55.5139 -55.4809 -55.4808 -55.4251 -55.4009 -55.3854 -55.3554
   -55.3352 -55.3324 -55.3102 -55.3100 -55.3095 -55.1307 -54.5014 -54.5014
   -31.9094 -31.9043 -31.8212 -31.8041 -31.8040 -31.7960 -31.7731 -31.7729
   -31.7579 -31.7433 -31.7359 -31.7341 -31.7290 -31.6913 -31.6689 -31.6655
   -31.6614 -31.6571 -31.6536 -31.6487 -31.6444 -31.6253 -31.6108 -31.6102
   -31.6004 -31.6004 -31.5979 -31.5805 -31.5680 -31.5649 -31.5571 -31.5494
   -31.5485 -31.5457 -31.5350 -31.5345 -31.5100 -31.4898 -31.4893 -31.4857
   -31.3571 -31.3519 -30.8249 -30.8249 -30.7401 -30.7400 -30.7006 -30.7006
   -16.6102 -15.7721 -15.7436 -15.7225 -15.5178 -15.5103 -15.5026 -15.4850
   -15.3254 -15.3141 -15.2869 -15.2683 -15.2356 -15.2329 -15.2069 -15.1744
   -15.1163 -15.1121 -15.1036 -15.1015 -15.0408 -15.0365 -15.0164 -14.9877
   -14.9856 -14.9795 -14.8846 -14.8826 -14.7190 -14.5300 -13.0057 -13.0057
    -9.3420  -6.3161  -4.7300  -3.0468  -2.9855  -2.9272  -2.7279  -2.7246
    -2.6933  -2.6137  -2.5540  -2.5420  -2.5038  -2.4857  -2.4772  -2.4247
    -2.3816  -2.3726  -2.3600  -2.3559  -2.3360  -2.3215  -2.2918  -2.2532
    -2.2443  -2.2176  -2.2052  -2.1767  -2.1737  -2.1385  -2.1135  -2.1012
    -2.0881  -2.0364  -1.9270  -1.8725  -1.7898  -1.7677  -1.7302  -1.7242
    -1.6392  -1.6162  -1.5888  -1.5492  -1.5364  -1.5063  -1.3010  -1.2683
    -1.2605  -1.2475  -1.2251  -1.0722  -1.0654  -1.0136  -0.9820  -0.9413
    -0.8792  -0.8411  -0.8281  -0.7463  -0.7138  -0.6710  -0.6305  -0.5078
    -0.5039  -0.4961  -0.4933  -0.4794  -0.3895  -0.3781  -0.3345  -0.3006
    -0.2594  -0.2452  -0.1821   0.0011   0.0154   0.0812   0.1903   0.2790
     0.3757   0.4569   0.4744   0.5272   0.5690   0.5933   0.6705   0.7659
     0.7778   0.8391   0.8897   0.9334   0.9376   0.9415   1.8616   1.8622
     1.9468   1.9470   3.6877   3.8095   3.8306   3.8704   3.8877   4.0345
     4.0827   4.1185   4.1426   4.1454   4.2225

     the Fermi energy is     3.6186 ev

!    total energy              =   -2919.11572987 Ry
     estimated scf accuracy    <       0.00000007 Ry
     smearing contrib. (-TS)   =      -0.03735419 Ry
     internal energy E=F+TS    =   -2919.07837568 Ry

     The total energy is F=E-TS. E is the sum of the following terms:
     one-electron contribution =  -24304.94424038 Ry
     hartree contribution      =   12239.94546517 Ry
     xc contribution           =    -480.02693363 Ry
     ewald contribution        =    9625.94428028 Ry
     electric field correction =       0.00305288 Ry

     convergence has been achieved in  67 iterations

     Forces acting on atoms (cartesian axes, Ry/au):

     atom    1 type  1   force =     0.00005071   -0.00015723    0.09376575
     atom    2 type  1   force =    -0.00018211   -0.00018178   -0.17780240
     atom    3 type  2   force =     0.00002423   -0.00021854   -0.02113896
     atom    4 type  2   force =    -0.00001549   -0.00198888    0.05776879
     atom    5 type  2   force =    -0.01108358   -0.00165124    0.00750123
     atom    6 type  2   force =     0.01244654   -0.00098622    0.00638229
     atom    7 type  1   force =    -0.00048171    0.00246158   -0.01335993
     atom    8 type  1   force =     0.00030039    0.00291828    0.00271835
     atom    9 type  2   force =     0.00007699   -0.00007102    0.00014909
     atom   10 type  2   force =    -0.00176440   -0.00227228   -0.00361302
     atom   11 type  2   force =     0.00014405    0.00060497   -0.00021763
     atom   12 type  2   force =     0.00046581    0.00054474   -0.00003727
     atom   13 type  1   force =    -0.00072685   -0.00094152   -0.00060281
     atom   14 type  1   force =     0.00082162    0.00026538   -0.00061579
     atom   15 type  2   force =     0.00026557    0.00037277    0.00040222
     atom   16 type  2   force =    -0.00007952    0.00034143   -0.00050348
     atom   17 type  2   force =     0.00045898    0.00024649    0.00064288
     atom   18 type  2   force =     0.00016932    0.00013034    0.00048511
     atom   19 type  1   force =     0.00024351   -0.00102848   -0.00004068
     atom   20 type  1   force =    -0.00012459    0.00026815    0.00016183
     atom   21 type  2   force =     0.00004616   -0.00002397    0.10381423
     atom   22 type  2   force =     0.00000360   -0.00060164    0.00042320
     atom   23 type  2   force =    -0.07058698   -0.00014207   -0.02706235
     atom   24 type  2   force =     0.07046413    0.00031996   -0.02710797
     atom   25 type  1   force =     0.00008460   -0.00018818    0.09357925
     atom   26 type  1   force =    -0.00009882   -0.00026289   -0.17784177
     atom   27 type  2   force =     0.00008252   -0.00045323   -0.02016803
     atom   28 type  2   force =     0.00002586   -0.00169356    0.05725606
     atom   29 type  2   force =    -0.01117396   -0.00114686    0.00696012
     atom   30 type  2   force =     0.01242711   -0.00080574    0.00582453
     atom   31 type  1   force =    -0.00038876    0.00467467   -0.01445169
     atom   32 type  1   force =     0.00037336   -0.00360938    0.00243431
     atom   33 type  2   force =    -0.00000308    0.00056769    0.00041609
     atom   34 type  2   force =    -0.00117769   -0.00058902   -0.00096754
     atom   35 type  2   force =     0.00037103    0.00024605    0.00027197
     atom   36 type  2   force =     0.00017031    0.00032037    0.00024614
     atom   37 type  1   force =    -0.00052937    0.00132162   -0.00019217
     atom   38 type  1   force =     0.00086665    0.00006471   -0.00094770
     atom   39 type  2   force =     0.00015417    0.00041268    0.00099329
     atom   40 type  2   force =     0.00017939    0.00020266   -0.00041323
     atom   41 type  2   force =     0.00064193   -0.00004796   -0.00040497
     atom   42 type  2   force =    -0.00047466   -0.00005714   -0.00047270
     atom   43 type  1   force =    -0.00000078    0.00112115   -0.00013859
     atom   44 type  1   force =    -0.00012976    0.00067724   -0.00139538
     atom   45 type  2   force =     0.00004494   -0.00004090    0.10378509
     atom   46 type  2   force =    -0.07060485   -0.00007088   -0.02705776
     atom   47 type  2   force =     0.07047919    0.00034551   -0.02708818
     atom   48 type  3   force =    -0.00614993   -0.00261876   -0.01763998
     atom   49 type  4   force =     0.00550957    0.00023174    0.01187853
     atom   50 type  5   force =     0.00093795    0.00124921    0.00134656
     atom   51 type  5   force =     0.00000243   -0.00009304   -0.00000971
     atom   52 type  5   force =    -0.00255569    0.00203305    0.00208481

     Total force =     0.366648     Total SCF correction =     0.000468
  @ DRIVER MODE: Message from server: STATUS
  @ DRIVER MODE: Message from server: GETFORCE
  @ DRIVER MODE: Returning v,forces,stress,ensemble

     Writing output data file ./calc.save/
  @ DRIVER MODE: Message from server: EXIT
  @ DRIVE MODE: Exiting

     General routines

     Parallel routines

   This run was terminated on:  12:10:23  24Aug2021

   JOB DONE.