     Program PWSCF v.6.7GPU starts on 23Sep2021 at  9:48:21

     R & G space division:  proc/nbgrp/npool/nimage =      10
     Reading input from /storage/home/hcoda1/3/ntian30/research/carbon/CxH_vib/H2O_calc/ads_slab/CH2NHNHH2O_b/out_0050/pw.inp
Warning: card &CELL ignored
Warning: card   CELL_DYNAMICS='IPI', ignored
Warning: card / ignored

     Current dimensions of program PWSCF are:
     Max number of different atomic species (ntypx) = 10
     Max number of k-points (npk) =  40000
     Max angular momentum in pseudopotentials (lmaxx) =  3
     Presently no symmetry can be used with electric field

     Message from routine cell_base_init:
     DEPRECATED: use true lattice parameter, not A to a.u. conversion factor

     IMPORTANT: XC functional enforced from input :
     Exchange-correlation= BEEF-VDW
                           (   1   4  43  14   2   0   0)
     Any further DFT definition will be discarded
     Please, verify this is what you really want

  @ DRIVER MODE: Connecting to
 qe_1139763_2937310.sched-torque.pace.gatech.edua7dp9pv3_scratch
  using UNIX socket
  @ DRIVER MODE: Message from server: STATUS
  @ DRIVER MODE: Message from server: INIT
  @ DRIVER MODE: Receiving replica           0          -1
  @ DRIVER MODE: Receiving encoded integer          25
  @ DRIVER MODE:  SCF:  T  FORCE:  T  STRESS:  F  VC:  F  ENSEMBLE:  F
  @ DRIVER MODE:  SCF:  T  FORCE:  T  STRESS:  F  VC:  F  ENSEMBLE:  F

     Using Slab Decomposition

     bravais-lattice index     =            0
     lattice parameter (alat)  =       1.8897  a.u.
     unit-cell volume          =    6658.9804 (a.u.)^3
     number of atoms/cell      =           57
     number of atomic types    =            5
     number of electrons       =       404.00
     number of Kohn-Sham states=          212
     kinetic-energy cutoff     =      29.3995  Ry
     charge density cutoff     =     293.9946  Ry
     scf convergence threshold =      7.3E-08
     mixing beta               =       0.0500
     number of iterations used =            8  plain     mixing
     Exchange-correlation= BEEF-VDW
                           (   1   4  43  14   2   0   0)

     celldm(1)=   1.889726  celldm(2)=   0.000000  celldm(3)=   0.000000
     celldm(4)=   0.000000  celldm(5)=   0.000000  celldm(6)=   0.000000

     crystal axes: (cart. coord. in units of alat)
               a(1) = (   6.579727   0.000000   0.000000 )
               a(2) = (  -0.000775   5.961596   0.000000 )
               a(3) = (   0.000000   0.000000  25.155947 )

     reciprocal axes: (cart. coord. in units 2 pi/alat)
               b(1) = (  0.151982  0.000020  0.000000 )
               b(2) = (  0.000000  0.167740  0.000000 )
               b(3) = (  0.000000  0.000000  0.039752 )

     PseudoPot. # 1 for Ti read from file:
     /storage/coda1/p-amedford6/0/shared/rich_project_chbe-medford/medford-share/data/pseudos_module/espresso/nninc/pbe/van/Ti.UPF
     MD5 check sum: 8e4df49b7f0d34bbd5052bf3f5ea0213
     Pseudo is Ultrasoft, Zval = 12.0
     Generated by new atomic code, or converted to UPF format
     Using radial grid of  851 points,  6 beta functions with:
                l(1) =   0
                l(2) =   0
                l(3) =   1
                l(4) =   1
                l(5) =   2
                l(6) =   2
     Q(r) pseudized with  8 coefficients,  rinner =    1.000   1.000   1.000
                                                       1.000   1.000

     PseudoPot. # 2 for O  read from file:
     /storage/coda1/p-amedford6/0/shared/rich_project_chbe-medford/medford-share/data/pseudos_module/espresso/nninc/pbe/van/O.UPF
     MD5 check sum: 78c19812648e8988a0fe644b0f25305e
     Pseudo is Ultrasoft, Zval =  6.0
     Generated by new atomic code, or converted to UPF format
     Using radial grid of  737 points,  4 beta functions with:
                l(1) =   0
                l(2) =   0
                l(3) =   1
                l(4) =   1
     Q(r) pseudized with  8 coefficients,  rinner =    0.800   0.800   0.800

     PseudoPot. # 3 for N  read from file:
     /storage/coda1/p-amedford6/0/shared/rich_project_chbe-medford/medford-share/data/pseudos_module/espresso/nninc/pbe/van/N.UPF
     MD5 check sum: 90d10febe142ad51ac9d5be1deb811c4
     Pseudo is Ultrasoft, Zval =  5.0
     Generated by new atomic code, or converted to UPF format
     Using radial grid of  729 points,  4 beta functions with:
                l(1) =   0
                l(2) =   0
                l(3) =   1
                l(4) =   1
     Q(r) pseudized with  8 coefficients,  rinner =    0.800   0.800   0.800

     PseudoPot. # 4 for C  read from file:
     /storage/coda1/p-amedford6/0/shared/rich_project_chbe-medford/medford-share/data/pseudos_module/espresso/nninc/pbe/van/C.UPF
     MD5 check sum: 1a69bf6b8db32088f5b2163dbdb77a27
     Pseudo is Ultrasoft, Zval =  4.0
     Generated by new atomic code, or converted to UPF format
     Using radial grid of  721 points,  4 beta functions with:
                l(1) =   0
                l(2) =   0
                l(3) =   1
                l(4) =   1
     Q(r) pseudized with  8 coefficients,  rinner =    0.800   0.800   0.800

     PseudoPot. # 5 for H  read from file:
     /storage/coda1/p-amedford6/0/shared/rich_project_chbe-medford/medford-share/data/pseudos_module/espresso/nninc/pbe/van/H.UPF
     MD5 check sum: b5ee9d7bfd3a09ee7748110bda690ff7
     Pseudo is Ultrasoft, Zval =  1.0
     Generated by new atomic code, or converted to UPF format
     Using radial grid of  615 points,  1 beta functions with:
                l(1) =   0
     Q(r) pseudized with  8 coefficients,  rinner =    0.800

     atomic species   valence    mass     pseudopotential
        Ti1           12.00    47.86700     Ti( 1.00)
        O1             6.00    15.99900     O ( 1.00)
        N1             5.00    14.00700     N ( 1.00)
        C1             4.00    12.01100     C ( 1.00)
        H1             1.00     1.00800     H ( 1.00)

     No symmetry found

   Cartesian axes

     site n.     atom                  positions (alat units)
         1           Ti1 tau(   1) = (   0.0004258   2.9801865   6.0000000  )
         2           Ti1 tau(   2) = (   3.2906075   1.4906267   6.0002472  )
         3           O1  tau(   3) = (   0.0006271   0.0005054   7.9858123  )
         4           O1  tau(   4) = (   3.2906025   0.0005020   7.3038282  )
         5           O1  tau(   5) = (   4.5942328   1.4918067   9.2879030  )
         6           O1  tau(   6) = (   1.9868534   1.4903216   9.2879459  )
         7           Ti1 tau(   7) = (   3.2907910   2.8959150   9.1758416  )
         8           Ti1 tau(   8) = (   0.0015273   1.4827037   9.2680791  )
         9           O1  tau(   9) = (   3.2740695   5.9399032  11.3612631  )
        10           O1  tau(  10) = (   0.0116148   5.9584955  10.6183126  )
        11           O1  tau(  11) = (   1.2665466   1.4659349  12.6457467  )
        12           O1  tau(  12) = (   5.2636777   1.4644475  12.6520517  )
        13           Ti1 tau(  13) = (   0.0254019   2.9535957  12.5508080  )
        14           Ti1 tau(  14) = (   3.3235577   1.4585364  12.5144190  )
        15           O1  tau(  15) = (   0.0066209   5.9388471  14.7046414  )
        16           O1  tau(  16) = (   3.2471877   5.9405099  14.0100224  )
        17           O1  tau(  17) = (   4.5302733   1.5208160  16.0462967  )
        18           O1  tau(  18) = (   1.9955500   1.4995475  16.2009832  )
        19           Ti1 tau(  19) = (   3.2567830   2.9699832  15.6929747  )
        20           Ti1 tau(  20) = (   6.4949666   1.4732860  15.8443191  )
        21           O1  tau(  21) = (   3.2904802   0.0005063   4.7018136  )
        22           O1  tau(  22) = (   6.4419287   5.8812218  17.2824568  )
        23           O1  tau(  23) = (   1.3043587   1.4918075   6.0039043  )
        24           O1  tau(  24) = (   5.2767064   1.4903225   6.0039473  )
        25           Ti1 tau(  25) = (   0.0000382   5.9609847   6.0000000  )
        26           Ti1 tau(  26) = (   3.2902200   4.4714249   6.0002472  )
        27           O1  tau(  27) = (   0.0002396   2.9813036   7.9858123  )
        28           O1  tau(  28) = (   3.2902150   2.9813002   7.3038282  )
        29           O1  tau(  29) = (   4.5938453   4.4726049   9.2879030  )
        30           O1  tau(  30) = (   1.9864658   4.4711199   9.2879459  )
        31           Ti1 tau(  31) = (   3.2891106   5.8743827   9.1763621  )
        32           Ti1 tau(  32) = (   0.0006254   4.4649316   9.2693709  )
        33           O1  tau(  33) = (   3.2800166   2.9600013  11.3546200  )
        34           O1  tau(  34) = (   0.0092240   2.9805883  10.6323155  )
        35           O1  tau(  35) = (   1.2663080   4.4508225  12.6496728  )
        36           O1  tau(  36) = (   5.2650692   4.4524444  12.6537221  )
        37           Ti1 tau(  37) = (   0.0180281   5.9297397  12.5120547  )
        38           Ti1 tau(  38) = (   3.3242103   4.4456960  12.5094407  )
        39           O1  tau(  39) = (   0.0028395   2.9305241  14.7702868  )
        40           O1  tau(  40) = (   3.2369197   2.9632653  13.9133312  )
        41           O1  tau(  41) = (   4.5259019   4.3784886  16.1008109  )
        42           O1  tau(  42) = (   2.0017919   4.4285960  16.1845674  )
        43           Ti1 tau(  43) = (   3.2453488   5.9423767  15.8283900  )
        44           Ti1 tau(  44) = (   6.5728488   4.6138345  16.0446011  )
        45           O1  tau(  45) = (   3.2900926   2.9813045   4.7018136  )
        46           O1  tau(  46) = (   1.3039711   4.4726057   6.0039043  )
        47           O1  tau(  47) = (   5.2763189   4.4711207   6.0039473  )
        48           N1  tau(  48) = (   0.9567011   2.5879941  18.4848429  )
        49           N1  tau(  49) = (   6.5185693   2.8362889  17.6364570  )
        50           C1  tau(  50) = (   1.0658718   2.8740630  19.7563100  )
        51           H1  tau(  51) = (   1.9437682   2.5238050  20.2723566  )
        52           H1  tau(  52) = (   0.2809834   3.4210577  20.2544045  )
        53           H1  tau(  53) = (   1.7014144   2.0656717  17.9989220  )
        54           H1  tau(  54) = (   5.6742842   3.0275795  18.1730567  )
        55           O1  tau(  55) = (   3.7618585   0.1297276  18.3074903  )
        56           H1  tau(  56) = (   4.7430396   0.0541995  18.1289380  )
        57           H1  tau(  57) = (   3.4892521   5.2388606  18.6788193  )

     number of k points=    10  Fermi-Dirac smearing, width (Ry)=  0.0073
                       cart. coord. in units 2pi/alat
        k(    1) = (   0.0000000   0.0000000   0.0000000), wk =   0.1250000
        k(    2) = (   0.0000000   0.0419351   0.0000000), wk =   0.2500000
        k(    3) = (   0.0000000  -0.0838702   0.0000000), wk =   0.1250000
        k(    4) = (   0.0379955   0.0000049   0.0000000), wk =   0.2500000
        k(    5) = (   0.0379955   0.0419400   0.0000000), wk =   0.2500000
        k(    6) = (   0.0379955  -0.0838652   0.0000000), wk =   0.2500000
        k(    7) = (   0.0379955  -0.0419301   0.0000000), wk =   0.2500000
        k(    8) = (  -0.0759910  -0.0000099   0.0000000), wk =   0.1250000
        k(    9) = (  -0.0759910   0.0419252   0.0000000), wk =   0.2500000
        k(   10) = (  -0.0759910  -0.0838800   0.0000000), wk =   0.1250000

     Initial potential from superposition of free atoms

     starting charge  387.99913, renormalised to  404.00000

     negative rho (up, down):  1.394E-02 0.000E+00

     %%%%%%%%%%%%%%%%%%%%%%%%%%%%%%%%%%%%%%%%%%%%%%%%%%%%%%%%%%%%%%%%%%%%%%%%
     %                                                                      %
     % You are using vdW-DF, which was implemented by the Thonhauser group. %
     % Please cite the following two papers that made this development      %
     % possible and the two reviews that describe the various versions:     %
     %                                                                      %
     %   T. Thonhauser et al., PRL 115, 136402 (2015).                      %
     %   T. Thonhauser et al., PRB 76, 125112 (2007).                       %
     %   K. Berland et al., Rep. Prog. Phys. 78, 066501 (2015).             %
     %   D.C. Langreth et al., J. Phys.: Condens. Matter 21, 084203 (2009). %
     %                                                                      %
     %                                                                      %
     % If you are calculating the stress with vdW-DF, please also cite:     %
     %                                                                      %
     %   R. Sabatini et al., J. Phys.: Condens. Matter 24, 424209 (2012).   %
     %                                                                      %
     %%%%%%%%%%%%%%%%%%%%%%%%%%%%%%%%%%%%%%%%%%%%%%%%%%%%%%%%%%%%%%%%%%%%%%%%

     Adding external electric field

     Computed dipole along edir(3) :
        Dipole              -14.1772 Ry au,        -36.0349 Debye
        Dipole field         -0.0268 Ry au,

        Potential amp.        2.4801 Ry
        Total length         46.3494 bohr

     Starting wfcs are  306 atomic wfcs
  @ DRIVER MODE: Message from server: STATUS
  @ DRIVER MODE: Message from server: POSDATA
  @ DRIVER MODE: Reading and sharing cell
  @ DRIVER MODE: Reading and sharing positions
  @ DRIVER MODE: Received positions

     Self-consistent Calculation

     iteration #  1     ecut=    29.40 Ry     beta= 0.05
     Davidson diagonalization with overlap
     c_bands:  4 eigenvalues not converged
     c_bands:  1 eigenvalues not converged
     c_bands:  2 eigenvalues not converged
     c_bands:  2 eigenvalues not converged
     c_bands:  1 eigenvalues not converged
     c_bands:  1 eigenvalues not converged
     c_bands:  5 eigenvalues not converged
     c_bands:  1 eigenvalues not converged
     c_bands:  2 eigenvalues not converged
     ethr =  1.00E-05,  avg # of iterations = 30.7

[...]

     total energy              =   -2249.28290876 Ry
     estimated scf accuracy    <    8255.77949335 Ry

     iteration #  2     ecut=    29.40 Ry     beta= 0.05
     Davidson diagonalization with overlap
     ethr =  1.00E-02,  avg # of iterations = 26.9

[...]

     iteration # 73     ecut=    29.40 Ry     beta= 0.05
     Davidson diagonalization with overlap
     c_bands:  1 eigenvalues not converged
     ethr =  1.12E-10,  avg # of iterations = 12.8

[...]

     total energy              =   -2975.20151854 Ry
     estimated scf accuracy    <       0.00000008 Ry

     iteration # 76     ecut=    29.40 Ry     beta= 0.05
     Davidson diagonalization with overlap
     ethr =  2.03E-11,  avg # of iterations =  9.2

     negative rho (up, down):  1.355E-02 0.000E+00

     Adding external electric field

     Computed dipole along edir(3) :
        Dipole                1.4205 Ry au,          3.6104 Debye
        Dipole field          0.0027 Ry au,

        Potential amp.       -0.2485 Ry
        Total length         46.3494 bohr

     End of self-consistent calculation

          k = 0.0000 0.0000 0.0000 ( 18029 PWs)   bands (ev):

   -55.1455 -55.1172 -55.1089 -55.0831 -55.0803 -55.0315 -54.9896 -54.9570
   -54.9418 -54.9257 -54.9217 -54.9194 -54.9087 -54.8393 -54.1299 -54.0958
   -31.7085 -31.6070 -31.5246 -31.4813 -31.4631 -31.4560 -31.4462 -31.4439
   -31.4069 -31.3864 -31.3648 -31.3615 -31.3450 -31.3230 -31.3063 -31.2924
   -31.2866 -31.2699 -31.2675 -31.2581 -31.2285 -31.2155 -31.2116 -31.1867
   -31.1813 -31.1742 -31.1646 -31.1595 -31.1573 -31.1500 -31.1385 -31.1365
   -31.1146 -31.1062 -31.1027 -31.0956 -31.0860 -31.0731 -31.0706 -31.0550
   -31.0499 -31.0192 -30.5384 -30.4463 -30.4241 -30.3550 -30.2683 -30.1573
   -19.2644 -18.5255 -15.9627 -15.6978 -15.5669 -15.4014 -15.3374 -15.1662
   -15.0865 -15.0204 -14.9349 -14.8759 -14.8618 -14.8556 -14.7638 -14.7467
   -14.6946 -14.6804 -14.6739 -14.6428 -14.6346 -14.5772 -14.5725 -14.5674
   -14.5332 -14.5204 -14.4910 -14.3728 -14.2921 -14.2353 -14.0313 -13.6714
   -12.6324 -12.5153 -10.0218  -6.8271  -6.4844  -6.3055  -4.0768  -3.9024
    -3.3138  -3.1707  -3.1526  -3.0689  -3.0463  -2.9142  -2.8660  -2.7047
    -2.5983  -2.5011  -2.4112  -2.3411  -2.3337  -2.3050  -2.1889  -2.1265
    -2.0802  -2.0372  -2.0178  -2.0052  -1.9571  -1.9212  -1.9187  -1.8514
    -1.8494  -1.7128  -1.6179  -1.6138  -1.5801  -1.5640  -1.4750  -1.4527
    -1.4423  -1.4369  -1.4304  -1.4229  -1.3884  -1.3452  -1.3190  -1.2302
    -1.1821  -1.1390  -1.0074  -0.9057  -0.8294  -0.7751  -0.6869  -0.6836
    -0.6159  -0.5506  -0.5372  -0.5342  -0.4738  -0.3529  -0.3028  -0.2541
    -0.2353  -0.2105  -0.1205  -0.1033  -0.0338   0.0378   0.0675   0.0777
     0.0989   0.2722   0.2803   0.3094   0.3284   0.4179   0.4700   0.5110
     0.5180   0.5405   0.6068   0.6456   0.7372   0.7844   0.7954   0.8160
     0.8378   0.8762   0.9532   0.9628   1.0046   1.0280   1.1665   1.2032
     1.2564   1.4741   1.4764   1.8056   1.8457   1.8927   2.0789   2.4671
     2.5145   3.9538   4.0435   4.0826   4.0843   4.1033   4.1889   4.3227
     4.4349   4.4454   4.4573   4.4795

[...]

          k = 0.0380-0.0419 0.0000 ( 17876 PWs)   bands (ev):

[...]

          k =-0.0760-0.0000 0.0000 ( 17886 PWs)   bands (ev):

[...]

          k =-0.0760-0.0839 0.0000 ( 17948 PWs)   bands (ev):

   -55.1307 -55.1235 -55.1002 -55.0999 -55.0784 -55.0224 -54.9986 -54.9421
   -54.9357 -54.9270 -54.9260 -54.9251 -54.9162 -54.8429 -54.1129 -54.1127
   -31.5169 -31.5087 -31.4229 -31.4223 -31.4220 -31.4065 -31.3924 -31.3921
   -31.3686 -31.3669 -31.3608 -31.3541 -31.3429 -31.3126 -31.2828 -31.2761
   -31.2754 -31.2749 -31.2706 -31.2649 -31.2579 -31.2397 -31.2256 -31.2231
   -31.2200 -31.2196 -31.2193 -31.1979 -31.1753 -31.1668 -31.1667 -31.1560
   -31.1500 -31.1473 -31.1455 -31.1452 -31.1437 -31.1133 -31.1068 -31.1050
   -31.0934 -31.0627 -30.4368 -30.4367 -30.3511 -30.3509 -30.3117 -30.3116
   -19.2619 -18.5250 -15.4568 -15.3008 -15.2867 -15.1350 -15.1208 -15.1127
   -15.0876 -15.0125 -14.9937 -14.9299 -14.9170 -14.8732 -14.8468 -14.8342
   -14.8231 -14.7296 -14.7223 -14.7161 -14.7001 -14.6496 -14.6375 -14.6204
   -14.5971 -14.5930 -14.5563 -14.4917 -14.4884 -14.4574 -14.2344 -13.6822
   -12.6169 -12.6168 -10.0247  -6.8211  -6.4859  -6.2991  -4.0523  -3.8894
    -2.9174  -2.7217  -2.5298  -2.5076  -2.4661  -2.3681  -2.3271  -2.2862
    -2.1905  -2.1409  -2.1252  -2.1033  -2.0893  -2.0299  -2.0259  -2.0229
    -1.9870  -1.9786  -1.9644  -1.9396  -1.9167  -1.8830  -1.8691  -1.8586
    -1.8458  -1.8064  -1.7863  -1.7581  -1.7453  -1.7163  -1.6997  -1.6299
    -1.5265  -1.4959  -1.4431  -1.3515  -1.3324  -1.3265  -1.2415  -1.2063
    -1.1945  -1.1799  -1.1659  -1.1044  -0.9702  -0.8806  -0.8706  -0.8190
    -0.7523  -0.7187  -0.6769  -0.6504  -0.6241  -0.5677  -0.5193  -0.4947
    -0.4211  -0.3667  -0.3607  -0.3288  -0.1808  -0.1585  -0.1113  -0.1091
    -0.0931  -0.0858   0.0038   0.0205   0.0652   0.0847   0.1244   0.1431
     0.2158   0.2322   0.3519   0.4198   0.4828   0.5895   0.7303   0.7426
     0.8155   0.8764   0.9155   0.9813   1.0381   1.0691   1.1546   1.1648
     1.1800   1.2825   1.3320   1.3385   1.3553   2.2513   2.2529   2.3344
     2.3346   4.1162   4.1388   4.2280   4.2418   4.2939   4.3764   4.4661
     4.4928   4.5275   4.5317   4.6131

     the Fermi energy is     4.0020 ev

!    total energy              =   -2975.20153415 Ry
     estimated scf accuracy    <       0.00000005 Ry
     smearing contrib. (-TS)   =      -0.03820544 Ry
     internal energy E=F+TS    =   -2975.16332871 Ry

     The total energy is F=E-TS. E is the sum of the following terms:
     one-electron contribution =  -23646.24609065 Ry
     hartree contribution      =   11921.28559285 Ry
     xc contribution           =    -494.96724284 Ry
     ewald contribution        =    9244.76060427 Ry
     electric field correction =       0.00380766 Ry

     convergence has been achieved in  76 iterations

     Forces acting on atoms (cartesian axes, Ry/au):

     atom    1 type  1   force =     0.00013970   -0.00013456    0.09422135
     atom    2 type  1   force =    -0.00023259   -0.00026698   -0.17729216
     atom    3 type  2   force =     0.00001812   -0.00026024   -0.02170416
     atom    4 type  2   force =    -0.00004183   -0.00184579    0.05693587
     atom    5 type  2   force =    -0.01105826   -0.00172039    0.00686553
     atom    6 type  2   force =     0.01214619   -0.00091476    0.00493345
     atom    7 type  1   force =    -0.00121827    0.00155981   -0.01219871
     atom    8 type  1   force =     0.00072716    0.00497144    0.00604353
     atom    9 type  2   force =     0.00026760    0.00051160    0.00031656
     atom   10 type  2   force =    -0.00307161   -0.00066950   -0.00506859
     atom   11 type  2   force =     0.00080740    0.00022147   -0.00023482
     atom   12 type  2   force =    -0.00006306    0.00051812    0.00001090
     atom   13 type  1   force =    -0.00021877    0.00010752   -0.00012727
     atom   14 type  1   force =    -0.00000719    0.00011080   -0.00008422
     atom   15 type  2   force =    -0.00004837   -0.00002513    0.00035160
     atom   16 type  2   force =     0.00040796    0.00035628   -0.00020229
     atom   17 type  2   force =     0.00027390   -0.00003337    0.00022506
     atom   18 type  2   force =     0.00001508   -0.00020325    0.00013457
     atom   19 type  1   force =     0.00035728    0.00033414   -0.00002962
     atom   20 type  1   force =    -0.00002378    0.00075579    0.00001638
     atom   21 type  2   force =     0.00004907    0.00002459    0.10368008
     atom   22 type  2   force =     0.00001295    0.00027041    0.00063400
     atom   23 type  2   force =    -0.07083763   -0.00009052   -0.02718555
     atom   24 type  2   force =     0.07067256    0.00039176   -0.02722422
     atom   25 type  1   force =    -0.00006579   -0.00027922    0.09393988
     atom   26 type  1   force =    -0.00031517   -0.00035587   -0.17746677
     atom   27 type  2   force =     0.00000795   -0.00023289   -0.02074918
     atom   28 type  2   force =     0.00003599   -0.00148876    0.05596445
     atom   29 type  2   force =    -0.01133394   -0.00053094    0.00690398
     atom   30 type  2   force =     0.01229417   -0.00025414    0.00492092
     atom   31 type  1   force =    -0.00121610    0.00505719   -0.01498346
     atom   32 type  1   force =     0.00092449   -0.00603019    0.00587473
     atom   33 type  2   force =     0.00035537   -0.00013837    0.00011248
     atom   34 type  2   force =    -0.00260950   -0.00151775   -0.00576652
     atom   35 type  2   force =     0.00035942    0.00029380   -0.00030132
     atom   36 type  2   force =     0.00045121    0.00039894   -0.00006545
     atom   37 type  1   force =    -0.00016810   -0.00015322   -0.00021289
     atom   38 type  1   force =     0.00005421    0.00033317    0.00045722
     atom   39 type  2   force =     0.00007819    0.00092348   -0.00069816
     atom   40 type  2   force =     0.00003416   -0.00008727    0.00002728
     atom   41 type  2   force =     0.00105833    0.00034685    0.00042587
     atom   42 type  2   force =    -0.00096527    0.00020972   -0.00011647
     atom   43 type  1   force =     0.00061211   -0.00071827    0.00058877
     atom   44 type  1   force =     0.00017726   -0.00052685   -0.00101313
     atom   45 type  2   force =     0.00001958   -0.00002362    0.10367693
     atom   46 type  2   force =    -0.07082731   -0.00000432   -0.02720198
     atom   47 type  2   force =     0.07065735    0.00039998   -0.02719632
     atom   48 type  3   force =    -0.00067927    0.00017059    0.00047212
     atom   49 type  3   force =     0.00023063    0.00008798   -0.00087995
     atom   50 type  4   force =     0.00021900   -0.00021462    0.00002697
     atom   51 type  5   force =    -0.00010076   -0.00009136    0.00017400
     atom   52 type  5   force =     0.00030171   -0.00063603   -0.00018931
     atom   53 type  5   force =    -0.00046300    0.00062257    0.00038154
     atom   54 type  5   force =     0.00090677    0.00047385    0.00018894
     atom   55 type  2   force =     0.01422004   -0.00021852   -0.00269537
     atom   56 type  5   force =    -0.01346704    0.00044087    0.00165276
     atom   57 type  5   force =     0.00013971   -0.00022602    0.00073017

     Total force =     0.366215     Total SCF correction =     0.000422
  @ DRIVER MODE: Message from server: STATUS
  @ DRIVER MODE: Message from server: GETFORCE
  @ DRIVER MODE: Returning v,forces,stress,ensemble

     Writing output data file ./calc.save/
  @ DRIVER MODE: Message from server: EXIT
  @ DRIVE MODE: Exiting

     General routines

     Parallel routines

   This run was terminated on:  10: 8:19  23Sep2021

   JOB DONE.