     Program PWSCF v.6.7GPU starts on 16Sep2021 at 15: 9:54

     R & G space division:  proc/nbgrp/npool/nimage =      10
     Reading input from /storage/home/hcoda1/3/ntian30/research/carbon/CxH_vib/H2O_calc/ads_slab/CH3NHNH2H2O_a/out_0067/pw.inp
Warning: card &CELL ignored
Warning: card   CELL_DYNAMICS='IPI', ignored
Warning: card / ignored

     Current dimensions of program PWSCF are:
     Max number of different atomic species (ntypx) = 10
     Max number of k-points (npk) =  40000
     Max angular momentum in pseudopotentials (lmaxx) =  3
     Presently no symmetry can be used with electric field

     Message from routine cell_base_init:
     DEPRECATED: use true lattice parameter, not A to a.u. conversion factor

     IMPORTANT: XC functional enforced from input :
     Exchange-correlation= BEEF-VDW
                           (   1   4  43  14   2   0   0)
     Any further DFT definition will be discarded
     Please, verify this is what you really want

  @ DRIVER MODE: Connecting to
 qe_1139763_2852619.sched-torque.pace.gatech.eduxlguaj88_scratch
  using UNIX socket
  @ DRIVER MODE: Message from server: STATUS
  @ DRIVER MODE: Message from server: INIT
  @ DRIVER MODE: Receiving replica           0          -1
  @ DRIVER MODE: Receiving encoded integer          25
  @ DRIVER MODE:  SCF:  T  FORCE:  T  STRESS:  F  VC:  F  ENSEMBLE:  F
  @ DRIVER MODE:  SCF:  T  FORCE:  T  STRESS:  F  VC:  F  ENSEMBLE:  F

     Using Slab Decomposition

     bravais-lattice index     =            0
     lattice parameter (alat)  =       1.8897  a.u.
     unit-cell volume          =    6658.9804 (a.u.)^3
     number of atoms/cell      =           59
     number of atomic types    =            5
     number of electrons       =       406.00
     number of Kohn-Sham states=          213
     kinetic-energy cutoff     =      29.3995  Ry
     charge density cutoff     =     293.9946  Ry
     scf convergence threshold =      7.3E-08
     mixing beta               =       0.0500
     number of iterations used =            8  plain     mixing
     Exchange-correlation= BEEF-VDW
                           (   1   4  43  14   2   0   0)

     celldm(1)=   1.889726  celldm(2)=   0.000000  celldm(3)=   0.000000
     celldm(4)=   0.000000  celldm(5)=   0.000000  celldm(6)=   0.000000

     crystal axes: (cart. coord. in units of alat)
               a(1) = (   6.579727   0.000000   0.000000 )
               a(2) = (  -0.000775   5.961596   0.000000 )
               a(3) = (   0.000000   0.000000  25.155947 )

     reciprocal axes: (cart. coord. in units 2 pi/alat)
               b(1) = (  0.151982  0.000020  0.000000 )
               b(2) = (  0.000000  0.167740  0.000000 )
               b(3) = (  0.000000  0.000000  0.039752 )

     PseudoPot. # 1 for Ti read from file:
     /storage/coda1/p-amedford6/0/shared/rich_project_chbe-medford/medford-share/data/pseudos_module/espresso/nninc/pbe/van/Ti.UPF
     MD5 check sum: 8e4df49b7f0d34bbd5052bf3f5ea0213
     Pseudo is Ultrasoft, Zval = 12.0
     Generated by new atomic code, or converted to UPF format
     Using radial grid of  851 points,  6 beta functions with:
                l(1) =   0
                l(2) =   0
                l(3) =   1
                l(4) =   1
                l(5) =   2
                l(6) =   2
     Q(r) pseudized with  8 coefficients,  rinner =    1.000   1.000   1.000
                                                       1.000   1.000

     PseudoPot. # 2 for O  read from file:
     /storage/coda1/p-amedford6/0/shared/rich_project_chbe-medford/medford-share/data/pseudos_module/espresso/nninc/pbe/van/O.UPF
     MD5 check sum: 78c19812648e8988a0fe644b0f25305e
     Pseudo is Ultrasoft, Zval =  6.0
     Generated by new atomic code, or converted to UPF format
     Using radial grid of  737 points,  4 beta functions with:
                l(1) =   0
                l(2) =   0
                l(3) =   1
                l(4) =   1
     Q(r) pseudized with  8 coefficients,  rinner =    0.800   0.800   0.800

     PseudoPot. # 3 for N  read from file:
     /storage/coda1/p-amedford6/0/shared/rich_project_chbe-medford/medford-share/data/pseudos_module/espresso/nninc/pbe/van/N.UPF
     MD5 check sum: 90d10febe142ad51ac9d5be1deb811c4
     Pseudo is Ultrasoft, Zval =  5.0
     Generated by new atomic code, or converted to UPF format
     Using radial grid of  729 points,  4 beta functions with:
                l(1) =   0
                l(2) =   0
                l(3) =   1
                l(4) =   1
     Q(r) pseudized with  8 coefficients,  rinner =    0.800   0.800   0.800

     PseudoPot. # 4 for C  read from file:
     /storage/coda1/p-amedford6/0/shared/rich_project_chbe-medford/medford-share/data/pseudos_module/espresso/nninc/pbe/van/C.UPF
     MD5 check sum: 1a69bf6b8db32088f5b2163dbdb77a27
     Pseudo is Ultrasoft, Zval =  4.0
     Generated by new atomic code, or converted to UPF format
     Using radial grid of  721 points,  4 beta functions with:
                l(1) =   0
                l(2) =   0
                l(3) =   1
                l(4) =   1
     Q(r) pseudized with  8 coefficients,  rinner =    0.800   0.800   0.800

     PseudoPot. # 5 for H  read from file:
     /storage/coda1/p-amedford6/0/shared/rich_project_chbe-medford/medford-share/data/pseudos_module/espresso/nninc/pbe/van/H.UPF
     MD5 check sum: b5ee9d7bfd3a09ee7748110bda690ff7
     Pseudo is Ultrasoft, Zval =  1.0
     Generated by new atomic code, or converted to UPF format
     Using radial grid of  615 points,  1 beta functions with:
                l(1) =   0
     Q(r) pseudized with  8 coefficients,  rinner =    0.800

     atomic species   valence    mass     pseudopotential
        Ti1           12.00    47.86700     Ti( 1.00)
        O1             6.00    15.99900     O ( 1.00)
        N1             5.00    14.00700     N ( 1.00)
        C1             4.00    12.01100     C ( 1.00)
        H1             1.00     1.00800     H ( 1.00)

     No symmetry found

   Cartesian axes

     site n.     atom                  positions (alat units)
         1           Ti1 tau(   1) = (   0.0004258   2.9801865   6.0000000  )
         2           Ti1 tau(   2) = (   3.2906075   1.4906267   6.0002472  )
         3           O1  tau(   3) = (   0.0006271   0.0005054   7.9858123  )
         4           O1  tau(   4) = (   3.2906025   0.0005020   7.3038282  )
         5           O1  tau(   5) = (   4.5942328   1.4918067   9.2879030  )
         6           O1  tau(   6) = (   1.9868534   1.4903216   9.2879459  )
         7           Ti1 tau(   7) = (   3.2907910   2.8959150   9.1758416  )
         8           Ti1 tau(   8) = (   0.0015273   1.4827037   9.2680791  )
         9           O1  tau(   9) = (   3.2683845   0.0132936  11.3796717  )
        10           O1  tau(  10) = (   0.0116148   5.9584955  10.6183126  )
        11           O1  tau(  11) = (   1.2681313   1.5011218  12.7194972  )
        12           O1  tau(  12) = (   5.2787963   1.4993765  12.6897032  )
        13           Ti1 tau(  13) = (   6.5560253   2.9823375  12.4990790  )
        14           Ti1 tau(  14) = (   3.2673924   1.4925278  12.5394213  )
        15           O1  tau(  15) = (   6.5345332   5.8735037  14.6996474  )
        16           O1  tau(  16) = (   3.2898196   5.9462848  13.9939205  )
        17           O1  tau(  17) = (   4.4957945   1.5291507  16.1605787  )
        18           O1  tau(  18) = (   1.9883785   1.5110281  16.0762771  )
        19           Ti1 tau(  19) = (   3.2526948   3.0056396  15.7740191  )
        20           Ti1 tau(  20) = (   0.0000763   1.3299063  15.8143521  )
        21           O1  tau(  21) = (   3.2904802   0.0005063   4.7018136  )
        22           O1  tau(  22) = (   6.5205728   0.2065101  17.2442985  )
        23           O1  tau(  23) = (   1.3043587   1.4918075   6.0039043  )
        24           O1  tau(  24) = (   5.2767064   1.4903225   6.0039473  )
        25           Ti1 tau(  25) = (   0.0000382   5.9609847   6.0000000  )
        26           Ti1 tau(  26) = (   3.2902200   4.4714249   6.0002472  )
        27           O1  tau(  27) = (   0.0002396   2.9813036   7.9858123  )
        28           O1  tau(  28) = (   3.2902150   2.9813002   7.3038282  )
        29           O1  tau(  29) = (   4.5938453   4.4726049   9.2879030  )
        30           O1  tau(  30) = (   1.9864658   4.4711199   9.2879459  )
        31           Ti1 tau(  31) = (   3.2891106   5.8743827   9.1763621  )
        32           Ti1 tau(  32) = (   0.0006254   4.4649316   9.2693709  )
        33           O1  tau(  33) = (   3.2688559   2.9716192  11.3757022  )
        34           O1  tau(  34) = (   0.0092240   2.9805883  10.6323155  )
        35           O1  tau(  35) = (   1.2711362   4.4646907  12.6658965  )
        36           O1  tau(  36) = (   5.2748280   4.4660984  12.6332574  )
        37           Ti1 tau(  37) = (   6.5627654   5.9477838  12.5072267  )
        38           Ti1 tau(  38) = (   3.2667511   4.4702655  12.5260729  )
        39           O1  tau(  39) = (   6.5087961   3.0586107  15.0099536  )
        40           O1  tau(  40) = (   3.2849776   3.0149387  13.9815115  )
        41           O1  tau(  41) = (   4.4906635   4.4862850  16.2792570  )
        42           O1  tau(  42) = (   1.9756856   4.4939852  16.2100911  )
        43           Ti1 tau(  43) = (   3.2747729   0.0241646  15.7895078  )
        44           Ti1 tau(  44) = (   6.5697470   4.5456975  16.1185117  )
        45           O1  tau(  45) = (   3.2900926   2.9813045   4.7018136  )
        46           O1  tau(  46) = (   1.3039711   4.4726057   6.0039043  )
        47           O1  tau(  47) = (   5.2763189   4.4711207   6.0039473  )
        48           N1  tau(  48) = (   0.9980056   3.0961469  19.0053282  )
        49           N1  tau(  49) = (   6.4063515   3.4839273  18.2229180  )
        50           C1  tau(  50) = (   1.6570833   4.2684698  19.5811903  )
        51           H1  tau(  51) = (   0.9936588   4.8902639  20.1979557  )
        52           H1  tau(  52) = (   2.4789334   3.9063689  20.1993048  )
        53           H1  tau(  53) = (   2.0598354   4.8861676  18.7819781  )
        54           H1  tau(  54) = (   0.6510520   2.5058952  19.7602174  )
        55           H1  tau(  55) = (   5.8507131   4.1735594  18.7414995  )
        56           H1  tau(  56) = (   5.8147758   2.6545292  18.1916272  )
        57           O1  tau(  57) = (   5.1718451   0.7889162  19.5681371  )
        58           H1  tau(  58) = (   5.5516362   0.5215711  18.6954158  )
        59           H1  tau(  59) = (   4.1999197   0.7512590  19.4668632  )

     number of k points=    10  Fermi-Dirac smearing, width (Ry)=  0.0073
                       cart. coord. in units 2pi/alat
        k(    1) = (   0.0000000   0.0000000   0.0000000), wk =   0.1250000
        k(    2) = (   0.0000000   0.0419351   0.0000000), wk =   0.2500000
        k(    3) = (   0.0000000  -0.0838702   0.0000000), wk =   0.1250000
        k(    4) = (   0.0379955   0.0000049   0.0000000), wk =   0.2500000
        k(    5) = (   0.0379955   0.0419400   0.0000000), wk =   0.2500000
        k(    6) = (   0.0379955  -0.0838652   0.0000000), wk =   0.2500000
        k(    7) = (   0.0379955  -0.0419301   0.0000000), wk =   0.2500000
        k(    8) = (  -0.0759910  -0.0000099   0.0000000), wk =   0.1250000
        k(    9) = (  -0.0759910   0.0419252   0.0000000), wk =   0.2500000
        k(   10) = (  -0.0759910  -0.0838800   0.0000000), wk =   0.1250000

     Initial potential from superposition of free atoms

     starting charge  389.99912, renormalised to  406.00000

     negative rho (up, down):  1.389E-02 0.000E+00

     %%%%%%%%%%%%%%%%%%%%%%%%%%%%%%%%%%%%%%%%%%%%%%%%%%%%%%%%%%%%%%%%%%%%%%%%
     %                                                                      %
     % You are using vdW-DF, which was implemented by the Thonhauser group. %
     % Please cite the following two papers that made this development      %
     % possible and the two reviews that describe the various versions:     %
     %                                                                      %
     %   T. Thonhauser et al., PRL 115, 136402 (2015).                      %
     %   T. Thonhauser et al., PRB 76, 125112 (2007).                       %
     %   K. Berland et al., Rep. Prog. Phys. 78, 066501 (2015).             %
     %   D.C. Langreth et al., J. Phys.: Condens. Matter 21, 084203 (2009). %
     %                                                                      %
     %                                                                      %
     % If you are calculating the stress with vdW-DF, please also cite:     %
     %                                                                      %
     %   R. Sabatini et al., J. Phys.: Condens. Matter 24, 424209 (2012).   %
     %                                                                      %
     %%%%%%%%%%%%%%%%%%%%%%%%%%%%%%%%%%%%%%%%%%%%%%%%%%%%%%%%%%%%%%%%%%%%%%%%

     Adding external electric field

     Computed dipole along edir(3) :
        Dipole              -16.7176 Ry au,        -42.4920 Debye
        Dipole field         -0.0315 Ry au,

        Potential amp.        2.9245 Ry
        Total length         46.3494 bohr

     Starting wfcs are  308 atomic wfcs
  @ DRIVER MODE: Message from server: STATUS
  @ DRIVER MODE: Message from server: POSDATA
  @ DRIVER MODE: Reading and sharing cell
  @ DRIVER MODE: Reading and sharing positions
  @ DRIVER MODE: Received positions

     Self-consistent Calculation

     iteration #  1     ecut=    29.40 Ry     beta= 0.05
     Davidson diagonalization with overlap
     c_bands:  2 eigenvalues not converged
     c_bands:  3 eigenvalues not converged
     c_bands:  2 eigenvalues not converged
     c_bands:  4 eigenvalues not converged
     c_bands:  1 eigenvalues not converged
     c_bands:  4 eigenvalues not converged
     c_bands:  3 eigenvalues not converged
     c_bands:  5 eigenvalues not converged
     c_bands:  3 eigenvalues not converged
     ethr =  1.00E-05,  avg # of iterations = 24.9

[...]

     total energy              =   -2136.68837710 Ry
     estimated scf accuracy    <    9692.84754296 Ry

     iteration #  2     ecut=    29.40 Ry     beta= 0.05
     Davidson diagonalization with overlap
     ethr =  1.00E-02,  avg # of iterations = 32.1

[...]

     iteration # 55     ecut=    29.40 Ry     beta= 0.05
     Davidson diagonalization with overlap
     c_bands:  1 eigenvalues not converged
     ethr =  2.97E-10,  avg # of iterations = 15.3

[...]

     total energy              =   -2977.68362263 Ry
     estimated scf accuracy    <       0.00000009 Ry

     iteration # 61     ecut=    29.40 Ry     beta= 0.05
     Davidson diagonalization with overlap
     ethr =  2.34E-11,  avg # of iterations =  3.9

     negative rho (up, down):  1.439E-02 0.000E+00

     Adding external electric field

     Computed dipole along edir(3) :
        Dipole                1.0207 Ry au,          2.5943 Debye
        Dipole field          0.0019 Ry au,

        Potential amp.       -0.1785 Ry
        Total length         46.3494 bohr

     End of self-consistent calculation

          k = 0.0000 0.0000 0.0000 ( 18029 PWs)   bands (ev):

   -55.3592 -55.3219 -55.3098 -55.2923 -55.2757 -55.2400 -55.2384 -55.2035
   -55.1822 -55.1810 -55.1479 -55.1420 -55.1083 -55.0175 -54.3418 -54.3077
   -31.9255 -31.8079 -31.8028 -31.7270 -31.6755 -31.6715 -31.6714 -31.6484
   -31.5986 -31.5944 -31.5713 -31.5688 -31.5547 -31.5385 -31.5295 -31.5261
   -31.5136 -31.5065 -31.4961 -31.4785 -31.4636 -31.4625 -31.4345 -31.4242
   -31.4167 -31.4128 -31.3923 -31.3848 -31.3685 -31.3670 -31.3621 -31.3533
   -31.3411 -31.3402 -31.3314 -31.3287 -31.2958 -31.2927 -31.2703 -31.2532
   -31.2297 -31.2276 -30.7513 -30.6567 -30.6346 -30.5676 -30.4808 -30.3699
   -17.9509 -17.6330 -16.1928 -15.9321 -15.7866 -15.6582 -15.5606 -15.4323
   -15.4130 -15.2911 -15.2209 -15.1170 -15.0659 -15.0477 -15.0117 -15.0016
   -14.9783 -14.9077 -14.9015 -14.8877 -14.8637 -14.8549 -14.8088 -14.8009
   -14.7597 -14.7354 -14.7111 -14.6123 -14.5221 -14.4474 -14.3398 -13.1537
   -12.8446 -12.7271  -9.4103  -6.3131  -5.8441  -5.7372  -4.2532  -3.5313
    -3.3825  -3.3139  -3.2775  -3.2522  -3.1187  -2.9615  -2.9243  -2.8062
    -2.7883  -2.6897  -2.6440  -2.5727  -2.5560  -2.5409  -2.3947  -2.3718
    -2.3462  -2.2804  -2.2523  -2.1869  -2.1648  -2.1534  -2.1438  -2.1212
    -2.0934  -2.0465  -1.9915  -1.9328  -1.8396  -1.8140  -1.7635  -1.7340
    -1.7130  -1.6962  -1.6505  -1.6396  -1.6001  -1.5855  -1.5659  -1.5511
    -1.3882  -1.3656  -1.2638  -1.2023  -1.1031  -0.9993  -0.9637  -0.9491
    -0.8520  -0.8336  -0.7805  -0.7398  -0.7374  -0.7027  -0.5909  -0.5283
    -0.4760  -0.4125  -0.3897  -0.3496  -0.2816  -0.1985  -0.1424  -0.1285
    -0.1101  -0.0900   0.0140   0.0262   0.0780   0.1528   0.1623   0.1685
     0.2423   0.2987   0.3689   0.3937   0.4116   0.5167   0.5323   0.5646
     0.5703   0.6001   0.6209   0.6459   0.7062   0.7365   0.8196   0.9414
     1.1332   1.2224   1.2498   1.3611   1.5729   1.5853   1.6809   1.8641
     2.2572   2.3056   3.7379   3.8090   3.8837   3.8878   3.9104   3.9742
     4.2110   4.2282   4.2428   4.2465   4.2706

[...]

          k = 0.0380-0.0419 0.0000 ( 17876 PWs)   bands (ev):

[...]

          k =-0.0760-0.0000 0.0000 ( 17886 PWs)   bands (ev):

[...]

          k =-0.0760-0.0839 0.0000 ( 17948 PWs)   bands (ev):

   -55.3455 -55.3353 -55.2930 -55.2924 -55.2910 -55.2328 -55.2279 -55.2155
   -55.1865 -55.1662 -55.1634 -55.1256 -55.1248 -55.0186 -54.3249 -54.3245
   -31.7336 -31.7256 -31.7235 -31.6392 -31.6195 -31.6181 -31.6176 -31.5840
   -31.5837 -31.5727 -31.5586 -31.5574 -31.5506 -31.5308 -31.5190 -31.5056
   -31.4991 -31.4959 -31.4944 -31.4930 -31.4862 -31.4788 -31.4465 -31.4389
   -31.4359 -31.4356 -31.4216 -31.4169 -31.4127 -31.4121 -31.4066 -31.3990
   -31.3966 -31.3794 -31.3762 -31.3741 -31.3593 -31.3559 -31.3063 -31.3061
   -31.3000 -31.2335 -30.6474 -30.6471 -30.5639 -30.5636 -30.5243 -30.5241
   -17.9368 -17.6440 -15.6734 -15.5883 -15.5674 -15.4123 -15.3606 -15.3342
   -15.3232 -15.2079 -15.1654 -15.1464 -15.1316 -15.1098 -15.0716 -15.0620
   -15.0551 -14.9921 -14.9717 -14.9628 -14.9369 -14.8829 -14.8754 -14.8674
   -14.8596 -14.8098 -14.8059 -14.7663 -14.7151 -14.7116 -14.6359 -13.1599
   -12.8285 -12.8285  -9.4153  -6.3324  -5.8856  -5.6446  -4.2310  -2.9359
    -2.8464  -2.8356  -2.8290  -2.6995  -2.6256  -2.5502  -2.5281  -2.5065
    -2.4190  -2.4085  -2.3778  -2.3528  -2.3222  -2.2841  -2.2454  -2.2399
    -2.2035  -2.1951  -2.1793  -2.1627  -2.1412  -2.1258  -2.0919  -2.0811
    -2.0677  -2.0238  -1.9978  -1.9835  -1.9625  -1.9423  -1.9336  -1.9158
    -1.8390  -1.7503  -1.7262  -1.6409  -1.5717  -1.5697  -1.5636  -1.5019
    -1.4585  -1.4202  -1.3951  -1.3781  -1.2387  -1.1673  -1.1232  -1.1090
    -1.0943  -0.9635  -0.9573  -0.8813  -0.8587  -0.8523  -0.7587  -0.7142
    -0.6757  -0.6688  -0.5821  -0.5699  -0.4940  -0.3956  -0.3737  -0.3599
    -0.3148  -0.3130  -0.2754  -0.2626  -0.1662  -0.1305  -0.1019  -0.0967
    -0.0784  -0.0386   0.1124   0.1614   0.1679   0.3009   0.3328   0.4713
     0.5012   0.5654   0.6452   0.6939   0.7463   0.7791   0.8657   0.9404
     0.9436   1.0070   1.0226   1.0888   1.1010   1.3666   2.0371   2.0376
     2.1254   2.1257   3.8859   4.0009   4.0045   4.0337   4.1558   4.1792
     4.2556   4.2831   4.3225   4.3263   4.3888

     the Fermi energy is     3.8019 ev

!    total energy              =   -2977.68366241 Ry
     estimated scf accuracy    <       0.00000006 Ry
     smearing contrib. (-TS)   =      -0.03717657 Ry
     internal energy E=F+TS    =   -2977.64648584 Ry

     The total energy is F=E-TS. E is the sum of the following terms:
     one-electron contribution =  -22681.76498410 Ry
     hartree contribution      =   11438.25399491 Ry
     xc contribution           =    -496.60611122 Ry
     ewald contribution        =    8762.46864867 Ry
     electric field correction =       0.00196590 Ry

     convergence has been achieved in  61 iterations

     Forces acting on atoms (cartesian axes, Ry/au):

     atom    1 type  1   force =     0.00024525   -0.00038309    0.09323818
     atom    2 type  1   force =     0.00002185   -0.00038498   -0.17814889
     atom    3 type  2   force =     0.00004797   -0.00041969   -0.02001638
     atom    4 type  2   force =     0.00000989   -0.00190213    0.05909802
     atom    5 type  2   force =    -0.01035818   -0.00059159    0.00861222
     atom    6 type  2   force =     0.01130622    0.00009905    0.00627819
     atom    7 type  1   force =    -0.00096798    0.00197853   -0.01426605
     atom    8 type  1   force =     0.00097693   -0.00256563   -0.00599570
     atom    9 type  2   force =     0.00016725   -0.00002138    0.00009425
     atom   10 type  2   force =    -0.00231220    0.00309003    0.00261507
     atom   11 type  2   force =     0.00040695   -0.00042462   -0.00056407
     atom   12 type  2   force =     0.00004907   -0.00040262   -0.00057180
     atom   13 type  1   force =     0.00033801   -0.00027397   -0.00020405
     atom   14 type  1   force =     0.00004974   -0.00008559   -0.00006662
     atom   15 type  2   force =     0.00000295    0.00061055   -0.00002473
     atom   16 type  2   force =     0.00030431    0.00027247   -0.00011676
     atom   17 type  2   force =     0.00038120    0.00024340    0.00033800
     atom   18 type  2   force =    -0.00050694    0.00019887   -0.00009225
     atom   19 type  1   force =    -0.00011508    0.00006656    0.00029812
     atom   20 type  1   force =    -0.00011066   -0.00014381    0.00057785
     atom   21 type  2   force =     0.00011821   -0.00011054    0.10400137
     atom   22 type  2   force =     0.00019722   -0.00027286    0.00056586
     atom   23 type  2   force =    -0.07029049   -0.00019319   -0.02686239
     atom   24 type  2   force =     0.07026938    0.00025147   -0.02686585
     atom   25 type  1   force =     0.00017197   -0.00030802    0.09243051
     atom   26 type  1   force =     0.00005736   -0.00054286   -0.17847973
     atom   27 type  2   force =     0.00008156   -0.00020867   -0.01908084
     atom   28 type  2   force =     0.00006036   -0.00173130    0.05851834
     atom   29 type  2   force =    -0.01101975   -0.00114146    0.00944756
     atom   30 type  2   force =     0.01187708   -0.00069726    0.00723003
     atom   31 type  1   force =    -0.00087888    0.00646656   -0.01492634
     atom   32 type  1   force =     0.00102016    0.00220358   -0.00640240
     atom   33 type  2   force =     0.00026042    0.00009698    0.00002550
     atom   34 type  2   force =    -0.00214761   -0.00243313   -0.00030983
     atom   35 type  2   force =     0.00027238    0.00012146   -0.00000450
     atom   36 type  2   force =     0.00026210    0.00002888    0.00051236
     atom   37 type  1   force =    -0.00009792    0.00003247   -0.00004523
     atom   38 type  1   force =     0.00015358   -0.00006960    0.00000158
     atom   39 type  2   force =    -0.00010282   -0.00020727    0.00042441
     atom   40 type  2   force =    -0.00014491    0.00008732    0.00006388
     atom   41 type  2   force =    -0.00043573    0.00014042    0.00025837
     atom   42 type  2   force =     0.00025514   -0.00009329   -0.00015490
     atom   43 type  1   force =     0.00041257    0.00030161   -0.00007494
     atom   44 type  1   force =    -0.00004208   -0.00014877   -0.00002247
     atom   45 type  2   force =     0.00012214   -0.00011098    0.10393504
     atom   46 type  2   force =    -0.07024890   -0.00013294   -0.02680385
     atom   47 type  2   force =     0.07024287    0.00027510   -0.02686961
     atom   48 type  3   force =    -0.00024617   -0.00002874   -0.00032347
     atom   49 type  3   force =     0.00029009    0.00005319   -0.00078295
     atom   50 type  4   force =    -0.00030582   -0.00011080   -0.00027327
     atom   51 type  5   force =    -0.00071101    0.00036444    0.00039452
     atom   52 type  5   force =     0.00043360   -0.00002997    0.00037212
     atom   53 type  5   force =    -0.00002444    0.00019019   -0.00048083
     atom   54 type  5   force =     0.00006675   -0.00014462   -0.00002271
     atom   55 type  5   force =     0.00031338    0.00037618   -0.00027096
     atom   56 type  5   force =    -0.00037027   -0.00083696    0.00058631
     atom   57 type  2   force =    -0.01936058   -0.00104559    0.00000532
     atom   58 type  5   force =    -0.00062526   -0.00040347   -0.00059652
     atom   59 type  5   force =     0.02017779    0.00105206   -0.00020208

     Total force =     0.367306     Total SCF correction =     0.000747
  @ DRIVER MODE: Message from server: STATUS
  @ DRIVER MODE: Message from server: GETFORCE
  @ DRIVER MODE: Returning v,forces,stress,ensemble

     Writing output data file ./calc.save/
  @ DRIVER MODE: Message from server: EXIT
  @ DRIVE MODE: Exiting

     General routines

     Parallel routines

   This run was terminated on:  15:28: 8  16Sep2021

   JOB DONE.