     Program PWSCF v.6.7GPU starts on 25Sep2021 at 16:11:15

     R & G space division:  proc/nbgrp/npool/nimage =       8
     Reading input from /storage/home/hcoda1/3/ntian30/research/carbon/CxH_vib/H2O_calc/ads_slab/CH3OH2O_a/out_0002/pw.inp
Warning: card &CELL ignored
Warning: card   CELL_DYNAMICS='IPI', ignored
Warning: card / ignored

     Current dimensions of program PWSCF are:
     Max number of different atomic species (ntypx) = 10
     Max number of k-points (npk) =  40000
     Max angular momentum in pseudopotentials (lmaxx) =  3
     Presently no symmetry can be used with electric field

     Message from routine cell_base_init:
     DEPRECATED: use true lattice parameter, not A to a.u. conversion factor

     IMPORTANT: XC functional enforced from input :
     Exchange-correlation= BEEF-VDW
                           (   1   4  43  14   2   0   0)
     Any further DFT definition will be discarded
     Please, verify this is what you really want

  @ DRIVER MODE: Connecting to
 qe_1139763_2971673.sched-torque.pace.gatech.eduhcy4d7m__scratch
  using UNIX socket
  @ DRIVER MODE: Message from server: STATUS
  @ DRIVER MODE: Message from server: INIT
  @ DRIVER MODE: Receiving replica           0          -1
  @ DRIVER MODE: Receiving encoded integer          25
  @ DRIVER MODE:  SCF:  T  FORCE:  T  STRESS:  F  VC:  F  ENSEMBLE:  F
  @ DRIVER MODE:  SCF:  T  FORCE:  T  STRESS:  F  VC:  F  ENSEMBLE:  F

     Using Slab Decomposition

     bravais-lattice index     =            0
     lattice parameter (alat)  =       1.8897  a.u.
     unit-cell volume          =    6658.9804 (a.u.)^3
     number of atoms/cell      =           55
     number of atomic types    =            4
     number of electrons       =       399.00
     number of Kohn-Sham states=          209
     kinetic-energy cutoff     =      29.3995  Ry
     charge density cutoff     =     293.9946  Ry
     scf convergence threshold =      7.3E-08
     mixing beta               =       0.0500
     number of iterations used =            8  plain     mixing
     Exchange-correlation= BEEF-VDW
                           (   1   4  43  14   2   0   0)

     celldm(1)=   1.889726  celldm(2)=   0.000000  celldm(3)=   0.000000
     celldm(4)=   0.000000  celldm(5)=   0.000000  celldm(6)=   0.000000

     crystal axes: (cart. coord. in units of alat)
               a(1) = (   6.579727   0.000000   0.000000 )
               a(2) = (  -0.000775   5.961596   0.000000 )
               a(3) = (   0.000000   0.000000  25.155947 )

     reciprocal axes: (cart. coord. in units 2 pi/alat)
               b(1) = (  0.151982  0.000020  0.000000 )
               b(2) = (  0.000000  0.167740  0.000000 )
               b(3) = (  0.000000  0.000000  0.039752 )

     PseudoPot. # 1 for Ti read from file:
     /storage/coda1/p-amedford6/0/shared/rich_project_chbe-medford/medford-share/data/pseudos_module/espresso/nninc/pbe/van/Ti.UPF
     MD5 check sum: 8e4df49b7f0d34bbd5052bf3f5ea0213
     Pseudo is Ultrasoft, Zval = 12.0
     Generated by new atomic code, or converted to UPF format
     Using radial grid of  851 points,  6 beta functions with:
                l(1) =   0
                l(2) =   0
                l(3) =   1
                l(4) =   1
                l(5) =   2
                l(6) =   2
     Q(r) pseudized with  8 coefficients,  rinner =    1.000   1.000   1.000
                                                       1.000   1.000

     PseudoPot. # 2 for O  read from file:
     /storage/coda1/p-amedford6/0/shared/rich_project_chbe-medford/medford-share/data/pseudos_module/espresso/nninc/pbe/van/O.UPF
     MD5 check sum: 78c19812648e8988a0fe644b0f25305e
     Pseudo is Ultrasoft, Zval =  6.0
     Generated by new atomic code, or converted to UPF format
     Using radial grid of  737 points,  4 beta functions with:
                l(1) =   0
                l(2) =   0
                l(3) =   1
                l(4) =   1
     Q(r) pseudized with  8 coefficients,  rinner =    0.800   0.800   0.800

     PseudoPot. # 3 for C  read from file:
     /storage/coda1/p-amedford6/0/shared/rich_project_chbe-medford/medford-share/data/pseudos_module/espresso/nninc/pbe/van/C.UPF
     MD5 check sum: 1a69bf6b8db32088f5b2163dbdb77a27
     Pseudo is Ultrasoft, Zval =  4.0
     Generated by new atomic code, or converted to UPF format
     Using radial grid of  721 points,  4 beta functions with:
                l(1) =   0
                l(2) =   0
                l(3) =   1
                l(4) =   1
     Q(r) pseudized with  8 coefficients,  rinner =    0.800   0.800   0.800

     PseudoPot. # 4 for H  read from file:
     /storage/coda1/p-amedford6/0/shared/rich_project_chbe-medford/medford-share/data/pseudos_module/espresso/nninc/pbe/van/H.UPF
     MD5 check sum: b5ee9d7bfd3a09ee7748110bda690ff7
     Pseudo is Ultrasoft, Zval =  1.0
     Generated by new atomic code, or converted to UPF format
     Using radial grid of  615 points,  1 beta functions with:
                l(1) =   0
     Q(r) pseudized with  8 coefficients,  rinner =    0.800

     atomic species   valence    mass     pseudopotential
        Ti1           12.00    47.86700     Ti( 1.00)
        O1             6.00    15.99900     O ( 1.00)
        C1             4.00    12.01100     C ( 1.00)
        H1             1.00     1.00800     H ( 1.00)

     No symmetry found

   Cartesian axes

     site n.     atom                  positions (alat units)
         1           Ti1 tau(   1) = (   0.0004258   2.9801865   6.0000000  )
         2           Ti1 tau(   2) = (   3.2906075   1.4906267   6.0002472  )
         3           O1  tau(   3) = (   0.0006271   0.0005054   7.9858123  )
         4           O1  tau(   4) = (   3.2906025   0.0005020   7.3038282  )
         5           O1  tau(   5) = (   4.5942328   1.4918067   9.2879030  )
         6           O1  tau(   6) = (   1.9868534   1.4903216   9.2879459  )
         7           Ti1 tau(   7) = (   3.2820359   3.0439161   9.1623595  )
         8           Ti1 tau(   8) = (   6.5599266   1.6132547   9.3553476  )
         9           O1  tau(   9) = (   3.2945286   0.0238644  11.3456088  )
        10           O1  tau(  10) = (   0.0063054   0.0138127  10.6020390  )
        11           O1  tau(  11) = (   1.2951583   1.5100513  12.6443238  )
        12           O1  tau(  12) = (   5.2990995   1.5148170  12.6233090  )
        13           Ti1 tau(  13) = (   0.0263474   3.0106421  12.7494805  )
        14           Ti1 tau(  14) = (   3.3336015   1.5167552  12.4948480  )
        15           O1  tau(  15) = (   6.5448532   0.0190031  14.6983011  )
        16           O1  tau(  16) = (   3.3224233   0.0259125  13.9568087  )
        17           O1  tau(  17) = (   4.5367000   1.5168325  16.1249780  )
        18           O1  tau(  18) = (   2.0218268   1.5507800  16.0022153  )
        19           Ti1 tau(  19) = (   3.2743302   2.9980917  15.6870858  )
        20           Ti1 tau(  20) = (   0.0201860   1.3869735  16.0719154  )
        21           O1  tau(  21) = (   3.2904802   0.0005063   4.7018136  )
        22           O1  tau(  22) = (   0.0925506   0.0150102  17.2361640  )
        23           O1  tau(  23) = (   1.3043587   1.4918075   6.0039043  )
        24           O1  tau(  24) = (   5.2767064   1.4903225   6.0039473  )
        25           Ti1 tau(  25) = (   0.0000382   5.9609847   6.0000000  )
        26           Ti1 tau(  26) = (   3.2902200   4.4714249   6.0002472  )
        27           O1  tau(  27) = (   0.0002396   2.9813036   7.9858123  )
        28           O1  tau(  28) = (   3.2902150   2.9813002   7.3038282  )
        29           O1  tau(  29) = (   4.5938453   4.4726049   9.2879030  )
        30           O1  tau(  30) = (   1.9864658   4.4711199   9.2879459  )
        31           Ti1 tau(  31) = (   3.2669230   0.0652730   9.1555536  )
        32           Ti1 tau(  32) = (   6.5613759   4.5453191   9.2698998  )
        33           O1  tau(  33) = (   3.2918870   3.0052186  11.3478826  )
        34           O1  tau(  34) = (   0.0060846   2.9950393  10.5821163  )
        35           O1  tau(  35) = (   1.2959246   4.5006532  12.6413340  )
        36           O1  tau(  36) = (   5.2961686   4.4944485  12.6189864  )
        37           Ti1 tau(  37) = (   0.0327138   0.0295606  12.5236923  )
        38           Ti1 tau(  38) = (   3.3339673   4.5113903  12.4983483  )
        39           O1  tau(  39) = (   6.5730609   3.0277731  14.6772624  )
        40           O1  tau(  40) = (   3.3208155   3.0007925  13.9016932  )
        41           O1  tau(  41) = (   4.5507661   4.4739758  16.0704957  )
        42           O1  tau(  42) = (   2.0281244   4.4521521  15.9894756  )
        43           Ti1 tau(  43) = (   3.3328935   0.0118079  15.7915215  )
        44           Ti1 tau(  44) = (   0.0096178   4.5175135  15.9069376  )
        45           O1  tau(  45) = (   3.2900926   2.9813045   4.7018136  )
        46           O1  tau(  46) = (   1.3039711   4.4726057   6.0039043  )
        47           O1  tau(  47) = (   5.2763189   4.4711207   6.0039473  )
        48           C1  tau(  48) = (   6.0208469   3.0492512  18.6187439  )
        49           O1  tau(  49) = (   6.5747659   3.0013081  17.3187206  )
        50           H1  tau(  50) = (   4.9221177   3.1735116  18.5649479  )
        51           H1  tau(  51) = (   6.2378858   2.1236533  19.1567593  )
        52           H1  tau(  52) = (   6.4208835   3.9027719  19.1655001  )
        53           O1  tau(  53) = (   2.8960476   5.8777769  18.1661119  )
        54           H1  tau(  54) = (   3.1709146   0.7341104  18.6084320  )
        55           H1  tau(  55) = (   1.9162551   5.9097105  18.1191095  )

     number of k points=    10  Fermi-Dirac smearing, width (Ry)=  0.0073
                       cart. coord. in units 2pi/alat
        k(    1) = (   0.0000000   0.0000000   0.0000000), wk =   0.1250000
        k(    2) = (   0.0000000   0.0419351   0.0000000), wk =   0.2500000
        k(    3) = (   0.0000000  -0.0838702   0.0000000), wk =   0.1250000
        k(    4) = (   0.0379955   0.0000049   0.0000000), wk =   0.2500000
        k(    5) = (   0.0379955   0.0419400   0.0000000), wk =   0.2500000
        k(    6) = (   0.0379955  -0.0838652   0.0000000), wk =   0.2500000
        k(    7) = (   0.0379955  -0.0419301   0.0000000), wk =   0.2500000
        k(    8) = (  -0.0759910  -0.0000099   0.0000000), wk =   0.1250000
        k(    9) = (  -0.0759910   0.0419252   0.0000000), wk =   0.2500000
        k(   10) = (  -0.0759910  -0.0838800   0.0000000), wk =   0.1250000

     Initial potential from superposition of free atoms

     starting charge  382.99916, renormalised to  399.00000

     negative rho (up, down):  1.705E-02 0.000E+00

     %%%%%%%%%%%%%%%%%%%%%%%%%%%%%%%%%%%%%%%%%%%%%%%%%%%%%%%%%%%%%%%%%%%%%%%%
     %                                                                      %
     % You are using vdW-DF, which was implemented by the Thonhauser group. %
     % Please cite the following two papers that made this development      %
     % possible and the two reviews that describe the various versions:     %
     %                                                                      %
     %   T. Thonhauser et al., PRL 115, 136402 (2015).                      %
     %   T. Thonhauser et al., PRB 76, 125112 (2007).                       %
     %   K. Berland et al., Rep. Prog. Phys. 78, 066501 (2015).             %
     %   D.C. Langreth et al., J. Phys.: Condens. Matter 21, 084203 (2009). %
     %                                                                      %
     %                                                                      %
     % If you are calculating the stress with vdW-DF, please also cite:     %
     %                                                                      %
     %   R. Sabatini et al., J. Phys.: Condens. Matter 24, 424209 (2012).   %
     %                                                                      %
     %%%%%%%%%%%%%%%%%%%%%%%%%%%%%%%%%%%%%%%%%%%%%%%%%%%%%%%%%%%%%%%%%%%%%%%%

     Adding external electric field

     Computed dipole along edir(3) :
        Dipole               -9.9871 Ry au,        -25.3847 Debye
        Dipole field         -0.0188 Ry au,

        Potential amp.        1.7471 Ry
        Total length         46.3494 bohr

     Starting wfcs are  301 atomic wfcs
  @ DRIVER MODE: Message from server: STATUS
  @ DRIVER MODE: Message from server: POSDATA
  @ DRIVER MODE: Reading and sharing cell
  @ DRIVER MODE: Reading and sharing positions
  @ DRIVER MODE: Received positions

     Self-consistent Calculation

     iteration #  1     ecut=    29.40 Ry     beta= 0.05
     Davidson diagonalization with overlap
     c_bands:  2 eigenvalues not converged
     c_bands:  2 eigenvalues not converged
     c_bands:  3 eigenvalues not converged
     c_bands:  3 eigenvalues not converged
     c_bands:  1 eigenvalues not converged
     c_bands:  3 eigenvalues not converged
     c_bands:  3 eigenvalues not converged
     c_bands:  1 eigenvalues not converged
     ethr =  1.00E-05,  avg # of iterations = 19.6

[...]

     total energy              =   -2489.87412512 Ry
     estimated scf accuracy    <    5304.34529820 Ry

     iteration #  2     ecut=    29.40 Ry     beta= 0.05
     Davidson diagonalization with overlap
     ethr =  1.00E-02,  avg # of iterations = 24.3

[...]

     iteration # 56     ecut=    29.40 Ry     beta= 0.05
     Davidson diagonalization with overlap
     c_bands:  1 eigenvalues not converged
     ethr =  4.72E-11,  avg # of iterations = 11.8

[...]

     total energy              =   -2966.34201651 Ry
     estimated scf accuracy    <       0.00000013 Ry

     iteration # 57     ecut=    29.40 Ry     beta= 0.05
     Davidson diagonalization with overlap
     ethr =  3.34E-11,  avg # of iterations =  8.6

     negative rho (up, down):  1.685E-02 0.000E+00

     Adding external electric field

     Computed dipole along edir(3) :
        Dipole                0.9441 Ry au,          2.3997 Debye
        Dipole field          0.0018 Ry au,

        Potential amp.       -0.1652 Ry
        Total length         46.3494 bohr

     End of self-consistent calculation

          k = 0.0000 0.0000 0.0000 ( 18029 PWs)   bands (ev):

   -55.7063 -55.6705 -55.6674 -55.6312 -55.6190 -55.6065 -55.5852 -55.5511
   -55.4958 -55.4826 -55.4744 -55.4565 -55.4217 -55.3809 -54.7097 -54.6757
   -32.2250 -32.1760 -32.0980 -32.0647 -32.0479 -31.9988 -31.9824 -31.9716
   -31.9389 -31.9359 -31.8948 -31.8836 -31.8779 -31.8726 -31.8658 -31.8502
   -31.8488 -31.8056 -31.8009 -31.7982 -31.7900 -31.7851 -31.7708 -31.7570
   -31.7508 -31.7458 -31.7279 -31.7051 -31.6983 -31.6972 -31.6908 -31.6872
   -31.6745 -31.6670 -31.6542 -31.6462 -31.6387 -31.6028 -31.5968 -31.5720
   -31.5634 -31.5570 -31.1187 -31.0238 -31.0014 -30.9356 -30.8495 -30.7382
   -18.9027 -17.5856 -16.4210 -16.1518 -15.9905 -15.8628 -15.8243 -15.6285
   -15.5127 -15.3885 -15.3618 -15.3069 -15.2816 -15.2422 -15.2368 -15.2278
   -15.2171 -15.2075 -15.1546 -15.1203 -15.1079 -15.0981 -15.0864 -15.0351
   -14.9831 -14.9181 -14.8464 -14.8237 -14.7993 -14.7277 -14.7065 -13.2102
   -13.0924  -9.4120  -6.6714  -4.2772  -4.1126  -3.7941  -3.7627  -3.6431
    -3.6186  -3.5890  -3.5075  -3.3071  -3.2776  -3.1530  -2.9433  -2.8844
    -2.8288  -2.8046  -2.7626  -2.6115  -2.5937  -2.5224  -2.5115  -2.4928
    -2.4816  -2.4500  -2.4322  -2.3992  -2.3723  -2.3344  -2.2844  -2.2268
    -2.0878  -2.0734  -2.0366  -2.0185  -2.0074  -1.9920  -1.9553  -1.9343
    -1.9010  -1.8827  -1.8743  -1.7727  -1.6652  -1.5707  -1.5343  -1.4656
    -1.3846  -1.2395  -1.2185  -1.1484  -1.1231  -1.1075  -1.0567  -1.0047
    -0.9409  -0.9396  -0.8811  -0.7834  -0.7172  -0.6962  -0.6589  -0.6107
    -0.5505  -0.4752  -0.4459  -0.4287  -0.4052  -0.3929  -0.2054  -0.1811
    -0.1386  -0.1106  -0.0288   0.0297   0.0470   0.0654   0.0915   0.1186
     0.1918   0.2512   0.2609   0.2871   0.3311   0.3460   0.3816   0.4457
     0.4959   0.5146   0.5626   0.6107   0.6640   0.8028   0.9113   0.9489
     1.0612   1.2256   1.3147   1.3885   1.4897   1.9000   1.9560   3.4734
     3.5055   3.5336   3.5550   3.6317   3.7235   3.8336   3.9255   3.9410
     3.9702

[...]

          k = 0.0380-0.0419 0.0000 ( 17876 PWs)   bands (ev):

[...]

          k =-0.0760-0.0000 0.0000 ( 17886 PWs)   bands (ev):

[...]

          k =-0.0760-0.0839 0.0000 ( 17948 PWs)   bands (ev):

   -55.6941 -55.6826 -55.6511 -55.6472 -55.6162 -55.6046 -55.5724 -55.5639
   -55.4981 -55.4793 -55.4765 -55.4437 -55.4347 -55.3838 -54.6931 -54.6921
   -32.0382 -32.0191 -31.9987 -31.9927 -31.9868 -31.9854 -31.9683 -31.9310
   -31.9215 -31.9132 -31.9049 -31.8956 -31.8574 -31.8469 -31.8331 -31.8279
   -31.8274 -31.8212 -31.8197 -31.8121 -31.8045 -31.8018 -31.7951 -31.7858
   -31.7765 -31.7734 -31.7689 -31.7684 -31.7583 -31.7428 -31.7159 -31.7003
   -31.6938 -31.6878 -31.6870 -31.6833 -31.6781 -31.6602 -31.6502 -31.6389
   -31.6087 -31.5744 -31.0147 -31.0135 -30.9321 -30.9313 -30.8930 -30.8921
   -18.9013 -17.5539 -15.8893 -15.7757 -15.6576 -15.5834 -15.5719 -15.5253
   -15.4954 -15.4694 -15.4114 -15.4041 -15.3561 -15.3546 -15.3038 -15.2977
   -15.2471 -15.2151 -15.2110 -15.1695 -15.1467 -15.1383 -15.1283 -15.0919
   -15.0753 -15.0652 -15.0303 -15.0210 -14.9720 -14.9334 -14.9073 -13.1947
   -13.1929  -9.4143  -6.6659  -4.1735  -4.0782  -3.7900  -3.3045  -3.1754
    -2.9714  -2.9032  -2.8373  -2.7751  -2.7715  -2.6556  -2.6359  -2.5968
    -2.5662  -2.5334  -2.5257  -2.5153  -2.4986  -2.4963  -2.4791  -2.4397
    -2.4182  -2.3945  -2.3735  -2.3615  -2.3406  -2.3182  -2.3106  -2.2909
    -2.2579  -2.2512  -2.2434  -2.1789  -2.1146  -1.9850  -1.9404  -1.9281
    -1.8431  -1.8086  -1.7920  -1.7628  -1.7548  -1.7394  -1.6068  -1.5885
    -1.4930  -1.4284  -1.4090  -1.3810  -1.2731  -1.2144  -1.1814  -1.1599
    -1.1242  -1.0750  -1.0082  -0.9678  -0.9164  -0.8588  -0.8138  -0.8003
    -0.7670  -0.6633  -0.6591  -0.6520  -0.6096  -0.5693  -0.5191  -0.4672
    -0.4587  -0.4355  -0.4030  -0.3612  -0.3418  -0.2450  -0.2341  -0.1950
    -0.1485  -0.0557   0.1226   0.2078   0.3148   0.3488   0.3886   0.4508
     0.4951   0.5513   0.5944   0.6446   0.6671   0.7138   0.7455   0.8271
     0.8455   0.8508   0.9192   1.6763   1.6767   1.7627   1.7712   3.7175
     3.7326   3.7852   3.8037   3.9418   3.9475   3.9613   3.9707   4.0694
     4.1263

     the Fermi energy is     3.4446 ev

!    total energy              =   -2966.34207891 Ry
     estimated scf accuracy    <       0.00000006 Ry
     smearing contrib. (-TS)   =      -0.02282886 Ry
     internal energy E=F+TS    =   -2966.31925005 Ry

     The total energy is F=E-TS. E is the sum of the following terms:
     one-electron contribution =  -24405.18620447 Ry
     hartree contribution      =   12294.56510004 Ry
     xc contribution           =    -490.96409795 Ry
     ewald contribution        =    9635.26427029 Ry
     electric field correction =       0.00168204 Ry

     convergence has been achieved in  57 iterations

     Forces acting on atoms (cartesian axes, Ry/au):

     atom    1 type  1   force =     0.00017808   -0.00146128    0.10509537
     atom    2 type  1   force =     0.00007273    0.00125536   -0.17890739
     atom    3 type  2   force =    -0.00001265   -0.00501304   -0.03281308
     atom    4 type  2   force =    -0.00058273    0.00074538    0.04593718
     atom    5 type  2   force =    -0.01792519   -0.00053181    0.00427457
     atom    6 type  2   force =     0.01743039    0.00073772    0.00346871
     atom    7 type  1   force =    -0.00005864   -0.00058676   -0.00005929
     atom    8 type  1   force =    -0.00037629   -0.00057491    0.00044183
     atom    9 type  2   force =     0.00014740   -0.00028766   -0.00003176
     atom   10 type  2   force =     0.00022953   -0.00002347    0.00050999
     atom   11 type  2   force =    -0.00000480   -0.00010052   -0.00006447
     atom   12 type  2   force =    -0.00013328   -0.00028912   -0.00026465
     atom   13 type  1   force =     0.00055891   -0.00058013   -0.00137250
     atom   14 type  1   force =     0.00001723   -0.00045567    0.00036338
     atom   15 type  2   force =    -0.00007868   -0.00037373    0.00015638
     atom   16 type  2   force =     0.00004513   -0.00064181   -0.00007492
     atom   17 type  2   force =    -0.00029063   -0.00014429   -0.00046474
     atom   18 type  2   force =     0.00050709   -0.00045901    0.00000449
     atom   19 type  1   force =     0.00009274    0.00050581    0.00034908
     atom   20 type  1   force =     0.00002176   -0.00114759    0.00050388
     atom   21 type  2   force =     0.00007085    0.00010840    0.10393767
     atom   22 type  2   force =    -0.00032690   -0.00024601   -0.00024551
     atom   23 type  2   force =    -0.06945745    0.00050895   -0.02943583
     atom   24 type  2   force =     0.06948817    0.00087615   -0.02946537
     atom   25 type  1   force =     0.00028151    0.00145430    0.11394606
     atom   26 type  1   force =    -0.00005963   -0.00044438   -0.17907144
     atom   27 type  2   force =    -0.00013514    0.00370869   -0.02687822
     atom   28 type  2   force =    -0.00026884    0.00101977    0.04787750
     atom   29 type  2   force =    -0.01573695    0.00042108    0.00351467
     atom   30 type  2   force =     0.01711592    0.00264529    0.00289424
     atom   31 type  1   force =     0.00037093    0.00004494   -0.00018183
     atom   32 type  1   force =    -0.00066885    0.00012907    0.00028024
     atom   33 type  2   force =     0.00025060   -0.00040199    0.00017031
     atom   34 type  2   force =     0.00006776   -0.00006145   -0.00008683
     atom   35 type  2   force =     0.00011541   -0.00018823    0.00021887
     atom   36 type  2   force =     0.00018931    0.00016740    0.00015051
     atom   37 type  1   force =     0.00033678    0.00077809   -0.00026508
     atom   38 type  1   force =    -0.00009511   -0.00053731    0.00003254
     atom   39 type  2   force =    -0.00050655    0.00024890    0.00044240
     atom   40 type  2   force =     0.00025442   -0.00064035   -0.00014977
     atom   41 type  2   force =     0.00015336   -0.00001622   -0.00021374
     atom   42 type  2   force =    -0.00033535   -0.00033695   -0.00042097
     atom   43 type  1   force =    -0.00010748   -0.00025577    0.00001986
     atom   44 type  1   force =     0.00028558    0.00053198    0.00015745
     atom   45 type  2   force =     0.00007914    0.00008424    0.10396509
     atom   46 type  2   force =    -0.06915698   -0.00106463   -0.02945399
     atom   47 type  2   force =     0.06913361   -0.00060053   -0.02952944
     atom   48 type  3   force =    -0.01865461    0.00022584   -0.00105396
     atom   49 type  2   force =     0.00241422    0.00038787   -0.00176904
     atom   50 type  4   force =     0.01056209   -0.00076197    0.00162452
     atom   51 type  4   force =     0.00212135   -0.00107341    0.00048225
     atom   52 type  4   force =     0.00299391    0.00239374    0.00159067
     atom   53 type  2   force =     0.00075068    0.00111290    0.00045642
     atom   54 type  4   force =    -0.00019776   -0.00086051   -0.00060067
     atom   55 type  4   force =    -0.00116611    0.00006864    0.00000836

     Total force =     0.374691     Total SCF correction =     0.000894
  @ DRIVER MODE: Message from server: STATUS
  @ DRIVER MODE: Message from server: GETFORCE
  @ DRIVER MODE: Returning v,forces,stress,ensemble

     Writing output data file ./calc.save/
  @ DRIVER MODE: Message from server: EXIT
  @ DRIVE MODE: Exiting

     General routines

     Parallel routines

   This run was terminated on:  17: 2: 5  25Sep2021

   JOB DONE.