     Program PWSCF v.6.7GPU starts on 24Aug2021 at 10:57: 0

     R & G space division:  proc/nbgrp/npool/nimage =       6
     Reading input from /storage/home/hcoda1/3/ntian30/research/carbon/CH2_vib/ads_slab/CH2NNHH_a/out_0030/pw.inp
Warning: card &CELL ignored
Warning: card   CELL_DYNAMICS='IPI', ignored
Warning: card / ignored

     Current dimensions of program PWSCF are:
     Max number of different atomic species (ntypx) = 10
     Max number of k-points (npk) =  40000
     Max angular momentum in pseudopotentials (lmaxx) =  3
     Presently no symmetry can be used with electric field

     Message from routine cell_base_init:
     DEPRECATED: use true lattice parameter, not A to a.u. conversion factor

     IMPORTANT: XC functional enforced from input :
     Exchange-correlation= BEEF-VDW
                           (   1   4  43  14   2   0   0)
     Any further DFT definition will be discarded
     Please, verify this is what you really want

  @ DRIVER MODE: Connecting to
 qe_1139763_2632807.sched-torque.pace.gatech.edun2md3bag_scratch
  using UNIX socket
  @ DRIVER MODE: Message from server: STATUS
  @ DRIVER MODE: Message from server: INIT
  @ DRIVER MODE: Receiving replica           0          -1
  @ DRIVER MODE: Receiving encoded integer          25
  @ DRIVER MODE:  SCF:  T  FORCE:  T  STRESS:  F  VC:  F  ENSEMBLE:  F
  @ DRIVER MODE:  SCF:  T  FORCE:  T  STRESS:  F  VC:  F  ENSEMBLE:  F

     Using Slab Decomposition

     bravais-lattice index     =            0
     lattice parameter (alat)  =       1.8897  a.u.
     unit-cell volume          =    6658.9804 (a.u.)^3
     number of atoms/cell      =           54
     number of atomic types    =            5
     number of electrons       =       396.00
     number of Kohn-Sham states=          208
     kinetic-energy cutoff     =      29.3995  Ry
     charge density cutoff     =     293.9946  Ry
     scf convergence threshold =      7.3E-08
     mixing beta               =       0.0500
     number of iterations used =            8  plain     mixing
     Exchange-correlation= BEEF-VDW
                           (   1   4  43  14   2   0   0)

     celldm(1)=   1.889726  celldm(2)=   0.000000  celldm(3)=   0.000000
     celldm(4)=   0.000000  celldm(5)=   0.000000  celldm(6)=   0.000000

     crystal axes: (cart. coord. in units of alat)
               a(1) = (   6.579727   0.000000   0.000000 )
               a(2) = (  -0.000775   5.961596   0.000000 )
               a(3) = (   0.000000   0.000000  25.155947 )

     reciprocal axes: (cart. coord. in units 2 pi/alat)
               b(1) = (  0.151982  0.000020  0.000000 )
               b(2) = (  0.000000  0.167740  0.000000 )
               b(3) = (  0.000000  0.000000  0.039752 )

     PseudoPot. # 1 for Ti read from file:
     /storage/coda1/p-amedford6/0/shared/rich_project_chbe-medford/medford-share/data/pseudos_module/espresso/nninc/pbe/van/Ti.UPF
     MD5 check sum: 8e4df49b7f0d34bbd5052bf3f5ea0213
     Pseudo is Ultrasoft, Zval = 12.0
     Generated by new atomic code, or converted to UPF format
     Using radial grid of  851 points,  6 beta functions with:
                l(1) =   0
                l(2) =   0
                l(3) =   1
                l(4) =   1
                l(5) =   2
                l(6) =   2
     Q(r) pseudized with  8 coefficients,  rinner =    1.000   1.000   1.000
                                                       1.000   1.000

     PseudoPot. # 2 for O  read from file:
     /storage/coda1/p-amedford6/0/shared/rich_project_chbe-medford/medford-share/data/pseudos_module/espresso/nninc/pbe/van/O.UPF
     MD5 check sum: 78c19812648e8988a0fe644b0f25305e
     Pseudo is Ultrasoft, Zval =  6.0
     Generated by new atomic code, or converted to UPF format
     Using radial grid of  737 points,  4 beta functions with:
                l(1) =   0
                l(2) =   0
                l(3) =   1
                l(4) =   1
     Q(r) pseudized with  8 coefficients,  rinner =    0.800   0.800   0.800

     PseudoPot. # 3 for N  read from file:
     /storage/coda1/p-amedford6/0/shared/rich_project_chbe-medford/medford-share/data/pseudos_module/espresso/nninc/pbe/van/N.UPF
     MD5 check sum: 90d10febe142ad51ac9d5be1deb811c4
     Pseudo is Ultrasoft, Zval =  5.0
     Generated by new atomic code, or converted to UPF format
     Using radial grid of  729 points,  4 beta functions with:
                l(1) =   0
                l(2) =   0
                l(3) =   1
                l(4) =   1
     Q(r) pseudized with  8 coefficients,  rinner =    0.800   0.800   0.800

     PseudoPot. # 4 for C  read from file:
     /storage/coda1/p-amedford6/0/shared/rich_project_chbe-medford/medford-share/data/pseudos_module/espresso/nninc/pbe/van/C.UPF
     MD5 check sum: 1a69bf6b8db32088f5b2163dbdb77a27
     Pseudo is Ultrasoft, Zval =  4.0
     Generated by new atomic code, or converted to UPF format
     Using radial grid of  721 points,  4 beta functions with:
                l(1) =   0
                l(2) =   0
                l(3) =   1
                l(4) =   1
     Q(r) pseudized with  8 coefficients,  rinner =    0.800   0.800   0.800

     PseudoPot. # 5 for H  read from file:
     /storage/coda1/p-amedford6/0/shared/rich_project_chbe-medford/medford-share/data/pseudos_module/espresso/nninc/pbe/van/H.UPF
     MD5 check sum: b5ee9d7bfd3a09ee7748110bda690ff7
     Pseudo is Ultrasoft, Zval =  1.0
     Generated by new atomic code, or converted to UPF format
     Using radial grid of  615 points,  1 beta functions with:
                l(1) =   0
     Q(r) pseudized with  8 coefficients,  rinner =    0.800

     atomic species   valence    mass     pseudopotential
        Ti1           12.00    47.86700     Ti( 1.00)
        O1             6.00    15.99900     O ( 1.00)
        N1             5.00    14.00700     N ( 1.00)
        C1             4.00    12.01100     C ( 1.00)
        H1             1.00     1.00800     H ( 1.00)

     No symmetry found

   Cartesian axes

     site n.     atom                  positions (alat units)
         1           Ti1 tau(   1) = (   0.0004258   2.9801865   6.0000000  )
         2           Ti1 tau(   2) = (   3.2906075   1.4906267   6.0002472  )
         3           O1  tau(   3) = (   0.0006271   0.0005054   7.9858123  )
         4           O1  tau(   4) = (   3.2906025   0.0005020   7.3038282  )
         5           O1  tau(   5) = (   4.5942328   1.4918067   9.2879030  )
         6           O1  tau(   6) = (   1.9868534   1.4903216   9.2879459  )
         7           Ti1 tau(   7) = (   3.2907910   2.8959150   9.1758416  )
         8           Ti1 tau(   8) = (   0.0015273   1.4827037   9.2680791  )
         9           O1  tau(   9) = (   3.2741875   5.9357071  11.3735532  )
        10           O1  tau(  10) = (   0.0116148   5.9584955  10.6183126  )
        11           O1  tau(  11) = (   1.2759687   1.4857368  12.6615302  )
        12           O1  tau(  12) = (   5.2764777   1.4850508  12.6403612  )
        13           Ti1 tau(  13) = (   6.5724762   2.9646551  12.5117882  )
        14           Ti1 tau(  14) = (   3.2886223   1.4652571  12.5194246  )
        15           O1  tau(  15) = (   6.5416971   0.0664024  14.6986244  )
        16           O1  tau(  16) = (   3.2828258   5.9593040  13.9967703  )
        17           O1  tau(  17) = (   4.5136565   1.4796660  16.2299008  )
        18           O1  tau(  18) = (   2.0038615   1.4742267  16.2123189  )
        19           Ti1 tau(  19) = (   3.2480181   2.9445974  15.7466143  )
        20           Ti1 tau(  20) = (   6.5118905   1.3801257  16.1190456  )
        21           O1  tau(  21) = (   3.2904802   0.0005063   4.7018136  )
        22           O1  tau(  22) = (   6.5538845   5.8109167  17.2256470  )
        23           O1  tau(  23) = (   1.3043587   1.4918075   6.0039043  )
        24           O1  tau(  24) = (   5.2767064   1.4903225   6.0039473  )
        25           Ti1 tau(  25) = (   0.0000382   5.9609847   6.0000000  )
        26           Ti1 tau(  26) = (   3.2902200   4.4714249   6.0002472  )
        27           O1  tau(  27) = (   0.0002396   2.9813036   7.9858123  )
        28           O1  tau(  28) = (   3.2902150   2.9813002   7.3038282  )
        29           O1  tau(  29) = (   4.5938453   4.4726049   9.2879030  )
        30           O1  tau(  30) = (   1.9864658   4.4711199   9.2879459  )
        31           Ti1 tau(  31) = (   3.2891106   5.8743827   9.1763621  )
        32           Ti1 tau(  32) = (   0.0006254   4.4649316   9.2693709  )
        33           O1  tau(  33) = (   3.2754078   2.9701464  11.3677572  )
        34           O1  tau(  34) = (   0.0092240   2.9805883  10.6323155  )
        35           O1  tau(  35) = (   1.2711598   4.4556272  12.7031535  )
        36           O1  tau(  36) = (   5.2783420   4.4558858  12.6781970  )
        37           Ti1 tau(  37) = (   0.0002938   5.9583472  12.5066983  )
        38           Ti1 tau(  38) = (   3.2916940   4.4447674  12.5292973  )
        39           O1  tau(  39) = (   6.5347695   2.9176514  14.9891124  )
        40           O1  tau(  40) = (   3.2818703   2.9467213  13.9608579  )
        41           O1  tau(  41) = (   4.5039121   4.4250859  16.1805084  )
        42           O1  tau(  42) = (   2.0002864   4.4376668  16.1101511  )
        43           Ti1 tau(  43) = (   3.2613398   5.9375382  15.7939200  )
        44           Ti1 tau(  44) = (   0.0097882   4.6113729  15.8292928  )
        45           O1  tau(  45) = (   3.2900926   2.9813045   4.7018136  )
        46           O1  tau(  46) = (   1.3039711   4.4726057   6.0039043  )
        47           O1  tau(  47) = (   5.2763189   4.4711207   6.0039473  )
        48           N1  tau(  48) = (   6.5527080   2.6566917  18.2311642  )
        49           C1  tau(  49) = (   0.9950107   2.5313988  18.9921798  )
        50           H1  tau(  50) = (   0.9966315   2.9146593  20.0110098  )
        51           H1  tau(  51) = (   1.8622571   2.0164067  18.6108951  )
        52           N1  tau(  52) = (   5.4094651   3.2293427  18.7644413  )
        53           H1  tau(  53) = (   5.6216840   3.8708726  19.5154782  )
        54           H1  tau(  54) = (   4.9168071   3.7283298  18.0160565  )

     number of k points=    10  Fermi-Dirac smearing, width (Ry)=  0.0073
                       cart. coord. in units 2pi/alat
        k(    1) = (   0.0000000   0.0000000   0.0000000), wk =   0.1250000
        k(    2) = (   0.0000000   0.0419351   0.0000000), wk =   0.2500000
        k(    3) = (   0.0000000  -0.0838702   0.0000000), wk =   0.1250000
        k(    4) = (   0.0379955   0.0000049   0.0000000), wk =   0.2500000
        k(    5) = (   0.0379955   0.0419400   0.0000000), wk =   0.2500000
        k(    6) = (   0.0379955  -0.0838652   0.0000000), wk =   0.2500000
        k(    7) = (   0.0379955  -0.0419301   0.0000000), wk =   0.2500000
        k(    8) = (  -0.0759910  -0.0000099   0.0000000), wk =   0.1250000
        k(    9) = (  -0.0759910   0.0419252   0.0000000), wk =   0.2500000
        k(   10) = (  -0.0759910  -0.0838800   0.0000000), wk =   0.1250000

     Initial potential from superposition of free atoms

     starting charge  379.99915, renormalised to  396.00000

     negative rho (up, down):  1.580E-02 0.000E+00

     %%%%%%%%%%%%%%%%%%%%%%%%%%%%%%%%%%%%%%%%%%%%%%%%%%%%%%%%%%%%%%%%%%%%%%%%
     %                                                                      %
     % You are using vdW-DF, which was implemented by the Thonhauser group. %
     % Please cite the following two papers that made this development      %
     % possible and the two reviews that describe the various versions:     %
     %                                                                      %
     %   T. Thonhauser et al., PRL 115, 136402 (2015).                      %
     %   T. Thonhauser et al., PRB 76, 125112 (2007).                       %
     %   K. Berland et al., Rep. Prog. Phys. 78, 066501 (2015).             %
     %   D.C. Langreth et al., J. Phys.: Condens. Matter 21, 084203 (2009). %
     %                                                                      %
     %                                                                      %
     % If you are calculating the stress with vdW-DF, please also cite:     %
     %                                                                      %
     %   R. Sabatini et al., J. Phys.: Condens. Matter 24, 424209 (2012).   %
     %                                                                      %
     %%%%%%%%%%%%%%%%%%%%%%%%%%%%%%%%%%%%%%%%%%%%%%%%%%%%%%%%%%%%%%%%%%%%%%%%

     Adding external electric field

     Computed dipole along edir(3) :
        Dipole               -9.9838 Ry au,        -25.3762 Debye
        Dipole field         -0.0188 Ry au,

        Potential amp.        1.7465 Ry
        Total length         46.3494 bohr

     Starting wfcs are  300 atomic wfcs
  @ DRIVER MODE: Message from server: STATUS
  @ DRIVER MODE: Message from server: POSDATA
  @ DRIVER MODE: Reading and sharing cell
  @ DRIVER MODE: Reading and sharing positions
  @ DRIVER MODE: Received positions

     Self-consistent Calculation

     iteration #  1     ecut=    29.40 Ry     beta= 0.05
     Davidson diagonalization with overlap
     c_bands:  1 eigenvalues not converged
     c_bands:  2 eigenvalues not converged
     c_bands:  2 eigenvalues not converged
     c_bands:  1 eigenvalues not converged
     c_bands:  3 eigenvalues not converged
     c_bands:  2 eigenvalues not converged
     c_bands:  3 eigenvalues not converged
     c_bands:  2 eigenvalues not converged
     c_bands:  1 eigenvalues not converged
     c_bands:  1 eigenvalues not converged
     ethr =  1.00E-05,  avg # of iterations = 20.0

[...]

     total energy              =   -2515.78029239 Ry
     estimated scf accuracy    <    4741.43989285 Ry

     iteration #  2     ecut=    29.40 Ry     beta= 0.05
     Davidson diagonalization with overlap
     ethr =  1.00E-02,  avg # of iterations = 23.8

[...]

     iteration # 71     ecut=    29.40 Ry     beta= 0.05
     Davidson diagonalization with overlap
     c_bands:  1 eigenvalues not converged
     ethr =  7.58E-11,  avg # of iterations = 13.1

[...]

     total energy              =   -2940.36648571 Ry
     estimated scf accuracy    <       0.00000009 Ry

     iteration # 74     ecut=    29.40 Ry     beta= 0.05
     Davidson diagonalization with overlap
     ethr =  2.37E-11,  avg # of iterations =  9.6

     negative rho (up, down):  1.643E-02 0.000E+00

     Adding external electric field

     Computed dipole along edir(3) :
        Dipole                1.2610 Ry au,          3.2051 Debye
        Dipole field          0.0024 Ry au,

        Potential amp.       -0.2206 Ry
        Total length         46.3494 bohr

     End of self-consistent calculation

          k = 0.0000 0.0000 0.0000 ( 18029 PWs)   bands (ev):

   -55.4202 -55.3834 -55.3721 -55.3380 -55.2992 -55.2956 -55.2899 -55.2647
   -55.2382 -55.2217 -55.2038 -55.2033 -55.1698 -55.0526 -54.3998 -54.3658
   -31.9892 -31.8645 -31.8215 -31.7874 -31.7335 -31.7278 -31.7228 -31.7089
   -31.6612 -31.6537 -31.6303 -31.6292 -31.6170 -31.5903 -31.5752 -31.5701
   -31.5578 -31.5569 -31.5357 -31.5301 -31.5245 -31.5143 -31.4859 -31.4766
   -31.4688 -31.4662 -31.4406 -31.4301 -31.4292 -31.4228 -31.4209 -31.4020
   -31.4011 -31.3959 -31.3886 -31.3862 -31.3522 -31.3388 -31.3316 -31.3146
   -31.2742 -31.2171 -30.8091 -30.7152 -30.6931 -30.6255 -30.5388 -30.4278
   -18.5614 -16.2518 -15.9831 -15.8405 -15.7162 -15.6174 -15.4927 -15.4706
   -15.3431 -15.2583 -15.1448 -15.1001 -15.0888 -15.0857 -15.0526 -15.0256
   -14.9617 -14.9571 -14.9392 -14.9131 -14.9024 -14.8593 -14.8561 -14.8148
   -14.7942 -14.7914 -14.6656 -14.5769 -14.5066 -14.1827 -13.6643 -12.9026
   -12.7852  -8.7465  -6.4528  -6.0498  -3.9772  -3.5927  -3.4367  -3.3774
    -3.3385  -3.3121  -3.1875  -3.1621  -3.0249  -2.8282  -2.7794  -2.6894
    -2.6275  -2.6191  -2.6000  -2.4193  -2.4114  -2.3549  -2.3047  -2.2628
    -2.2409  -2.2266  -2.2075  -2.1821  -2.1715  -2.1613  -1.9880  -1.9719
    -1.9013  -1.8277  -1.8176  -1.7674  -1.7467  -1.7166  -1.7080  -1.6999
    -1.6546  -1.6349  -1.6049  -1.5580  -1.4314  -1.3401  -1.3111  -1.2301
    -1.1063  -1.0556  -1.0034  -1.0001  -0.9074  -0.9034  -0.8826  -0.7976
    -0.7642  -0.7148  -0.6422  -0.5736  -0.5170  -0.4586  -0.4111  -0.4010
    -0.3459  -0.2291  -0.2035  -0.1847  -0.1626  -0.0421  -0.0233   0.0170
     0.0913   0.1215   0.1223   0.2390   0.2648   0.3230   0.3278   0.4039
     0.4648   0.5094   0.5184   0.5372   0.5664   0.5695   0.6442   0.6572
     0.6874   0.7577   0.8255   0.9159   1.1459   1.1817   1.1945   1.5277
     1.5295   1.6228   1.8065   2.1986   2.2467   3.6790   3.7490   3.8236
     3.8298   3.8482   3.9165   4.1531   4.1712   4.1793   4.1847   4.2277

[...]

          k = 0.0380-0.0419 0.0000 ( 17876 PWs)   bands (ev):

[...]

          k =-0.0760-0.0000 0.0000 ( 17886 PWs)   bands (ev):

[...]

          k =-0.0760-0.0839 0.0000 ( 17948 PWs)   bands (ev):

   -55.4055 -55.3979 -55.3552 -55.3548 -55.2904 -55.2895 -55.2837 -55.2801
   -55.2259 -55.2225 -55.2188 -55.1870 -55.1864 -55.0539 -54.3827 -54.3827
   -31.7955 -31.7900 -31.7488 -31.6962 -31.6825 -31.6798 -31.6795 -31.6466
   -31.6463 -31.6302 -31.6212 -31.6165 -31.6119 -31.5652 -31.5578 -31.5557
   -31.5532 -31.5515 -31.5460 -31.5407 -31.5257 -31.5127 -31.4960 -31.4956
   -31.4916 -31.4773 -31.4759 -31.4748 -31.4743 -31.4724 -31.4558 -31.4517
   -31.4453 -31.4356 -31.4323 -31.4173 -31.4162 -31.4127 -31.3675 -31.3673
   -31.2953 -31.2778 -30.7058 -30.7057 -30.6217 -30.6216 -30.5822 -30.5821
   -18.5589 -15.7138 -15.6810 -15.6236 -15.4433 -15.4156 -15.4089 -15.3897
   -15.2594 -15.2427 -15.2118 -15.1827 -15.1517 -15.1265 -15.1223 -15.1043
   -15.0344 -15.0235 -15.0154 -14.9978 -14.9326 -14.9286 -14.9198 -14.9150
   -14.8682 -14.8655 -14.7702 -14.7687 -14.6677 -14.5515 -13.6700 -12.8867
   -12.8866  -8.7289  -6.4244  -6.0644  -3.9863  -3.2436  -2.9470  -2.8805
    -2.8517  -2.6551  -2.6314  -2.5888  -2.5333  -2.4533  -2.4273  -2.4205
    -2.4117  -2.3403  -2.3292  -2.2794  -2.2704  -2.2515  -2.2360  -2.2254
    -2.1959  -2.1701  -2.1462  -2.1373  -2.1258  -2.0720  -2.0615  -2.0439
    -2.0134  -1.9937  -1.9845  -1.9680  -1.8685  -1.7843  -1.7545  -1.7280
    -1.6237  -1.6194  -1.5402  -1.5244  -1.4934  -1.4511  -1.4381  -1.4187
    -1.2354  -1.2091  -1.1744  -1.1619  -1.1534  -1.0138  -1.0004  -0.9441
    -0.9034  -0.8972  -0.7884  -0.7651  -0.7392  -0.6639  -0.6272  -0.5939
    -0.5434  -0.4374  -0.4191  -0.4083  -0.3752  -0.3712  -0.3151  -0.3031
    -0.2278  -0.1858  -0.1529  -0.1390  -0.0960   0.0919   0.1155   0.1304
     0.2735   0.3292   0.4228   0.5227   0.5328   0.5885   0.6273   0.6936
     0.7547   0.8165   0.8682   0.8894   0.8905   0.9692   0.9869   1.0403
     1.0422   1.9796   1.9803   2.0666   2.0669   3.8217   3.9299   3.9415
     3.9819   4.0635   4.1223   4.1953   4.2237   4.2626   4.2649   4.3318

     the Fermi energy is     3.7409 ev

!    total energy              =   -2940.36649943 Ry
     estimated scf accuracy    <       0.00000006 Ry
     smearing contrib. (-TS)   =      -0.03728833 Ry
     internal energy E=F+TS    =   -2940.32921110 Ry

     The total energy is F=E-TS. E is the sum of the following terms:
     one-electron contribution =  -23756.56547661 Ry
     hartree contribution      =   11969.60220914 Ry
     xc contribution           =    -486.11368389 Ry
     ewald contribution        =    9332.74473952 Ry
     electric field correction =       0.00300073 Ry

     convergence has been achieved in  74 iterations

     Forces acting on atoms (cartesian axes, Ry/au):

     atom    1 type  1   force =     0.00006909   -0.00013597    0.09326661
     atom    2 type  1   force =    -0.00004809   -0.00025412   -0.17806935
     atom    3 type  2   force =     0.00002129   -0.00015667   -0.02024887
     atom    4 type  2   force =     0.00000929   -0.00195789    0.05850303
     atom    5 type  2   force =    -0.01065290   -0.00127261    0.00870318
     atom    6 type  2   force =     0.01174945   -0.00061717    0.00682368
     atom    7 type  1   force =    -0.00091798    0.00298252   -0.01441831
     atom    8 type  1   force =     0.00063787   -0.00050418   -0.00370440
     atom    9 type  2   force =     0.00014444    0.00010576    0.00008710
     atom   10 type  2   force =    -0.00209616   -0.00121527    0.00062738
     atom   11 type  2   force =     0.00007530    0.00022000   -0.00013002
     atom   12 type  2   force =     0.00057660    0.00029035   -0.00007956
     atom   13 type  1   force =    -0.00013948    0.00029119    0.00013118
     atom   14 type  1   force =     0.00013111    0.00046260   -0.00040004
     atom   15 type  2   force =     0.00000950    0.00047512   -0.00007580
     atom   16 type  2   force =     0.00042344    0.00016774   -0.00032801
     atom   17 type  2   force =     0.00022847   -0.00035288   -0.00040782
     atom   18 type  2   force =     0.00015561   -0.00051708    0.00008918
     atom   19 type  1   force =    -0.00090192   -0.00012413    0.00032091
     atom   20 type  1   force =     0.00005280   -0.00006509   -0.00015689
     atom   21 type  2   force =     0.00009824    0.00000507    0.10394070
     atom   22 type  2   force =    -0.00018377    0.00009128    0.00014423
     atom   23 type  2   force =    -0.07042809   -0.00011729   -0.02690280
     atom   24 type  2   force =     0.07036019    0.00033812   -0.02694145
     atom   25 type  1   force =     0.00008295   -0.00022054    0.09281551
     atom   26 type  1   force =    -0.00004610   -0.00035134   -0.17803283
     atom   27 type  2   force =     0.00011143   -0.00036581   -0.01930704
     atom   28 type  2   force =     0.00004225   -0.00165212    0.05792330
     atom   29 type  2   force =    -0.01064012   -0.00127518    0.00802811
     atom   30 type  2   force =     0.01164517   -0.00088165    0.00608791
     atom   31 type  1   force =    -0.00089754    0.00489653   -0.01541830
     atom   32 type  1   force =     0.00083218    0.00019497   -0.00390376
     atom   33 type  2   force =     0.00010495    0.00046451    0.00021380
     atom   34 type  2   force =    -0.00177314    0.00109415    0.00067874
     atom   35 type  2   force =     0.00031022    0.00006796    0.00007075
     atom   36 type  2   force =     0.00026813   -0.00024591    0.00018327
     atom   37 type  1   force =    -0.00034837    0.00002196   -0.00006579
     atom   38 type  1   force =    -0.00024738    0.00050377   -0.00016111
     atom   39 type  2   force =     0.00050535   -0.00071791   -0.00010115
     atom   40 type  2   force =    -0.00015597    0.00007446   -0.00001676
     atom   41 type  2   force =     0.00023264   -0.00023011    0.00000793
     atom   42 type  2   force =     0.00019189    0.00010528   -0.00005856
     atom   43 type  1   force =    -0.00025272   -0.00007892    0.00021150
     atom   44 type  1   force =     0.00010877    0.00000860   -0.00003936
     atom   45 type  2   force =     0.00010720   -0.00003214    0.10392333
     atom   46 type  2   force =    -0.07043470   -0.00005673   -0.02690162
     atom   47 type  2   force =     0.07038660    0.00036830   -0.02690642
     atom   48 type  3   force =    -0.00202303    0.00134053    0.00402670
     atom   49 type  4   force =     0.00192685   -0.00069799   -0.00045436
     atom   50 type  5   force =     0.00060414   -0.00040003    0.00038598
     atom   51 type  5   force =    -0.00012325    0.00009252   -0.00040139
     atom   52 type  3   force =    -0.00693898   -0.00294242   -0.02232464
     atom   53 type  5   force =     0.00350672    0.00720641    0.00969735
     atom   54 type  5   force =     0.00353958   -0.00443056    0.00906503

     Total force =     0.367047     Total SCF correction =     0.000716
  @ DRIVER MODE: Message from server: STATUS
  @ DRIVER MODE: Message from server: GETFORCE
  @ DRIVER MODE: Returning v,forces,stress,ensemble

     Writing output data file ./calc.save/
  @ DRIVER MODE: Message from server: EXIT
  @ DRIVE MODE: Exiting

     General routines

     Parallel routines

   This run was terminated on:  11:28: 6  24Aug2021

   JOB DONE.