     Program PWSCF v.6.7GPU starts on  2Aug2021 at 23:24: 5

     R & G space division:  proc/nbgrp/npool/nimage =      16
     Reading input from /storage/home/hcoda1/3/ntian30/research/carbon/02Aug_vib_paired/ads_slab/CH3NH3_a/out_0036/pw.inp
Warning: card &CELL ignored
Warning: card   CELL_DYNAMICS='IPI', ignored
Warning: card / ignored

     Current dimensions of program PWSCF are:
     Max number of different atomic species (ntypx) = 10
     Max number of k-points (npk) =  40000
     Max angular momentum in pseudopotentials (lmaxx) =  3
     Presently no symmetry can be used with electric field

     Message from routine cell_base_init:
     DEPRECATED: use true lattice parameter, not A to a.u. conversion factor

     IMPORTANT: XC functional enforced from input :
     Exchange-correlation= BEEF-VDW
                           (   1   4  43  14   2   0   0)
     Any further DFT definition will be discarded
     Please, verify this is what you really want

  @ DRIVER MODE: Connecting to
 qe_1139763_2482539.sched-torque.pace.gatech.edurjnx7u0y_scratch
  using UNIX socket
  @ DRIVER MODE: Message from server: STATUS
  @ DRIVER MODE: Message from server: INIT
  @ DRIVER MODE: Receiving replica           0          -1
  @ DRIVER MODE: Receiving encoded integer          25
  @ DRIVER MODE:  SCF:  T  FORCE:  T  STRESS:  F  VC:  F  ENSEMBLE:  F
  @ DRIVER MODE:  SCF:  T  FORCE:  T  STRESS:  F  VC:  F  ENSEMBLE:  F

     Using Slab Decomposition

     bravais-lattice index     =            0
     lattice parameter (alat)  =       1.8897  a.u.
     unit-cell volume          =    6658.9804 (a.u.)^3
     number of atoms/cell      =           55
     number of atomic types    =            5
     number of electrons       =       393.00
     number of Kohn-Sham states=          206
     kinetic-energy cutoff     =      29.3995  Ry
     charge density cutoff     =     293.9946  Ry
     scf convergence threshold =      7.3E-08
     mixing beta               =       0.0500
     number of iterations used =            8  plain     mixing
     Exchange-correlation= BEEF-VDW
                           (   1   4  43  14   2   0   0)

     celldm(1)=   1.889726  celldm(2)=   0.000000  celldm(3)=   0.000000
     celldm(4)=   0.000000  celldm(5)=   0.000000  celldm(6)=   0.000000

     crystal axes: (cart. coord. in units of alat)
               a(1) = (   6.579727   0.000000   0.000000 )
               a(2) = (  -0.000775   5.961596   0.000000 )
               a(3) = (   0.000000   0.000000  25.155947 )

     reciprocal axes: (cart. coord. in units 2 pi/alat)
               b(1) = (  0.151982  0.000020  0.000000 )
               b(2) = (  0.000000  0.167740  0.000000 )
               b(3) = (  0.000000  0.000000  0.039752 )

     PseudoPot. # 1 for Ti read from file:
     /storage/coda1/p-amedford6/0/shared/rich_project_chbe-medford/medford-share/data/pseudos_module/espresso/nninc/pbe/van/Ti.UPF
     MD5 check sum: 8e4df49b7f0d34bbd5052bf3f5ea0213
     Pseudo is Ultrasoft, Zval = 12.0
     Generated by new atomic code, or converted to UPF format
     Using radial grid of  851 points,  6 beta functions with:
                l(1) =   0
                l(2) =   0
                l(3) =   1
                l(4) =   1
                l(5) =   2
                l(6) =   2
     Q(r) pseudized with  8 coefficients,  rinner =    1.000   1.000   1.000
                                                       1.000   1.000

     PseudoPot. # 2 for O  read from file:
     /storage/coda1/p-amedford6/0/shared/rich_project_chbe-medford/medford-share/data/pseudos_module/espresso/nninc/pbe/van/O.UPF
     MD5 check sum: 78c19812648e8988a0fe644b0f25305e
     Pseudo is Ultrasoft, Zval =  6.0
     Generated by new atomic code, or converted to UPF format
     Using radial grid of  737 points,  4 beta functions with:
                l(1) =   0
                l(2) =   0
                l(3) =   1
                l(4) =   1
     Q(r) pseudized with  8 coefficients,  rinner =    0.800   0.800   0.800

     PseudoPot. # 3 for C  read from file:
     /storage/coda1/p-amedford6/0/shared/rich_project_chbe-medford/medford-share/data/pseudos_module/espresso/nninc/pbe/van/C.UPF
     MD5 check sum: 1a69bf6b8db32088f5b2163dbdb77a27
     Pseudo is Ultrasoft, Zval =  4.0
     Generated by new atomic code, or converted to UPF format
     Using radial grid of  721 points,  4 beta functions with:
                l(1) =   0
                l(2) =   0
                l(3) =   1
                l(4) =   1
     Q(r) pseudized with  8 coefficients,  rinner =    0.800   0.800   0.800

     PseudoPot. # 4 for H  read from file:
     /storage/coda1/p-amedford6/0/shared/rich_project_chbe-medford/medford-share/data/pseudos_module/espresso/nninc/pbe/van/H.UPF
     MD5 check sum: b5ee9d7bfd3a09ee7748110bda690ff7
     Pseudo is Ultrasoft, Zval =  1.0
     Generated by new atomic code, or converted to UPF format
     Using radial grid of  615 points,  1 beta functions with:
                l(1) =   0
     Q(r) pseudized with  8 coefficients,  rinner =    0.800

     PseudoPot. # 5 for N  read from file:
     /storage/coda1/p-amedford6/0/shared/rich_project_chbe-medford/medford-share/data/pseudos_module/espresso/nninc/pbe/van/N.UPF
     MD5 check sum: 90d10febe142ad51ac9d5be1deb811c4
     Pseudo is Ultrasoft, Zval =  5.0
     Generated by new atomic code, or converted to UPF format
     Using radial grid of  729 points,  4 beta functions with:
                l(1) =   0
                l(2) =   0
                l(3) =   1
                l(4) =   1
     Q(r) pseudized with  8 coefficients,  rinner =    0.800   0.800   0.800

     atomic species   valence    mass     pseudopotential
        Ti1           12.00    47.86700     Ti( 1.00)
        O1             6.00    15.99900     O ( 1.00)
        C1             4.00    12.01100     C ( 1.00)
        H1             1.00     1.00800     H ( 1.00)
        N1             5.00    14.00700     N ( 1.00)

     No symmetry found

   Cartesian axes

     site n.     atom                  positions (alat units)
         1           Ti1 tau(   1) = (   0.0004258   2.9801865   6.0000000  )
         2           Ti1 tau(   2) = (   3.2906075   1.4906267   6.0002472  )
         3           O1  tau(   3) = (   0.0006271   0.0005054   7.9858123  )
         4           O1  tau(   4) = (   3.2906025   0.0005020   7.3038282  )
         5           O1  tau(   5) = (   4.5942328   1.4918067   9.2879030  )
         6           O1  tau(   6) = (   1.9868534   1.4903216   9.2879459  )
         7           Ti1 tau(   7) = (   3.2907910   2.8959150   9.1758416  )
         8           Ti1 tau(   8) = (   0.0015273   1.4827037   9.2680791  )
         9           O1  tau(   9) = (   3.2981156   0.0012339  11.3300471  )
        10           O1  tau(  10) = (   0.0116148   5.9584955  10.6183126  )
        11           O1  tau(  11) = (   1.3033605   1.5036236  12.6199488  )
        12           O1  tau(  12) = (   5.2811161   1.5074500  12.6162500  )
        13           Ti1 tau(  13) = (   0.0407500   2.9455431  12.6352795  )
        14           Ti1 tau(  14) = (   3.3444429   1.4910927  12.4779025  )
        15           O1  tau(  15) = (   0.0052662   0.0451097  14.6026341  )
        16           O1  tau(  16) = (   3.2946143   0.0124870  13.9210852  )
        17           O1  tau(  17) = (   4.5465206   1.5046604  16.0624161  )
        18           O1  tau(  18) = (   2.0546879   1.5048301  16.0609706  )
        19           Ti1 tau(  19) = (   3.2991624   2.9918142  15.6995589  )
        20           Ti1 tau(  20) = (   6.5707204   1.4025535  15.8059435  )
        21           O1  tau(  21) = (   3.2904802   0.0005063   4.7018136  )
        22           O1  tau(  22) = (   0.0164654   0.0145536  17.1360041  )
        23           O1  tau(  23) = (   1.3043587   1.4918075   6.0039043  )
        24           O1  tau(  24) = (   5.2767064   1.4903225   6.0039473  )
        25           Ti1 tau(  25) = (   0.0000382   5.9609847   6.0000000  )
        26           Ti1 tau(  26) = (   3.2902200   4.4714249   6.0002472  )
        27           O1  tau(  27) = (   0.0002396   2.9813036   7.9858123  )
        28           O1  tau(  28) = (   3.2902150   2.9813002   7.3038282  )
        29           O1  tau(  29) = (   4.5938453   4.4726049   9.2879030  )
        30           O1  tau(  30) = (   1.9864658   4.4711199   9.2879459  )
        31           Ti1 tau(  31) = (   3.2891106   5.8743827   9.1763621  )
        32           Ti1 tau(  32) = (   0.0006254   4.4649316   9.2693709  )
        33           O1  tau(  33) = (   3.2977166   2.9913250  11.3287690  )
        34           O1  tau(  34) = (   0.0092240   2.9805883  10.6323155  )
        35           O1  tau(  35) = (   1.3008534   4.4801743  12.6308489  )
        36           O1  tau(  36) = (   5.2850400   4.4860598  12.6280017  )
        37           Ti1 tau(  37) = (   0.0409916   5.9178611  12.5441859  )
        38           Ti1 tau(  38) = (   3.3442415   4.4710906  12.4862270  )
        39           O1  tau(  39) = (   0.0109228   2.9791018  14.7123696  )
        40           O1  tau(  40) = (   3.2998940   2.9912248  13.9043662  )
        41           O1  tau(  41) = (   4.5474046   4.4713503  16.0779382  )
        42           O1  tau(  42) = (   2.0618872   4.4767818  16.0643778  )
        43           Ti1 tau(  43) = (   3.2722838   0.0128901  15.7174356  )
        44           Ti1 tau(  44) = (   6.5592075   4.4947239  16.1563676  )
        45           O1  tau(  45) = (   3.2900926   2.9813045   4.7018136  )
        46           O1  tau(  46) = (   1.3039711   4.4726057   6.0039043  )
        47           O1  tau(  47) = (   5.2763189   4.4711207   6.0039473  )
        48           C1  tau(  48) = (   0.0359503   3.0870652  17.8341721  )
        49           H1  tau(  49) = (   5.8142062   3.6010452  18.3763092  )
        50           H1  tau(  50) = (   6.4784518   2.0305676  18.0614951  )
        51           H1  tau(  51) = (   0.9863100   3.3782628  18.2908018  )
        52           N1  tau(  52) = (   4.7642638   1.7931862  21.6370373  )
        53           H1  tau(  53) = (   4.5527921   2.7808570  21.5486679  )
        54           H1  tau(  54) = (   4.1042548   1.2952780  21.0483319  )
        55           H1  tau(  55) = (   4.5435699   1.5432347  22.5953497  )

     number of k points=    10  Fermi-Dirac smearing, width (Ry)=  0.0073
                       cart. coord. in units 2pi/alat
        k(    1) = (   0.0000000   0.0000000   0.0000000), wk =   0.1250000
        k(    2) = (   0.0000000   0.0419351   0.0000000), wk =   0.2500000
        k(    3) = (   0.0000000  -0.0838702   0.0000000), wk =   0.1250000
        k(    4) = (   0.0379955   0.0000049   0.0000000), wk =   0.2500000
        k(    5) = (   0.0379955   0.0419400   0.0000000), wk =   0.2500000
        k(    6) = (   0.0379955  -0.0838652   0.0000000), wk =   0.2500000
        k(    7) = (   0.0379955  -0.0419301   0.0000000), wk =   0.2500000
        k(    8) = (  -0.0759910  -0.0000099   0.0000000), wk =   0.1250000
        k(    9) = (  -0.0759910   0.0419252   0.0000000), wk =   0.2500000
        k(   10) = (  -0.0759910  -0.0838800   0.0000000), wk =   0.1250000

     Initial potential from superposition of free atoms

     starting charge  376.99914, renormalised to  393.00000

     negative rho (up, down):  1.000E-02 0.000E+00

     %%%%%%%%%%%%%%%%%%%%%%%%%%%%%%%%%%%%%%%%%%%%%%%%%%%%%%%%%%%%%%%%%%%%%%%%
     %                                                                      %
     % You are using vdW-DF, which was implemented by the Thonhauser group. %
     % Please cite the following two papers that made this development      %
     % possible and the two reviews that describe the various versions:     %
     %                                                                      %
     %   T. Thonhauser et al., PRL 115, 136402 (2015).                      %
     %   T. Thonhauser et al., PRB 76, 125112 (2007).                       %
     %   K. Berland et al., Rep. Prog. Phys. 78, 066501 (2015).             %
     %   D.C. Langreth et al., J. Phys.: Condens. Matter 21, 084203 (2009). %
     %                                                                      %
     %                                                                      %
     % If you are calculating the stress with vdW-DF, please also cite:     %
     %                                                                      %
     %   R. Sabatini et al., J. Phys.: Condens. Matter 24, 424209 (2012).   %
     %                                                                      %
     %%%%%%%%%%%%%%%%%%%%%%%%%%%%%%%%%%%%%%%%%%%%%%%%%%%%%%%%%%%%%%%%%%%%%%%%

     Adding external electric field

     Computed dipole along edir(3) :
        Dipole               -9.0624 Ry au,        -23.0342 Debye
        Dipole field         -0.0171 Ry au,

        Potential amp.        1.5853 Ry
        Total length         46.3494 bohr

     Starting wfcs are  298 atomic wfcs
  @ DRIVER MODE: Message from server: STATUS
  @ DRIVER MODE: Message from server: POSDATA
  @ DRIVER MODE: Reading and sharing cell
  @ DRIVER MODE: Reading and sharing positions
  @ DRIVER MODE: Received positions

     Self-consistent Calculation

     iteration #  1     ecut=    29.40 Ry     beta= 0.05
     Davidson diagonalization with overlap
     c_bands:  1 eigenvalues not converged
     c_bands:  1 eigenvalues not converged
     c_bands:  1 eigenvalues not converged
     ethr =  1.00E-05,  avg # of iterations = 17.8

[...]

     total energy              =   -2692.42929286 Ry
     estimated scf accuracy    <    2566.22393617 Ry

[...]

     iteration #  3     ecut=    29.40 Ry     beta= 0.05
     Davidson diagonalization with overlap
     ethr =  1.00E-02,  avg # of iterations = 17.1

[...]

     iteration # 65     ecut=    29.40 Ry     beta= 0.05
     Davidson diagonalization with overlap
     c_bands:  1 eigenvalues not converged
     ethr =  3.04E-11,  avg # of iterations = 12.5

[...]

     total energy              =   -2922.78953413 Ry
     estimated scf accuracy    <       0.00000009 Ry

     iteration # 67     ecut=    29.40 Ry     beta= 0.05
     Davidson diagonalization with overlap
     ethr =  2.21E-11,  avg # of iterations = 12.6

     negative rho (up, down):  1.131E-02 0.000E+00

     Adding external electric field

     Computed dipole along edir(3) :
        Dipole                0.5532 Ry au,          1.4061 Debye
        Dipole field          0.0010 Ry au,

        Potential amp.       -0.0968 Ry
        Total length         46.3494 bohr

     End of self-consistent calculation

          k = 0.0000 0.0000 0.0000 ( 18029 PWs)   bands (ev):

   -56.0317 -56.0283 -55.9976 -55.9918 -55.8998 -55.8650 -55.8645 -55.8401
   -55.8214 -55.8062 -55.8016 -55.7679 -55.5673 -55.4004 -55.0074 -54.9734
   -32.5866 -32.5136 -32.3593 -32.3532 -32.3393 -32.3382 -32.3248 -32.2923
   -32.2744 -32.2377 -32.2317 -32.2311 -32.2078 -32.1839 -32.1715 -32.1652
   -32.1355 -32.1335 -32.1198 -32.0889 -32.0792 -32.0682 -32.0369 -32.0322
   -32.0277 -32.0259 -32.0114 -32.0101 -32.0038 -31.9783 -31.9781 -31.9752
   -31.9703 -31.9695 -31.9548 -31.9451 -31.9139 -31.8461 -31.7815 -31.6880
   -31.6288 -31.5178 -31.4146 -31.3263 -31.3038 -31.2312 -31.1448 -31.0338
   -16.7668 -16.5033 -16.2714 -16.1807 -16.1310 -16.0445 -15.8670 -15.7503
   -15.7020 -15.6012 -15.5682 -15.5487 -15.5321 -15.5019 -15.4936 -15.4687
   -15.4572 -15.4506 -15.4163 -15.3884 -15.3633 -15.3486 -15.2287 -15.1763
   -15.1600 -15.1292 -15.0812 -15.0648 -14.6105 -13.6651 -13.5102 -13.3939
    -9.0467  -4.1415  -3.9612  -3.9356  -3.8877  -3.8459  -3.7294  -3.6888
    -3.6431  -3.5829  -3.2652  -3.2081  -3.1998  -3.1591  -3.1444  -2.9871
    -2.9226  -2.8486  -2.8323  -2.8267  -2.8013  -2.7960  -2.7913  -2.7486
    -2.7063  -2.6510  -2.6270  -2.5576  -2.5153  -2.4422  -2.3693  -2.3414
    -2.2995  -2.2967  -2.2604  -2.2482  -2.2402  -2.2301  -2.1943  -2.1792
    -1.9997  -1.9492  -1.8808  -1.8150  -1.8005  -1.6367  -1.5299  -1.4820
    -1.4633  -1.4564  -1.4382  -1.4211  -1.3255  -1.2076  -1.1745  -1.1250
    -1.0773  -1.0287  -0.9987  -0.8984  -0.8819  -0.7904  -0.7774  -0.7587
    -0.6479  -0.6237  -0.4895  -0.4681  -0.4623  -0.4021  -0.3865  -0.3137
    -0.2894  -0.2330  -0.1678  -0.1556  -0.0874  -0.0614  -0.0578  -0.0015
     0.0031   0.0483   0.0629   0.1725   0.2284   0.2777   0.3317   0.4381
     0.5179   0.6325   0.6790   0.7385   0.9404   1.0141   1.1233   1.1840
     1.2071   1.4590   1.5855   1.6310   3.1067   3.1916   3.2132   3.2390
     3.3463   3.3712   3.5573   3.5737   3.6081   3.6282

[...]

          k = 0.0380-0.0419 0.0000 ( 17876 PWs)   bands (ev):

[...]

          k =-0.0760-0.0000 0.0000 ( 17886 PWs)   bands (ev):

[...]

          k =-0.0760-0.0839 0.0000 ( 17948 PWs)   bands (ev):

   -56.0152 -56.0141 -56.0129 -56.0070 -55.8848 -55.8798 -55.8562 -55.8299
   -55.8237 -55.8220 -55.7860 -55.7836 -55.5658 -55.4017 -54.9905 -54.9902
   -32.3926 -32.3861 -32.3292 -32.3285 -32.3106 -32.3097 -32.2914 -32.2867
   -32.2204 -32.2194 -32.2165 -32.2056 -32.1654 -32.1644 -32.1451 -32.1407
   -32.1366 -32.1347 -32.1335 -32.1258 -32.1252 -32.1223 -32.0862 -32.0757
   -32.0710 -32.0488 -32.0445 -32.0308 -32.0222 -32.0213 -32.0176 -32.0157
   -32.0006 -31.9992 -31.9946 -31.9884 -31.9239 -31.8290 -31.7837 -31.6908
   -31.6731 -31.5620 -31.3166 -31.3165 -31.2275 -31.2273 -31.1881 -31.1880
   -16.2087 -16.1857 -15.9792 -15.9451 -15.9415 -15.9346 -15.8037 -15.7232
   -15.7227 -15.6970 -15.6361 -15.6247 -15.6028 -15.5640 -15.5398 -15.5374
   -15.5188 -15.5138 -15.4876 -15.4775 -15.4645 -15.4573 -15.3648 -15.3452
   -15.3414 -15.2918 -15.1465 -15.0001 -14.8913 -13.6643 -13.4958 -13.4956
    -9.0611  -3.7378  -3.6934  -3.5049  -3.4735  -3.2311  -3.1929  -3.1797
    -3.1106  -2.9542  -2.9146  -2.8967  -2.8890  -2.8445  -2.8369  -2.8318
    -2.8202  -2.7919  -2.7749  -2.7377  -2.7317  -2.7162  -2.7091  -2.6978
    -2.6807  -2.6506  -2.6420  -2.6113  -2.6065  -2.5858  -2.5698  -2.5419
    -2.5369  -2.4094  -2.2503  -2.2265  -2.1660  -2.1585  -2.1119  -2.0989
    -2.0922  -2.0650  -2.0361  -2.0088  -1.8498  -1.7388  -1.7242  -1.7074
    -1.6387  -1.6110  -1.5259  -1.4356  -1.3946  -1.3765  -1.3084  -1.3047
    -1.2546  -1.2300  -1.2094  -1.1418  -1.0853  -1.0482  -0.9909  -0.9847
    -0.9768  -0.9069  -0.8645  -0.7893  -0.7805  -0.7436  -0.7086  -0.6534
    -0.6193  -0.6079  -0.5179  -0.4855  -0.3732  -0.3244  -0.0660  -0.0179
     0.0353   0.0634   0.1286   0.1866   0.1908   0.2882   0.2919   0.3283
     0.4075   0.4288   0.4998   0.5191   0.5691   0.7309   1.2793   1.3781
     1.3789   1.4495   1.4507   1.4514   3.4043   3.4160   3.4231   3.4678
     3.6131   3.6177   3.6365   3.6381   3.7776   3.7950

     the Fermi energy is     3.1031 ev

!    total energy              =   -2922.78956077 Ry
     estimated scf accuracy    <       0.00000004 Ry
     smearing contrib. (-TS)   =      -0.02169660 Ry
     internal energy E=F+TS    =   -2922.76786417 Ry

     The total energy is F=E-TS. E is the sum of the following terms:
     one-electron contribution =  -23651.16448639 Ry
     hartree contribution      =   11909.80053175 Ry
     xc contribution           =    -482.26409985 Ry
     ewald contribution        =    9300.85961281 Ry
     electric field correction =       0.00057752 Ry

     convergence has been achieved in  67 iterations

     Forces acting on atoms (cartesian axes, Ry/au):

     atom    1 type  1   force =     0.00004795   -0.00022385    0.09686357
     atom    2 type  1   force =    -0.00017410   -0.00055390   -0.17514908
     atom    3 type  2   force =     0.00002308   -0.00004778   -0.02501296
     atom    4 type  2   force =     0.00002722   -0.00139841    0.05266792
     atom    5 type  2   force =    -0.01207011   -0.00051798    0.00330336
     atom    6 type  2   force =     0.01380102    0.00008039    0.00270178
     atom    7 type  1   force =    -0.00058280    0.00056242   -0.01157200
     atom    8 type  1   force =     0.00020212    0.01201703    0.02899518
     atom    9 type  2   force =    -0.00029752    0.00057134    0.00056056
     atom   10 type  2   force =    -0.00153380    0.00252366   -0.01947235
     atom   11 type  2   force =    -0.00017541   -0.00038060   -0.00014227
     atom   12 type  2   force =    -0.00089848    0.00003007   -0.00029444
     atom   13 type  1   force =     0.00054428   -0.00096818    0.00108776
     atom   14 type  1   force =     0.00145555    0.00057967   -0.00067808
     atom   15 type  2   force =    -0.00013829   -0.00106925    0.00039388
     atom   16 type  2   force =    -0.00021024   -0.00020148   -0.00146523
     atom   17 type  2   force =    -0.00064964    0.00075048   -0.00000981
     atom   18 type  2   force =     0.00047993    0.00093011    0.00002594
     atom   19 type  1   force =    -0.00019340   -0.00113083    0.00058841
     atom   20 type  1   force =    -0.00011627    0.00047806   -0.00010858
     atom   21 type  2   force =     0.00004679   -0.00003896    0.10322576
     atom   22 type  2   force =     0.00027465   -0.00029828    0.00096773
     atom   23 type  2   force =    -0.07153158   -0.00014314   -0.02769593
     atom   24 type  2   force =     0.07142505    0.00026984   -0.02772580
     atom   25 type  1   force =     0.00005473   -0.00028401    0.09645355
     atom   26 type  1   force =    -0.00019330   -0.00028585   -0.17537430
     atom   27 type  2   force =     0.00008739   -0.00017102   -0.02379939
     atom   28 type  2   force =     0.00004517   -0.00113910    0.05274716
     atom   29 type  2   force =    -0.01211114    0.00084690    0.00276700
     atom   30 type  2   force =     0.01375874    0.00123554    0.00218488
     atom   31 type  1   force =    -0.00047178    0.00304347   -0.01243220
     atom   32 type  1   force =     0.00018533   -0.01421976    0.02940902
     atom   33 type  2   force =    -0.00023088   -0.00062697    0.00041406
     atom   34 type  2   force =    -0.00098184    0.00176442   -0.02267920
     atom   35 type  2   force =    -0.00066339   -0.00060458   -0.00012006
     atom   36 type  2   force =     0.00002911   -0.00014852   -0.00033232
     atom   37 type  1   force =     0.00064636    0.00027661    0.00055858
     atom   38 type  1   force =     0.00150375    0.00018697   -0.00067629
     atom   39 type  2   force =     0.00006563    0.00014640   -0.00125046
     atom   40 type  2   force =    -0.00034838   -0.00010189    0.00176355
     atom   41 type  2   force =    -0.00075544   -0.00106357   -0.00011636
     atom   42 type  2   force =     0.00026712   -0.00146522    0.00026961
     atom   43 type  1   force =     0.00022790    0.00067124    0.00103645
     atom   44 type  1   force =     0.00044116   -0.00026766    0.00068100
     atom   45 type  2   force =     0.00005523   -0.00009425    0.10318591
     atom   46 type  2   force =    -0.07151626   -0.00011461   -0.02769957
     atom   47 type  2   force =     0.07142341    0.00031478   -0.02773486
     atom   48 type  3   force =     0.00030192    0.00087625   -0.00065645
     atom   49 type  4   force =    -0.00079925   -0.00000115   -0.00048399
     atom   50 type  4   force =    -0.00031971   -0.00055345    0.00099331
     atom   51 type  4   force =    -0.00079740   -0.00013872   -0.00022814
     atom   52 type  5   force =     0.00050102   -0.00100962    0.00177546
     atom   53 type  4   force =    -0.00000548    0.00137626   -0.00257866
     atom   54 type  4   force =    -0.00017129    0.00115586   -0.00020699
     atom   55 type  4   force =     0.00001554   -0.00142519    0.00007437

     Total force =     0.368370     Total SCF correction =     0.000361
  @ DRIVER MODE: Message from server: STATUS
  @ DRIVER MODE: Message from server: GETFORCE
  @ DRIVER MODE: Returning v,forces,stress,ensemble

     Writing output data file ./calc.save/
  @ DRIVER MODE: Message from server: EXIT
  @ DRIVE MODE: Exiting

     General routines

     Parallel routines

   This run was terminated on:  23:39: 1   2Aug2021

   JOB DONE.