     Program PWSCF v.6.7GPU starts on  8Sep2021 at 23: 6:46

     R & G space division:  proc/nbgrp/npool/nimage =      10
     Reading input from /storage/home/hcoda1/3/ntian30/research/carbon/CxH_vib/CH2_calc/ads_slab/CH2NNHHH_a/out_0004/pw.inp
Warning: card &CELL ignored
Warning: card   CELL_DYNAMICS='IPI', ignored
Warning: card / ignored

     Current dimensions of program PWSCF are:
     Max number of different atomic species (ntypx) = 10
     Max number of k-points (npk) =  40000
     Max angular momentum in pseudopotentials (lmaxx) =  3
     Presently no symmetry can be used with electric field

     Message from routine cell_base_init:
     DEPRECATED: use true lattice parameter, not A to a.u. conversion factor

     IMPORTANT: XC functional enforced from input :
     Exchange-correlation= BEEF-VDW
                           (   1   4  43  14   2   0   0)
     Any further DFT definition will be discarded
     Please, verify this is what you really want

  @ DRIVER MODE: Connecting to
 qe_1139763_2767390.sched-torque.pace.gatech.edus34q0ekv_scratch
  using UNIX socket
  @ DRIVER MODE: Message from server: STATUS
  @ DRIVER MODE: Message from server: INIT
  @ DRIVER MODE: Receiving replica           0          -1
  @ DRIVER MODE: Receiving encoded integer          25
  @ DRIVER MODE:  SCF:  T  FORCE:  T  STRESS:  F  VC:  F  ENSEMBLE:  F
  @ DRIVER MODE:  SCF:  T  FORCE:  T  STRESS:  F  VC:  F  ENSEMBLE:  F

     Using Slab Decomposition

     bravais-lattice index     =            0
     lattice parameter (alat)  =       1.8897  a.u.
     unit-cell volume          =    6658.9804 (a.u.)^3
     number of atoms/cell      =           55
     number of atomic types    =            5
     number of electrons       =       397.00
     number of Kohn-Sham states=          208
     kinetic-energy cutoff     =      29.3995  Ry
     charge density cutoff     =     293.9946  Ry
     scf convergence threshold =      7.3E-08
     mixing beta               =       0.0500
     number of iterations used =            8  plain     mixing
     Exchange-correlation= BEEF-VDW
                           (   1   4  43  14   2   0   0)

     celldm(1)=   1.889726  celldm(2)=   0.000000  celldm(3)=   0.000000
     celldm(4)=   0.000000  celldm(5)=   0.000000  celldm(6)=   0.000000

     crystal axes: (cart. coord. in units of alat)
               a(1) = (   6.579727   0.000000   0.000000 )
               a(2) = (  -0.000775   5.961596   0.000000 )
               a(3) = (   0.000000   0.000000  25.155947 )

     reciprocal axes: (cart. coord. in units 2 pi/alat)
               b(1) = (  0.151982  0.000020  0.000000 )
               b(2) = (  0.000000  0.167740  0.000000 )
               b(3) = (  0.000000  0.000000  0.039752 )

     PseudoPot. # 1 for Ti read from file:
     /storage/coda1/p-amedford6/0/shared/rich_project_chbe-medford/medford-share/data/pseudos_module/espresso/nninc/pbe/van/Ti.UPF
     MD5 check sum: 8e4df49b7f0d34bbd5052bf3f5ea0213
     Pseudo is Ultrasoft, Zval = 12.0
     Generated by new atomic code, or converted to UPF format
     Using radial grid of  851 points,  6 beta functions with:
                l(1) =   0
                l(2) =   0
                l(3) =   1
                l(4) =   1
                l(5) =   2
                l(6) =   2
     Q(r) pseudized with  8 coefficients,  rinner =    1.000   1.000   1.000
                                                       1.000   1.000

     PseudoPot. # 2 for O  read from file:
     /storage/coda1/p-amedford6/0/shared/rich_project_chbe-medford/medford-share/data/pseudos_module/espresso/nninc/pbe/van/O.UPF
     MD5 check sum: 78c19812648e8988a0fe644b0f25305e
     Pseudo is Ultrasoft, Zval =  6.0
     Generated by new atomic code, or converted to UPF format
     Using radial grid of  737 points,  4 beta functions with:
                l(1) =   0
                l(2) =   0
                l(3) =   1
                l(4) =   1
     Q(r) pseudized with  8 coefficients,  rinner =    0.800   0.800   0.800

     PseudoPot. # 3 for N  read from file:
     /storage/coda1/p-amedford6/0/shared/rich_project_chbe-medford/medford-share/data/pseudos_module/espresso/nninc/pbe/van/N.UPF
     MD5 check sum: 90d10febe142ad51ac9d5be1deb811c4
     Pseudo is Ultrasoft, Zval =  5.0
     Generated by new atomic code, or converted to UPF format
     Using radial grid of  729 points,  4 beta functions with:
                l(1) =   0
                l(2) =   0
                l(3) =   1
                l(4) =   1
     Q(r) pseudized with  8 coefficients,  rinner =    0.800   0.800   0.800

     PseudoPot. # 4 for C  read from file:
     /storage/coda1/p-amedford6/0/shared/rich_project_chbe-medford/medford-share/data/pseudos_module/espresso/nninc/pbe/van/C.UPF
     MD5 check sum: 1a69bf6b8db32088f5b2163dbdb77a27
     Pseudo is Ultrasoft, Zval =  4.0
     Generated by new atomic code, or converted to UPF format
     Using radial grid of  721 points,  4 beta functions with:
                l(1) =   0
                l(2) =   0
                l(3) =   1
                l(4) =   1
     Q(r) pseudized with  8 coefficients,  rinner =    0.800   0.800   0.800

     PseudoPot. # 5 for H  read from file:
     /storage/coda1/p-amedford6/0/shared/rich_project_chbe-medford/medford-share/data/pseudos_module/espresso/nninc/pbe/van/H.UPF
     MD5 check sum: b5ee9d7bfd3a09ee7748110bda690ff7
     Pseudo is Ultrasoft, Zval =  1.0
     Generated by new atomic code, or converted to UPF format
     Using radial grid of  615 points,  1 beta functions with:
                l(1) =   0
     Q(r) pseudized with  8 coefficients,  rinner =    0.800

     atomic species   valence    mass     pseudopotential
        Ti1           12.00    47.86700     Ti( 1.00)
        O1             6.00    15.99900     O ( 1.00)
        N1             5.00    14.00700     N ( 1.00)
        C1             4.00    12.01100     C ( 1.00)
        H1             1.00     1.00800     H ( 1.00)

     No symmetry found

   Cartesian axes

     site n.     atom                  positions (alat units)
         1           Ti1 tau(   1) = (   0.0004258   2.9801865   6.0000000  )
         2           Ti1 tau(   2) = (   3.2906075   1.4906267   6.0002472  )
         3           O1  tau(   3) = (   0.0006271   0.0005054   7.9858123  )
         4           O1  tau(   4) = (   3.2906025   0.0005020   7.3038282  )
         5           O1  tau(   5) = (   4.5942328   1.4918067   9.2879030  )
         6           O1  tau(   6) = (   1.9868534   1.4903216   9.2879459  )
         7           Ti1 tau(   7) = (   3.2907910   2.8959150   9.1758416  )
         8           Ti1 tau(   8) = (   0.0015273   1.4827037   9.2680791  )
         9           O1  tau(   9) = (   3.2797308   5.9473376  11.3602069  )
        10           O1  tau(  10) = (   0.0116148   5.9584955  10.6183126  )
        11           O1  tau(  11) = (   1.2902197   1.4970218  12.6485984  )
        12           O1  tau(  12) = (   5.2825647   1.4998509  12.6204812  )
        13           Ti1 tau(  13) = (   6.5707130   2.9731531  12.5352273  )
        14           Ti1 tau(  14) = (   3.2824754   1.4851695  12.4964603  )
        15           O1  tau(  15) = (   6.5335774   0.0914421  14.6722524  )
        16           O1  tau(  16) = (   3.3157438   0.0180770  13.9903400  )
        17           O1  tau(  17) = (   4.5084513   1.5196572  16.2619966  )
        18           O1  tau(  18) = (   2.0062152   1.4815140  16.1839734  )
        19           Ti1 tau(  19) = (   3.2259906   2.9465836  15.7211513  )
        20           Ti1 tau(  20) = (   6.5090593   1.4075841  16.1508600  )
        21           O1  tau(  21) = (   3.2904802   0.0005063   4.7018136  )
        22           O1  tau(  22) = (   6.5630310   5.8123487  17.2302531  )
        23           O1  tau(  23) = (   1.3043587   1.4918075   6.0039043  )
        24           O1  tau(  24) = (   5.2767064   1.4903225   6.0039473  )
        25           Ti1 tau(  25) = (   0.0000382   5.9609847   6.0000000  )
        26           Ti1 tau(  26) = (   3.2902200   4.4714249   6.0002472  )
        27           O1  tau(  27) = (   0.0002396   2.9813036   7.9858123  )
        28           O1  tau(  28) = (   3.2902150   2.9813002   7.3038282  )
        29           O1  tau(  29) = (   4.5938453   4.4726049   9.2879030  )
        30           O1  tau(  30) = (   1.9864658   4.4711199   9.2879459  )
        31           Ti1 tau(  31) = (   3.2891106   5.8743827   9.1763621  )
        32           Ti1 tau(  32) = (   0.0006254   4.4649316   9.2693709  )
        33           O1  tau(  33) = (   3.2783824   2.9878764  11.3535400  )
        34           O1  tau(  34) = (   0.0092240   2.9805883  10.6323155  )
        35           O1  tau(  35) = (   1.2857266   4.4729298  12.7006550  )
        36           O1  tau(  36) = (   5.2845514   4.4687958  12.6640455  )
        37           Ti1 tau(  37) = (   6.5734551   0.0101047  12.5124135  )
        38           Ti1 tau(  38) = (   3.2852174   4.4611384  12.5175569  )
        39           O1  tau(  39) = (   6.5279837   2.9480221  14.9030702  )
        40           O1  tau(  40) = (   3.2956390   2.9588503  13.9390168  )
        41           O1  tau(  41) = (   4.4992944   4.4159585  16.2207858  )
        42           O1  tau(  42) = (   2.0104883   4.4624356  16.0673450  )
        43           Ti1 tau(  43) = (   3.2790961   0.0058003  15.7788240  )
        44           Ti1 tau(  44) = (   0.0606790   4.6093333  15.7554573  )
        45           O1  tau(  45) = (   3.2900926   2.9813045   4.7018136  )
        46           O1  tau(  46) = (   1.3039711   4.4726057   6.0039043  )
        47           O1  tau(  47) = (   5.2763189   4.4711207   6.0039473  )
        48           N1  tau(  48) = (   0.0403274   2.7291540  18.0026804  )
        49           C1  tau(  49) = (   0.9398849   2.4944932  18.9664025  )
        50           H1  tau(  50) = (   0.9073005   3.0183022  19.9142263  )
        51           H1  tau(  51) = (   1.7098349   1.7704235  18.7615287  )
        52           N1  tau(  52) = (   5.5765855   3.6054979  18.4816711  )
        53           H1  tau(  53) = (   5.9881759   4.5320851  18.7147717  )
        54           H1  tau(  54) = (   4.9344470   3.8465857  17.6610935  )
        55           H1  tau(  55) = (   5.0674124   3.1947177  19.2767304  )

     number of k points=    10  Fermi-Dirac smearing, width (Ry)=  0.0073
                       cart. coord. in units 2pi/alat
        k(    1) = (   0.0000000   0.0000000   0.0000000), wk =   0.1250000
        k(    2) = (   0.0000000   0.0419351   0.0000000), wk =   0.2500000
        k(    3) = (   0.0000000  -0.0838702   0.0000000), wk =   0.1250000
        k(    4) = (   0.0379955   0.0000049   0.0000000), wk =   0.2500000
        k(    5) = (   0.0379955   0.0419400   0.0000000), wk =   0.2500000
        k(    6) = (   0.0379955  -0.0838652   0.0000000), wk =   0.2500000
        k(    7) = (   0.0379955  -0.0419301   0.0000000), wk =   0.2500000
        k(    8) = (  -0.0759910  -0.0000099   0.0000000), wk =   0.1250000
        k(    9) = (  -0.0759910   0.0419252   0.0000000), wk =   0.2500000
        k(   10) = (  -0.0759910  -0.0838800   0.0000000), wk =   0.1250000

     Initial potential from superposition of free atoms

     starting charge  380.99914, renormalised to  397.00000

     negative rho (up, down):  1.589E-02 0.000E+00

     %%%%%%%%%%%%%%%%%%%%%%%%%%%%%%%%%%%%%%%%%%%%%%%%%%%%%%%%%%%%%%%%%%%%%%%%
     %                                                                      %
     % You are using vdW-DF, which was implemented by the Thonhauser group. %
     % Please cite the following two papers that made this development      %
     % possible and the two reviews that describe the various versions:     %
     %                                                                      %
     %   T. Thonhauser et al., PRL 115, 136402 (2015).                      %
     %   T. Thonhauser et al., PRB 76, 125112 (2007).                       %
     %   K. Berland et al., Rep. Prog. Phys. 78, 066501 (2015).             %
     %   D.C. Langreth et al., J. Phys.: Condens. Matter 21, 084203 (2009). %
     %                                                                      %
     %                                                                      %
     % If you are calculating the stress with vdW-DF, please also cite:     %
     %                                                                      %
     %   R. Sabatini et al., J. Phys.: Condens. Matter 24, 424209 (2012).   %
     %                                                                      %
     %%%%%%%%%%%%%%%%%%%%%%%%%%%%%%%%%%%%%%%%%%%%%%%%%%%%%%%%%%%%%%%%%%%%%%%%

     Adding external electric field

     Computed dipole along edir(3) :
        Dipole              -10.3122 Ry au,        -26.2111 Debye
        Dipole field         -0.0195 Ry au,

        Potential amp.        1.8040 Ry
        Total length         46.3494 bohr

     Starting wfcs are  301 atomic wfcs
  @ DRIVER MODE: Message from server: STATUS
  @ DRIVER MODE: Message from server: POSDATA
  @ DRIVER MODE: Reading and sharing cell
  @ DRIVER MODE: Reading and sharing positions
  @ DRIVER MODE: Received positions

     Self-consistent Calculation

     iteration #  1     ecut=    29.40 Ry     beta= 0.05
     Davidson diagonalization with overlap
     c_bands:  3 eigenvalues not converged
     c_bands:  2 eigenvalues not converged
     c_bands:  3 eigenvalues not converged
     c_bands:  2 eigenvalues not converged
     c_bands:  3 eigenvalues not converged
     c_bands:  2 eigenvalues not converged
     c_bands:  3 eigenvalues not converged
     c_bands:  2 eigenvalues not converged
     c_bands:  2 eigenvalues not converged
     c_bands:  3 eigenvalues not converged
     ethr =  1.00E-05,  avg # of iterations = 20.0

[...]

     total energy              =   -2480.06434582 Ry
     estimated scf accuracy    <    5159.18817289 Ry

     iteration #  2     ecut=    29.40 Ry     beta= 0.05
     Davidson diagonalization with overlap
     ethr =  1.00E-02,  avg # of iterations = 22.8

[...]

     iteration # 79     ecut=    29.40 Ry     beta= 0.05
     Davidson diagonalization with overlap
     c_bands:  1 eigenvalues not converged
     c_bands:  1 eigenvalues not converged
     c_bands:  1 eigenvalues not converged
     ethr =  1.89E-11,  avg # of iterations = 16.3

[...]

     total energy              =   -2941.49082386 Ry
     estimated scf accuracy    <       0.00000013 Ry

     iteration # 81     ecut=    29.40 Ry     beta= 0.05
     Davidson diagonalization with overlap
     ethr =  1.89E-11,  avg # of iterations = 11.7

     negative rho (up, down):  1.345E-02 0.000E+00

     Adding external electric field

     Computed dipole along edir(3) :
        Dipole                1.3605 Ry au,          3.4580 Debye
        Dipole field          0.0026 Ry au,

        Potential amp.       -0.2380 Ry
        Total length         46.3494 bohr

     End of self-consistent calculation

          k = 0.0000 0.0000 0.0000 ( 18029 PWs)   bands (ev):

   -55.2862 -55.2473 -55.2472 -55.2132 -55.1617 -55.1600 -55.1234 -55.0966
   -55.0790 -55.0780 -55.0619 -55.0448 -54.9647 -54.7941 -54.2657 -54.2317
   -31.8584 -31.7380 -31.6483 -31.6130 -31.5864 -31.5837 -31.5812 -31.5370
   -31.5341 -31.4941 -31.4925 -31.4916 -31.4629 -31.4566 -31.4426 -31.4211
   -31.4061 -31.4010 -31.3967 -31.3958 -31.3595 -31.3545 -31.3407 -31.3272
   -31.3043 -31.2992 -31.2928 -31.2887 -31.2763 -31.2736 -31.2634 -31.2533
   -31.2466 -31.2445 -31.2116 -31.2069 -31.2000 -31.1878 -31.1532 -31.1115
   -31.0648 -30.9375 -30.6745 -30.5817 -30.5596 -30.4910 -30.4043 -30.2933
   -19.2661 -16.1281 -15.8659 -15.7379 -15.5466 -15.4802 -15.3845 -15.2475
   -15.1954 -15.1330 -15.0850 -15.0443 -15.0315 -14.9659 -14.9089 -14.8204
   -14.8187 -14.7999 -14.7918 -14.7804 -14.7765 -14.7143 -14.7118 -14.6843
   -14.6698 -14.6595 -14.5189 -14.4348 -14.3734 -14.2540 -14.0276 -12.7683
   -12.6510  -9.1659  -7.8069  -7.0771  -5.9936  -3.8250  -3.4657  -3.2929
    -3.2460  -3.2059  -3.1810  -3.0125  -2.9308  -2.6635  -2.5943  -2.5559
    -2.5083  -2.4968  -2.4714  -2.2986  -2.2679  -2.2289  -2.1922  -2.1688
    -2.1290  -2.1011  -2.0851  -2.0559  -2.0429  -2.0407  -1.8568  -1.7845
    -1.7538  -1.6971  -1.6855  -1.6708  -1.6135  -1.5844  -1.5715  -1.5691
    -1.5455  -1.5292  -1.5043  -1.4636  -1.3758  -1.2850  -1.2402  -1.2161
    -1.1022  -1.0378  -0.9177  -0.8756  -0.8612  -0.8338  -0.7621  -0.6956
    -0.6680  -0.6322  -0.4926  -0.4873  -0.4028  -0.3928  -0.3202  -0.3030
    -0.2635  -0.2177  -0.1056  -0.0728  -0.0513   0.0010   0.0638   0.0860
     0.1676   0.2218   0.2785   0.2924   0.3722   0.4124   0.4495   0.4713
     0.5583   0.6000   0.6595   0.6659   0.7029   0.7063   0.7319   0.8180
     0.8313   0.8509   0.8918   1.0610   1.2612   1.3135   1.3342   1.6669
     1.6863   1.7569   1.9423   2.3318   2.3793   3.8150   3.8803   3.9509
     3.9653   3.9753   4.0479   4.0937   4.2823   4.3114   4.3144   4.3363

[...]

          k = 0.0380-0.0419 0.0000 ( 17876 PWs)   bands (ev):

[...]

          k =-0.0760-0.0000 0.0000 ( 17886 PWs)   bands (ev):

[...]

          k =-0.0760-0.0839 0.0000 ( 17948 PWs)   bands (ev):

   -55.2741 -55.2591 -55.2303 -55.2302 -55.1580 -55.1481 -55.1353 -55.0826
   -55.0803 -55.0774 -55.0619 -55.0613 -54.9631 -54.7955 -54.2487 -54.2486
   -31.6679 -31.6549 -31.5810 -31.5532 -31.5531 -31.5493 -31.5225 -31.5224
   -31.4949 -31.4864 -31.4818 -31.4780 -31.4236 -31.4153 -31.4148 -31.4113
   -31.4092 -31.4051 -31.3984 -31.3850 -31.3711 -31.3605 -31.3565 -31.3496
   -31.3495 -31.3482 -31.3462 -31.3305 -31.3137 -31.3107 -31.2943 -31.2916
   -31.2865 -31.2850 -31.2850 -31.2579 -31.2423 -31.2410 -31.1703 -31.0993
   -31.0659 -31.0142 -30.5723 -30.5722 -30.4871 -30.4870 -30.4477 -30.4476
   -19.2625 -15.5929 -15.5165 -15.4615 -15.3700 -15.2928 -15.2728 -15.2628
   -15.2294 -15.1626 -15.1396 -15.0742 -15.0394 -14.9938 -14.9910 -14.9760
   -14.8912 -14.8720 -14.8569 -14.8527 -14.7916 -14.7902 -14.7632 -14.7408
   -14.7342 -14.7304 -14.6306 -14.6296 -14.4657 -14.4244 -14.1832 -12.7526
   -12.7526  -9.1528  -7.8169  -7.0614  -6.0041  -3.8480  -2.8542  -2.7677
    -2.6779  -2.5218  -2.4842  -2.4745  -2.4163  -2.3284  -2.3026  -2.2895
    -2.2692  -2.2618  -2.1885  -2.1836  -2.1396  -2.1182  -2.1074  -2.1014
    -2.0670  -2.0532  -2.0400  -2.0039  -1.9955  -1.9775  -1.9444  -1.9252
    -1.9008  -1.8720  -1.8582  -1.8299  -1.7059  -1.6763  -1.6326  -1.5655
    -1.5454  -1.4792  -1.4739  -1.3636  -1.3588  -1.3469  -1.3072  -1.2937
    -1.2614  -1.1110  -1.0668  -1.0303  -1.0193  -1.0132  -0.8577  -0.8410
    -0.7724  -0.7574  -0.7422  -0.6650  -0.6246  -0.6076  -0.5277  -0.4884
    -0.4586  -0.4369  -0.2951  -0.2822  -0.2572  -0.2430  -0.2363  -0.1439
    -0.1233  -0.0875  -0.0532  -0.0153   0.0012   0.0602   0.2146   0.2401
     0.2768   0.4209   0.4363   0.5220   0.5688   0.6962   0.7609   0.7632
     0.8445   0.9144   1.0165   1.0290   1.0482   1.1342   1.1804   1.1854
     1.1866   2.1150   2.1158   2.1993   2.1996   3.6907   3.9540   4.0767
     4.0831   4.1253   4.2479   4.3316   4.3551   4.3930   4.3951   4.4884

     the Fermi energy is     3.8699 ev

!    total energy              =   -2941.49083442 Ry
     estimated scf accuracy    <       0.00000002 Ry
     smearing contrib. (-TS)   =      -0.04234374 Ry
     internal energy E=F+TS    =   -2941.44849068 Ry

     The total energy is F=E-TS. E is the sum of the following terms:
     one-electron contribution =  -23921.99263364 Ry
     hartree contribution      =   12054.14589400 Ry
     xc contribution           =    -486.86170474 Ry
     ewald contribution        =    9413.25646083 Ry
     electric field correction =       0.00349286 Ry

     convergence has been achieved in  81 iterations

     Forces acting on atoms (cartesian axes, Ry/au):

     atom    1 type  1   force =     0.00016803   -0.00017384    0.09402971
     atom    2 type  1   force =    -0.00005001   -0.00043071   -0.17754915
     atom    3 type  2   force =     0.00006656   -0.00005015   -0.02097264
     atom    4 type  2   force =     0.00001690   -0.00180496    0.05733127
     atom    5 type  2   force =    -0.01085634   -0.00090944    0.00783168
     atom    6 type  2   force =     0.01207017   -0.00034000    0.00622765
     atom    7 type  1   force =    -0.00065662    0.00289643   -0.01528246
     atom    8 type  1   force =     0.00059514    0.00237845    0.00234814
     atom    9 type  2   force =    -0.00010317    0.00013171    0.00094073
     atom   10 type  2   force =    -0.00165601   -0.00049927   -0.00377746
     atom   11 type  2   force =    -0.00005297   -0.00024414    0.00021370
     atom   12 type  2   force =    -0.00018646   -0.00040210    0.00028145
     atom   13 type  1   force =     0.00042355    0.00108488    0.00057590
     atom   14 type  1   force =     0.00019563   -0.00061805    0.00037142
     atom   15 type  2   force =    -0.00025500    0.00058457    0.00075021
     atom   16 type  2   force =    -0.00016114   -0.00024147   -0.00119358
     atom   17 type  2   force =     0.00027193   -0.00025166    0.00022714
     atom   18 type  2   force =    -0.00093873   -0.00030770    0.00007274
     atom   19 type  1   force =    -0.00060574    0.00117850   -0.00043127
     atom   20 type  1   force =    -0.00011212    0.00154225   -0.00108274
     atom   21 type  2   force =     0.00010938   -0.00004231    0.10375514
     atom   22 type  2   force =    -0.00003162    0.00100696    0.00042603
     atom   23 type  2   force =    -0.07063096   -0.00018083   -0.02706508
     atom   24 type  2   force =     0.07057374    0.00029228   -0.02710371
     atom   25 type  1   force =     0.00014989   -0.00024039    0.09335534
     atom   26 type  1   force =    -0.00001162   -0.00037500   -0.17776455
     atom   27 type  2   force =     0.00011003   -0.00040007   -0.02000232
     atom   28 type  2   force =     0.00003458   -0.00146722    0.05681609
     atom   29 type  2   force =    -0.01075568   -0.00066164    0.00674694
     atom   30 type  2   force =     0.01187617   -0.00016998    0.00510344
     atom   31 type  1   force =    -0.00063004    0.00410184   -0.01559393
     atom   32 type  1   force =     0.00067036   -0.00283519    0.00212675
     atom   33 type  2   force =     0.00015493   -0.00021981   -0.00057366
     atom   34 type  2   force =    -0.00108854    0.00272831   -0.00198036
     atom   35 type  2   force =     0.00008762    0.00020845    0.00010271
     atom   36 type  2   force =    -0.00032922    0.00034174   -0.00006629
     atom   37 type  1   force =     0.00046917   -0.00008362    0.00023120
     atom   38 type  1   force =     0.00008863    0.00089291    0.00016121
     atom   39 type  2   force =    -0.00002090   -0.00113405    0.00040535
     atom   40 type  2   force =    -0.00023108   -0.00044032    0.00062034
     atom   41 type  2   force =    -0.00023500   -0.00007781   -0.00020054
     atom   42 type  2   force =     0.00018439    0.00006993    0.00012430
     atom   43 type  1   force =    -0.00004278   -0.00155056    0.00092630
     atom   44 type  1   force =     0.00005060   -0.00132540   -0.00094576
     atom   45 type  2   force =     0.00009656   -0.00008166    0.10374317
     atom   46 type  2   force =    -0.07065047   -0.00009591   -0.02707286
     atom   47 type  2   force =     0.07060394    0.00028816   -0.02711274
     atom   48 type  3   force =     0.00420233   -0.00777807   -0.00173112
     atom   49 type  4   force =    -0.00218389    0.00165750    0.00027614
     atom   50 type  5   force =     0.00107462   -0.00013458   -0.00052634
     atom   51 type  5   force =    -0.00063066    0.00076000   -0.00076378
     atom   52 type  3   force =    -0.00125111    0.00419822    0.00162928
     atom   53 type  5   force =    -0.00081371   -0.00071509   -0.00012448
     atom   54 type  5   force =     0.00028265   -0.00001796    0.00115544
     atom   55 type  5   force =     0.00054411   -0.00004212    0.00000990

     Total force =     0.365844     Total SCF correction =     0.000394
  @ DRIVER MODE: Message from server: STATUS
  @ DRIVER MODE: Message from server: GETFORCE
  @ DRIVER MODE: Returning v,forces,stress,ensemble

     Writing output data file ./calc.save/
  @ DRIVER MODE: Message from server: EXIT
  @ DRIVE MODE: Exiting

     General routines

     Parallel routines

   This run was terminated on:  23:27:42   8Sep2021

   JOB DONE.