     Program PWSCF v.6.7GPU starts on 23Sep2021 at 20: 5:21

     R & G space division:  proc/nbgrp/npool/nimage =       8
     Reading input from /storage/home/hcoda1/3/ntian30/research/carbon/CxH_vib/H2O_calc/ads_slab/CH3N2HHO_a/out_0054/pw.inp
Warning: card &CELL ignored
Warning: card   CELL_DYNAMICS='IPI', ignored
Warning: card / ignored

     Current dimensions of program PWSCF are:
     Max number of different atomic species (ntypx) = 10
     Max number of k-points (npk) =  40000
     Max angular momentum in pseudopotentials (lmaxx) =  3
     Presently no symmetry can be used with electric field

     Message from routine cell_base_init:
     DEPRECATED: use true lattice parameter, not A to a.u. conversion factor

     IMPORTANT: XC functional enforced from input :
     Exchange-correlation= BEEF-VDW
                           (   1   4  43  14   2   0   0)
     Any further DFT definition will be discarded
     Please, verify this is what you really want

  @ DRIVER MODE: Connecting to
 qe_1139763_2941009.sched-torque.pace.gatech.edu5k2zz9pi_scratch
  using UNIX socket
  @ DRIVER MODE: Message from server: STATUS
  @ DRIVER MODE: Message from server: INIT
  @ DRIVER MODE: Receiving replica           0          -1
  @ DRIVER MODE: Receiving encoded integer          25
  @ DRIVER MODE:  SCF:  T  FORCE:  T  STRESS:  F  VC:  F  ENSEMBLE:  F
  @ DRIVER MODE:  SCF:  T  FORCE:  T  STRESS:  F  VC:  F  ENSEMBLE:  F

     Using Slab Decomposition

     bravais-lattice index     =            0
     lattice parameter (alat)  =       1.8897  a.u.
     unit-cell volume          =    6658.9804 (a.u.)^3
     number of atoms/cell      =           56
     number of atomic types    =            5
     number of electrons       =       403.00
     number of Kohn-Sham states=          211
     kinetic-energy cutoff     =      29.3995  Ry
     charge density cutoff     =     293.9946  Ry
     scf convergence threshold =      7.3E-08
     mixing beta               =       0.0500
     number of iterations used =            8  plain     mixing
     Exchange-correlation= BEEF-VDW
                           (   1   4  43  14   2   0   0)

     celldm(1)=   1.889726  celldm(2)=   0.000000  celldm(3)=   0.000000
     celldm(4)=   0.000000  celldm(5)=   0.000000  celldm(6)=   0.000000

     crystal axes: (cart. coord. in units of alat)
               a(1) = (   6.579727   0.000000   0.000000 )
               a(2) = (  -0.000775   5.961596   0.000000 )
               a(3) = (   0.000000   0.000000  25.155947 )

     reciprocal axes: (cart. coord. in units 2 pi/alat)
               b(1) = (  0.151982  0.000020  0.000000 )
               b(2) = (  0.000000  0.167740  0.000000 )
               b(3) = (  0.000000  0.000000  0.039752 )

     PseudoPot. # 1 for Ti read from file:
     /storage/coda1/p-amedford6/0/shared/rich_project_chbe-medford/medford-share/data/pseudos_module/espresso/nninc/pbe/van/Ti.UPF
     MD5 check sum: 8e4df49b7f0d34bbd5052bf3f5ea0213
     Pseudo is Ultrasoft, Zval = 12.0
     Generated by new atomic code, or converted to UPF format
     Using radial grid of  851 points,  6 beta functions with:
                l(1) =   0
                l(2) =   0
                l(3) =   1
                l(4) =   1
                l(5) =   2
                l(6) =   2
     Q(r) pseudized with  8 coefficients,  rinner =    1.000   1.000   1.000
                                                       1.000   1.000

     PseudoPot. # 2 for O  read from file:
     /storage/coda1/p-amedford6/0/shared/rich_project_chbe-medford/medford-share/data/pseudos_module/espresso/nninc/pbe/van/O.UPF
     MD5 check sum: 78c19812648e8988a0fe644b0f25305e
     Pseudo is Ultrasoft, Zval =  6.0
     Generated by new atomic code, or converted to UPF format
     Using radial grid of  737 points,  4 beta functions with:
                l(1) =   0
                l(2) =   0
                l(3) =   1
                l(4) =   1
     Q(r) pseudized with  8 coefficients,  rinner =    0.800   0.800   0.800

     PseudoPot. # 3 for N  read from file:
     /storage/coda1/p-amedford6/0/shared/rich_project_chbe-medford/medford-share/data/pseudos_module/espresso/nninc/pbe/van/N.UPF
     MD5 check sum: 90d10febe142ad51ac9d5be1deb811c4
     Pseudo is Ultrasoft, Zval =  5.0
     Generated by new atomic code, or converted to UPF format
     Using radial grid of  729 points,  4 beta functions with:
                l(1) =   0
                l(2) =   0
                l(3) =   1
                l(4) =   1
     Q(r) pseudized with  8 coefficients,  rinner =    0.800   0.800   0.800

     PseudoPot. # 4 for C  read from file:
     /storage/coda1/p-amedford6/0/shared/rich_project_chbe-medford/medford-share/data/pseudos_module/espresso/nninc/pbe/van/C.UPF
     MD5 check sum: 1a69bf6b8db32088f5b2163dbdb77a27
     Pseudo is Ultrasoft, Zval =  4.0
     Generated by new atomic code, or converted to UPF format
     Using radial grid of  721 points,  4 beta functions with:
                l(1) =   0
                l(2) =   0
                l(3) =   1
                l(4) =   1
     Q(r) pseudized with  8 coefficients,  rinner =    0.800   0.800   0.800

     PseudoPot. # 5 for H  read from file:
     /storage/coda1/p-amedford6/0/shared/rich_project_chbe-medford/medford-share/data/pseudos_module/espresso/nninc/pbe/van/H.UPF
     MD5 check sum: b5ee9d7bfd3a09ee7748110bda690ff7
     Pseudo is Ultrasoft, Zval =  1.0
     Generated by new atomic code, or converted to UPF format
     Using radial grid of  615 points,  1 beta functions with:
                l(1) =   0
     Q(r) pseudized with  8 coefficients,  rinner =    0.800

     atomic species   valence    mass     pseudopotential
        Ti1           12.00    47.86700     Ti( 1.00)
        O1             6.00    15.99900     O ( 1.00)
        N1             5.00    14.00700     N ( 1.00)
        C1             4.00    12.01100     C ( 1.00)
        H1             1.00     1.00800     H ( 1.00)

     No symmetry found

   Cartesian axes

     site n.     atom                  positions (alat units)
         1           Ti1 tau(   1) = (   0.0004258   2.9801865   6.0000000  )
         2           Ti1 tau(   2) = (   3.2906075   1.4906267   6.0002472  )
         3           O1  tau(   3) = (   0.0006271   0.0005054   7.9858123  )
         4           O1  tau(   4) = (   3.2906025   0.0005020   7.3038282  )
         5           O1  tau(   5) = (   4.5942328   1.4918067   9.2879030  )
         6           O1  tau(   6) = (   1.9868534   1.4903216   9.2879459  )
         7           Ti1 tau(   7) = (   3.2907910   2.8959150   9.1758416  )
         8           Ti1 tau(   8) = (   0.0015273   1.4827037   9.2680791  )
         9           O1  tau(   9) = (   3.2827749   5.9542966  11.3123607  )
        10           O1  tau(  10) = (   0.0116148   5.9584955  10.6183126  )
        11           O1  tau(  11) = (   1.2790800   1.4852124  12.6463597  )
        12           O1  tau(  12) = (   5.2943908   1.4901875  12.6352807  )
        13           Ti1 tau(  13) = (   6.5507123   3.1127926  12.6266869  )
        14           Ti1 tau(  14) = (   3.2873181   1.3120036  12.6863921  )
        15           O1  tau(  15) = (   6.5656690   0.0172326  14.6855350  )
        16           O1  tau(  16) = (   3.2842416   0.0515509  13.9244022  )
        17           O1  tau(  17) = (   4.5437539   1.5966601  16.0680646  )
        18           O1  tau(  18) = (   2.0303991   1.5956099  16.0781401  )
        19           Ti1 tau(  19) = (   3.2961159   3.0594788  15.6697774  )
        20           Ti1 tau(  20) = (   6.5318457   1.5630605  15.7780207  )
        21           O1  tau(  21) = (   3.2904802   0.0005063   4.7018136  )
        22           O1  tau(  22) = (   6.5726385   0.0820865  17.2550913  )
        23           O1  tau(  23) = (   1.3043587   1.4918075   6.0039043  )
        24           O1  tau(  24) = (   5.2767064   1.4903225   6.0039473  )
        25           Ti1 tau(  25) = (   0.0000382   5.9609847   6.0000000  )
        26           Ti1 tau(  26) = (   3.2902200   4.4714249   6.0002472  )
        27           O1  tau(  27) = (   0.0002396   2.9813036   7.9858123  )
        28           O1  tau(  28) = (   3.2902150   2.9813002   7.3038282  )
        29           O1  tau(  29) = (   4.5938453   4.4726049   9.2879030  )
        30           O1  tau(  30) = (   1.9864658   4.4711199   9.2879459  )
        31           Ti1 tau(  31) = (   3.2891106   5.8743827   9.1763621  )
        32           Ti1 tau(  32) = (   0.0006254   4.4649316   9.2693709  )
        33           O1  tau(  33) = (   3.2807365   3.0201584  11.2787527  )
        34           O1  tau(  34) = (   0.0092240   2.9805883  10.6323155  )
        35           O1  tau(  35) = (   1.2751182   4.4744369  12.6357194  )
        36           O1  tau(  36) = (   5.2842299   4.4734050  12.6250694  )
        37           Ti1 tau(  37) = (   0.0094520   0.1224552  12.5707632  )
        38           Ti1 tau(  38) = (   3.2670701   4.4034752  12.4162930  )
        39           O1  tau(  39) = (   6.5622168   3.0106679  14.6773207  )
        40           O1  tau(  40) = (   3.2891587   3.0115246  13.8909557  )
        41           O1  tau(  41) = (   4.5321968   4.4927823  16.1577793  )
        42           O1  tau(  42) = (   2.0250423   4.4919485  16.1304878  )
        43           Ti1 tau(  43) = (   3.2250977   0.0853664  16.3312049  )
        44           Ti1 tau(  44) = (   6.5532039   4.7053171  16.1332850  )
        45           O1  tau(  45) = (   3.2900926   2.9813045   4.7018136  )
        46           O1  tau(  46) = (   1.3039711   4.4726057   6.0039043  )
        47           O1  tau(  47) = (   5.2763189   4.4711207   6.0039473  )
        48           N1  tau(  48) = (   0.0650423   2.5931692  18.6004617  )
        49           N1  tau(  49) = (   0.0051179   2.9528117  17.3995676  )
        50           C1  tau(  50) = (   0.1360749   3.5155665  19.7334966  )
        51           H1  tau(  51) = (   6.1082608   4.3937080  19.5213757  )
        52           H1  tau(  52) = (   6.3628389   3.0028702  20.6266755  )
        53           H1  tau(  53) = (   1.1699357   3.8405576  19.8861820  )
        54           H1  tau(  54) = (   0.1060244   1.5775976  18.7788705  )
        55           O1  tau(  55) = (   3.2396048   0.1449850  18.2004881  )
        56           H1  tau(  56) = (   3.4111690   5.2654565  18.6566900  )

     number of k points=    10  Fermi-Dirac smearing, width (Ry)=  0.0073
                       cart. coord. in units 2pi/alat
        k(    1) = (   0.0000000   0.0000000   0.0000000), wk =   0.1250000
        k(    2) = (   0.0000000   0.0419351   0.0000000), wk =   0.2500000
        k(    3) = (   0.0000000  -0.0838702   0.0000000), wk =   0.1250000
        k(    4) = (   0.0379955   0.0000049   0.0000000), wk =   0.2500000
        k(    5) = (   0.0379955   0.0419400   0.0000000), wk =   0.2500000
        k(    6) = (   0.0379955  -0.0838652   0.0000000), wk =   0.2500000
        k(    7) = (   0.0379955  -0.0419301   0.0000000), wk =   0.2500000
        k(    8) = (  -0.0759910  -0.0000099   0.0000000), wk =   0.1250000
        k(    9) = (  -0.0759910   0.0419252   0.0000000), wk =   0.2500000
        k(   10) = (  -0.0759910  -0.0838800   0.0000000), wk =   0.1250000

     Initial potential from superposition of free atoms

     starting charge  386.99914, renormalised to  403.00000

     negative rho (up, down):  1.429E-02 0.000E+00

     %%%%%%%%%%%%%%%%%%%%%%%%%%%%%%%%%%%%%%%%%%%%%%%%%%%%%%%%%%%%%%%%%%%%%%%%
     %                                                                      %
     % You are using vdW-DF, which was implemented by the Thonhauser group. %
     % Please cite the following two papers that made this development      %
     % possible and the two reviews that describe the various versions:     %
     %                                                                      %
     %   T. Thonhauser et al., PRL 115, 136402 (2015).                      %
     %   T. Thonhauser et al., PRB 76, 125112 (2007).                       %
     %   K. Berland et al., Rep. Prog. Phys. 78, 066501 (2015).             %
     %   D.C. Langreth et al., J. Phys.: Condens. Matter 21, 084203 (2009). %
     %                                                                      %
     %                                                                      %
     % If you are calculating the stress with vdW-DF, please also cite:     %
     %                                                                      %
     %   R. Sabatini et al., J. Phys.: Condens. Matter 24, 424209 (2012).   %
     %                                                                      %
     %%%%%%%%%%%%%%%%%%%%%%%%%%%%%%%%%%%%%%%%%%%%%%%%%%%%%%%%%%%%%%%%%%%%%%%%

     Adding external electric field

     Computed dipole along edir(3) :
        Dipole              -12.7227 Ry au,        -32.3378 Debye
        Dipole field         -0.0240 Ry au,

        Potential amp.        2.2256 Ry
        Total length         46.3494 bohr

     Starting wfcs are  305 atomic wfcs
  @ DRIVER MODE: Message from server: STATUS
  @ DRIVER MODE: Message from server: POSDATA
  @ DRIVER MODE: Reading and sharing cell
  @ DRIVER MODE: Reading and sharing positions
  @ DRIVER MODE: Received positions

     Self-consistent Calculation

     iteration #  1     ecut=    29.40 Ry     beta= 0.05
     Davidson diagonalization with overlap
     c_bands:  5 eigenvalues not converged
     c_bands:  4 eigenvalues not converged
     c_bands:  3 eigenvalues not converged
     c_bands:  4 eigenvalues not converged
     c_bands:  5 eigenvalues not converged
     c_bands:  4 eigenvalues not converged
     c_bands:  1 eigenvalues not converged
     c_bands:  4 eigenvalues not converged
     ethr =  1.00E-05,  avg # of iterations = 25.4

[...]

     total energy              =   -2361.22660638 Ry
     estimated scf accuracy    <    6936.11844921 Ry

     iteration #  2     ecut=    29.40 Ry     beta= 0.05
     Davidson diagonalization with overlap
     ethr =  1.00E-02,  avg # of iterations = 23.4

[...]

     iteration # 46     ecut=    29.40 Ry     beta= 0.05
     Davidson diagonalization with overlap
     c_bands:  1 eigenvalues not converged
     ethr =  5.65E-07,  avg # of iterations =  8.5

[...]

     total energy              =   -2973.99522546 Ry
     estimated scf accuracy    <       0.00000014 Ry

     iteration # 68     ecut=    29.40 Ry     beta= 0.05
     Davidson diagonalization with overlap
     ethr =  3.36E-11,  avg # of iterations =  5.9

     negative rho (up, down):  1.502E-02 0.000E+00

     Adding external electric field

     Computed dipole along edir(3) :
        Dipole                1.1966 Ry au,          3.0415 Debye
        Dipole field          0.0023 Ry au,

        Potential amp.       -0.2093 Ry
        Total length         46.3494 bohr

     End of self-consistent calculation

          k = 0.0000 0.0000 0.0000 ( 18029 PWs)   bands (ev):

   -55.6995 -55.6656 -55.3852 -55.3512 -55.2759 -55.1683 -55.1131 -55.0350
   -54.9888 -54.9562 -54.8283 -54.7345 -54.6936 -54.6226 -54.5267 -54.4927
   -32.1594 -31.9937 -31.9699 -31.8607 -31.8546 -31.7829 -31.7613 -31.6504
   -31.6047 -31.6034 -31.5923 -31.5385 -31.5355 -31.5167 -31.4958 -31.4905
   -31.4868 -31.3938 -31.3854 -31.3688 -31.3338 -31.3148 -31.3039 -31.2930
   -31.2734 -31.2694 -31.2358 -31.1980 -31.1740 -31.1729 -31.1629 -31.1455
   -31.0952 -31.0283 -30.9898 -30.9506 -30.9486 -30.9261 -30.9188 -30.9045
   -30.8938 -30.8563 -30.8365 -30.8330 -30.8326 -30.7443 -30.6591 -30.5473
   -19.0746 -16.1972 -16.0557 -15.7640 -15.5926 -15.3858 -15.3568 -15.2626
   -15.1601 -15.1422 -15.0395 -14.9743 -14.8894 -14.8202 -14.8001 -14.7525
   -14.7223 -14.6935 -14.6793 -14.6694 -14.6306 -14.5998 -14.5828 -14.5070
   -14.4623 -14.4441 -14.4165 -14.3504 -14.2552 -13.9894 -13.9268 -13.0243
   -12.9109 -12.5782  -9.3443  -6.2114  -4.7719  -4.7215  -3.7710  -3.5350
    -3.4434  -3.3292  -3.1205  -3.0710  -2.8917  -2.7724  -2.7515  -2.5315
    -2.5039  -2.3924  -2.3771  -2.3315  -2.3240  -2.2900  -2.2234  -2.1951
    -2.1232  -2.0628  -2.0359  -2.0023  -1.9499  -1.8942  -1.8885  -1.8749
    -1.8177  -1.7500  -1.7216  -1.7129  -1.6687  -1.6050  -1.5966  -1.5795
    -1.5604  -1.5394  -1.3965  -1.2902  -1.2291  -1.1905  -1.1409  -1.0848
    -1.0326  -1.0185  -0.9183  -0.8384  -0.7970  -0.6791  -0.6501  -0.6114
    -0.5266  -0.5021  -0.4581  -0.4396  -0.3992  -0.3919  -0.2872  -0.2700
    -0.2355  -0.1932  -0.0720  -0.0255  -0.0177   0.0640   0.1227   0.2029
     0.2446   0.2612   0.2845   0.3707   0.3988   0.4159   0.4235   0.4967
     0.5158   0.5639   0.6179   0.7007   0.7139   0.7530   0.7868   0.7998
     0.9301   0.9379   1.0283   1.0516   1.0627   1.1271   1.2214   1.2808
     1.3924   1.4068   1.4987   1.4994   1.5193   1.7178   1.8928   2.0509
     2.0912   3.5019   3.6212   3.6832   3.7210   3.9318   3.9434   4.2067
     4.2818   4.3747   4.4142

[...]

          k = 0.0380-0.0419 0.0000 ( 17876 PWs)   bands (ev):

[...]

          k =-0.0760-0.0000 0.0000 ( 17886 PWs)   bands (ev):

[...]

          k =-0.0760-0.0839 0.0000 ( 17948 PWs)   bands (ev):

   -55.6827 -55.6823 -55.3707 -55.3654 -55.2752 -55.1624 -55.1189 -55.0272
   -54.9964 -54.9566 -54.8263 -54.7322 -54.6956 -54.6247 -54.5102 -54.5091
   -31.9796 -31.9792 -31.9750 -31.9749 -31.8063 -31.8057 -31.6889 -31.6834
   -31.5688 -31.5648 -31.5634 -31.5571 -31.5519 -31.4911 -31.4812 -31.4665
   -31.4334 -31.3844 -31.3826 -31.3596 -31.3449 -31.3441 -31.3328 -31.3324
   -31.2560 -31.2417 -31.2356 -31.2314 -31.2039 -31.1925 -31.1628 -31.1541
   -31.0874 -31.0381 -31.0335 -30.9902 -30.9570 -30.9522 -30.9511 -30.9095
   -30.8712 -30.8462 -30.8454 -30.8355 -30.7407 -30.7394 -30.7022 -30.7014
   -19.0713 -16.1896 -15.4705 -15.4602 -15.3163 -15.3069 -15.2281 -15.1396
   -15.1215 -15.0924 -15.0434 -15.0216 -14.9399 -14.8835 -14.8638 -14.8386
   -14.8191 -14.8054 -14.7481 -14.7447 -14.7296 -14.7150 -14.6495 -14.6111
   -14.5811 -14.5743 -14.4665 -14.3866 -14.3028 -14.1536 -14.0633 -13.0140
   -13.0132 -12.5786  -9.3510  -6.2041  -4.7625  -4.7214  -3.7639  -3.4154
    -2.6489  -2.6058  -2.5145  -2.4367  -2.4315  -2.3826  -2.3820  -2.3004
    -2.2478  -2.1899  -2.1659  -2.1574  -2.1571  -2.1257  -2.1164  -2.0624
    -2.0575  -2.0397  -2.0369  -1.9801  -1.9554  -1.9409  -1.8891  -1.8339
    -1.7830  -1.7461  -1.7245  -1.6840  -1.6663  -1.6633  -1.5778  -1.5636
    -1.5362  -1.5086  -1.4637  -1.4332  -1.3775  -1.3562  -1.2997  -1.1721
    -1.1010  -1.0158  -0.9097  -0.8888  -0.8560  -0.8225  -0.8101  -0.7875
    -0.7543  -0.6390  -0.6289  -0.5790  -0.5472  -0.5197  -0.5016  -0.4739
    -0.4500  -0.3489  -0.3074  -0.2783  -0.2387  -0.2046  -0.1766  -0.1434
    -0.0910  -0.0525  -0.0414  -0.0111   0.0225   0.0372   0.1903   0.2726
     0.4029   0.4310   0.5211   0.5673   0.5997   0.6288   0.6582   0.7761
     0.8236   0.8463   0.8830   0.9047   1.0040   1.1004   1.1206   1.1890
     1.2231   1.3281   1.3591   1.4468   1.4985   1.8806   1.8885   1.9093
     1.9099   3.3794   4.0469   4.0498   4.0615   4.0748   4.2402   4.2428
     4.3445   4.3679   4.4855

     the Fermi energy is     3.4584 ev

!    total energy              =   -2973.99525495 Ry
     estimated scf accuracy    <       0.00000006 Ry
     smearing contrib. (-TS)   =      -0.01688973 Ry
     internal energy E=F+TS    =   -2973.97836522 Ry

     The total energy is F=E-TS. E is the sum of the following terms:
     one-electron contribution =  -23437.34802893 Ry
     hartree contribution      =   11816.14265957 Ry
     xc contribution           =    -493.95091229 Ry
     ewald contribution        =    9141.17521431 Ry
     electric field correction =       0.00270213 Ry

     convergence has been achieved in  68 iterations

     Forces acting on atoms (cartesian axes, Ry/au):

     atom    1 type  1   force =     0.00012153   -0.00023807    0.10271635
     atom    2 type  1   force =    -0.00011776    0.00010142   -0.16803503
     atom    3 type  2   force =    -0.00000787    0.00045810   -0.03240787
     atom    4 type  2   force =     0.00002808   -0.00097343    0.04009998
     atom    5 type  2   force =    -0.00543195   -0.00190978   -0.00432825
     atom    6 type  2   force =     0.00666630   -0.00135532   -0.00592846
     atom    7 type  1   force =    -0.00053848   -0.00530789    0.03007701
     atom    8 type  1   force =     0.00069730    0.00861227    0.04854209
     atom    9 type  2   force =     0.00012402   -0.00130557   -0.00106347
     atom   10 type  2   force =    -0.00253554    0.00301425   -0.03416938
     atom   11 type  2   force =    -0.00038164   -0.00008926   -0.00024749
     atom   12 type  2   force =     0.00048052   -0.00037141   -0.00012899
     atom   13 type  1   force =     0.00022646   -0.00161344    0.00021537
     atom   14 type  1   force =     0.00017071   -0.00074069    0.00071780
     atom   15 type  2   force =     0.00008814    0.00005535   -0.00030377
     atom   16 type  2   force =    -0.00013090    0.00004793    0.00175097
     atom   17 type  2   force =    -0.00101011   -0.00058786    0.00036728
     atom   18 type  2   force =     0.00061254   -0.00108171    0.00049345
     atom   19 type  1   force =     0.00061845   -0.00087383   -0.00065805
     atom   20 type  1   force =    -0.00077112   -0.00040585   -0.00025123
     atom   21 type  2   force =     0.00004755    0.00012162    0.10112868
     atom   22 type  2   force =    -0.00009732    0.00053074    0.00033754
     atom   23 type  2   force =    -0.07542785   -0.00011910   -0.02931117
     atom   24 type  2   force =     0.07534032    0.00030268   -0.02932854
     atom   25 type  1   force =     0.00014153   -0.00022881    0.10283475
     atom   26 type  1   force =    -0.00003975   -0.00131301   -0.16844647
     atom   27 type  2   force =     0.00011903    0.00017470   -0.03118001
     atom   28 type  2   force =    -0.00000948    0.00072326    0.03581675
     atom   29 type  2   force =    -0.00426155    0.00378627   -0.00625958
     atom   30 type  2   force =     0.00528564    0.00442325   -0.00778556
     atom   31 type  1   force =    -0.00054329    0.00495659    0.01596719
     atom   32 type  1   force =     0.00076968   -0.01041903    0.04923482
     atom   33 type  2   force =     0.00002772   -0.00091458   -0.00138759
     atom   34 type  2   force =    -0.00240578    0.00222267   -0.04433392
     atom   35 type  2   force =     0.00054806    0.00019727   -0.00015095
     atom   36 type  2   force =    -0.00017495    0.00022717   -0.00008113
     atom   37 type  1   force =     0.00026552    0.00037877   -0.00043697
     atom   38 type  1   force =     0.00041737    0.00137202    0.00107886
     atom   39 type  2   force =     0.00036583    0.00044987    0.00006535
     atom   40 type  2   force =     0.00005850    0.00015172    0.00040648
     atom   41 type  2   force =    -0.00086785   -0.00027057   -0.00002599
     atom   42 type  2   force =     0.00040004    0.00024651    0.00023041
     atom   43 type  1   force =     0.00037022   -0.00020392   -0.00101482
     atom   44 type  1   force =    -0.00068721   -0.00017597   -0.00094674
     atom   45 type  2   force =     0.00007138   -0.00001991    0.10095355
     atom   46 type  2   force =    -0.07548512   -0.00005218   -0.02932841
     atom   47 type  2   force =     0.07539595    0.00038137   -0.02932423
     atom   48 type  3   force =    -0.00067726   -0.00005961    0.00081263
     atom   49 type  3   force =     0.00035494   -0.00062400   -0.00127408
     atom   50 type  4   force =     0.00119567    0.00120299    0.00050959
     atom   51 type  5   force =     0.00013847   -0.00074703   -0.00135785
     atom   52 type  5   force =    -0.00019586   -0.00055611   -0.00046206
     atom   53 type  5   force =    -0.00011172   -0.00052986   -0.00099685
     atom   54 type  5   force =    -0.00005172   -0.00065123   -0.00136295
     atom   55 type  2   force =     0.00120119   -0.00705041    0.00354543
     atom   56 type  5   force =    -0.00038658    0.00665067   -0.00558446

     Total force =     0.372945     Total SCF correction =     0.000701
  @ DRIVER MODE: Message from server: STATUS
  @ DRIVER MODE: Message from server: GETFORCE
  @ DRIVER MODE: Returning v,forces,stress,ensemble

     Writing output data file ./calc.save/
  @ DRIVER MODE: Message from server: EXIT
  @ DRIVE MODE: Exiting

     General routines

     Parallel routines

   This run was terminated on:  20:28: 6  23Sep2021

   JOB DONE.