     Program PWSCF v.6.7GPU starts on 12Oct2021 at 20:46:35

     R & G space division:  proc/nbgrp/npool/nimage =       8
     Reading input from /storage/home/hcoda1/3/ntian30/research/carbon/CxH_vib/CH_calc/ads_slab/CHNHH_b/out_0021/pw.inp
Warning: card &CELL ignored
Warning: card   CELL_DYNAMICS='IPI', ignored
Warning: card / ignored

     Current dimensions of program PWSCF are:
     Max number of different atomic species (ntypx) = 10
     Max number of k-points (npk) =  40000
     Max angular momentum in pseudopotentials (lmaxx) =  3
     Presently no symmetry can be used with electric field

     Message from routine cell_base_init:
     DEPRECATED: use true lattice parameter, not A to a.u. conversion factor

     IMPORTANT: XC functional enforced from input :
     Exchange-correlation= BEEF-VDW
                           (   1   4  43  14   2   0   0)
     Any further DFT definition will be discarded
     Please, verify this is what you really want

  @ DRIVER MODE: Connecting to
 qe_1139763_3182856.sched-torque.pace.gatech.edumratr5ts_scratch
  using UNIX socket
  @ DRIVER MODE: Message from server: STATUS
  @ DRIVER MODE: Message from server: INIT
  @ DRIVER MODE: Receiving replica           0          -1
  @ DRIVER MODE: Receiving encoded integer          25
  @ DRIVER MODE:  SCF:  T  FORCE:  T  STRESS:  F  VC:  F  ENSEMBLE:  F
  @ DRIVER MODE:  SCF:  T  FORCE:  T  STRESS:  F  VC:  F  ENSEMBLE:  F

     Using Slab Decomposition

     bravais-lattice index     =            0
     lattice parameter (alat)  =       1.8897  a.u.
     unit-cell volume          =    6658.9804 (a.u.)^3
     number of atoms/cell      =           52
     number of atomic types    =            5
     number of electrons       =       390.00
     number of Kohn-Sham states=          205
     kinetic-energy cutoff     =      29.3995  Ry
     charge density cutoff     =     293.9946  Ry
     scf convergence threshold =      7.3E-08
     mixing beta               =       0.0500
     number of iterations used =            8  plain     mixing
     Exchange-correlation= BEEF-VDW
                           (   1   4  43  14   2   0   0)

     celldm(1)=   1.889726  celldm(2)=   0.000000  celldm(3)=   0.000000
     celldm(4)=   0.000000  celldm(5)=   0.000000  celldm(6)=   0.000000

     crystal axes: (cart. coord. in units of alat)
               a(1) = (   6.579727   0.000000   0.000000 )
               a(2) = (  -0.000775   5.961596   0.000000 )
               a(3) = (   0.000000   0.000000  25.155947 )

     reciprocal axes: (cart. coord. in units 2 pi/alat)
               b(1) = (  0.151982  0.000020  0.000000 )
               b(2) = (  0.000000  0.167740  0.000000 )
               b(3) = (  0.000000  0.000000  0.039752 )

     PseudoPot. # 1 for Ti read from file:
     /storage/coda1/p-amedford6/0/shared/rich_project_chbe-medford/medford-share/data/pseudos_module/espresso/nninc/pbe/van/Ti.UPF
     MD5 check sum: 8e4df49b7f0d34bbd5052bf3f5ea0213
     Pseudo is Ultrasoft, Zval = 12.0
     Generated by new atomic code, or converted to UPF format
     Using radial grid of  851 points,  6 beta functions with:
                l(1) =   0
                l(2) =   0
                l(3) =   1
                l(4) =   1
                l(5) =   2
                l(6) =   2
     Q(r) pseudized with  8 coefficients,  rinner =    1.000   1.000   1.000
                                                       1.000   1.000

     PseudoPot. # 2 for O  read from file:
     /storage/coda1/p-amedford6/0/shared/rich_project_chbe-medford/medford-share/data/pseudos_module/espresso/nninc/pbe/van/O.UPF
     MD5 check sum: 78c19812648e8988a0fe644b0f25305e
     Pseudo is Ultrasoft, Zval =  6.0
     Generated by new atomic code, or converted to UPF format
     Using radial grid of  737 points,  4 beta functions with:
                l(1) =   0
                l(2) =   0
                l(3) =   1
                l(4) =   1
     Q(r) pseudized with  8 coefficients,  rinner =    0.800   0.800   0.800

     PseudoPot. # 3 for C  read from file:
     /storage/coda1/p-amedford6/0/shared/rich_project_chbe-medford/medford-share/data/pseudos_module/espresso/nninc/pbe/van/C.UPF
     MD5 check sum: 1a69bf6b8db32088f5b2163dbdb77a27
     Pseudo is Ultrasoft, Zval =  4.0
     Generated by new atomic code, or converted to UPF format
     Using radial grid of  721 points,  4 beta functions with:
                l(1) =   0
                l(2) =   0
                l(3) =   1
                l(4) =   1
     Q(r) pseudized with  8 coefficients,  rinner =    0.800   0.800   0.800

     PseudoPot. # 4 for H  read from file:
     /storage/coda1/p-amedford6/0/shared/rich_project_chbe-medford/medford-share/data/pseudos_module/espresso/nninc/pbe/van/H.UPF
     MD5 check sum: b5ee9d7bfd3a09ee7748110bda690ff7
     Pseudo is Ultrasoft, Zval =  1.0
     Generated by new atomic code, or converted to UPF format
     Using radial grid of  615 points,  1 beta functions with:
                l(1) =   0
     Q(r) pseudized with  8 coefficients,  rinner =    0.800

     PseudoPot. # 5 for N  read from file:
     /storage/coda1/p-amedford6/0/shared/rich_project_chbe-medford/medford-share/data/pseudos_module/espresso/nninc/pbe/van/N.UPF
     MD5 check sum: 90d10febe142ad51ac9d5be1deb811c4
     Pseudo is Ultrasoft, Zval =  5.0
     Generated by new atomic code, or converted to UPF format
     Using radial grid of  729 points,  4 beta functions with:
                l(1) =   0
                l(2) =   0
                l(3) =   1
                l(4) =   1
     Q(r) pseudized with  8 coefficients,  rinner =    0.800   0.800   0.800

     atomic species   valence    mass     pseudopotential
        Ti1           12.00    47.86700     Ti( 1.00)
        O1             6.00    15.99900     O ( 1.00)
        C1             4.00    12.01100     C ( 1.00)
        H1             1.00     1.00800     H ( 1.00)
        N1             5.00    14.00700     N ( 1.00)

     No symmetry found

   Cartesian axes

     site n.     atom                  positions (alat units)
         1           Ti1 tau(   1) = (   0.0004258   2.9801865   6.0000000  )
         2           Ti1 tau(   2) = (   3.2906075   1.4906267   6.0002472  )
         3           O1  tau(   3) = (   0.0006271   0.0005054   7.9858123  )
         4           O1  tau(   4) = (   3.2906025   0.0005020   7.3038282  )
         5           O1  tau(   5) = (   4.5942328   1.4918067   9.2879030  )
         6           O1  tau(   6) = (   1.9868534   1.4903216   9.2879459  )
         7           Ti1 tau(   7) = (   3.2907309   2.9776765   9.1658812  )
         8           Ti1 tau(   8) = (   0.0014263   1.4814950   9.2876947  )
         9           O1  tau(   9) = (   3.2944750   0.0002302  11.3604974  )
        10           O1  tau(  10) = (   0.0008895   5.9586890  10.6035392  )
        11           O1  tau(  11) = (   1.2972031   1.4939413  12.6393260  )
        12           O1  tau(  12) = (   5.2935702   1.4970258  12.6342454  )
        13           Ti1 tau(  13) = (   6.5783930   2.9813526  12.8381062  )
        14           Ti1 tau(  14) = (   3.2906537   1.4978773  12.4963327  )
        15           O1  tau(  15) = (   6.5733175   0.0290402  14.6574804  )
        16           O1  tau(  16) = (   3.3054662   0.0216765  13.9740687  )
        17           O1  tau(  17) = (   4.5350609   1.5403548  16.2059549  )
        18           O1  tau(  18) = (   2.0349166   1.5291342  16.1470642  )
        19           Ti1 tau(  19) = (   3.2872240   3.0047607  15.7234092  )
        20           Ti1 tau(  20) = (   0.0410825   1.5194215  16.1276637  )
        21           O1  tau(  21) = (   3.2904802   0.0005063   4.7018136  )
        22           O1  tau(  22) = (   6.5652676   5.8907541  17.2497628  )
        23           O1  tau(  23) = (   1.3043587   1.4918075   6.0039043  )
        24           O1  tau(  24) = (   5.2767064   1.4903225   6.0039473  )
        25           Ti1 tau(  25) = (   0.0000382   5.9609847   6.0000000  )
        26           Ti1 tau(  26) = (   3.2902200   4.4714249   6.0002472  )
        27           O1  tau(  27) = (   0.0002396   2.9813036   7.9858123  )
        28           O1  tau(  28) = (   3.2902150   2.9813002   7.3038282  )
        29           O1  tau(  29) = (   4.5938453   4.4726049   9.2879030  )
        30           O1  tau(  30) = (   1.9864658   4.4711199   9.2879459  )
        31           Ti1 tau(  31) = (   3.2906741   5.9584693   9.1623309  )
        32           Ti1 tau(  32) = (   0.0012165   4.4014169   9.3465426  )
        33           O1  tau(  33) = (   3.2924083   2.9889881  11.3543434  )
        34           O1  tau(  34) = (   0.0022264   2.9772995  10.5544931  )
        35           O1  tau(  35) = (   1.2986444   4.4679898  12.6568800  )
        36           O1  tau(  36) = (   5.2923799   4.4657857  12.6543205  )
        37           Ti1 tau(  37) = (   0.0025552   0.0092372  12.5181211  )
        38           Ti1 tau(  38) = (   3.2887235   4.4740353  12.4983661  )
        39           O1  tau(  39) = (   0.0036310   2.9570434  14.7349056  )
        40           O1  tau(  40) = (   3.2990611   2.9752856  13.9364830  )
        41           O1  tau(  41) = (   4.5418486   4.4722619  16.1017917  )
        42           O1  tau(  42) = (   2.0452692   4.4787779  16.1069431  )
        43           Ti1 tau(  43) = (   3.3182015   0.0155015  15.7624703  )
        44           Ti1 tau(  44) = (   0.0016332   4.6944760  15.9151726  )
        45           O1  tau(  45) = (   3.2900926   2.9813045   4.7018136  )
        46           C1  tau(  46) = (   0.0781255   2.7894620  17.8686468  )
        47           O1  tau(  47) = (   1.3039711   4.4726057   6.0039043  )
        48           O1  tau(  48) = (   5.2763189   4.4711207   6.0039473  )
        49           H1  tau(  49) = (   0.9954384   3.2332450  18.2619424  )
        50           H1  tau(  50) = (   4.7724221   2.4647446  18.5698542  )
        51           N1  tau(  51) = (   5.6845287   2.8338018  18.7814782  )
        52           H1  tau(  52) = (   5.7759989   3.3395087  19.6567880  )

     number of k points=    10  Fermi-Dirac smearing, width (Ry)=  0.0073
                       cart. coord. in units 2pi/alat
        k(    1) = (   0.0000000   0.0000000   0.0000000), wk =   0.1250000
        k(    2) = (   0.0000000   0.0419351   0.0000000), wk =   0.2500000
        k(    3) = (   0.0000000  -0.0838702   0.0000000), wk =   0.1250000
        k(    4) = (   0.0379955   0.0000049   0.0000000), wk =   0.2500000
        k(    5) = (   0.0379955   0.0419400   0.0000000), wk =   0.2500000
        k(    6) = (   0.0379955  -0.0838652   0.0000000), wk =   0.2500000
        k(    7) = (   0.0379955  -0.0419301   0.0000000), wk =   0.2500000
        k(    8) = (  -0.0759910  -0.0000099   0.0000000), wk =   0.1250000
        k(    9) = (  -0.0759910   0.0419252   0.0000000), wk =   0.2500000
        k(   10) = (  -0.0759910  -0.0838800   0.0000000), wk =   0.1250000

     Initial potential from superposition of free atoms

     starting charge  373.99917, renormalised to  390.00000

     negative rho (up, down):  1.780E-02 0.000E+00

     %%%%%%%%%%%%%%%%%%%%%%%%%%%%%%%%%%%%%%%%%%%%%%%%%%%%%%%%%%%%%%%%%%%%%%%%
     %                                                                      %
     % You are using vdW-DF, which was implemented by the Thonhauser group. %
     % Please cite the following two papers that made this development      %
     % possible and the two reviews that describe the various versions:     %
     %                                                                      %
     %   T. Thonhauser et al., PRL 115, 136402 (2015).                      %
     %   T. Thonhauser et al., PRB 76, 125112 (2007).                       %
     %   K. Berland et al., Rep. Prog. Phys. 78, 066501 (2015).             %
     %   D.C. Langreth et al., J. Phys.: Condens. Matter 21, 084203 (2009). %
     %                                                                      %
     %                                                                      %
     % If you are calculating the stress with vdW-DF, please also cite:     %
     %                                                                      %
     %   R. Sabatini et al., J. Phys.: Condens. Matter 24, 424209 (2012).   %
     %                                                                      %
     %%%%%%%%%%%%%%%%%%%%%%%%%%%%%%%%%%%%%%%%%%%%%%%%%%%%%%%%%%%%%%%%%%%%%%%%

     Adding external electric field

     Computed dipole along edir(3) :
        Dipole               -5.3776 Ry au,        -13.6685 Debye
        Dipole field         -0.0101 Ry au,

        Potential amp.        0.9407 Ry
        Total length         46.3494 bohr

     Starting wfcs are  295 atomic wfcs
  @ DRIVER MODE: Message from server: STATUS
  @ DRIVER MODE: Message from server: POSDATA
  @ DRIVER MODE: Reading and sharing cell
  @ DRIVER MODE: Reading and sharing positions
  @ DRIVER MODE: Received positions

     Self-consistent Calculation

     iteration #  1     ecut=    29.40 Ry     beta= 0.05
     Davidson diagonalization with overlap
     c_bands:  5 eigenvalues not converged
     c_bands:  1 eigenvalues not converged
     c_bands:  2 eigenvalues not converged
     c_bands:  5 eigenvalues not converged
     c_bands:  1 eigenvalues not converged
     c_bands:  5 eigenvalues not converged
     c_bands:  1 eigenvalues not converged
     c_bands:  1 eigenvalues not converged
     c_bands:  1 eigenvalues not converged
     ethr =  1.00E-05,  avg # of iterations = 20.9

[...]

     total energy              =   -2826.51317890 Ry
     estimated scf accuracy    <    1030.37637709 Ry

     iteration #  2     ecut=    29.40 Ry     beta= 0.05
     Davidson diagonalization with overlap
     ethr =  1.00E-02,  avg # of iterations = 16.6

[...]

     iteration # 45     ecut=    29.40 Ry     beta= 0.05
     Davidson diagonalization with overlap
     c_bands:  3 eigenvalues not converged
     c_bands:  1 eigenvalues not converged
     ethr =  5.58E-07,  avg # of iterations = 14.6

[...]

     total energy              =   -2919.05154555 Ry
     estimated scf accuracy    <       0.00000011 Ry

     iteration # 65     ecut=    29.40 Ry     beta= 0.05
     Davidson diagonalization with overlap
     ethr =  2.85E-11,  avg # of iterations =  6.5

     negative rho (up, down):  1.779E-02 0.000E+00

     Adding external electric field

     Computed dipole along edir(3) :
        Dipole                1.2242 Ry au,          3.1116 Debye
        Dipole field          0.0023 Ry au,

        Potential amp.       -0.2142 Ry
        Total length         46.3494 bohr

     End of self-consistent calculation

          k = 0.0000 0.0000 0.0000 ( 18029 PWs)   bands (ev):

   -55.6394 -55.6206 -55.5989 -55.5843 -55.5454 -55.5018 -55.4523 -55.4446
   -55.3968 -55.3840 -55.3621 -55.2997 -55.0208 -54.9630 -54.6215 -54.5874
   -32.1908 -32.1005 -31.9713 -31.9606 -31.9551 -31.9304 -31.8943 -31.8814
   -31.8683 -31.8529 -31.8337 -31.8246 -31.8032 -31.8008 -31.7689 -31.7675
   -31.7501 -31.7229 -31.7186 -31.7053 -31.6821 -31.6691 -31.6628 -31.6445
   -31.6439 -31.6314 -31.6155 -31.6023 -31.5938 -31.5829 -31.5518 -31.5493
   -31.5345 -31.5093 -31.4926 -31.4888 -31.4582 -31.3725 -31.3177 -31.2533
   -31.0769 -31.0406 -31.0306 -30.9359 -30.9134 -30.8470 -30.7607 -30.6498
   -16.5533 -16.3778 -16.0742 -15.9485 -15.7851 -15.7447 -15.6652 -15.4513
   -15.3328 -15.2599 -15.2404 -15.2248 -15.2060 -15.1971 -15.1537 -15.1409
   -15.1205 -15.0745 -15.0522 -15.0225 -15.0173 -14.9943 -14.9382 -14.8975
   -14.8966 -14.7784 -14.7375 -14.6120 -14.5743 -14.4323 -13.1234 -13.0059
    -9.1583  -6.8600  -4.4095  -3.7324  -3.5399  -3.5116  -3.5065  -3.4351
    -3.2108  -3.1890  -2.8572  -2.7980  -2.7883  -2.7548  -2.7372  -2.5937
    -2.5421  -2.4788  -2.4414  -2.4313  -2.4244  -2.4101  -2.3905  -2.3596
    -2.3451  -2.3178  -2.2281  -2.1543  -2.0519  -2.0405  -1.9755  -1.9245
    -1.8900  -1.8811  -1.8467  -1.8339  -1.8099  -1.7933  -1.7615  -1.7156
    -1.5297  -1.5237  -1.4865  -1.4411  -1.2887  -1.2551  -1.2224  -1.0930
    -1.0469  -1.0196  -0.9440  -0.9401  -0.9289  -0.8709  -0.8319  -0.7772
    -0.6809  -0.6555  -0.5711  -0.5558  -0.5003  -0.4699  -0.3489  -0.3394
    -0.3210  -0.3031  -0.1181  -0.1107  -0.0828  -0.0693   0.0312   0.0699
     0.0914   0.1655   0.1767   0.1923   0.2136   0.3341   0.3718   0.3793
     0.4003   0.4077   0.4167   0.5813   0.6096   0.6806   0.7041   0.7602
     0.9166   0.9408   1.0408   1.1059   1.3087   1.4012   1.4674   1.5782
     1.9881   2.0528   3.4363   3.5682   3.5739   3.6263   3.6520   3.7083
     3.9131   3.9504   3.9767   4.0103   4.0361

[...]

          k = 0.0380-0.0419 0.0000 ( 17876 PWs)   bands (ev):

[...]

          k =-0.0760-0.0000 0.0000 ( 17886 PWs)   bands (ev):

[...]

          k =-0.0760-0.0839 0.0000 ( 17948 PWs)   bands (ev):

   -55.6302 -55.6080 -55.6038 -55.6010 -55.5421 -55.4969 -55.4555 -55.4494
   -55.3811 -55.3809 -55.3770 -55.3033 -55.0159 -54.9677 -54.6046 -54.6041
   -31.9943 -31.9922 -31.9335 -31.9271 -31.9218 -31.9058 -31.8874 -31.8864
   -31.8331 -31.8314 -31.8257 -31.7996 -31.7964 -31.7585 -31.7466 -31.7439
   -31.7430 -31.7418 -31.7379 -31.7209 -31.7078 -31.6973 -31.6955 -31.6891
   -31.6619 -31.6610 -31.6562 -31.6287 -31.6282 -31.6214 -31.5826 -31.5805
   -31.5701 -31.5682 -31.5157 -31.4988 -31.4819 -31.3768 -31.3118 -31.2557
   -31.1527 -31.0434 -30.9264 -30.9257 -30.8436 -30.8432 -30.8041 -30.8036
   -16.5431 -15.8512 -15.7922 -15.5762 -15.5555 -15.5551 -15.4703 -15.3984
   -15.3926 -15.3617 -15.3427 -15.3179 -15.3098 -15.2563 -15.2327 -15.1672
   -15.1437 -15.1272 -15.1249 -15.0678 -15.0597 -15.0276 -15.0080 -14.9943
   -14.9711 -14.9405 -14.9299 -14.8020 -14.7642 -14.5599 -13.1092 -13.1055
    -9.1685  -6.8636  -4.3670  -3.1422  -3.0728  -2.7875  -2.7789  -2.7621
    -2.6572  -2.5760  -2.5631  -2.5305  -2.4735  -2.4491  -2.4440  -2.4308
    -2.4126  -2.4080  -2.4025  -2.3940  -2.3500  -2.3243  -2.2944  -2.2501
    -2.2418  -2.2306  -2.2186  -2.1753  -2.1644  -2.1562  -2.1514  -2.1422
    -2.0915  -1.9167  -1.8911  -1.8726  -1.7645  -1.7438  -1.7086  -1.6807
    -1.6784  -1.6375  -1.6290  -1.5579  -1.4625  -1.3744  -1.3397  -1.3200
    -1.2874  -1.2459  -1.1515  -1.0472  -1.0086  -0.9803  -0.9472  -0.9138
    -0.8819  -0.8780  -0.7705  -0.7208  -0.7015  -0.6493  -0.5929  -0.5699
    -0.5392  -0.4952  -0.4840  -0.4343  -0.3619  -0.3438  -0.2824  -0.2327
    -0.2067  -0.2061  -0.1510  -0.1389  -0.0276   0.0208   0.2142   0.2835
     0.3555   0.3971   0.4133   0.5574   0.5665   0.6719   0.7244   0.7343
     0.7672   0.8467   0.9245   0.9393   0.9710   1.0260   1.7627   1.7650
     1.8480   1.8616   3.5626   3.7333   3.7644   3.7701   3.8702   4.0145
     4.0283   4.0385   4.0485   4.1491   4.2079

     the Fermi energy is     3.5173 ev

!    total energy              =   -2919.05158919 Ry
     estimated scf accuracy    <       0.00000007 Ry
     smearing contrib. (-TS)   =      -0.03132103 Ry
     internal energy E=F+TS    =   -2919.02026816 Ry

     The total energy is F=E-TS. E is the sum of the following terms:
     one-electron contribution =  -24311.52606895 Ry
     hartree contribution      =   12243.24905961 Ry
     xc contribution           =    -479.92742824 Ry
     ewald contribution        =    9629.18134120 Ry
     electric field correction =       0.00282821 Ry

     convergence has been achieved in  65 iterations

     Forces acting on atoms (cartesian axes, Ry/au):

     atom    1 type  1   force =     0.00007056    0.00095402    0.10696512
     atom    2 type  1   force =    -0.00005438    0.00020915   -0.17814437
     atom    3 type  2   force =     0.00007900    0.00468173   -0.03576346
     atom    4 type  2   force =     0.00003213    0.00016664    0.04950809
     atom    5 type  2   force =    -0.02039215   -0.00163596    0.00503355
     atom    6 type  2   force =     0.02055726   -0.00128009    0.00511685
     atom    7 type  1   force =     0.00005932    0.00149349   -0.00759771
     atom    8 type  1   force =     0.00003133   -0.00050905   -0.00009431
     atom    9 type  2   force =    -0.00002885    0.00000801   -0.00042619
     atom   10 type  2   force =     0.00010260   -0.00036060    0.00070953
     atom   11 type  2   force =     0.00035740   -0.00019232    0.00001689
     atom   12 type  2   force =    -0.00027434   -0.00019924   -0.00008841
     atom   13 type  1   force =    -0.00021621   -0.00063657   -0.00022689
     atom   14 type  1   force =    -0.00011714   -0.00007609    0.00006038
     atom   15 type  2   force =     0.00008204    0.00021754    0.00058179
     atom   16 type  2   force =     0.00011725    0.00023442   -0.00061884
     atom   17 type  2   force =    -0.00030502   -0.00004022    0.00027775
     atom   18 type  2   force =     0.00051354   -0.00013292    0.00011816
     atom   19 type  1   force =     0.00003298    0.00017830    0.00027582
     atom   20 type  1   force =    -0.00024893   -0.00009113    0.00013386
     atom   21 type  2   force =     0.00003697    0.00000194    0.10386311
     atom   22 type  2   force =     0.00000479   -0.00020578   -0.00170614
     atom   23 type  2   force =    -0.06932923    0.00127786   -0.03016743
     atom   24 type  2   force =     0.06920334    0.00170336   -0.03021032
     atom   25 type  1   force =     0.00003600   -0.00088422    0.12356162
     atom   26 type  1   force =    -0.00007427   -0.00069341   -0.17774137
     atom   27 type  2   force =     0.00001145   -0.00220219   -0.03267379
     atom   28 type  2   force =     0.00001346   -0.00014272    0.05057660
     atom   29 type  2   force =    -0.02138540    0.00085237    0.00493714
     atom   30 type  2   force =     0.02158317    0.00148316    0.00502938
     atom   31 type  1   force =     0.00025421   -0.00212929   -0.00798605
     atom   32 type  1   force =     0.00000595   -0.00077141    0.00062263
     atom   33 type  2   force =    -0.00002877    0.00000103   -0.00022027
     atom   34 type  2   force =     0.00002173    0.00023384    0.00078735
     atom   35 type  2   force =     0.00021422    0.00027708   -0.00008890
     atom   36 type  2   force =    -0.00013678    0.00031442   -0.00021217
     atom   37 type  1   force =    -0.00001966    0.00055941    0.00114014
     atom   38 type  1   force =    -0.00009876   -0.00035144    0.00035184
     atom   39 type  2   force =    -0.00000558    0.00052096    0.00019517
     atom   40 type  2   force =     0.00004677    0.00024694   -0.00127490
     atom   41 type  2   force =    -0.00089721    0.00048058    0.00047014
     atom   42 type  2   force =     0.00103336    0.00046049    0.00058405
     atom   43 type  1   force =     0.00013372    0.00036218    0.00007475
     atom   44 type  1   force =     0.00045608    0.00010703    0.00099400
     atom   45 type  2   force =     0.00004860    0.00006946    0.10391787
     atom   46 type  3   force =     0.00011453   -0.00160104   -0.00140536
     atom   47 type  2   force =    -0.06956469   -0.00177803   -0.03015753
     atom   48 type  2   force =     0.06947129   -0.00133629   -0.03021962
     atom   49 type  4   force =    -0.00128703    0.00009107    0.00057237
     atom   50 type  4   force =    -0.00454107   -0.00331578   -0.00241789
     atom   51 type  5   force =     0.00638501    0.00817930    0.00929221
     atom   52 type  4   force =    -0.00210460   -0.00479999   -0.00632624

     Total force =     0.379795     Total SCF correction =     0.000582
  @ DRIVER MODE: Message from server: STATUS
  @ DRIVER MODE: Message from server: GETFORCE
  @ DRIVER MODE: Returning v,forces,stress,ensemble

     Writing output data file ./calc.save/
  @ DRIVER MODE: Message from server: EXIT
  @ DRIVE MODE: Exiting

     General routines

     Parallel routines

   This run was terminated on:  21:21: 2  12Oct2021

   JOB DONE.