     Program PWSCF v.6.7GPU starts on 27Sep2021 at 23:11:54

     R & G space division:  proc/nbgrp/npool/nimage =       8
     Reading input from /storage/home/hcoda1/3/ntian30/research/carbon/CxH_vib/CH_calc/ads_slab/CHONHH_a/out_0034/pw.inp
Warning: card &CELL ignored
Warning: card   CELL_DYNAMICS='IPI', ignored
Warning: card / ignored

     Current dimensions of program PWSCF are:
     Max number of different atomic species (ntypx) = 10
     Max number of k-points (npk) =  40000
     Max angular momentum in pseudopotentials (lmaxx) =  3
     Presently no symmetry can be used with electric field

     Message from routine cell_base_init:
     DEPRECATED: use true lattice parameter, not A to a.u. conversion factor

     IMPORTANT: XC functional enforced from input :
     Exchange-correlation= BEEF-VDW
                           (   1   4  43  14   2   0   0)
     Any further DFT definition will be discarded
     Please, verify this is what you really want

  @ DRIVER MODE: Connecting to
 qe_1139763_2982670.sched-torque.pace.gatech.edurmze6ynw_scratch
  using UNIX socket
  @ DRIVER MODE: Message from server: STATUS
  @ DRIVER MODE: Message from server: INIT
  @ DRIVER MODE: Receiving replica           0          -1
  @ DRIVER MODE: Receiving encoded integer          25
  @ DRIVER MODE:  SCF:  T  FORCE:  T  STRESS:  F  VC:  F  ENSEMBLE:  F
  @ DRIVER MODE:  SCF:  T  FORCE:  T  STRESS:  F  VC:  F  ENSEMBLE:  F

     Using Slab Decomposition

     bravais-lattice index     =            0
     lattice parameter (alat)  =       1.8897  a.u.
     unit-cell volume          =    6658.9804 (a.u.)^3
     number of atoms/cell      =           53
     number of atomic types    =            5
     number of electrons       =       396.00
     number of Kohn-Sham states=          208
     kinetic-energy cutoff     =      29.3995  Ry
     charge density cutoff     =     293.9946  Ry
     scf convergence threshold =      7.3E-08
     mixing beta               =       0.0500
     number of iterations used =            8  plain     mixing
     Exchange-correlation= BEEF-VDW
                           (   1   4  43  14   2   0   0)

     celldm(1)=   1.889726  celldm(2)=   0.000000  celldm(3)=   0.000000
     celldm(4)=   0.000000  celldm(5)=   0.000000  celldm(6)=   0.000000

     crystal axes: (cart. coord. in units of alat)
               a(1) = (   6.579727   0.000000   0.000000 )
               a(2) = (  -0.000775   5.961596   0.000000 )
               a(3) = (   0.000000   0.000000  25.155947 )

     reciprocal axes: (cart. coord. in units 2 pi/alat)
               b(1) = (  0.151982  0.000020  0.000000 )
               b(2) = (  0.000000  0.167740  0.000000 )
               b(3) = (  0.000000  0.000000  0.039752 )

     PseudoPot. # 1 for O  read from file:
     /storage/coda1/p-amedford6/0/shared/rich_project_chbe-medford/medford-share/data/pseudos_module/espresso/nninc/pbe/van/O.UPF
     MD5 check sum: 78c19812648e8988a0fe644b0f25305e
     Pseudo is Ultrasoft, Zval =  6.0
     Generated by new atomic code, or converted to UPF format
     Using radial grid of  737 points,  4 beta functions with:
                l(1) =   0
                l(2) =   0
                l(3) =   1
                l(4) =   1
     Q(r) pseudized with  8 coefficients,  rinner =    0.800   0.800   0.800

     PseudoPot. # 2 for Ti read from file:
     /storage/coda1/p-amedford6/0/shared/rich_project_chbe-medford/medford-share/data/pseudos_module/espresso/nninc/pbe/van/Ti.UPF
     MD5 check sum: 8e4df49b7f0d34bbd5052bf3f5ea0213
     Pseudo is Ultrasoft, Zval = 12.0
     Generated by new atomic code, or converted to UPF format
     Using radial grid of  851 points,  6 beta functions with:
                l(1) =   0
                l(2) =   0
                l(3) =   1
                l(4) =   1
                l(5) =   2
                l(6) =   2
     Q(r) pseudized with  8 coefficients,  rinner =    1.000   1.000   1.000
                                                       1.000   1.000

     PseudoPot. # 3 for C  read from file:
     /storage/coda1/p-amedford6/0/shared/rich_project_chbe-medford/medford-share/data/pseudos_module/espresso/nninc/pbe/van/C.UPF
     MD5 check sum: 1a69bf6b8db32088f5b2163dbdb77a27
     Pseudo is Ultrasoft, Zval =  4.0
     Generated by new atomic code, or converted to UPF format
     Using radial grid of  721 points,  4 beta functions with:
                l(1) =   0
                l(2) =   0
                l(3) =   1
                l(4) =   1
     Q(r) pseudized with  8 coefficients,  rinner =    0.800   0.800   0.800

     PseudoPot. # 4 for H  read from file:
     /storage/coda1/p-amedford6/0/shared/rich_project_chbe-medford/medford-share/data/pseudos_module/espresso/nninc/pbe/van/H.UPF
     MD5 check sum: b5ee9d7bfd3a09ee7748110bda690ff7
     Pseudo is Ultrasoft, Zval =  1.0
     Generated by new atomic code, or converted to UPF format
     Using radial grid of  615 points,  1 beta functions with:
                l(1) =   0
     Q(r) pseudized with  8 coefficients,  rinner =    0.800

     PseudoPot. # 5 for N  read from file:
     /storage/coda1/p-amedford6/0/shared/rich_project_chbe-medford/medford-share/data/pseudos_module/espresso/nninc/pbe/van/N.UPF
     MD5 check sum: 90d10febe142ad51ac9d5be1deb811c4
     Pseudo is Ultrasoft, Zval =  5.0
     Generated by new atomic code, or converted to UPF format
     Using radial grid of  729 points,  4 beta functions with:
                l(1) =   0
                l(2) =   0
                l(3) =   1
                l(4) =   1
     Q(r) pseudized with  8 coefficients,  rinner =    0.800   0.800   0.800

     atomic species   valence    mass     pseudopotential
        O1             6.00    15.99900     O ( 1.00)
        Ti1           12.00    47.86700     Ti( 1.00)
        C1             4.00    12.01100     C ( 1.00)
        H1             1.00     1.00800     H ( 1.00)
        N1             5.00    14.00700     N ( 1.00)

     No symmetry found

   Cartesian axes

     site n.     atom                  positions (alat units)
         1           O1  tau(   1) = (   3.2904802   0.0005063   4.7018136  )
         2           O1  tau(   2) = (   3.2900926   2.9813045   4.7018136  )
         3           Ti1 tau(   3) = (   0.0004258   2.9801865   6.0000000  )
         4           Ti1 tau(   4) = (   0.0000382   5.9609847   6.0000000  )
         5           Ti1 tau(   5) = (   3.2906075   1.4906267   6.0002472  )
         6           Ti1 tau(   6) = (   3.2902200   4.4714249   6.0002472  )
         7           O1  tau(   7) = (   1.3043587   1.4918075   6.0039043  )
         8           O1  tau(   8) = (   1.3039711   4.4726057   6.0039043  )
         9           O1  tau(   9) = (   5.2767064   1.4903225   6.0039473  )
        10           O1  tau(  10) = (   5.2763189   4.4711207   6.0039473  )
        11           O1  tau(  11) = (   3.2906025   0.0005020   7.3038282  )
        12           O1  tau(  12) = (   3.2902150   2.9813002   7.3038282  )
        13           O1  tau(  13) = (   0.0006271   0.0005054   7.9858123  )
        14           O1  tau(  14) = (   0.0002396   2.9813036   7.9858123  )
        15           Ti1 tau(  15) = (   3.2907910   2.8959150   9.1758416  )
        16           Ti1 tau(  16) = (   3.2891106   5.8743827   9.1763621  )
        17           Ti1 tau(  17) = (   0.0015273   1.4827037   9.2680791  )
        18           Ti1 tau(  18) = (   0.0006254   4.4649316   9.2693709  )
        19           O1  tau(  19) = (   4.5942328   1.4918067   9.2879030  )
        20           O1  tau(  20) = (   4.5938453   4.4726049   9.2879030  )
        21           O1  tau(  21) = (   1.9868534   1.4903216   9.2879459  )
        22           O1  tau(  22) = (   1.9864658   4.4711199   9.2879459  )
        23           O1  tau(  23) = (   0.0116148   5.9584955  10.6183126  )
        24           O1  tau(  24) = (   0.0092240   2.9805883  10.6323155  )
        25           O1  tau(  25) = (   3.2982867   2.9605634  11.3629554  )
        26           O1  tau(  26) = (   3.2970280   5.9418052  11.3670498  )
        27           Ti1 tau(  27) = (   3.3197620   1.4647166  12.5186485  )
        28           Ti1 tau(  28) = (   3.3197371   4.4442548  12.5174675  )
        29           Ti1 tau(  29) = (   0.0247145   5.9392298  12.5050521  )
        30           Ti1 tau(  30) = (   0.0207888   2.9549252  12.5325712  )
        31           O1  tau(  31) = (   5.2994564   1.4737048  12.6581032  )
        32           O1  tau(  32) = (   5.2987173   4.4536623  12.6588755  )
        33           O1  tau(  33) = (   1.2980767   1.4735271  12.6640466  )
        34           O1  tau(  34) = (   1.2983722   4.4539272  12.6649509  )
        35           O1  tau(  35) = (   3.3003782   2.9593424  13.9572071  )
        36           O1  tau(  36) = (   3.3054355   5.9407569  13.9837565  )
        37           O1  tau(  37) = (   0.0046088   5.9251545  14.7309831  )
        38           O1  tau(  38) = (   0.0006132   2.9575759  14.8603695  )
        39           Ti1 tau(  39) = (   3.2921441   2.9479593  15.7473734  )
        40           Ti1 tau(  40) = (   3.3096684   5.9297328  15.7786280  )
        41           Ti1 tau(  41) = (   0.0292748   4.4653737  15.8834615  )
        42           Ti1 tau(  42) = (   0.0203033   1.2983705  16.0532229  )
        43           O1  tau(  43) = (   2.0312177   4.4313956  16.1584376  )
        44           O1  tau(  44) = (   2.0329186   1.4682422  16.1585226  )
        45           O1  tau(  45) = (   4.5395334   1.4708069  16.1744780  )
        46           O1  tau(  46) = (   4.5451706   4.4284814  16.1696510  )
        47           O1  tau(  47) = (   6.5626888   5.9521290  17.2995914  )
        48           C1  tau(  48) = (   6.0895709   3.0833951  18.7413599  )
        49           H1  tau(  49) = (   6.1064821   5.1028269  18.6976294  )
        50           H1  tau(  50) = (   5.8218695   2.1931775  19.3174373  )
        51           N1  tau(  51) = (   5.9176545   4.2705979  19.3036562  )
        52           H1  tau(  52) = (   5.4685665   4.3395963  20.1994452  )
        53           O1  tau(  53) = (   6.5488429   2.9672365  17.5815492  )

     number of k points=    10  Fermi-Dirac smearing, width (Ry)=  0.0073
                       cart. coord. in units 2pi/alat
        k(    1) = (   0.0000000   0.0000000   0.0000000), wk =   0.1250000
        k(    2) = (   0.0000000   0.0419351   0.0000000), wk =   0.2500000
        k(    3) = (   0.0000000  -0.0838702   0.0000000), wk =   0.1250000
        k(    4) = (   0.0379955   0.0000049   0.0000000), wk =   0.2500000
        k(    5) = (   0.0379955   0.0419400   0.0000000), wk =   0.2500000
        k(    6) = (   0.0379955  -0.0838652   0.0000000), wk =   0.2500000
        k(    7) = (   0.0379955  -0.0419301   0.0000000), wk =   0.2500000
        k(    8) = (  -0.0759910  -0.0000099   0.0000000), wk =   0.1250000
        k(    9) = (  -0.0759910   0.0419252   0.0000000), wk =   0.2500000
        k(   10) = (  -0.0759910  -0.0838800   0.0000000), wk =   0.1250000

     Initial potential from superposition of free atoms

     starting charge  379.99917, renormalised to  396.00000

     negative rho (up, down):  1.602E-02 0.000E+00

     %%%%%%%%%%%%%%%%%%%%%%%%%%%%%%%%%%%%%%%%%%%%%%%%%%%%%%%%%%%%%%%%%%%%%%%%
     %                                                                      %
     % You are using vdW-DF, which was implemented by the Thonhauser group. %
     % Please cite the following two papers that made this development      %
     % possible and the two reviews that describe the various versions:     %
     %                                                                      %
     %   T. Thonhauser et al., PRL 115, 136402 (2015).                      %
     %   T. Thonhauser et al., PRB 76, 125112 (2007).                       %
     %   K. Berland et al., Rep. Prog. Phys. 78, 066501 (2015).             %
     %   D.C. Langreth et al., J. Phys.: Condens. Matter 21, 084203 (2009). %
     %                                                                      %
     %                                                                      %
     % If you are calculating the stress with vdW-DF, please also cite:     %
     %                                                                      %
     %   R. Sabatini et al., J. Phys.: Condens. Matter 24, 424209 (2012).   %
     %                                                                      %
     %%%%%%%%%%%%%%%%%%%%%%%%%%%%%%%%%%%%%%%%%%%%%%%%%%%%%%%%%%%%%%%%%%%%%%%%

     Adding external electric field

     Computed dipole along edir(3) :
        Dipole               -9.7756 Ry au,        -24.8472 Debye
        Dipole field         -0.0184 Ry au,

        Potential amp.        1.7101 Ry
        Total length         46.3494 bohr

     Starting wfcs are  299 atomic wfcs
  @ DRIVER MODE: Message from server: STATUS
  @ DRIVER MODE: Message from server: POSDATA
  @ DRIVER MODE: Reading and sharing cell
  @ DRIVER MODE: Reading and sharing positions
  @ DRIVER MODE: Received positions

     Self-consistent Calculation

     iteration #  1     ecut=    29.40 Ry     beta= 0.05
     Davidson diagonalization with overlap
     c_bands:  1 eigenvalues not converged
     c_bands:  1 eigenvalues not converged
     c_bands:  2 eigenvalues not converged
     c_bands:  3 eigenvalues not converged
     c_bands:  2 eigenvalues not converged
     c_bands:  1 eigenvalues not converged
     c_bands:  2 eigenvalues not converged
     c_bands:  1 eigenvalues not converged
     c_bands:  2 eigenvalues not converged
     c_bands:  2 eigenvalues not converged
     ethr =  1.00E-05,  avg # of iterations = 20.0

[...]

     total energy              =   -2552.97938459 Ry
     estimated scf accuracy    <    4458.05456246 Ry

     iteration #  2     ecut=    29.40 Ry     beta= 0.05
     Davidson diagonalization with overlap
     ethr =  1.00E-02,  avg # of iterations = 26.0

[...]

     iteration # 94     ecut=    29.40 Ry     beta= 0.05
     Davidson diagonalization with overlap
     c_bands:  2 eigenvalues not converged
     c_bands:  1 eigenvalues not converged
     ethr =  3.14E-11,  avg # of iterations = 11.2

[...]

     total energy              =   -2951.54895000 Ry
     estimated scf accuracy    <       0.00000010 Ry

     iteration # 95     ecut=    29.40 Ry     beta= 0.05
     Davidson diagonalization with overlap
     ethr =  2.60E-11,  avg # of iterations =  4.6

     negative rho (up, down):  1.477E-02 0.000E+00

     Adding external electric field

     Computed dipole along edir(3) :
        Dipole                1.7522 Ry au,          4.4537 Debye
        Dipole field          0.0033 Ry au,

        Potential amp.       -0.3065 Ry
        Total length         46.3494 bohr

     End of self-consistent calculation

          k = 0.0000 0.0000 0.0000 ( 18029 PWs)   bands (ev):

   -55.1180 -55.0821 -55.0742 -55.0400 -55.0002 -54.9966 -54.9894 -54.9596
   -54.9446 -54.9299 -54.9202 -54.9011 -54.8955 -54.8676 -54.0960 -54.0619
   -31.6866 -31.5880 -31.5653 -31.4854 -31.4343 -31.4263 -31.4195 -31.4050
   -31.3634 -31.3582 -31.3278 -31.3236 -31.3186 -31.3000 -31.2903 -31.2729
   -31.2564 -31.2546 -31.2393 -31.2297 -31.2255 -31.2148 -31.1974 -31.1868
   -31.1753 -31.1604 -31.1425 -31.1323 -31.1314 -31.1306 -31.1267 -31.1155
   -31.1011 -31.0993 -31.0951 -31.0875 -31.0822 -31.0789 -31.0443 -31.0394
   -31.0298 -31.0109 -30.5050 -30.4116 -30.3895 -30.3215 -30.2347 -30.1237
   -20.4413 -16.8787 -15.9355 -15.6645 -15.5192 -15.3839 -15.3077 -15.1851
   -15.1375 -15.0304 -14.9304 -14.8387 -14.8001 -14.7725 -14.7582 -14.7479
   -14.7304 -14.6526 -14.6489 -14.6183 -14.6069 -14.5762 -14.5456 -14.5230
   -14.5049 -14.4893 -14.4578 -14.3455 -14.2658 -14.2027 -14.1225 -12.5984
   -12.4811  -9.5095  -7.9798  -6.3764  -5.0774  -4.2777  -3.2797  -3.1237
    -3.0298  -3.0279  -3.0096  -2.8456  -2.7174  -2.5232  -2.3978  -2.3768
    -2.3314  -2.3118  -2.2915  -2.1859  -2.0969  -2.0531  -2.0111  -1.9656
    -1.9264  -1.9014  -1.8933  -1.8787  -1.8596  -1.8583  -1.7570  -1.6518
    -1.5896  -1.5730  -1.5523  -1.5134  -1.4535  -1.4200  -1.3997  -1.3968
    -1.3609  -1.3474  -1.3264  -1.2989  -1.1504  -1.0568  -1.0361  -0.9673
    -0.8540  -0.8112  -0.7486  -0.6757  -0.6735  -0.5936  -0.5912  -0.5529
    -0.5319  -0.4963  -0.4536  -0.3186  -0.2123  -0.1962  -0.1516  -0.1069
    -0.0675  -0.0495   0.1028   0.1075   0.1190   0.1374   0.3182   0.3206
     0.3771   0.3971   0.4534   0.4601   0.4918   0.5590   0.6305   0.6626
     0.6940   0.7755   0.8253   0.8285   0.8362   0.8441   0.8761   0.9604
     0.9905   1.0114   1.0527   1.1911   1.3072   1.4970   1.5034   1.8357
     1.8503   1.9268   2.1115   2.5021   2.5499   3.9809   4.0547   4.1223
     4.1346   4.1400   4.2194   4.3433   4.4602   4.4707   4.4820   4.4889

[...]

          k = 0.0380-0.0419 0.0000 ( 17876 PWs)   bands (ev):

[...]

          k =-0.0760-0.0000 0.0000 ( 17886 PWs)   bands (ev):

[...]

          k =-0.0760-0.0839 0.0000 ( 17948 PWs)   bands (ev):

   -55.1001 -55.0998 -55.0571 -55.0569 -54.9955 -54.9848 -54.9821 -54.9712
   -54.9526 -54.9240 -54.9135 -54.9114 -54.8851 -54.8839 -54.0789 -54.0788
   -31.4903 -31.4899 -31.4896 -31.4036 -31.3805 -31.3803 -31.3765 -31.3488
   -31.3487 -31.3272 -31.3200 -31.3175 -31.3103 -31.2787 -31.2681 -31.2487
   -31.2474 -31.2442 -31.2427 -31.2411 -31.2378 -31.2311 -31.2209 -31.1973
   -31.1936 -31.1899 -31.1825 -31.1809 -31.1767 -31.1767 -31.1641 -31.1470
   -31.1461 -31.1443 -31.1342 -31.1271 -31.1246 -31.1121 -31.1113 -31.1105
   -31.0660 -31.0641 -30.4022 -30.4022 -30.3176 -30.3174 -30.2782 -30.2781
   -20.4371 -16.8815 -15.3690 -15.3554 -15.3226 -15.1074 -15.1070 -15.0911
   -15.0811 -14.9363 -14.9044 -14.8883 -14.8763 -14.8261 -14.8160 -14.8146
   -14.8081 -14.7040 -14.7008 -14.6990 -14.6921 -14.6237 -14.6165 -14.6066
   -14.5757 -14.5640 -14.5598 -14.4633 -14.4627 -14.4606 -14.4040 -12.5827
   -12.5826  -9.5394  -7.9710  -6.3410  -5.0466  -4.2803  -2.6279  -2.5884
    -2.5207  -2.3241  -2.3155  -2.2884  -2.2026  -2.1683  -2.1068  -2.0925
    -2.0786  -2.0369  -1.9976  -1.9907  -1.9518  -1.9426  -1.9327  -1.9116
    -1.8930  -1.8577  -1.8367  -1.8268  -1.7967  -1.7747  -1.7645  -1.7558
    -1.7264  -1.7027  -1.6894  -1.6769  -1.6025  -1.5090  -1.4660  -1.3960
    -1.3137  -1.3114  -1.3048  -1.2160  -1.1917  -1.1646  -1.1502  -1.1067
    -1.0447  -0.9697  -0.8892  -0.8571  -0.8496  -0.8205  -0.7221  -0.6914
    -0.6468  -0.6101  -0.5985  -0.5482  -0.4312  -0.4289  -0.3879  -0.3248
    -0.3056  -0.2435  -0.1335  -0.1053  -0.0731  -0.0705  -0.0292   0.0038
     0.0179   0.0828   0.1158   0.1497   0.1671   0.2293   0.3917   0.4004
     0.4921   0.5188   0.5894   0.7560   0.7857   0.8065   0.9309   0.9634
     0.9972   1.0480   1.0926   1.1898   1.1974   1.2864   1.3360   1.3505
     1.3570   2.2846   2.2851   2.3699   2.3700   4.1071   4.2333   4.2547
     4.2932   4.3373   4.5030   4.5107   4.5647   4.5658   4.6009   4.6422

     the Fermi energy is     4.0410 ev

!    total energy              =   -2951.54895192 Ry
     estimated scf accuracy    <       0.00000006 Ry
     smearing contrib. (-TS)   =      -0.03720492 Ry
     internal energy E=F+TS    =   -2951.51174700 Ry

     The total energy is F=E-TS. E is the sum of the following terms:
     one-electron contribution =  -23930.88440481 Ry
     hartree contribution      =   12059.71938642 Ry
     xc contribution           =    -487.46158559 Ry
     ewald contribution        =    9407.10906301 Ry
     electric field correction =       0.00579396 Ry

     convergence has been achieved in  95 iterations

     Forces acting on atoms (cartesian axes, Ry/au):

     atom    1 type  1   force =     0.00000178    0.00002267    0.10376168
     atom    2 type  1   force =    -0.00000547    0.00001383    0.10378186
     atom    3 type  2   force =     0.00003835   -0.00018536    0.09363231
     atom    4 type  2   force =    -0.00001463   -0.00013040    0.09330903
     atom    5 type  2   force =    -0.00020245   -0.00037351   -0.17781855
     atom    6 type  2   force =    -0.00018843   -0.00030516   -0.17789346
     atom    7 type  1   force =    -0.07060164   -0.00006179   -0.02702701
     atom    8 type  1   force =    -0.07061570   -0.00004291   -0.02701471
     atom    9 type  1   force =     0.07042518    0.00038549   -0.02706458
     atom   10 type  1   force =     0.07041961    0.00039059   -0.02703332
     atom   11 type  1   force =    -0.00003846   -0.00187219    0.05772815
     atom   12 type  1   force =     0.00001681   -0.00159686    0.05729509
     atom   13 type  1   force =     0.00003155   -0.00022046   -0.02106365
     atom   14 type  1   force =     0.00005926   -0.00035265   -0.02013393
     atom   15 type  2   force =    -0.00034600    0.00218337   -0.01415896
     atom   16 type  2   force =    -0.00014524    0.00520232   -0.01501208
     atom   17 type  2   force =    -0.00009423    0.00329765    0.00055024
     atom   18 type  2   force =     0.00004393   -0.00378619    0.00040354
     atom   19 type  1   force =    -0.01057378   -0.00135303    0.00705398
     atom   20 type  1   force =    -0.01087657   -0.00104347    0.00699042
     atom   21 type  1   force =     0.01219398   -0.00074920    0.00658112
     atom   22 type  1   force =     0.01239131   -0.00067310    0.00650100
     atom   23 type  1   force =    -0.00110572   -0.00065804   -0.00091756
     atom   24 type  1   force =    -0.00064748   -0.00141693   -0.00125284
     atom   25 type  1   force =     0.00001294    0.00022995    0.00025485
     atom   26 type  1   force =     0.00001693    0.00002545   -0.00012324
     atom   27 type  2   force =    -0.00000459    0.00034459   -0.00005196
     atom   28 type  2   force =     0.00005769   -0.00013716    0.00006107
     atom   29 type  2   force =    -0.00000547    0.00009555   -0.00028766
     atom   30 type  2   force =     0.00009933   -0.00004631   -0.00020004
     atom   31 type  1   force =    -0.00009548   -0.00011311    0.00002036
     atom   32 type  1   force =    -0.00025516    0.00003329   -0.00002686
     atom   33 type  1   force =     0.00007520   -0.00002706   -0.00008357
     atom   34 type  1   force =     0.00011528   -0.00004194   -0.00005374
     atom   35 type  1   force =    -0.00000507   -0.00004753    0.00012252
     atom   36 type  1   force =    -0.00012001   -0.00020012   -0.00005790
     atom   37 type  1   force =     0.00011931    0.00040845   -0.00018033
     atom   38 type  1   force =    -0.00018918    0.00022775   -0.00049944
     atom   39 type  2   force =     0.00015003    0.00018909    0.00024673
     atom   40 type  2   force =     0.00001447    0.00016100    0.00002587
     atom   41 type  2   force =    -0.00012620    0.00051356    0.00023336
     atom   42 type  2   force =     0.00008608    0.00016043    0.00015999
     atom   43 type  1   force =     0.00026538    0.00028291   -0.00022291
     atom   44 type  1   force =    -0.00009921    0.00041649   -0.00000114
     atom   45 type  1   force =     0.00013382    0.00045057   -0.00000486
     atom   46 type  1   force =    -0.00032562    0.00027942   -0.00006947
     atom   47 type  1   force =    -0.00022812    0.00108331   -0.00016740
     atom   48 type  3   force =    -0.00023042    0.00386725   -0.00035410
     atom   49 type  4   force =     0.00022075    0.00105076   -0.00004162
     atom   50 type  4   force =     0.00078165   -0.00079096   -0.00072314
     atom   51 type  5   force =    -0.00102761   -0.00031742    0.00046847
     atom   52 type  4   force =    -0.00036903    0.00041441    0.00181514
     atom   53 type  1   force =     0.00076634   -0.00518733   -0.00145679

     Total force =     0.365825     Total SCF correction =     0.000790
  @ DRIVER MODE: Message from server: STATUS
  @ DRIVER MODE: Message from server: GETFORCE
  @ DRIVER MODE: Returning v,forces,stress,ensemble

     Writing output data file ./calc.save/
  @ DRIVER MODE: Message from server: EXIT
  @ DRIVE MODE: Exiting

     General routines

     Parallel routines

   This run was terminated on:  23:45:21  27Sep2021

   JOB DONE.