     Program PWSCF v.6.7GPU starts on 23Sep2021 at 14:39: 4

     R & G space division:  proc/nbgrp/npool/nimage =       8
     Reading input from /storage/home/hcoda1/3/ntian30/research/carbon/CxH_vib/H2O_calc/ads_slab/CH3N2HHO_a/out_0041/pw.inp
Warning: card &CELL ignored
Warning: card   CELL_DYNAMICS='IPI', ignored
Warning: card / ignored

     Current dimensions of program PWSCF are:
     Max number of different atomic species (ntypx) = 10
     Max number of k-points (npk) =  40000
     Max angular momentum in pseudopotentials (lmaxx) =  3
     Presently no symmetry can be used with electric field

     Message from routine cell_base_init:
     DEPRECATED: use true lattice parameter, not A to a.u. conversion factor

     IMPORTANT: XC functional enforced from input :
     Exchange-correlation= BEEF-VDW
                           (   1   4  43  14   2   0   0)
     Any further DFT definition will be discarded
     Please, verify this is what you really want

  @ DRIVER MODE: Connecting to
 qe_1139763_2941009.sched-torque.pace.gatech.edu7qk9at6k_scratch
  using UNIX socket
  @ DRIVER MODE: Message from server: STATUS
  @ DRIVER MODE: Message from server: INIT
  @ DRIVER MODE: Receiving replica           0          -1
  @ DRIVER MODE: Receiving encoded integer          25
  @ DRIVER MODE:  SCF:  T  FORCE:  T  STRESS:  F  VC:  F  ENSEMBLE:  F
  @ DRIVER MODE:  SCF:  T  FORCE:  T  STRESS:  F  VC:  F  ENSEMBLE:  F

     Using Slab Decomposition

     bravais-lattice index     =            0
     lattice parameter (alat)  =       1.8897  a.u.
     unit-cell volume          =    6658.9804 (a.u.)^3
     number of atoms/cell      =           56
     number of atomic types    =            5
     number of electrons       =       403.00
     number of Kohn-Sham states=          211
     kinetic-energy cutoff     =      29.3995  Ry
     charge density cutoff     =     293.9946  Ry
     scf convergence threshold =      7.3E-08
     mixing beta               =       0.0500
     number of iterations used =            8  plain     mixing
     Exchange-correlation= BEEF-VDW
                           (   1   4  43  14   2   0   0)

     celldm(1)=   1.889726  celldm(2)=   0.000000  celldm(3)=   0.000000
     celldm(4)=   0.000000  celldm(5)=   0.000000  celldm(6)=   0.000000

     crystal axes: (cart. coord. in units of alat)
               a(1) = (   6.579727   0.000000   0.000000 )
               a(2) = (  -0.000775   5.961596   0.000000 )
               a(3) = (   0.000000   0.000000  25.155947 )

     reciprocal axes: (cart. coord. in units 2 pi/alat)
               b(1) = (  0.151982  0.000020  0.000000 )
               b(2) = (  0.000000  0.167740  0.000000 )
               b(3) = (  0.000000  0.000000  0.039752 )

     PseudoPot. # 1 for Ti read from file:
     /storage/coda1/p-amedford6/0/shared/rich_project_chbe-medford/medford-share/data/pseudos_module/espresso/nninc/pbe/van/Ti.UPF
     MD5 check sum: 8e4df49b7f0d34bbd5052bf3f5ea0213
     Pseudo is Ultrasoft, Zval = 12.0
     Generated by new atomic code, or converted to UPF format
     Using radial grid of  851 points,  6 beta functions with:
                l(1) =   0
                l(2) =   0
                l(3) =   1
                l(4) =   1
                l(5) =   2
                l(6) =   2
     Q(r) pseudized with  8 coefficients,  rinner =    1.000   1.000   1.000
                                                       1.000   1.000

     PseudoPot. # 2 for O  read from file:
     /storage/coda1/p-amedford6/0/shared/rich_project_chbe-medford/medford-share/data/pseudos_module/espresso/nninc/pbe/van/O.UPF
     MD5 check sum: 78c19812648e8988a0fe644b0f25305e
     Pseudo is Ultrasoft, Zval =  6.0
     Generated by new atomic code, or converted to UPF format
     Using radial grid of  737 points,  4 beta functions with:
                l(1) =   0
                l(2) =   0
                l(3) =   1
                l(4) =   1
     Q(r) pseudized with  8 coefficients,  rinner =    0.800   0.800   0.800

     PseudoPot. # 3 for N  read from file:
     /storage/coda1/p-amedford6/0/shared/rich_project_chbe-medford/medford-share/data/pseudos_module/espresso/nninc/pbe/van/N.UPF
     MD5 check sum: 90d10febe142ad51ac9d5be1deb811c4
     Pseudo is Ultrasoft, Zval =  5.0
     Generated by new atomic code, or converted to UPF format
     Using radial grid of  729 points,  4 beta functions with:
                l(1) =   0
                l(2) =   0
                l(3) =   1
                l(4) =   1
     Q(r) pseudized with  8 coefficients,  rinner =    0.800   0.800   0.800

     PseudoPot. # 4 for C  read from file:
     /storage/coda1/p-amedford6/0/shared/rich_project_chbe-medford/medford-share/data/pseudos_module/espresso/nninc/pbe/van/C.UPF
     MD5 check sum: 1a69bf6b8db32088f5b2163dbdb77a27
     Pseudo is Ultrasoft, Zval =  4.0
     Generated by new atomic code, or converted to UPF format
     Using radial grid of  721 points,  4 beta functions with:
                l(1) =   0
                l(2) =   0
                l(3) =   1
                l(4) =   1
     Q(r) pseudized with  8 coefficients,  rinner =    0.800   0.800   0.800

     PseudoPot. # 5 for H  read from file:
     /storage/coda1/p-amedford6/0/shared/rich_project_chbe-medford/medford-share/data/pseudos_module/espresso/nninc/pbe/van/H.UPF
     MD5 check sum: b5ee9d7bfd3a09ee7748110bda690ff7
     Pseudo is Ultrasoft, Zval =  1.0
     Generated by new atomic code, or converted to UPF format
     Using radial grid of  615 points,  1 beta functions with:
                l(1) =   0
     Q(r) pseudized with  8 coefficients,  rinner =    0.800

     atomic species   valence    mass     pseudopotential
        Ti1           12.00    47.86700     Ti( 1.00)
        O1             6.00    15.99900     O ( 1.00)
        N1             5.00    14.00700     N ( 1.00)
        C1             4.00    12.01100     C ( 1.00)
        H1             1.00     1.00800     H ( 1.00)

     No symmetry found

   Cartesian axes

     site n.     atom                  positions (alat units)
         1           Ti1 tau(   1) = (   0.0004258   2.9801865   6.0000000  )
         2           Ti1 tau(   2) = (   3.2906075   1.4906267   6.0002472  )
         3           O1  tau(   3) = (   0.0006271   0.0005054   7.9858123  )
         4           O1  tau(   4) = (   3.2906025   0.0005020   7.3038282  )
         5           O1  tau(   5) = (   4.5942328   1.4918067   9.2879030  )
         6           O1  tau(   6) = (   1.9868534   1.4903216   9.2879459  )
         7           Ti1 tau(   7) = (   3.2907910   2.8959150   9.1758416  )
         8           Ti1 tau(   8) = (   0.0015273   1.4827037   9.2680791  )
         9           O1  tau(   9) = (   3.2827749   5.9542966  11.3123607  )
        10           O1  tau(  10) = (   0.0116148   5.9584955  10.6183126  )
        11           O1  tau(  11) = (   1.2790800   1.4852124  12.6463597  )
        12           O1  tau(  12) = (   5.2943908   1.4901875  12.6352807  )
        13           Ti1 tau(  13) = (   6.5507123   3.1127926  12.6266869  )
        14           Ti1 tau(  14) = (   3.2873181   1.3120036  12.6863921  )
        15           O1  tau(  15) = (   6.5656690   0.0172326  14.6855350  )
        16           O1  tau(  16) = (   3.2842416   0.0515509  13.9244022  )
        17           O1  tau(  17) = (   4.5437539   1.5966601  16.0680646  )
        18           O1  tau(  18) = (   2.0303991   1.5956099  16.0781401  )
        19           Ti1 tau(  19) = (   3.2961159   3.0594788  15.6697774  )
        20           Ti1 tau(  20) = (   6.5318457   1.5630605  15.7780207  )
        21           O1  tau(  21) = (   3.2904802   0.0005063   4.7018136  )
        22           O1  tau(  22) = (   6.5726385   0.0820865  17.2550913  )
        23           O1  tau(  23) = (   1.3043587   1.4918075   6.0039043  )
        24           O1  tau(  24) = (   5.2767064   1.4903225   6.0039473  )
        25           Ti1 tau(  25) = (   0.0000382   5.9609847   6.0000000  )
        26           Ti1 tau(  26) = (   3.2902200   4.4714249   6.0002472  )
        27           O1  tau(  27) = (   0.0002396   2.9813036   7.9858123  )
        28           O1  tau(  28) = (   3.2902150   2.9813002   7.3038282  )
        29           O1  tau(  29) = (   4.5938453   4.4726049   9.2879030  )
        30           O1  tau(  30) = (   1.9864658   4.4711199   9.2879459  )
        31           Ti1 tau(  31) = (   3.2891106   5.8743827   9.1763621  )
        32           Ti1 tau(  32) = (   0.0006254   4.4649316   9.2693709  )
        33           O1  tau(  33) = (   3.2807365   3.0201584  11.2787527  )
        34           O1  tau(  34) = (   0.0092240   2.9805883  10.6323155  )
        35           O1  tau(  35) = (   1.2751182   4.4744369  12.6357194  )
        36           O1  tau(  36) = (   5.2842299   4.4734050  12.6250694  )
        37           Ti1 tau(  37) = (   0.0094520   0.1224552  12.5707632  )
        38           Ti1 tau(  38) = (   3.2670701   4.4034752  12.4162930  )
        39           O1  tau(  39) = (   6.5622168   3.0106679  14.6773207  )
        40           O1  tau(  40) = (   3.2891587   3.0115246  13.8909557  )
        41           O1  tau(  41) = (   4.5321968   4.4927823  16.1577793  )
        42           O1  tau(  42) = (   2.0250423   4.4919485  16.1304878  )
        43           Ti1 tau(  43) = (   3.2250977   0.0853664  16.3312049  )
        44           Ti1 tau(  44) = (   6.5532039   4.7053171  16.1332850  )
        45           O1  tau(  45) = (   3.2900926   2.9813045   4.7018136  )
        46           O1  tau(  46) = (   1.3039711   4.4726057   6.0039043  )
        47           O1  tau(  47) = (   5.2763189   4.4711207   6.0039473  )
        48           N1  tau(  48) = (   0.0650423   2.5931692  18.6004617  )
        49           N1  tau(  49) = (   0.0051179   2.9528117  17.3995676  )
        50           C1  tau(  50) = (   0.1360749   3.5155665  19.7334966  )
        51           H1  tau(  51) = (   6.1082608   4.3937080  19.5213757  )
        52           H1  tau(  52) = (   6.3628389   3.0028702  20.6266755  )
        53           H1  tau(  53) = (   1.1699357   3.8405576  19.8861820  )
        54           H1  tau(  54) = (   0.1060244   1.5775976  18.7688705  )
        55           O1  tau(  55) = (   3.2396048   0.1449850  18.2004881  )
        56           H1  tau(  56) = (   3.4111690   5.2654565  18.6466900  )

     number of k points=    10  Fermi-Dirac smearing, width (Ry)=  0.0073
                       cart. coord. in units 2pi/alat
        k(    1) = (   0.0000000   0.0000000   0.0000000), wk =   0.1250000
        k(    2) = (   0.0000000   0.0419351   0.0000000), wk =   0.2500000
        k(    3) = (   0.0000000  -0.0838702   0.0000000), wk =   0.1250000
        k(    4) = (   0.0379955   0.0000049   0.0000000), wk =   0.2500000
        k(    5) = (   0.0379955   0.0419400   0.0000000), wk =   0.2500000
        k(    6) = (   0.0379955  -0.0838652   0.0000000), wk =   0.2500000
        k(    7) = (   0.0379955  -0.0419301   0.0000000), wk =   0.2500000
        k(    8) = (  -0.0759910  -0.0000099   0.0000000), wk =   0.1250000
        k(    9) = (  -0.0759910   0.0419252   0.0000000), wk =   0.2500000
        k(   10) = (  -0.0759910  -0.0838800   0.0000000), wk =   0.1250000

     Initial potential from superposition of free atoms

     starting charge  386.99914, renormalised to  403.00000

     negative rho (up, down):  1.430E-02 0.000E+00

     %%%%%%%%%%%%%%%%%%%%%%%%%%%%%%%%%%%%%%%%%%%%%%%%%%%%%%%%%%%%%%%%%%%%%%%%
     %                                                                      %
     % You are using vdW-DF, which was implemented by the Thonhauser group. %
     % Please cite the following two papers that made this development      %
     % possible and the two reviews that describe the various versions:     %
     %                                                                      %
     %   T. Thonhauser et al., PRL 115, 136402 (2015).                      %
     %   T. Thonhauser et al., PRB 76, 125112 (2007).                       %
     %   K. Berland et al., Rep. Prog. Phys. 78, 066501 (2015).             %
     %   D.C. Langreth et al., J. Phys.: Condens. Matter 21, 084203 (2009). %
     %                                                                      %
     %                                                                      %
     % If you are calculating the stress with vdW-DF, please also cite:     %
     %                                                                      %
     %   R. Sabatini et al., J. Phys.: Condens. Matter 24, 424209 (2012).   %
     %                                                                      %
     %%%%%%%%%%%%%%%%%%%%%%%%%%%%%%%%%%%%%%%%%%%%%%%%%%%%%%%%%%%%%%%%%%%%%%%%

     Adding external electric field

     Computed dipole along edir(3) :
        Dipole              -12.7211 Ry au,        -32.3338 Debye
        Dipole field         -0.0240 Ry au,

        Potential amp.        2.2254 Ry
        Total length         46.3494 bohr

     Starting wfcs are  305 atomic wfcs
  @ DRIVER MODE: Message from server: STATUS
  @ DRIVER MODE: Message from server: POSDATA
  @ DRIVER MODE: Reading and sharing cell
  @ DRIVER MODE: Reading and sharing positions
  @ DRIVER MODE: Received positions

     Self-consistent Calculation

     iteration #  1     ecut=    29.40 Ry     beta= 0.05
     Davidson diagonalization with overlap
     c_bands:  5 eigenvalues not converged
     c_bands:  4 eigenvalues not converged
     c_bands:  3 eigenvalues not converged
     c_bands:  4 eigenvalues not converged
     c_bands:  5 eigenvalues not converged
     c_bands:  4 eigenvalues not converged
     c_bands:  1 eigenvalues not converged
     c_bands:  4 eigenvalues not converged
     ethr =  1.00E-05,  avg # of iterations = 25.4

[...]

     total energy              =   -2361.22283214 Ry
     estimated scf accuracy    <    6935.94487990 Ry

     iteration #  2     ecut=    29.40 Ry     beta= 0.05
     Davidson diagonalization with overlap
     ethr =  1.00E-02,  avg # of iterations = 24.5

[...]

     iteration # 46     ecut=    29.40 Ry     beta= 0.05
     Davidson diagonalization with overlap
     c_bands:  1 eigenvalues not converged
     ethr =  1.52E-06,  avg # of iterations =  8.0

[...]

     total energy              =   -2973.99530110 Ry
     estimated scf accuracy    <       0.00000013 Ry

     iteration # 88     ecut=    29.40 Ry     beta= 0.05
     Davidson diagonalization with overlap
     ethr =  3.18E-11,  avg # of iterations =  2.6

     negative rho (up, down):  1.502E-02 0.000E+00

     Adding external electric field

     Computed dipole along edir(3) :
        Dipole                1.1948 Ry au,          3.0369 Debye
        Dipole field          0.0023 Ry au,

        Potential amp.       -0.2090 Ry
        Total length         46.3494 bohr

     End of self-consistent calculation

          k = 0.0000 0.0000 0.0000 ( 18029 PWs)   bands (ev):

   -55.7006 -55.6667 -55.3865 -55.3525 -55.2782 -55.1697 -55.1146 -55.0370
   -54.9909 -54.9591 -54.8304 -54.7366 -54.6958 -54.6259 -54.5277 -54.4937
   -32.1606 -31.9949 -31.9710 -31.8620 -31.8557 -31.7841 -31.7624 -31.6519
   -31.6074 -31.6047 -31.5937 -31.5399 -31.5375 -31.5182 -31.4971 -31.4930
   -31.4892 -31.3954 -31.3869 -31.3713 -31.3355 -31.3163 -31.3060 -31.2952
   -31.2750 -31.2719 -31.2379 -31.2002 -31.1769 -31.1751 -31.1659 -31.1476
   -31.0974 -31.0305 -30.9922 -30.9528 -30.9508 -30.9270 -30.9209 -30.9068
   -30.8971 -30.8573 -30.8392 -30.8358 -30.8340 -30.7453 -30.6601 -30.5482
   -19.0817 -16.2309 -16.0570 -15.7658 -15.5951 -15.3880 -15.3594 -15.2639
   -15.1611 -15.1445 -15.0405 -14.9756 -14.8909 -14.8217 -14.8026 -14.7536
   -14.7238 -14.6963 -14.6816 -14.6721 -14.6340 -14.6018 -14.5851 -14.5092
   -14.4641 -14.4456 -14.4186 -14.3538 -14.2574 -13.9943 -13.9287 -13.0254
   -12.9120 -12.5743  -9.3480  -6.2225  -4.7727  -4.7226  -3.7782  -3.5360
    -3.4450  -3.3307  -3.1223  -3.0729  -2.8947  -2.7738  -2.7537  -2.5332
    -2.5055  -2.3936  -2.3786  -2.3336  -2.3259  -2.2917  -2.2253  -2.1970
    -2.1253  -2.0649  -2.0379  -2.0041  -1.9510  -1.8961  -1.8912  -1.8773
    -1.8199  -1.7523  -1.7238  -1.7144  -1.6705  -1.6070  -1.5983  -1.5822
    -1.5631  -1.5420  -1.3985  -1.2923  -1.2313  -1.1943  -1.1438  -1.0863
    -1.0337  -1.0204  -0.9201  -0.8402  -0.7985  -0.6816  -0.6536  -0.6131
    -0.5287  -0.5044  -0.4618  -0.4429  -0.4012  -0.3942  -0.2890  -0.2717
    -0.2376  -0.1946  -0.0761  -0.0280  -0.0197   0.0603   0.1210   0.2012
     0.2425   0.2580   0.2823   0.3685   0.3963   0.4138   0.4220   0.4941
     0.5130   0.5615   0.6155   0.6981   0.7105   0.7504   0.7850   0.7979
     0.9275   0.9358   1.0256   1.0496   1.0608   1.1246   1.2184   1.2789
     1.3918   1.4046   1.4970   1.4976   1.5181   1.7167   1.8908   2.0498
     2.0901   3.5008   3.6200   3.6822   3.7198   3.9305   3.9421   4.2042
     4.2797   4.3731   4.4132

[...]

          k = 0.0380-0.0419 0.0000 ( 17876 PWs)   bands (ev):

[...]

          k =-0.0760-0.0000 0.0000 ( 17886 PWs)   bands (ev):

[...]

          k =-0.0760-0.0839 0.0000 ( 17948 PWs)   bands (ev):

   -55.6838 -55.6834 -55.3720 -55.3667 -55.2776 -55.1639 -55.1204 -55.0292
   -54.9985 -54.9596 -54.8284 -54.7343 -54.6977 -54.6280 -54.5112 -54.5101
   -31.9807 -31.9804 -31.9761 -31.9760 -31.8074 -31.8069 -31.6902 -31.6847
   -31.5702 -31.5661 -31.5647 -31.5585 -31.5544 -31.4937 -31.4836 -31.4679
   -31.4349 -31.3858 -31.3841 -31.3617 -31.3470 -31.3464 -31.3346 -31.3343
   -31.2580 -31.2447 -31.2376 -31.2336 -31.2060 -31.1947 -31.1657 -31.1566
   -31.0895 -31.0402 -31.0357 -30.9929 -30.9596 -30.9543 -30.9535 -30.9117
   -30.8741 -30.8472 -30.8465 -30.8388 -30.7416 -30.7403 -30.7032 -30.7024
   -19.0784 -16.2237 -15.4717 -15.4615 -15.3175 -15.3081 -15.2307 -15.1409
   -15.1226 -15.0940 -15.0454 -15.0230 -14.9418 -14.8856 -14.8663 -14.8408
   -14.8222 -14.8079 -14.7499 -14.7470 -14.7312 -14.7181 -14.6517 -14.6135
   -14.5831 -14.5767 -14.4684 -14.3892 -14.3046 -14.1592 -14.0652 -13.0149
   -13.0145 -12.5747  -9.3543  -6.2151  -4.7634  -4.7227  -3.7714  -3.4169
    -2.6504  -2.6071  -2.5165  -2.4382  -2.4337  -2.3842  -2.3835  -2.3019
    -2.2495  -2.1914  -2.1672  -2.1592  -2.1585  -2.1274  -2.1186  -2.0640
    -2.0591  -2.0416  -2.0387  -1.9823  -1.9575  -1.9433  -1.8914  -1.8361
    -1.7856  -1.7491  -1.7271  -1.6869  -1.6675  -1.6645  -1.5799  -1.5660
    -1.5379  -1.5103  -1.4656  -1.4356  -1.3805  -1.3583  -1.3019  -1.1746
    -1.1038  -1.0174  -0.9121  -0.8907  -0.8579  -0.8248  -0.8118  -0.7894
    -0.7567  -0.6413  -0.6307  -0.5813  -0.5490  -0.5210  -0.5048  -0.4773
    -0.4535  -0.3525  -0.3106  -0.2809  -0.2408  -0.2066  -0.1784  -0.1452
    -0.0939  -0.0545  -0.0446  -0.0133   0.0207   0.0349   0.1883   0.2677
     0.4006   0.4285   0.5187   0.5657   0.5974   0.6271   0.6558   0.7746
     0.8221   0.8442   0.8808   0.9023   1.0012   1.0981   1.1184   1.1853
     1.2215   1.3263   1.3571   1.4449   1.4963   1.8796   1.8873   1.9083
     1.9087   3.3783   4.0458   4.0487   4.0603   4.0736   4.2387   4.2415
     4.3421   4.3663   4.5018

     the Fermi energy is     3.4573 ev

!    total energy              =   -2973.99530566 Ry
     estimated scf accuracy    <       0.00000006 Ry
     smearing contrib. (-TS)   =      -0.01689278 Ry
     internal energy E=F+TS    =   -2973.97841288 Ry

     The total energy is F=E-TS. E is the sum of the following terms:
     one-electron contribution =  -23438.35473244 Ry
     hartree contribution      =   11816.62668279 Ry
     xc contribution           =    -493.95747855 Ry
     ewald contribution        =    9141.70442128 Ry
     electric field correction =       0.00269404 Ry

     convergence has been achieved in  88 iterations

     Forces acting on atoms (cartesian axes, Ry/au):

     atom    1 type  1   force =     0.00011984   -0.00024009    0.10266886
     atom    2 type  1   force =    -0.00011850    0.00008391   -0.16810096
     atom    3 type  2   force =    -0.00000953    0.00045870   -0.03239826
     atom    4 type  2   force =     0.00002685   -0.00097353    0.04011499
     atom    5 type  2   force =    -0.00542946   -0.00191244   -0.00432784
     atom    6 type  2   force =     0.00666410   -0.00135710   -0.00592741
     atom    7 type  1   force =    -0.00053784   -0.00531379    0.03002736
     atom    8 type  1   force =     0.00069647    0.00861179    0.04849253
     atom    9 type  2   force =     0.00012295   -0.00131046   -0.00105703
     atom   10 type  2   force =    -0.00253559    0.00301323   -0.03412998
     atom   11 type  2   force =    -0.00038413   -0.00008688   -0.00022978
     atom   12 type  2   force =     0.00048301   -0.00036709   -0.00011220
     atom   13 type  1   force =     0.00022725   -0.00161751    0.00016498
     atom   14 type  1   force =     0.00017539   -0.00079161    0.00069156
     atom   15 type  2   force =     0.00008905    0.00003803   -0.00028232
     atom   16 type  2   force =    -0.00013049    0.00004441    0.00173259
     atom   17 type  2   force =    -0.00102687   -0.00058056    0.00040014
     atom   18 type  2   force =     0.00064087   -0.00109911    0.00053602
     atom   19 type  1   force =     0.00060279   -0.00096777   -0.00074193
     atom   20 type  1   force =    -0.00078322   -0.00022929   -0.00037663
     atom   21 type  2   force =     0.00004984    0.00012435    0.10112778
     atom   22 type  2   force =    -0.00008324    0.00081774    0.00061884
     atom   23 type  2   force =    -0.07542574   -0.00012208   -0.02929647
     atom   24 type  2   force =     0.07533795    0.00030060   -0.02931265
     atom   25 type  1   force =     0.00013900   -0.00022796    0.10280778
     atom   26 type  1   force =    -0.00004131   -0.00130048   -0.16850239
     atom   27 type  2   force =     0.00011828    0.00017503   -0.03116938
     atom   28 type  2   force =    -0.00000983    0.00072172    0.03583501
     atom   29 type  2   force =    -0.00425830    0.00378750   -0.00625694
     atom   30 type  2   force =     0.00528174    0.00442503   -0.00778246
     atom   31 type  1   force =    -0.00054184    0.00494918    0.01591965
     atom   32 type  1   force =     0.00077235   -0.01041579    0.04918001
     atom   33 type  2   force =     0.00002660   -0.00090327   -0.00136979
     atom   34 type  2   force =    -0.00240556    0.00222488   -0.04429813
     atom   35 type  2   force =     0.00055044    0.00019912   -0.00013368
     atom   36 type  2   force =    -0.00017912    0.00022913   -0.00006359
     atom   37 type  1   force =     0.00027045    0.00038669   -0.00047967
     atom   38 type  1   force =     0.00042180    0.00141059    0.00103609
     atom   39 type  2   force =     0.00036436    0.00047825    0.00011647
     atom   40 type  2   force =     0.00005863    0.00015871    0.00050639
     atom   41 type  2   force =    -0.00091075   -0.00022984    0.00010274
     atom   42 type  2   force =     0.00042330    0.00025198    0.00032121
     atom   43 type  1   force =     0.00028346    0.00025278   -0.00150783
     atom   44 type  1   force =    -0.00066937   -0.00043656   -0.00096333
     atom   45 type  2   force =     0.00007130   -0.00002080    0.10093546
     atom   46 type  2   force =    -0.07548200   -0.00004877   -0.02931180
     atom   47 type  2   force =     0.07539481    0.00038495   -0.02930754
     atom   48 type  3   force =    -0.00078822    0.00118387   -0.00151006
     atom   49 type  3   force =     0.00023735    0.00107543   -0.00238849
     atom   50 type  4   force =     0.00128466    0.00040259    0.00077265
     atom   51 type  5   force =     0.00011228   -0.00086780   -0.00146883
     atom   52 type  5   force =    -0.00018306   -0.00051740   -0.00046290
     atom   53 type  5   force =    -0.00014638   -0.00058096   -0.00102895
     atom   54 type  5   force =     0.00012763   -0.00288709    0.00186354
     atom   55 type  2   force =    -0.00033076    0.00037294   -0.00100294
     atom   56 type  5   force =     0.00123629   -0.00115711   -0.00067048

     Total force =     0.372788     Total SCF correction =     0.000605
  @ DRIVER MODE: Message from server: STATUS
  @ DRIVER MODE: Message from server: GETFORCE
  @ DRIVER MODE: Returning v,forces,stress,ensemble

     Writing output data file ./calc.save/
  @ DRIVER MODE: Message from server: EXIT
  @ DRIVE MODE: Exiting

     General routines

     Parallel routines

   This run was terminated on:  15: 7:48  23Sep2021

   JOB DONE.