     Program PWSCF v.6.7GPU starts on 21Sep2021 at 23:51:54

     R & G space division:  proc/nbgrp/npool/nimage =      10
     Reading input from /storage/home/hcoda1/3/ntian30/research/carbon/CxH_vib/CH_calc/ads_slab/CHNHNH2H2O_b/out_0005/pw.inp
Warning: card &CELL ignored
Warning: card   CELL_DYNAMICS='IPI', ignored
Warning: card / ignored

     Current dimensions of program PWSCF are:
     Max number of different atomic species (ntypx) = 10
     Max number of k-points (npk) =  40000
     Max angular momentum in pseudopotentials (lmaxx) =  3
     Presently no symmetry can be used with electric field

     Message from routine cell_base_init:
     DEPRECATED: use true lattice parameter, not A to a.u. conversion factor

     IMPORTANT: XC functional enforced from input :
     Exchange-correlation= BEEF-VDW
                           (   1   4  43  14   2   0   0)
     Any further DFT definition will be discarded
     Please, verify this is what you really want

  @ DRIVER MODE: Connecting to
 qe_1139763_2927425.sched-torque.pace.gatech.edu728_ky4f_scratch
  using UNIX socket
  @ DRIVER MODE: Message from server: STATUS
  @ DRIVER MODE: Message from server: INIT
  @ DRIVER MODE: Receiving replica           0          -1
  @ DRIVER MODE: Receiving encoded integer          25
  @ DRIVER MODE:  SCF:  T  FORCE:  T  STRESS:  F  VC:  F  ENSEMBLE:  F
  @ DRIVER MODE:  SCF:  T  FORCE:  T  STRESS:  F  VC:  F  ENSEMBLE:  F

     Using Slab Decomposition

     bravais-lattice index     =            0
     lattice parameter (alat)  =       1.8897  a.u.
     unit-cell volume          =    6658.9804 (a.u.)^3
     number of atoms/cell      =           57
     number of atomic types    =            5
     number of electrons       =       404.00
     number of Kohn-Sham states=          212
     kinetic-energy cutoff     =      29.3995  Ry
     charge density cutoff     =     293.9946  Ry
     scf convergence threshold =      7.3E-08
     mixing beta               =       0.0500
     number of iterations used =            8  plain     mixing
     Exchange-correlation= BEEF-VDW
                           (   1   4  43  14   2   0   0)

     celldm(1)=   1.889726  celldm(2)=   0.000000  celldm(3)=   0.000000
     celldm(4)=   0.000000  celldm(5)=   0.000000  celldm(6)=   0.000000

     crystal axes: (cart. coord. in units of alat)
               a(1) = (   6.579727   0.000000   0.000000 )
               a(2) = (  -0.000775   5.961596   0.000000 )
               a(3) = (   0.000000   0.000000  25.155947 )

     reciprocal axes: (cart. coord. in units 2 pi/alat)
               b(1) = (  0.151982  0.000020  0.000000 )
               b(2) = (  0.000000  0.167740  0.000000 )
               b(3) = (  0.000000  0.000000  0.039752 )

     PseudoPot. # 1 for Ti read from file:
     /storage/coda1/p-amedford6/0/shared/rich_project_chbe-medford/medford-share/data/pseudos_module/espresso/nninc/pbe/van/Ti.UPF
     MD5 check sum: 8e4df49b7f0d34bbd5052bf3f5ea0213
     Pseudo is Ultrasoft, Zval = 12.0
     Generated by new atomic code, or converted to UPF format
     Using radial grid of  851 points,  6 beta functions with:
                l(1) =   0
                l(2) =   0
                l(3) =   1
                l(4) =   1
                l(5) =   2
                l(6) =   2
     Q(r) pseudized with  8 coefficients,  rinner =    1.000   1.000   1.000
                                                       1.000   1.000

     PseudoPot. # 2 for O  read from file:
     /storage/coda1/p-amedford6/0/shared/rich_project_chbe-medford/medford-share/data/pseudos_module/espresso/nninc/pbe/van/O.UPF
     MD5 check sum: 78c19812648e8988a0fe644b0f25305e
     Pseudo is Ultrasoft, Zval =  6.0
     Generated by new atomic code, or converted to UPF format
     Using radial grid of  737 points,  4 beta functions with:
                l(1) =   0
                l(2) =   0
                l(3) =   1
                l(4) =   1
     Q(r) pseudized with  8 coefficients,  rinner =    0.800   0.800   0.800

     PseudoPot. # 3 for N  read from file:
     /storage/coda1/p-amedford6/0/shared/rich_project_chbe-medford/medford-share/data/pseudos_module/espresso/nninc/pbe/van/N.UPF
     MD5 check sum: 90d10febe142ad51ac9d5be1deb811c4
     Pseudo is Ultrasoft, Zval =  5.0
     Generated by new atomic code, or converted to UPF format
     Using radial grid of  729 points,  4 beta functions with:
                l(1) =   0
                l(2) =   0
                l(3) =   1
                l(4) =   1
     Q(r) pseudized with  8 coefficients,  rinner =    0.800   0.800   0.800

     PseudoPot. # 4 for C  read from file:
     /storage/coda1/p-amedford6/0/shared/rich_project_chbe-medford/medford-share/data/pseudos_module/espresso/nninc/pbe/van/C.UPF
     MD5 check sum: 1a69bf6b8db32088f5b2163dbdb77a27
     Pseudo is Ultrasoft, Zval =  4.0
     Generated by new atomic code, or converted to UPF format
     Using radial grid of  721 points,  4 beta functions with:
                l(1) =   0
                l(2) =   0
                l(3) =   1
                l(4) =   1
     Q(r) pseudized with  8 coefficients,  rinner =    0.800   0.800   0.800

     PseudoPot. # 5 for H  read from file:
     /storage/coda1/p-amedford6/0/shared/rich_project_chbe-medford/medford-share/data/pseudos_module/espresso/nninc/pbe/van/H.UPF
     MD5 check sum: b5ee9d7bfd3a09ee7748110bda690ff7
     Pseudo is Ultrasoft, Zval =  1.0
     Generated by new atomic code, or converted to UPF format
     Using radial grid of  615 points,  1 beta functions with:
                l(1) =   0
     Q(r) pseudized with  8 coefficients,  rinner =    0.800

     atomic species   valence    mass     pseudopotential
        Ti1           12.00    47.86700     Ti( 1.00)
        O1             6.00    15.99900     O ( 1.00)
        N1             5.00    14.00700     N ( 1.00)
        C1             4.00    12.01100     C ( 1.00)
        H1             1.00     1.00800     H ( 1.00)

     No symmetry found

   Cartesian axes

     site n.     atom                  positions (alat units)
         1           Ti1 tau(   1) = (   0.0004258   2.9801865   6.0000000  )
         2           Ti1 tau(   2) = (   3.2906075   1.4906267   6.0002472  )
         3           O1  tau(   3) = (   0.0006271   0.0005054   7.9858123  )
         4           O1  tau(   4) = (   3.2906025   0.0005020   7.3038282  )
         5           O1  tau(   5) = (   4.5942328   1.4918067   9.2879030  )
         6           O1  tau(   6) = (   1.9868534   1.4903216   9.2879459  )
         7           Ti1 tau(   7) = (   3.2907910   2.8959150   9.1758416  )
         8           Ti1 tau(   8) = (   0.0015273   1.4827037   9.2680791  )
         9           O1  tau(   9) = (   3.3066417   5.9496923  11.3845403  )
        10           O1  tau(  10) = (   0.0116148   5.9584955  10.6183126  )
        11           O1  tau(  11) = (   1.3010148   1.4986442  12.6442229  )
        12           O1  tau(  12) = (   5.3085967   1.5001388  12.6592367  )
        13           Ti1 tau(  13) = (   0.0282779   2.9853959  12.5065338  )
        14           Ti1 tau(  14) = (   3.3279724   1.4707331  12.5413945  )
        15           O1  tau(  15) = (   0.0378505   0.0859181  14.6860672  )
        16           O1  tau(  16) = (   3.3018867   0.0259462  14.0338077  )
        17           O1  tau(  17) = (   4.5998927   1.5484098  16.1661054  )
        18           O1  tau(  18) = (   2.0454451   1.5021798  16.2221046  )
        19           Ti1 tau(  19) = (   3.3206312   2.9825829  15.7321521  )
        20           Ti1 tau(  20) = (   0.0140791   1.4435866  15.9983415  )
        21           O1  tau(  21) = (   3.2904802   0.0005063   4.7018136  )
        22           O1  tau(  22) = (   6.5273045   5.8164216  17.2577718  )
        23           O1  tau(  23) = (   1.3043587   1.4918075   6.0039043  )
        24           O1  tau(  24) = (   5.2767064   1.4903225   6.0039473  )
        25           Ti1 tau(  25) = (   0.0000382   5.9609847   6.0000000  )
        26           Ti1 tau(  26) = (   3.2902200   4.4714249   6.0002472  )
        27           O1  tau(  27) = (   0.0002396   2.9813036   7.9858123  )
        28           O1  tau(  28) = (   3.2902150   2.9813002   7.3038282  )
        29           O1  tau(  29) = (   4.5938453   4.4726049   9.2879030  )
        30           O1  tau(  30) = (   1.9864658   4.4711199   9.2879459  )
        31           Ti1 tau(  31) = (   3.2891106   5.8743827   9.1763621  )
        32           Ti1 tau(  32) = (   0.0006254   4.4649316   9.2693709  )
        33           O1  tau(  33) = (   3.3068470   2.9864458  11.3814114  )
        34           O1  tau(  34) = (   0.0092240   2.9805883  10.6323155  )
        35           O1  tau(  35) = (   1.2982948   4.4740332  12.6840172  )
        36           O1  tau(  36) = (   5.3097620   4.4704985  12.6972095  )
        37           Ti1 tau(  37) = (   0.0348817   0.0130325  12.4954113  )
        38           Ti1 tau(  38) = (   3.3270268   4.4633798  12.5435021  )
        39           O1  tau(  39) = (   0.0563025   2.9439880  14.9425960  )
        40           O1  tau(  40) = (   3.2900316   2.9661073  13.9503945  )
        41           O1  tau(  41) = (   4.5967999   4.4093095  16.0633277  )
        42           O1  tau(  42) = (   2.0412097   4.4536800  16.1303113  )
        43           Ti1 tau(  43) = (   3.2964201   5.9600488  15.8742613  )
        44           Ti1 tau(  44) = (   0.0241369   4.6516137  15.8518307  )
        45           O1  tau(  45) = (   3.2900926   2.9813045   4.7018136  )
        46           O1  tau(  46) = (   1.3039711   4.4726057   6.0039043  )
        47           O1  tau(  47) = (   5.2763189   4.4711207   6.0039473  )
        48           N1  tau(  48) = (   1.4509408   2.7109095  18.7502185  )
        49           N1  tau(  49) = (   0.0917387   2.5303350  18.2207845  )
        50           C1  tau(  50) = (   1.9503960   3.7723240  19.2784661  )
        51           H1  tau(  51) = (   1.1612915   4.5273475  19.4152495  )
        52           H1  tau(  52) = (   2.0208952   1.9183395  18.4664618  )
        53           H1  tau(  53) = (   6.1377449   3.3539424  18.4987646  )
        54           H1  tau(  54) = (   6.2616785   1.7135167  18.6767212  )
        55           O1  tau(  55) = (   3.7012217   5.9496235  18.2853534  )
        56           H1  tau(  56) = (   4.6684668   5.8470116  18.1670174  )
        57           H1  tau(  57) = (   3.3852657   5.1278045  18.7338684  )

     number of k points=    10  Fermi-Dirac smearing, width (Ry)=  0.0073
                       cart. coord. in units 2pi/alat
        k(    1) = (   0.0000000   0.0000000   0.0000000), wk =   0.1250000
        k(    2) = (   0.0000000   0.0419351   0.0000000), wk =   0.2500000
        k(    3) = (   0.0000000  -0.0838702   0.0000000), wk =   0.1250000
        k(    4) = (   0.0379955   0.0000049   0.0000000), wk =   0.2500000
        k(    5) = (   0.0379955   0.0419400   0.0000000), wk =   0.2500000
        k(    6) = (   0.0379955  -0.0838652   0.0000000), wk =   0.2500000
        k(    7) = (   0.0379955  -0.0419301   0.0000000), wk =   0.2500000
        k(    8) = (  -0.0759910  -0.0000099   0.0000000), wk =   0.1250000
        k(    9) = (  -0.0759910   0.0419252   0.0000000), wk =   0.2500000
        k(   10) = (  -0.0759910  -0.0838800   0.0000000), wk =   0.1250000

     Initial potential from superposition of free atoms

     starting charge  387.99913, renormalised to  404.00000

     negative rho (up, down):  1.598E-02 0.000E+00

     %%%%%%%%%%%%%%%%%%%%%%%%%%%%%%%%%%%%%%%%%%%%%%%%%%%%%%%%%%%%%%%%%%%%%%%%
     %                                                                      %
     % You are using vdW-DF, which was implemented by the Thonhauser group. %
     % Please cite the following two papers that made this development      %
     % possible and the two reviews that describe the various versions:     %
     %                                                                      %
     %   T. Thonhauser et al., PRL 115, 136402 (2015).                      %
     %   T. Thonhauser et al., PRB 76, 125112 (2007).                       %
     %   K. Berland et al., Rep. Prog. Phys. 78, 066501 (2015).             %
     %   D.C. Langreth et al., J. Phys.: Condens. Matter 21, 084203 (2009). %
     %                                                                      %
     %                                                                      %
     % If you are calculating the stress with vdW-DF, please also cite:     %
     %                                                                      %
     %   R. Sabatini et al., J. Phys.: Condens. Matter 24, 424209 (2012).   %
     %                                                                      %
     %%%%%%%%%%%%%%%%%%%%%%%%%%%%%%%%%%%%%%%%%%%%%%%%%%%%%%%%%%%%%%%%%%%%%%%%

     Adding external electric field

     Computed dipole along edir(3) :
        Dipole              -14.3546 Ry au,        -36.4858 Debye
        Dipole field         -0.0271 Ry au,

        Potential amp.        2.5111 Ry
        Total length         46.3494 bohr

     Starting wfcs are  306 atomic wfcs
  @ DRIVER MODE: Message from server: STATUS
  @ DRIVER MODE: Message from server: POSDATA
  @ DRIVER MODE: Reading and sharing cell
  @ DRIVER MODE: Reading and sharing positions
  @ DRIVER MODE: Received positions

     Self-consistent Calculation

     iteration #  1     ecut=    29.40 Ry     beta= 0.05
     Davidson diagonalization with overlap
     c_bands:  3 eigenvalues not converged
     c_bands:  4 eigenvalues not converged
     c_bands:  4 eigenvalues not converged
     c_bands:  4 eigenvalues not converged
     c_bands:  3 eigenvalues not converged
     c_bands:  2 eigenvalues not converged
     c_bands:  4 eigenvalues not converged
     ethr =  1.00E-05,  avg # of iterations = 23.2

[...]

     total energy              =   -2220.94899642 Ry
     estimated scf accuracy    <    8587.10521875 Ry

     iteration #  2     ecut=    29.40 Ry     beta= 0.05
     Davidson diagonalization with overlap
     ethr =  1.00E-02,  avg # of iterations = 27.8

[...]

     iteration # 89     ecut=    29.40 Ry     beta= 0.05
     Davidson diagonalization with overlap
     ethr =  5.15E-11,  avg # of iterations = 10.0

[...]

     total energy              =   -2975.10520922 Ry
     estimated scf accuracy    <       0.00000012 Ry

     iteration # 90     ecut=    29.40 Ry     beta= 0.05
     Davidson diagonalization with overlap
     c_bands:  1 eigenvalues not converged
     ethr =  2.99E-11,  avg # of iterations = 16.0

     negative rho (up, down):  1.578E-02 0.000E+00

     Adding external electric field

     Computed dipole along edir(3) :
        Dipole                1.0255 Ry au,          2.6065 Debye
        Dipole field          0.0019 Ry au,

        Potential amp.       -0.1794 Ry
        Total length         46.3494 bohr

     End of self-consistent calculation

          k = 0.0000 0.0000 0.0000 ( 18029 PWs)   bands (ev):

   -55.3847 -55.3489 -55.3448 -55.3107 -55.3071 -55.3015 -55.2665 -55.2312
   -55.2161 -55.1813 -55.1745 -55.1592 -55.1408 -55.1117 -54.3759 -54.3418
   -31.9438 -31.8795 -31.8375 -31.7562 -31.7071 -31.7047 -31.6805 -31.6776
   -31.6337 -31.5978 -31.5905 -31.5895 -31.5821 -31.5788 -31.5604 -31.5587
   -31.5339 -31.5261 -31.5232 -31.5116 -31.4975 -31.4907 -31.4717 -31.4672
   -31.4588 -31.4458 -31.4451 -31.4164 -31.4021 -31.3982 -31.3951 -31.3729
   -31.3691 -31.3650 -31.3614 -31.3402 -31.3293 -31.3170 -31.3023 -31.3022
   -31.2920 -31.2856 -30.7854 -30.6909 -30.6688 -30.6017 -30.5149 -30.4040
   -18.8987 -18.4565 -16.2194 -15.9720 -15.8360 -15.7314 -15.5943 -15.4961
   -15.3869 -15.2737 -15.2506 -15.1569 -15.0825 -15.0782 -15.0411 -15.0157
   -14.9531 -14.9317 -14.9079 -14.9020 -14.8874 -14.8772 -14.8407 -14.8298
   -14.7957 -14.7859 -14.7686 -14.6372 -14.6243 -14.5513 -14.4807 -14.3435
   -12.8785 -12.7610  -9.8482  -7.0329  -6.3786  -6.0972  -4.4301  -3.7354
    -3.5432  -3.4097  -3.3312  -3.3019  -3.2850  -3.1535  -3.0607  -2.9015
    -2.8627  -2.8063  -2.6731  -2.5972  -2.5909  -2.5029  -2.4305  -2.4070
    -2.3742  -2.2649  -2.2587  -2.2081  -2.1915  -2.1684  -2.1591  -2.1124
    -2.0665  -2.0394  -1.9542  -1.8528  -1.8089  -1.7892  -1.7528  -1.7301
    -1.7252  -1.6818  -1.6756  -1.6515  -1.6131  -1.5888  -1.5431  -1.4313
    -1.3902  -1.2305  -1.1930  -1.0394  -1.0190  -0.9797  -0.9591  -0.9158
    -0.8918  -0.8761  -0.8572  -0.7716  -0.7133  -0.6458  -0.5829  -0.4925
    -0.4812  -0.4077  -0.3820  -0.3162  -0.2285  -0.1848  -0.1752  -0.1503
    -0.1470  -0.0328   0.0116   0.0718   0.0908   0.1480   0.1638   0.1859
     0.2560   0.3098   0.3790   0.4097   0.4888   0.5069   0.5421   0.5513
     0.5836   0.5940   0.6702   0.6851   0.7133   0.8160   0.9135   1.0063
     1.2167   1.2191   1.2520   1.5515   1.5537   1.6469   1.8303   2.2233
     2.2717   3.7051   3.7836   3.8332   3.8508   3.8553   3.9402   4.1947
     4.2089   4.2217   4.2279   4.2686

[...]

          k = 0.0380-0.0419 0.0000 ( 17876 PWs)   bands (ev):

[...]

          k =-0.0760-0.0000 0.0000 ( 17886 PWs)   bands (ev):

[...]

          k =-0.0760-0.0839 0.0000 ( 17948 PWs)   bands (ev):

   -55.3679 -55.3656 -55.3278 -55.3276 -55.3042 -55.3006 -55.2528 -55.2450
   -55.2018 -55.1952 -55.1611 -55.1586 -55.1569 -55.1134 -54.3588 -54.3588
   -31.7941 -31.7562 -31.7421 -31.6526 -31.6525 -31.6380 -31.6259 -31.6190
   -31.6189 -31.5978 -31.5926 -31.5897 -31.5667 -31.5588 -31.5470 -31.5332
   -31.5300 -31.5274 -31.5234 -31.5155 -31.5104 -31.5087 -31.5074 -31.4999
   -31.4680 -31.4666 -31.4476 -31.4474 -31.4469 -31.4419 -31.4393 -31.4348
   -31.4254 -31.4139 -31.4082 -31.3915 -31.3897 -31.3799 -31.3385 -31.3374
   -31.3369 -31.3180 -30.6815 -30.6815 -30.5979 -30.5977 -30.5583 -30.5583
   -18.8930 -18.4588 -15.8389 -15.6523 -15.5009 -15.4291 -15.4089 -15.3256
   -15.2702 -15.2668 -15.1938 -15.1757 -15.1633 -15.1417 -15.1322 -15.0849
   -15.0477 -15.0111 -14.9924 -14.9697 -14.9265 -14.9039 -14.9022 -14.8955
   -14.8877 -14.8475 -14.8422 -14.8389 -14.7472 -14.7453 -14.6987 -14.5540
   -12.8625 -12.8624  -9.8573  -7.0215  -6.3539  -6.0734  -4.4433  -3.6633
    -3.0240  -2.9105  -2.8999  -2.6711  -2.6526  -2.5915  -2.5789  -2.4911
    -2.4753  -2.4148  -2.3911  -2.3411  -2.3180  -2.2803  -2.2665  -2.2447
    -2.2237  -2.2100  -2.1832  -2.1673  -2.1502  -2.1307  -2.1197  -2.1083
    -2.0524  -2.0476  -2.0385  -2.0130  -1.9901  -1.9540  -1.9440  -1.9263
    -1.7723  -1.7566  -1.7352  -1.5998  -1.5954  -1.5600  -1.5212  -1.4936
    -1.4359  -1.4272  -1.3987  -1.3401  -1.1454  -1.1357  -1.1238  -1.1053
    -1.0346  -0.9792  -0.9655  -0.9469  -0.8938  -0.8159  -0.7803  -0.7294
    -0.6343  -0.5883  -0.5780  -0.5530  -0.4317  -0.4089  -0.3664  -0.3483
    -0.3321  -0.2977  -0.2962  -0.2363  -0.1856  -0.1506  -0.1277  -0.1134
    -0.0763   0.0787   0.1303   0.1467   0.2607   0.2904   0.4686   0.5114
     0.5329   0.6381   0.7213   0.7496   0.7638   0.8891   0.9113   0.9138
     0.9821   1.0043   1.0644   1.0701   1.2095   2.0030   2.0043   2.0915
     2.0917   3.8303   3.9531   3.9974   4.0333   4.1089   4.1620   4.2190
     4.2782   4.2897   4.2931   4.3596

     the Fermi energy is     3.7673 ev

!    total energy              =   -2975.10521951 Ry
     estimated scf accuracy    <       0.00000005 Ry
     smearing contrib. (-TS)   =      -0.03671990 Ry
     internal energy E=F+TS    =   -2975.06849962 Ry

     The total energy is F=E-TS. E is the sum of the following terms:
     one-electron contribution =  -23507.82524376 Ry
     hartree contribution      =   11849.93836030 Ry
     xc contribution           =    -494.91812426 Ry
     ewald contribution        =    9177.73452366 Ry
     electric field correction =       0.00198445 Ry

     convergence has been achieved in  90 iterations

     Forces acting on atoms (cartesian axes, Ry/au):

     atom    1 type  1   force =     0.00002789   -0.00025063    0.09308240
     atom    2 type  1   force =    -0.00019363   -0.00032407   -0.17837202
     atom    3 type  2   force =     0.00006173   -0.00016724   -0.02025702
     atom    4 type  2   force =     0.00001689   -0.00203533    0.05925963
     atom    5 type  2   force =    -0.01032831   -0.00110271    0.00809340
     atom    6 type  2   force =     0.01217241   -0.00054709    0.00817315
     atom    7 type  1   force =     0.00015464    0.00328483   -0.01110015
     atom    8 type  1   force =    -0.00030100    0.00052578   -0.00560535
     atom    9 type  2   force =     0.00004151    0.00017705   -0.00016669
     atom   10 type  2   force =    -0.00146232   -0.00003251   -0.00170904
     atom   11 type  2   force =     0.00036991   -0.00003123   -0.00006212
     atom   12 type  2   force =    -0.00008821    0.00010960   -0.00009151
     atom   13 type  1   force =    -0.00008229   -0.00017049   -0.00025930
     atom   14 type  1   force =    -0.00022592   -0.00036615    0.00035581
     atom   15 type  2   force =     0.00006576   -0.00050145    0.00006252
     atom   16 type  2   force =     0.00022882    0.00009626    0.00024367
     atom   17 type  2   force =     0.00035508   -0.00018725    0.00017380
     atom   18 type  2   force =    -0.00011918   -0.00025035   -0.00038184
     atom   19 type  1   force =    -0.00034623   -0.00044489    0.00005535
     atom   20 type  1   force =    -0.00001911    0.00022949    0.00034653
     atom   21 type  2   force =    -0.00000596   -0.00007399    0.10401221
     atom   22 type  2   force =    -0.00009192   -0.00000570    0.00002866
     atom   23 type  2   force =    -0.07033712   -0.00015536   -0.02682777
     atom   24 type  2   force =     0.07020656    0.00029009   -0.02690443
     atom   25 type  1   force =     0.00002039   -0.00015987    0.09275858
     atom   26 type  1   force =    -0.00015605   -0.00039676   -0.17834465
     atom   27 type  2   force =     0.00011145   -0.00031039   -0.01919843
     atom   28 type  2   force =     0.00004755   -0.00163332    0.05840369
     atom   29 type  2   force =    -0.01028326   -0.00064210    0.00729918
     atom   30 type  2   force =     0.01201977   -0.00031039    0.00743535
     atom   31 type  1   force =     0.00007850    0.00515790   -0.01466148
     atom   32 type  1   force =    -0.00013491   -0.00052976   -0.00594833
     atom   33 type  2   force =     0.00012818   -0.00039370   -0.00024728
     atom   34 type  2   force =    -0.00078650    0.00260504   -0.00102663
     atom   35 type  2   force =    -0.00008084   -0.00011878   -0.00012446
     atom   36 type  2   force =     0.00024988   -0.00000026   -0.00015000
     atom   37 type  1   force =    -0.00043175    0.00008454    0.00003703
     atom   38 type  1   force =    -0.00002880   -0.00023907   -0.00022866
     atom   39 type  2   force =    -0.00029702   -0.00018798   -0.00016558
     atom   40 type  2   force =    -0.00013206   -0.00006231   -0.00006572
     atom   41 type  2   force =    -0.00011670   -0.00014152    0.00037731
     atom   42 type  2   force =    -0.00008672   -0.00017571    0.00001529
     atom   43 type  1   force =    -0.00005425   -0.00031311    0.00008576
     atom   44 type  1   force =     0.00002065   -0.00001320    0.00005339
     atom   45 type  2   force =     0.00001004   -0.00010931    0.10398165
     atom   46 type  2   force =    -0.07036070   -0.00012073   -0.02684994
     atom   47 type  2   force =     0.07020608    0.00031555   -0.02690545
     atom   48 type  3   force =     0.00051883    0.01122616    0.00940046
     atom   49 type  3   force =    -0.00145260   -0.00116055   -0.00174263
     atom   50 type  4   force =    -0.00137595   -0.00504028   -0.00376039
     atom   51 type  5   force =    -0.00047227   -0.00115371   -0.00037632
     atom   52 type  5   force =     0.00179550   -0.00410046   -0.00253834
     atom   53 type  5   force =     0.00037405    0.00009058   -0.00001257
     atom   54 type  5   force =     0.00067811    0.00041755    0.00006419
     atom   55 type  2   force =     0.00010932   -0.00005522    0.00057392
     atom   56 type  5   force =     0.00023716   -0.00037346   -0.00043852
     atom   57 type  5   force =    -0.00045509   -0.00022202    0.00014967

     Total force =     0.366574     Total SCF correction =     0.000625
  @ DRIVER MODE: Message from server: STATUS
  @ DRIVER MODE: Message from server: GETFORCE
  @ DRIVER MODE: Returning v,forces,stress,ensemble

     Writing output data file ./calc.save/
  @ DRIVER MODE: Message from server: EXIT
  @ DRIVE MODE: Exiting

     General routines

     Parallel routines

   This run was terminated on:   0:15:22  22Sep2021

   JOB DONE.