     Program PWSCF v.6.7GPU starts on 26Sep2021 at 11:16: 5

     R & G space division:  proc/nbgrp/npool/nimage =       8
     Reading input from /storage/home/hcoda1/3/ntian30/research/carbon/CxH_vib/H2O_calc/ads_slab/CH3OHN2HO_a/out_0036/pw.inp
Warning: card &CELL ignored
Warning: card   CELL_DYNAMICS='IPI', ignored
Warning: card / ignored

     Current dimensions of program PWSCF are:
     Max number of different atomic species (ntypx) = 10
     Max number of k-points (npk) =  40000
     Max angular momentum in pseudopotentials (lmaxx) =  3
     Presently no symmetry can be used with electric field

     Message from routine cell_base_init:
     DEPRECATED: use true lattice parameter, not A to a.u. conversion factor

     IMPORTANT: XC functional enforced from input :
     Exchange-correlation= BEEF-VDW
                           (   1   4  43  14   2   0   0)
     Any further DFT definition will be discarded
     Please, verify this is what you really want

  @ DRIVER MODE: Connecting to
 qe_1139763_2971668.sched-torque.pace.gatech.edul02ic2vb_scratch
  using UNIX socket
  @ DRIVER MODE: Message from server: STATUS
  @ DRIVER MODE: Message from server: INIT
  @ DRIVER MODE: Receiving replica           0          -1
  @ DRIVER MODE: Receiving encoded integer          25
  @ DRIVER MODE:  SCF:  T  FORCE:  T  STRESS:  F  VC:  F  ENSEMBLE:  F
  @ DRIVER MODE:  SCF:  T  FORCE:  T  STRESS:  F  VC:  F  ENSEMBLE:  F

     Using Slab Decomposition

     bravais-lattice index     =            0
     lattice parameter (alat)  =       1.8897  a.u.
     unit-cell volume          =    6658.9804 (a.u.)^3
     number of atoms/cell      =           57
     number of atomic types    =            5
     number of electrons       =       409.00
     number of Kohn-Sham states=          214
     kinetic-energy cutoff     =      29.3995  Ry
     charge density cutoff     =     293.9946  Ry
     scf convergence threshold =      7.3E-08
     mixing beta               =       0.0500
     number of iterations used =            8  plain     mixing
     Exchange-correlation= BEEF-VDW
                           (   1   4  43  14   2   0   0)

     celldm(1)=   1.889726  celldm(2)=   0.000000  celldm(3)=   0.000000
     celldm(4)=   0.000000  celldm(5)=   0.000000  celldm(6)=   0.000000

     crystal axes: (cart. coord. in units of alat)
               a(1) = (   6.579727   0.000000   0.000000 )
               a(2) = (  -0.000775   5.961596   0.000000 )
               a(3) = (   0.000000   0.000000  25.155947 )

     reciprocal axes: (cart. coord. in units 2 pi/alat)
               b(1) = (  0.151982  0.000020  0.000000 )
               b(2) = (  0.000000  0.167740  0.000000 )
               b(3) = (  0.000000  0.000000  0.039752 )

     PseudoPot. # 1 for Ti read from file:
     /storage/coda1/p-amedford6/0/shared/rich_project_chbe-medford/medford-share/data/pseudos_module/espresso/nninc/pbe/van/Ti.UPF
     MD5 check sum: 8e4df49b7f0d34bbd5052bf3f5ea0213
     Pseudo is Ultrasoft, Zval = 12.0
     Generated by new atomic code, or converted to UPF format
     Using radial grid of  851 points,  6 beta functions with:
                l(1) =   0
                l(2) =   0
                l(3) =   1
                l(4) =   1
                l(5) =   2
                l(6) =   2
     Q(r) pseudized with  8 coefficients,  rinner =    1.000   1.000   1.000
                                                       1.000   1.000

     PseudoPot. # 2 for O  read from file:
     /storage/coda1/p-amedford6/0/shared/rich_project_chbe-medford/medford-share/data/pseudos_module/espresso/nninc/pbe/van/O.UPF
     MD5 check sum: 78c19812648e8988a0fe644b0f25305e
     Pseudo is Ultrasoft, Zval =  6.0
     Generated by new atomic code, or converted to UPF format
     Using radial grid of  737 points,  4 beta functions with:
                l(1) =   0
                l(2) =   0
                l(3) =   1
                l(4) =   1
     Q(r) pseudized with  8 coefficients,  rinner =    0.800   0.800   0.800

     PseudoPot. # 3 for C  read from file:
     /storage/coda1/p-amedford6/0/shared/rich_project_chbe-medford/medford-share/data/pseudos_module/espresso/nninc/pbe/van/C.UPF
     MD5 check sum: 1a69bf6b8db32088f5b2163dbdb77a27
     Pseudo is Ultrasoft, Zval =  4.0
     Generated by new atomic code, or converted to UPF format
     Using radial grid of  721 points,  4 beta functions with:
                l(1) =   0
                l(2) =   0
                l(3) =   1
                l(4) =   1
     Q(r) pseudized with  8 coefficients,  rinner =    0.800   0.800   0.800

     PseudoPot. # 4 for H  read from file:
     /storage/coda1/p-amedford6/0/shared/rich_project_chbe-medford/medford-share/data/pseudos_module/espresso/nninc/pbe/van/H.UPF
     MD5 check sum: b5ee9d7bfd3a09ee7748110bda690ff7
     Pseudo is Ultrasoft, Zval =  1.0
     Generated by new atomic code, or converted to UPF format
     Using radial grid of  615 points,  1 beta functions with:
                l(1) =   0
     Q(r) pseudized with  8 coefficients,  rinner =    0.800

     PseudoPot. # 5 for N  read from file:
     /storage/coda1/p-amedford6/0/shared/rich_project_chbe-medford/medford-share/data/pseudos_module/espresso/nninc/pbe/van/N.UPF
     MD5 check sum: 90d10febe142ad51ac9d5be1deb811c4
     Pseudo is Ultrasoft, Zval =  5.0
     Generated by new atomic code, or converted to UPF format
     Using radial grid of  729 points,  4 beta functions with:
                l(1) =   0
                l(2) =   0
                l(3) =   1
                l(4) =   1
     Q(r) pseudized with  8 coefficients,  rinner =    0.800   0.800   0.800

     atomic species   valence    mass     pseudopotential
        Ti1           12.00    47.86700     Ti( 1.00)
        O1             6.00    15.99900     O ( 1.00)
        C1             4.00    12.01100     C ( 1.00)
        H1             1.00     1.00800     H ( 1.00)
        N1             5.00    14.00700     N ( 1.00)

     No symmetry found

   Cartesian axes

     site n.     atom                  positions (alat units)
         1           Ti1 tau(   1) = (   0.0004258   2.9801865   6.0000000  )
         2           Ti1 tau(   2) = (   3.2906075   1.4906267   6.0002472  )
         3           O1  tau(   3) = (   0.0006271   0.0005054   7.9858123  )
         4           O1  tau(   4) = (   3.2906025   0.0005020   7.3038282  )
         5           O1  tau(   5) = (   4.5942328   1.4918067   9.2879030  )
         6           O1  tau(   6) = (   1.9868534   1.4903216   9.2879459  )
         7           Ti1 tau(   7) = (   3.3371032   3.0268772   9.1887580  )
         8           Ti1 tau(   8) = (   0.0611061   1.5258697   9.2809523  )
         9           O1  tau(   9) = (   3.3143856   0.0188946  11.3581724  )
        10           O1  tau(  10) = (   0.0164151   0.0031400  10.5895864  )
        11           O1  tau(  11) = (   1.3088961   1.4994640  12.6347600  )
        12           O1  tau(  12) = (   5.3347766   1.4946156  12.6347356  )
        13           Ti1 tau(  13) = (   0.0202478   3.0292801  12.5720800  )
        14           Ti1 tau(  14) = (   3.3188568   1.5851219  12.4260843  )
        15           O1  tau(  15) = (   0.0445434   5.9450813  14.6510506  )
        16           O1  tau(  16) = (   3.3207065   5.8849141  14.0104376  )
        17           O1  tau(  17) = (   4.6249962   1.5116716  16.1313945  )
        18           O1  tau(  18) = (   2.0639035   1.5439872  16.0680944  )
        19           Ti1 tau(  19) = (   3.3360141   2.9454253  15.6763505  )
        20           Ti1 tau(  20) = (   0.0686920   1.3314864  15.9334539  )
        21           O1  tau(  21) = (   3.2904802   0.0005063   4.7018136  )
        22           O1  tau(  22) = (   0.0979609   0.0039778  17.1657837  )
        23           O1  tau(  23) = (   1.3043587   1.4918075   6.0039043  )
        24           O1  tau(  24) = (   5.2767064   1.4903225   6.0039473  )
        25           Ti1 tau(  25) = (   0.0000382   5.9609847   6.0000000  )
        26           Ti1 tau(  26) = (   3.2902200   4.4714249   6.0002472  )
        27           O1  tau(  27) = (   0.0002396   2.9813036   7.9858123  )
        28           O1  tau(  28) = (   3.2902150   2.9813002   7.3038282  )
        29           O1  tau(  29) = (   4.5938453   4.4726049   9.2879030  )
        30           O1  tau(  30) = (   1.9864658   4.4711199   9.2879459  )
        31           Ti1 tau(  31) = (   3.3368545   0.0404040   9.1664313  )
        32           Ti1 tau(  32) = (   0.0604674   4.4799263   9.2696248  )
        33           O1  tau(  33) = (   3.3137611   2.9662427  11.3084074  )
        34           O1  tau(  34) = (   0.0134136   2.9850836  10.6046154  )
        35           O1  tau(  35) = (   1.3054726   4.4719986  12.6384794  )
        36           O1  tau(  36) = (   5.3362180   4.4781181  12.6390536  )
        37           Ti1 tau(  37) = (   0.0365240   0.0487139  12.4702884  )
        38           Ti1 tau(  38) = (   3.3180881   4.6653017  12.7087268  )
        39           O1  tau(  39) = (   0.0228105   2.9918545  14.7761892  )
        40           O1  tau(  40) = (   3.3431522   2.9700269  13.9040455  )
        41           O1  tau(  41) = (   4.6265974   4.4152401  16.1544535  )
        42           O1  tau(  42) = (   2.0571238   4.3592187  16.1146037  )
        43           Ti1 tau(  43) = (   3.3848590   5.9294639  16.2700006  )
        44           Ti1 tau(  44) = (   0.0517009   4.5268197  15.8466567  )
        45           O1  tau(  45) = (   3.2900926   2.9813045   4.7018136  )
        46           O1  tau(  46) = (   1.3039711   4.4726057   6.0039043  )
        47           O1  tau(  47) = (   5.2763189   4.4711207   6.0039473  )
        48           C1  tau(  48) = (   5.9450987   3.0517216  18.8599509  )
        49           O1  tau(  49) = (   0.1802289   3.0084098  17.6484507  )
        50           H1  tau(  50) = (   4.9625852   2.6832861  18.5889656  )
        51           H1  tau(  51) = (   1.1163247   3.1442434  17.8758057  )
        52           H1  tau(  52) = (   6.3899442   2.3914015  19.6026461  )
        53           H1  tau(  53) = (   5.8846647   4.0795385  19.2251274  )
        54           N1  tau(  54) = (   5.7598779   3.1323611  22.9045362  )
        55           N1  tau(  55) = (   4.9845974   3.1850264  22.1203839  )
        56           O1  tau(  56) = (   3.1467188   0.0118795  18.1166202  )
        57           H1  tau(  57) = (   2.2164505   0.0865285  18.3868412  )

     number of k points=    10  Fermi-Dirac smearing, width (Ry)=  0.0073
                       cart. coord. in units 2pi/alat
        k(    1) = (   0.0000000   0.0000000   0.0000000), wk =   0.1250000
        k(    2) = (   0.0000000   0.0419351   0.0000000), wk =   0.2500000
        k(    3) = (   0.0000000  -0.0838702   0.0000000), wk =   0.1250000
        k(    4) = (   0.0379955   0.0000049   0.0000000), wk =   0.2500000
        k(    5) = (   0.0379955   0.0419400   0.0000000), wk =   0.2500000
        k(    6) = (   0.0379955  -0.0838652   0.0000000), wk =   0.2500000
        k(    7) = (   0.0379955  -0.0419301   0.0000000), wk =   0.2500000
        k(    8) = (  -0.0759910  -0.0000099   0.0000000), wk =   0.1250000
        k(    9) = (  -0.0759910   0.0419252   0.0000000), wk =   0.2500000
        k(   10) = (  -0.0759910  -0.0838800   0.0000000), wk =   0.1250000

     Initial potential from superposition of free atoms

     starting charge  392.99914, renormalised to  409.00000

     negative rho (up, down):  9.138E-03 0.000E+00

     %%%%%%%%%%%%%%%%%%%%%%%%%%%%%%%%%%%%%%%%%%%%%%%%%%%%%%%%%%%%%%%%%%%%%%%%
     %                                                                      %
     % You are using vdW-DF, which was implemented by the Thonhauser group. %
     % Please cite the following two papers that made this development      %
     % possible and the two reviews that describe the various versions:     %
     %                                                                      %
     %   T. Thonhauser et al., PRL 115, 136402 (2015).                      %
     %   T. Thonhauser et al., PRB 76, 125112 (2007).                       %
     %   K. Berland et al., Rep. Prog. Phys. 78, 066501 (2015).             %
     %   D.C. Langreth et al., J. Phys.: Condens. Matter 21, 084203 (2009). %
     %                                                                      %
     %                                                                      %
     % If you are calculating the stress with vdW-DF, please also cite:     %
     %                                                                      %
     %   R. Sabatini et al., J. Phys.: Condens. Matter 24, 424209 (2012).   %
     %                                                                      %
     %%%%%%%%%%%%%%%%%%%%%%%%%%%%%%%%%%%%%%%%%%%%%%%%%%%%%%%%%%%%%%%%%%%%%%%%

     Adding external electric field

     Computed dipole along edir(3) :
        Dipole              -18.8694 Ry au,        -47.9613 Debye
        Dipole field         -0.0356 Ry au,

        Potential amp.        3.3009 Ry
        Total length         46.3494 bohr

     Starting wfcs are  309 atomic wfcs
  @ DRIVER MODE: Message from server: STATUS
  @ DRIVER MODE: Message from server: POSDATA
  @ DRIVER MODE: Reading and sharing cell
  @ DRIVER MODE: Reading and sharing positions
  @ DRIVER MODE: Received positions

     Self-consistent Calculation

     iteration #  1     ecut=    29.40 Ry     beta= 0.05
     Davidson diagonalization with overlap
     c_bands:  5 eigenvalues not converged
     c_bands:  5 eigenvalues not converged
     c_bands:  1 eigenvalues not converged
     c_bands:  4 eigenvalues not converged
     c_bands:  1 eigenvalues not converged
     c_bands:  3 eigenvalues not converged
     ethr =  1.00E-05,  avg # of iterations = 27.3

[...]

     total energy              =   -2113.20357084 Ry
     estimated scf accuracy    <   10331.08759862 Ry

     iteration #  2     ecut=    29.40 Ry     beta= 0.05
     Davidson diagonalization with overlap
     ethr =  1.00E-02,  avg # of iterations = 30.6

[...]

     iteration # 77     ecut=    29.40 Ry     beta= 0.05
     Davidson diagonalization with overlap
     c_bands:  1 eigenvalues not converged
     ethr =  5.96E-10,  avg # of iterations =  8.8

[...]

     total energy              =   -3006.45829448 Ry
     estimated scf accuracy    <       0.00000016 Ry

     iteration # 85     ecut=    29.40 Ry     beta= 0.05
     Davidson diagonalization with overlap
     ethr =  3.73E-11,  avg # of iterations =  5.7

     negative rho (up, down):  1.064E-02 0.000E+00

     Adding external electric field

     Computed dipole along edir(3) :
        Dipole                1.0503 Ry au,          2.6696 Debye
        Dipole field          0.0020 Ry au,

        Potential amp.       -0.1837 Ry
        Total length         46.3494 bohr

     End of self-consistent calculation

          k = 0.0000 0.0000 0.0000 ( 18029 PWs)   bands (ev):

   -55.3287 -55.2529 -55.2176 -55.1435 -55.1219 -55.0869 -55.0508 -55.0464
   -55.0446 -55.0253 -55.0153 -54.9853 -54.8985 -54.8224 -54.2127 -54.1787
   -31.7308 -31.7225 -31.6349 -31.6231 -31.5823 -31.5685 -31.5441 -31.5420
   -31.5073 -31.4957 -31.4846 -31.4198 -31.4066 -31.4065 -31.3798 -31.3616
   -31.3529 -31.3360 -31.3352 -31.3238 -31.3165 -31.3117 -31.2658 -31.2637
   -31.2617 -31.2551 -31.2522 -31.2392 -31.2329 -31.2143 -31.2074 -31.1969
   -31.1952 -31.1753 -31.1707 -31.1627 -31.1616 -31.1275 -31.0872 -31.0678
   -31.0367 -31.0263 -30.6189 -30.5326 -30.5100 -30.4359 -30.3496 -30.2379
   -21.5073 -19.7139 -16.1351 -15.9051 -15.7258 -15.5239 -15.4671 -15.4006
   -15.2134 -15.1400 -14.9841 -14.8589 -14.8443 -14.7874 -14.7866 -14.7762
   -14.7473 -14.7224 -14.6771 -14.6657 -14.6603 -14.6567 -14.5952 -14.5528
   -14.5503 -14.5230 -14.5023 -14.3751 -14.3282 -14.2736 -14.1035 -14.0815
   -12.7123 -12.5962 -10.5674  -6.6874  -6.4149  -4.6692  -4.6306  -4.5924
    -4.3893  -3.6512  -3.3712  -3.2543  -3.1539  -3.1351  -3.0707  -3.0198
    -2.8047  -2.7003  -2.6354  -2.5226  -2.3956  -2.3598  -2.3100  -2.2774
    -2.1855  -2.1672  -2.1356  -2.1059  -2.0505  -2.0223  -2.0148  -2.0027
    -1.9261  -1.9198  -1.7899  -1.7848  -1.7287  -1.6366  -1.6189  -1.5959
    -1.5885  -1.5544  -1.5518  -1.5096  -1.4859  -1.4618  -1.4327  -1.3581
    -1.3387  -1.2758  -1.2387  -1.0060  -0.8518  -0.8273  -0.7469  -0.7306
    -0.6997  -0.6707  -0.6506  -0.6398  -0.6026  -0.5872  -0.4837  -0.3801
    -0.3715  -0.3118  -0.2741  -0.2693  -0.1337  -0.0888  -0.0145   0.0082
     0.0404   0.0615   0.1458   0.1946   0.2162   0.2828   0.3142   0.4196
     0.4571   0.4763   0.5176   0.5731   0.6336   0.6672   0.7067   0.7101
     0.7429   0.7921   0.8215   0.8561   0.8785   0.9255   1.0284   1.0658
     1.0762   1.2168   1.2280   1.3100   1.4348   1.4867   1.7597   1.8122
     1.8590   2.0045   2.3811   2.4280   3.8710   3.9735   3.9947   4.0159
     4.0836   4.1654   4.3309   4.3540   4.4183   4.5194

[...]

          k = 0.0380-0.0419 0.0000 ( 17876 PWs)   bands (ev):

[...]

          k =-0.0760-0.0000 0.0000 ( 17886 PWs)   bands (ev):

[...]

          k =-0.0760-0.0839 0.0000 ( 17948 PWs)   bands (ev):

   -55.3280 -55.2398 -55.2305 -55.1375 -55.1175 -55.0927 -55.0503 -55.0456
   -55.0369 -55.0287 -55.0163 -54.9946 -54.8948 -54.8260 -54.1959 -54.1954
   -31.6421 -31.5784 -31.5686 -31.5508 -31.5419 -31.5418 -31.5360 -31.5200
   -31.4578 -31.4533 -31.4143 -31.3932 -31.3813 -31.3763 -31.3598 -31.3577
   -31.3539 -31.3524 -31.3453 -31.3394 -31.3345 -31.3324 -31.3171 -31.3150
   -31.2963 -31.2854 -31.2562 -31.2498 -31.2468 -31.2426 -31.2347 -31.2335
   -31.2268 -31.2220 -31.2182 -31.2138 -31.2113 -31.1729 -31.1543 -31.0913
   -31.0738 -31.0302 -30.5229 -30.5226 -30.4327 -30.4311 -30.3929 -30.3920
   -21.5071 -19.7102 -16.1115 -15.5352 -15.3785 -15.2075 -15.1937 -15.1143
   -15.0229 -15.0051 -14.9744 -14.9613 -14.9441 -14.9195 -14.9115 -14.8764
   -14.8133 -14.7714 -14.7483 -14.7401 -14.6931 -14.6878 -14.6843 -14.6215
   -14.6142 -14.5961 -14.5715 -14.5116 -14.5029 -14.4020 -14.3868 -14.2148
   -12.6985 -12.6976 -10.5694  -6.6877  -6.4168  -4.6645  -4.6375  -4.5801
    -4.3816  -3.6162  -3.3617  -2.6835  -2.5992  -2.5404  -2.4314  -2.3529
    -2.2996  -2.2498  -2.2287  -2.1837  -2.1625  -2.0929  -2.0583  -2.0496
    -2.0301  -2.0280  -1.9975  -1.9821  -1.9694  -1.9481  -1.9197  -1.9024
    -1.8919  -1.8709  -1.8510  -1.8255  -1.8131  -1.8032  -1.7883  -1.7725
    -1.6616  -1.6446  -1.6121  -1.4492  -1.4378  -1.3688  -1.3372  -1.3107
    -1.3070  -1.2766  -1.2615  -1.2195  -1.1139  -1.0867  -1.0371  -0.9954
    -0.9026  -0.8867  -0.8358  -0.7848  -0.7391  -0.7105  -0.6801  -0.6648
    -0.6110  -0.4727  -0.4520  -0.4068  -0.2877  -0.2144  -0.1987  -0.1862
    -0.1644  -0.1413  -0.0949  -0.0866  -0.0248  -0.0122   0.0586   0.0627
     0.0918   0.1133   0.2157   0.3379   0.4164   0.4602   0.5053   0.5546
     0.5883   0.6706   0.7469   0.8333   0.9093   0.9388   0.9526   1.0703
     1.1028   1.1554   1.2012   1.2214   1.2797   1.3155   1.3557   1.3888
     2.1733   2.1869   2.2433   2.2490   4.0515   4.3017   4.3618   4.3790
     4.3885   4.4209   4.4421   4.4938   4.5098   4.5338

     the Fermi energy is     3.8811 ev

!    total energy              =   -3006.45829993 Ry
     estimated scf accuracy    <       0.00000004 Ry
     smearing contrib. (-TS)   =      -0.02082761 Ry
     internal energy E=F+TS    =   -3006.43747233 Ry

     The total energy is F=E-TS. E is the sum of the following terms:
     one-electron contribution =  -22317.33275958 Ry
     hartree contribution      =   11258.18470690 Ry
     xc contribution           =    -501.14372498 Ry
     ewald contribution        =    8553.85222359 Ry
     electric field correction =       0.00208174 Ry

     convergence has been achieved in  85 iterations

     Forces acting on atoms (cartesian axes, Ry/au):

     atom    1 type  1   force =    -0.00037710   -0.00017011    0.09496376
     atom    2 type  1   force =    -0.00034961    0.00513128   -0.17482890
     atom    3 type  2   force =     0.00070824    0.00012903   -0.02673042
     atom    4 type  2   force =     0.00128931    0.00083323    0.05207187
     atom    5 type  2   force =    -0.01096721   -0.00256025    0.00077821
     atom    6 type  2   force =     0.01193678   -0.00380991    0.00178939
     atom    7 type  1   force =    -0.00021901    0.00039381    0.00068479
     atom    8 type  1   force =     0.00013863    0.00022516    0.00017148
     atom    9 type  2   force =     0.00024943    0.00075742   -0.00065928
     atom   10 type  2   force =    -0.00038924    0.00016234    0.00014054
     atom   11 type  2   force =     0.00044352   -0.00014969    0.00009929
     atom   12 type  2   force =    -0.00085231   -0.00014943    0.00035239
     atom   13 type  1   force =     0.00043643    0.00034966   -0.00024174
     atom   14 type  1   force =    -0.00033750   -0.00070459    0.00091840
     atom   15 type  2   force =    -0.00014177   -0.00052071   -0.00098700
     atom   16 type  2   force =    -0.00027990    0.00000147   -0.00023649
     atom   17 type  2   force =    -0.00097820    0.00031660   -0.00000951
     atom   18 type  2   force =     0.00045718    0.00070337   -0.00005778
     atom   19 type  1   force =     0.00026977   -0.00080644    0.00020272
     atom   20 type  1   force =    -0.00026810   -0.00003110    0.00038215
     atom   21 type  2   force =    -0.00000292    0.00007272    0.10303102
     atom   22 type  2   force =    -0.00001252   -0.00010940    0.00092338
     atom   23 type  2   force =    -0.07195901    0.00013722   -0.02802818
     atom   24 type  2   force =     0.07179222    0.00063354   -0.02813282
     atom   25 type  1   force =    -0.00036352    0.00025747    0.10241679
     atom   26 type  1   force =    -0.00010596   -0.00474912   -0.17507265
     atom   27 type  2   force =     0.00084830    0.00117075   -0.02484867
     atom   28 type  2   force =     0.00119549    0.00025404    0.05170317
     atom   29 type  2   force =    -0.01193063    0.00381138    0.00172344
     atom   30 type  2   force =     0.01376733    0.00146153    0.00245540
     atom   31 type  1   force =    -0.00029049   -0.00016172    0.00082139
     atom   32 type  1   force =     0.00028252    0.00029208    0.00060130
     atom   33 type  2   force =     0.00000529    0.00019901    0.00009386
     atom   34 type  2   force =    -0.00027347   -0.00032345   -0.00057051
     atom   35 type  2   force =    -0.00022911    0.00004783   -0.00048099
     atom   36 type  2   force =    -0.00038283    0.00009369   -0.00009771
     atom   37 type  1   force =    -0.00005355   -0.00034519    0.00002853
     atom   38 type  1   force =    -0.00056706    0.00028453   -0.00000556
     atom   39 type  2   force =    -0.00025040   -0.00024826    0.00079612
     atom   40 type  2   force =    -0.00019935    0.00011580    0.00028460
     atom   41 type  2   force =    -0.00140857   -0.00026447   -0.00006970
     atom   42 type  2   force =     0.00106920   -0.00013899   -0.00049728
     atom   43 type  1   force =    -0.00018449    0.00052135    0.00020816
     atom   44 type  1   force =    -0.00009832    0.00019417    0.00012923
     atom   45 type  2   force =     0.00000308    0.00013944    0.10261904
     atom   46 type  2   force =    -0.07185192   -0.00062682   -0.02797322
     atom   47 type  2   force =     0.07170923   -0.00013455   -0.02804784
     atom   48 type  3   force =    -0.00029401    0.00240815    0.00262584
     atom   49 type  2   force =    -0.00163834    0.00020994    0.00110166
     atom   50 type  4   force =    -0.00006003   -0.00013990   -0.00017576
     atom   51 type  4   force =     0.00040610    0.00040667   -0.00067521
     atom   52 type  4   force =    -0.00016837   -0.00065742   -0.00080582
     atom   53 type  4   force =     0.00033150   -0.00353539   -0.00421247
     atom   54 type  5   force =     0.00016622   -0.00008122    0.00037803
     atom   55 type  5   force =    -0.00052015    0.00006003   -0.00033123
     atom   56 type  2   force =     0.00080120   -0.00055601    0.00047885
     atom   57 type  4   force =    -0.00030193   -0.00080056   -0.00119802

     Total force =     0.364885     Total SCF correction =     0.000440
  @ DRIVER MODE: Message from server: STATUS
  @ DRIVER MODE: Message from server: GETFORCE
  @ DRIVER MODE: Returning v,forces,stress,ensemble

     Writing output data file ./calc.save/
  @ DRIVER MODE: Message from server: EXIT
  @ DRIVE MODE: Exiting

     General routines

     Parallel routines

   This run was terminated on:  11:48:48  26Sep2021

   JOB DONE.