     Program PWSCF v.6.7GPU starts on 15Sep2021 at 22:45:21

     R & G space division:  proc/nbgrp/npool/nimage =      10
     Reading input from /storage/home/hcoda1/3/ntian30/research/carbon/CxH_vib/H2O_calc/ads_slab/CH2N2HH2O_a/out_0022/pw.inp
Warning: card &CELL ignored
Warning: card   CELL_DYNAMICS='IPI', ignored
Warning: card / ignored

     Current dimensions of program PWSCF are:
     Max number of different atomic species (ntypx) = 10
     Max number of k-points (npk) =  40000
     Max angular momentum in pseudopotentials (lmaxx) =  3
     Presently no symmetry can be used with electric field

     Message from routine cell_base_init:
     DEPRECATED: use true lattice parameter, not A to a.u. conversion factor

     IMPORTANT: XC functional enforced from input :
     Exchange-correlation= BEEF-VDW
                           (   1   4  43  14   2   0   0)
     Any further DFT definition will be discarded
     Please, verify this is what you really want

  @ DRIVER MODE: Connecting to
 qe_1139763_2852606.sched-torque.pace.gatech.edud3t6o44a_scratch
  using UNIX socket
  @ DRIVER MODE: Message from server: STATUS
  @ DRIVER MODE: Message from server: INIT
  @ DRIVER MODE: Receiving replica           0          -1
  @ DRIVER MODE: Receiving encoded integer          25
  @ DRIVER MODE:  SCF:  T  FORCE:  T  STRESS:  F  VC:  F  ENSEMBLE:  F
  @ DRIVER MODE:  SCF:  T  FORCE:  T  STRESS:  F  VC:  F  ENSEMBLE:  F

     Using Slab Decomposition

     bravais-lattice index     =            0
     lattice parameter (alat)  =       1.8897  a.u.
     unit-cell volume          =    6658.9804 (a.u.)^3
     number of atoms/cell      =           56
     number of atomic types    =            5
     number of electrons       =       403.00
     number of Kohn-Sham states=          211
     kinetic-energy cutoff     =      29.3995  Ry
     charge density cutoff     =     293.9946  Ry
     scf convergence threshold =      7.3E-08
     mixing beta               =       0.0500
     number of iterations used =            8  plain     mixing
     Exchange-correlation= BEEF-VDW
                           (   1   4  43  14   2   0   0)

     celldm(1)=   1.889726  celldm(2)=   0.000000  celldm(3)=   0.000000
     celldm(4)=   0.000000  celldm(5)=   0.000000  celldm(6)=   0.000000

     crystal axes: (cart. coord. in units of alat)
               a(1) = (   6.579727   0.000000   0.000000 )
               a(2) = (  -0.000775   5.961596   0.000000 )
               a(3) = (   0.000000   0.000000  25.155947 )

     reciprocal axes: (cart. coord. in units 2 pi/alat)
               b(1) = (  0.151982  0.000020  0.000000 )
               b(2) = (  0.000000  0.167740  0.000000 )
               b(3) = (  0.000000  0.000000  0.039752 )

     PseudoPot. # 1 for Ti read from file:
     /storage/coda1/p-amedford6/0/shared/rich_project_chbe-medford/medford-share/data/pseudos_module/espresso/nninc/pbe/van/Ti.UPF
     MD5 check sum: 8e4df49b7f0d34bbd5052bf3f5ea0213
     Pseudo is Ultrasoft, Zval = 12.0
     Generated by new atomic code, or converted to UPF format
     Using radial grid of  851 points,  6 beta functions with:
                l(1) =   0
                l(2) =   0
                l(3) =   1
                l(4) =   1
                l(5) =   2
                l(6) =   2
     Q(r) pseudized with  8 coefficients,  rinner =    1.000   1.000   1.000
                                                       1.000   1.000

     PseudoPot. # 2 for O  read from file:
     /storage/coda1/p-amedford6/0/shared/rich_project_chbe-medford/medford-share/data/pseudos_module/espresso/nninc/pbe/van/O.UPF
     MD5 check sum: 78c19812648e8988a0fe644b0f25305e
     Pseudo is Ultrasoft, Zval =  6.0
     Generated by new atomic code, or converted to UPF format
     Using radial grid of  737 points,  4 beta functions with:
                l(1) =   0
                l(2) =   0
                l(3) =   1
                l(4) =   1
     Q(r) pseudized with  8 coefficients,  rinner =    0.800   0.800   0.800

     PseudoPot. # 3 for N  read from file:
     /storage/coda1/p-amedford6/0/shared/rich_project_chbe-medford/medford-share/data/pseudos_module/espresso/nninc/pbe/van/N.UPF
     MD5 check sum: 90d10febe142ad51ac9d5be1deb811c4
     Pseudo is Ultrasoft, Zval =  5.0
     Generated by new atomic code, or converted to UPF format
     Using radial grid of  729 points,  4 beta functions with:
                l(1) =   0
                l(2) =   0
                l(3) =   1
                l(4) =   1
     Q(r) pseudized with  8 coefficients,  rinner =    0.800   0.800   0.800

     PseudoPot. # 4 for C  read from file:
     /storage/coda1/p-amedford6/0/shared/rich_project_chbe-medford/medford-share/data/pseudos_module/espresso/nninc/pbe/van/C.UPF
     MD5 check sum: 1a69bf6b8db32088f5b2163dbdb77a27
     Pseudo is Ultrasoft, Zval =  4.0
     Generated by new atomic code, or converted to UPF format
     Using radial grid of  721 points,  4 beta functions with:
                l(1) =   0
                l(2) =   0
                l(3) =   1
                l(4) =   1
     Q(r) pseudized with  8 coefficients,  rinner =    0.800   0.800   0.800

     PseudoPot. # 5 for H  read from file:
     /storage/coda1/p-amedford6/0/shared/rich_project_chbe-medford/medford-share/data/pseudos_module/espresso/nninc/pbe/van/H.UPF
     MD5 check sum: b5ee9d7bfd3a09ee7748110bda690ff7
     Pseudo is Ultrasoft, Zval =  1.0
     Generated by new atomic code, or converted to UPF format
     Using radial grid of  615 points,  1 beta functions with:
                l(1) =   0
     Q(r) pseudized with  8 coefficients,  rinner =    0.800

     atomic species   valence    mass     pseudopotential
        Ti1           12.00    47.86700     Ti( 1.00)
        O1             6.00    15.99900     O ( 1.00)
        N1             5.00    14.00700     N ( 1.00)
        C1             4.00    12.01100     C ( 1.00)
        H1             1.00     1.00800     H ( 1.00)

     No symmetry found

   Cartesian axes

     site n.     atom                  positions (alat units)
         1           Ti1 tau(   1) = (   0.0004258   2.9801865   6.0000000  )
         2           Ti1 tau(   2) = (   3.2906075   1.4906267   6.0002472  )
         3           O1  tau(   3) = (   0.0006271   0.0005054   7.9858123  )
         4           O1  tau(   4) = (   3.2906025   0.0005020   7.3038282  )
         5           O1  tau(   5) = (   4.5942328   1.4918067   9.2879030  )
         6           O1  tau(   6) = (   1.9868534   1.4903216   9.2879459  )
         7           Ti1 tau(   7) = (   3.2907910   2.8959150   9.1758416  )
         8           Ti1 tau(   8) = (   0.0015273   1.4827037   9.2680791  )
         9           O1  tau(   9) = (   3.2932810   5.9556063  11.3276769  )
        10           O1  tau(  10) = (   0.0116148   5.9584955  10.6183126  )
        11           O1  tau(  11) = (   1.2966828   1.5020869  12.6141357  )
        12           O1  tau(  12) = (   5.2995835   1.4923495  12.6341875  )
        13           Ti1 tau(  13) = (   6.5470072   2.9473109  12.5798724  )
        14           Ti1 tau(  14) = (   3.2302912   1.4573256  12.5082679  )
        15           O1  tau(  15) = (   0.0525813   0.0137714  14.6435187  )
        16           O1  tau(  16) = (   3.2708393   0.0302713  13.9228694  )
        17           O1  tau(  17) = (   4.5627544   1.5900677  16.0055000  )
        18           O1  tau(  18) = (   2.0437599   1.5040777  16.0764052  )
        19           Ti1 tau(  19) = (   3.3063064   2.9825517  15.6619520  )
        20           Ti1 tau(  20) = (   6.5607061   1.3194196  15.9785141  )
        21           O1  tau(  21) = (   3.2904802   0.0005063   4.7018136  )
        22           O1  tau(  22) = (   6.3855286   5.9589440  17.1610702  )
        23           O1  tau(  23) = (   1.3043587   1.4918075   6.0039043  )
        24           O1  tau(  24) = (   5.2767064   1.4903225   6.0039473  )
        25           Ti1 tau(  25) = (   0.0000382   5.9609847   6.0000000  )
        26           Ti1 tau(  26) = (   3.2902200   4.4714249   6.0002472  )
        27           O1  tau(  27) = (   0.0002396   2.9813036   7.9858123  )
        28           O1  tau(  28) = (   3.2902150   2.9813002   7.3038282  )
        29           O1  tau(  29) = (   4.5938453   4.4726049   9.2879030  )
        30           O1  tau(  30) = (   1.9864658   4.4711199   9.2879459  )
        31           Ti1 tau(  31) = (   3.2891106   5.8743827   9.1763621  )
        32           Ti1 tau(  32) = (   0.0006254   4.4649316   9.2693709  )
        33           O1  tau(  33) = (   3.2946552   2.9814125  11.3288906  )
        34           O1  tau(  34) = (   0.0092240   2.9805883  10.6323155  )
        35           O1  tau(  35) = (   1.2978438   4.4726441  12.6233041  )
        36           O1  tau(  36) = (   5.2969606   4.4732664  12.6435870  )
        37           Ti1 tau(  37) = (   6.5415350   5.9305516  12.5357152  )
        38           Ti1 tau(  38) = (   3.2303862   4.4559975  12.4807118  )
        39           O1  tau(  39) = (   0.0164246   2.9899045  14.7829194  )
        40           O1  tau(  40) = (   3.2688228   2.9752494  13.8698570  )
        41           O1  tau(  41) = (   4.5210259   4.4573316  15.9082071  )
        42           O1  tau(  42) = (   2.0412773   4.4882057  16.0214637  )
        43           Ti1 tau(  43) = (   3.2233344   5.9452837  15.7820064  )
        44           Ti1 tau(  44) = (   6.5355943   4.4735413  15.8975681  )
        45           O1  tau(  45) = (   3.2900926   2.9813045   4.7018136  )
        46           O1  tau(  46) = (   1.3039711   4.4726057   6.0039043  )
        47           O1  tau(  47) = (   5.2763189   4.4711207   6.0039473  )
        48           N1  tau(  48) = (   0.2167872   2.3688911  18.0161765  )
        49           C1  tau(  49) = (   0.4968348   1.8934616  19.1878903  )
        50           H1  tau(  50) = (   0.5617972   2.5522217  20.0513624  )
        51           H1  tau(  51) = (   0.6371857   0.8399532  19.2874115  )
        52           N1  tau(  52) = (   6.5661014   3.6386027  17.7750644  )
        53           H1  tau(  53) = (   0.0713089   4.2532688  18.5884219  )
        54           O1  tau(  54) = (   3.6608114   5.9026821  18.0962282  )
        55           H1  tau(  55) = (   4.6425638   0.0038819  18.0438526  )
        56           H1  tau(  56) = (   3.3558581   0.7595698  18.5153002  )

     number of k points=    10  Fermi-Dirac smearing, width (Ry)=  0.0073
                       cart. coord. in units 2pi/alat
        k(    1) = (   0.0000000   0.0000000   0.0000000), wk =   0.1250000
        k(    2) = (   0.0000000   0.0419351   0.0000000), wk =   0.2500000
        k(    3) = (   0.0000000  -0.0838702   0.0000000), wk =   0.1250000
        k(    4) = (   0.0379955   0.0000049   0.0000000), wk =   0.2500000
        k(    5) = (   0.0379955   0.0419400   0.0000000), wk =   0.2500000
        k(    6) = (   0.0379955  -0.0838652   0.0000000), wk =   0.2500000
        k(    7) = (   0.0379955  -0.0419301   0.0000000), wk =   0.2500000
        k(    8) = (  -0.0759910  -0.0000099   0.0000000), wk =   0.1250000
        k(    9) = (  -0.0759910   0.0419252   0.0000000), wk =   0.2500000
        k(   10) = (  -0.0759910  -0.0838800   0.0000000), wk =   0.1250000

     Initial potential from superposition of free atoms

     starting charge  386.99914, renormalised to  403.00000

     negative rho (up, down):  1.554E-02 0.000E+00

     %%%%%%%%%%%%%%%%%%%%%%%%%%%%%%%%%%%%%%%%%%%%%%%%%%%%%%%%%%%%%%%%%%%%%%%%
     %                                                                      %
     % You are using vdW-DF, which was implemented by the Thonhauser group. %
     % Please cite the following two papers that made this development      %
     % possible and the two reviews that describe the various versions:     %
     %                                                                      %
     %   T. Thonhauser et al., PRL 115, 136402 (2015).                      %
     %   T. Thonhauser et al., PRB 76, 125112 (2007).                       %
     %   K. Berland et al., Rep. Prog. Phys. 78, 066501 (2015).             %
     %   D.C. Langreth et al., J. Phys.: Condens. Matter 21, 084203 (2009). %
     %                                                                      %
     %                                                                      %
     % If you are calculating the stress with vdW-DF, please also cite:     %
     %                                                                      %
     %   R. Sabatini et al., J. Phys.: Condens. Matter 24, 424209 (2012).   %
     %                                                                      %
     %%%%%%%%%%%%%%%%%%%%%%%%%%%%%%%%%%%%%%%%%%%%%%%%%%%%%%%%%%%%%%%%%%%%%%%%

     Adding external electric field

     Computed dipole along edir(3) :
        Dipole              -12.7952 Ry au,        -32.5221 Debye
        Dipole field         -0.0241 Ry au,

        Potential amp.        2.2383 Ry
        Total length         46.3494 bohr

     Starting wfcs are  305 atomic wfcs
  @ DRIVER MODE: Message from server: STATUS
  @ DRIVER MODE: Message from server: POSDATA
  @ DRIVER MODE: Reading and sharing cell
  @ DRIVER MODE: Reading and sharing positions
  @ DRIVER MODE: Received positions

     Self-consistent Calculation

     iteration #  1     ecut=    29.40 Ry     beta= 0.05
     Davidson diagonalization with overlap
     c_bands:  3 eigenvalues not converged
     c_bands:  3 eigenvalues not converged
     c_bands:  4 eigenvalues not converged
     c_bands:  5 eigenvalues not converged
     c_bands:  1 eigenvalues not converged
     c_bands:  1 eigenvalues not converged
     c_bands:  4 eigenvalues not converged
     c_bands:  3 eigenvalues not converged
     ethr =  1.00E-05,  avg # of iterations = 27.5

[...]

     total energy              =   -2369.03698433 Ry
     estimated scf accuracy    <    6884.46692629 Ry

     iteration #  2     ecut=    29.40 Ry     beta= 0.05
     Davidson diagonalization with overlap
     ethr =  1.00E-02,  avg # of iterations = 26.3

[...]

     iteration # 53     ecut=    29.40 Ry     beta= 0.05
     Davidson diagonalization with overlap
     c_bands:  2 eigenvalues not converged
     c_bands:  3 eigenvalues not converged
     c_bands:  1 eigenvalues not converged
     ethr =  2.46E-06,  avg # of iterations = 16.3

[...]

     total energy              =   -2973.98321807 Ry
     estimated scf accuracy    <       0.00000009 Ry

     iteration # 76     ecut=    29.40 Ry     beta= 0.05
     Davidson diagonalization with overlap
     ethr =  2.26E-11,  avg # of iterations = 11.7

     negative rho (up, down):  1.541E-02 0.000E+00

     Adding external electric field

     Computed dipole along edir(3) :
        Dipole                0.9251 Ry au,          2.3513 Debye
        Dipole field          0.0017 Ry au,

        Potential amp.       -0.1618 Ry
        Total length         46.3494 bohr

     End of self-consistent calculation

          k = 0.0000 0.0000 0.0000 ( 18029 PWs)   bands (ev):

   -55.6134 -55.5855 -55.5794 -55.5474 -55.4949 -55.4834 -55.4533 -55.4309
   -55.3969 -55.3926 -55.3586 -55.3353 -55.0415 -54.9910 -54.5933 -54.5593
   -32.1295 -32.0975 -31.9857 -31.9307 -31.9172 -31.9053 -31.8839 -31.8710
   -31.8578 -31.8170 -31.7659 -31.7620 -31.7335 -31.7331 -31.7293 -31.7194
   -31.7149 -31.7116 -31.7084 -31.7062 -31.6756 -31.6708 -31.6619 -31.6343
   -31.6248 -31.6239 -31.6166 -31.6133 -31.5983 -31.5901 -31.5728 -31.5595
   -31.5473 -31.5408 -31.5356 -31.5060 -31.5033 -31.3051 -31.2657 -31.2425
   -31.1894 -31.1469 -31.0002 -30.9123 -30.8898 -30.8172 -30.7307 -30.6194
   -18.6676 -17.9037 -16.3333 -16.0910 -15.8514 -15.7743 -15.7419 -15.5283
   -15.4253 -15.3697 -15.2344 -15.1853 -15.1719 -15.1519 -15.1268 -15.0925
   -15.0665 -15.0529 -15.0459 -15.0294 -15.0040 -14.9773 -14.9570 -14.9532
   -14.9121 -14.8433 -14.7739 -14.7483 -14.6864 -14.6742 -14.2343 -13.0945
   -12.9780 -12.0793  -7.8558  -6.4517  -5.3185  -4.5154  -3.7071  -3.5691
    -3.5215  -3.4723  -3.4639  -3.2739  -3.1899  -3.0589  -2.8977  -2.8501
    -2.7798  -2.7419  -2.7028  -2.6404  -2.5993  -2.4934  -2.4558  -2.4262
    -2.4110  -2.3658  -2.3606  -2.3567  -2.2955  -2.2585  -2.1799  -2.1536
    -2.0741  -2.0043  -1.9759  -1.9503  -1.9276  -1.9104  -1.9073  -1.8578
    -1.8567  -1.8548  -1.7839  -1.7374  -1.6606  -1.6157  -1.5594  -1.4184
    -1.3778  -1.2686  -1.2214  -1.0998  -1.0959  -1.0738  -1.0489  -1.0099
    -1.0020  -0.8784  -0.7930  -0.7434  -0.7081  -0.6460  -0.5428  -0.5224
    -0.4330  -0.4279  -0.3738  -0.3606  -0.3451  -0.3158  -0.2375  -0.1246
    -0.1061  -0.0456   0.0036   0.0665   0.1101   0.1349   0.1729   0.2227
     0.2463   0.2876   0.3140   0.3250   0.3581   0.3958   0.4181   0.4962
     0.5691   0.6186   0.6678   0.7083   0.7127   0.8900   1.0023   1.0411
     1.1721   1.1958   1.3626   1.4302   1.5004   1.6221   2.0004   2.0461
     2.2169   3.4943   3.6080   3.6324   3.6423   3.7456   3.8792   3.9619
     4.0025   4.0270   4.0658

[...]

          k = 0.0380-0.0419 0.0000 ( 17876 PWs)   bands (ev):

[...]

          k =-0.0760-0.0000 0.0000 ( 17886 PWs)   bands (ev):

[...]

          k =-0.0760-0.0839 0.0000 ( 17948 PWs)   bands (ev):

   -55.5965 -55.5962 -55.5728 -55.5599 -55.4858 -55.4813 -55.4623 -55.4142
   -55.4131 -55.3783 -55.3731 -55.3372 -55.0346 -54.9978 -54.5764 -54.5761
   -31.9458 -31.9206 -31.9129 -31.9127 -31.8908 -31.8905 -31.8257 -31.8209
   -31.8127 -31.8077 -31.7889 -31.7389 -31.7351 -31.7319 -31.7227 -31.7213
   -31.7193 -31.7164 -31.7157 -31.7140 -31.7122 -31.6998 -31.6906 -31.6759
   -31.6733 -31.6686 -31.6471 -31.6183 -31.6173 -31.6078 -31.5990 -31.5949
   -31.5916 -31.5906 -31.5893 -31.5443 -31.5184 -31.2937 -31.2682 -31.2627
   -31.2465 -31.1905 -30.9026 -30.9024 -30.8131 -30.8128 -30.7741 -30.7739
   -18.6656 -17.8909 -15.7742 -15.6812 -15.5941 -15.5521 -15.4735 -15.4549
   -15.4010 -15.3360 -15.2977 -15.2792 -15.2377 -15.2090 -15.1646 -15.1522
   -15.1445 -15.1209 -15.0968 -15.0726 -15.0613 -15.0553 -15.0505 -15.0372
   -15.0035 -14.9717 -14.9350 -14.9312 -14.9026 -14.6599 -14.5837 -13.0799
   -13.0798 -12.0321  -7.7785  -6.4457  -5.3834  -4.5850  -3.1875  -3.0621
    -2.8913  -2.8514  -2.8039  -2.7504  -2.7424  -2.6883  -2.5638  -2.5547
    -2.5245  -2.4594  -2.4360  -2.4329  -2.4243  -2.4204  -2.3995  -2.3626
    -2.3619  -2.3079  -2.2981  -2.2868  -2.2815  -2.2634  -2.2459  -2.2429
    -2.2194  -2.1730  -2.1588  -2.1425  -2.0360  -1.9370  -1.8776  -1.8408
    -1.8097  -1.7623  -1.7573  -1.7374  -1.7216  -1.6833  -1.6673  -1.6113
    -1.4965  -1.4181  -1.3324  -1.3016  -1.2726  -1.2020  -1.1571  -1.0929
    -1.0523  -1.0468  -0.9633  -0.8487  -0.8356  -0.7985  -0.7704  -0.6941
    -0.6656  -0.6329  -0.5724  -0.5656  -0.5381  -0.5099  -0.4734  -0.3821
    -0.3642  -0.3578  -0.3280  -0.3193  -0.3080  -0.2672  -0.1943  -0.0952
    -0.0234  -0.0168   0.0889   0.2156   0.3131   0.4450   0.4734   0.5212
     0.5746   0.6086   0.6920   0.6997   0.7257   0.7897   0.8325   0.9007
     0.9247   0.9400   1.0258   1.0330   1.7941   1.7954   1.8661   1.8662
     2.1608   3.8588   3.8871   3.9077   3.9524   4.0299   4.0538   4.0546
     4.0606   4.1769   4.1839

     the Fermi energy is     3.5132 ev

!    total energy              =   -2973.98322830 Ry
     estimated scf accuracy    <       0.00000005 Ry
     smearing contrib. (-TS)   =      -0.02040440 Ry
     internal energy E=F+TS    =   -2973.96282390 Ry

     The total energy is F=E-TS. E is the sum of the following terms:
     one-electron contribution =  -24204.33910878 Ry
     hartree contribution      =   12196.80572535 Ry
     xc contribution           =    -494.26737788 Ry
     ewald contribution        =    9527.83632240 Ry
     electric field correction =       0.00161500 Ry

     convergence has been achieved in  76 iterations

     Forces acting on atoms (cartesian axes, Ry/au):

     atom    1 type  1   force =    -0.00006158   -0.00019423    0.09552006
     atom    2 type  1   force =     0.00002515   -0.00036424   -0.17556835
     atom    3 type  2   force =     0.00009470   -0.00012468   -0.02315684
     atom    4 type  2   force =     0.00000763   -0.00139031    0.05289616
     atom    5 type  2   force =    -0.00999339   -0.00075534    0.00324935
     atom    6 type  2   force =     0.01152400   -0.00009654    0.00282516
     atom    7 type  1   force =     0.00045967    0.00027530   -0.00663571
     atom    8 type  1   force =     0.00028875    0.00537132    0.01757596
     atom    9 type  2   force =    -0.00014907   -0.00015342   -0.00039798
     atom   10 type  2   force =    -0.00346377    0.00075100   -0.01266374
     atom   11 type  2   force =    -0.00080559   -0.00032560    0.00009564
     atom   12 type  2   force =     0.00032104   -0.00016970    0.00010009
     atom   13 type  1   force =    -0.00026360    0.00039128   -0.00021238
     atom   14 type  1   force =     0.00021792    0.00003341    0.00067265
     atom   15 type  2   force =    -0.00012171    0.00009473   -0.00038383
     atom   16 type  2   force =    -0.00003605   -0.00022375   -0.00006189
     atom   17 type  2   force =     0.00050245   -0.00013531   -0.00006331
     atom   18 type  2   force =    -0.00023206   -0.00038655   -0.00003431
     atom   19 type  1   force =    -0.00011522   -0.00012037    0.00029039
     atom   20 type  1   force =     0.00050635    0.00001020   -0.00034108
     atom   21 type  2   force =     0.00006955    0.00003499    0.10318379
     atom   22 type  2   force =     0.00006821    0.00000745    0.00009940
     atom   23 type  2   force =    -0.07161329   -0.00013528   -0.02755202
     atom   24 type  2   force =     0.07153960    0.00036513   -0.02759117
     atom   25 type  1   force =     0.00018715   -0.00009407    0.09518169
     atom   26 type  1   force =     0.00008583   -0.00039821   -0.17574675
     atom   27 type  2   force =     0.00011183   -0.00024112   -0.02207749
     atom   28 type  2   force =     0.00002871   -0.00099039    0.05230026
     atom   29 type  2   force =    -0.01014323    0.00036940    0.00285452
     atom   30 type  2   force =     0.01154346    0.00074497    0.00247675
     atom   31 type  1   force =     0.00027928    0.00393659   -0.01131666
     atom   32 type  1   force =     0.00045876   -0.00673068    0.01787046
     atom   33 type  2   force =    -0.00007875    0.00004817   -0.00020245
     atom   34 type  2   force =    -0.00395523    0.00073609   -0.01214400
     atom   35 type  2   force =    -0.00020807    0.00008087   -0.00017102
     atom   36 type  2   force =    -0.00001040    0.00003279   -0.00007905
     atom   37 type  1   force =    -0.00004421   -0.00041776    0.00037089
     atom   38 type  1   force =     0.00005807    0.00001709    0.00041059
     atom   39 type  2   force =     0.00036065   -0.00035652    0.00025380
     atom   40 type  2   force =    -0.00050397    0.00026722   -0.00008344
     atom   41 type  2   force =     0.00007672    0.00009060   -0.00015584
     atom   42 type  2   force =     0.00032382    0.00018892    0.00025412
     atom   43 type  1   force =    -0.00013626   -0.00032340   -0.00005072
     atom   44 type  1   force =    -0.00013243   -0.00019433    0.00020124
     atom   45 type  2   force =     0.00007263   -0.00000261    0.10313821
     atom   46 type  2   force =    -0.07161402   -0.00003605   -0.02752227
     atom   47 type  2   force =     0.07154462    0.00035435   -0.02761292
     atom   48 type  3   force =     0.00000210    0.00066200   -0.00062748
     atom   49 type  4   force =    -0.00075307    0.01276651   -0.00045723
     atom   50 type  5   force =     0.00020865    0.00004289    0.00026018
     atom   51 type  5   force =     0.00218525   -0.01385870    0.00116840
     atom   52 type  3   force =    -0.00014056   -0.00013195   -0.00035378
     atom   53 type  5   force =     0.00056326    0.00041486   -0.00009007
     atom   54 type  2   force =    -0.00061377   -0.00132984   -0.00060600
     atom   55 type  5   force =     0.00175724    0.00000990    0.00015850
     atom   56 type  5   force =    -0.00028374    0.00158293    0.00055150

     Total force =     0.365213     Total SCF correction =     0.000628
  @ DRIVER MODE: Message from server: STATUS
  @ DRIVER MODE: Message from server: GETFORCE
  @ DRIVER MODE: Returning v,forces,stress,ensemble

     Writing output data file ./calc.save/
  @ DRIVER MODE: Message from server: EXIT
  @ DRIVE MODE: Exiting

     General routines

     Parallel routines

   This run was terminated on:  23: 6:55  15Sep2021

   JOB DONE.