     Program PWSCF v.6.7GPU starts on 15Jul2021 at 22:45:10

     R & G space division:  proc/nbgrp/npool/nimage =      16
     Reading input from /storage/home/hcoda1/3/ntian30/research/carbon/15Jul_vib/ads_slab/CH3NNH3_a/out_0012/pw.inp
Warning: card &CELL ignored
Warning: card   CELL_DYNAMICS='IPI', ignored
Warning: card / ignored

     Current dimensions of program PWSCF are:
     Max number of different atomic species (ntypx) = 10
     Max number of k-points (npk) =  40000
     Max angular momentum in pseudopotentials (lmaxx) =  3
     Presently no symmetry can be used with electric field

     Message from routine cell_base_init:
     DEPRECATED: use true lattice parameter, not A to a.u. conversion factor

     IMPORTANT: XC functional enforced from input :
     Exchange-correlation= BEEF-VDW
                           (   1   4  43  14   2   0   0)
     Any further DFT definition will be discarded
     Please, verify this is what you really want

  @ DRIVER MODE: Connecting to
 qe_1139763_2351650.sched-torque.pace.gatech.edusw0d7545_scratch
  using UNIX socket
  @ DRIVER MODE: Message from server: STATUS
  @ DRIVER MODE: Message from server: INIT
  @ DRIVER MODE: Receiving replica           0          -1
  @ DRIVER MODE: Receiving encoded integer          25
  @ DRIVER MODE:  SCF:  T  FORCE:  T  STRESS:  F  VC:  F  ENSEMBLE:  F
  @ DRIVER MODE:  SCF:  T  FORCE:  T  STRESS:  F  VC:  F  ENSEMBLE:  F

     Using Slab Decomposition

     bravais-lattice index     =            0
     lattice parameter (alat)  =       1.8897  a.u.
     unit-cell volume          =    6658.9804 (a.u.)^3
     number of atoms/cell      =           56
     number of atomic types    =            5
     number of electrons       =       398.00
     number of Kohn-Sham states=          209
     kinetic-energy cutoff     =      29.3995  Ry
     charge density cutoff     =     293.9946  Ry
     scf convergence threshold =      7.3E-08
     mixing beta               =       0.0500
     number of iterations used =            8  plain     mixing
     Exchange-correlation= BEEF-VDW
                           (   1   4  43  14   2   0   0)

     celldm(1)=   1.889726  celldm(2)=   0.000000  celldm(3)=   0.000000
     celldm(4)=   0.000000  celldm(5)=   0.000000  celldm(6)=   0.000000

     crystal axes: (cart. coord. in units of alat)
               a(1) = (   6.579727   0.000000   0.000000 )
               a(2) = (  -0.000775   5.961596   0.000000 )
               a(3) = (   0.000000   0.000000  25.155947 )

     reciprocal axes: (cart. coord. in units 2 pi/alat)
               b(1) = (  0.151982  0.000020  0.000000 )
               b(2) = (  0.000000  0.167740  0.000000 )
               b(3) = (  0.000000  0.000000  0.039752 )

     PseudoPot. # 1 for Ti read from file:
     /storage/coda1/p-amedford6/0/shared/rich_project_chbe-medford/medford-share/data/pseudos_module/espresso/nninc/pbe/van/Ti.UPF
     MD5 check sum: 8e4df49b7f0d34bbd5052bf3f5ea0213
     Pseudo is Ultrasoft, Zval = 12.0
     Generated by new atomic code, or converted to UPF format
     Using radial grid of  851 points,  6 beta functions with:
                l(1) =   0
                l(2) =   0
                l(3) =   1
                l(4) =   1
                l(5) =   2
                l(6) =   2
     Q(r) pseudized with  8 coefficients,  rinner =    1.000   1.000   1.000
                                                       1.000   1.000

     PseudoPot. # 2 for O  read from file:
     /storage/coda1/p-amedford6/0/shared/rich_project_chbe-medford/medford-share/data/pseudos_module/espresso/nninc/pbe/van/O.UPF
     MD5 check sum: 78c19812648e8988a0fe644b0f25305e
     Pseudo is Ultrasoft, Zval =  6.0
     Generated by new atomic code, or converted to UPF format
     Using radial grid of  737 points,  4 beta functions with:
                l(1) =   0
                l(2) =   0
                l(3) =   1
                l(4) =   1
     Q(r) pseudized with  8 coefficients,  rinner =    0.800   0.800   0.800

     PseudoPot. # 3 for N  read from file:
     /storage/coda1/p-amedford6/0/shared/rich_project_chbe-medford/medford-share/data/pseudos_module/espresso/nninc/pbe/van/N.UPF
     MD5 check sum: 90d10febe142ad51ac9d5be1deb811c4
     Pseudo is Ultrasoft, Zval =  5.0
     Generated by new atomic code, or converted to UPF format
     Using radial grid of  729 points,  4 beta functions with:
                l(1) =   0
                l(2) =   0
                l(3) =   1
                l(4) =   1
     Q(r) pseudized with  8 coefficients,  rinner =    0.800   0.800   0.800

     PseudoPot. # 4 for C  read from file:
     /storage/coda1/p-amedford6/0/shared/rich_project_chbe-medford/medford-share/data/pseudos_module/espresso/nninc/pbe/van/C.UPF
     MD5 check sum: 1a69bf6b8db32088f5b2163dbdb77a27
     Pseudo is Ultrasoft, Zval =  4.0
     Generated by new atomic code, or converted to UPF format
     Using radial grid of  721 points,  4 beta functions with:
                l(1) =   0
                l(2) =   0
                l(3) =   1
                l(4) =   1
     Q(r) pseudized with  8 coefficients,  rinner =    0.800   0.800   0.800

     PseudoPot. # 5 for H  read from file:
     /storage/coda1/p-amedford6/0/shared/rich_project_chbe-medford/medford-share/data/pseudos_module/espresso/nninc/pbe/van/H.UPF
     MD5 check sum: b5ee9d7bfd3a09ee7748110bda690ff7
     Pseudo is Ultrasoft, Zval =  1.0
     Generated by new atomic code, or converted to UPF format
     Using radial grid of  615 points,  1 beta functions with:
                l(1) =   0
     Q(r) pseudized with  8 coefficients,  rinner =    0.800

     atomic species   valence    mass     pseudopotential
        Ti1           12.00    47.86700     Ti( 1.00)
        O1             6.00    15.99900     O ( 1.00)
        N1             5.00    14.00700     N ( 1.00)
        C1             4.00    12.01100     C ( 1.00)
        H1             1.00     1.00800     H ( 1.00)

     Starting magnetic structure
     atomic species   magnetization
        Ti1          0.000
        O1           0.000
        N1           0.000
        C1           0.025
        H1           0.000

     No symmetry found

   Cartesian axes

     site n.     atom                  positions (alat units)
         1           Ti1 tau(   1) = (   0.0004258   2.9801865   6.0000000  )
         2           Ti1 tau(   2) = (   3.2906075   1.4906267   6.0002472  )
         3           O1  tau(   3) = (   0.0006271   0.0005054   7.9858123  )
         4           O1  tau(   4) = (   3.2906025   0.0005020   7.3038282  )
         5           O1  tau(   5) = (   4.5942328   1.4918067   9.2879030  )
         6           O1  tau(   6) = (   1.9868534   1.4903216   9.2879459  )
         7           Ti1 tau(   7) = (   3.2907910   2.8959150   9.1758416  )
         8           Ti1 tau(   8) = (   0.0015273   1.4827037   9.2680791  )
         9           O1  tau(   9) = (   3.3019049   5.9598586  11.2958584  )
        10           O1  tau(  10) = (   0.0116148   5.9584955  10.6183126  )
        11           O1  tau(  11) = (   1.3346742   1.4914638  12.6145280  )
        12           O1  tau(  12) = (   5.3113054   1.4894223  12.6320738  )
        13           Ti1 tau(  13) = (   6.4919192   2.9607050  12.7581921  )
        14           Ti1 tau(  14) = (   3.1808934   1.4809541  12.4628303  )
        15           O1  tau(  15) = (   0.0259758   5.9327586  14.5948705  )
        16           O1  tau(  16) = (   3.3179433   0.0111293  13.8771559  )
        17           O1  tau(  17) = (   4.5450242   1.5254396  16.0425357  )
        18           O1  tau(  18) = (   2.0945915   1.5254857  16.0466093  )
        19           Ti1 tau(  19) = (   3.3175380   3.0118254  15.6854273  )
        20           Ti1 tau(  20) = (   0.0287691   1.6153805  16.0968480  )
        21           O1  tau(  21) = (   3.2904802   0.0005063   4.7018136  )
        22           O1  tau(  22) = (   0.0272082   0.0527987  17.2096484  )
        23           O1  tau(  23) = (   1.3043587   1.4918075   6.0039043  )
        24           O1  tau(  24) = (   5.2767064   1.4903225   6.0039473  )
        25           Ti1 tau(  25) = (   0.0000382   5.9609847   6.0000000  )
        26           Ti1 tau(  26) = (   3.2902200   4.4714249   6.0002472  )
        27           O1  tau(  27) = (   0.0002396   2.9813036   7.9858123  )
        28           O1  tau(  28) = (   3.2902150   2.9813002   7.3038282  )
        29           O1  tau(  29) = (   4.5938453   4.4726049   9.2879030  )
        30           O1  tau(  30) = (   1.9864658   4.4711199   9.2879459  )
        31           Ti1 tau(  31) = (   3.2891106   5.8743827   9.1763621  )
        32           Ti1 tau(  32) = (   0.0006254   4.4649316   9.2693709  )
        33           O1  tau(  33) = (   3.3007599   2.9794320  11.2948048  )
        34           O1  tau(  34) = (   0.0092240   2.9805883  10.6323155  )
        35           O1  tau(  35) = (   1.3367187   4.4652043  12.6121808  )
        36           O1  tau(  36) = (   5.3110114   4.4536366  12.6300246  )
        37           Ti1 tau(  37) = (   6.5175235   5.9394146  12.7678677  )
        38           Ti1 tau(  38) = (   3.1810223   4.4618757  12.4682998  )
        39           O1  tau(  39) = (   0.0141956   2.9656780  14.6533049  )
        40           O1  tau(  40) = (   3.3125561   2.9946134  13.8784269  )
        41           O1  tau(  41) = (   4.5469694   4.5079638  16.0550352  )
        42           O1  tau(  42) = (   2.0896055   4.5089645  16.0567747  )
        43           Ti1 tau(  43) = (   3.3249511   0.0336637  15.6879192  )
        44           Ti1 tau(  44) = (   0.0309337   4.5948497  16.1324869  )
        45           O1  tau(  45) = (   3.2900926   2.9813045   4.7018136  )
        46           O1  tau(  46) = (   1.3039711   4.4726057   6.0039043  )
        47           O1  tau(  47) = (   5.2763189   4.4711207   6.0039473  )
        48           N1  tau(  48) = (   0.0510883   3.0100077  17.3315927  )
        49           C1  tau(  49) = (   0.2149723   3.0659314  18.7743681  )
        50           H1  tau(  50) = (   6.1109748   3.7957518  19.2115106  )
        51           H1  tau(  51) = (   0.0391147   2.0919789  19.2277120  )
        52           H1  tau(  52) = (   1.2341903   3.3897193  19.0223879  )
        53           N1  tau(  53) = (   4.7717085   1.8344328  21.5424420  )
        54           H1  tau(  54) = (   4.4711387   2.7986659  21.4441960  )
        55           H1  tau(  55) = (   4.1840297   1.2822813  20.9257432  )
        56           H1  tau(  56) = (   4.5427024   1.5537098  22.4892962  )

     number of k points=    10  Fermi-Dirac smearing, width (Ry)=  0.0073
                       cart. coord. in units 2pi/alat
        k(    1) = (   0.0000000   0.0000000   0.0000000), wk =   0.0625000
        k(    2) = (   0.0000000   0.0419351   0.0000000), wk =   0.1250000
        k(    3) = (   0.0000000  -0.0838702   0.0000000), wk =   0.0625000
        k(    4) = (   0.0379955   0.0000049   0.0000000), wk =   0.1250000
        k(    5) = (   0.0379955   0.0419400   0.0000000), wk =   0.1250000
[...]
     % Please cite the following two papers that made this development      %
     % possible and the two reviews that describe the various versions:     %
     %                                                                      %
     %   T. Thonhauser et al., PRL 115, 136402 (2015).                      %
     %   T. Thonhauser et al., PRB 76, 125112 (2007).                       %
     %   K. Berland et al., Rep. Prog. Phys. 78, 066501 (2015).             %
     %   D.C. Langreth et al., J. Phys.: Condens. Matter 21, 084203 (2009). %
     %                                                                      %
     %                                                                      %
     % If you are calculating the stress with vdW-DF, please also cite:     %
     %                                                                      %
     %   R. Sabatini et al., J. Phys.: Condens. Matter 24, 424209 (2012).   %
     %                                                                      %
     %%%%%%%%%%%%%%%%%%%%%%%%%%%%%%%%%%%%%%%%%%%%%%%%%%%%%%%%%%%%%%%%%%%%%%%%

     Adding external electric field

     Computed dipole along edir(3) :
        Dipole              -11.2949 Ry au,        -28.7088 Debye
        Dipole field         -0.0213 Ry au,

        Potential amp.        1.9759 Ry
        Total length         46.3494 bohr

[...]

     Starting wfcs are  302 atomic wfcs
  @ DRIVER MODE: Message from server: STATUS
  @ DRIVER MODE: Message from server: POSDATA
  @ DRIVER MODE: Reading and sharing cell
  @ DRIVER MODE: Reading and sharing positions
  @ DRIVER MODE: Received positions

     Self-consistent Calculation

     iteration #  1     ecut=    29.40 Ry     beta= 0.05
     Davidson diagonalization with overlap
     c_bands:  1 eigenvalues not converged
     c_bands:  1 eigenvalues not converged
     c_bands:  2 eigenvalues not converged
     c_bands:  1 eigenvalues not converged
     c_bands:  1 eigenvalues not converged
     c_bands:  1 eigenvalues not converged
     c_bands:  2 eigenvalues not converged
     c_bands:  2 eigenvalues not converged
     c_bands:  1 eigenvalues not converged
     c_bands:  1 eigenvalues not converged
     c_bands:  2 eigenvalues not converged
     c_bands:  1 eigenvalues not converged
     c_bands:  1 eigenvalues not converged
     c_bands:  1 eigenvalues not converged
     c_bands:  2 eigenvalues not converged
     c_bands:  2 eigenvalues not converged
     ethr =  1.00E-05,  avg # of iterations = 19.6

[...]

     total energy              =   -2520.78416587 Ry
     estimated scf accuracy    <    4704.96481880 Ry

     total magnetization       =     0.00 Bohr mag/cell
     absolute magnetization    =     0.01 Bohr mag/cell

     iteration #  2     ecut=    29.40 Ry     beta= 0.05
     Davidson diagonalization with overlap
     ethr =  1.00E-02,  avg # of iterations = 21.9

[...]

     iteration # 51     ecut=    29.40 Ry     beta= 0.05
     Davidson diagonalization with overlap
     c_bands:  1 eigenvalues not converged
     c_bands:  1 eigenvalues not converged
     ethr =  2.16E-07,  avg # of iterations = 11.4

[...]

     total energy              =   -2942.90765431 Ry
     estimated scf accuracy    <       0.00000018 Ry

[...]

     iteration # 79     ecut=    29.40 Ry     beta= 0.05
     Davidson diagonalization with overlap
     ethr =  3.73E-11,  avg # of iterations =  5.4

     negative rho (up, down):  5.680E-03 5.679E-03

[...]

     Adding external electric field

     Computed dipole along edir(3) :
        Dipole                0.4229 Ry au,          1.0749 Debye
        Dipole field          0.0008 Ry au,

        Potential amp.       -0.0740 Ry
        Total length         46.3494 bohr

     Magnetic moment per site  (integrated on atomic sphere of radius R)
     atom   1 (R=0.735)  charge=  8.0053  magn= -0.0003
     atom   2 (R=0.735)  charge=  8.0011  magn= -0.0003
     atom   3 (R=0.735)  charge=  4.9959  magn=  0.0001
     atom   4 (R=0.735)  charge=  5.0345  magn=  0.0001
     atom   5 (R=0.735)  charge=  4.9982  magn=  0.0000
     atom   6 (R=0.735)  charge=  4.9994  magn=  0.0000
     atom   7 (R=0.735)  charge=  7.9947  magn= -0.0000
     atom   8 (R=0.735)  charge=  7.9823  magn= -0.0000
     atom   9 (R=0.735)  charge=  5.0128  magn=  0.0000
     atom  10 (R=0.735)  charge=  4.9434  magn=  0.0000
     atom  11 (R=0.735)  charge=  4.9999  magn=  0.0000
     atom  12 (R=0.735)  charge=  5.0035  magn=  0.0000
     atom  13 (R=0.735)  charge=  7.9933  magn= -0.0000
     atom  14 (R=0.735)  charge=  8.0007  magn= -0.0000
     atom  15 (R=0.735)  charge=  4.9894  magn=  0.0000
     atom  16 (R=0.735)  charge=  5.0146  magn=  0.0000
     atom  17 (R=0.735)  charge=  4.9900  magn=  0.0000
     atom  18 (R=0.735)  charge=  4.9888  magn=  0.0000
     atom  19 (R=0.735)  charge=  8.0209  magn= -0.0000
     atom  20 (R=0.735)  charge=  8.0242  magn= -0.0000
     atom  21 (R=0.735)  charge=  4.8826  magn=  0.0004
     atom  22 (R=0.735)  charge=  4.9721  magn= -0.0000
     atom  23 (R=0.735)  charge=  4.9884  magn=  0.0002
     atom  24 (R=0.735)  charge=  4.9885  magn=  0.0002
     atom  25 (R=0.735)  charge=  8.0053  magn= -0.0003
     atom  26 (R=0.735)  charge=  8.0012  magn= -0.0003
     atom  27 (R=0.735)  charge=  4.9957  magn=  0.0001
     atom  28 (R=0.735)  charge=  5.0347  magn=  0.0001
     atom  29 (R=0.735)  charge=  4.9989  magn=  0.0000
     atom  30 (R=0.735)  charge=  5.0001  magn=  0.0000
     atom  31 (R=0.735)  charge=  7.9947  magn= -0.0000
     atom  32 (R=0.735)  charge=  7.9826  magn= -0.0000
     atom  33 (R=0.735)  charge=  5.0126  magn=  0.0000
     atom  34 (R=0.735)  charge=  4.9424  magn=  0.0000
     atom  35 (R=0.735)  charge=  5.0005  magn=  0.0000
     atom  36 (R=0.735)  charge=  5.0043  magn=  0.0000
     atom  37 (R=0.735)  charge=  7.9990  magn= -0.0000
     atom  38 (R=0.735)  charge=  8.0004  magn= -0.0000
     atom  39 (R=0.735)  charge=  4.9853  magn=  0.0000
     atom  40 (R=0.735)  charge=  5.0160  magn=  0.0000
     atom  41 (R=0.735)  charge=  4.9884  magn=  0.0000
     atom  42 (R=0.735)  charge=  4.9878  magn=  0.0000
     atom  43 (R=0.735)  charge=  8.0214  magn= -0.0000
     atom  44 (R=0.735)  charge=  8.0215  magn= -0.0000
     atom  45 (R=0.735)  charge=  4.8826  magn=  0.0004
     atom  46 (R=0.735)  charge=  4.9884  magn=  0.0002
     atom  47 (R=0.735)  charge=  4.9885  magn=  0.0002
     atom  48 (R=0.418)  charge=  1.3121  magn=  0.0001
     atom  49 (R=0.449)  charge=  0.8449  magn=  0.0000
     atom  50 (R=0.418)  charge=  0.4394  magn=  0.0000
     atom  51 (R=0.418)  charge=  0.4414  magn= -0.0000
     atom  52 (R=0.418)  charge=  0.4352  magn=  0.0000
     atom  53 (R=0.418)  charge=  1.3298  magn= -0.0000
     atom  54 (R=0.418)  charge=  0.4522  magn=  0.0000
     atom  55 (R=0.418)  charge=  0.4511  magn=  0.0000
     atom  56 (R=0.418)  charge=  0.4538  magn= -0.0000

     End of self-consistent calculation

 ------ SPIN UP ------------

          k = 0.0000 0.0000 0.0000 ( 18029 PWs)   bands (ev):

   -56.6281 -56.5945 -55.7519 -55.7400 -55.7170 -55.7071 -55.6053 -55.5700
   -55.3867 -55.3508 -55.2930 -55.2856 -55.2591 -55.1878 -54.7201 -54.6083
   -33.0560 -32.9027 -32.8746 -32.8039 -32.7128 -32.6820 -32.2227 -32.2164
   -32.1480 -32.0359 -31.9897 -31.9655 -31.9471 -31.9258 -31.8922 -31.8878
   -31.8853 -31.8809 -31.8553 -31.8504 -31.8413 -31.8127 -31.7879 -31.7727
   -31.7598 -31.7416 -31.7313 -31.7065 -31.6852 -31.6314 -31.6173 -31.6072
   -31.5284 -31.5248 -31.5039 -31.4613 -31.4526 -31.4204 -31.4158 -31.3914
   -31.3690 -31.3095 -31.2259 -30.9656 -30.9506 -30.8675 -30.8304 -30.7399
   -16.7933 -16.3599 -16.1289 -15.9915 -15.9247 -15.8696 -15.8262 -15.6977
   -15.6315 -15.6242 -15.5834 -15.5529 -15.4821 -15.3431 -15.2445 -15.1907
   -15.1460 -15.0254 -14.9658 -14.9317 -14.9208 -14.8777 -14.8682 -14.6752
   -14.6521 -14.5595 -14.5362 -14.4168 -14.1808 -13.7923 -13.7115 -13.6822
   -12.7308  -7.5221  -4.3585  -3.8558  -3.7784  -3.7536  -3.6166  -3.5307
    -3.4229  -3.4102  -3.3190  -3.2097  -3.1646  -3.1173  -3.0009  -2.9984
    -2.8511  -2.8112  -2.8044  -2.8020  -2.7556  -2.6928  -2.6681  -2.6363
    -2.6286  -2.5878  -2.4732  -2.3758  -2.3041  -2.2806  -2.2740  -2.2392
    -2.1641  -2.1344  -2.1264  -2.1228  -2.0130  -1.8712  -1.8629  -1.8390
    -1.7971  -1.7937  -1.7516  -1.7351  -1.6147  -1.5286  -1.4211  -1.4097
    -1.3655  -1.3100  -1.3030  -1.2090  -1.1337  -1.0434  -1.0383  -0.9334
    -0.8808  -0.8665  -0.7757  -0.7178  -0.6783  -0.6509  -0.6393  -0.5409
    -0.5187  -0.5063  -0.4224  -0.4108  -0.3623  -0.2743  -0.2510  -0.2426
    -0.1589  -0.1562  -0.0621  -0.0195   0.0216   0.0564   0.1725   0.1903
     0.2866   0.3165   0.3418   0.4576   0.4732   0.5366   0.6141   0.6753
     0.7021   0.7279   0.7585   0.7773   0.8538   0.9645   0.9722   1.0765
     1.1086   1.2805   1.3194   1.3836   1.6068   1.6292   2.3067   2.6466
     2.8063   3.1045   3.2925   3.4057   3.6212   3.6418   3.8129   3.8644
     3.9940

[...]

          k =-0.0760-0.0000 0.0000 ( 17886 PWs)   bands (ev):

[...]

 ------ SPIN DOWN ----------

[...]

          k = 0.0380-0.0419 0.0000 ( 17876 PWs)   bands (ev):

[...]

          k =-0.0760-0.0839 0.0000 ( 17948 PWs)   bands (ev):

   -56.6124 -56.6121 -55.7369 -55.7311 -55.7244 -55.7238 -55.5881 -55.5873
   -55.3731 -55.3645 -55.2824 -55.2769 -55.2768 -55.1909 -54.7173 -54.6112
   -32.8896 -32.8893 -32.8737 -32.8735 -32.7581 -32.7578 -32.0526 -32.0503
   -32.0411 -32.0344 -31.9809 -31.9799 -31.9368 -31.9365 -31.9352 -31.9341
   -31.9263 -31.9234 -31.9212 -31.9196 -31.8405 -31.8385 -31.7895 -31.7866
   -31.7240 -31.7135 -31.6546 -31.6465 -31.6211 -31.6210 -31.6117 -31.5714
   -31.5670 -31.5399 -31.5057 -31.5023 -31.5022 -31.4631 -31.4630 -31.4567
   -31.4333 -31.3938 -31.1061 -30.9857 -30.9502 -30.9190 -30.8330 -30.7952
   -16.1417 -16.1396 -16.1067 -16.1065 -15.8379 -15.8343 -15.7905 -15.7880
   -15.6139 -15.6077 -15.4021 -15.3934 -15.3863 -15.3849 -15.2570 -15.2511
   -15.1846 -15.1742 -15.0840 -15.0749 -15.0191 -15.0127 -14.9694 -14.9482
   -14.6389 -14.6299 -14.5095 -14.4918 -14.3245 -13.7844 -13.7844 -13.7107
   -12.7465  -7.5123  -3.7857  -3.7618  -3.2406  -3.2403  -3.1764  -3.1753
    -3.0528  -3.0488  -2.9713  -2.9707  -2.8715  -2.8702  -2.7679  -2.7279
    -2.7247  -2.7244  -2.7106  -2.6678  -2.5711  -2.5658  -2.5562  -2.5436
    -2.4857  -2.4838  -2.4478  -2.3910  -2.3786  -2.3485  -2.3107  -2.1963
    -2.1862  -2.1740  -2.1421  -2.0766  -2.0716  -2.0598  -2.0173  -1.9868
    -1.9051  -1.8242  -1.7952  -1.6838  -1.6797  -1.6666  -1.6546  -1.5018
    -1.4617  -1.4311  -1.4252  -1.4175  -1.3694  -1.2762  -1.2687  -1.1359
    -1.1344  -1.0593  -0.9784  -0.9572  -0.9291  -0.8000  -0.7567  -0.7217
    -0.7138  -0.6853  -0.6646  -0.6438  -0.6000  -0.4637  -0.4524  -0.4136
    -0.3789  -0.3563  -0.3241  -0.2637  -0.1796  -0.1017  -0.1010  -0.0464
     0.0215   0.0841   0.1687   0.1794   0.1846   0.4664   0.5453   0.6352
     0.7119   0.7783   0.8412   0.8715   0.9277   0.9728   1.1076   1.1109
     1.1299   1.1303   1.1902   1.1939   1.3669   1.6374   2.1966   3.2187
     3.2190   3.2857   3.2861   3.6099   3.6156   3.7241   3.7334   3.8422
     3.8471

     the Fermi energy is     2.4857 ev

!    total energy              =   -2942.90766586 Ry
     estimated scf accuracy    <       0.00000007 Ry
     smearing contrib. (-TS)   =      -0.00484387 Ry
     internal energy E=F+TS    =   -2942.90282199 Ry

     The total energy is F=E-TS. E is the sum of the following terms:
     one-electron contribution =  -23240.55684153 Ry
     hartree contribution      =   11710.53584418 Ry
     xc contribution           =    -487.47088788 Ry
     ewald contribution        =    9074.58872576 Ry
     electric field correction =       0.00033748 Ry

     total magnetization       =    -0.00 Bohr mag/cell
     absolute magnetization    =     0.01 Bohr mag/cell

     convergence has been achieved in  79 iterations

     Forces acting on atoms (cartesian axes, Ry/au):

     atom    1 type  1   force =     0.00003812   -0.00041241    0.12409773
     atom    2 type  1   force =    -0.00010284   -0.00056949   -0.16065769
     atom    3 type  2   force =     0.00023553   -0.00026926   -0.06806254
     atom    4 type  2   force =     0.00001345   -0.00029073    0.02754388
     atom    5 type  2   force =    -0.01614289    0.00175277   -0.00938097
     atom    6 type  2   force =     0.01817499    0.00219157   -0.00900345
     atom    7 type  1   force =     0.00115036   -0.00378332    0.02179884
     atom    8 type  1   force =    -0.00057637   -0.00290912    0.11115588
     atom    9 type  2   force =    -0.00017737    0.00030680   -0.00052266
     atom   10 type  2   force =    -0.00195606    0.00129490   -0.07328356
     atom   11 type  2   force =     0.00023572   -0.00010640    0.00015049
     atom   12 type  2   force =    -0.00027692    0.00022201    0.00018581
     atom   13 type  1   force =    -0.00010246    0.00008772   -0.00029502
     atom   14 type  1   force =    -0.00058345    0.00044705    0.00047852
     atom   15 type  2   force =     0.00026971    0.00002066    0.00000973
     atom   16 type  2   force =    -0.00049290   -0.00036828    0.00049380
     atom   17 type  2   force =    -0.00066692    0.00021239    0.00007708
     atom   18 type  2   force =     0.00012266    0.00020631    0.00006764
     atom   19 type  1   force =     0.00038691   -0.00056374    0.00000034
     atom   20 type  1   force =    -0.00004962    0.00054014    0.00085795
     atom   21 type  2   force =     0.00005076   -0.00000646    0.09972318
     atom   22 type  2   force =     0.00027193   -0.00006526   -0.00022627
     atom   23 type  2   force =    -0.07917949    0.00000225   -0.03245735
     atom   24 type  2   force =     0.07906714    0.00043977   -0.03247845
     atom   25 type  1   force =     0.00001675   -0.00041217    0.12362603
     atom   26 type  1   force =    -0.00009923   -0.00046525   -0.16079384
     atom   27 type  2   force =     0.00033006   -0.00048440   -0.06711462
     atom   28 type  2   force =     0.00002805   -0.00011856    0.02727169
     atom   29 type  2   force =    -0.01661852    0.00127658   -0.00948655
     atom   30 type  2   force =     0.01854905    0.00165465   -0.00912100
     atom   31 type  1   force =     0.00116235   -0.00139043    0.02121835
     atom   32 type  1   force =    -0.00052736    0.00034684    0.11179869
     atom   33 type  2   force =    -0.00015678   -0.00024871    0.00000077
     atom   34 type  2   force =    -0.00132095    0.00066974   -0.07273778
     atom   35 type  2   force =    -0.00077446   -0.00043222   -0.00004151
     atom   36 type  2   force =     0.00009023   -0.00001970    0.00008775
     atom   37 type  1   force =     0.00005655    0.00063906    0.00036362
     atom   38 type  1   force =    -0.00020967    0.00003040   -0.00009982
     atom   39 type  2   force =     0.00013755   -0.00015988    0.00077918
     atom   40 type  2   force =    -0.00018363   -0.00046359    0.00026005
     atom   41 type  2   force =    -0.00000422   -0.00005404    0.00004556
     atom   42 type  2   force =     0.00050612    0.00005791    0.00000612
     atom   43 type  1   force =    -0.00023457   -0.00011497    0.00003726
     atom   44 type  1   force =    -0.00023883    0.00000252    0.00064529
     atom   45 type  2   force =     0.00002468   -0.00003074    0.09974590
     atom   46 type  2   force =    -0.07918487    0.00005449   -0.03245608
     atom   47 type  2   force =     0.07906659    0.00047795   -0.03247043
     atom   48 type  3   force =     0.00142467    0.00096794    0.00567538
     atom   49 type  4   force =     0.00096800    0.00010749   -0.01542463
     atom   50 type  5   force =    -0.00228385    0.00289576    0.00353090
     atom   51 type  5   force =    -0.00042690   -0.00277996    0.00283564
     atom   52 type  5   force =     0.00113229    0.00012327    0.00175448
     atom   53 type  3   force =     0.00002641   -0.00089556   -0.00007255
     atom   54 type  5   force =    -0.00002972    0.00021138   -0.00053943
     atom   55 type  5   force =     0.00013801    0.00031659   -0.00083197
     atom   56 type  5   force =    -0.00107382   -0.00014225    0.00123462

     Total force =     0.424875     Total SCF correction =     0.000781
  @ DRIVER MODE: Message from server: STATUS
  @ DRIVER MODE: Message from server: GETFORCE
  @ DRIVER MODE: Returning v,forces,stress,ensemble

     Writing output data file ./calc.save/
  @ DRIVER MODE: Message from server: EXIT
  @ DRIVE MODE: Exiting

     General routines

     Parallel routines

   This run was terminated on:  23:18:41  15Jul2021

   JOB DONE.