     Program PWSCF v.6.7GPU starts on 13Oct2021 at  6:53:15

     R & G space division:  proc/nbgrp/npool/nimage =       8
     Reading input from /storage/home/hcoda1/3/ntian30/research/carbon/ACS_vib/ads_slab/H2NNH2/out_0036/pw.inp
Warning: card &CELL ignored
Warning: card   CELL_DYNAMICS='IPI', ignored
Warning: card / ignored

     Current dimensions of program PWSCF are:
     Max number of different atomic species (ntypx) = 10
     Max number of k-points (npk) =  40000
     Max angular momentum in pseudopotentials (lmaxx) =  3
     Presently no symmetry can be used with electric field

     Message from routine cell_base_init:
     DEPRECATED: use true lattice parameter, not A to a.u. conversion factor

     IMPORTANT: XC functional enforced from input :
     Exchange-correlation= BEEF-VDW
                           (   1   4  43  14   2   0   0)
     Any further DFT definition will be discarded
     Please, verify this is what you really want

  @ DRIVER MODE: Connecting to
 qe_1139763_3181310.sched-torque.pace.gatech.eduu6jtvzsm_scratch
  using UNIX socket
  @ DRIVER MODE: Message from server: STATUS
  @ DRIVER MODE: Message from server: INIT
  @ DRIVER MODE: Receiving replica           0          -1
  @ DRIVER MODE: Receiving encoded integer          25
  @ DRIVER MODE:  SCF:  T  FORCE:  T  STRESS:  F  VC:  F  ENSEMBLE:  F
  @ DRIVER MODE:  SCF:  T  FORCE:  T  STRESS:  F  VC:  F  ENSEMBLE:  F

     Using Slab Decomposition

     bravais-lattice index     =            0
     lattice parameter (alat)  =       1.8897  a.u.
     unit-cell volume          =    6658.9804 (a.u.)^3
     number of atoms/cell      =           53
     number of atomic types    =            4
     number of electrons       =       392.00
     number of Kohn-Sham states=          206
     kinetic-energy cutoff     =      29.3995  Ry
     charge density cutoff     =     293.9946  Ry
     scf convergence threshold =      7.3E-08
     mixing beta               =       0.0500
     number of iterations used =            8  plain     mixing
     Exchange-correlation= BEEF-VDW
                           (   1   4  43  14   2   0   0)

     celldm(1)=   1.889726  celldm(2)=   0.000000  celldm(3)=   0.000000
     celldm(4)=   0.000000  celldm(5)=   0.000000  celldm(6)=   0.000000

     crystal axes: (cart. coord. in units of alat)
               a(1) = (   6.579727   0.000000   0.000000 )
               a(2) = (  -0.000775   5.961596   0.000000 )
               a(3) = (   0.000000   0.000000  25.155947 )

     reciprocal axes: (cart. coord. in units 2 pi/alat)
               b(1) = (  0.151982  0.000020  0.000000 )
               b(2) = (  0.000000  0.167740  0.000000 )
               b(3) = (  0.000000  0.000000  0.039752 )

     PseudoPot. # 1 for Ti read from file:
     /storage/coda1/p-amedford6/0/shared/rich_project_chbe-medford/medford-share/data/pseudos_module/espresso/nninc/pbe/van/Ti.UPF
     MD5 check sum: 8e4df49b7f0d34bbd5052bf3f5ea0213
     Pseudo is Ultrasoft, Zval = 12.0
     Generated by new atomic code, or converted to UPF format
     Using radial grid of  851 points,  6 beta functions with:
                l(1) =   0
                l(2) =   0
                l(3) =   1
                l(4) =   1
                l(5) =   2
                l(6) =   2
     Q(r) pseudized with  8 coefficients,  rinner =    1.000   1.000   1.000
                                                       1.000   1.000

     PseudoPot. # 2 for O  read from file:
     /storage/coda1/p-amedford6/0/shared/rich_project_chbe-medford/medford-share/data/pseudos_module/espresso/nninc/pbe/van/O.UPF
     MD5 check sum: 78c19812648e8988a0fe644b0f25305e
     Pseudo is Ultrasoft, Zval =  6.0
     Generated by new atomic code, or converted to UPF format
     Using radial grid of  737 points,  4 beta functions with:
                l(1) =   0
                l(2) =   0
                l(3) =   1
                l(4) =   1
     Q(r) pseudized with  8 coefficients,  rinner =    0.800   0.800   0.800

     PseudoPot. # 3 for H  read from file:
     /storage/coda1/p-amedford6/0/shared/rich_project_chbe-medford/medford-share/data/pseudos_module/espresso/nninc/pbe/van/H.UPF
     MD5 check sum: b5ee9d7bfd3a09ee7748110bda690ff7
     Pseudo is Ultrasoft, Zval =  1.0
     Generated by new atomic code, or converted to UPF format
     Using radial grid of  615 points,  1 beta functions with:
                l(1) =   0
     Q(r) pseudized with  8 coefficients,  rinner =    0.800

     PseudoPot. # 4 for N  read from file:
     /storage/coda1/p-amedford6/0/shared/rich_project_chbe-medford/medford-share/data/pseudos_module/espresso/nninc/pbe/van/N.UPF
     MD5 check sum: 90d10febe142ad51ac9d5be1deb811c4
     Pseudo is Ultrasoft, Zval =  5.0
     Generated by new atomic code, or converted to UPF format
     Using radial grid of  729 points,  4 beta functions with:
                l(1) =   0
                l(2) =   0
                l(3) =   1
                l(4) =   1
     Q(r) pseudized with  8 coefficients,  rinner =    0.800   0.800   0.800

     atomic species   valence    mass     pseudopotential
        Ti1           12.00    47.86700     Ti( 1.00)
        O1             6.00    15.99900     O ( 1.00)
        H1             1.00     1.00800     H ( 1.00)
        N1             5.00    14.00700     N ( 1.00)

     No symmetry found

   Cartesian axes

     site n.     atom                  positions (alat units)
         1           Ti1 tau(   1) = (   0.0004258   2.9801865   6.0000000  )
         2           Ti1 tau(   2) = (   3.2906075   1.4906267   6.0002472  )
         3           O1  tau(   3) = (   0.0006271   0.0005054   7.9858123  )
         4           O1  tau(   4) = (   3.2906025   0.0005020   7.3038282  )
         5           O1  tau(   5) = (   4.5942328   1.4918067   9.2879030  )
         6           O1  tau(   6) = (   1.9868534   1.4903216   9.2879459  )
         7           Ti1 tau(   7) = (   3.2907910   2.8959150   9.1758416  )
         8           Ti1 tau(   8) = (   0.0001184   1.4796821   9.2618995  )
         9           O1  tau(   9) = (   3.3033009   5.9571037  11.3689245  )
        10           O1  tau(  10) = (   0.0046093   5.9606512  10.6148452  )
        11           O1  tau(  11) = (   1.3031693   1.4924284  12.6635891  )
        12           O1  tau(  12) = (   5.3048943   1.4931164  12.6630676  )
        13           Ti1 tau(  13) = (   0.0220873   2.9701805  12.5026553  )
        14           Ti1 tau(  14) = (   3.3209497   1.4853901  12.5165241  )
        15           O1  tau(  15) = (   0.0111090   5.9548334  14.6950652  )
        16           O1  tau(  16) = (   3.3059555   5.9578033  13.9930857  )
        17           O1  tau(  17) = (   4.5400856   1.4977043  16.1996482  )
        18           O1  tau(  18) = (   2.0449602   1.5055634  16.1912035  )
        19           Ti1 tau(  19) = (   3.3033294   2.9754315  15.7369611  )
        20           Ti1 tau(  20) = (   0.0669189   1.3514287  15.9855452  )
        21           O1  tau(  21) = (   3.2904802   0.0005063   4.7018136  )
        22           O1  tau(  22) = (   0.0169155   5.9572437  17.2386537  )
        23           O1  tau(  23) = (   1.3043587   1.4918075   6.0039043  )
        24           O1  tau(  24) = (   5.2767064   1.4903225   6.0039473  )
        25           Ti1 tau(  25) = (   0.0000382   5.9609847   6.0000000  )
        26           Ti1 tau(  26) = (   3.2902200   4.4714249   6.0002472  )
        27           O1  tau(  27) = (   0.0002396   2.9813036   7.9858123  )
        28           O1  tau(  28) = (   3.2902150   2.9813002   7.3038282  )
        29           O1  tau(  29) = (   4.5938453   4.4726049   9.2879030  )
        30           O1  tau(  30) = (   1.9864658   4.4711199   9.2879459  )
        31           Ti1 tau(  31) = (   3.2891106   5.8743827   9.1763621  )
        32           Ti1 tau(  32) = (  -0.0005703   4.4645639   9.2621285  )
        33           O1  tau(  33) = (   3.3036452   2.9764387  11.3618117  )
        34           O1  tau(  34) = (   0.0064946   2.9800876  10.6274040  )
        35           O1  tau(  35) = (   1.3025983   4.4627906  12.6614389  )
        36           O1  tau(  36) = (   5.3044333   4.4622094  12.6652126  )
        37           Ti1 tau(  37) = (   0.0242538   5.9517307  12.5043500  )
        38           Ti1 tau(  38) = (   3.3173473   4.4639239  12.5158395  )
        39           O1  tau(  39) = (   0.0133908   2.9741471  14.9664594  )
        40           O1  tau(  40) = (   3.3068033   2.9766936  13.9537582  )
        41           O1  tau(  41) = (   4.5624531   4.4468677  16.1922021  )
        42           O1  tau(  42) = (   2.0658021   4.4533190  16.1937748  )
        43           Ti1 tau(  43) = (   3.3070936   5.9559909  15.7859554  )
        44           Ti1 tau(  44) = (   6.5464735   4.5686029  15.9538643  )
        45           O1  tau(  45) = (   3.2900926   2.9813045   4.7018136  )
        46           O1  tau(  46) = (   1.3039711   4.4726057   6.0039043  )
        47           O1  tau(  47) = (   5.2763189   4.4711207   6.0039473  )
        48           H1  tau(  48) = (   6.1991321   4.2482542  18.7414658  )
        49           H1  tau(  49) = (   1.1283133   3.8395711  18.1715982  )
        50           N1  tau(  50) = (   0.1317752   3.6792193  18.0720352  )
        51           N1  tau(  51) = (   6.4315599   2.2892659  18.0961467  )
        52           H1  tau(  52) = (   5.4285218   2.1347736  18.1483859  )
        53           H1  tau(  53) = (   0.3235236   1.7579878  18.8339140  )

     number of k points=    10  Fermi-Dirac smearing, width (Ry)=  0.0073
                       cart. coord. in units 2pi/alat
        k(    1) = (   0.0000000   0.0000000   0.0000000), wk =   0.1250000
        k(    2) = (   0.0000000   0.0419351   0.0000000), wk =   0.2500000
        k(    3) = (   0.0000000  -0.0838702   0.0000000), wk =   0.1250000
        k(    4) = (   0.0379955   0.0000049   0.0000000), wk =   0.2500000
        k(    5) = (   0.0379955   0.0419400   0.0000000), wk =   0.2500000
        k(    6) = (   0.0379955  -0.0838652   0.0000000), wk =   0.2500000
        k(    7) = (   0.0379955  -0.0419301   0.0000000), wk =   0.2500000
        k(    8) = (  -0.0759910  -0.0000099   0.0000000), wk =   0.1250000
        k(    9) = (  -0.0759910   0.0419252   0.0000000), wk =   0.2500000
        k(   10) = (  -0.0759910  -0.0838800   0.0000000), wk =   0.1250000

     Initial potential from superposition of free atoms

     starting charge  375.99919, renormalised to  392.00000

     negative rho (up, down):  1.864E-02 0.000E+00

     %%%%%%%%%%%%%%%%%%%%%%%%%%%%%%%%%%%%%%%%%%%%%%%%%%%%%%%%%%%%%%%%%%%%%%%%
     %                                                                      %
     % You are using vdW-DF, which was implemented by the Thonhauser group. %
     % Please cite the following two papers that made this development      %
     % possible and the two reviews that describe the various versions:     %
     %                                                                      %
     %   T. Thonhauser et al., PRL 115, 136402 (2015).                      %
     %   T. Thonhauser et al., PRB 76, 125112 (2007).                       %
     %   K. Berland et al., Rep. Prog. Phys. 78, 066501 (2015).             %
     %   D.C. Langreth et al., J. Phys.: Condens. Matter 21, 084203 (2009). %
     %                                                                      %
     %                                                                      %
     % If you are calculating the stress with vdW-DF, please also cite:     %
     %                                                                      %
     %   R. Sabatini et al., J. Phys.: Condens. Matter 24, 424209 (2012).   %
     %                                                                      %
     %%%%%%%%%%%%%%%%%%%%%%%%%%%%%%%%%%%%%%%%%%%%%%%%%%%%%%%%%%%%%%%%%%%%%%%%

     Adding external electric field

     Computed dipole along edir(3) :
        Dipole               -7.0285 Ry au,        -17.8646 Debye
        Dipole field         -0.0133 Ry au,

        Potential amp.        1.2295 Ry
        Total length         46.3494 bohr

     Starting wfcs are  296 atomic wfcs
  @ DRIVER MODE: Message from server: STATUS
  @ DRIVER MODE: Message from server: POSDATA
  @ DRIVER MODE: Reading and sharing cell
  @ DRIVER MODE: Reading and sharing positions
  @ DRIVER MODE: Received positions

     Self-consistent Calculation

     iteration #  1     ecut=    29.40 Ry     beta= 0.05
     Davidson diagonalization with overlap
     c_bands:  1 eigenvalues not converged
     c_bands:  1 eigenvalues not converged
     c_bands:  2 eigenvalues not converged
     c_bands:  1 eigenvalues not converged
     c_bands:  1 eigenvalues not converged
     c_bands:  1 eigenvalues not converged
     ethr =  1.00E-05,  avg # of iterations = 19.6

[...]

     total energy              =   -2685.32644914 Ry
     estimated scf accuracy    <    2688.11433292 Ry

[...]

     iteration #  3     ecut=    29.40 Ry     beta= 0.05
     Davidson diagonalization with overlap
     ethr =  1.00E-02,  avg # of iterations = 15.1

[...]

     iteration # 73     ecut=    29.40 Ry     beta= 0.05
     Davidson diagonalization with overlap
     ethr =  4.42E-09,  avg # of iterations =  2.1

[...]

     total energy              =   -2928.89050384 Ry
     estimated scf accuracy    <       0.00000008 Ry

     iteration # 83     ecut=    29.40 Ry     beta= 0.05
     Davidson diagonalization with overlap
     c_bands:  1 eigenvalues not converged
     ethr =  2.04E-11,  avg # of iterations =  9.2

     negative rho (up, down):  1.634E-02 0.000E+00

     Adding external electric field

     Computed dipole along edir(3) :
        Dipole                1.6229 Ry au,          4.1250 Debye
        Dipole field          0.0031 Ry au,

        Potential amp.       -0.2839 Ry
        Total length         46.3494 bohr

     End of self-consistent calculation

          k = 0.0000 0.0000 0.0000 ( 18029 PWs)   bands (ev):

   -55.3070 -55.2710 -55.2560 -55.2218 -55.1814 -55.1758 -55.1471 -55.1203
   -55.0995 -55.0890 -55.0856 -55.0802 -55.0552 -55.0257 -54.2850 -54.2509
   -31.8792 -31.7497 -31.6941 -31.6690 -31.6242 -31.6102 -31.6051 -31.5971
   -31.5473 -31.5462 -31.5175 -31.5157 -31.5017 -31.4798 -31.4640 -31.4507
   -31.4445 -31.4250 -31.4189 -31.4078 -31.3981 -31.3716 -31.3710 -31.3600
   -31.3516 -31.3232 -31.3125 -31.3121 -31.3048 -31.2981 -31.2934 -31.2897
   -31.2840 -31.2743 -31.2726 -31.2684 -31.2626 -31.2346 -31.2195 -31.2166
   -31.2009 -31.1297 -30.6943 -30.6005 -30.5785 -30.5106 -30.4239 -30.3130
   -18.6111 -16.1480 -15.8859 -15.7510 -15.5964 -15.5048 -15.4007 -15.3428
   -15.2369 -15.1550 -15.0674 -15.0551 -15.0303 -15.0038 -14.9648 -14.9319
   -14.8471 -14.8425 -14.8197 -14.7996 -14.7978 -14.7496 -14.7406 -14.7212
   -14.7017 -14.6811 -14.5467 -14.4614 -14.3935 -14.1297 -13.3035 -12.7878
   -12.6704  -7.5261  -6.9887  -5.5140  -3.4851  -3.3204  -3.2926  -3.2380
    -3.1997  -3.0593  -2.9453  -2.7257  -2.6989  -2.6212  -2.5866  -2.5385
    -2.5166  -2.4979  -2.3315  -2.3025  -2.2891  -2.2328  -2.1722  -2.1180
    -2.1030  -2.0989  -2.0877  -2.0689  -2.0643  -1.9436  -1.8697  -1.7961
    -1.7321  -1.6995  -1.6627  -1.6540  -1.6353  -1.5953  -1.5876  -1.5570
    -1.5425  -1.4968  -1.4687  -1.3389  -1.2867  -1.2154  -1.0283  -0.9413
    -0.8957  -0.8815  -0.8475  -0.8016  -0.7883  -0.6847  -0.6718  -0.6494
    -0.6033  -0.5404  -0.4839  -0.4330  -0.3635  -0.3043  -0.2956  -0.1905
    -0.0948  -0.0851  -0.0638   0.0336   0.0685   0.1163   0.1949   0.2119
     0.2238   0.3100   0.3526   0.3906   0.4277   0.4524   0.5756   0.6195
     0.6331   0.6477   0.6525   0.6772   0.7036   0.7688   0.7993   0.8686
     0.9943   1.0987   1.1690   1.2660   1.3086   1.6410   1.6446   1.7376
     1.9215   2.3122   2.3591   3.7937   3.8627   3.9368   3.9463   3.9559
     4.0278   4.1091   4.2671   4.2910   4.2991   4.3154

[...]

          k = 0.0380-0.0419 0.0000 ( 17876 PWs)   bands (ev):

[...]

          k =-0.0760-0.0000 0.0000 ( 17886 PWs)   bands (ev):

[...]

          k =-0.0760-0.0839 0.0000 ( 17948 PWs)   bands (ev):

   -55.2891 -55.2887 -55.2391 -55.2386 -55.1716 -55.1643 -55.1642 -55.1050
   -55.1033 -55.1004 -55.0735 -55.0732 -55.0708 -55.0327 -54.2679 -54.2678
   -31.6831 -31.6813 -31.6019 -31.5910 -31.5709 -31.5650 -31.5644 -31.5323
   -31.5308 -31.5108 -31.5080 -31.5061 -31.4998 -31.4446 -31.4416 -31.4385
   -31.4337 -31.4329 -31.4312 -31.4278 -31.3974 -31.3850 -31.3813 -31.3712
   -31.3580 -31.3577 -31.3569 -31.3565 -31.3422 -31.3389 -31.3340 -31.3256
   -31.3188 -31.3141 -31.3029 -31.2989 -31.2986 -31.2897 -31.2699 -31.2559
   -31.2541 -31.2349 -30.5912 -30.5911 -30.5069 -30.5067 -30.4673 -30.4672
   -18.5961 -15.5926 -15.5710 -15.5303 -15.3359 -15.3256 -15.3125 -15.3094
   -15.2066 -15.1921 -15.1203 -15.0944 -15.0479 -15.0283 -15.0131 -15.0116
   -14.9188 -14.8993 -14.8936 -14.8913 -14.8206 -14.8124 -14.8040 -14.7951
   -14.7649 -14.7581 -14.6560 -14.6533 -14.6235 -14.6005 -13.1359 -12.7719
   -12.7718  -7.5255  -7.0131  -5.5658  -3.0510  -2.8605  -2.7867  -2.7108
    -2.5535  -2.5328  -2.4927  -2.3821  -2.3432  -2.3289  -2.3222  -2.2907
    -2.2378  -2.2194  -2.2084  -2.1474  -2.1451  -2.1252  -2.1161  -2.0904
    -2.0786  -2.0354  -2.0266  -2.0075  -1.9704  -1.9538  -1.9295  -1.9045
    -1.8993  -1.8816  -1.8234  -1.7900  -1.6828  -1.6691  -1.6058  -1.5126
    -1.5053  -1.4235  -1.3960  -1.3610  -1.3393  -1.3371  -1.2172  -1.1351
    -1.0814  -1.0501  -1.0432  -0.9339  -0.8977  -0.8157  -0.8026  -0.7892
    -0.7316  -0.6482  -0.6256  -0.6098  -0.5251  -0.4632  -0.4545  -0.3596
    -0.3373  -0.2750  -0.2615  -0.2597  -0.2171  -0.1985  -0.1687  -0.1126
    -0.0768  -0.0396  -0.0175   0.0218   0.2186   0.2394   0.2631   0.3927
     0.5119   0.5333   0.5668   0.6048   0.6992   0.7642   0.8043   0.8504
     0.9026   0.9865   0.9957   1.0904   1.0967   1.1521   1.1586   2.0942
     2.0951   2.1799   2.1808   3.9638   4.0059   4.0662   4.0958   4.1790
     4.3073   4.3229   4.3769   4.3786   4.4449   4.4493

     the Fermi energy is     3.8569 ev

!    total energy              =   -2928.89050898 Ry
     estimated scf accuracy    <       0.00000003 Ry
     smearing contrib. (-TS)   =      -0.03700969 Ry
     internal energy E=F+TS    =   -2928.85349929 Ry

     The total energy is F=E-TS. E is the sum of the following terms:
     one-electron contribution =  -24386.39421248 Ry
     hartree contribution      =   12284.71570474 Ry
     xc contribution           =    -482.73791612 Ry
     ewald contribution        =    9655.55795433 Ry
     electric field correction =       0.00497023 Ry

     convergence has been achieved in  83 iterations

     Forces acting on atoms (cartesian axes, Ry/au):

     atom    1 type  1   force =     0.00007622   -0.00018063    0.09195388
     atom    2 type  1   force =    -0.00017746   -0.00022655   -0.17805354
     atom    3 type  2   force =     0.00000598   -0.00050262   -0.02213466
     atom    4 type  2   force =     0.00002848   -0.00184555    0.05826540
     atom    5 type  2   force =    -0.01041346   -0.00082031    0.00667875
     atom    6 type  2   force =     0.01170892   -0.00037499    0.00700295
     atom    7 type  1   force =    -0.00031682    0.00236637   -0.01478104
     atom    8 type  1   force =     0.00006510    0.00001242    0.00013376
     atom    9 type  2   force =    -0.00010651   -0.00011369   -0.00083502
     atom   10 type  2   force =     0.00012391   -0.00004674    0.00052102
     atom   11 type  2   force =     0.00011981   -0.00006333   -0.00027972
     atom   12 type  2   force =    -0.00033121   -0.00005249   -0.00019475
     atom   13 type  1   force =     0.00006731    0.00019603    0.00013265
     atom   14 type  1   force =    -0.00009743   -0.00010391   -0.00012394
     atom   15 type  2   force =     0.00023404    0.00016831    0.00072359
     atom   16 type  2   force =    -0.00009771    0.00007670   -0.00030728
     atom   17 type  2   force =    -0.00026729   -0.00007170    0.00029183
     atom   18 type  2   force =     0.00067473   -0.00014357    0.00029353
     atom   19 type  1   force =    -0.00007469   -0.00003092    0.00048131
     atom   20 type  1   force =    -0.00069334   -0.00069331    0.00084435
     atom   21 type  2   force =     0.00000716   -0.00002582    0.10391623
     atom   22 type  2   force =    -0.00006026    0.00018879   -0.00137474
     atom   23 type  2   force =    -0.07051207   -0.00019530   -0.02663861
     atom   24 type  2   force =     0.07035261    0.00022808   -0.02669349
     atom   25 type  1   force =     0.00003362   -0.00012847    0.09065393
     atom   26 type  1   force =    -0.00018449   -0.00036107   -0.17821816
     atom   27 type  2   force =     0.00000536   -0.00017660   -0.02113588
     atom   28 type  2   force =     0.00006179   -0.00153280    0.05748250
     atom   29 type  2   force =    -0.01049350   -0.00097217    0.00672905
     atom   30 type  2   force =     0.01165554   -0.00039530    0.00703568
     atom   31 type  1   force =    -0.00036637    0.00548659   -0.01571673
     atom   32 type  1   force =     0.00004132    0.00000913    0.00007315
     atom   33 type  2   force =    -0.00010594   -0.00008915   -0.00053022
     atom   34 type  2   force =    -0.00003150    0.00000381    0.00021851
     atom   35 type  2   force =     0.00015652   -0.00021381   -0.00015043
     atom   36 type  2   force =    -0.00036842   -0.00019027   -0.00014610
     atom   37 type  1   force =     0.00004103   -0.00007402    0.00075190
     atom   38 type  1   force =    -0.00016490   -0.00038076   -0.00009441
     atom   39 type  2   force =    -0.00000445    0.00002994   -0.00013076
     atom   40 type  2   force =    -0.00039004   -0.00004638   -0.00028286
     atom   41 type  2   force =    -0.00057835    0.00005019    0.00030063
     atom   42 type  2   force =     0.00039328    0.00007381    0.00055494
     atom   43 type  1   force =    -0.00017672   -0.00011263   -0.00011064
     atom   44 type  1   force =     0.00025242    0.00108650    0.00138839
     atom   45 type  2   force =     0.00000813   -0.00004316    0.10388081
     atom   46 type  2   force =    -0.07051238   -0.00003113   -0.02666537
     atom   47 type  2   force =     0.07036532    0.00043018   -0.02670122
     atom   48 type  3   force =     0.00061686   -0.00046357    0.00029705
     atom   49 type  3   force =     0.00099463   -0.00006059    0.00009302
     atom   50 type  4   force =    -0.00183827   -0.00031203    0.00067240
     atom   51 type  4   force =     0.00418569   -0.00488976    0.00836962
     atom   52 type  3   force =     0.00117201    0.00065632    0.00000669
     atom   53 type  3   force =    -0.00508421    0.00490191   -0.00844793

     Total force =     0.365373     Total SCF correction =     0.000413
  @ DRIVER MODE: Message from server: STATUS
  @ DRIVER MODE: Message from server: GETFORCE
  @ DRIVER MODE: Returning v,forces,stress,ensemble

     Writing output data file ./calc.save/
  @ DRIVER MODE: Message from server: EXIT
  @ DRIVE MODE: Exiting

     General routines

     Parallel routines

   This run was terminated on:   7:23:13  13Oct2021

   JOB DONE.