     Program PWSCF v.6.7GPU starts on  9Sep2021 at  1:11:27

     R & G space division:  proc/nbgrp/npool/nimage =      10
     Reading input from /storage/home/hcoda1/3/ntian30/research/carbon/CxH_vib/CH_calc/ads_slab/CHNNHH_a/out_0010/pw.inp
Warning: card &CELL ignored
Warning: card   CELL_DYNAMICS='IPI', ignored
Warning: card / ignored

     Current dimensions of program PWSCF are:
     Max number of different atomic species (ntypx) = 10
     Max number of k-points (npk) =  40000
     Max angular momentum in pseudopotentials (lmaxx) =  3
     Presently no symmetry can be used with electric field

     Message from routine cell_base_init:
     DEPRECATED: use true lattice parameter, not A to a.u. conversion factor

     IMPORTANT: XC functional enforced from input :
     Exchange-correlation= BEEF-VDW
                           (   1   4  43  14   2   0   0)
     Any further DFT definition will be discarded
     Please, verify this is what you really want

  @ DRIVER MODE: Connecting to
 qe_1139763_2767382.sched-torque.pace.gatech.edu_d9wx_0o_scratch
  using UNIX socket
  @ DRIVER MODE: Message from server: STATUS
  @ DRIVER MODE: Message from server: INIT
  @ DRIVER MODE: Receiving replica           0          -1
  @ DRIVER MODE: Receiving encoded integer          25
  @ DRIVER MODE:  SCF:  T  FORCE:  T  STRESS:  F  VC:  F  ENSEMBLE:  F
  @ DRIVER MODE:  SCF:  T  FORCE:  T  STRESS:  F  VC:  F  ENSEMBLE:  F

     Using Slab Decomposition

     bravais-lattice index     =            0
     lattice parameter (alat)  =       1.8897  a.u.
     unit-cell volume          =    6658.9804 (a.u.)^3
     number of atoms/cell      =           53
     number of atomic types    =            5
     number of electrons       =       395.00
     number of Kohn-Sham states=          207
     kinetic-energy cutoff     =      29.3995  Ry
     charge density cutoff     =     293.9946  Ry
     scf convergence threshold =      7.3E-08
     mixing beta               =       0.0500
     number of iterations used =            8  plain     mixing
     Exchange-correlation= BEEF-VDW
                           (   1   4  43  14   2   0   0)

     celldm(1)=   1.889726  celldm(2)=   0.000000  celldm(3)=   0.000000
     celldm(4)=   0.000000  celldm(5)=   0.000000  celldm(6)=   0.000000

     crystal axes: (cart. coord. in units of alat)
               a(1) = (   6.579727   0.000000   0.000000 )
               a(2) = (  -0.000775   5.961596   0.000000 )
               a(3) = (   0.000000   0.000000  25.155947 )

     reciprocal axes: (cart. coord. in units 2 pi/alat)
               b(1) = (  0.151982  0.000020  0.000000 )
               b(2) = (  0.000000  0.167740  0.000000 )
               b(3) = (  0.000000  0.000000  0.039752 )

     PseudoPot. # 1 for Ti read from file:
     /storage/coda1/p-amedford6/0/shared/rich_project_chbe-medford/medford-share/data/pseudos_module/espresso/nninc/pbe/van/Ti.UPF
     MD5 check sum: 8e4df49b7f0d34bbd5052bf3f5ea0213
     Pseudo is Ultrasoft, Zval = 12.0
     Generated by new atomic code, or converted to UPF format
     Using radial grid of  851 points,  6 beta functions with:
                l(1) =   0
                l(2) =   0
                l(3) =   1
                l(4) =   1
                l(5) =   2
                l(6) =   2
     Q(r) pseudized with  8 coefficients,  rinner =    1.000   1.000   1.000
                                                       1.000   1.000

     PseudoPot. # 2 for O  read from file:
     /storage/coda1/p-amedford6/0/shared/rich_project_chbe-medford/medford-share/data/pseudos_module/espresso/nninc/pbe/van/O.UPF
     MD5 check sum: 78c19812648e8988a0fe644b0f25305e
     Pseudo is Ultrasoft, Zval =  6.0
     Generated by new atomic code, or converted to UPF format
     Using radial grid of  737 points,  4 beta functions with:
                l(1) =   0
                l(2) =   0
                l(3) =   1
                l(4) =   1
     Q(r) pseudized with  8 coefficients,  rinner =    0.800   0.800   0.800

     PseudoPot. # 3 for N  read from file:
     /storage/coda1/p-amedford6/0/shared/rich_project_chbe-medford/medford-share/data/pseudos_module/espresso/nninc/pbe/van/N.UPF
     MD5 check sum: 90d10febe142ad51ac9d5be1deb811c4
     Pseudo is Ultrasoft, Zval =  5.0
     Generated by new atomic code, or converted to UPF format
     Using radial grid of  729 points,  4 beta functions with:
                l(1) =   0
                l(2) =   0
                l(3) =   1
                l(4) =   1
     Q(r) pseudized with  8 coefficients,  rinner =    0.800   0.800   0.800

     PseudoPot. # 4 for C  read from file:
     /storage/coda1/p-amedford6/0/shared/rich_project_chbe-medford/medford-share/data/pseudos_module/espresso/nninc/pbe/van/C.UPF
     MD5 check sum: 1a69bf6b8db32088f5b2163dbdb77a27
     Pseudo is Ultrasoft, Zval =  4.0
     Generated by new atomic code, or converted to UPF format
     Using radial grid of  721 points,  4 beta functions with:
                l(1) =   0
                l(2) =   0
                l(3) =   1
                l(4) =   1
     Q(r) pseudized with  8 coefficients,  rinner =    0.800   0.800   0.800

     PseudoPot. # 5 for H  read from file:
     /storage/coda1/p-amedford6/0/shared/rich_project_chbe-medford/medford-share/data/pseudos_module/espresso/nninc/pbe/van/H.UPF
     MD5 check sum: b5ee9d7bfd3a09ee7748110bda690ff7
     Pseudo is Ultrasoft, Zval =  1.0
     Generated by new atomic code, or converted to UPF format
     Using radial grid of  615 points,  1 beta functions with:
                l(1) =   0
     Q(r) pseudized with  8 coefficients,  rinner =    0.800

     atomic species   valence    mass     pseudopotential
        Ti1           12.00    47.86700     Ti( 1.00)
        O1             6.00    15.99900     O ( 1.00)
        N1             5.00    14.00700     N ( 1.00)
        C1             4.00    12.01100     C ( 1.00)
        H1             1.00     1.00800     H ( 1.00)

     No symmetry found

   Cartesian axes

     site n.     atom                  positions (alat units)
         1           Ti1 tau(   1) = (   0.0004258   2.9801865   6.0000000  )
         2           Ti1 tau(   2) = (   3.2906075   1.4906267   6.0002472  )
         3           O1  tau(   3) = (   0.0006271   0.0005054   7.9858123  )
         4           O1  tau(   4) = (   3.2906025   0.0005020   7.3038282  )
         5           O1  tau(   5) = (   4.5942328   1.4918067   9.2879030  )
         6           O1  tau(   6) = (   1.9868534   1.4903216   9.2879459  )
         7           Ti1 tau(   7) = (   3.2907910   2.8959150   9.1758416  )
         8           Ti1 tau(   8) = (   0.0015273   1.4827037   9.2680791  )
         9           O1  tau(   9) = (   3.2912281   5.9459940  11.3193265  )
        10           O1  tau(  10) = (   0.0116148   5.9584955  10.6183126  )
        11           O1  tau(  11) = (   1.3103257   1.4650607  12.6442557  )
        12           O1  tau(  12) = (   5.3047449   1.4806448  12.6312737  )
        13           Ti1 tau(  13) = (   6.5337005   3.0128982  12.6900614  )
        14           Ti1 tau(  14) = (   3.2207025   1.4698770  12.4715817  )
        15           O1  tau(  15) = (   6.5518216   5.9146589  14.6704082  )
        16           O1  tau(  16) = (   3.3240203   5.9583723  13.8895330  )
        17           O1  tau(  17) = (   4.5456974   1.5225049  16.1264218  )
        18           O1  tau(  18) = (   2.0489736   1.4727210  15.9535721  )
        19           Ti1 tau(  19) = (   3.2591190   2.9927146  15.6788090  )
        20           Ti1 tau(  20) = (   0.0289511   1.3544711  15.7732889  )
        21           O1  tau(  21) = (   3.2904802   0.0005063   4.7018136  )
        22           O1  tau(  22) = (   0.0559926   0.0451390  17.2112278  )
        23           O1  tau(  23) = (   1.3043587   1.4918075   6.0039043  )
        24           O1  tau(  24) = (   5.2767064   1.4903225   6.0039473  )
        25           Ti1 tau(  25) = (   0.0000382   5.9609847   6.0000000  )
        26           Ti1 tau(  26) = (   3.2902200   4.4714249   6.0002472  )
        27           O1  tau(  27) = (   0.0002396   2.9813036   7.9858123  )
        28           O1  tau(  28) = (   3.2902150   2.9813002   7.3038282  )
        29           O1  tau(  29) = (   4.5938453   4.4726049   9.2879030  )
        30           O1  tau(  30) = (   1.9864658   4.4711199   9.2879459  )
        31           Ti1 tau(  31) = (   3.2891106   5.8743827   9.1763621  )
        32           Ti1 tau(  32) = (   0.0006254   4.4649316   9.2693709  )
        33           O1  tau(  33) = (   3.2889932   2.9698301  11.3211337  )
        34           O1  tau(  34) = (   0.0092240   2.9805883  10.6323155  )
        35           O1  tau(  35) = (   1.3069247   4.4567274  12.6410950  )
        36           O1  tau(  36) = (   5.3013738   4.4587240  12.6283471  )
        37           Ti1 tau(  37) = (   6.5339814   0.0202798  12.5235249  )
        38           Ti1 tau(  38) = (   3.2191325   4.4512509  12.4750946  )
        39           O1  tau(  39) = (   6.5688456   2.9522374  14.7547250  )
        40           O1  tau(  40) = (   3.3031296   2.9710333  13.8824388  )
        41           O1  tau(  41) = (   4.5425837   4.4734130  15.9989242  )
        42           O1  tau(  42) = (   2.0771424   4.4889556  16.0364895  )
        43           Ti1 tau(  43) = (   3.3121389   0.0026565  15.6888161  )
        44           Ti1 tau(  44) = (   6.5128106   4.4989306  16.3061806  )
        45           O1  tau(  45) = (   3.2900926   2.9813045   4.7018136  )
        46           O1  tau(  46) = (   1.3039711   4.4726057   6.0039043  )
        47           O1  tau(  47) = (   5.2763189   4.4711207   6.0039473  )
        48           N1  tau(  48) = (   0.4628824   2.9849886  17.7976856  )
        49           C1  tau(  49) = (   1.4182946   2.9618240  18.6700831  )
        50           H1  tau(  50) = (   2.3503500   2.6458988  18.1556329  )
        51           N1  tau(  51) = (   5.7893717   3.5482605  18.2279111  )
        52           H1  tau(  52) = (   5.8942619   4.0012392  19.1365464  )
        53           H1  tau(  53) = (   5.0734348   2.8266848  18.2415795  )

     number of k points=    10  Fermi-Dirac smearing, width (Ry)=  0.0073
                       cart. coord. in units 2pi/alat
        k(    1) = (   0.0000000   0.0000000   0.0000000), wk =   0.1250000
        k(    2) = (   0.0000000   0.0419351   0.0000000), wk =   0.2500000
        k(    3) = (   0.0000000  -0.0838702   0.0000000), wk =   0.1250000
        k(    4) = (   0.0379955   0.0000049   0.0000000), wk =   0.2500000
        k(    5) = (   0.0379955   0.0419400   0.0000000), wk =   0.2500000
        k(    6) = (   0.0379955  -0.0838652   0.0000000), wk =   0.2500000
        k(    7) = (   0.0379955  -0.0419301   0.0000000), wk =   0.2500000
        k(    8) = (  -0.0759910  -0.0000099   0.0000000), wk =   0.1250000
        k(    9) = (  -0.0759910   0.0419252   0.0000000), wk =   0.2500000
        k(   10) = (  -0.0759910  -0.0838800   0.0000000), wk =   0.1250000

     Initial potential from superposition of free atoms

     starting charge  378.99916, renormalised to  395.00000

     negative rho (up, down):  1.775E-02 0.000E+00

     %%%%%%%%%%%%%%%%%%%%%%%%%%%%%%%%%%%%%%%%%%%%%%%%%%%%%%%%%%%%%%%%%%%%%%%%
     %                                                                      %
     % You are using vdW-DF, which was implemented by the Thonhauser group. %
     % Please cite the following two papers that made this development      %
     % possible and the two reviews that describe the various versions:     %
     %                                                                      %
     %   T. Thonhauser et al., PRL 115, 136402 (2015).                      %
     %   T. Thonhauser et al., PRB 76, 125112 (2007).                       %
     %   K. Berland et al., Rep. Prog. Phys. 78, 066501 (2015).             %
     %   D.C. Langreth et al., J. Phys.: Condens. Matter 21, 084203 (2009). %
     %                                                                      %
     %                                                                      %
     % If you are calculating the stress with vdW-DF, please also cite:     %
     %                                                                      %
     %   R. Sabatini et al., J. Phys.: Condens. Matter 24, 424209 (2012).   %
     %                                                                      %
     %%%%%%%%%%%%%%%%%%%%%%%%%%%%%%%%%%%%%%%%%%%%%%%%%%%%%%%%%%%%%%%%%%%%%%%%

     Adding external electric field

     Computed dipole along edir(3) :
        Dipole               -8.0620 Ry au,        -20.4914 Debye
        Dipole field         -0.0152 Ry au,

        Potential amp.        1.4103 Ry
        Total length         46.3494 bohr

     Starting wfcs are  299 atomic wfcs
  @ DRIVER MODE: Message from server: STATUS
  @ DRIVER MODE: Message from server: POSDATA
  @ DRIVER MODE: Reading and sharing cell
  @ DRIVER MODE: Reading and sharing positions
  @ DRIVER MODE: Received positions

     Self-consistent Calculation

     iteration #  1     ecut=    29.40 Ry     beta= 0.05
     Davidson diagonalization with overlap
     c_bands:  1 eigenvalues not converged
     c_bands:  1 eigenvalues not converged
     c_bands:  2 eigenvalues not converged
     c_bands:  3 eigenvalues not converged
     c_bands:  3 eigenvalues not converged
     c_bands:  2 eigenvalues not converged
     c_bands:  1 eigenvalues not converged
     ethr =  1.00E-05,  avg # of iterations = 19.3

[...]

     total energy              =   -2614.87290849 Ry
     estimated scf accuracy    <    3583.89704323 Ry

[...]

     iteration #  3     ecut=    29.40 Ry     beta= 0.05
     Davidson diagonalization with overlap
     ethr =  1.00E-02,  avg # of iterations = 14.8

[...]

     iteration # 71     ecut=    29.40 Ry     beta= 0.05
     Davidson diagonalization with overlap
     ethr =  2.17E-10,  avg # of iterations =  7.3

[...]

     total energy              =   -2939.00606913 Ry
     estimated scf accuracy    <       0.00000013 Ry

     iteration # 73     ecut=    29.40 Ry     beta= 0.05
     Davidson diagonalization with overlap
     c_bands:  1 eigenvalues not converged
     ethr =  3.36E-11,  avg # of iterations =  7.1

     negative rho (up, down):  1.648E-02 0.000E+00

     Adding external electric field

     Computed dipole along edir(3) :
        Dipole                0.3048 Ry au,          0.7747 Debye
        Dipole field          0.0006 Ry au,

        Potential amp.       -0.0533 Ry
        Total length         46.3494 bohr

     End of self-consistent calculation

          k = 0.0000 0.0000 0.0000 ( 18029 PWs)   bands (ev):

   -56.1071 -56.1047 -56.0730 -56.0683 -55.9951 -55.9603 -55.9549 -55.9192
   -55.9045 -55.8703 -55.8693 -55.8350 -55.6507 -55.5859 -55.0771 -55.0430
   -32.6637 -32.5882 -32.4867 -32.4259 -32.4120 -32.4082 -32.3996 -32.3604
   -32.3471 -32.3324 -32.3062 -32.2851 -32.2783 -32.2593 -32.2523 -32.2455
   -32.2102 -32.1966 -32.1944 -32.1898 -32.1860 -32.1644 -32.1593 -32.1422
   -32.1175 -32.1032 -32.1018 -32.1004 -32.0961 -32.0925 -32.0714 -32.0446
   -32.0439 -32.0287 -32.0224 -32.0025 -31.9813 -31.9539 -31.8775 -31.8494
   -31.8013 -31.7391 -31.4836 -31.3965 -31.3741 -31.3007 -31.2142 -31.1029
   -17.9795 -16.8728 -16.5832 -16.3675 -16.2623 -16.2468 -16.1402 -15.9552
   -15.8220 -15.7935 -15.6869 -15.6803 -15.6393 -15.6267 -15.5981 -15.5741
   -15.5655 -15.5397 -15.5367 -15.5206 -15.4763 -15.4533 -15.4340 -15.3376
   -15.2978 -15.2373 -15.2146 -15.1543 -15.0319 -14.7972 -13.5791 -13.4628
   -13.3097  -8.0412  -6.3593  -4.3445  -4.2469  -4.0705  -4.0097  -3.9666
    -3.9588  -3.7195  -3.6865  -3.3278  -3.2953  -3.2752  -3.2650  -3.2537
    -3.1352  -3.0190  -2.9632  -2.9212  -2.9111  -2.9003  -2.8930  -2.8804
    -2.8545  -2.8323  -2.7285  -2.6838  -2.6532  -2.5428  -2.5249  -2.4340
    -2.4170  -2.4060  -2.3714  -2.3511  -2.3424  -2.3162  -2.3050  -2.2781
    -2.1937  -2.1446  -2.0294  -1.9659  -1.8868  -1.8513  -1.7037  -1.6596
    -1.5722  -1.5659  -1.5470  -1.5249  -1.4918  -1.4057  -1.3309  -1.2419
    -1.1994  -1.1621  -1.1264  -1.0829  -1.0012  -0.9825  -0.9650  -0.8691
    -0.8651  -0.8558  -0.8128  -0.6110  -0.5865  -0.5524  -0.5398  -0.4626
    -0.4042  -0.3872  -0.3664  -0.3186  -0.2583  -0.1952  -0.1494  -0.1342
    -0.1229  -0.1195  -0.0853  -0.0592   0.0837   0.0943   0.1883   0.2001
     0.2235   0.3508   0.5246   0.5621   0.5854   0.7053   0.8762   0.9454
     1.0474   1.1384   1.5158   1.5611   2.4057   3.0308   3.1170   3.1508
     3.1701   3.2754   3.3088   3.4783   3.4937   3.5295   3.5482

[...]

          k = 0.0380-0.0419 0.0000 ( 17876 PWs)   bands (ev):

[...]

          k =-0.0760-0.0000 0.0000 ( 17886 PWs)   bands (ev):

[...]

          k =-0.0760-0.0839 0.0000 ( 17948 PWs)   bands (ev):

   -56.0911 -56.0888 -56.0884 -56.0844 -55.9859 -55.9640 -55.9507 -55.9286
   -55.8893 -55.8850 -55.8556 -55.8489 -55.6476 -55.5889 -55.0601 -55.0599
   -32.4672 -32.4627 -32.4042 -32.4029 -32.3860 -32.3843 -32.3657 -32.3534
   -32.3346 -32.3153 -32.2915 -32.2749 -32.2495 -32.2398 -32.2387 -32.2206
   -32.2199 -32.2108 -32.2083 -32.2027 -32.2017 -32.1941 -32.1883 -32.1738
   -32.1689 -32.1503 -32.1340 -32.1314 -32.0890 -32.0871 -32.0853 -32.0815
   -32.0733 -32.0705 -32.0670 -32.0651 -32.0610 -31.9717 -31.8895 -31.8426
   -31.8046 -31.7952 -31.3868 -31.3867 -31.2965 -31.2963 -31.2575 -31.2574
   -17.9696 -16.3085 -16.2926 -16.0764 -16.0316 -16.0274 -16.0069 -15.9183
   -15.8279 -15.8088 -15.7949 -15.7771 -15.7619 -15.6821 -15.6565 -15.6342
   -15.6303 -15.6175 -15.5629 -15.5571 -15.5536 -15.5489 -15.5290 -15.4959
   -15.4135 -15.4085 -15.3971 -15.1593 -15.0939 -15.0221 -13.5648 -13.5644
   -13.3227  -7.9993  -6.2970  -4.3570  -3.6014  -3.5827  -3.3561  -3.3078
    -3.2834  -3.2745  -3.1597  -3.0572  -3.0272  -3.0146  -2.9761  -2.9579
    -2.9453  -2.9329  -2.9202  -2.9010  -2.8753  -2.8415  -2.8361  -2.7899
    -2.7737  -2.7526  -2.7351  -2.7134  -2.7124  -2.6718  -2.6658  -2.6271
    -2.5891  -2.5432  -2.4337  -2.3805  -2.3428  -2.2924  -2.2361  -2.2251
    -2.2161  -2.1622  -2.1570  -2.1227  -2.0380  -1.9621  -1.8270  -1.8052
    -1.7723  -1.7314  -1.6980  -1.6016  -1.5570  -1.5076  -1.4560  -1.3996
    -1.3881  -1.3454  -1.3085  -1.2420  -1.2253  -1.1854  -1.1642  -1.1021
    -1.0604  -1.0563  -0.9928  -0.9252  -0.8676  -0.8644  -0.8439  -0.8285
    -0.7714  -0.7232  -0.6567  -0.6075  -0.5658  -0.4688  -0.4119  -0.2961
    -0.1871  -0.0682   0.0028   0.0072   0.0624   0.1400   0.1855   0.2198
     0.2308   0.2491   0.3404   0.4123   0.4310   0.4450   0.5151   0.6976
     1.3102   1.3114   1.3804   1.3812   2.4021   3.3191   3.3574   3.3716
     3.4030   3.5476   3.5503   3.5623   3.5661   3.6855   3.7314

     the Fermi energy is     3.0279 ev

!    total energy              =   -2939.00608335 Ry
     estimated scf accuracy    <       0.00000007 Ry
     smearing contrib. (-TS)   =      -0.02200072 Ry
     internal energy E=F+TS    =   -2938.98408263 Ry

     The total energy is F=E-TS. E is the sum of the following terms:
     one-electron contribution =  -24452.74136743 Ry
     hartree contribution      =   12311.43339820 Ry
     xc contribution           =    -485.12805953 Ry
     ewald contribution        =    9687.45177081 Ry
     electric field correction =       0.00017532 Ry

     convergence has been achieved in  73 iterations

     Forces acting on atoms (cartesian axes, Ry/au):

     atom    1 type  1   force =     0.00018359   -0.00028306    0.09689310
     atom    2 type  1   force =     0.00006653   -0.00078120   -0.17502077
     atom    3 type  2   force =     0.00014671   -0.00008562   -0.02552951
     atom    4 type  2   force =    -0.00003145   -0.00142483    0.05154980
     atom    5 type  2   force =    -0.01205803   -0.00173171    0.00280022
     atom    6 type  2   force =     0.01347881   -0.00134018    0.00224040
     atom    7 type  1   force =     0.00041095    0.00014757   -0.01206835
     atom    8 type  1   force =     0.00018865    0.02419585    0.02898298
     atom    9 type  2   force =    -0.00004022    0.00051667   -0.00006204
     atom   10 type  2   force =    -0.00266469    0.00014318   -0.01163102
     atom   11 type  2   force =    -0.00003455    0.00026427    0.00004502
     atom   12 type  2   force =    -0.00023455   -0.00001712    0.00014005
     atom   13 type  1   force =    -0.00012618    0.00114900   -0.00014612
     atom   14 type  1   force =    -0.00000513    0.00050538    0.00007860
     atom   15 type  2   force =     0.00007045   -0.00025196   -0.00002812
     atom   16 type  2   force =    -0.00021299    0.00022733   -0.00034091
     atom   17 type  2   force =     0.00034018    0.00015396   -0.00042504
     atom   18 type  2   force =    -0.00026782    0.00011379   -0.00012126
     atom   19 type  1   force =    -0.00018620   -0.00020260   -0.00038861
     atom   20 type  1   force =     0.00018960    0.00015566   -0.00003629
     atom   21 type  2   force =     0.00006741   -0.00007188    0.10299197
     atom   22 type  2   force =    -0.00001347   -0.00035210   -0.00047230
     atom   23 type  2   force =    -0.07170268   -0.00016778   -0.02791547
     atom   24 type  2   force =     0.07160655    0.00029068   -0.02795216
     atom   25 type  1   force =     0.00003618   -0.00025144    0.09679470
     atom   26 type  1   force =    -0.00000457   -0.00018066   -0.17517569
     atom   27 type  2   force =     0.00015902   -0.00027001   -0.02419774
     atom   28 type  2   force =     0.00001522   -0.00117986    0.05210144
     atom   29 type  2   force =    -0.01221592    0.00078465    0.00247436
     atom   30 type  2   force =     0.01352023    0.00126695    0.00188597
     atom   31 type  1   force =     0.00045358    0.00286635   -0.01395470
     atom   32 type  1   force =     0.00038843   -0.02517745    0.03047941
     atom   33 type  2   force =     0.00004502   -0.00008084   -0.00016562
     atom   34 type  2   force =    -0.00183956   -0.00050242   -0.02071159
     atom   35 type  2   force =    -0.00000461    0.00021670   -0.00005631
     atom   36 type  2   force =     0.00018605    0.00032584    0.00016120
     atom   37 type  1   force =    -0.00021128   -0.00085252   -0.00002934
     atom   38 type  1   force =     0.00008408    0.00012528   -0.00019722
     atom   39 type  2   force =     0.00009212    0.00035772   -0.00019947
     atom   40 type  2   force =    -0.00006218    0.00007862    0.00038542
     atom   41 type  2   force =     0.00049347    0.00006721   -0.00018485
     atom   42 type  2   force =    -0.00027125   -0.00000474   -0.00037531
     atom   43 type  1   force =    -0.00036947    0.00034440    0.00014425
     atom   44 type  1   force =     0.00008252    0.00034781    0.00012947
     atom   45 type  2   force =     0.00005422   -0.00006651    0.10300905
     atom   46 type  2   force =    -0.07173208   -0.00012116   -0.02791473
     atom   47 type  2   force =     0.07162189    0.00025317   -0.02793847
     atom   48 type  3   force =    -0.00116893    0.00027204    0.00011354
     atom   49 type  4   force =     0.00329959   -0.00201022   -0.00120682
     atom   50 type  5   force =    -0.00160493    0.00195500    0.00120748
     atom   51 type  3   force =    -0.00036350    0.00037903   -0.00033247
     atom   52 type  5   force =     0.00010517   -0.00003913   -0.00004948
     atom   53 type  5   force =     0.00004006   -0.00005711    0.00021933

     Total force =     0.369061     Total SCF correction =     0.000616
  @ DRIVER MODE: Message from server: STATUS
  @ DRIVER MODE: Message from server: GETFORCE
  @ DRIVER MODE: Returning v,forces,stress,ensemble

     Writing output data file ./calc.save/
  @ DRIVER MODE: Message from server: EXIT
  @ DRIVE MODE: Exiting

     General routines

     Parallel routines

   This run was terminated on:   1:38: 2   9Sep2021

   JOB DONE.