     Program PWSCF v.6.7GPU starts on  3Aug2021 at 21:34:45

     R & G space division:  proc/nbgrp/npool/nimage =      16
     Reading input from /storage/home/hcoda1/3/ntian30/research/carbon/02Aug_vib_paired/ads_slab/CH3NH3NH3_a/out_0020/pw.inp
Warning: card &CELL ignored
Warning: card   CELL_DYNAMICS='IPI', ignored
Warning: card / ignored

     Current dimensions of program PWSCF are:
     Max number of different atomic species (ntypx) = 10
     Max number of k-points (npk) =  40000
     Max angular momentum in pseudopotentials (lmaxx) =  3
     Presently no symmetry can be used with electric field

     Message from routine cell_base_init:
     DEPRECATED: use true lattice parameter, not A to a.u. conversion factor

     IMPORTANT: XC functional enforced from input :
     Exchange-correlation= BEEF-VDW
                           (   1   4  43  14   2   0   0)
     Any further DFT definition will be discarded
     Please, verify this is what you really want

  @ DRIVER MODE: Connecting to
 qe_1139763_2492108.sched-torque.pace.gatech.edufpoi79w5_scratch
  using UNIX socket
  @ DRIVER MODE: Message from server: STATUS
  @ DRIVER MODE: Message from server: INIT
  @ DRIVER MODE: Receiving replica           0          -1
  @ DRIVER MODE: Receiving encoded integer          25
  @ DRIVER MODE:  SCF:  T  FORCE:  T  STRESS:  F  VC:  F  ENSEMBLE:  F
  @ DRIVER MODE:  SCF:  T  FORCE:  T  STRESS:  F  VC:  F  ENSEMBLE:  F

     Using Slab Decomposition

     bravais-lattice index     =            0
     lattice parameter (alat)  =       1.8897  a.u.
     unit-cell volume          =    6658.9804 (a.u.)^3
     number of atoms/cell      =           59
     number of atomic types    =            5
     number of electrons       =       401.00
     number of Kohn-Sham states=          210
     kinetic-energy cutoff     =      29.3995  Ry
     charge density cutoff     =     293.9946  Ry
     scf convergence threshold =      7.3E-08
     mixing beta               =       0.0500
     number of iterations used =            8  plain     mixing
     Exchange-correlation= BEEF-VDW
                           (   1   4  43  14   2   0   0)

     celldm(1)=   1.889726  celldm(2)=   0.000000  celldm(3)=   0.000000
     celldm(4)=   0.000000  celldm(5)=   0.000000  celldm(6)=   0.000000

     crystal axes: (cart. coord. in units of alat)
               a(1) = (   6.579727   0.000000   0.000000 )
               a(2) = (  -0.000775   5.961596   0.000000 )
               a(3) = (   0.000000   0.000000  25.155947 )

     reciprocal axes: (cart. coord. in units 2 pi/alat)
               b(1) = (  0.151982  0.000020  0.000000 )
               b(2) = (  0.000000  0.167740  0.000000 )
               b(3) = (  0.000000  0.000000  0.039752 )

     PseudoPot. # 1 for Ti read from file:
     /storage/coda1/p-amedford6/0/shared/rich_project_chbe-medford/medford-share/data/pseudos_module/espresso/nninc/pbe/van/Ti.UPF
     MD5 check sum: 8e4df49b7f0d34bbd5052bf3f5ea0213
     Pseudo is Ultrasoft, Zval = 12.0
     Generated by new atomic code, or converted to UPF format
     Using radial grid of  851 points,  6 beta functions with:
                l(1) =   0
                l(2) =   0
                l(3) =   1
                l(4) =   1
                l(5) =   2
                l(6) =   2
     Q(r) pseudized with  8 coefficients,  rinner =    1.000   1.000   1.000
                                                       1.000   1.000

     PseudoPot. # 2 for O  read from file:
     /storage/coda1/p-amedford6/0/shared/rich_project_chbe-medford/medford-share/data/pseudos_module/espresso/nninc/pbe/van/O.UPF
     MD5 check sum: 78c19812648e8988a0fe644b0f25305e
     Pseudo is Ultrasoft, Zval =  6.0
     Generated by new atomic code, or converted to UPF format
     Using radial grid of  737 points,  4 beta functions with:
                l(1) =   0
                l(2) =   0
                l(3) =   1
                l(4) =   1
     Q(r) pseudized with  8 coefficients,  rinner =    0.800   0.800   0.800

     PseudoPot. # 3 for C  read from file:
     /storage/coda1/p-amedford6/0/shared/rich_project_chbe-medford/medford-share/data/pseudos_module/espresso/nninc/pbe/van/C.UPF
     MD5 check sum: 1a69bf6b8db32088f5b2163dbdb77a27
     Pseudo is Ultrasoft, Zval =  4.0
     Generated by new atomic code, or converted to UPF format
     Using radial grid of  721 points,  4 beta functions with:
                l(1) =   0
                l(2) =   0
                l(3) =   1
                l(4) =   1
     Q(r) pseudized with  8 coefficients,  rinner =    0.800   0.800   0.800

     PseudoPot. # 4 for H  read from file:
     /storage/coda1/p-amedford6/0/shared/rich_project_chbe-medford/medford-share/data/pseudos_module/espresso/nninc/pbe/van/H.UPF
     MD5 check sum: b5ee9d7bfd3a09ee7748110bda690ff7
     Pseudo is Ultrasoft, Zval =  1.0
     Generated by new atomic code, or converted to UPF format
     Using radial grid of  615 points,  1 beta functions with:
                l(1) =   0
     Q(r) pseudized with  8 coefficients,  rinner =    0.800

     PseudoPot. # 5 for N  read from file:
     /storage/coda1/p-amedford6/0/shared/rich_project_chbe-medford/medford-share/data/pseudos_module/espresso/nninc/pbe/van/N.UPF
     MD5 check sum: 90d10febe142ad51ac9d5be1deb811c4
     Pseudo is Ultrasoft, Zval =  5.0
     Generated by new atomic code, or converted to UPF format
     Using radial grid of  729 points,  4 beta functions with:
                l(1) =   0
                l(2) =   0
                l(3) =   1
                l(4) =   1
     Q(r) pseudized with  8 coefficients,  rinner =    0.800   0.800   0.800

     atomic species   valence    mass     pseudopotential
        Ti1           12.00    47.86700     Ti( 1.00)
        O1             6.00    15.99900     O ( 1.00)
        C1             4.00    12.01100     C ( 1.00)
        H1             1.00     1.00800     H ( 1.00)
        N1             5.00    14.00700     N ( 1.00)

     No symmetry found

   Cartesian axes

     site n.     atom                  positions (alat units)
         1           Ti1 tau(   1) = (   0.0004258   2.9801865   6.0000000  )
         2           Ti1 tau(   2) = (   3.2906075   1.4906267   6.0002472  )
         3           O1  tau(   3) = (   0.0006271   0.0005054   7.9858123  )
         4           O1  tau(   4) = (   3.2906025   0.0005020   7.3038282  )
         5           O1  tau(   5) = (   4.5942328   1.4918067   9.2879030  )
         6           O1  tau(   6) = (   1.9868534   1.4903216   9.2879459  )
         7           Ti1 tau(   7) = (   3.2907910   2.8959150   9.1758416  )
         8           Ti1 tau(   8) = (   0.0015273   1.4827037   9.2680791  )
         9           O1  tau(   9) = (   3.3006472   5.9526327  11.3326431  )
        10           O1  tau(  10) = (   0.0116148   5.9584955  10.6183126  )
        11           O1  tau(  11) = (   1.2986171   1.4856602  12.6180737  )
        12           O1  tau(  12) = (   5.2832837   1.4869688  12.6136912  )
        13           Ti1 tau(  13) = (   0.0716907   2.9700601  12.6329626  )
        14           Ti1 tau(  14) = (   3.3921379   1.4824266  12.4783935  )
        15           O1  tau(  15) = (   0.0098915   0.0277142  14.6273811  )
        16           O1  tau(  16) = (   3.2980527   0.0034327  13.9214941  )
        17           O1  tau(  17) = (   4.5491770   1.5035522  16.0668258  )
        18           O1  tau(  18) = (   2.0540802   1.5011373  16.0688643  )
        19           Ti1 tau(  19) = (   3.2973159   2.9845483  15.7023000  )
        20           Ti1 tau(  20) = (   6.5754392   1.4353193  15.8239573  )
        21           O1  tau(  21) = (   3.2904802   0.0005063   4.7018136  )
        22           O1  tau(  22) = (   0.0048264   5.9571524  17.1588256  )
        23           O1  tau(  23) = (   1.3043587   1.4918075   6.0039043  )
        24           O1  tau(  24) = (   5.2767064   1.4903225   6.0039473  )
        25           Ti1 tau(  25) = (   0.0000382   5.9609847   6.0000000  )
        26           Ti1 tau(  26) = (   3.2902200   4.4714249   6.0002472  )
        27           O1  tau(  27) = (   0.0002396   2.9813036   7.9858123  )
        28           O1  tau(  28) = (   3.2902150   2.9813002   7.3038282  )
        29           O1  tau(  29) = (   4.5938453   4.4726049   9.2879030  )
        30           O1  tau(  30) = (   1.9864658   4.4711199   9.2879459  )
        31           Ti1 tau(  31) = (   3.2891106   5.8743827   9.1763621  )
        32           Ti1 tau(  32) = (   0.0006254   4.4649316   9.2693709  )
        33           O1  tau(  33) = (   3.3024910   2.9811918  11.3312481  )
        34           O1  tau(  34) = (   0.0092240   2.9805883  10.6323155  )
        35           O1  tau(  35) = (   1.2967186   4.4682081  12.6345707  )
        36           O1  tau(  36) = (   5.2888097   4.4704914  12.6297389  )
        37           Ti1 tau(  37) = (   0.0778612   5.9457776  12.5489457  )
        38           Ti1 tau(  38) = (   3.3928769   4.4622707  12.4864817  )
        39           O1  tau(  39) = (   0.0140712   2.9461142  14.6842920  )
        40           O1  tau(  40) = (   3.2991745   2.9776924  13.9065265  )
        41           O1  tau(  41) = (   4.5418516   4.4678888  16.0645815  )
        42           O1  tau(  42) = (   2.0574864   4.4691885  16.0636024  )
        43           Ti1 tau(  43) = (   3.2861726   0.0051191  15.7195692  )
        44           Ti1 tau(  44) = (   6.5761434   4.5285208  16.1368719  )
        45           O1  tau(  45) = (   3.2900926   2.9813045   4.7018136  )
        46           O1  tau(  46) = (   1.3039711   4.4726057   6.0039043  )
        47           O1  tau(  47) = (   5.2763189   4.4711207   6.0039473  )
        48           C1  tau(  48) = (   0.0175971   3.0427671  17.7901079  )
        49           H1  tau(  49) = (   5.6823727   3.3959267  18.2745233  )
        50           H1  tau(  50) = (   0.1100020   1.9921885  18.0671921  )
        51           H1  tau(  51) = (   0.8707680   3.5346006  18.2680029  )
        52           N1  tau(  52) = (   6.1495222   1.5591847  21.8098380  )
        53           H1  tau(  53) = (   6.1793786   2.4848735  21.3946126  )
        54           H1  tau(  54) = (   6.2362200   0.9013766  21.0428083  )
        55           H1  tau(  55) = (   5.2088654   1.4380024  22.1828036  )
        56           N1  tau(  56) = (   2.8510371   0.9663425  23.1735989  )
        57           H1  tau(  57) = (   2.8683653   5.9129692  23.1556095  )
        58           H1  tau(  58) = (   1.9074079   1.2374795  22.9038124  )
        59           H1  tau(  59) = (   2.9640119   1.2328864  24.1466208  )

     number of k points=    10  Fermi-Dirac smearing, width (Ry)=  0.0073
                       cart. coord. in units 2pi/alat
        k(    1) = (   0.0000000   0.0000000   0.0000000), wk =   0.1250000
        k(    2) = (   0.0000000   0.0419351   0.0000000), wk =   0.2500000
        k(    3) = (   0.0000000  -0.0838702   0.0000000), wk =   0.1250000
        k(    4) = (   0.0379955   0.0000049   0.0000000), wk =   0.2500000
        k(    5) = (   0.0379955   0.0419400   0.0000000), wk =   0.2500000
        k(    6) = (   0.0379955  -0.0838652   0.0000000), wk =   0.2500000
        k(    7) = (   0.0379955  -0.0419301   0.0000000), wk =   0.2500000
        k(    8) = (  -0.0759910  -0.0000099   0.0000000), wk =   0.1250000
        k(    9) = (  -0.0759910   0.0419252   0.0000000), wk =   0.2500000
        k(   10) = (  -0.0759910  -0.0838800   0.0000000), wk =   0.1250000

     Initial potential from superposition of free atoms

     starting charge  384.99911, renormalised to  401.00000

     negative rho (up, down):  4.921E-03 0.000E+00

     %%%%%%%%%%%%%%%%%%%%%%%%%%%%%%%%%%%%%%%%%%%%%%%%%%%%%%%%%%%%%%%%%%%%%%%%
     %                                                                      %
     % You are using vdW-DF, which was implemented by the Thonhauser group. %
     % Please cite the following two papers that made this development      %
     % possible and the two reviews that describe the various versions:     %
     %                                                                      %
     %   T. Thonhauser et al., PRL 115, 136402 (2015).                      %
     %   T. Thonhauser et al., PRB 76, 125112 (2007).                       %
     %   K. Berland et al., Rep. Prog. Phys. 78, 066501 (2015).             %
     %   D.C. Langreth et al., J. Phys.: Condens. Matter 21, 084203 (2009). %
     %                                                                      %
     %                                                                      %
     % If you are calculating the stress with vdW-DF, please also cite:     %
     %                                                                      %
     %   R. Sabatini et al., J. Phys.: Condens. Matter 24, 424209 (2012).   %
     %                                                                      %
     %%%%%%%%%%%%%%%%%%%%%%%%%%%%%%%%%%%%%%%%%%%%%%%%%%%%%%%%%%%%%%%%%%%%%%%%

     Adding external electric field

     Computed dipole along edir(3) :
        Dipole              -16.7053 Ry au,        -42.4606 Debye
        Dipole field         -0.0315 Ry au,

        Potential amp.        2.9223 Ry
        Total length         46.3494 bohr

     Starting wfcs are  305 atomic wfcs
  @ DRIVER MODE: Message from server: STATUS
  @ DRIVER MODE: Message from server: POSDATA
  @ DRIVER MODE: Reading and sharing cell
  @ DRIVER MODE: Reading and sharing positions
  @ DRIVER MODE: Received positions

     Self-consistent Calculation

     iteration #  1     ecut=    29.40 Ry     beta= 0.05
     Davidson diagonalization with overlap
     c_bands:  2 eigenvalues not converged
     c_bands:  3 eigenvalues not converged
     c_bands:  1 eigenvalues not converged
     c_bands:  4 eigenvalues not converged
     c_bands:  4 eigenvalues not converged
     c_bands:  2 eigenvalues not converged
     c_bands:  3 eigenvalues not converged
     c_bands:  3 eigenvalues not converged
     c_bands:  4 eigenvalues not converged
     ethr =  1.00E-05,  avg # of iterations = 19.8

[...]

     total energy              =   -2364.26102356 Ry
     estimated scf accuracy    <    6692.63440023 Ry

     iteration #  2     ecut=    29.40 Ry     beta= 0.05
     Davidson diagonalization with overlap
     ethr =  1.00E-02,  avg # of iterations = 22.0

[...]

     iteration # 73     ecut=    29.40 Ry     beta= 0.05
     Davidson diagonalization with overlap
     ethr =  6.09E-11,  avg # of iterations =  9.2

[...]

     total energy              =   -2946.58250270 Ry
     estimated scf accuracy    <       0.00000010 Ry

     iteration # 74     ecut=    29.40 Ry     beta= 0.05
     Davidson diagonalization with overlap
     c_bands:  1 eigenvalues not converged
     ethr =  2.38E-11,  avg # of iterations = 11.8

     negative rho (up, down):  6.999E-03 0.000E+00

     Adding external electric field

     Computed dipole along edir(3) :
        Dipole                0.3157 Ry au,          0.8024 Debye
        Dipole field          0.0006 Ry au,

        Potential amp.       -0.0552 Ry
        Total length         46.3494 bohr

     End of self-consistent calculation

          k = 0.0000 0.0000 0.0000 ( 18029 PWs)   bands (ev):

   -55.9981 -55.9879 -55.9641 -55.9508 -55.8782 -55.8540 -55.8328 -55.8150
   -55.8051 -55.7714 -55.7711 -55.7377 -55.6123 -55.3903 -54.9787 -54.9446
   -32.5416 -32.4807 -32.3529 -32.3326 -32.3045 -32.3018 -32.2907 -32.2619
   -32.2401 -32.2165 -32.2094 -32.1948 -32.1676 -32.1502 -32.1409 -32.1268
   -32.1105 -32.1026 -32.0872 -32.0588 -32.0552 -32.0551 -32.0270 -32.0077
   -32.0070 -32.0023 -31.9933 -31.9892 -31.9759 -31.9737 -31.9654 -31.9456
   -31.9433 -31.9372 -31.9242 -31.9108 -31.8833 -31.8656 -31.8281 -31.6671
   -31.6408 -31.5281 -31.3858 -31.2971 -31.2747 -31.2024 -31.1159 -31.0051
   -16.7428 -16.4737 -16.2471 -16.1512 -16.1239 -16.0046 -15.8396 -15.7178
   -15.6692 -15.5689 -15.5595 -15.5351 -15.5022 -15.4780 -15.4773 -15.4431
   -15.4402 -15.4211 -15.4095 -15.3594 -15.3363 -15.3246 -15.2093 -15.1756
   -15.1334 -15.1120 -15.0545 -15.0419 -14.6192 -13.4820 -13.3656 -13.0434
   -12.9302  -9.1022  -4.1160  -3.9593  -3.9052  -3.8600  -3.8291  -3.6124
    -3.5462  -3.2487  -3.1845  -3.1699  -3.1524  -3.1200  -3.1162  -3.0898
    -3.0316  -2.9869  -2.9017  -2.8337  -2.8245  -2.8092  -2.8064  -2.7769
    -2.7673  -2.7551  -2.7144  -2.6887  -2.6626  -2.6125  -2.5576  -2.4957
    -2.4122  -2.3942  -2.3127  -2.2902  -2.2841  -2.2411  -2.2266  -2.2188
    -2.1999  -2.1748  -2.1616  -1.9783  -1.9396  -1.8368  -1.7807  -1.7786
    -1.6074  -1.5073  -1.4655  -1.4547  -1.4254  -1.3917  -1.3849  -1.2987
    -1.1817  -1.1508  -1.1177  -1.0457  -1.0022  -0.9703  -0.8727  -0.8452
    -0.7624  -0.7603  -0.7380  -0.6498  -0.5961  -0.4827  -0.4346  -0.4246
    -0.3867  -0.3576  -0.2883  -0.2741  -0.2172  -0.1448  -0.1240  -0.0613
    -0.0308  -0.0166  -0.0055   0.0114   0.0378   0.0682   0.1722   0.2026
     0.2820   0.3498   0.4452   0.5426   0.6486   0.6572   0.7587   0.9677
     1.0413   1.1399   1.1985   1.2355   1.6145   1.6604   1.7422   2.1830
     3.1390   3.2230   3.2706   3.2816   3.3726   3.3890   3.5891   3.6138
     3.6348   3.6870

[...]

          k = 0.0380-0.0419 0.0000 ( 17876 PWs)   bands (ev):

[...]

          k =-0.0760-0.0000 0.0000 ( 17886 PWs)   bands (ev):

[...]

          k =-0.0760-0.0839 0.0000 ( 17948 PWs)   bands (ev):

   -55.9815 -55.9805 -55.9739 -55.9646 -55.8702 -55.8438 -55.8406 -55.8251
   -55.7892 -55.7866 -55.7559 -55.7534 -55.6112 -55.3913 -54.9616 -54.9616
   -32.3493 -32.3406 -32.2963 -32.2956 -32.2766 -32.2756 -32.2592 -32.2503
   -32.2041 -32.1923 -32.1860 -32.1832 -32.1454 -32.1296 -32.1280 -32.1187
   -32.1083 -32.1009 -32.1008 -32.0998 -32.0941 -32.0913 -32.0702 -32.0606
   -32.0414 -32.0383 -32.0291 -32.0121 -31.9890 -31.9881 -31.9866 -31.9849
   -31.9702 -31.9688 -31.9658 -31.9618 -31.9332 -31.8568 -31.8313 -31.6808
   -31.6689 -31.5724 -31.2874 -31.2873 -31.1986 -31.1986 -31.1592 -31.1592
   -16.1755 -16.1561 -15.9488 -15.9120 -15.9089 -15.8996 -15.7879 -15.7028
   -15.6931 -15.6924 -15.6096 -15.5975 -15.5814 -15.5373 -15.5330 -15.5237
   -15.5140 -15.5020 -15.4589 -15.4540 -15.4352 -15.4276 -15.3455 -15.3153
   -15.3116 -15.2730 -15.1410 -15.0095 -14.8610 -13.4675 -13.4673 -13.0075
   -12.9656  -9.1187  -3.4676  -3.4420  -3.1920  -3.1556  -3.1463  -3.1204
    -3.0825  -3.0601  -2.9736  -2.9414  -2.9220  -2.8957  -2.8808  -2.8761
    -2.8398  -2.8275  -2.8177  -2.8058  -2.7876  -2.7531  -2.7442  -2.7119
    -2.7009  -2.6808  -2.6677  -2.6522  -2.6275  -2.6149  -2.6085  -2.5774
    -2.5633  -2.5463  -2.5256  -2.5028  -2.4196  -2.2305  -2.2007  -2.1361
    -2.1270  -2.0964  -2.0851  -2.0617  -2.0473  -2.0285  -1.9819  -1.8287
    -1.7268  -1.7007  -1.6728  -1.5976  -1.5767  -1.5289  -1.4151  -1.3803
    -1.3529  -1.3270  -1.2770  -1.2259  -1.2085  -1.1854  -1.1166  -1.1030
    -1.0253  -0.9819  -0.9595  -0.9552  -0.8901  -0.8471  -0.7653  -0.7600
    -0.7160  -0.6804  -0.6328  -0.5927  -0.5878  -0.5009  -0.4752  -0.3585
    -0.3039  -0.0441   0.0055   0.0567   0.0829   0.1419   0.1923   0.2070
     0.3158   0.3201   0.3569   0.4006   0.4414   0.5288   0.5480   0.5829
     0.7290   1.3028   1.4060   1.4065   1.4798   1.4801   1.9418   1.9680
     3.4242   3.4395   3.4699   3.5023   3.6435   3.6473   3.6687   3.6705
     3.7969   3.8194

     the Fermi energy is     3.1368 ev

!    total energy              =   -2946.58252427 Ry
     estimated scf accuracy    <       0.00000007 Ry
     smearing contrib. (-TS)   =      -0.02178439 Ry
     internal energy E=F+TS    =   -2946.56073988 Ry

     The total energy is F=E-TS. E is the sum of the following terms:
     one-electron contribution =  -22199.62950659 Ry
     hartree contribution      =   11188.80714756 Ry
     xc contribution           =    -489.84804538 Ry
     ewald contribution        =    8554.10947644 Ry
     electric field correction =       0.00018809 Ry

     convergence has been achieved in  74 iterations

     Forces acting on atoms (cartesian axes, Ry/au):

     atom    1 type  1   force =     0.00012537   -0.00025708    0.09669951
     atom    2 type  1   force =    -0.00013691   -0.00056173   -0.17508294
     atom    3 type  2   force =    -0.00000200   -0.00002690   -0.02502642
     atom    4 type  2   force =     0.00007486   -0.00143672    0.05268068
     atom    5 type  2   force =    -0.01210989   -0.00083558    0.00339940
     atom    6 type  2   force =     0.01402075   -0.00015269    0.00290691
     atom    7 type  1   force =    -0.00082245    0.00068150   -0.01133960
     atom    8 type  1   force =     0.00026200    0.01149695    0.02861603
     atom    9 type  2   force =    -0.00010252    0.00008265   -0.00002127
     atom   10 type  2   force =    -0.00085088    0.00077097   -0.01660876
     atom   11 type  2   force =    -0.00032515    0.00010072    0.00003410
     atom   12 type  2   force =     0.00000326    0.00021025    0.00005438
     atom   13 type  1   force =    -0.00012070   -0.00020758    0.00009814
     atom   14 type  1   force =    -0.00021197    0.00000902   -0.00003040
     atom   15 type  2   force =    -0.00003061    0.00006327   -0.00008732
     atom   16 type  2   force =    -0.00012209   -0.00003899    0.00003501
     atom   17 type  2   force =    -0.00004272   -0.00015851   -0.00002503
     atom   18 type  2   force =    -0.00018286   -0.00017619   -0.00003521
     atom   19 type  1   force =     0.00000699   -0.00020513    0.00012989
     atom   20 type  1   force =     0.00010318   -0.00037635   -0.00005725
     atom   21 type  2   force =     0.00006288    0.00000927    0.10290742
     atom   22 type  2   force =    -0.00011086   -0.00009247   -0.00044216
     atom   23 type  2   force =    -0.07139243   -0.00011117   -0.02770855
     atom   24 type  2   force =     0.07135087    0.00029337   -0.02774317
     atom   25 type  1   force =     0.00000991   -0.00030258    0.09648849
     atom   26 type  1   force =    -0.00018399   -0.00026676   -0.17525789
     atom   27 type  2   force =     0.00009342   -0.00020013   -0.02392151
     atom   28 type  2   force =     0.00011392   -0.00120037    0.05271839
     atom   29 type  2   force =    -0.01214083    0.00045727    0.00288479
     atom   30 type  2   force =     0.01397320    0.00080248    0.00242946
     atom   31 type  1   force =    -0.00076695    0.00310924   -0.01225654
     atom   32 type  1   force =     0.00027590   -0.01311982    0.02919467
     atom   33 type  2   force =    -0.00009638   -0.00002528    0.00003091
     atom   34 type  2   force =    -0.00028840    0.00077252   -0.02206236
     atom   35 type  2   force =    -0.00017739    0.00008303   -0.00003819
     atom   36 type  2   force =    -0.00009666    0.00020368   -0.00002983
     atom   37 type  1   force =    -0.00001556   -0.00031174   -0.00017503
     atom   38 type  1   force =     0.00003424    0.00000622    0.00000428
     atom   39 type  2   force =    -0.00008029    0.00012594    0.00028765
     atom   40 type  2   force =    -0.00013153   -0.00001301   -0.00006047
     atom   41 type  2   force =    -0.00000563   -0.00021072    0.00000333
     atom   42 type  2   force =    -0.00018574   -0.00021839    0.00016771
     atom   43 type  1   force =     0.00030451   -0.00016286   -0.00018188
     atom   44 type  1   force =     0.00018577   -0.00025410    0.00019548
     atom   45 type  2   force =     0.00006443   -0.00006971    0.10289622
     atom   46 type  2   force =    -0.07140663   -0.00007828   -0.02771603
     atom   47 type  2   force =     0.07136339    0.00037920   -0.02772739
     atom   48 type  3   force =    -0.00018554    0.00037871    0.00004467
     atom   49 type  4   force =    -0.00007328    0.00042089    0.00020343
     atom   50 type  4   force =    -0.00007633    0.00013648    0.00004887
     atom   51 type  4   force =     0.00007618    0.00029003    0.00037736
     atom   52 type  5   force =    -0.00172776   -0.00055565    0.00230338
     atom   53 type  4   force =     0.00001321    0.00055883   -0.00060511
     atom   54 type  4   force =     0.00102954   -0.00116559   -0.00312910
     atom   55 type  4   force =     0.00046304    0.00126520    0.00058018
     atom   56 type  5   force =     0.00068106    0.00037249   -0.00063615
     atom   57 type  4   force =     0.00003406   -0.00033566    0.00032184
     atom   58 type  4   force =    -0.00050542   -0.00006573   -0.00062293
     atom   59 type  4   force =    -0.00001760    0.00011328   -0.00011408

     Total force =     0.367694     Total SCF correction =     0.000998
  @ DRIVER MODE: Message from server: STATUS
  @ DRIVER MODE: Message from server: GETFORCE
  @ DRIVER MODE: Returning v,forces,stress,ensemble

     Writing output data file ./calc.save/
  @ DRIVER MODE: Message from server: EXIT
  @ DRIVE MODE: Exiting

     General routines

     Parallel routines

   This run was terminated on:  21:53:20   3Aug2021

   JOB DONE.