     Program PWSCF v.6.7GPU starts on  2Aug2021 at 21:56:55

     R & G space division:  proc/nbgrp/npool/nimage =      16
     Reading input from /storage/home/hcoda1/3/ntian30/research/carbon/02Aug_vib_paired/ads_slab/CH3NH_b/out_0036/pw.inp
Warning: card &CELL ignored
Warning: card   CELL_DYNAMICS='IPI', ignored
Warning: card / ignored

     Current dimensions of program PWSCF are:
     Max number of different atomic species (ntypx) = 10
     Max number of k-points (npk) =  40000
     Max angular momentum in pseudopotentials (lmaxx) =  3
     Presently no symmetry can be used with electric field

     Message from routine cell_base_init:
     DEPRECATED: use true lattice parameter, not A to a.u. conversion factor

     IMPORTANT: XC functional enforced from input :
     Exchange-correlation= BEEF-VDW
                           (   1   4  43  14   2   0   0)
     Any further DFT definition will be discarded
     Please, verify this is what you really want

  @ DRIVER MODE: Connecting to
 qe_1139763_2482541.sched-torque.pace.gatech.eduktuxydz8_scratch
  using UNIX socket
  @ DRIVER MODE: Message from server: STATUS
  @ DRIVER MODE: Message from server: INIT
  @ DRIVER MODE: Receiving replica           0          -1
  @ DRIVER MODE: Receiving encoded integer          25
  @ DRIVER MODE:  SCF:  T  FORCE:  T  STRESS:  F  VC:  F  ENSEMBLE:  F
  @ DRIVER MODE:  SCF:  T  FORCE:  T  STRESS:  F  VC:  F  ENSEMBLE:  F

     Using Slab Decomposition

     bravais-lattice index     =            0
     lattice parameter (alat)  =       1.8897  a.u.
     unit-cell volume          =    6658.9804 (a.u.)^3
     number of atoms/cell      =           53
     number of atomic types    =            5
     number of electrons       =       391.00
     number of Kohn-Sham states=          205
     kinetic-energy cutoff     =      29.3995  Ry
     charge density cutoff     =     293.9946  Ry
     scf convergence threshold =      7.3E-08
     mixing beta               =       0.0500
     number of iterations used =            8  plain     mixing
     Exchange-correlation= BEEF-VDW
                           (   1   4  43  14   2   0   0)

     celldm(1)=   1.889726  celldm(2)=   0.000000  celldm(3)=   0.000000
     celldm(4)=   0.000000  celldm(5)=   0.000000  celldm(6)=   0.000000

     crystal axes: (cart. coord. in units of alat)
               a(1) = (   6.579727   0.000000   0.000000 )
               a(2) = (  -0.000775   5.961596   0.000000 )
               a(3) = (   0.000000   0.000000  25.155947 )

     reciprocal axes: (cart. coord. in units 2 pi/alat)
               b(1) = (  0.151982  0.000020  0.000000 )
               b(2) = (  0.000000  0.167740  0.000000 )
               b(3) = (  0.000000  0.000000  0.039752 )

     PseudoPot. # 1 for Ti read from file:
     /storage/coda1/p-amedford6/0/shared/rich_project_chbe-medford/medford-share/data/pseudos_module/espresso/nninc/pbe/van/Ti.UPF
     MD5 check sum: 8e4df49b7f0d34bbd5052bf3f5ea0213
     Pseudo is Ultrasoft, Zval = 12.0
     Generated by new atomic code, or converted to UPF format
     Using radial grid of  851 points,  6 beta functions with:
                l(1) =   0
                l(2) =   0
                l(3) =   1
                l(4) =   1
                l(5) =   2
                l(6) =   2
     Q(r) pseudized with  8 coefficients,  rinner =    1.000   1.000   1.000
                                                       1.000   1.000

     PseudoPot. # 2 for O  read from file:
     /storage/coda1/p-amedford6/0/shared/rich_project_chbe-medford/medford-share/data/pseudos_module/espresso/nninc/pbe/van/O.UPF
     MD5 check sum: 78c19812648e8988a0fe644b0f25305e
     Pseudo is Ultrasoft, Zval =  6.0
     Generated by new atomic code, or converted to UPF format
     Using radial grid of  737 points,  4 beta functions with:
                l(1) =   0
                l(2) =   0
                l(3) =   1
                l(4) =   1
     Q(r) pseudized with  8 coefficients,  rinner =    0.800   0.800   0.800

     PseudoPot. # 3 for H  read from file:
     /storage/coda1/p-amedford6/0/shared/rich_project_chbe-medford/medford-share/data/pseudos_module/espresso/nninc/pbe/van/H.UPF
     MD5 check sum: b5ee9d7bfd3a09ee7748110bda690ff7
     Pseudo is Ultrasoft, Zval =  1.0
     Generated by new atomic code, or converted to UPF format
     Using radial grid of  615 points,  1 beta functions with:
                l(1) =   0
     Q(r) pseudized with  8 coefficients,  rinner =    0.800

     PseudoPot. # 4 for N  read from file:
     /storage/coda1/p-amedford6/0/shared/rich_project_chbe-medford/medford-share/data/pseudos_module/espresso/nninc/pbe/van/N.UPF
     MD5 check sum: 90d10febe142ad51ac9d5be1deb811c4
     Pseudo is Ultrasoft, Zval =  5.0
     Generated by new atomic code, or converted to UPF format
     Using radial grid of  729 points,  4 beta functions with:
                l(1) =   0
                l(2) =   0
                l(3) =   1
                l(4) =   1
     Q(r) pseudized with  8 coefficients,  rinner =    0.800   0.800   0.800

     PseudoPot. # 5 for C  read from file:
     /storage/coda1/p-amedford6/0/shared/rich_project_chbe-medford/medford-share/data/pseudos_module/espresso/nninc/pbe/van/C.UPF
     MD5 check sum: 1a69bf6b8db32088f5b2163dbdb77a27
     Pseudo is Ultrasoft, Zval =  4.0
     Generated by new atomic code, or converted to UPF format
     Using radial grid of  721 points,  4 beta functions with:
                l(1) =   0
                l(2) =   0
                l(3) =   1
                l(4) =   1
     Q(r) pseudized with  8 coefficients,  rinner =    0.800   0.800   0.800

     atomic species   valence    mass     pseudopotential
        Ti1           12.00    47.86700     Ti( 1.00)
        O1             6.00    15.99900     O ( 1.00)
        H1             1.00     1.00800     H ( 1.00)
        N1             5.00    14.00700     N ( 1.00)
        C1             4.00    12.01100     C ( 1.00)

     No symmetry found

   Cartesian axes

     site n.     atom                  positions (alat units)
         1           Ti1 tau(   1) = (   0.0004258   2.9801865   6.0000000  )
         2           Ti1 tau(   2) = (   3.2906075   1.4906267   6.0002472  )
         3           O1  tau(   3) = (   0.0006271   0.0005054   7.9858123  )
         4           O1  tau(   4) = (   3.2906025   0.0005020   7.3038282  )
         5           O1  tau(   5) = (   4.5942328   1.4918067   9.2879030  )
         6           O1  tau(   6) = (   1.9868534   1.4903216   9.2879459  )
         7           Ti1 tau(   7) = (   3.2907910   2.8959150   9.1758416  )
         8           Ti1 tau(   8) = (   0.0015273   1.4827037   9.2680791  )
         9           O1  tau(   9) = (   3.2906183   5.9580730  11.3246990  )
        10           O1  tau(  10) = (   0.0116148   5.9584955  10.6183126  )
        11           O1  tau(  11) = (   1.3160896   1.4863360  12.6200149  )
        12           O1  tau(  12) = (   5.2947061   1.4800608  12.6053981  )
        13           Ti1 tau(  13) = (   6.5224157   2.9421717  12.6196007  )
        14           Ti1 tau(  14) = (   3.2076970   1.4879367  12.4696142  )
        15           O1  tau(  15) = (   6.5517659   0.0158556  14.6493665  )
        16           O1  tau(  16) = (   3.3109316   0.0069331  13.9179417  )
        17           O1  tau(  17) = (   4.5083530   1.5297238  16.0872293  )
        18           O1  tau(  18) = (   2.0274073   1.5273405  16.0409094  )
        19           Ti1 tau(  19) = (   3.2920608   3.0081397  15.6838061  )
        20           Ti1 tau(  20) = (   0.0536170   1.5416865  15.8648894  )
        21           O1  tau(  21) = (   3.2904802   0.0005063   4.7018136  )
        22           O1  tau(  22) = (   0.0122827   0.0301012  17.2134340  )
        23           O1  tau(  23) = (   1.3043587   1.4918075   6.0039043  )
        24           O1  tau(  24) = (   5.2767064   1.4903225   6.0039473  )
        25           Ti1 tau(  25) = (   0.0000382   5.9609847   6.0000000  )
        26           Ti1 tau(  26) = (   3.2902200   4.4714249   6.0002472  )
        27           O1  tau(  27) = (   0.0002396   2.9813036   7.9858123  )
        28           O1  tau(  28) = (   3.2902150   2.9813002   7.3038282  )
        29           O1  tau(  29) = (   4.5938453   4.4726049   9.2879030  )
        30           O1  tau(  30) = (   1.9864658   4.4711199   9.2879459  )
        31           Ti1 tau(  31) = (   3.2891106   5.8743827   9.1763621  )
        32           Ti1 tau(  32) = (   0.0006254   4.4649316   9.2693709  )
        33           O1  tau(  33) = (   3.2866862   2.9837957  11.3234553  )
        34           O1  tau(  34) = (   0.0092240   2.9805883  10.6323155  )
        35           O1  tau(  35) = (   1.3095649   4.4762946  12.6335636  )
        36           O1  tau(  36) = (   5.2963019   4.4650584  12.6194355  )
        37           Ti1 tau(  37) = (   6.5192018   5.9199268  12.5733442  )
        38           Ti1 tau(  38) = (   3.2055211   4.4685508  12.4747853  )
        39           O1  tau(  39) = (   6.5624772   2.9349094  14.6472044  )
        40           O1  tau(  40) = (   3.3065106   2.9879112  13.8942307  )
        41           O1  tau(  41) = (   4.5199725   4.4841037  16.0899424  )
        42           O1  tau(  42) = (   2.0389375   4.4882992  16.0664246  )
        43           Ti1 tau(  43) = (   3.3279474   0.0221627  15.7114356  )
        44           Ti1 tau(  44) = (   0.0314192   4.6578676  16.1055029  )
        45           O1  tau(  45) = (   3.2900926   2.9813045   4.7018136  )
        46           O1  tau(  46) = (   1.3039711   4.4726057   6.0039043  )
        47           O1  tau(  47) = (   5.2763189   4.4711207   6.0039473  )
        48           H1  tau(  48) = (   5.5751926   2.9245997  17.7795037  )
        49           N1  tau(  49) = (   6.5345126   2.9709300  17.4463781  )
        50           C1  tau(  50) = (   0.8205834   2.9192471  18.6315588  )
        51           H1  tau(  51) = (   0.6379014   3.7726647  19.2931901  )
        52           H1  tau(  52) = (   0.6616828   1.9903841  19.1881566  )
        53           H1  tau(  53) = (   1.8691752   2.9530840  18.3488921  )

     number of k points=    10  Fermi-Dirac smearing, width (Ry)=  0.0073
                       cart. coord. in units 2pi/alat
        k(    1) = (   0.0000000   0.0000000   0.0000000), wk =   0.1250000
        k(    2) = (   0.0000000   0.0419351   0.0000000), wk =   0.2500000
        k(    3) = (   0.0000000  -0.0838702   0.0000000), wk =   0.1250000
        k(    4) = (   0.0379955   0.0000049   0.0000000), wk =   0.2500000
        k(    5) = (   0.0379955   0.0419400   0.0000000), wk =   0.2500000
        k(    6) = (   0.0379955  -0.0838652   0.0000000), wk =   0.2500000
        k(    7) = (   0.0379955  -0.0419301   0.0000000), wk =   0.2500000
        k(    8) = (  -0.0759910  -0.0000099   0.0000000), wk =   0.1250000
        k(    9) = (  -0.0759910   0.0419252   0.0000000), wk =   0.2500000
        k(   10) = (  -0.0759910  -0.0838800   0.0000000), wk =   0.1250000

     Initial potential from superposition of free atoms

     starting charge  374.99916, renormalised to  391.00000

     negative rho (up, down):  1.778E-02 0.000E+00

     %%%%%%%%%%%%%%%%%%%%%%%%%%%%%%%%%%%%%%%%%%%%%%%%%%%%%%%%%%%%%%%%%%%%%%%%
     %                                                                      %
     % You are using vdW-DF, which was implemented by the Thonhauser group. %
     % Please cite the following two papers that made this development      %
     % possible and the two reviews that describe the various versions:     %
     %                                                                      %
     %   T. Thonhauser et al., PRL 115, 136402 (2015).                      %
     %   T. Thonhauser et al., PRB 76, 125112 (2007).                       %
     %   K. Berland et al., Rep. Prog. Phys. 78, 066501 (2015).             %
     %   D.C. Langreth et al., J. Phys.: Condens. Matter 21, 084203 (2009). %
     %                                                                      %
     %                                                                      %
     % If you are calculating the stress with vdW-DF, please also cite:     %
     %                                                                      %
     %   R. Sabatini et al., J. Phys.: Condens. Matter 24, 424209 (2012).   %
     %                                                                      %
     %%%%%%%%%%%%%%%%%%%%%%%%%%%%%%%%%%%%%%%%%%%%%%%%%%%%%%%%%%%%%%%%%%%%%%%%

     Adding external electric field

     Computed dipole along edir(3) :
        Dipole               -5.8171 Ry au,        -14.7855 Debye
        Dipole field         -0.0110 Ry au,

        Potential amp.        1.0176 Ry
        Total length         46.3494 bohr

     Starting wfcs are  296 atomic wfcs
  @ DRIVER MODE: Message from server: STATUS
  @ DRIVER MODE: Message from server: POSDATA
  @ DRIVER MODE: Reading and sharing cell
  @ DRIVER MODE: Reading and sharing positions
  @ DRIVER MODE: Received positions

     Self-consistent Calculation

     iteration #  1     ecut=    29.40 Ry     beta= 0.05
     Davidson diagonalization with overlap
     c_bands:  3 eigenvalues not converged
     c_bands:  1 eigenvalues not converged
     c_bands:  1 eigenvalues not converged
     c_bands:  2 eigenvalues not converged
     c_bands:  4 eigenvalues not converged
     c_bands:  2 eigenvalues not converged
     c_bands:  1 eigenvalues not converged
     c_bands:  1 eigenvalues not converged
     c_bands:  2 eigenvalues not converged
     ethr =  1.00E-05,  avg # of iterations = 19.5

[...]

     total energy              =   -2770.77690505 Ry
     estimated scf accuracy    <    1640.28325370 Ry

[...]

     iteration #  4     ecut=    29.40 Ry     beta= 0.05
     Davidson diagonalization with overlap
     ethr =  1.00E-02,  avg # of iterations =  6.1

[...]

     iteration # 57     ecut=    29.40 Ry     beta= 0.05
     Davidson diagonalization with overlap
     ethr =  2.57E-11,  avg # of iterations =  2.0

[...]

     total energy              =   -2920.42402978 Ry
     estimated scf accuracy    <       0.00000009 Ry

     iteration # 58     ecut=    29.40 Ry     beta= 0.05
     Davidson diagonalization with overlap
     c_bands:  2 eigenvalues not converged
     ethr =  2.36E-11,  avg # of iterations = 13.7

     negative rho (up, down):  1.813E-02 0.000E+00

     Adding external electric field

     Computed dipole along edir(3) :
        Dipole                0.6853 Ry au,          1.7418 Debye
        Dipole field          0.0013 Ry au,

        Potential amp.       -0.1199 Ry
        Total length         46.3494 bohr

     End of self-consistent calculation

          k = 0.0000 0.0000 0.0000 ( 18029 PWs)   bands (ev):

   -55.9952 -55.9878 -55.9612 -55.9517 -55.9023 -55.8378 -55.8378 -55.8035
   -55.7990 -55.7651 -55.7600 -55.7263 -55.5391 -55.2718 -54.9678 -54.9338
   -32.5468 -32.4766 -32.3497 -32.3396 -32.3152 -32.2985 -32.2885 -32.2511
   -32.2364 -32.2357 -32.2116 -32.2042 -32.1706 -32.1474 -32.1399 -32.1338
   -32.1303 -32.0986 -32.0778 -32.0524 -32.0484 -32.0408 -32.0253 -31.9984
   -31.9917 -31.9909 -31.9855 -31.9775 -31.9632 -31.9571 -31.9536 -31.9436
   -31.9362 -31.9288 -31.9132 -31.9064 -31.8726 -31.8085 -31.7104 -31.5467
   -31.5418 -31.4670 -31.3748 -31.2870 -31.2645 -31.1915 -31.1051 -30.9940
   -16.7560 -16.4727 -16.2930 -16.1501 -16.1180 -16.0325 -15.8316 -15.7048
   -15.6927 -15.5891 -15.5559 -15.5294 -15.5227 -15.4965 -15.4918 -15.4307
   -15.4289 -15.4150 -15.4056 -15.3492 -15.3246 -15.2710 -15.1914 -15.1585
   -15.1531 -15.1253 -15.0439 -15.0385 -14.5847 -14.1759 -13.4704 -13.3541
    -8.9400  -4.3535  -4.1271  -3.9528  -3.9143  -3.8978  -3.8481  -3.5939
    -3.5788  -3.3302  -3.2363  -3.1931  -3.1782  -3.1693  -3.1490  -3.1381
    -2.8917  -2.8245  -2.8097  -2.7877  -2.7799  -2.7738  -2.7616  -2.7611
    -2.7217  -2.6587  -2.5332  -2.4989  -2.4199  -2.3828  -2.3543  -2.3047
    -2.2607  -2.2539  -2.2435  -2.2249  -2.2126  -2.1880  -2.1713  -2.0375
    -1.9716  -1.8362  -1.8015  -1.7819  -1.5962  -1.5371  -1.4723  -1.4339
    -1.4206  -1.4135  -1.3818  -1.3002  -1.2092  -1.1524  -1.1423  -1.0859
    -1.0086  -0.9971  -0.8893  -0.8839  -0.8556  -0.7663  -0.7560  -0.7447
    -0.7255  -0.6576  -0.5570  -0.4800  -0.4350  -0.4051  -0.3745  -0.3049
    -0.2748  -0.1723  -0.1569  -0.1086  -0.1037  -0.0621  -0.0167  -0.0074
     0.0014   0.0093   0.0346   0.1771   0.2879   0.3430   0.3833   0.3892
     0.5435   0.5712   0.6680   0.7566   0.9811   1.0541   1.1472   1.2469
     1.3221   1.6250   1.6704   3.1479   3.2266   3.2803   3.2891   3.3915
     3.3973   3.5975   3.6071   3.6200   3.6877

[...]

          k = 0.0380-0.0419 0.0000 ( 17876 PWs)   bands (ev):

[...]

          k =-0.0760-0.0000 0.0000 ( 17886 PWs)   bands (ev):

[...]

          k =-0.0760-0.0839 0.0000 ( 17948 PWs)   bands (ev):

   -55.9785 -55.9778 -55.9710 -55.9683 -55.8973 -55.8427 -55.8214 -55.8199
   -55.7827 -55.7809 -55.7438 -55.7427 -55.5381 -55.2727 -54.9508 -54.9507
   -32.3518 -32.3481 -32.2922 -32.2917 -32.2811 -32.2742 -32.2735 -32.2602
   -32.1983 -32.1973 -32.1924 -32.1880 -32.1645 -32.1333 -32.1187 -32.1144
   -32.1013 -32.0992 -32.0979 -32.0972 -32.0940 -32.0834 -32.0811 -32.0488
   -32.0411 -32.0399 -32.0104 -31.9993 -31.9799 -31.9796 -31.9763 -31.9754
   -31.9587 -31.9580 -31.9558 -31.9529 -31.8776 -31.8110 -31.7058 -31.6112
   -31.5437 -31.4916 -31.2773 -31.2772 -31.1876 -31.1874 -31.1484 -31.1483
   -16.2097 -16.1746 -15.9379 -15.9267 -15.9199 -15.9044 -15.7583 -15.7114
   -15.7000 -15.6929 -15.6700 -15.6468 -15.5893 -15.5603 -15.5315 -15.5229
   -15.5168 -15.5146 -15.4532 -15.4480 -15.4248 -15.4180 -15.3045 -15.3007
   -15.2910 -15.2150 -15.1605 -15.0207 -14.7463 -14.1993 -13.4559 -13.4559
    -8.9448  -4.3652  -3.5038  -3.4636  -3.2813  -3.2542  -3.1786  -3.1620
    -3.1379  -3.0700  -2.9053  -2.8884  -2.8771  -2.8620  -2.8197  -2.8135
    -2.8031  -2.7907  -2.7839  -2.7647  -2.7315  -2.6986  -2.6607  -2.6532
    -2.6444  -2.6194  -2.6082  -2.5863  -2.5747  -2.5438  -2.5353  -2.5172
    -2.4876  -2.2274  -2.2073  -2.1964  -2.1244  -2.1177  -2.0840  -2.0662
    -2.0562  -2.0430  -1.9860  -1.8821  -1.7254  -1.6939  -1.6830  -1.6687
    -1.5853  -1.5761  -1.4228  -1.4014  -1.3813  -1.3444  -1.2901  -1.2675
    -1.2270  -1.1684  -1.1508  -1.0872  -1.0698  -1.0111  -0.9557  -0.9539
    -0.9329  -0.8574  -0.7759  -0.7605  -0.7471  -0.7081  -0.6982  -0.6112
    -0.5875  -0.4943  -0.4800  -0.4218  -0.3965  -0.2953  -0.1355  -0.0113
     0.0424   0.0683   0.1258   0.2244   0.2688   0.2805   0.3246   0.3307
     0.3924   0.4328   0.5457   0.5515   0.6265   0.7178   1.2593   1.4184
     1.4191   1.4901   1.4902   3.4111   3.4163   3.4635   3.4928   3.6480
     3.6525   3.6746   3.6759   3.8007   3.8170

     the Fermi energy is     3.1409 ev

!    total energy              =   -2920.42408141 Ry
     estimated scf accuracy    <       0.00000006 Ry
     smearing contrib. (-TS)   =      -0.02203067 Ry
     internal energy E=F+TS    =   -2920.40205074 Ry

     The total energy is F=E-TS. E is the sum of the following terms:
     one-electron contribution =  -24701.25918684 Ry
     hartree contribution      =   12435.23327697 Ry
     xc contribution           =    -480.87270253 Ry
     ewald contribution        =    9826.49567549 Ry
     electric field correction =       0.00088617 Ry

     convergence has been achieved in  58 iterations

     Forces acting on atoms (cartesian axes, Ry/au):

     atom    1 type  1   force =     0.00013177   -0.00026607    0.09689941
     atom    2 type  1   force =     0.00002623   -0.00053770   -0.17507765
     atom    3 type  2   force =     0.00013476   -0.00007705   -0.02544007
     atom    4 type  2   force =    -0.00000870   -0.00136691    0.05232563
     atom    5 type  2   force =    -0.01238606   -0.00013682    0.00301536
     atom    6 type  2   force =     0.01381483    0.00023137    0.00237708
     atom    7 type  1   force =     0.00057834    0.00032780   -0.01262931
     atom    8 type  1   force =     0.00045846    0.00595992    0.03109652
     atom    9 type  2   force =    -0.00033281    0.00023884    0.00039257
     atom   10 type  2   force =    -0.00269407    0.00069502   -0.01625312
     atom   11 type  2   force =    -0.00040811    0.00012360    0.00016920
     atom   12 type  2   force =     0.00013093    0.00013395    0.00019910
     atom   13 type  1   force =    -0.00012249    0.00024657    0.00023470
     atom   14 type  1   force =    -0.00003359   -0.00021853   -0.00014300
     atom   15 type  2   force =     0.00020410    0.00010762    0.00034650
     atom   16 type  2   force =    -0.00006618    0.00027515    0.00023022
     atom   17 type  2   force =    -0.00005924   -0.00019806   -0.00022107
     atom   18 type  2   force =     0.00036957   -0.00010356    0.00025005
     atom   19 type  1   force =    -0.00010337    0.00019348   -0.00002735
     atom   20 type  1   force =     0.00000136   -0.00007244   -0.00038983
     atom   21 type  2   force =     0.00007181   -0.00005754    0.10308621
     atom   22 type  2   force =    -0.00012677   -0.00000633    0.00024082
     atom   23 type  2   force =    -0.07161758   -0.00015888   -0.02784067
     atom   24 type  2   force =     0.07153600    0.00032526   -0.02789861
     atom   25 type  1   force =     0.00011073   -0.00024178    0.09670648
     atom   26 type  1   force =     0.00011935   -0.00027695   -0.17524928
     atom   27 type  2   force =     0.00013274   -0.00023115   -0.02451196
     atom   28 type  2   force =     0.00002891   -0.00112616    0.05224578
     atom   29 type  2   force =    -0.01250780    0.00014120    0.00266974
     atom   30 type  2   force =     0.01382498    0.00069209    0.00200901
     atom   31 type  1   force =     0.00051628    0.00291813   -0.01338194
     atom   32 type  1   force =     0.00028127   -0.00821905    0.03149314
     atom   33 type  2   force =    -0.00005588   -0.00006573   -0.00011999
     atom   34 type  2   force =    -0.00183957    0.00056354   -0.02457105
     atom   35 type  2   force =    -0.00013527    0.00010251    0.00004618
     atom   36 type  2   force =    -0.00025284    0.00019996    0.00012125
     atom   37 type  1   force =    -0.00005325    0.00032255    0.00024376
     atom   38 type  1   force =    -0.00023176   -0.00005982   -0.00014980
     atom   39 type  2   force =     0.00005516    0.00020709   -0.00014890
     atom   40 type  2   force =    -0.00017109    0.00026684   -0.00014595
     atom   41 type  2   force =     0.00005647    0.00005451    0.00025055
     atom   42 type  2   force =    -0.00006566   -0.00000795    0.00040212
     atom   43 type  1   force =    -0.00024549   -0.00021279    0.00046906
     atom   44 type  1   force =     0.00036344   -0.00024710    0.00010707
     atom   45 type  2   force =     0.00005123   -0.00006899    0.10308537
     atom   46 type  2   force =    -0.07162237   -0.00008913   -0.02783641
     atom   47 type  2   force =     0.07155522    0.00033352   -0.02791448
     atom   48 type  3   force =    -0.00033871    0.00018122    0.00016092
     atom   49 type  4   force =     0.00147084   -0.00042963   -0.00060754
     atom   50 type  5   force =    -0.00149509    0.00027220    0.00242355
     atom   51 type  3   force =    -0.00122439   -0.00125454   -0.00016424
     atom   52 type  3   force =    -0.00026315    0.00067601    0.00010751
     atom   53 type  3   force =     0.00243653   -0.00005932   -0.00268268

     Total force =     0.368404     Total SCF correction =     0.000677
  @ DRIVER MODE: Message from server: STATUS
  @ DRIVER MODE: Message from server: GETFORCE
  @ DRIVER MODE: Returning v,forces,stress,ensemble

     Writing output data file ./calc.save/
  @ DRIVER MODE: Message from server: EXIT
  @ DRIVE MODE: Exiting

     General routines

     Parallel routines

   This run was terminated on:  22: 9:45   2Aug2021

   JOB DONE.