     Program PWSCF v.6.7GPU starts on 21Sep2021 at 20: 1:33

     R & G space division:  proc/nbgrp/npool/nimage =      10
     Reading input from /storage/home/hcoda1/3/ntian30/research/carbon/CxH_vib/CH3_calc/ads_slab/CH3ON2_a/out_0024/pw.inp
Warning: card &CELL ignored
Warning: card   CELL_DYNAMICS='IPI', ignored
Warning: card / ignored

     Current dimensions of program PWSCF are:
     Max number of different atomic species (ntypx) = 10
     Max number of k-points (npk) =  40000
     Max angular momentum in pseudopotentials (lmaxx) =  3
     Presently no symmetry can be used with electric field

     Message from routine cell_base_init:
     DEPRECATED: use true lattice parameter, not A to a.u. conversion factor

     IMPORTANT: XC functional enforced from input :
     Exchange-correlation= BEEF-VDW
                           (   1   4  43  14   2   0   0)
     Any further DFT definition will be discarded
     Please, verify this is what you really want

  @ DRIVER MODE: Connecting to
 qe_1139763_2922197.sched-torque.pace.gatech.edu7gp9ave7_scratch
  using UNIX socket
  @ DRIVER MODE: Message from server: STATUS
  @ DRIVER MODE: Message from server: INIT
  @ DRIVER MODE: Receiving replica           0          -1
  @ DRIVER MODE: Receiving encoded integer          25
  @ DRIVER MODE:  SCF:  T  FORCE:  T  STRESS:  F  VC:  F  ENSEMBLE:  F
  @ DRIVER MODE:  SCF:  T  FORCE:  T  STRESS:  F  VC:  F  ENSEMBLE:  F

     Using Slab Decomposition

     bravais-lattice index     =            0
     lattice parameter (alat)  =       1.8897  a.u.
     unit-cell volume          =    6658.9804 (a.u.)^3
     number of atoms/cell      =           54
     number of atomic types    =            5
     number of electrons       =       401.00
     number of Kohn-Sham states=          210
     kinetic-energy cutoff     =      29.3995  Ry
     charge density cutoff     =     293.9946  Ry
     scf convergence threshold =      7.3E-08
     mixing beta               =       0.0500
     number of iterations used =            8  plain     mixing
     Exchange-correlation= BEEF-VDW
                           (   1   4  43  14   2   0   0)

     celldm(1)=   1.889726  celldm(2)=   0.000000  celldm(3)=   0.000000
     celldm(4)=   0.000000  celldm(5)=   0.000000  celldm(6)=   0.000000

     crystal axes: (cart. coord. in units of alat)
               a(1) = (   6.579727   0.000000   0.000000 )
               a(2) = (  -0.000775   5.961596   0.000000 )
               a(3) = (   0.000000   0.000000  25.155947 )

     reciprocal axes: (cart. coord. in units 2 pi/alat)
               b(1) = (  0.151982  0.000020  0.000000 )
               b(2) = (  0.000000  0.167740  0.000000 )
               b(3) = (  0.000000  0.000000  0.039752 )

     PseudoPot. # 1 for Ti read from file:
     /storage/coda1/p-amedford6/0/shared/rich_project_chbe-medford/medford-share/data/pseudos_module/espresso/nninc/pbe/van/Ti.UPF
     MD5 check sum: 8e4df49b7f0d34bbd5052bf3f5ea0213
     Pseudo is Ultrasoft, Zval = 12.0
     Generated by new atomic code, or converted to UPF format
     Using radial grid of  851 points,  6 beta functions with:
                l(1) =   0
                l(2) =   0
                l(3) =   1
                l(4) =   1
                l(5) =   2
                l(6) =   2
     Q(r) pseudized with  8 coefficients,  rinner =    1.000   1.000   1.000
                                                       1.000   1.000

     PseudoPot. # 2 for O  read from file:
     /storage/coda1/p-amedford6/0/shared/rich_project_chbe-medford/medford-share/data/pseudos_module/espresso/nninc/pbe/van/O.UPF
     MD5 check sum: 78c19812648e8988a0fe644b0f25305e
     Pseudo is Ultrasoft, Zval =  6.0
     Generated by new atomic code, or converted to UPF format
     Using radial grid of  737 points,  4 beta functions with:
                l(1) =   0
                l(2) =   0
                l(3) =   1
                l(4) =   1
     Q(r) pseudized with  8 coefficients,  rinner =    0.800   0.800   0.800

     PseudoPot. # 3 for C  read from file:
     /storage/coda1/p-amedford6/0/shared/rich_project_chbe-medford/medford-share/data/pseudos_module/espresso/nninc/pbe/van/C.UPF
     MD5 check sum: 1a69bf6b8db32088f5b2163dbdb77a27
     Pseudo is Ultrasoft, Zval =  4.0
     Generated by new atomic code, or converted to UPF format
     Using radial grid of  721 points,  4 beta functions with:
                l(1) =   0
                l(2) =   0
                l(3) =   1
                l(4) =   1
     Q(r) pseudized with  8 coefficients,  rinner =    0.800   0.800   0.800

     PseudoPot. # 4 for H  read from file:
     /storage/coda1/p-amedford6/0/shared/rich_project_chbe-medford/medford-share/data/pseudos_module/espresso/nninc/pbe/van/H.UPF
     MD5 check sum: b5ee9d7bfd3a09ee7748110bda690ff7
     Pseudo is Ultrasoft, Zval =  1.0
     Generated by new atomic code, or converted to UPF format
     Using radial grid of  615 points,  1 beta functions with:
                l(1) =   0
     Q(r) pseudized with  8 coefficients,  rinner =    0.800

     PseudoPot. # 5 for N  read from file:
     /storage/coda1/p-amedford6/0/shared/rich_project_chbe-medford/medford-share/data/pseudos_module/espresso/nninc/pbe/van/N.UPF
     MD5 check sum: 90d10febe142ad51ac9d5be1deb811c4
     Pseudo is Ultrasoft, Zval =  5.0
     Generated by new atomic code, or converted to UPF format
     Using radial grid of  729 points,  4 beta functions with:
                l(1) =   0
                l(2) =   0
                l(3) =   1
                l(4) =   1
     Q(r) pseudized with  8 coefficients,  rinner =    0.800   0.800   0.800

     atomic species   valence    mass     pseudopotential
        Ti1           12.00    47.86700     Ti( 1.00)
        O1             6.00    15.99900     O ( 1.00)
        C1             4.00    12.01100     C ( 1.00)
        H1             1.00     1.00800     H ( 1.00)
        N1             5.00    14.00700     N ( 1.00)

     No symmetry found

   Cartesian axes

     site n.     atom                  positions (alat units)
         1           Ti1 tau(   1) = (   0.0004258   2.9801865   6.0000000  )
         2           Ti1 tau(   2) = (   3.2906075   1.4906267   6.0002472  )
         3           O1  tau(   3) = (   0.0006271   0.0005054   7.9858123  )
         4           O1  tau(   4) = (   3.2906025   0.0005020   7.3038282  )
         5           O1  tau(   5) = (   4.5942328   1.4918067   9.2879030  )
         6           O1  tau(   6) = (   1.9868534   1.4903216   9.2879459  )
         7           Ti1 tau(   7) = (   3.3204934   3.0328528   9.1574130  )
         8           Ti1 tau(   8) = (   0.0292148   1.6159158   9.3632543  )
         9           O1  tau(   9) = (   3.3070435   0.0102262  11.3480939  )
        10           O1  tau(  10) = (   0.0088878   0.0096727  10.6115680  )
        11           O1  tau(  11) = (   1.3030819   1.4981340  12.6442205  )
        12           O1  tau(  12) = (   5.3040506   1.5010416  12.6455732  )
        13           Ti1 tau(  13) = (   0.0403577   3.0063940  12.8112948  )
        14           Ti1 tau(  14) = (   3.3464846   1.5065728  12.4912112  )
        15           O1  tau(  15) = (   0.0134291   0.0009660  14.7247257  )
        16           O1  tau(  16) = (   3.3093041   0.0058478  13.9373560  )
        17           O1  tau(  17) = (   4.5500255   1.4945122  16.1009386  )
        18           O1  tau(  18) = (   2.0583445   1.4942802  16.1012567  )
        19           Ti1 tau(  19) = (   3.3037885   2.9813703  15.7231771  )
        20           Ti1 tau(  20) = (   0.0263689   1.3683668  16.1009981  )
        21           O1  tau(  21) = (   3.2904802   0.0005063   4.7018136  )
        22           O1  tau(  22) = (   0.0160251   5.9515368  17.2504238  )
        23           O1  tau(  23) = (   1.3043587   1.4918075   6.0039043  )
        24           O1  tau(  24) = (   5.2767064   1.4903225   6.0039473  )
        25           Ti1 tau(  25) = (   0.0000382   5.9609847   6.0000000  )
        26           Ti1 tau(  26) = (   3.2902200   4.4714249   6.0002472  )
        27           O1  tau(  27) = (   0.0002396   2.9813036   7.9858123  )
        28           O1  tau(  28) = (   3.2902150   2.9813002   7.3038282  )
        29           O1  tau(  29) = (   4.5938453   4.4726049   9.2879030  )
        30           O1  tau(  30) = (   1.9864658   4.4711199   9.2879459  )
        31           Ti1 tau(  31) = (   3.3068128   0.0556959   9.1539818  )
        32           Ti1 tau(  32) = (   0.0329352   4.5395830   9.2719105  )
        33           O1  tau(  33) = (   3.3067668   2.9902038  11.3487497  )
        34           O1  tau(  34) = (   0.0086428   2.9933526  10.5732881  )
        35           O1  tau(  35) = (   1.3040514   4.4849883  12.6410176  )
        36           O1  tau(  36) = (   5.3019722   4.4792838  12.6433842  )
        37           Ti1 tau(  37) = (   0.0449501   0.0247790  12.5283380  )
        38           Ti1 tau(  38) = (   3.3452221   4.4882979  12.4886840  )
        39           O1  tau(  39) = (   0.0326844   3.0101588  14.7024583  )
        40           O1  tau(  40) = (   3.3056340   2.9839048  13.9300935  )
        41           O1  tau(  41) = (   4.5482541   4.4683137  16.0944903  )
        42           O1  tau(  42) = (   2.0564524   4.4684886  16.0889558  )
        43           Ti1 tau(  43) = (   3.3155465   0.0028818  15.7289974  )
        44           Ti1 tau(  44) = (   0.0293978   4.5260084  15.9878609  )
        45           O1  tau(  45) = (   3.2900926   2.9813045   4.7018136  )
        46           O1  tau(  46) = (   1.3039711   4.4726057   6.0039043  )
        47           O1  tau(  47) = (   5.2763189   4.4711207   6.0039473  )
        48           C1  tau(  48) = (   6.0941187   3.0165090  18.6783144  )
        49           O1  tau(  49) = (   6.5649259   2.9843894  17.3344459  )
        50           H1  tau(  50) = (   5.0084317   2.8724860  18.7083625  )
        51           H1  tau(  51) = (   6.5664557   2.2147430  19.2606469  )
        52           H1  tau(  52) = (   6.3318479   3.9831036  19.1258517  )
        53           N1  tau(  53) = (   6.0286935   3.0693532  22.8641725  )
        54           N1  tau(  54) = (   5.2900788   3.1330812  22.0463807  )

     number of k points=    10  Fermi-Dirac smearing, width (Ry)=  0.0073
                       cart. coord. in units 2pi/alat
        k(    1) = (   0.0000000   0.0000000   0.0000000), wk =   0.1250000
        k(    2) = (   0.0000000   0.0419351   0.0000000), wk =   0.2500000
        k(    3) = (   0.0000000  -0.0838702   0.0000000), wk =   0.1250000
        k(    4) = (   0.0379955   0.0000049   0.0000000), wk =   0.2500000
        k(    5) = (   0.0379955   0.0419400   0.0000000), wk =   0.2500000
        k(    6) = (   0.0379955  -0.0838652   0.0000000), wk =   0.2500000
        k(    7) = (   0.0379955  -0.0419301   0.0000000), wk =   0.2500000
        k(    8) = (  -0.0759910  -0.0000099   0.0000000), wk =   0.1250000
        k(    9) = (  -0.0759910   0.0419252   0.0000000), wk =   0.2500000
        k(   10) = (  -0.0759910  -0.0838800   0.0000000), wk =   0.1250000

     Initial potential from superposition of free atoms

     starting charge  384.99916, renormalised to  401.00000

     negative rho (up, down):  1.014E-02 0.000E+00

     %%%%%%%%%%%%%%%%%%%%%%%%%%%%%%%%%%%%%%%%%%%%%%%%%%%%%%%%%%%%%%%%%%%%%%%%
     %                                                                      %
     % You are using vdW-DF, which was implemented by the Thonhauser group. %
     % Please cite the following two papers that made this development      %
     % possible and the two reviews that describe the various versions:     %
     %                                                                      %
     %   T. Thonhauser et al., PRL 115, 136402 (2015).                      %
     %   T. Thonhauser et al., PRB 76, 125112 (2007).                       %
     %   K. Berland et al., Rep. Prog. Phys. 78, 066501 (2015).             %
     %   D.C. Langreth et al., J. Phys.: Condens. Matter 21, 084203 (2009). %
     %                                                                      %
     %                                                                      %
     % If you are calculating the stress with vdW-DF, please also cite:     %
     %                                                                      %
     %   R. Sabatini et al., J. Phys.: Condens. Matter 24, 424209 (2012).   %
     %                                                                      %
     %%%%%%%%%%%%%%%%%%%%%%%%%%%%%%%%%%%%%%%%%%%%%%%%%%%%%%%%%%%%%%%%%%%%%%%%

     Adding external electric field

     Computed dipole along edir(3) :
        Dipole              -14.4692 Ry au,        -36.7771 Debye
        Dipole field         -0.0273 Ry au,

        Potential amp.        2.5312 Ry
        Total length         46.3494 bohr

     Starting wfcs are  303 atomic wfcs
  @ DRIVER MODE: Message from server: STATUS
  @ DRIVER MODE: Message from server: POSDATA
  @ DRIVER MODE: Reading and sharing cell
  @ DRIVER MODE: Reading and sharing positions
  @ DRIVER MODE: Received positions

     Self-consistent Calculation

     iteration #  1     ecut=    29.40 Ry     beta= 0.05
     Davidson diagonalization with overlap
     c_bands:  3 eigenvalues not converged
     c_bands:  3 eigenvalues not converged
     c_bands:  4 eigenvalues not converged
     c_bands:  3 eigenvalues not converged
     c_bands:  5 eigenvalues not converged
     c_bands:  3 eigenvalues not converged
     c_bands:  5 eigenvalues not converged
     c_bands:  3 eigenvalues not converged
     c_bands:  3 eigenvalues not converged
     c_bands:  1 eigenvalues not converged
     ethr =  1.00E-05,  avg # of iterations = 24.0

[...]

     total energy              =   -2414.29032604 Ry
     estimated scf accuracy    <    6341.52429136 Ry

     iteration #  2     ecut=    29.40 Ry     beta= 0.05
     Davidson diagonalization with overlap
     ethr =  1.00E-02,  avg # of iterations = 24.5

[...]

     iteration # 58     ecut=    29.40 Ry     beta= 0.05
     Davidson diagonalization with overlap
     c_bands:  1 eigenvalues not converged
     ethr =  2.84E-07,  avg # of iterations = 13.7

[...]

     total energy              =   -2971.68368834 Ry
     estimated scf accuracy    <       0.00000009 Ry

     iteration # 81     ecut=    29.40 Ry     beta= 0.05
     Davidson diagonalization with overlap
     ethr =  2.27E-11,  avg # of iterations =  6.0

     negative rho (up, down):  1.202E-02 0.000E+00

     Adding external electric field

     Computed dipole along edir(3) :
        Dipole                0.7551 Ry au,          1.9194 Debye
        Dipole field          0.0014 Ry au,

        Potential amp.       -0.1321 Ry
        Total length         46.3494 bohr

     End of self-consistent calculation

          k = 0.0000 0.0000 0.0000 ( 18029 PWs)   bands (ev):

   -55.6092 -55.5944 -55.5726 -55.5582 -55.5039 -55.4933 -55.4698 -55.4419
   -55.4355 -55.3815 -55.3721 -55.3658 -55.3320 -55.2528 -54.6230 -54.5889
   -32.1604 -32.0771 -32.0126 -31.9584 -31.9284 -31.9089 -31.9004 -31.8778
   -31.8452 -31.8335 -31.8152 -31.8100 -31.8079 -31.7758 -31.7695 -31.7537
   -31.7476 -31.7399 -31.7282 -31.6995 -31.6983 -31.6742 -31.6715 -31.6586
   -31.6498 -31.6483 -31.6258 -31.6190 -31.6100 -31.5977 -31.5902 -31.5901
   -31.5846 -31.5675 -31.5472 -31.5400 -31.5356 -31.5100 -31.4767 -31.4695
   -31.4480 -31.4411 -31.0328 -30.9356 -30.9133 -30.8494 -30.7634 -30.6522
   -21.1860 -17.3497 -16.3466 -16.0539 -15.8914 -15.7576 -15.7272 -15.6230
   -15.4332 -15.2952 -15.2762 -15.2134 -15.1757 -15.1642 -15.1351 -15.1305
   -15.1179 -15.1149 -15.0654 -15.0338 -15.0300 -15.0122 -14.9885 -14.9268
   -14.8864 -14.8068 -14.7592 -14.7275 -14.6711 -14.6095 -14.5934 -13.1239
   -13.0057  -9.1671  -6.3527  -4.3281  -4.3086  -4.0655  -3.8023  -3.7062
    -3.5350  -3.5249  -3.4983  -3.4741  -3.4123  -3.1653  -3.1485  -3.0473
    -2.8306  -2.7725  -2.7487  -2.7338  -2.7286  -2.4851  -2.4663  -2.4361
    -2.4260  -2.4162  -2.3896  -2.3630  -2.3595  -2.3280  -2.3099  -2.2182
    -2.1384  -2.1271  -2.0209  -1.9846  -1.9581  -1.9104  -1.8800  -1.8646
    -1.8481  -1.8204  -1.8066  -1.7772  -1.7742  -1.6762  -1.5511  -1.4392
    -1.4091  -1.3707  -1.3087  -1.1034  -1.0546  -1.0232  -1.0102  -0.9522
    -0.9262  -0.9172  -0.8394  -0.8068  -0.7853  -0.6778  -0.6157  -0.5896
    -0.5663  -0.5032  -0.4708  -0.4247  -0.3479  -0.3326  -0.3195  -0.1009
    -0.0798  -0.0702  -0.0609   0.0533   0.1038   0.1623   0.1738   0.1826
     0.2130   0.2941   0.3458   0.3649   0.3853   0.4065   0.4443   0.5175
     0.5440   0.5712   0.5965   0.6242   0.7151   0.7659   0.9070   1.0370
     1.0609   1.1584   1.3044   1.4010   1.4751   1.5718   1.9901   2.0494
     3.5782   3.6059   3.6391   3.6687   3.7313   3.8452   3.9645   4.0138
     4.0368   4.0607

[...]

          k = 0.0380-0.0419 0.0000 ( 17876 PWs)   bands (ev):

[...]

          k =-0.0760-0.0000 0.0000 ( 17886 PWs)   bands (ev):

[...]

          k =-0.0760-0.0839 0.0000 ( 17948 PWs)   bands (ev):

   -55.5977 -55.5841 -55.5772 -55.5752 -55.5013 -55.4876 -55.4533 -55.4520
   -55.4477 -55.3787 -55.3743 -55.3512 -55.3468 -55.2551 -54.6065 -54.6053
   -31.9647 -31.9592 -31.9128 -31.9006 -31.8896 -31.8861 -31.8681 -31.8637
   -31.8601 -31.8186 -31.7959 -31.7902 -31.7889 -31.7505 -31.7399 -31.7343
   -31.7244 -31.7239 -31.7201 -31.7150 -31.7115 -31.6943 -31.6894 -31.6839
   -31.6795 -31.6734 -31.6667 -31.6557 -31.6554 -31.6509 -31.6270 -31.6035
   -31.6028 -31.6000 -31.5945 -31.5778 -31.5726 -31.5620 -31.5558 -31.5452
   -31.4851 -31.4494 -30.9266 -30.9252 -30.8462 -30.8453 -30.8070 -30.8059
   -21.1859 -17.3133 -15.7837 -15.7727 -15.5289 -15.5268 -15.5244 -15.4558
   -15.3644 -15.3473 -15.3289 -15.3244 -15.2665 -15.2592 -15.2447 -15.1846
   -15.1449 -15.1258 -15.1137 -15.1113 -15.0585 -15.0543 -15.0017 -14.9794
   -14.9643 -14.9573 -14.9398 -14.9331 -14.8436 -14.8396 -14.7681 -13.1081
   -13.1058  -9.1678  -6.3532  -4.3256  -4.3156  -3.9415  -3.7699  -3.5306
    -3.0760  -3.0620  -3.0382  -2.7701  -2.7458  -2.7440  -2.6502  -2.5629
    -2.5242  -2.4869  -2.4490  -2.4457  -2.4444  -2.4255  -2.4063  -2.3943
    -2.3723  -2.3580  -2.3466  -2.2869  -2.2505  -2.2421  -2.2376  -2.2292
    -2.2016  -2.1819  -2.1604  -2.1544  -2.1442  -2.1241  -2.0308  -1.8917
    -1.8578  -1.7483  -1.7383  -1.7082  -1.6940  -1.6624  -1.6551  -1.6358
    -1.5291  -1.4595  -1.3381  -1.3256  -1.3077  -1.2557  -1.1858  -1.1126
    -1.0557  -1.0246  -1.0063  -0.9160  -0.9038  -0.8253  -0.8136  -0.7612
    -0.7238  -0.7070  -0.6147  -0.5763  -0.5629  -0.5484  -0.4802  -0.4639
    -0.4366  -0.4057  -0.3466  -0.3369  -0.2625  -0.2310  -0.1828  -0.1219
    -0.1003  -0.0479   0.0399   0.2085   0.3017   0.4014   0.4373   0.4960
     0.5088   0.6050   0.6487   0.6668   0.6720   0.7559   0.8224   0.8496
     0.9166   0.9311   0.9537   1.0168   1.7610   1.7624   1.8527   1.8629
     3.7838   3.8119   3.8319   3.8785   4.0376   4.0423   4.0614   4.0648
     4.1403   4.2033

     the Fermi energy is     3.5460 ev

!    total energy              =   -2971.68369363 Ry
     estimated scf accuracy    <       0.00000003 Ry
     smearing contrib. (-TS)   =      -0.02320957 Ry
     internal energy E=F+TS    =   -2971.66048406 Ry

     The total energy is F=E-TS. E is the sum of the following terms:
     one-electron contribution =  -22784.98851114 Ry
     hartree contribution      =   11484.45771530 Ry
     xc contribution           =    -492.26524858 Ry
     ewald contribution        =    8821.13448428 Ry
     electric field correction =       0.00107609 Ry

     convergence has been achieved in  81 iterations

     Forces acting on atoms (cartesian axes, Ry/au):

     atom    1 type  1   force =    -0.00021105   -0.00154700    0.10614388
     atom    2 type  1   force =    -0.00045081    0.00047649   -0.17981154
     atom    3 type  2   force =     0.00026684   -0.00690083   -0.03318437
     atom    4 type  2   force =     0.00053889    0.00050949    0.04562948
     atom    5 type  2   force =    -0.01839461    0.00015750    0.00399579
     atom    6 type  2   force =     0.02060827   -0.00127814    0.00459041
     atom    7 type  1   force =    -0.00033534   -0.00019714    0.00005525
     atom    8 type  1   force =    -0.00017950   -0.00127108    0.00018579
     atom    9 type  2   force =     0.00001192    0.00011397   -0.00078252
     atom   10 type  2   force =    -0.00005612    0.00002711   -0.00042893
     atom   11 type  2   force =     0.00005169    0.00007828    0.00041546
     atom   12 type  2   force =    -0.00071453    0.00015171    0.00037889
     atom   13 type  1   force =    -0.00000005    0.00042812    0.00051782
     atom   14 type  1   force =    -0.00014427    0.00087928    0.00021110
     atom   15 type  2   force =    -0.00044242   -0.00032595    0.00004972
     atom   16 type  2   force =    -0.00019081    0.00013448   -0.00072619
     atom   17 type  2   force =    -0.00038249    0.00006916    0.00012302
     atom   18 type  2   force =     0.00037620   -0.00009463   -0.00047557
     atom   19 type  1   force =    -0.00004066    0.00070468   -0.00053511
     atom   20 type  1   force =    -0.00027654   -0.00003919   -0.00033185
     atom   21 type  2   force =    -0.00006682    0.00009814    0.10415194
     atom   22 type  2   force =    -0.00008228   -0.00047530   -0.00082423
     atom   23 type  2   force =    -0.06900809    0.00067682   -0.02953921
     atom   24 type  2   force =     0.06866415    0.00115356   -0.02959925
     atom   25 type  1   force =    -0.00012855    0.00147293    0.11714852
     atom   26 type  1   force =    -0.00022391   -0.00000141   -0.17988444
     atom   27 type  2   force =     0.00042461    0.00389450   -0.02757747
     atom   28 type  2   force =     0.00072583    0.00077646    0.04707524
     atom   29 type  2   force =    -0.01717436    0.00152030    0.00337948
     atom   30 type  2   force =     0.01882245    0.00099777    0.00379760
     atom   31 type  1   force =    -0.00038175    0.00044413   -0.00030881
     atom   32 type  1   force =    -0.00022740    0.00075956    0.00039184
     atom   33 type  2   force =    -0.00028482   -0.00010291   -0.00019000
     atom   34 type  2   force =    -0.00003271    0.00048451    0.00030044
     atom   35 type  2   force =    -0.00004671    0.00005768    0.00054257
     atom   36 type  2   force =    -0.00067865   -0.00006112    0.00042247
     atom   37 type  1   force =    -0.00005369   -0.00016802    0.00008250
     atom   38 type  1   force =    -0.00007235   -0.00115030    0.00009769
     atom   39 type  2   force =    -0.00022424    0.00001588    0.00050724
     atom   40 type  2   force =    -0.00022397    0.00019972    0.00071064
     atom   41 type  2   force =    -0.00090990   -0.00040269   -0.00022230
     atom   42 type  2   force =     0.00078493   -0.00016446   -0.00004120
     atom   43 type  1   force =     0.00021577   -0.00086063    0.00028603
     atom   44 type  1   force =     0.00002098    0.00131573   -0.00023868
     atom   45 type  2   force =    -0.00006453    0.00007182    0.10420889
     atom   46 type  2   force =    -0.06859282   -0.00128464   -0.02958411
     atom   47 type  2   force =     0.06835006   -0.00086080   -0.02966873
     atom   48 type  3   force =     0.00217486   -0.00383311    0.00345468
     atom   49 type  2   force =     0.00006791   -0.00040018    0.00147954
     atom   50 type  4   force =     0.00023975   -0.00000982   -0.00041144
     atom   51 type  4   force =    -0.00211715    0.00369829   -0.00505113
     atom   52 type  4   force =     0.00020157    0.00016425   -0.00058292
     atom   53 type  5   force =     0.00056727    0.00001519    0.00078629
     atom   54 type  5   force =    -0.00070007   -0.00011818   -0.00112022

     Total force =     0.376242     Total SCF correction =     0.000489
  @ DRIVER MODE: Message from server: STATUS
  @ DRIVER MODE: Message from server: GETFORCE
  @ DRIVER MODE: Returning v,forces,stress,ensemble

     Writing output data file ./calc.save/
  @ DRIVER MODE: Message from server: EXIT
  @ DRIVE MODE: Exiting

     General routines

     Parallel routines

   This run was terminated on:  20:24: 5  21Sep2021

   JOB DONE.