     Program PWSCF v.6.7GPU starts on 18Jul2021 at  6:35:36

     R & G space division:  proc/nbgrp/npool/nimage =      16
     Reading input from /storage/home/hcoda1/3/ntian30/research/carbon/15Jul_vib/ads_slab/CH3NH2_a/out_0038/pw.inp
Warning: card &CELL ignored
Warning: card   CELL_DYNAMICS='IPI', ignored
Warning: card / ignored

     Current dimensions of program PWSCF are:
     Max number of different atomic species (ntypx) = 10
     Max number of k-points (npk) =  40000
     Max angular momentum in pseudopotentials (lmaxx) =  3
     Presently no symmetry can be used with electric field

     Message from routine cell_base_init:
     DEPRECATED: use true lattice parameter, not A to a.u. conversion factor

     IMPORTANT: XC functional enforced from input :
     Exchange-correlation= BEEF-VDW
                           (   1   4  43  14   2   0   0)
     Any further DFT definition will be discarded
     Please, verify this is what you really want

  @ DRIVER MODE: Connecting to
 qe_1139763_2351647.sched-torque.pace.gatech.edurcmy1fp8_scratch
  using UNIX socket
  @ DRIVER MODE: Message from server: STATUS
  @ DRIVER MODE: Message from server: INIT
  @ DRIVER MODE: Receiving replica           0          -1
  @ DRIVER MODE: Receiving encoded integer          25
  @ DRIVER MODE:  SCF:  T  FORCE:  T  STRESS:  F  VC:  F  ENSEMBLE:  F
  @ DRIVER MODE:  SCF:  T  FORCE:  T  STRESS:  F  VC:  F  ENSEMBLE:  F

     Using Slab Decomposition

     bravais-lattice index     =            0
     lattice parameter (alat)  =       1.8897  a.u.
     unit-cell volume          =    6658.9804 (a.u.)^3
     number of atoms/cell      =           54
     number of atomic types    =            5
     number of electrons       =       392.00
     number of Kohn-Sham states=          206
     kinetic-energy cutoff     =      29.3995  Ry
     charge density cutoff     =     293.9946  Ry
     scf convergence threshold =      7.3E-08
     mixing beta               =       0.0500
     number of iterations used =            8  plain     mixing
     Exchange-correlation= BEEF-VDW
                           (   1   4  43  14   2   0   0)

     celldm(1)=   1.889726  celldm(2)=   0.000000  celldm(3)=   0.000000
     celldm(4)=   0.000000  celldm(5)=   0.000000  celldm(6)=   0.000000

     crystal axes: (cart. coord. in units of alat)
               a(1) = (   6.579727   0.000000   0.000000 )
               a(2) = (  -0.000775   5.961596   0.000000 )
               a(3) = (   0.000000   0.000000  25.155947 )

     reciprocal axes: (cart. coord. in units 2 pi/alat)
               b(1) = (  0.151982  0.000020  0.000000 )
               b(2) = (  0.000000  0.167740  0.000000 )
               b(3) = (  0.000000  0.000000  0.039752 )

     PseudoPot. # 1 for Ti read from file:
     /storage/coda1/p-amedford6/0/shared/rich_project_chbe-medford/medford-share/data/pseudos_module/espresso/nninc/pbe/van/Ti.UPF
     MD5 check sum: 8e4df49b7f0d34bbd5052bf3f5ea0213
     Pseudo is Ultrasoft, Zval = 12.0
     Generated by new atomic code, or converted to UPF format
     Using radial grid of  851 points,  6 beta functions with:
                l(1) =   0
                l(2) =   0
                l(3) =   1
                l(4) =   1
                l(5) =   2
                l(6) =   2
     Q(r) pseudized with  8 coefficients,  rinner =    1.000   1.000   1.000
                                                       1.000   1.000

     PseudoPot. # 2 for O  read from file:
     /storage/coda1/p-amedford6/0/shared/rich_project_chbe-medford/medford-share/data/pseudos_module/espresso/nninc/pbe/van/O.UPF
     MD5 check sum: 78c19812648e8988a0fe644b0f25305e
     Pseudo is Ultrasoft, Zval =  6.0
     Generated by new atomic code, or converted to UPF format
     Using radial grid of  737 points,  4 beta functions with:
                l(1) =   0
                l(2) =   0
                l(3) =   1
                l(4) =   1
     Q(r) pseudized with  8 coefficients,  rinner =    0.800   0.800   0.800

     PseudoPot. # 3 for H  read from file:
     /storage/coda1/p-amedford6/0/shared/rich_project_chbe-medford/medford-share/data/pseudos_module/espresso/nninc/pbe/van/H.UPF
     MD5 check sum: b5ee9d7bfd3a09ee7748110bda690ff7
     Pseudo is Ultrasoft, Zval =  1.0
     Generated by new atomic code, or converted to UPF format
     Using radial grid of  615 points,  1 beta functions with:
                l(1) =   0
     Q(r) pseudized with  8 coefficients,  rinner =    0.800

     PseudoPot. # 4 for N  read from file:
     /storage/coda1/p-amedford6/0/shared/rich_project_chbe-medford/medford-share/data/pseudos_module/espresso/nninc/pbe/van/N.UPF
     MD5 check sum: 90d10febe142ad51ac9d5be1deb811c4
     Pseudo is Ultrasoft, Zval =  5.0
     Generated by new atomic code, or converted to UPF format
     Using radial grid of  729 points,  4 beta functions with:
                l(1) =   0
                l(2) =   0
                l(3) =   1
                l(4) =   1
     Q(r) pseudized with  8 coefficients,  rinner =    0.800   0.800   0.800

     PseudoPot. # 5 for C  read from file:
     /storage/coda1/p-amedford6/0/shared/rich_project_chbe-medford/medford-share/data/pseudos_module/espresso/nninc/pbe/van/C.UPF
     MD5 check sum: 1a69bf6b8db32088f5b2163dbdb77a27
     Pseudo is Ultrasoft, Zval =  4.0
     Generated by new atomic code, or converted to UPF format
     Using radial grid of  721 points,  4 beta functions with:
                l(1) =   0
                l(2) =   0
                l(3) =   1
                l(4) =   1
     Q(r) pseudized with  8 coefficients,  rinner =    0.800   0.800   0.800

     atomic species   valence    mass     pseudopotential
        Ti1           12.00    47.86700     Ti( 1.00)
        O1             6.00    15.99900     O ( 1.00)
        H1             1.00     1.00800     H ( 1.00)
        N1             5.00    14.00700     N ( 1.00)
        C1             4.00    12.01100     C ( 1.00)

     Starting magnetic structure
     atomic species   magnetization
        Ti1          0.000
        O1           0.000
        H1           0.000
        N1           0.000
        C1           0.025

     No symmetry found

   Cartesian axes

     site n.     atom                  positions (alat units)
         1           Ti1 tau(   1) = (   0.0004258   2.9801865   6.0000000  )
         2           Ti1 tau(   2) = (   3.2906075   1.4906267   6.0002472  )
         3           O1  tau(   3) = (   0.0006271   0.0005054   7.9858123  )
         4           O1  tau(   4) = (   3.2906025   0.0005020   7.3038282  )
         5           O1  tau(   5) = (   4.5942328   1.4918067   9.2879030  )
         6           O1  tau(   6) = (   1.9868534   1.4903216   9.2879459  )
         7           Ti1 tau(   7) = (   3.2907910   2.8959150   9.1758416  )
         8           Ti1 tau(   8) = (   0.0015273   1.4827037   9.2680791  )
         9           O1  tau(   9) = (   3.2764298   0.0032354  11.3770789  )
        10           O1  tau(  10) = (   0.0116148   5.9584955  10.6183126  )
        11           O1  tau(  11) = (   1.2747638   1.4931710  12.6971893  )
        12           O1  tau(  12) = (   5.2817712   1.4903522  12.6806618  )
        13           Ti1 tau(  13) = (   6.5676529   2.9732189  12.5062122  )
        14           Ti1 tau(  14) = (   3.2766800   1.4809802  12.5336434  )
        15           O1  tau(  15) = (   6.5470194   5.8867849  14.7036171  )
        16           O1  tau(  16) = (   3.2776651   5.9556151  14.0032320  )
        17           O1  tau(  17) = (   4.5091997   1.5331545  16.1660716  )
        18           O1  tau(  18) = (   1.9944719   1.5276542  16.1393230  )
        19           Ti1 tau(  19) = (   3.2573122   3.0077756  15.7593658  )
        20           Ti1 tau(  20) = (   6.5589466   1.3143649  15.8680718  )
        21           O1  tau(  21) = (   3.2904802   0.0005063   4.7018136  )
        22           O1  tau(  22) = (   6.5386106   0.1512346  17.2501133  )
        23           O1  tau(  23) = (   1.3043587   1.4918075   6.0039043  )
        24           O1  tau(  24) = (   5.2767064   1.4903225   6.0039473  )
        25           Ti1 tau(  25) = (   0.0000382   5.9609847   6.0000000  )
        26           Ti1 tau(  26) = (   3.2902200   4.4714249   6.0002472  )
        27           O1  tau(  27) = (   0.0002396   2.9813036   7.9858123  )
        28           O1  tau(  28) = (   3.2902150   2.9813002   7.3038282  )
        29           O1  tau(  29) = (   4.5938453   4.4726049   9.2879030  )
        30           O1  tau(  30) = (   1.9864658   4.4711199   9.2879459  )
        31           Ti1 tau(  31) = (   3.2891106   5.8743827   9.1763621  )
        32           Ti1 tau(  32) = (   0.0006254   4.4649316   9.2693709  )
        33           O1  tau(  33) = (   3.2800745   2.9703478  11.3709363  )
        34           O1  tau(  34) = (   0.0092240   2.9805883  10.6323155  )
        35           O1  tau(  35) = (   1.2777299   4.4606407  12.6608526  )
        36           O1  tau(  36) = (   5.2778393   4.4632610  12.6460003  )
        37           Ti1 tau(  37) = (   6.5690533   5.9429793  12.5031582  )
        38           Ti1 tau(  38) = (   3.2786254   4.4589551  12.5214668  )
        39           O1  tau(  39) = (   6.5354733   3.0384833  14.9766919  )
        40           O1  tau(  40) = (   3.2791638   3.0036098  13.9700814  )
        41           O1  tau(  41) = (   4.4983502   4.4848413  16.2456934  )
        42           O1  tau(  42) = (   1.9866127   4.4820094  16.2221982  )
        43           Ti1 tau(  43) = (   3.2666378   0.0261420  15.7997788  )
        44           Ti1 tau(  44) = (   6.5668271   4.5279224  16.0664899  )
        45           O1  tau(  45) = (   3.2900926   2.9813045   4.7018136  )
        46           O1  tau(  46) = (   1.3039711   4.4726057   6.0039043  )
        47           O1  tau(  47) = (   5.2763189   4.4711207   6.0039473  )
        48           H1  tau(  48) = (   5.7254277   4.1132278  18.4743583  )
        49           H1  tau(  49) = (   5.8544422   2.5125186  18.2095680  )
        50           N1  tau(  50) = (   6.3703568   3.3906518  18.1617682  )
        51           C1  tau(  51) = (   0.9530889   3.3347298  19.0741625  )
        52           H1  tau(  52) = (   1.4659278   4.2935310  19.0402106  )
        53           H1  tau(  53) = (   0.6569204   3.1189037  20.1036144  )
        54           H1  tau(  54) = (   1.6425849   2.5561260  18.7331930  )

     number of k points=    10  Fermi-Dirac smearing, width (Ry)=  0.0073
                       cart. coord. in units 2pi/alat
        k(    1) = (   0.0000000   0.0000000   0.0000000), wk =   0.0625000
        k(    2) = (   0.0000000   0.0419351   0.0000000), wk =   0.1250000
        k(    3) = (   0.0000000  -0.0838702   0.0000000), wk =   0.0625000
        k(    4) = (   0.0379955   0.0000049   0.0000000), wk =   0.1250000
        k(    5) = (   0.0379955   0.0419400   0.0000000), wk =   0.1250000
        k(    6) = (   0.0379955  -0.0838652   0.0000000), wk =   0.1250000
        k(    7) = (   0.0379955  -0.0419301   0.0000000), wk =   0.1250000
[...]
     % possible and the two reviews that describe the various versions:     %
     %                                                                      %
     %   T. Thonhauser et al., PRL 115, 136402 (2015).                      %
     %   T. Thonhauser et al., PRB 76, 125112 (2007).                       %
     %   K. Berland et al., Rep. Prog. Phys. 78, 066501 (2015).             %
     %   D.C. Langreth et al., J. Phys.: Condens. Matter 21, 084203 (2009). %
     %                                                                      %
     %                                                                      %
     % If you are calculating the stress with vdW-DF, please also cite:     %
     %                                                                      %
     %   R. Sabatini et al., J. Phys.: Condens. Matter 24, 424209 (2012).   %
     %                                                                      %
     %%%%%%%%%%%%%%%%%%%%%%%%%%%%%%%%%%%%%%%%%%%%%%%%%%%%%%%%%%%%%%%%%%%%%%%%

     Adding external electric field

     Computed dipole along edir(3) :
        Dipole               -7.5680 Ry au,        -19.2360 Debye
        Dipole field         -0.0143 Ry au,

        Potential amp.        1.3239 Ry
        Total length         46.3494 bohr

[...]

     Starting wfcs are  297 atomic wfcs
  @ DRIVER MODE: Message from server: STATUS
  @ DRIVER MODE: Message from server: POSDATA
  @ DRIVER MODE: Reading and sharing cell
  @ DRIVER MODE: Reading and sharing positions
  @ DRIVER MODE: Received positions

     Self-consistent Calculation

     iteration #  1     ecut=    29.40 Ry     beta= 0.05
     Davidson diagonalization with overlap
     c_bands:  1 eigenvalues not converged
     c_bands:  2 eigenvalues not converged
     c_bands:  2 eigenvalues not converged
     c_bands:  1 eigenvalues not converged
     c_bands:  1 eigenvalues not converged
     c_bands:  1 eigenvalues not converged
     c_bands:  1 eigenvalues not converged
     c_bands:  2 eigenvalues not converged
     c_bands:  1 eigenvalues not converged
     c_bands:  1 eigenvalues not converged
     c_bands:  1 eigenvalues not converged
     c_bands:  1 eigenvalues not converged
     ethr =  1.00E-05,  avg # of iterations = 19.6

[...]

     total energy              =   -2678.27972878 Ry
     estimated scf accuracy    <    2693.41934883 Ry

     total magnetization       =     0.00 Bohr mag/cell
     absolute magnetization    =     0.01 Bohr mag/cell

[...]

     iteration #  3     ecut=    29.40 Ry     beta= 0.05
     Davidson diagonalization with overlap
     ethr =  1.00E-02,  avg # of iterations = 15.1

[...]

     iteration #160     ecut=    29.40 Ry     beta= 0.05
     Davidson diagonalization with overlap
     ethr =  2.43E-11,  avg # of iterations =  5.2

[...]

     total energy              =   -2921.63343970 Ry
     estimated scf accuracy    <       0.00000008 Ry

[...]

     iteration #166     ecut=    29.40 Ry     beta= 0.05
     Davidson diagonalization with overlap
     c_bands:  4 eigenvalues not converged
     c_bands:  2 eigenvalues not converged
     c_bands:  2 eigenvalues not converged
     c_bands:  4 eigenvalues not converged
     c_bands:  4 eigenvalues not converged
     c_bands:  4 eigenvalues not converged
     c_bands:  2 eigenvalues not converged
     c_bands:  2 eigenvalues not converged
     c_bands:  4 eigenvalues not converged
     c_bands:  1 eigenvalues not converged
     c_bands:  4 eigenvalues not converged
     c_bands:  3 eigenvalues not converged
     c_bands:  4 eigenvalues not converged
     c_bands:  3 eigenvalues not converged
     c_bands:  3 eigenvalues not converged
     c_bands:  3 eigenvalues not converged
     ethr =  2.00E-11,  avg # of iterations = 20.9

     negative rho (up, down):  8.557E-03 8.554E-03

[...]

     Adding external electric field

     Computed dipole along edir(3) :
        Dipole                1.3072 Ry au,          3.3227 Debye
        Dipole field          0.0025 Ry au,

        Potential amp.       -0.2287 Ry
        Total length         46.3494 bohr

     Magnetic moment per site  (integrated on atomic sphere of radius R)
     atom   1 (R=0.738)  charge=  8.0465  magn= -0.0073
     atom   2 (R=0.738)  charge=  8.0283  magn= -0.0001
     atom   3 (R=0.738)  charge=  5.0153  magn=  0.0010
     atom   4 (R=0.738)  charge=  5.0522  magn=  0.0000
     atom   5 (R=0.738)  charge=  5.0214  magn=  0.0003
     atom   6 (R=0.738)  charge=  5.0219  magn=  0.0003
     atom   7 (R=0.738)  charge=  8.0284  magn= -0.0005
     atom   8 (R=0.738)  charge=  8.0296  magn= -0.0086
     atom   9 (R=0.738)  charge=  5.0288  magn=  0.0000
     atom  10 (R=0.738)  charge=  5.0292  magn=  0.0005
     atom  11 (R=0.738)  charge=  5.0169  magn=  0.0001
     atom  12 (R=0.738)  charge=  5.0160  magn=  0.0001
     atom  13 (R=0.738)  charge=  8.0365  magn= -0.0019
     atom  14 (R=0.738)  charge=  8.0338  magn= -0.0002
     atom  15 (R=0.738)  charge=  5.0279  magn=  0.0001
     atom  16 (R=0.738)  charge=  5.0249  magn= -0.0002
     atom  17 (R=0.738)  charge=  5.0031  magn= -0.0002
     atom  18 (R=0.738)  charge=  5.0056  magn= -0.0002
     atom  19 (R=0.738)  charge=  8.0663  magn=  0.0034
     atom  20 (R=0.738)  charge=  8.0804  magn=  0.0005
     atom  21 (R=0.738)  charge=  4.9003  magn= -0.0000
     atom  22 (R=0.738)  charge=  4.9790  magn= -0.0001
     atom  23 (R=0.738)  charge=  5.0126  magn=  0.0006
     atom  24 (R=0.738)  charge=  5.0127  magn=  0.0006
     atom  25 (R=0.738)  charge=  8.0466  magn= -0.0073
     atom  26 (R=0.738)  charge=  8.0283  magn= -0.0001
     atom  27 (R=0.738)  charge=  5.0151  magn=  0.0010
     atom  28 (R=0.738)  charge=  5.0525  magn=  0.0000
     atom  29 (R=0.738)  charge=  5.0223  magn=  0.0002
     atom  30 (R=0.738)  charge=  5.0226  magn=  0.0003
     atom  31 (R=0.738)  charge=  8.0286  magn= -0.0005
     atom  32 (R=0.738)  charge=  8.0297  magn= -0.0086
     atom  33 (R=0.738)  charge=  5.0280  magn=  0.0000
     atom  34 (R=0.738)  charge=  5.0267  magn=  0.0005
     atom  35 (R=0.738)  charge=  5.0201  magn=  0.0001
     atom  36 (R=0.738)  charge=  5.0197  magn=  0.0001
     atom  37 (R=0.738)  charge=  8.0323  magn= -0.0018
     atom  38 (R=0.738)  charge=  8.0345  magn= -0.0002
     atom  39 (R=0.738)  charge=  5.0089  magn= -0.0000
     atom  40 (R=0.738)  charge=  5.0372  magn= -0.0002
     atom  41 (R=0.738)  charge=  5.0005  magn= -0.0003
     atom  42 (R=0.738)  charge=  5.0042  magn= -0.0003
     atom  43 (R=0.738)  charge=  8.0647  magn=  0.0035
     atom  44 (R=0.738)  charge=  8.0445  magn=  0.0011
     atom  45 (R=0.738)  charge=  4.9003  magn=  0.0000
     atom  46 (R=0.738)  charge=  5.0126  magn=  0.0006
     atom  47 (R=0.738)  charge=  5.0127  magn=  0.0006
     atom  48 (R=0.420)  charge=  0.4509  magn=  0.0000
     atom  49 (R=0.420)  charge=  0.4507  magn= -0.0000
     atom  50 (R=0.420)  charge=  1.3397  magn= -0.0000
     atom  51 (R=0.449)  charge=  0.8447  magn=  0.0000
     atom  52 (R=0.420)  charge=  0.4445  magn= -0.0000
     atom  53 (R=0.420)  charge=  0.4464  magn= -0.0000
     atom  54 (R=0.420)  charge=  0.4407  magn= -0.0000

     End of self-consistent calculation

 ------ SPIN UP ------------

          k = 0.0000 0.0000 0.0000 ( 18029 PWs)   bands (ev):

   -55.4286 -55.3913 -55.3728 -55.3533 -55.3386 -55.3115 -55.3056 -55.2712
   -55.2483 -55.2346 -55.2139 -55.2026 -55.1689 -55.1001 -54.4091 -54.3750
   -31.9968 -31.8812 -31.8689 -31.7937 -31.7426 -31.7379 -31.7363 -31.7085
   -31.6677 -31.6603 -31.6376 -31.6372 -31.6162 -31.6134 -31.5971 -31.5926
   -31.5839 -31.5711 -31.5651 -31.5436 -31.5265 -31.5244 -31.5011 -31.4902
   -31.4826 -31.4791 -31.4728 -31.4509 -31.4355 -31.4288 -31.4262 -31.4082
   -31.4079 -31.4007 -31.3966 -31.3934 -31.3618 -31.3544 -31.3291 -31.3135
   -31.3067 -31.2888 -30.8185 -30.7239 -30.7019 -30.6346 -30.5478 -30.4371
   -16.2813 -16.1567 -15.9726 -15.8221 -15.7365 -15.6275 -15.5084 -15.4898
   -15.3580 -15.2802 -15.1545 -15.1284 -15.0999 -15.0834 -15.0727 -15.0595
   -14.9735 -14.9681 -14.9521 -14.9230 -14.9223 -14.8766 -14.8674 -14.8261
   -14.8033 -14.7931 -14.6775 -14.5883 -14.5153 -14.2720 -12.9115 -12.7940
   -10.2110  -6.2762  -4.8296  -3.9524  -3.5999  -3.4481  -3.3550  -3.3265
    -3.3196  -3.1831  -3.0318  -2.8756  -2.8340  -2.8216  -2.7124  -2.6386
    -2.6280  -2.6086  -2.4559  -2.4247  -2.3758  -2.3300  -2.2882  -2.2370
    -2.2192  -2.2094  -2.1936  -2.1702  -2.1596  -2.0509  -1.9951  -1.9094
    -1.8530  -1.8292  -1.7797  -1.7630  -1.7373  -1.7178  -1.7079  -1.6616
    -1.6367  -1.6220  -1.5686  -1.4555  -1.3511  -1.3011  -1.1819  -1.0660
    -1.0277  -1.0135  -0.9626  -0.9244  -0.9129  -0.8433  -0.8052  -0.7749
    -0.7137  -0.6594  -0.5908  -0.5421  -0.4753  -0.4594  -0.4159  -0.3533
    -0.2460  -0.2101  -0.1950  -0.1670  -0.0712  -0.0390   0.0109   0.0919
     0.0973   0.1105   0.2136   0.2284   0.3001   0.3492   0.3667   0.4530
     0.4871   0.5024   0.5060   0.5324   0.5565   0.6120   0.6452   0.6728
     0.7481   0.8716   1.0940   1.1641   1.1838   1.5091   1.5191   1.6139
     1.7972   2.1899   2.2384   3.6769   3.7403   3.8223   3.8239   3.8320
     3.9101   4.1444   4.1657   4.1785   4.1801   4.2010

[...]

          k =-0.0760-0.0000 0.0000 ( 17886 PWs)   bands (ev):

[...]

 ------ SPIN DOWN ----------

[...]

          k = 0.0380-0.0419 0.0000 ( 17876 PWs)   bands (ev):

[...]

          k =-0.0760-0.0839 0.0000 ( 17948 PWs)   bands (ev):

   -55.4153 -55.4051 -55.3680 -55.3674 -55.3500 -55.3013 -55.2923 -55.2906
   -55.2337 -55.2323 -55.2297 -55.2012 -55.2004 -55.1006 -54.3921 -54.3918
   -31.8042 -31.7987 -31.7969 -31.7090 -31.6891 -31.6887 -31.6864 -31.6603
   -31.6599 -31.6379 -31.6309 -31.6263 -31.6189 -31.5947 -31.5809 -31.5724
   -31.5666 -31.5626 -31.5623 -31.5538 -31.5514 -31.5513 -31.5131 -31.5103
   -31.5007 -31.4984 -31.4967 -31.4885 -31.4880 -31.4852 -31.4816 -31.4668
   -31.4629 -31.4470 -31.4431 -31.4301 -31.4271 -31.4197 -31.3830 -31.3824
   -31.3664 -31.3101 -30.7148 -30.7146 -30.6308 -30.6306 -30.5913 -30.5912
   -16.1292 -15.7636 -15.6765 -15.6288 -15.4648 -15.4319 -15.4114 -15.3942
   -15.2635 -15.2375 -15.2131 -15.1951 -15.1731 -15.1365 -15.1309 -15.1256
   -15.0494 -15.0333 -15.0286 -15.0105 -14.9476 -14.9380 -14.9349 -14.9277
   -14.8768 -14.8732 -14.8083 -14.7813 -14.7782 -14.5617 -12.8959 -12.8959
   -10.2149  -6.2483  -4.8254  -3.9157  -2.9458  -2.9024  -2.8812  -2.8771
    -2.6817  -2.6302  -2.5968  -2.5700  -2.4814  -2.4460  -2.4222  -2.4186
    -2.3471  -2.3294  -2.3122  -2.2706  -2.2639  -2.2493  -2.2268  -2.1902
    -2.1641  -2.1552  -2.1484  -2.1257  -2.0814  -2.0680  -2.0512  -2.0268
    -2.0230  -2.0126  -1.9845  -1.9368  -1.8104  -1.8012  -1.7265  -1.6363
    -1.6314  -1.5556  -1.5395  -1.4920  -1.4750  -1.4613  -1.4194  -1.2354
    -1.1981  -1.1757  -1.1656  -1.0992  -1.0384  -1.0218  -0.9487  -0.9326
    -0.9163  -0.8076  -0.7606  -0.7495  -0.6576  -0.6470  -0.5690  -0.5098
    -0.4551  -0.4347  -0.3938  -0.3840  -0.3809  -0.3357  -0.3283  -0.2428
    -0.1987  -0.1627  -0.1492  -0.1157   0.0855   0.0911   0.1137   0.2573
     0.2892   0.4133   0.4456   0.4984   0.5743   0.6077   0.6832   0.7179
     0.8507   0.8781   0.8790   0.9512   0.9604   1.0242   1.0339   1.9698
     1.9705   2.0578   2.0579   3.8283   3.9117   3.9315   3.9710   4.0865
     4.1608   4.1819   4.2043   4.2523   4.2555   4.3134

     the Fermi energy is     3.7333 ev

!    total energy              =   -2921.63344058 Ry
     estimated scf accuracy    <       0.00000006 Ry
     smearing contrib. (-TS)   =      -0.03704337 Ry
     internal energy E=F+TS    =   -2921.59639721 Ry

     The total energy is F=E-TS. E is the sum of the following terms:
     one-electron contribution =  -23999.82942066 Ry
     hartree contribution      =   12089.05901040 Ry
     xc contribution           =    -481.73177726 Ry
     ewald contribution        =    9470.90256543 Ry
     electric field correction =       0.00322488 Ry

     total magnetization       =    -0.04 Bohr mag/cell
     absolute magnetization    =     0.08 Bohr mag/cell

     convergence has been achieved in 166 iterations

     Forces acting on atoms (cartesian axes, Ry/au):

     atom    1 type  1   force =     0.00019457   -0.00022838    0.09321000
     atom    2 type  1   force =    -0.00003901   -0.00042182   -0.17833523
     atom    3 type  2   force =     0.00008031   -0.00040353   -0.02017216
     atom    4 type  2   force =     0.00001507   -0.00194852    0.05891219
     atom    5 type  2   force =    -0.01033532   -0.00094739    0.00824692
     atom    6 type  2   force =     0.01152193   -0.00018197    0.00658414
     atom    7 type  1   force =    -0.00062932    0.00206891   -0.01451548
     atom    8 type  1   force =     0.00067580   -0.00093625   -0.00514664
     atom    9 type  2   force =     0.00014012    0.00031675    0.00008336
     atom   10 type  2   force =    -0.00249151    0.00189034    0.00102141
     atom   11 type  2   force =    -0.00015489    0.00003923    0.00029898
     atom   12 type  2   force =     0.00001322    0.00030380    0.00018922
     atom   13 type  1   force =    -0.00002400    0.00006540    0.00005574
     atom   14 type  1   force =     0.00006092   -0.00003073    0.00012290
     atom   15 type  2   force =     0.00007155   -0.00019126   -0.00003498
     atom   16 type  2   force =     0.00034628    0.00000172   -0.00002341
     atom   17 type  2   force =     0.00008315   -0.00035757    0.00007495
     atom   18 type  2   force =     0.00008759   -0.00001281   -0.00005017
     atom   19 type  1   force =     0.00042819   -0.00003443    0.00044606
     atom   20 type  1   force =     0.00033355    0.00042988    0.00035594
     atom   21 type  2   force =     0.00014319   -0.00009127    0.10394854
     atom   22 type  2   force =     0.00010597    0.00059395    0.00051649
     atom   23 type  2   force =    -0.07031914   -0.00019048   -0.02691397
     atom   24 type  2   force =     0.07033318    0.00027029   -0.02694416
     atom   25 type  1   force =     0.00013734   -0.00018137    0.09280509
     atom   26 type  1   force =    -0.00005151   -0.00052965   -0.17837056
     atom   27 type  2   force =     0.00011682   -0.00025833   -0.01924418
     atom   28 type  2   force =     0.00008623   -0.00171207    0.05822666
     atom   29 type  2   force =    -0.01083320   -0.00099144    0.00882211
     atom   30 type  2   force =     0.01193956   -0.00068319    0.00714119
     atom   31 type  1   force =    -0.00065493    0.00610948   -0.01533955
     atom   32 type  1   force =     0.00081589    0.00035384   -0.00554685
     atom   33 type  2   force =    -0.00037780   -0.00032831    0.00017334
     atom   34 type  2   force =    -0.00223832   -0.00203921   -0.00000832
     atom   35 type  2   force =    -0.00072998    0.00026077    0.00035263
     atom   36 type  2   force =     0.00075856   -0.00010408   -0.00016869
     atom   37 type  1   force =     0.00003963    0.00021061    0.00001130
     atom   38 type  1   force =    -0.00029015    0.00023008    0.00049067
     atom   39 type  2   force =    -0.00038042   -0.00007291   -0.00002871
     atom   40 type  2   force =    -0.00006269   -0.00008652    0.00035021
     atom   41 type  2   force =    -0.00025765    0.00004810   -0.00009210
     atom   42 type  2   force =     0.00043784   -0.00017665   -0.00014100
     atom   43 type  1   force =    -0.00030120    0.00002179    0.00006560
     atom   44 type  1   force =     0.00047605   -0.00005030    0.00001432
     atom   45 type  2   force =     0.00012640   -0.00010876    0.10391299
     atom   46 type  2   force =    -0.07030188   -0.00012107   -0.02685876
     atom   47 type  2   force =     0.07029605    0.00029484   -0.02689340
     atom   48 type  3   force =     0.00025105   -0.00024069    0.00022123
     atom   49 type  3   force =     0.00059485    0.00073799   -0.00097265
     atom   50 type  4   force =     0.00023693   -0.00132286   -0.00031242
     atom   51 type  5   force =     0.00634218   -0.00365641   -0.00253416
     atom   52 type  3   force =    -0.00046557   -0.00004622    0.00014759
     atom   53 type  3   force =     0.00016322   -0.00022100   -0.00023176
     atom   54 type  3   force =    -0.00651471    0.00465970    0.00207750

     Total force =     0.366453     Total SCF correction =     0.000343
  @ DRIVER MODE: Message from server: STATUS
  @ DRIVER MODE: Message from server: GETFORCE
  @ DRIVER MODE: Returning v,forces,stress,ensemble

     Writing output data file ./calc.save/
  @ DRIVER MODE: Message from server: EXIT
  @ DRIVE MODE: Exiting

     General routines

     Parallel routines

   This run was terminated on:   7:56:35  18Jul2021

   JOB DONE.