     Program PWSCF v.6.7GPU starts on 23Sep2021 at  1:54:39

     R & G space division:  proc/nbgrp/npool/nimage =      10
     Reading input from /storage/home/hcoda1/3/ntian30/research/carbon/CxH_vib/H2O_calc/ads_slab/CH2NHNHO_a/out_0030/pw.inp
Warning: card &CELL ignored
Warning: card   CELL_DYNAMICS='IPI', ignored
Warning: card / ignored

     Current dimensions of program PWSCF are:
     Max number of different atomic species (ntypx) = 10
     Max number of k-points (npk) =  40000
     Max angular momentum in pseudopotentials (lmaxx) =  3
     Presently no symmetry can be used with electric field

     Message from routine cell_base_init:
     DEPRECATED: use true lattice parameter, not A to a.u. conversion factor

     IMPORTANT: XC functional enforced from input :
     Exchange-correlation= BEEF-VDW
                           (   1   4  43  14   2   0   0)
     Any further DFT definition will be discarded
     Please, verify this is what you really want

  @ DRIVER MODE: Connecting to
 qe_1139763_2937322.sched-torque.pace.gatech.edu1p6vpe1b_scratch
  using UNIX socket
  @ DRIVER MODE: Message from server: STATUS
  @ DRIVER MODE: Message from server: INIT
  @ DRIVER MODE: Receiving replica           0          -1
  @ DRIVER MODE: Receiving encoded integer          25
  @ DRIVER MODE:  SCF:  T  FORCE:  T  STRESS:  F  VC:  F  ENSEMBLE:  F
  @ DRIVER MODE:  SCF:  T  FORCE:  T  STRESS:  F  VC:  F  ENSEMBLE:  F

     Using Slab Decomposition

     bravais-lattice index     =            0
     lattice parameter (alat)  =       1.8897  a.u.
     unit-cell volume          =    6658.9804 (a.u.)^3
     number of atoms/cell      =           55
     number of atomic types    =            5
     number of electrons       =       402.00
     number of Kohn-Sham states=          211
     kinetic-energy cutoff     =      29.3995  Ry
     charge density cutoff     =     293.9946  Ry
     scf convergence threshold =      7.3E-08
     mixing beta               =       0.0500
     number of iterations used =            8  plain     mixing
     Exchange-correlation= BEEF-VDW
                           (   1   4  43  14   2   0   0)

     celldm(1)=   1.889726  celldm(2)=   0.000000  celldm(3)=   0.000000
     celldm(4)=   0.000000  celldm(5)=   0.000000  celldm(6)=   0.000000

     crystal axes: (cart. coord. in units of alat)
               a(1) = (   6.579727   0.000000   0.000000 )
               a(2) = (  -0.000775   5.961596   0.000000 )
               a(3) = (   0.000000   0.000000  25.155947 )

     reciprocal axes: (cart. coord. in units 2 pi/alat)
               b(1) = (  0.151982  0.000020  0.000000 )
               b(2) = (  0.000000  0.167740  0.000000 )
               b(3) = (  0.000000  0.000000  0.039752 )

     PseudoPot. # 1 for Ti read from file:
     /storage/coda1/p-amedford6/0/shared/rich_project_chbe-medford/medford-share/data/pseudos_module/espresso/nninc/pbe/van/Ti.UPF
     MD5 check sum: 8e4df49b7f0d34bbd5052bf3f5ea0213
     Pseudo is Ultrasoft, Zval = 12.0
     Generated by new atomic code, or converted to UPF format
     Using radial grid of  851 points,  6 beta functions with:
                l(1) =   0
                l(2) =   0
                l(3) =   1
                l(4) =   1
                l(5) =   2
                l(6) =   2
     Q(r) pseudized with  8 coefficients,  rinner =    1.000   1.000   1.000
                                                       1.000   1.000

     PseudoPot. # 2 for O  read from file:
     /storage/coda1/p-amedford6/0/shared/rich_project_chbe-medford/medford-share/data/pseudos_module/espresso/nninc/pbe/van/O.UPF
     MD5 check sum: 78c19812648e8988a0fe644b0f25305e
     Pseudo is Ultrasoft, Zval =  6.0
     Generated by new atomic code, or converted to UPF format
     Using radial grid of  737 points,  4 beta functions with:
                l(1) =   0
                l(2) =   0
                l(3) =   1
                l(4) =   1
     Q(r) pseudized with  8 coefficients,  rinner =    0.800   0.800   0.800

     PseudoPot. # 3 for N  read from file:
     /storage/coda1/p-amedford6/0/shared/rich_project_chbe-medford/medford-share/data/pseudos_module/espresso/nninc/pbe/van/N.UPF
     MD5 check sum: 90d10febe142ad51ac9d5be1deb811c4
     Pseudo is Ultrasoft, Zval =  5.0
     Generated by new atomic code, or converted to UPF format
     Using radial grid of  729 points,  4 beta functions with:
                l(1) =   0
                l(2) =   0
                l(3) =   1
                l(4) =   1
     Q(r) pseudized with  8 coefficients,  rinner =    0.800   0.800   0.800

     PseudoPot. # 4 for C  read from file:
     /storage/coda1/p-amedford6/0/shared/rich_project_chbe-medford/medford-share/data/pseudos_module/espresso/nninc/pbe/van/C.UPF
     MD5 check sum: 1a69bf6b8db32088f5b2163dbdb77a27
     Pseudo is Ultrasoft, Zval =  4.0
     Generated by new atomic code, or converted to UPF format
     Using radial grid of  721 points,  4 beta functions with:
                l(1) =   0
                l(2) =   0
                l(3) =   1
                l(4) =   1
     Q(r) pseudized with  8 coefficients,  rinner =    0.800   0.800   0.800

     PseudoPot. # 5 for H  read from file:
     /storage/coda1/p-amedford6/0/shared/rich_project_chbe-medford/medford-share/data/pseudos_module/espresso/nninc/pbe/van/H.UPF
     MD5 check sum: b5ee9d7bfd3a09ee7748110bda690ff7
     Pseudo is Ultrasoft, Zval =  1.0
     Generated by new atomic code, or converted to UPF format
     Using radial grid of  615 points,  1 beta functions with:
                l(1) =   0
     Q(r) pseudized with  8 coefficients,  rinner =    0.800

     atomic species   valence    mass     pseudopotential
        Ti1           12.00    47.86700     Ti( 1.00)
        O1             6.00    15.99900     O ( 1.00)
        N1             5.00    14.00700     N ( 1.00)
        C1             4.00    12.01100     C ( 1.00)
        H1             1.00     1.00800     H ( 1.00)

     No symmetry found

   Cartesian axes

     site n.     atom                  positions (alat units)
         1           Ti1 tau(   1) = (   0.0004258   2.9801865   6.0000000  )
         2           Ti1 tau(   2) = (   3.2906075   1.4906267   6.0002472  )
         3           O1  tau(   3) = (   0.0006271   0.0005054   7.9858123  )
         4           O1  tau(   4) = (   3.2906025   0.0005020   7.3038282  )
         5           O1  tau(   5) = (   4.5942328   1.4918067   9.2879030  )
         6           O1  tau(   6) = (   1.9868534   1.4903216   9.2879459  )
         7           Ti1 tau(   7) = (   3.2907910   2.8959150   9.1758416  )
         8           Ti1 tau(   8) = (   0.0015273   1.4827037   9.2680791  )
         9           O1  tau(   9) = (   3.2865774   0.0244666  11.2672233  )
        10           O1  tau(  10) = (   0.0116148   5.9584955  10.6183126  )
        11           O1  tau(  11) = (   1.2851059   1.4881214  12.6284388  )
        12           O1  tau(  12) = (   5.2821296   1.4859116  12.6239949  )
        13           Ti1 tau(  13) = (   6.5757640   3.1226837  12.6583379  )
        14           Ti1 tau(  14) = (   3.2808560   1.5553189  12.4169499  )
        15           O1  tau(  15) = (   6.5631415   0.0020138  14.6662933  )
        16           O1  tau(  16) = (   3.2768600   5.9282172  13.8639556  )
        17           O1  tau(  17) = (   4.5247100   1.5609280  15.9911388  )
        18           O1  tau(  18) = (   2.0319249   1.5505618  16.0334288  )
        19           Ti1 tau(  19) = (   3.2655126   3.0139642  15.6417618  )
        20           Ti1 tau(  20) = (   6.4701730   1.5779936  15.7979382  )
        21           O1  tau(  21) = (   3.2904802   0.0005063   4.7018136  )
        22           O1  tau(  22) = (   6.5470303   0.0764028  17.2486596  )
        23           O1  tau(  23) = (   1.3043587   1.4918075   6.0039043  )
        24           O1  tau(  24) = (   5.2767064   1.4903225   6.0039473  )
        25           Ti1 tau(  25) = (   0.0000382   5.9609847   6.0000000  )
        26           Ti1 tau(  26) = (   3.2902200   4.4714249   6.0002472  )
        27           O1  tau(  27) = (   0.0002396   2.9813036   7.9858123  )
        28           O1  tau(  28) = (   3.2902150   2.9813002   7.3038282  )
        29           O1  tau(  29) = (   4.5938453   4.4726049   9.2879030  )
        30           O1  tau(  30) = (   1.9864658   4.4711199   9.2879459  )
        31           Ti1 tau(  31) = (   3.2891106   5.8743827   9.1763621  )
        32           Ti1 tau(  32) = (   0.0006254   4.4649316   9.2693709  )
        33           O1  tau(  33) = (   3.2856154   2.9374191  11.2445503  )
        34           O1  tau(  34) = (   0.0092240   2.9805883  10.6323155  )
        35           O1  tau(  35) = (   1.2776263   4.4762221  12.6158080  )
        36           O1  tau(  36) = (   5.2889682   4.4773653  12.6103441  )
        37           Ti1 tau(  37) = (   6.5721904   0.1276321  12.6579576  )
        38           Ti1 tau(  38) = (   3.2825792   4.6513186  12.6446142  )
        39           O1  tau(  39) = (   6.5601178   2.9984380  14.6401328  )
        40           O1  tau(  40) = (   3.2784952   3.0022753  13.8540846  )
        41           O1  tau(  41) = (   4.5130724   4.4679886  16.1105769  )
        42           O1  tau(  42) = (   2.0068779   4.4712703  16.0772645  )
        43           Ti1 tau(  43) = (   3.1879138   0.0422448  16.2953621  )
        44           Ti1 tau(  44) = (   6.5239028   4.6756254  16.1574449  )
        45           O1  tau(  45) = (   3.2900926   2.9813045   4.7018136  )
        46           O1  tau(  46) = (   1.3039711   4.4726057   6.0039043  )
        47           O1  tau(  47) = (   5.2763189   4.4711207   6.0039473  )
        48           N1  tau(  48) = (   0.1470516   2.5879757  18.5611170  )
        49           N1  tau(  49) = (   6.5778558   2.9357776  17.3215245  )
        50           C1  tau(  50) = (   0.2601206   3.3452726  19.6311682  )
        51           H1  tau(  51) = (   0.3627438   2.8498571  20.5812141  )
        52           H1  tau(  52) = (   0.2464683   4.4174571  19.5260682  )
        53           H1  tau(  53) = (   0.1772712   1.5612145  18.6921905  )
        54           O1  tau(  54) = (   3.2326362   0.0923429  18.1472848  )
        55           H1  tau(  55) = (   3.6209404   5.2806276  18.5811828  )

     number of k points=    10  Fermi-Dirac smearing, width (Ry)=  0.0073
                       cart. coord. in units 2pi/alat
        k(    1) = (   0.0000000   0.0000000   0.0000000), wk =   0.1250000
        k(    2) = (   0.0000000   0.0419351   0.0000000), wk =   0.2500000
        k(    3) = (   0.0000000  -0.0838702   0.0000000), wk =   0.1250000
        k(    4) = (   0.0379955   0.0000049   0.0000000), wk =   0.2500000
        k(    5) = (   0.0379955   0.0419400   0.0000000), wk =   0.2500000
        k(    6) = (   0.0379955  -0.0838652   0.0000000), wk =   0.2500000
        k(    7) = (   0.0379955  -0.0419301   0.0000000), wk =   0.2500000
        k(    8) = (  -0.0759910  -0.0000099   0.0000000), wk =   0.1250000
        k(    9) = (  -0.0759910   0.0419252   0.0000000), wk =   0.2500000
        k(   10) = (  -0.0759910  -0.0838800   0.0000000), wk =   0.1250000

     Initial potential from superposition of free atoms

     starting charge  385.99915, renormalised to  402.00000

     negative rho (up, down):  1.462E-02 0.000E+00

     %%%%%%%%%%%%%%%%%%%%%%%%%%%%%%%%%%%%%%%%%%%%%%%%%%%%%%%%%%%%%%%%%%%%%%%%
     %                                                                      %
     % You are using vdW-DF, which was implemented by the Thonhauser group. %
     % Please cite the following two papers that made this development      %
     % possible and the two reviews that describe the various versions:     %
     %                                                                      %
     %   T. Thonhauser et al., PRL 115, 136402 (2015).                      %
     %   T. Thonhauser et al., PRB 76, 125112 (2007).                       %
     %   K. Berland et al., Rep. Prog. Phys. 78, 066501 (2015).             %
     %   D.C. Langreth et al., J. Phys.: Condens. Matter 21, 084203 (2009). %
     %                                                                      %
     %                                                                      %
     % If you are calculating the stress with vdW-DF, please also cite:     %
     %                                                                      %
     %   R. Sabatini et al., J. Phys.: Condens. Matter 24, 424209 (2012).   %
     %                                                                      %
     %%%%%%%%%%%%%%%%%%%%%%%%%%%%%%%%%%%%%%%%%%%%%%%%%%%%%%%%%%%%%%%%%%%%%%%%

     Adding external electric field

     Computed dipole along edir(3) :
        Dipole              -11.6298 Ry au,        -29.5601 Debye
        Dipole field         -0.0219 Ry au,

        Potential amp.        2.0345 Ry
        Total length         46.3494 bohr

     Starting wfcs are  304 atomic wfcs
  @ DRIVER MODE: Message from server: STATUS
  @ DRIVER MODE: Message from server: POSDATA
  @ DRIVER MODE: Reading and sharing cell
  @ DRIVER MODE: Reading and sharing positions
  @ DRIVER MODE: Received positions

     Self-consistent Calculation

     iteration #  1     ecut=    29.40 Ry     beta= 0.05
     Davidson diagonalization with overlap
     c_bands:  3 eigenvalues not converged
     c_bands:  2 eigenvalues not converged
     c_bands:  3 eigenvalues not converged
     c_bands:  4 eigenvalues not converged
     c_bands:  1 eigenvalues not converged
     c_bands:  4 eigenvalues not converged
     c_bands:  5 eigenvalues not converged
     c_bands:  5 eigenvalues not converged
     c_bands:  5 eigenvalues not converged
     ethr =  1.00E-05,  avg # of iterations = 23.9

[...]

     total energy              =   -2412.16024401 Ry
     estimated scf accuracy    <    6293.20193071 Ry

     iteration #  2     ecut=    29.40 Ry     beta= 0.05
     Davidson diagonalization with overlap
     ethr =  1.00E-02,  avg # of iterations = 23.1

[...]

     iteration # 53     ecut=    29.40 Ry     beta= 0.05
     Davidson diagonalization with overlap
     c_bands:  1 eigenvalues not converged
     c_bands:  1 eigenvalues not converged
     c_bands:  1 eigenvalues not converged
     c_bands:  1 eigenvalues not converged
     c_bands:  1 eigenvalues not converged
     c_bands:  2 eigenvalues not converged
     ethr =  1.54E-06,  avg # of iterations = 17.4

[...]

     total energy              =   -2972.74111572 Ry
     estimated scf accuracy    <       0.00000024 Ry

     iteration # 88     ecut=    29.40 Ry     beta= 0.05
     Davidson diagonalization with overlap
     ethr =  6.03E-11,  avg # of iterations =  5.0

     negative rho (up, down):  1.521E-02 0.000E+00

     Adding external electric field

     Computed dipole along edir(3) :
        Dipole                0.6665 Ry au,          1.6941 Debye
        Dipole field          0.0013 Ry au,

        Potential amp.       -0.1166 Ry
        Total length         46.3494 bohr

     End of self-consistent calculation

          k = 0.0000 0.0000 0.0000 ( 18029 PWs)   bands (ev):

   -56.5001 -56.4666 -55.7004 -55.6664 -55.4415 -55.3851 -55.1390 -55.1073
   -55.0885 -55.0546 -55.0340 -54.9829 -54.9792 -54.7866 -54.7539 -54.6416
   -32.9238 -32.7778 -32.7498 -32.6739 -32.5833 -32.5504 -32.1838 -31.9226
   -31.9217 -31.8918 -31.8405 -31.8359 -31.8163 -31.6707 -31.6626 -31.6155
   -31.5916 -31.5877 -31.5458 -31.5133 -31.4750 -31.4606 -31.4334 -31.4091
   -31.3727 -31.3715 -31.3679 -31.3570 -31.3052 -31.2953 -31.2723 -31.2493
   -31.2308 -31.2151 -31.2136 -31.2020 -31.1833 -31.1719 -31.1570 -31.1019
   -31.0465 -31.0260 -30.9969 -30.9850 -30.9696 -30.9184 -30.8566 -30.8321
   -18.6494 -16.6349 -16.1282 -16.0786 -15.8374 -15.7751 -15.7193 -15.7151
   -15.6696 -15.4286 -15.3908 -15.3577 -15.3140 -15.2171 -15.0869 -14.9902
   -14.7986 -14.7443 -14.7423 -14.7125 -14.6875 -14.6551 -14.6299 -14.5983
   -14.5940 -14.5610 -14.5057 -14.3339 -14.2686 -14.0588 -14.0440 -13.5861
   -13.4782 -12.4099  -8.5627  -6.0140  -4.5940  -4.2010  -3.6416  -3.6077
    -3.4301  -3.3430  -3.2494  -3.1673  -3.0634  -3.0416  -2.9620  -2.9224
    -2.9059  -2.8372  -2.8174  -2.6549  -2.6284  -2.6097  -2.5211  -2.4929
    -2.3304  -2.3061  -2.2240  -2.1509  -2.1310  -2.0738  -2.0610  -2.0007
    -1.9488  -1.9316  -1.8654  -1.8594  -1.8447  -1.7317  -1.7167  -1.6802
    -1.6325  -1.5717  -1.5613  -1.5073  -1.4226  -1.4090  -1.2759  -1.1924
    -1.1481  -1.1431  -1.1070  -1.0643  -1.0171  -0.8835  -0.8729  -0.7628
    -0.7430  -0.7412  -0.6735  -0.5771  -0.5557  -0.5231  -0.4474  -0.4111
    -0.3677  -0.3166  -0.2629  -0.1411  -0.1335  -0.1170  -0.0722  -0.0302
    -0.0150   0.0601   0.1509   0.1673   0.2727   0.2890   0.3371   0.4301
     0.5114   0.5216   0.5408   0.6022   0.6446   0.6793   0.7539   0.7727
     0.8136   0.8255   0.8746   0.9332   0.9605   1.0614   1.1086   1.1277
     1.1613   1.2094   1.2884   1.3716   1.4681   1.5098   1.5409   1.8116
     2.3276   2.7828   2.9454   3.2230   3.3344   3.6452   3.7699   3.7709
     3.7813   3.9850   4.1337

[...]

          k = 0.0380-0.0419 0.0000 ( 17876 PWs)   bands (ev):

[...]

          k =-0.0760-0.0000 0.0000 ( 17886 PWs)   bands (ev):

[...]

          k =-0.0760-0.0839 0.0000 ( 17948 PWs)   bands (ev):

   -56.4835 -56.4830 -55.6863 -55.6803 -55.4358 -55.3907 -55.1378 -55.1029
   -55.0717 -55.0713 -55.0381 -54.9821 -54.9797 -54.7879 -54.7516 -54.6437
   -32.7638 -32.7633 -32.7411 -32.7406 -32.6274 -32.6269 -32.0063 -32.0014
   -31.8812 -31.8757 -31.8707 -31.8608 -31.7430 -31.7082 -31.6641 -31.6572
   -31.6171 -31.6133 -31.4444 -31.4351 -31.4222 -31.4220 -31.3824 -31.3772
   -31.3617 -31.3536 -31.3408 -31.3216 -31.3001 -31.2933 -31.2926 -31.2745
   -31.2549 -31.2549 -31.2538 -31.2395 -31.2212 -31.1869 -31.1787 -31.1488
   -31.1340 -31.0504 -31.0061 -31.0010 -30.9861 -30.9482 -30.8711 -30.8587
   -18.6457 -16.0691 -16.0039 -16.0012 -15.9410 -15.9392 -15.7065 -15.7025
   -15.4666 -15.4384 -15.2801 -15.1870 -15.1691 -15.1073 -15.0692 -15.0171
   -14.9626 -14.9335 -14.8229 -14.7855 -14.7542 -14.7164 -14.6897 -14.6696
   -14.6093 -14.5729 -14.5491 -14.4501 -14.4262 -14.1913 -14.1824 -13.5824
   -13.5821 -12.4147  -8.5653  -6.0086  -4.5513  -3.6637  -3.3346  -3.0712
    -3.0668  -3.0615  -3.0565  -3.0044  -2.8172  -2.8136  -2.6604  -2.6269
    -2.6151  -2.5897  -2.5588  -2.4551  -2.3789  -2.3621  -2.3605  -2.3564
    -2.3072  -2.2991  -2.2478  -2.1695  -2.1065  -2.0980  -2.0639  -2.0022
    -1.9431  -1.8947  -1.8903  -1.8524  -1.8293  -1.7981  -1.7789  -1.7573
    -1.7125  -1.6290  -1.5049  -1.4292  -1.3977  -1.3806  -1.3425  -1.2955
    -1.2826  -1.2706  -1.2189  -1.2041  -1.1397  -1.1100  -1.0694  -0.9731
    -0.9134  -0.8822  -0.8576  -0.7530  -0.7139  -0.6392  -0.5941  -0.5596
    -0.5240  -0.5007  -0.4392  -0.4278  -0.3458  -0.2780  -0.2508  -0.1951
    -0.1814  -0.1693  -0.1516  -0.1067  -0.0011   0.0144   0.0478   0.1465
     0.2099   0.2823   0.3005   0.3922   0.4207   0.4917   0.6070   0.6451
     0.7144   0.7785   0.8523   0.9373   0.9853   1.0305   1.1365   1.2214
     1.2366   1.2838   1.3109   1.3159   1.3172   1.3700   1.3901   1.5179
     2.1638   3.3662   3.3679   3.4247   3.4294   3.7292   3.7344   3.8405
     3.8440   4.0940   4.1152

     the Fermi energy is     2.5939 ev

!    total energy              =   -2972.74112307 Ry
     estimated scf accuracy    <       0.00000005 Ry
     smearing contrib. (-TS)   =      -0.00419386 Ry
     internal energy E=F+TS    =   -2972.73692921 Ry

     The total energy is F=E-TS. E is the sum of the following terms:
     one-electron contribution =  -23699.58952984 Ry
     hartree contribution      =   11945.10527199 Ry
     xc contribution           =    -493.12313388 Ry
     ewald contribution        =    9274.86962421 Ry
     electric field correction =       0.00083832 Ry

     convergence has been achieved in  88 iterations

     Forces acting on atoms (cartesian axes, Ry/au):

     atom    1 type  1   force =     0.00016315   -0.00043503    0.12198064
     atom    2 type  1   force =    -0.00004605    0.00028413   -0.15640105
     atom    3 type  2   force =     0.00004685   -0.00047991   -0.06054401
     atom    4 type  2   force =     0.00005180    0.00071685    0.01973840
     atom    5 type  2   force =    -0.00084230   -0.00259463   -0.01519627
     atom    6 type  2   force =     0.00219566   -0.00198051   -0.01655544
     atom    7 type  1   force =    -0.00030022   -0.00091599    0.05417760
     atom    8 type  1   force =     0.00081790    0.00108147    0.09010280
     atom    9 type  2   force =    -0.00035931   -0.00027837    0.00006323
     atom   10 type  2   force =    -0.00296003    0.00316535   -0.05931142
     atom   11 type  2   force =    -0.00025957    0.00018195    0.00004893
     atom   12 type  2   force =    -0.00022334    0.00013276   -0.00038253
     atom   13 type  1   force =    -0.00052655    0.00039887    0.00035714
     atom   14 type  1   force =     0.00006596    0.00141376   -0.00109559
     atom   15 type  2   force =    -0.00002006   -0.00065729   -0.00147115
     atom   16 type  2   force =     0.00011602    0.00067774    0.00049620
     atom   17 type  2   force =    -0.00084196   -0.00042564   -0.00010249
     atom   18 type  2   force =     0.00045586    0.00011390   -0.00030635
     atom   19 type  1   force =     0.00005057    0.00124671   -0.00011956
     atom   20 type  1   force =     0.00008339    0.00042178    0.00034228
     atom   21 type  2   force =     0.00009447   -0.00002455    0.09828029
     atom   22 type  2   force =     0.00035309   -0.00045092    0.00024448
     atom   23 type  2   force =    -0.08164167   -0.00005088   -0.03247897
     atom   24 type  2   force =     0.08162621    0.00036805   -0.03250874
     atom   25 type  1   force =     0.00002850   -0.00028846    0.12166187
     atom   26 type  1   force =     0.00002611   -0.00154259   -0.15643415
     atom   27 type  2   force =     0.00012818    0.00021052   -0.05950462
     atom   28 type  2   force =     0.00005516    0.00039094    0.01460211
     atom   29 type  2   force =    -0.00455409    0.00218350   -0.01162846
     atom   30 type  2   force =     0.00588623    0.00263072   -0.01293721
     atom   31 type  1   force =    -0.00044090   -0.00214809    0.04017588
     atom   32 type  1   force =     0.00079275   -0.00224985    0.09112230
     atom   33 type  2   force =    -0.00012531    0.00037013    0.00008249
     atom   34 type  2   force =    -0.00234912    0.00049191   -0.06882388
     atom   35 type  2   force =    -0.00022922    0.00005384    0.00026277
     atom   36 type  2   force =     0.00060528   -0.00027227    0.00002402
     atom   37 type  1   force =    -0.00002897    0.00022172   -0.00069992
     atom   38 type  1   force =     0.00013624    0.00106636   -0.00046020
     atom   39 type  2   force =    -0.00048941   -0.00119386    0.00039269
     atom   40 type  2   force =    -0.00001645    0.00044689   -0.00012554
     atom   41 type  2   force =     0.00076185   -0.00041840   -0.00000518
     atom   42 type  2   force =    -0.00057022   -0.00069963   -0.00070997
     atom   43 type  1   force =    -0.00017130   -0.00128346    0.00008156
     atom   44 type  1   force =    -0.00011004   -0.00060761    0.00060986
     atom   45 type  2   force =     0.00009611    0.00008306    0.09808128
     atom   46 type  2   force =    -0.08159573   -0.00002938   -0.03247497
     atom   47 type  2   force =     0.08158091    0.00041359   -0.03249323
     atom   48 type  3   force =     0.00019490    0.00142845    0.00011841
     atom   49 type  3   force =    -0.00025155   -0.00147555    0.00023490
     atom   50 type  4   force =     0.00049887   -0.00160270    0.00228328
     atom   51 type  5   force =     0.00069728   -0.00043826   -0.00073500
     atom   52 type  5   force =     0.00038398    0.00003275   -0.00221951
     atom   53 type  5   force =     0.00007258    0.00133151    0.00018481
     atom   54 type  2   force =    -0.00049714    0.00102217   -0.00100515
     atom   55 type  5   force =     0.00138461   -0.00003752    0.00098036

     Total force =     0.408375     Total SCF correction =     0.000553
  @ DRIVER MODE: Message from server: STATUS
  @ DRIVER MODE: Message from server: GETFORCE
  @ DRIVER MODE: Returning v,forces,stress,ensemble

     Writing output data file ./calc.save/
  @ DRIVER MODE: Message from server: EXIT
  @ DRIVE MODE: Exiting

     General routines

     Parallel routines

   This run was terminated on:   2:18: 5  23Sep2021

   JOB DONE.