     Program PWSCF v.6.7GPU starts on 15Sep2021 at 18: 8:32

     R & G space division:  proc/nbgrp/npool/nimage =      10
     Reading input from /storage/home/hcoda1/3/ntian30/research/carbon/CxH_vib/H2O_calc/ads_slab/CH3NHNHH2O_a/out_0008/pw.inp
Warning: card &CELL ignored
Warning: card   CELL_DYNAMICS='IPI', ignored
Warning: card / ignored

     Current dimensions of program PWSCF are:
     Max number of different atomic species (ntypx) = 10
     Max number of k-points (npk) =  40000
     Max angular momentum in pseudopotentials (lmaxx) =  3
     Presently no symmetry can be used with electric field

     Message from routine cell_base_init:
     DEPRECATED: use true lattice parameter, not A to a.u. conversion factor

     IMPORTANT: XC functional enforced from input :
     Exchange-correlation= BEEF-VDW
                           (   1   4  43  14   2   0   0)
     Any further DFT definition will be discarded
     Please, verify this is what you really want

  @ DRIVER MODE: Connecting to
 qe_1139763_2852620.sched-torque.pace.gatech.edueqc6g_pw_scratch
  using UNIX socket
  @ DRIVER MODE: Message from server: STATUS
  @ DRIVER MODE: Message from server: INIT
  @ DRIVER MODE: Receiving replica           0          -1
  @ DRIVER MODE: Receiving encoded integer          25
  @ DRIVER MODE:  SCF:  T  FORCE:  T  STRESS:  F  VC:  F  ENSEMBLE:  F
  @ DRIVER MODE:  SCF:  T  FORCE:  T  STRESS:  F  VC:  F  ENSEMBLE:  F

     Using Slab Decomposition

     bravais-lattice index     =            0
     lattice parameter (alat)  =       1.8897  a.u.
     unit-cell volume          =    6658.9804 (a.u.)^3
     number of atoms/cell      =           58
     number of atomic types    =            5
     number of electrons       =       405.00
     number of Kohn-Sham states=          212
     kinetic-energy cutoff     =      29.3995  Ry
     charge density cutoff     =     293.9946  Ry
     scf convergence threshold =      7.3E-08
     mixing beta               =       0.0500
     number of iterations used =            8  plain     mixing
     Exchange-correlation= BEEF-VDW
                           (   1   4  43  14   2   0   0)

     celldm(1)=   1.889726  celldm(2)=   0.000000  celldm(3)=   0.000000
     celldm(4)=   0.000000  celldm(5)=   0.000000  celldm(6)=   0.000000

     crystal axes: (cart. coord. in units of alat)
               a(1) = (   6.579727   0.000000   0.000000 )
               a(2) = (  -0.000775   5.961596   0.000000 )
               a(3) = (   0.000000   0.000000  25.155947 )

     reciprocal axes: (cart. coord. in units 2 pi/alat)
               b(1) = (  0.151982  0.000020  0.000000 )
               b(2) = (  0.000000  0.167740  0.000000 )
               b(3) = (  0.000000  0.000000  0.039752 )

     PseudoPot. # 1 for Ti read from file:
     /storage/coda1/p-amedford6/0/shared/rich_project_chbe-medford/medford-share/data/pseudos_module/espresso/nninc/pbe/van/Ti.UPF
     MD5 check sum: 8e4df49b7f0d34bbd5052bf3f5ea0213
     Pseudo is Ultrasoft, Zval = 12.0
     Generated by new atomic code, or converted to UPF format
     Using radial grid of  851 points,  6 beta functions with:
                l(1) =   0
                l(2) =   0
                l(3) =   1
                l(4) =   1
                l(5) =   2
                l(6) =   2
     Q(r) pseudized with  8 coefficients,  rinner =    1.000   1.000   1.000
                                                       1.000   1.000

     PseudoPot. # 2 for O  read from file:
     /storage/coda1/p-amedford6/0/shared/rich_project_chbe-medford/medford-share/data/pseudos_module/espresso/nninc/pbe/van/O.UPF
     MD5 check sum: 78c19812648e8988a0fe644b0f25305e
     Pseudo is Ultrasoft, Zval =  6.0
     Generated by new atomic code, or converted to UPF format
     Using radial grid of  737 points,  4 beta functions with:
                l(1) =   0
                l(2) =   0
                l(3) =   1
                l(4) =   1
     Q(r) pseudized with  8 coefficients,  rinner =    0.800   0.800   0.800

     PseudoPot. # 3 for N  read from file:
     /storage/coda1/p-amedford6/0/shared/rich_project_chbe-medford/medford-share/data/pseudos_module/espresso/nninc/pbe/van/N.UPF
     MD5 check sum: 90d10febe142ad51ac9d5be1deb811c4
     Pseudo is Ultrasoft, Zval =  5.0
     Generated by new atomic code, or converted to UPF format
     Using radial grid of  729 points,  4 beta functions with:
                l(1) =   0
                l(2) =   0
                l(3) =   1
                l(4) =   1
     Q(r) pseudized with  8 coefficients,  rinner =    0.800   0.800   0.800

     PseudoPot. # 4 for C  read from file:
     /storage/coda1/p-amedford6/0/shared/rich_project_chbe-medford/medford-share/data/pseudos_module/espresso/nninc/pbe/van/C.UPF
     MD5 check sum: 1a69bf6b8db32088f5b2163dbdb77a27
     Pseudo is Ultrasoft, Zval =  4.0
     Generated by new atomic code, or converted to UPF format
     Using radial grid of  721 points,  4 beta functions with:
                l(1) =   0
                l(2) =   0
                l(3) =   1
                l(4) =   1
     Q(r) pseudized with  8 coefficients,  rinner =    0.800   0.800   0.800

     PseudoPot. # 5 for H  read from file:
     /storage/coda1/p-amedford6/0/shared/rich_project_chbe-medford/medford-share/data/pseudos_module/espresso/nninc/pbe/van/H.UPF
     MD5 check sum: b5ee9d7bfd3a09ee7748110bda690ff7
     Pseudo is Ultrasoft, Zval =  1.0
     Generated by new atomic code, or converted to UPF format
     Using radial grid of  615 points,  1 beta functions with:
                l(1) =   0
     Q(r) pseudized with  8 coefficients,  rinner =    0.800

     atomic species   valence    mass     pseudopotential
        Ti1           12.00    47.86700     Ti( 1.00)
        O1             6.00    15.99900     O ( 1.00)
        N1             5.00    14.00700     N ( 1.00)
        C1             4.00    12.01100     C ( 1.00)
        H1             1.00     1.00800     H ( 1.00)

     No symmetry found

   Cartesian axes

     site n.     atom                  positions (alat units)
         1           Ti1 tau(   1) = (   0.0004258   2.9801865   6.0000000  )
         2           Ti1 tau(   2) = (   3.2906075   1.4906267   6.0002472  )
         3           O1  tau(   3) = (   0.0006271   0.0005054   7.9858123  )
         4           O1  tau(   4) = (   3.2906025   0.0005020   7.3038282  )
         5           O1  tau(   5) = (   4.5942328   1.4918067   9.2879030  )
         6           O1  tau(   6) = (   1.9868534   1.4903216   9.2879459  )
         7           Ti1 tau(   7) = (   3.2907910   2.8959150   9.1758416  )
         8           Ti1 tau(   8) = (   0.0015273   1.4827037   9.2680791  )
         9           O1  tau(   9) = (   3.2925356   5.9605122  11.3387169  )
        10           O1  tau(  10) = (   0.0116148   5.9584955  10.6183126  )
        11           O1  tau(  11) = (   1.2897729   1.4809555  12.6268520  )
        12           O1  tau(  12) = (   5.2791511   1.4810064  12.6173870  )
        13           Ti1 tau(  13) = (   0.0595640   3.0140846  12.5912772  )
        14           Ti1 tau(  14) = (   3.3761946   1.4800080  12.4968112  )
        15           O1  tau(  15) = (   6.5629824   0.0009262  14.6613707  )
        16           O1  tau(  16) = (   3.3123588   5.9604043  13.9421911  )
        17           O1  tau(  17) = (   4.5376415   1.5680301  16.0260299  )
        18           O1  tau(  18) = (   2.0142527   1.4857506  15.9764776  )
        19           Ti1 tau(  19) = (   3.2467940   3.0138708  15.6952036  )
        20           Ti1 tau(  20) = (   6.5376764   1.5432071  15.7832198  )
        21           O1  tau(  21) = (   3.2904802   0.0005063   4.7018136  )
        22           O1  tau(  22) = (   6.4898080   0.0110182  17.2547379  )
        23           O1  tau(  23) = (   1.3043587   1.4918075   6.0039043  )
        24           O1  tau(  24) = (   5.2767064   1.4903225   6.0039473  )
        25           Ti1 tau(  25) = (   0.0000382   5.9609847   6.0000000  )
        26           Ti1 tau(  26) = (   3.2902200   4.4714249   6.0002472  )
        27           O1  tau(  27) = (   0.0002396   2.9813036   7.9858123  )
        28           O1  tau(  28) = (   3.2902150   2.9813002   7.3038282  )
        29           O1  tau(  29) = (   4.5938453   4.4726049   9.2879030  )
        30           O1  tau(  30) = (   1.9864658   4.4711199   9.2879459  )
        31           Ti1 tau(  31) = (   3.2891106   5.8743827   9.1763621  )
        32           Ti1 tau(  32) = (   0.0006254   4.4649316   9.2693709  )
        33           O1  tau(  33) = (   3.2967638   2.9790471  11.3409087  )
        34           O1  tau(  34) = (   0.0092240   2.9805883  10.6323155  )
        35           O1  tau(  35) = (   1.2869154   4.4778632  12.6304858  )
        36           O1  tau(  36) = (   5.2845859   4.4648683  12.6187650  )
        37           Ti1 tau(  37) = (   0.0627082   0.0241251  12.5486904  )
        38           Ti1 tau(  38) = (   3.3788516   4.4738568  12.4976958  )
        39           O1  tau(  39) = (   6.5772583   2.9562949  14.6416036  )
        40           O1  tau(  40) = (   3.2725681   2.9944745  13.9013672  )
        41           O1  tau(  41) = (   4.5452577   4.4055011  16.0651929  )
        42           O1  tau(  42) = (   2.0228361   4.5129635  16.0417754  )
        43           Ti1 tau(  43) = (   3.2583029   0.0391736  15.7773877  )
        44           Ti1 tau(  44) = (   6.5476622   4.6515957  16.1089089  )
        45           O1  tau(  45) = (   3.2900926   2.9813045   4.7018136  )
        46           O1  tau(  46) = (   1.3039711   4.4726057   6.0039043  )
        47           O1  tau(  47) = (   5.2763189   4.4711207   6.0039473  )
        48           N1  tau(  48) = (   1.2275869   2.8250850  18.3327965  )
        49           N1  tau(  49) = (   0.1107212   2.9268546  17.4424539  )
        50           C1  tau(  50) = (   0.9834745   3.5098297  19.5973225  )
        51           H1  tau(  51) = (   0.0800711   3.1483545  20.1177682  )
        52           H1  tau(  52) = (   1.8428167   3.3484677  20.2521386  )
        53           H1  tau(  53) = (   0.8645268   4.5787652  19.4145101  )
        54           H1  tau(  54) = (   1.4038961   1.8348574  18.5000659  )
        55           H1  tau(  55) = (   5.8167727   2.7947134  17.9807349  )
        56           O1  tau(  56) = (   3.6251350   0.0523402  18.1652986  )
        57           H1  tau(  57) = (   4.6063402   0.0342754  18.1216558  )
        58           H1  tau(  58) = (   3.3562690   5.1322054  18.4688733  )

     number of k points=    10  Fermi-Dirac smearing, width (Ry)=  0.0073
                       cart. coord. in units 2pi/alat
        k(    1) = (   0.0000000   0.0000000   0.0000000), wk =   0.1250000
        k(    2) = (   0.0000000   0.0419351   0.0000000), wk =   0.2500000
        k(    3) = (   0.0000000  -0.0838702   0.0000000), wk =   0.1250000
        k(    4) = (   0.0379955   0.0000049   0.0000000), wk =   0.2500000
        k(    5) = (   0.0379955   0.0419400   0.0000000), wk =   0.2500000
        k(    6) = (   0.0379955  -0.0838652   0.0000000), wk =   0.2500000
        k(    7) = (   0.0379955  -0.0419301   0.0000000), wk =   0.2500000
        k(    8) = (  -0.0759910  -0.0000099   0.0000000), wk =   0.1250000
        k(    9) = (  -0.0759910   0.0419252   0.0000000), wk =   0.2500000
        k(   10) = (  -0.0759910  -0.0838800   0.0000000), wk =   0.1250000

     Initial potential from superposition of free atoms

     starting charge  388.99913, renormalised to  405.00000

     negative rho (up, down):  1.444E-02 0.000E+00

     %%%%%%%%%%%%%%%%%%%%%%%%%%%%%%%%%%%%%%%%%%%%%%%%%%%%%%%%%%%%%%%%%%%%%%%%
     %                                                                      %
     % You are using vdW-DF, which was implemented by the Thonhauser group. %
     % Please cite the following two papers that made this development      %
     % possible and the two reviews that describe the various versions:     %
     %                                                                      %
     %   T. Thonhauser et al., PRL 115, 136402 (2015).                      %
     %   T. Thonhauser et al., PRB 76, 125112 (2007).                       %
     %   K. Berland et al., Rep. Prog. Phys. 78, 066501 (2015).             %
     %   D.C. Langreth et al., J. Phys.: Condens. Matter 21, 084203 (2009). %
     %                                                                      %
     %                                                                      %
     % If you are calculating the stress with vdW-DF, please also cite:     %
     %                                                                      %
     %   R. Sabatini et al., J. Phys.: Condens. Matter 24, 424209 (2012).   %
     %                                                                      %
     %%%%%%%%%%%%%%%%%%%%%%%%%%%%%%%%%%%%%%%%%%%%%%%%%%%%%%%%%%%%%%%%%%%%%%%%

     Adding external electric field

     Computed dipole along edir(3) :
        Dipole              -14.1501 Ry au,        -35.9660 Debye
        Dipole field         -0.0267 Ry au,

        Potential amp.        2.4753 Ry
        Total length         46.3494 bohr

     Starting wfcs are  307 atomic wfcs
  @ DRIVER MODE: Message from server: STATUS
  @ DRIVER MODE: Message from server: POSDATA
  @ DRIVER MODE: Reading and sharing cell
  @ DRIVER MODE: Reading and sharing positions
  @ DRIVER MODE: Received positions

     Self-consistent Calculation

     iteration #  1     ecut=    29.40 Ry     beta= 0.05
     Davidson diagonalization with overlap
     c_bands:  4 eigenvalues not converged
     c_bands:  1 eigenvalues not converged
     c_bands:  1 eigenvalues not converged
     c_bands:  3 eigenvalues not converged
     c_bands:  2 eigenvalues not converged
     ethr =  1.00E-05,  avg # of iterations = 29.5

[...]

     total energy              =   -2232.57039206 Ry
     estimated scf accuracy    <    8442.90436257 Ry

     iteration #  2     ecut=    29.40 Ry     beta= 0.05
     Davidson diagonalization with overlap
     ethr =  1.00E-02,  avg # of iterations = 29.8

[...]

     iteration # 46     ecut=    29.40 Ry     beta= 0.05
     Davidson diagonalization with overlap
     c_bands:  1 eigenvalues not converged
     c_bands:  1 eigenvalues not converged
     ethr =  8.14E-07,  avg # of iterations = 16.1

[...]

     total energy              =   -2976.50539043 Ry
     estimated scf accuracy    <       0.00000050 Ry

     iteration # 69     ecut=    29.40 Ry     beta= 0.05
     Davidson diagonalization with overlap
     ethr =  6.08E-11,  avg # of iterations = 10.5

     negative rho (up, down):  1.504E-02 0.000E+00

     Adding external electric field

     Computed dipole along edir(3) :
        Dipole                0.9855 Ry au,          2.5049 Debye
        Dipole field          0.0019 Ry au,

        Potential amp.       -0.1724 Ry
        Total length         46.3494 bohr

     End of self-consistent calculation

          k = 0.0000 0.0000 0.0000 ( 18029 PWs)   bands (ev):

   -55.5101 -55.4801 -55.4760 -55.4470 -55.4440 -55.3587 -55.3279 -55.3264
   -55.3236 -55.2939 -55.2930 -55.2594 -55.0504 -54.8850 -54.4931 -54.4591
   -32.0244 -31.9938 -31.8830 -31.8599 -31.8260 -31.8028 -31.7847 -31.7832
   -31.7548 -31.7116 -31.7004 -31.6808 -31.6776 -31.6622 -31.6571 -31.6353
   -31.6156 -31.6108 -31.6096 -31.5772 -31.5671 -31.5586 -31.5326 -31.5211
   -31.5181 -31.5166 -31.5132 -31.5074 -31.4926 -31.4841 -31.4813 -31.4714
   -31.4691 -31.4574 -31.4465 -31.4369 -31.4053 -31.3064 -31.2606 -31.1485
   -31.1404 -31.0756 -30.9004 -30.8116 -30.7892 -30.7171 -30.6306 -30.5195
   -18.7230 -16.6122 -16.2214 -15.9837 -15.7627 -15.6680 -15.6256 -15.4287
   -15.3343 -15.2495 -15.1295 -15.0783 -15.0523 -15.0447 -15.0313 -15.0063
   -14.9719 -14.9661 -14.9625 -14.9381 -14.9188 -14.8676 -14.8615 -14.8548
   -14.7614 -14.6976 -14.6625 -14.6492 -14.6396 -14.5740 -14.2026 -12.9952
   -12.8787 -11.6198  -8.8597  -6.4612  -5.1720  -4.2969  -3.7068  -3.5955
    -3.4670  -3.4189  -3.3717  -3.3441  -3.1508  -3.0942  -2.9425  -2.7712
    -2.6977  -2.6594  -2.6261  -2.5901  -2.5551  -2.4339  -2.4086  -2.3368
    -2.3193  -2.3084  -2.2762  -2.2663  -2.2512  -2.2353  -2.1571  -2.1486
    -2.0623  -1.9541  -1.9006  -1.8857  -1.8672  -1.8253  -1.7886  -1.7748
    -1.7619  -1.7437  -1.7301  -1.6924  -1.5769  -1.5263  -1.4476  -1.3675
    -1.2961  -1.2074  -1.1321  -1.1057  -1.0364  -1.0119  -0.9507  -0.9266
    -0.9152  -0.9056  -0.7886  -0.6812  -0.6632  -0.5916  -0.5312  -0.4548
    -0.4116  -0.3854  -0.3170  -0.2831  -0.2719  -0.2585  -0.2312  -0.2173
    -0.1599  -0.0143   0.0626   0.0812   0.1397   0.1807   0.2321   0.2574
     0.2852   0.3330   0.3645   0.4046   0.4542   0.4582   0.4700   0.4940
     0.5083   0.6673   0.7224   0.7553   0.7812   0.8298   0.9425   0.9854
     1.1392   1.2096   1.2724   1.4555   1.5295   1.6100   1.7210   2.0779
     2.1008   2.1467   3.6154   3.7078   3.7486   3.7699   3.8568   3.8594
     4.0705   4.1152   4.1232   4.1895

[...]

          k = 0.0380-0.0419 0.0000 ( 17876 PWs)   bands (ev):

[...]

          k =-0.0760-0.0000 0.0000 ( 17886 PWs)   bands (ev):

[...]

          k =-0.0760-0.0839 0.0000 ( 17948 PWs)   bands (ev):

   -55.4934 -55.4926 -55.4641 -55.4598 -55.4444 -55.3444 -55.3379 -55.3288
   -55.3108 -55.3104 -55.2774 -55.2753 -55.0489 -54.8864 -54.4761 -54.4760
   -31.8378 -31.8211 -31.8093 -31.8087 -31.7885 -31.7877 -31.7482 -31.7408
   -31.7327 -31.7046 -31.6936 -31.6746 -31.6592 -31.6574 -31.6317 -31.6299
   -31.6272 -31.6251 -31.6171 -31.6164 -31.6138 -31.6122 -31.6117 -31.5602
   -31.5520 -31.5457 -31.5376 -31.5273 -31.5128 -31.5116 -31.5075 -31.5031
   -31.4928 -31.4903 -31.4847 -31.4826 -31.4117 -31.3091 -31.2561 -31.2103
   -31.1511 -31.1031 -30.8019 -30.8018 -30.7132 -30.7130 -30.6739 -30.6738
   -18.7216 -16.5911 -15.6577 -15.5866 -15.4705 -15.4414 -15.3819 -15.3318
   -15.3144 -15.2452 -15.2088 -15.1963 -15.1445 -15.1423 -15.0943 -15.0705
   -15.0435 -15.0398 -15.0247 -14.9821 -14.9712 -14.9558 -14.9518 -14.9482
   -14.8712 -14.8353 -14.8312 -14.8266 -14.7572 -14.6235 -14.3518 -12.9805
   -12.9804 -11.6265  -8.8689  -6.4571  -5.1755  -4.2920  -3.6507  -3.0823
    -2.9430  -2.7851  -2.7198  -2.6389  -2.6381  -2.5955  -2.4697  -2.4459
    -2.4083  -2.3805  -2.3497  -2.3392  -2.3302  -2.3272  -2.3143  -2.3002
    -2.2873  -2.2481  -2.2021  -2.1865  -2.1781  -2.1739  -2.1588  -2.1456
    -2.1297  -2.1270  -2.0925  -2.0620  -2.0354  -2.0015  -1.9456  -1.7451
    -1.7182  -1.6968  -1.6679  -1.6569  -1.6452  -1.6117  -1.5732  -1.5629
    -1.4911  -1.4039  -1.3143  -1.2369  -1.2036  -1.1907  -1.1220  -1.0363
    -0.9946  -0.9555  -0.9187  -0.8588  -0.8003  -0.7618  -0.7249  -0.6428
    -0.6245  -0.6143  -0.5528  -0.5365  -0.4761  -0.4678  -0.3903  -0.3501
    -0.3133  -0.2646  -0.2373  -0.2311  -0.2131  -0.1786  -0.1701  -0.1143
     0.0003   0.0093   0.0294   0.1328   0.2208   0.4607   0.5178   0.5500
     0.6302   0.6929   0.7546   0.7760   0.7970   0.8012   0.8368   0.8973
     1.0117   1.0213   1.0600   1.1482   1.1751   1.8927   1.8935   1.9665
     1.9666   2.0822   3.9276   3.9535   3.9793   4.0153   4.1160   4.1331
     4.1556   4.1576   4.2716   4.2922

     the Fermi energy is     3.6206 ev

!    total energy              =   -2976.50541266 Ry
     estimated scf accuracy    <       0.00000003 Ry
     smearing contrib. (-TS)   =      -0.02131937 Ry
     internal energy E=F+TS    =   -2976.48409329 Ry

     The total energy is F=E-TS. E is the sum of the following terms:
     one-electron contribution =  -23892.37942771 Ry
     hartree contribution      =   12042.71700075 Ry
     xc contribution           =    -495.75447942 Ry
     ewald contribution        =    9368.93098029 Ry
     electric field correction =       0.00183280 Ry

     convergence has been achieved in  69 iterations

     Forces acting on atoms (cartesian axes, Ry/au):

     atom    1 type  1   force =     0.00015542   -0.00028458    0.09583315
     atom    2 type  1   force =    -0.00021894   -0.00062596   -0.17573078
     atom    3 type  2   force =     0.00006418   -0.00014928   -0.02382512
     atom    4 type  2   force =     0.00006276   -0.00154462    0.05355052
     atom    5 type  2   force =    -0.01128895   -0.00076328    0.00356144
     atom    6 type  2   force =     0.01299009    0.00005619    0.00268292
     atom    7 type  1   force =    -0.00096624    0.00064492   -0.00794850
     atom    8 type  1   force =     0.00042374    0.00625103    0.02299268
     atom    9 type  2   force =    -0.00005548   -0.00030653   -0.00094932
     atom   10 type  2   force =    -0.00136312    0.00127453   -0.01513201
     atom   11 type  2   force =    -0.00029499    0.00024926   -0.00022546
     atom   12 type  2   force =    -0.00022146    0.00021719   -0.00032074
     atom   13 type  1   force =     0.00074665   -0.00046708    0.00026736
     atom   14 type  1   force =    -0.00019849    0.00042402    0.00150450
     atom   15 type  2   force =     0.00023703    0.00008910    0.00037734
     atom   16 type  2   force =     0.00026775    0.00005196    0.00013312
     atom   17 type  2   force =     0.00083373   -0.00012789    0.00046403
     atom   18 type  2   force =     0.00044584   -0.00059585    0.00032167
     atom   19 type  1   force =    -0.00129771    0.00017674    0.00052560
     atom   20 type  1   force =     0.00096595   -0.00003708    0.00013731
     atom   21 type  2   force =     0.00008596   -0.00009060    0.10324023
     atom   22 type  2   force =    -0.00073283   -0.00035864   -0.00054515
     atom   23 type  2   force =    -0.07140872   -0.00018700   -0.02769919
     atom   24 type  2   force =     0.07137557    0.00027854   -0.02770113
     atom   25 type  1   force =     0.00002035   -0.00031347    0.09554390
     atom   26 type  1   force =    -0.00016651   -0.00030768   -0.17601709
     atom   27 type  2   force =     0.00009672   -0.00011590   -0.02292951
     atom   28 type  2   force =     0.00011558   -0.00127409    0.05319981
     atom   29 type  2   force =    -0.01153361    0.00015126    0.00361733
     atom   30 type  2   force =     0.01318225    0.00046340    0.00270680
     atom   31 type  1   force =    -0.00100288    0.00373197   -0.01105914
     atom   32 type  1   force =     0.00051261   -0.00741359    0.02340023
     atom   33 type  2   force =    -0.00023844    0.00031280   -0.00031440
     atom   34 type  2   force =    -0.00033788    0.00025494   -0.02185405
     atom   35 type  2   force =     0.00012148    0.00030005   -0.00036656
     atom   36 type  2   force =    -0.00037966    0.00030937   -0.00027960
     atom   37 type  1   force =     0.00040644    0.00057330   -0.00029097
     atom   38 type  1   force =    -0.00022968   -0.00042220    0.00133958
     atom   39 type  2   force =    -0.00021500   -0.00025789    0.00039076
     atom   40 type  2   force =     0.00031604    0.00009475   -0.00082531
     atom   41 type  2   force =     0.00140322    0.00037300    0.00026318
     atom   42 type  2   force =    -0.00047891    0.00037056    0.00000171
     atom   43 type  1   force =    -0.00107695   -0.00104441   -0.00014060
     atom   44 type  1   force =     0.00091335    0.00040260   -0.00026971
     atom   45 type  2   force =     0.00008549   -0.00010352    0.10324185
     atom   46 type  2   force =    -0.07142553   -0.00013825   -0.02768112
     atom   47 type  2   force =     0.07142296    0.00029692   -0.02771207
     atom   48 type  3   force =     0.00451543   -0.00209338    0.00313606
     atom   49 type  3   force =    -0.01707430    0.00004513    0.00161742
     atom   50 type  4   force =     0.00040210    0.00048719    0.00007466
     atom   51 type  5   force =    -0.00006941    0.00059664   -0.00011608
     atom   52 type  5   force =    -0.00054643   -0.00022683    0.00002999
     atom   53 type  5   force =     0.00034074   -0.00040996    0.00031549
     atom   54 type  5   force =     0.00089574    0.00012599    0.00047014
     atom   55 type  5   force =     0.00944805    0.00133048   -0.00557408
     atom   56 type  2   force =    -0.00077620   -0.00005348   -0.00004769
     atom   57 type  5   force =     0.00074997   -0.00004354    0.00000064
     atom   58 type  5   force =    -0.00000487   -0.00017725    0.00061397

     Total force =     0.367366     Total SCF correction =     0.000492
  @ DRIVER MODE: Message from server: STATUS
  @ DRIVER MODE: Message from server: GETFORCE
  @ DRIVER MODE: Returning v,forces,stress,ensemble

     Writing output data file ./calc.save/
  @ DRIVER MODE: Message from server: EXIT
  @ DRIVE MODE: Exiting

     General routines

     Parallel routines

   This run was terminated on:  18:29:15  15Sep2021

   JOB DONE.