     Program PWSCF v.6.7GPU starts on  2Aug2021 at 13:21:54

     R & G space division:  proc/nbgrp/npool/nimage =      16
     Reading input from /storage/home/hcoda1/3/ntian30/research/carbon/02Aug_vib_paired/ads_slab/CH3N2H_a/out_0005/pw.inp
Warning: card &CELL ignored
Warning: card   CELL_DYNAMICS='IPI', ignored
Warning: card / ignored

     Current dimensions of program PWSCF are:
     Max number of different atomic species (ntypx) = 10
     Max number of k-points (npk) =  40000
     Max angular momentum in pseudopotentials (lmaxx) =  3
     Presently no symmetry can be used with electric field

     Message from routine cell_base_init:
     DEPRECATED: use true lattice parameter, not A to a.u. conversion factor

     IMPORTANT: XC functional enforced from input :
     Exchange-correlation= BEEF-VDW
                           (   1   4  43  14   2   0   0)
     Any further DFT definition will be discarded
     Please, verify this is what you really want

  @ DRIVER MODE: Connecting to
 qe_1139763_2482535.sched-torque.pace.gatech.eduuk9xsdd4_scratch
  using UNIX socket
  @ DRIVER MODE: Message from server: STATUS
  @ DRIVER MODE: Message from server: INIT
  @ DRIVER MODE: Receiving replica           0          -1
  @ DRIVER MODE: Receiving encoded integer          25
  @ DRIVER MODE:  SCF:  T  FORCE:  T  STRESS:  F  VC:  F  ENSEMBLE:  F
  @ DRIVER MODE:  SCF:  T  FORCE:  T  STRESS:  F  VC:  F  ENSEMBLE:  F

     Using Slab Decomposition

     bravais-lattice index     =            0
     lattice parameter (alat)  =       1.8897  a.u.
     unit-cell volume          =    6658.9804 (a.u.)^3
     number of atoms/cell      =           54
     number of atomic types    =            5
     number of electrons       =       396.00
     number of Kohn-Sham states=          208
     kinetic-energy cutoff     =      29.3995  Ry
     charge density cutoff     =     293.9946  Ry
     scf convergence threshold =      7.3E-08
     mixing beta               =       0.0500
     number of iterations used =            8  plain     mixing
     Exchange-correlation= BEEF-VDW
                           (   1   4  43  14   2   0   0)

     celldm(1)=   1.889726  celldm(2)=   0.000000  celldm(3)=   0.000000
     celldm(4)=   0.000000  celldm(5)=   0.000000  celldm(6)=   0.000000

     crystal axes: (cart. coord. in units of alat)
               a(1) = (   6.579727   0.000000   0.000000 )
               a(2) = (  -0.000775   5.961596   0.000000 )
               a(3) = (   0.000000   0.000000  25.155947 )

     reciprocal axes: (cart. coord. in units 2 pi/alat)
               b(1) = (  0.151982  0.000020  0.000000 )
               b(2) = (  0.000000  0.167740  0.000000 )
               b(3) = (  0.000000  0.000000  0.039752 )

     PseudoPot. # 1 for Ti read from file:
     /storage/coda1/p-amedford6/0/shared/rich_project_chbe-medford/medford-share/data/pseudos_module/espresso/nninc/pbe/van/Ti.UPF
     MD5 check sum: 8e4df49b7f0d34bbd5052bf3f5ea0213
     Pseudo is Ultrasoft, Zval = 12.0
     Generated by new atomic code, or converted to UPF format
     Using radial grid of  851 points,  6 beta functions with:
                l(1) =   0
                l(2) =   0
                l(3) =   1
                l(4) =   1
                l(5) =   2
                l(6) =   2
     Q(r) pseudized with  8 coefficients,  rinner =    1.000   1.000   1.000
                                                       1.000   1.000

     PseudoPot. # 2 for O  read from file:
     /storage/coda1/p-amedford6/0/shared/rich_project_chbe-medford/medford-share/data/pseudos_module/espresso/nninc/pbe/van/O.UPF
     MD5 check sum: 78c19812648e8988a0fe644b0f25305e
     Pseudo is Ultrasoft, Zval =  6.0
     Generated by new atomic code, or converted to UPF format
     Using radial grid of  737 points,  4 beta functions with:
                l(1) =   0
                l(2) =   0
                l(3) =   1
                l(4) =   1
     Q(r) pseudized with  8 coefficients,  rinner =    0.800   0.800   0.800

     PseudoPot. # 3 for N  read from file:
     /storage/coda1/p-amedford6/0/shared/rich_project_chbe-medford/medford-share/data/pseudos_module/espresso/nninc/pbe/van/N.UPF
     MD5 check sum: 90d10febe142ad51ac9d5be1deb811c4
     Pseudo is Ultrasoft, Zval =  5.0
     Generated by new atomic code, or converted to UPF format
     Using radial grid of  729 points,  4 beta functions with:
                l(1) =   0
                l(2) =   0
                l(3) =   1
                l(4) =   1
     Q(r) pseudized with  8 coefficients,  rinner =    0.800   0.800   0.800

     PseudoPot. # 4 for C  read from file:
     /storage/coda1/p-amedford6/0/shared/rich_project_chbe-medford/medford-share/data/pseudos_module/espresso/nninc/pbe/van/C.UPF
     MD5 check sum: 1a69bf6b8db32088f5b2163dbdb77a27
     Pseudo is Ultrasoft, Zval =  4.0
     Generated by new atomic code, or converted to UPF format
     Using radial grid of  721 points,  4 beta functions with:
                l(1) =   0
                l(2) =   0
                l(3) =   1
                l(4) =   1
     Q(r) pseudized with  8 coefficients,  rinner =    0.800   0.800   0.800

     PseudoPot. # 5 for H  read from file:
     /storage/coda1/p-amedford6/0/shared/rich_project_chbe-medford/medford-share/data/pseudos_module/espresso/nninc/pbe/van/H.UPF
     MD5 check sum: b5ee9d7bfd3a09ee7748110bda690ff7
     Pseudo is Ultrasoft, Zval =  1.0
     Generated by new atomic code, or converted to UPF format
     Using radial grid of  615 points,  1 beta functions with:
                l(1) =   0
     Q(r) pseudized with  8 coefficients,  rinner =    0.800

     atomic species   valence    mass     pseudopotential
        Ti1           12.00    47.86700     Ti( 1.00)
        O1             6.00    15.99900     O ( 1.00)
        N1             5.00    14.00700     N ( 1.00)
        C1             4.00    12.01100     C ( 1.00)
        H1             1.00     1.00800     H ( 1.00)

     No symmetry found

   Cartesian axes

     site n.     atom                  positions (alat units)
         1           Ti1 tau(   1) = (   0.0004258   2.9801865   6.0000000  )
         2           Ti1 tau(   2) = (   3.2906075   1.4906267   6.0002472  )
         3           O1  tau(   3) = (   0.0006271   0.0005054   7.9858123  )
         4           O1  tau(   4) = (   3.2906025   0.0005020   7.3038282  )
         5           O1  tau(   5) = (   4.5942328   1.4918067   9.2879030  )
         6           O1  tau(   6) = (   1.9868534   1.4903216   9.2879459  )
         7           Ti1 tau(   7) = (   3.2907910   2.8959150   9.1758416  )
         8           Ti1 tau(   8) = (   0.0015273   1.4827037   9.2680791  )
         9           O1  tau(   9) = (   3.3106937   0.0084137  11.2927479  )
        10           O1  tau(  10) = (   0.0116148   5.9584955  10.6183126  )
        11           O1  tau(  11) = (   1.3255326   1.5151957  12.5859258  )
        12           O1  tau(  12) = (   5.3246634   1.4871208  12.6441624  )
        13           Ti1 tau(  13) = (   6.5358624   2.9940264  12.7507449  )
        14           Ti1 tau(  14) = (   3.1828407   1.5032771  12.4528579  )
        15           O1  tau(  15) = (   0.1336207   0.0073438  14.6266748  )
        16           O1  tau(  16) = (   3.2550344   0.0288700  13.8306396  )
        17           O1  tau(  17) = (   4.6334483   1.5013943  15.9792279  )
        18           O1  tau(  18) = (   2.1409664   1.5470880  15.9954950  )
        19           Ti1 tau(  19) = (   3.4798582   3.0305884  15.6593850  )
        20           Ti1 tau(  20) = (   0.1386493   1.3724552  15.8613965  )
        21           O1  tau(  21) = (   3.2904802   0.0005063   4.7018136  )
        22           O1  tau(  22) = (   0.1429122   0.0333940  17.1908172  )
        23           O1  tau(  23) = (   1.3043587   1.4918075   6.0039043  )
        24           O1  tau(  24) = (   5.2767064   1.4903225   6.0039473  )
        25           Ti1 tau(  25) = (   0.0000382   5.9609847   6.0000000  )
        26           Ti1 tau(  26) = (   3.2902200   4.4714249   6.0002472  )
        27           O1  tau(  27) = (   0.0002396   2.9813036   7.9858123  )
        28           O1  tau(  28) = (   3.2902150   2.9813002   7.3038282  )
        29           O1  tau(  29) = (   4.5938453   4.4726049   9.2879030  )
        30           O1  tau(  30) = (   1.9864658   4.4711199   9.2879459  )
        31           Ti1 tau(  31) = (   3.2891106   5.8743827   9.1763621  )
        32           Ti1 tau(  32) = (   0.0006254   4.4649316   9.2693709  )
        33           O1  tau(  33) = (   3.3137399   2.9960163  11.2943833  )
        34           O1  tau(  34) = (   0.0092240   2.9805883  10.6323155  )
        35           O1  tau(  35) = (   1.3234708   4.4688006  12.5930975  )
        36           O1  tau(  36) = (   5.3222282   4.4932535  12.6449723  )
        37           Ti1 tau(  37) = (   6.5041614   0.0053836  12.5833808  )
        38           Ti1 tau(  38) = (   3.1843229   4.4812189  12.4522442  )
        39           O1  tau(  39) = (   0.0584892   2.9792810  14.6723703  )
        40           O1  tau(  40) = (   3.3232524   2.9928384  13.8523860  )
        41           O1  tau(  41) = (   4.6237859   4.5837569  15.7472905  )
        42           O1  tau(  42) = (   2.1882403   4.4693611  16.1038286  )
        43           Ti1 tau(  43) = (   3.3015484   0.0242660  15.6383815  )
        44           Ti1 tau(  44) = (   0.0181797   4.4930750  16.1931172  )
        45           O1  tau(  45) = (   3.2900926   2.9813045   4.7018136  )
        46           O1  tau(  46) = (   1.3039711   4.4726057   6.0039043  )
        47           O1  tau(  47) = (   5.2763189   4.4711207   6.0039473  )
        48           N1  tau(  48) = (   0.2677213   2.8760844  17.5555548  )
        49           C1  tau(  49) = (   1.2271684   2.7639891  18.6598760  )
        50           H1  tau(  50) = (   1.2930054   3.7106696  19.2072709  )
        51           H1  tau(  51) = (   0.8976878   1.9730418  19.3402421  )
        52           H1  tau(  52) = (   2.2102292   2.4972526  18.2850250  )
        53           N1  tau(  53) = (   5.6732178   3.4927010  17.8452151  )
        54           H1  tau(  54) = (   5.7345573   4.0058295  18.7343860  )

     number of k points=    10  Fermi-Dirac smearing, width (Ry)=  0.0073
                       cart. coord. in units 2pi/alat
        k(    1) = (   0.0000000   0.0000000   0.0000000), wk =   0.1250000
        k(    2) = (   0.0000000   0.0419351   0.0000000), wk =   0.2500000
        k(    3) = (   0.0000000  -0.0838702   0.0000000), wk =   0.1250000
        k(    4) = (   0.0379955   0.0000049   0.0000000), wk =   0.2500000
        k(    5) = (   0.0379955   0.0419400   0.0000000), wk =   0.2500000
        k(    6) = (   0.0379955  -0.0838652   0.0000000), wk =   0.2500000
        k(    7) = (   0.0379955  -0.0419301   0.0000000), wk =   0.2500000
        k(    8) = (  -0.0759910  -0.0000099   0.0000000), wk =   0.1250000
        k(    9) = (  -0.0759910   0.0419252   0.0000000), wk =   0.2500000
        k(   10) = (  -0.0759910  -0.0838800   0.0000000), wk =   0.1250000

     Initial potential from superposition of free atoms

     starting charge  379.99915, renormalised to  396.00000

     negative rho (up, down):  1.686E-02 0.000E+00

     %%%%%%%%%%%%%%%%%%%%%%%%%%%%%%%%%%%%%%%%%%%%%%%%%%%%%%%%%%%%%%%%%%%%%%%%
     %                                                                      %
     % You are using vdW-DF, which was implemented by the Thonhauser group. %
     % Please cite the following two papers that made this development      %
     % possible and the two reviews that describe the various versions:     %
     %                                                                      %
     %   T. Thonhauser et al., PRL 115, 136402 (2015).                      %
     %   T. Thonhauser et al., PRB 76, 125112 (2007).                       %
     %   K. Berland et al., Rep. Prog. Phys. 78, 066501 (2015).             %
     %   D.C. Langreth et al., J. Phys.: Condens. Matter 21, 084203 (2009). %
     %                                                                      %
     %                                                                      %
     % If you are calculating the stress with vdW-DF, please also cite:     %
     %                                                                      %
     %   R. Sabatini et al., J. Phys.: Condens. Matter 24, 424209 (2012).   %
     %                                                                      %
     %%%%%%%%%%%%%%%%%%%%%%%%%%%%%%%%%%%%%%%%%%%%%%%%%%%%%%%%%%%%%%%%%%%%%%%%

     Adding external electric field

     Computed dipole along edir(3) :
        Dipole               -8.2182 Ry au,        -20.8887 Debye
        Dipole field         -0.0155 Ry au,

        Potential amp.        1.4377 Ry
        Total length         46.3494 bohr

     Starting wfcs are  300 atomic wfcs
  @ DRIVER MODE: Message from server: STATUS
  @ DRIVER MODE: Message from server: POSDATA
  @ DRIVER MODE: Reading and sharing cell
  @ DRIVER MODE: Reading and sharing positions
  @ DRIVER MODE: Received positions

     Self-consistent Calculation

     iteration #  1     ecut=    29.40 Ry     beta= 0.05
     Davidson diagonalization with overlap
     c_bands:  1 eigenvalues not converged
     c_bands:  1 eigenvalues not converged
     c_bands:  1 eigenvalues not converged
     c_bands:  1 eigenvalues not converged
     c_bands:  4 eigenvalues not converged
     c_bands:  1 eigenvalues not converged
     c_bands:  5 eigenvalues not converged
     c_bands:  2 eigenvalues not converged
     c_bands:  1 eigenvalues not converged
     c_bands:  1 eigenvalues not converged
     ethr =  1.00E-05,  avg # of iterations = 20.0

[...]

     total energy              =   -2607.38593721 Ry
     estimated scf accuracy    <    3677.23886888 Ry

[...]

     iteration #  3     ecut=    29.40 Ry     beta= 0.05
     Davidson diagonalization with overlap
     ethr =  1.00E-02,  avg # of iterations = 14.1

[...]

     iteration # 55     ecut=    29.40 Ry     beta= 0.05
     Davidson diagonalization with overlap
     c_bands:  1 eigenvalues not converged
     ethr =  9.81E-07,  avg # of iterations =  9.7

[...]

     total energy              =   -2940.35208595 Ry
     estimated scf accuracy    <       0.00000015 Ry

     iteration # 78     ecut=    29.40 Ry     beta= 0.05
     Davidson diagonalization with overlap
     ethr =  3.82E-11,  avg # of iterations =  6.2

     negative rho (up, down):  1.746E-02 0.000E+00

     Adding external electric field

     Computed dipole along edir(3) :
        Dipole                0.7325 Ry au,          1.8619 Debye
        Dipole field          0.0014 Ry au,

        Potential amp.       -0.1281 Ry
        Total length         46.3494 bohr

     End of self-consistent calculation

          k = 0.0000 0.0000 0.0000 ( 18029 PWs)   bands (ev):

   -56.0299 -55.9959 -55.8062 -55.7673 -55.7307 -55.6962 -55.6644 -55.6444
   -55.6301 -55.6097 -55.5734 -55.4930 -55.2347 -54.9252 -54.8912 -54.7821
   -32.4965 -32.3482 -32.3240 -32.3004 -32.1977 -32.1848 -32.1670 -32.1339
   -32.1193 -32.1007 -32.0908 -32.0468 -32.0193 -31.9833 -31.9810 -31.9749
   -31.9472 -31.9329 -31.9182 -31.9017 -31.8882 -31.8730 -31.8696 -31.8577
   -31.8445 -31.8384 -31.8346 -31.8262 -31.8249 -31.7995 -31.7985 -31.7939
   -31.7770 -31.7571 -31.6893 -31.6591 -31.6138 -31.4618 -31.4586 -31.3287
   -31.2495 -31.2265 -31.1994 -31.1460 -31.0600 -30.9875 -30.9487 -30.9071
   -17.2628 -16.5612 -16.3728 -16.0827 -15.9293 -15.9043 -15.7892 -15.6951
   -15.6197 -15.5207 -15.4626 -15.4119 -15.4009 -15.3699 -15.3113 -15.2929
   -15.2481 -15.2342 -15.1889 -15.1740 -15.1268 -15.1145 -15.0862 -15.0477
   -14.9877 -14.9147 -14.9065 -14.7429 -14.6101 -14.4505 -13.4264 -13.3115
   -11.4949  -8.3500  -4.9828  -3.9900  -3.9486  -3.8813  -3.8147  -3.7758
    -3.6959  -3.4450  -3.4143  -3.3571  -3.0755  -3.0257  -3.0018  -2.9970
    -2.8983  -2.7629  -2.7308  -2.6704  -2.6632  -2.6451  -2.6213  -2.6059
    -2.5478  -2.4899  -2.4738  -2.4330  -2.3045  -2.2735  -2.2679  -2.2465
    -2.1767  -2.1683  -2.1025  -2.0881  -2.0637  -2.0478  -2.0065  -1.8725
    -1.8383  -1.7733  -1.6910  -1.6063  -1.5290  -1.4909  -1.4051  -1.3930
    -1.3347  -1.2657  -1.2540  -1.1798  -1.1496  -1.0646  -1.0443  -1.0095
    -0.9026  -0.8711  -0.8132  -0.7604  -0.7140  -0.6983  -0.6589  -0.6355
    -0.6271  -0.6114  -0.6001  -0.4016  -0.3766  -0.2327  -0.1877  -0.1620
    -0.1227  -0.0982  -0.0398  -0.0198  -0.0113   0.0247   0.0430   0.0876
     0.1457   0.1624   0.1858   0.2827   0.3139   0.3685   0.4935   0.5054
     0.5971   0.6600   0.7711   0.7774   0.8345   0.9661   1.0546   1.0881
     1.0970   1.3025   1.4122   1.6610   1.7035   3.0166   3.1639   3.2596
     3.3690   3.4900   3.5688   3.6017   3.7816   3.8230   3.8637   3.9122

[...]

          k = 0.0380-0.0419 0.0000 ( 17876 PWs)   bands (ev):

[...]

          k =-0.0760-0.0000 0.0000 ( 17886 PWs)   bands (ev):

[...]

          k =-0.0760-0.0839 0.0000 ( 17948 PWs)   bands (ev):

   -56.0139 -56.0117 -55.7941 -55.7792 -55.7171 -55.7095 -55.6494 -55.6451
   -55.6310 -55.6230 -55.5695 -55.4968 -55.2341 -54.9082 -54.9080 -54.7826
   -32.3130 -32.3118 -32.3098 -32.3079 -32.1557 -32.1435 -32.1369 -32.1345
   -32.0519 -32.0391 -32.0298 -32.0283 -32.0218 -32.0156 -31.9759 -31.9704
   -31.9570 -31.9447 -31.9113 -31.9080 -31.8958 -31.8913 -31.8862 -31.8822
   -31.8731 -31.8722 -31.8606 -31.8542 -31.8457 -31.8424 -31.8406 -31.8183
   -31.7952 -31.7938 -31.7623 -31.7031 -31.6006 -31.4642 -31.4581 -31.2495
   -31.2394 -31.2392 -31.1420 -31.1418 -31.1032 -31.1030 -30.9996 -30.9112
   -17.2425 -15.9771 -15.9490 -15.8463 -15.8271 -15.7356 -15.7226 -15.6088
   -15.6004 -15.5858 -15.5200 -15.4769 -15.4657 -15.3784 -15.3542 -15.3415
   -15.3201 -15.3106 -15.3032 -15.2916 -15.2742 -15.2023 -15.1969 -15.1855
   -15.1114 -15.0930 -14.9011 -14.8587 -14.6580 -14.6213 -13.4141 -13.4135
   -11.4985  -8.3301  -4.9891  -3.8832  -3.8096  -3.2792  -3.2432  -3.0314
    -3.0029  -2.9827  -2.9566  -2.7699  -2.7557  -2.7512  -2.7317  -2.7183
    -2.6807  -2.6619  -2.6482  -2.5834  -2.5729  -2.5556  -2.5512  -2.5382
    -2.5204  -2.5050  -2.4976  -2.4781  -2.4571  -2.4134  -2.3596  -2.3384
    -2.2854  -2.1912  -2.0899  -2.0468  -2.0358  -2.0265  -2.0030  -1.9941
    -1.9495  -1.9371  -1.8523  -1.6622  -1.6145  -1.5617  -1.5548  -1.5473
    -1.4859  -1.4295  -1.3851  -1.3123  -1.2408  -1.1956  -1.1621  -1.1412
    -1.1060  -1.0394  -0.9729  -0.9519  -0.9383  -0.9147  -0.9123  -0.8913
    -0.8092  -0.7258  -0.6846  -0.6579  -0.6349  -0.6241  -0.6077  -0.5815
    -0.4714  -0.4083  -0.3602  -0.3162  -0.2705  -0.2291  -0.1095  -0.0954
     0.1047   0.1635   0.1862   0.2707   0.3659   0.3887   0.3973   0.4689
     0.5444   0.6054   0.6422   0.6947   0.7069   0.7302   0.7971   1.0242
     1.0673   1.4712   1.4728   1.5216   1.5226   2.9816   3.6673   3.6732
     3.6766   3.6860   3.7094   3.7339   3.7870   3.8217   3.9220   3.9666

     the Fermi energy is     3.1283 ev

!    total energy              =   -2940.35209564 Ry
     estimated scf accuracy    <       0.00000005 Ry
     smearing contrib. (-TS)   =      -0.01857144 Ry
     internal energy E=F+TS    =   -2940.33352420 Ry

     The total energy is F=E-TS. E is the sum of the following terms:
     one-electron contribution =  -24664.20059875 Ry
     hartree contribution      =   12421.22356260 Ry
     xc contribution           =    -486.04507858 Ry
     ewald contribution        =    9788.68757790 Ry
     electric field correction =       0.00101263 Ry

     convergence has been achieved in  78 iterations

     Forces acting on atoms (cartesian axes, Ry/au):

     atom    1 type  1   force =     0.00026413   -0.00036076    0.10158175
     atom    2 type  1   force =     0.00002954   -0.00085488   -0.17133304
     atom    3 type  2   force =     0.00029145    0.00021474   -0.03333767
     atom    4 type  2   force =     0.00003408   -0.00078688    0.04474614
     atom    5 type  2   force =    -0.01193536   -0.00020595   -0.00237583
     atom    6 type  2   force =     0.01437250    0.00038718   -0.00117677
     atom    7 type  1   force =     0.00140265   -0.00130848   -0.00411230
     atom    8 type  1   force =    -0.00078680    0.02219174    0.05641956
     atom    9 type  2   force =     0.00003600   -0.00032727    0.00028367
     atom   10 type  2   force =    -0.00264900    0.00207131   -0.02625680
     atom   11 type  2   force =     0.00006722    0.00024350   -0.00017044
     atom   12 type  2   force =     0.00009451    0.00071901   -0.00008637
     atom   13 type  1   force =    -0.00004938    0.00014150    0.00081586
     atom   14 type  1   force =     0.00024742    0.00026651    0.00022058
     atom   15 type  2   force =     0.00019375   -0.00046994   -0.00071876
     atom   16 type  2   force =    -0.00003228   -0.00012254    0.00043868
     atom   17 type  2   force =    -0.00022967   -0.00081080   -0.00010102
     atom   18 type  2   force =     0.00066056   -0.00078391    0.00014070
     atom   19 type  1   force =     0.00000638   -0.00042582    0.00064051
     atom   20 type  1   force =    -0.00005479   -0.00003668   -0.00037735
     atom   21 type  2   force =     0.00007068   -0.00001195    0.10209621
     atom   22 type  2   force =     0.00002649   -0.00005100    0.00031790
     atom   23 type  2   force =    -0.07329835   -0.00015716   -0.02887676
     atom   24 type  2   force =     0.07325237    0.00033278   -0.02892768
     atom   25 type  1   force =    -0.00028581   -0.00032938    0.10201943
     atom   26 type  1   force =     0.00001882   -0.00017456   -0.17133388
     atom   27 type  2   force =     0.00036683   -0.00022650   -0.03205924
     atom   28 type  2   force =     0.00009316   -0.00056394    0.04535085
     atom   29 type  2   force =    -0.01208237    0.00213640   -0.00293183
     atom   30 type  2   force =     0.01439799    0.00229660   -0.00167813
     atom   31 type  1   force =     0.00159702    0.00091561   -0.00543767
     atom   32 type  1   force =    -0.00059695   -0.02475441    0.05747758
     atom   33 type  2   force =     0.00015959    0.00035644    0.00044460
     atom   34 type  2   force =    -0.00419891    0.00212930   -0.04862533
     atom   35 type  2   force =     0.00066278   -0.00058681   -0.00010551
     atom   36 type  2   force =    -0.00040252   -0.00073137    0.00002110
     atom   37 type  1   force =     0.00004119    0.00059925    0.00052661
     atom   38 type  1   force =    -0.00000631   -0.00013112    0.00011875
     atom   39 type  2   force =     0.00012249    0.00002013   -0.00159479
     atom   40 type  2   force =    -0.00010797   -0.00005207   -0.00062471
     atom   41 type  2   force =    -0.00010785    0.00055608   -0.00032343
     atom   42 type  2   force =     0.00018213    0.00047247    0.00056017
     atom   43 type  1   force =    -0.00020222   -0.00017313    0.00042846
     atom   44 type  1   force =    -0.00042480    0.00065841   -0.00003008
     atom   45 type  2   force =     0.00004872   -0.00004520    0.10217497
     atom   46 type  2   force =    -0.07331104   -0.00009266   -0.02885166
     atom   47 type  2   force =     0.07326255    0.00028445   -0.02888688
     atom   48 type  3   force =     0.00148263    0.00213411    0.01351525
     atom   49 type  4   force =    -0.00144713   -0.00107909   -0.00560878
     atom   50 type  5   force =    -0.00068558   -0.00022354   -0.00110415
     atom   51 type  5   force =    -0.00128621   -0.00026615   -0.00046933
     atom   52 type  5   force =     0.00007060   -0.00045438    0.00061624
     atom   53 type  3   force =    -0.00081568   -0.00125447   -0.00272907
     atom   54 type  5   force =     0.00144079   -0.00127473   -0.00071032

     Total force =     0.378205     Total SCF correction =     0.000737
  @ DRIVER MODE: Message from server: STATUS
  @ DRIVER MODE: Message from server: GETFORCE
  @ DRIVER MODE: Returning v,forces,stress,ensemble

     Writing output data file ./calc.save/
  @ DRIVER MODE: Message from server: EXIT
  @ DRIVE MODE: Exiting

     General routines

     Parallel routines

   This run was terminated on:  13:38:13   2Aug2021

   JOB DONE.