     Program PWSCF v.6.7GPU starts on  8Sep2021 at 22:27:46

     R & G space division:  proc/nbgrp/npool/nimage =      10
     Reading input from /storage/home/hcoda1/3/ntian30/research/carbon/CxH_vib/CH_calc/ads_slab/CHO_a/out_0002/pw.inp
Warning: card &CELL ignored
Warning: card   CELL_DYNAMICS='IPI', ignored
Warning: card / ignored

     Current dimensions of program PWSCF are:
     Max number of different atomic species (ntypx) = 10
     Max number of k-points (npk) =  40000
     Max angular momentum in pseudopotentials (lmaxx) =  3
     Presently no symmetry can be used with electric field

     Message from routine cell_base_init:
     DEPRECATED: use true lattice parameter, not A to a.u. conversion factor

     IMPORTANT: XC functional enforced from input :
     Exchange-correlation= BEEF-VDW
                           (   1   4  43  14   2   0   0)
     Any further DFT definition will be discarded
     Please, verify this is what you really want

  @ DRIVER MODE: Connecting to
 qe_1139763_2767379.sched-torque.pace.gatech.edu66ok1plq_scratch
  using UNIX socket
  @ DRIVER MODE: Message from server: STATUS
  @ DRIVER MODE: Message from server: INIT
  @ DRIVER MODE: Receiving replica           0          -1
  @ DRIVER MODE: Receiving encoded integer          25
  @ DRIVER MODE:  SCF:  T  FORCE:  T  STRESS:  F  VC:  F  ENSEMBLE:  F
  @ DRIVER MODE:  SCF:  T  FORCE:  T  STRESS:  F  VC:  F  ENSEMBLE:  F

     Using Slab Decomposition

     bravais-lattice index     =            0
     lattice parameter (alat)  =       1.8897  a.u.
     unit-cell volume          =    6658.9804 (a.u.)^3
     number of atoms/cell      =           50
     number of atomic types    =            4
     number of electrons       =       389.00
     number of Kohn-Sham states=          204
     kinetic-energy cutoff     =      29.3995  Ry
     charge density cutoff     =     293.9946  Ry
     scf convergence threshold =      7.3E-08
     mixing beta               =       0.0500
     number of iterations used =            8  plain     mixing
     Exchange-correlation= BEEF-VDW
                           (   1   4  43  14   2   0   0)

     celldm(1)=   1.889726  celldm(2)=   0.000000  celldm(3)=   0.000000
     celldm(4)=   0.000000  celldm(5)=   0.000000  celldm(6)=   0.000000

     crystal axes: (cart. coord. in units of alat)
               a(1) = (   6.579727   0.000000   0.000000 )
               a(2) = (  -0.000775   5.961596   0.000000 )
               a(3) = (   0.000000   0.000000  25.155947 )

     reciprocal axes: (cart. coord. in units 2 pi/alat)
               b(1) = (  0.151982  0.000020  0.000000 )
               b(2) = (  0.000000  0.167740  0.000000 )
               b(3) = (  0.000000  0.000000  0.039752 )

     PseudoPot. # 1 for O  read from file:
     /storage/coda1/p-amedford6/0/shared/rich_project_chbe-medford/medford-share/data/pseudos_module/espresso/nninc/pbe/van/O.UPF
     MD5 check sum: 78c19812648e8988a0fe644b0f25305e
     Pseudo is Ultrasoft, Zval =  6.0
     Generated by new atomic code, or converted to UPF format
     Using radial grid of  737 points,  4 beta functions with:
                l(1) =   0
                l(2) =   0
                l(3) =   1
                l(4) =   1
     Q(r) pseudized with  8 coefficients,  rinner =    0.800   0.800   0.800

     PseudoPot. # 2 for Ti read from file:
     /storage/coda1/p-amedford6/0/shared/rich_project_chbe-medford/medford-share/data/pseudos_module/espresso/nninc/pbe/van/Ti.UPF
     MD5 check sum: 8e4df49b7f0d34bbd5052bf3f5ea0213
     Pseudo is Ultrasoft, Zval = 12.0
     Generated by new atomic code, or converted to UPF format
     Using radial grid of  851 points,  6 beta functions with:
                l(1) =   0
                l(2) =   0
                l(3) =   1
                l(4) =   1
                l(5) =   2
                l(6) =   2
     Q(r) pseudized with  8 coefficients,  rinner =    1.000   1.000   1.000
                                                       1.000   1.000

     PseudoPot. # 3 for C  read from file:
     /storage/coda1/p-amedford6/0/shared/rich_project_chbe-medford/medford-share/data/pseudos_module/espresso/nninc/pbe/van/C.UPF
     MD5 check sum: 1a69bf6b8db32088f5b2163dbdb77a27
     Pseudo is Ultrasoft, Zval =  4.0
     Generated by new atomic code, or converted to UPF format
     Using radial grid of  721 points,  4 beta functions with:
                l(1) =   0
                l(2) =   0
                l(3) =   1
                l(4) =   1
     Q(r) pseudized with  8 coefficients,  rinner =    0.800   0.800   0.800

     PseudoPot. # 4 for H  read from file:
     /storage/coda1/p-amedford6/0/shared/rich_project_chbe-medford/medford-share/data/pseudos_module/espresso/nninc/pbe/van/H.UPF
     MD5 check sum: b5ee9d7bfd3a09ee7748110bda690ff7
     Pseudo is Ultrasoft, Zval =  1.0
     Generated by new atomic code, or converted to UPF format
     Using radial grid of  615 points,  1 beta functions with:
                l(1) =   0
     Q(r) pseudized with  8 coefficients,  rinner =    0.800

     atomic species   valence    mass     pseudopotential
        O1             6.00    15.99900     O ( 1.00)
        Ti1           12.00    47.86700     Ti( 1.00)
        C1             4.00    12.01100     C ( 1.00)
        H1             1.00     1.00800     H ( 1.00)

     No symmetry found

   Cartesian axes

     site n.     atom                  positions (alat units)
         1           O1  tau(   1) = (   3.2904802   0.0005063   4.7018136  )
         2           O1  tau(   2) = (   3.2900926   2.9813045   4.7018136  )
         3           Ti1 tau(   3) = (   0.0004258   2.9801865   6.0000000  )
         4           Ti1 tau(   4) = (   0.0000382   5.9609847   6.0000000  )
         5           Ti1 tau(   5) = (   3.2906075   1.4906267   6.0002472  )
         6           Ti1 tau(   6) = (   3.2902200   4.4714249   6.0002472  )
         7           O1  tau(   7) = (   1.3043587   1.4918075   6.0039043  )
         8           O1  tau(   8) = (   1.3039711   4.4726057   6.0039043  )
         9           O1  tau(   9) = (   5.2767064   1.4903225   6.0039473  )
        10           O1  tau(  10) = (   5.2763189   4.4711207   6.0039473  )
        11           O1  tau(  11) = (   3.2906025   0.0005020   7.3038282  )
        12           O1  tau(  12) = (   3.2902150   2.9813002   7.3038282  )
        13           O1  tau(  13) = (   0.0006271   0.0005054   7.9858123  )
        14           O1  tau(  14) = (   0.0002396   2.9813036   7.9858123  )
        15           Ti1 tau(  15) = (   3.2969808   0.0564913   9.1534998  )
        16           Ti1 tau(  16) = (   3.3141337   3.0327768   9.1571505  )
        17           Ti1 tau(  17) = (   0.0233175   4.5369896   9.2585411  )
        18           Ti1 tau(  18) = (   0.0198836   1.6172415   9.3624336  )
        19           O1  tau(  19) = (   4.5942328   1.4918067   9.2879030  )
        20           O1  tau(  20) = (   4.5938453   4.4726049   9.2879030  )
        21           O1  tau(  21) = (   1.9868534   1.4903216   9.2879459  )
        22           O1  tau(  22) = (   1.9864658   4.4711199   9.2879459  )
        23           O1  tau(  23) = (   0.0063158   0.0123177  10.6034754  )
        24           O1  tau(  24) = (   0.0044132   2.9941235  10.5786081  )
        25           O1  tau(  25) = (   3.2970120   2.9984392  11.3520126  )
        26           O1  tau(  26) = (   3.2962737   0.0176366  11.3543537  )
        27           Ti1 tau(  27) = (   0.0302790   0.0280999  12.4961607  )
        28           Ti1 tau(  28) = (   3.3312859   4.4933669  12.4927350  )
        29           Ti1 tau(  29) = (   3.3314798   1.5140231  12.4973429  )
        30           Ti1 tau(  30) = (   0.0296678   3.0111287  12.7911082  )
        31           O1  tau(  31) = (   1.2935131   4.4896988  12.6418387  )
        32           O1  tau(  32) = (   1.2923886   1.5080263  12.6414434  )
        33           O1  tau(  33) = (   5.2919490   4.4892252  12.6414299  )
        34           O1  tau(  34) = (   5.2935099   1.5067266  12.6404615  )
        35           O1  tau(  35) = (   3.2972132   2.9952276  13.9333167  )
        36           O1  tau(  36) = (   3.2969292   0.0217920  13.9560627  )
        37           O1  tau(  37) = (   0.0109375   0.0110981  14.6876342  )
        38           O1  tau(  38) = (   0.0109565   3.0062585  14.7134293  )
        39           Ti1 tau(  39) = (   3.3068652   2.9980133  15.7272348  )
        40           Ti1 tau(  40) = (   3.3088638   0.0192678  15.7517854  )
        41           Ti1 tau(  41) = (   0.0288418   4.5446802  15.9499200  )
        42           Ti1 tau(  42) = (   0.0223207   1.3431340  16.0223868  )
        43           O1  tau(  43) = (   4.5495857   4.4747881  16.0802101  )
        44           O1  tau(  44) = (   4.5538725   1.5135375  16.1032510  )
        45           O1  tau(  45) = (   2.0418931   1.5171625  16.1093315  )
        46           O1  tau(  46) = (   2.0408760   4.4691196  16.0910022  )
        47           O1  tau(  47) = (   0.0096378   0.0051088  17.2033978  )
        48           O1  tau(  48) = (   6.5596506   3.0476207  17.4767105  )
        49           C1  tau(  49) = (   6.4067813   3.0303407  18.7370298  )
        50           H1  tau(  50) = (   6.4030715   1.9712591  19.1029599  )

     number of k points=    10  Fermi-Dirac smearing, width (Ry)=  0.0073
                       cart. coord. in units 2pi/alat
        k(    1) = (   0.0000000   0.0000000   0.0000000), wk =   0.1250000
        k(    2) = (   0.0000000   0.0419351   0.0000000), wk =   0.2500000
        k(    3) = (   0.0000000  -0.0838702   0.0000000), wk =   0.1250000
        k(    4) = (   0.0379955   0.0000049   0.0000000), wk =   0.2500000
        k(    5) = (   0.0379955   0.0419400   0.0000000), wk =   0.2500000
        k(    6) = (   0.0379955  -0.0838652   0.0000000), wk =   0.2500000
        k(    7) = (   0.0379955  -0.0419301   0.0000000), wk =   0.2500000
        k(    8) = (  -0.0759910  -0.0000099   0.0000000), wk =   0.1250000
        k(    9) = (  -0.0759910   0.0419252   0.0000000), wk =   0.2500000
        k(   10) = (  -0.0759910  -0.0838800   0.0000000), wk =   0.1250000

     Initial potential from superposition of free atoms

     starting charge  372.99920, renormalised to  389.00000

     negative rho (up, down):  1.925E-02 0.000E+00

     %%%%%%%%%%%%%%%%%%%%%%%%%%%%%%%%%%%%%%%%%%%%%%%%%%%%%%%%%%%%%%%%%%%%%%%%
     %                                                                      %
     % You are using vdW-DF, which was implemented by the Thonhauser group. %
     % Please cite the following two papers that made this development      %
     % possible and the two reviews that describe the various versions:     %
     %                                                                      %
     %   T. Thonhauser et al., PRL 115, 136402 (2015).                      %
     %   T. Thonhauser et al., PRB 76, 125112 (2007).                       %
     %   K. Berland et al., Rep. Prog. Phys. 78, 066501 (2015).             %
     %   D.C. Langreth et al., J. Phys.: Condens. Matter 21, 084203 (2009). %
     %                                                                      %
     %                                                                      %
     % If you are calculating the stress with vdW-DF, please also cite:     %
     %                                                                      %
     %   R. Sabatini et al., J. Phys.: Condens. Matter 24, 424209 (2012).   %
     %                                                                      %
     %%%%%%%%%%%%%%%%%%%%%%%%%%%%%%%%%%%%%%%%%%%%%%%%%%%%%%%%%%%%%%%%%%%%%%%%

     Adding external electric field

     Computed dipole along edir(3) :
        Dipole               -4.4813 Ry au,        -11.3903 Debye
        Dipole field         -0.0085 Ry au,

        Potential amp.        0.7839 Ry
        Total length         46.3494 bohr

     Starting wfcs are  293 atomic wfcs
  @ DRIVER MODE: Message from server: STATUS
  @ DRIVER MODE: Message from server: POSDATA
  @ DRIVER MODE: Reading and sharing cell
  @ DRIVER MODE: Reading and sharing positions
  @ DRIVER MODE: Received positions

     Self-consistent Calculation

     iteration #  1     ecut=    29.40 Ry     beta= 0.05
     Davidson diagonalization with overlap
     c_bands:  5 eigenvalues not converged
     c_bands:  5 eigenvalues not converged
     c_bands:  5 eigenvalues not converged
     c_bands:  3 eigenvalues not converged
     c_bands:  2 eigenvalues not converged
     c_bands:  1 eigenvalues not converged
     c_bands:  4 eigenvalues not converged
     c_bands:  3 eigenvalues not converged
     c_bands:  3 eigenvalues not converged
     c_bands:  1 eigenvalues not converged
     ethr =  1.00E-05,  avg # of iterations = 20.0

[...]

     total energy              =   -2877.54630562 Ry
     estimated scf accuracy    <     588.99005316 Ry

     iteration #  2     ecut=    29.40 Ry     beta= 0.05
     Davidson diagonalization with overlap
     ethr =  1.00E-02,  avg # of iterations = 14.1

[...]

     iteration # 59     ecut=    29.40 Ry     beta= 0.05
     Davidson diagonalization with overlap
     c_bands:  1 eigenvalues not converged
     ethr =  4.24E-09,  avg # of iterations = 11.7

[...]

     total energy              =   -2928.82041357 Ry
     estimated scf accuracy    <       0.00000010 Ry

     iteration # 68     ecut=    29.40 Ry     beta= 0.05
     Davidson diagonalization with overlap
     ethr =  2.56E-11,  avg # of iterations =  8.6

     negative rho (up, down):  1.792E-02 0.000E+00

     Adding external electric field

     Computed dipole along edir(3) :
        Dipole                0.1837 Ry au,          0.4668 Debye
        Dipole field          0.0003 Ry au,

        Potential amp.       -0.0321 Ry
        Total length         46.3494 bohr

     End of self-consistent calculation

          k = 0.0000 0.0000 0.0000 ( 18029 PWs)   bands (ev):

   -56.3044 -56.2911 -56.2678 -56.2549 -56.2028 -56.1909 -56.1580 -56.1375
   -56.1250 -56.0891 -56.0754 -56.0418 -55.9934 -55.9724 -55.3309 -55.2968
   -32.8576 -32.7765 -32.6814 -32.6656 -32.6451 -32.6131 -32.6002 -32.5819
   -32.5542 -32.5379 -32.5365 -32.5091 -32.5065 -32.4723 -32.4631 -32.4530
   -32.4369 -32.4258 -32.4249 -32.3983 -32.3775 -32.3696 -32.3677 -32.3578
   -32.3429 -32.3338 -32.3312 -32.3289 -32.3113 -32.3059 -32.3007 -32.2968
   -32.2588 -32.2485 -32.2267 -32.2192 -32.2089 -32.1962 -32.1803 -32.1626
   -32.1620 -32.1600 -31.7410 -31.6431 -31.6208 -31.5577 -31.4716 -31.3604
   -19.8773 -17.0633 -16.7782 -16.6261 -16.4961 -16.4487 -16.3163 -16.1748
   -16.0857 -16.0077 -15.9584 -15.9189 -15.8881 -15.8780 -15.8577 -15.8390
   -15.8372 -15.8263 -15.7559 -15.7523 -15.7190 -15.7023 -15.6992 -15.6024
   -15.5401 -15.4787 -15.4341 -15.3595 -15.3233 -15.2527 -13.8316 -13.7131
    -8.2655  -5.0509  -4.4117  -4.2423  -4.2108  -4.2051  -4.1315  -3.9132
    -3.8600  -3.6439  -3.6080  -3.4896  -3.4654  -3.4540  -3.4143  -3.3599
    -3.2714  -3.1453  -3.1422  -3.1321  -3.1246  -3.1117  -3.0752  -3.0527
    -3.0463  -3.0101  -2.9224  -2.8265  -2.8247  -2.7271  -2.7000  -2.6827
    -2.6240  -2.6142  -2.5816  -2.5616  -2.5506  -2.5291  -2.4845  -2.4625
    -2.3818  -2.2808  -2.1597  -2.1041  -2.0223  -1.9837  -1.8559  -1.7984
    -1.7422  -1.7173  -1.6692  -1.6402  -1.6003  -1.5705  -1.5363  -1.4627
    -1.3438  -1.3417  -1.2435  -1.1678  -1.1351  -1.1080  -1.0552  -1.0408
    -1.0327  -0.9292  -0.7970  -0.7884  -0.7797  -0.6894  -0.6467  -0.6289
    -0.5460  -0.5402  -0.5043  -0.4814  -0.4551  -0.3767  -0.3679  -0.3203
    -0.3042  -0.2767  -0.1630  -0.1132  -0.1010  -0.0602  -0.0178   0.1704
     0.1822   0.3240   0.4018   0.5948   0.6937   0.7486   0.8626   1.2816
     1.3398   2.6227   2.8700   2.8972   2.9280   2.9661   3.0092   3.1198
     3.2285   3.3096   3.3255   3.3580

[...]

          k = 0.0380-0.0419 0.0000 ( 17876 PWs)   bands (ev):

[...]

          k =-0.0760-0.0000 0.0000 ( 17886 PWs)   bands (ev):

[...]

          k =-0.0760-0.0839 0.0000 ( 17948 PWs)   bands (ev):

   -56.2928 -56.2792 -56.2739 -56.2719 -56.1978 -56.1772 -56.1717 -56.1422
   -56.1229 -56.0860 -56.0611 -56.0565 -55.9956 -55.9749 -55.3144 -55.3131
   -32.6617 -32.6581 -32.6001 -32.5982 -32.5867 -32.5851 -32.5821 -32.5646
   -32.5575 -32.5099 -32.5086 -32.5000 -32.4943 -32.4676 -32.4396 -32.4354
   -32.4223 -32.4202 -32.4172 -32.4087 -32.4080 -32.3962 -32.3848 -32.3825
   -32.3809 -32.3766 -32.3706 -32.3501 -32.3412 -32.3272 -32.3141 -32.3137
   -32.3132 -32.2889 -32.2694 -32.2681 -32.2656 -32.2553 -32.2175 -32.2125
   -32.2034 -32.1691 -31.6343 -31.6327 -31.5545 -31.5534 -31.5152 -31.5141
   -19.8695 -16.4909 -16.4604 -16.3549 -16.2338 -16.2211 -16.1904 -16.1478
   -16.0921 -16.0405 -16.0352 -15.9851 -15.9637 -15.9622 -15.9217 -15.8868
   -15.8385 -15.8305 -15.8243 -15.8198 -15.7690 -15.7643 -15.7242 -15.6978
   -15.6901 -15.6519 -15.6500 -15.5714 -15.4972 -15.4567 -13.8155 -13.8132
    -8.2653  -5.0015  -3.7820  -3.7412  -3.6379  -3.6082  -3.4515  -3.4416
    -3.3968  -3.3328  -3.2766  -3.2229  -3.1955  -3.1701  -3.1543  -3.1386
    -3.1286  -3.1177  -3.1071  -3.0534  -3.0469  -3.0088  -2.9918  -2.9582
    -2.9435  -2.9374  -2.9262  -2.8929  -2.8786  -2.8678  -2.8615  -2.8514
    -2.7477  -2.6702  -2.6293  -2.5634  -2.5112  -2.4567  -2.4396  -2.4212
    -2.3852  -2.3698  -2.3535  -2.2144  -2.1854  -2.0507  -2.0390  -2.0197
    -1.9997  -1.9130  -1.8761  -1.7691  -1.7524  -1.7468  -1.6570  -1.6243
    -1.5632  -1.5475  -1.4721  -1.4297  -1.4069  -1.3311  -1.2803  -1.2681
    -1.2167  -1.1977  -1.1116  -1.0706  -1.0654  -1.0460  -0.9920  -0.9629
    -0.8829  -0.8654  -0.8454  -0.7529  -0.6884  -0.6629  -0.4796  -0.3171
    -0.3090  -0.2709  -0.1807  -0.1275  -0.0833  -0.0324  -0.0304   0.0496
     0.1033   0.1961   0.2137   0.2196   0.2945   1.0522   1.0535   1.1446
     1.1555   2.5351   3.0467   3.0905   3.1167   3.1839   3.3125   3.3368
     3.3504   3.3595   3.3740   3.4810

     the Fermi energy is     2.8464 ev

!    total energy              =   -2928.82043790 Ry
     estimated scf accuracy    <       0.00000006 Ry
     smearing contrib. (-TS)   =      -0.02917982 Ry
     internal energy E=F+TS    =   -2928.79125808 Ry

     The total energy is F=E-TS. E is the sum of the following terms:
     one-electron contribution =  -24718.01140347 Ry
     hartree contribution      =   12438.93014689 Ry
     xc contribution           =    -480.34045549 Ry
     ewald contribution        =    9830.63039033 Ry
     electric field correction =       0.00006365 Ry

     convergence has been achieved in  68 iterations

     Forces acting on atoms (cartesian axes, Ry/au):

     atom    1 type  1   force =    -0.00008990    0.00005701    0.10427034
     atom    2 type  1   force =    -0.00008760    0.00006866    0.10435456
     atom    3 type  2   force =    -0.00023285   -0.00191442    0.10278617
     atom    4 type  2   force =    -0.00013306    0.00161530    0.11443899
     atom    5 type  2   force =    -0.00028869    0.00044373   -0.18037674
     atom    6 type  2   force =    -0.00019398   -0.00001487   -0.18075415
     atom    7 type  1   force =    -0.06892242    0.00068405   -0.02917494
     atom    8 type  1   force =    -0.06848292   -0.00125230   -0.02922546
     atom    9 type  1   force =     0.06856093    0.00118676   -0.02923614
     atom   10 type  1   force =     0.06819782   -0.00087668   -0.02930749
     atom   11 type  1   force =     0.00017951    0.00061764    0.04599347
     atom   12 type  1   force =     0.00045132    0.00081039    0.04733716
     atom   13 type  1   force =     0.00022670   -0.00580744   -0.03328185
     atom   14 type  1   force =     0.00032378    0.00433926   -0.02639248
     atom   15 type  2   force =     0.00024181   -0.00054229   -0.00007090
     atom   16 type  2   force =     0.00041933    0.00039695    0.00030386
     atom   17 type  2   force =    -0.00027593   -0.00073644   -0.00077361
     atom   18 type  2   force =    -0.00040556   -0.00093645   -0.00123992
     atom   19 type  1   force =    -0.01835022    0.00018563    0.00432123
     atom   20 type  1   force =    -0.01686313    0.00156727    0.00358770
     atom   21 type  1   force =     0.01894555   -0.00060439    0.00444839
     atom   22 type  1   force =     0.01760443    0.00156281    0.00357666
     atom   23 type  1   force =     0.00002224    0.00013644   -0.00075196
     atom   24 type  1   force =     0.00004295    0.00026479    0.00097643
     atom   25 type  1   force =     0.00000439   -0.00008571   -0.00003311
     atom   26 type  1   force =    -0.00006503   -0.00024707   -0.00056555
     atom   27 type  2   force =    -0.00006668    0.00037438    0.00137434
     atom   28 type  2   force =    -0.00008310   -0.00028821    0.00071397
     atom   29 type  2   force =     0.00003963    0.00017520    0.00043817
     atom   30 type  2   force =    -0.00000091   -0.00033210    0.00119235
     atom   31 type  1   force =    -0.00003765   -0.00043959    0.00003837
     atom   32 type  1   force =     0.00000783    0.00016587    0.00013702
     atom   33 type  1   force =     0.00018440   -0.00038414   -0.00006246
     atom   34 type  1   force =     0.00007023    0.00010688    0.00004818
     atom   35 type  1   force =    -0.00017605   -0.00012897   -0.00021630
     atom   36 type  1   force =    -0.00017319   -0.00063790    0.00082250
     atom   37 type  1   force =     0.00039301   -0.00072867    0.00102674
     atom   38 type  1   force =    -0.00028113    0.00031014   -0.00085901
     atom   39 type  2   force =    -0.00035534   -0.00026627    0.00024895
     atom   40 type  2   force =    -0.00000089   -0.00038909   -0.00043281
     atom   41 type  2   force =     0.00002624    0.00037191    0.00037367
     atom   42 type  2   force =    -0.00001075    0.00047449   -0.00037175
     atom   43 type  1   force =     0.00115467   -0.00033128    0.00040380
     atom   44 type  1   force =    -0.00010694    0.00021512   -0.00029153
     atom   45 type  1   force =     0.00018064   -0.00007287   -0.00046548
     atom   46 type  1   force =    -0.00104372    0.00019647    0.00006206
     atom   47 type  1   force =    -0.00015296   -0.00025165    0.00021320
     atom   48 type  1   force =    -0.00196091    0.00044077    0.00265979
     atom   49 type  3   force =     0.00163450    0.00019101   -0.00262430
     atom   50 type  4   force =    -0.00007037    0.00030985    0.00035984

     Total force =     0.374790     Total SCF correction =     0.000460
  @ DRIVER MODE: Message from server: STATUS
  @ DRIVER MODE: Message from server: GETFORCE
  @ DRIVER MODE: Returning v,forces,stress,ensemble

     Writing output data file ./calc.save/
  @ DRIVER MODE: Message from server: EXIT
  @ DRIVE MODE: Exiting

     General routines

     Parallel routines

   This run was terminated on:  22:44:17   8Sep2021

   JOB DONE.