     Program PWSCF v.6.7GPU starts on 22Sep2021 at 18:40:48

     R & G space division:  proc/nbgrp/npool/nimage =      10
     Reading input from /storage/home/hcoda1/3/ntian30/research/carbon/CxH_vib/H2O_calc/ads_slab/CHNHNHHO_b/out_0008/pw.inp
Warning: card &CELL ignored
Warning: card   CELL_DYNAMICS='IPI', ignored
Warning: card / ignored

     Current dimensions of program PWSCF are:
     Max number of different atomic species (ntypx) = 10
     Max number of k-points (npk) =  40000
     Max angular momentum in pseudopotentials (lmaxx) =  3
     Presently no symmetry can be used with electric field

     Message from routine cell_base_init:
     DEPRECATED: use true lattice parameter, not A to a.u. conversion factor

     IMPORTANT: XC functional enforced from input :
     Exchange-correlation= BEEF-VDW
                           (   1   4  43  14   2   0   0)
     Any further DFT definition will be discarded
     Please, verify this is what you really want

  @ DRIVER MODE: Connecting to
 qe_1139763_2937316.sched-torque.pace.gatech.edut1495efv_scratch
  using UNIX socket
  @ DRIVER MODE: Message from server: STATUS
  @ DRIVER MODE: Message from server: INIT
  @ DRIVER MODE: Receiving replica           0          -1
  @ DRIVER MODE: Receiving encoded integer          25
  @ DRIVER MODE:  SCF:  T  FORCE:  T  STRESS:  F  VC:  F  ENSEMBLE:  F
  @ DRIVER MODE:  SCF:  T  FORCE:  T  STRESS:  F  VC:  F  ENSEMBLE:  F

     Using Slab Decomposition

     bravais-lattice index     =            0
     lattice parameter (alat)  =       1.8897  a.u.
     unit-cell volume          =    6658.9804 (a.u.)^3
     number of atoms/cell      =           55
     number of atomic types    =            5
     number of electrons       =       402.00
     number of Kohn-Sham states=          211
     kinetic-energy cutoff     =      29.3995  Ry
     charge density cutoff     =     293.9946  Ry
     scf convergence threshold =      7.3E-08
     mixing beta               =       0.0500
     number of iterations used =            8  plain     mixing
     Exchange-correlation= BEEF-VDW
                           (   1   4  43  14   2   0   0)

     celldm(1)=   1.889726  celldm(2)=   0.000000  celldm(3)=   0.000000
     celldm(4)=   0.000000  celldm(5)=   0.000000  celldm(6)=   0.000000

     crystal axes: (cart. coord. in units of alat)
               a(1) = (   6.579727   0.000000   0.000000 )
               a(2) = (  -0.000775   5.961596   0.000000 )
               a(3) = (   0.000000   0.000000  25.155947 )

     reciprocal axes: (cart. coord. in units 2 pi/alat)
               b(1) = (  0.151982  0.000020  0.000000 )
               b(2) = (  0.000000  0.167740  0.000000 )
               b(3) = (  0.000000  0.000000  0.039752 )

     PseudoPot. # 1 for Ti read from file:
     /storage/coda1/p-amedford6/0/shared/rich_project_chbe-medford/medford-share/data/pseudos_module/espresso/nninc/pbe/van/Ti.UPF
     MD5 check sum: 8e4df49b7f0d34bbd5052bf3f5ea0213
     Pseudo is Ultrasoft, Zval = 12.0
     Generated by new atomic code, or converted to UPF format
     Using radial grid of  851 points,  6 beta functions with:
                l(1) =   0
                l(2) =   0
                l(3) =   1
                l(4) =   1
                l(5) =   2
                l(6) =   2
     Q(r) pseudized with  8 coefficients,  rinner =    1.000   1.000   1.000
                                                       1.000   1.000

     PseudoPot. # 2 for O  read from file:
     /storage/coda1/p-amedford6/0/shared/rich_project_chbe-medford/medford-share/data/pseudos_module/espresso/nninc/pbe/van/O.UPF
     MD5 check sum: 78c19812648e8988a0fe644b0f25305e
     Pseudo is Ultrasoft, Zval =  6.0
     Generated by new atomic code, or converted to UPF format
     Using radial grid of  737 points,  4 beta functions with:
                l(1) =   0
                l(2) =   0
                l(3) =   1
                l(4) =   1
     Q(r) pseudized with  8 coefficients,  rinner =    0.800   0.800   0.800

     PseudoPot. # 3 for N  read from file:
     /storage/coda1/p-amedford6/0/shared/rich_project_chbe-medford/medford-share/data/pseudos_module/espresso/nninc/pbe/van/N.UPF
     MD5 check sum: 90d10febe142ad51ac9d5be1deb811c4
     Pseudo is Ultrasoft, Zval =  5.0
     Generated by new atomic code, or converted to UPF format
     Using radial grid of  729 points,  4 beta functions with:
                l(1) =   0
                l(2) =   0
                l(3) =   1
                l(4) =   1
     Q(r) pseudized with  8 coefficients,  rinner =    0.800   0.800   0.800

     PseudoPot. # 4 for C  read from file:
     /storage/coda1/p-amedford6/0/shared/rich_project_chbe-medford/medford-share/data/pseudos_module/espresso/nninc/pbe/van/C.UPF
     MD5 check sum: 1a69bf6b8db32088f5b2163dbdb77a27
     Pseudo is Ultrasoft, Zval =  4.0
     Generated by new atomic code, or converted to UPF format
     Using radial grid of  721 points,  4 beta functions with:
                l(1) =   0
                l(2) =   0
                l(3) =   1
                l(4) =   1
     Q(r) pseudized with  8 coefficients,  rinner =    0.800   0.800   0.800

     PseudoPot. # 5 for H  read from file:
     /storage/coda1/p-amedford6/0/shared/rich_project_chbe-medford/medford-share/data/pseudos_module/espresso/nninc/pbe/van/H.UPF
     MD5 check sum: b5ee9d7bfd3a09ee7748110bda690ff7
     Pseudo is Ultrasoft, Zval =  1.0
     Generated by new atomic code, or converted to UPF format
     Using radial grid of  615 points,  1 beta functions with:
                l(1) =   0
     Q(r) pseudized with  8 coefficients,  rinner =    0.800

     atomic species   valence    mass     pseudopotential
        Ti1           12.00    47.86700     Ti( 1.00)
        O1             6.00    15.99900     O ( 1.00)
        N1             5.00    14.00700     N ( 1.00)
        C1             4.00    12.01100     C ( 1.00)
        H1             1.00     1.00800     H ( 1.00)

     No symmetry found

   Cartesian axes

     site n.     atom                  positions (alat units)
         1           Ti1 tau(   1) = (   0.0004258   2.9801865   6.0000000  )
         2           Ti1 tau(   2) = (   3.2906075   1.4906267   6.0002472  )
         3           O1  tau(   3) = (   0.0006271   0.0005054   7.9858123  )
         4           O1  tau(   4) = (   3.2906025   0.0005020   7.3038282  )
         5           O1  tau(   5) = (   4.5942328   1.4918067   9.2879030  )
         6           O1  tau(   6) = (   1.9868534   1.4903216   9.2879459  )
         7           Ti1 tau(   7) = (   3.2907910   2.8959150   9.1758416  )
         8           Ti1 tau(   8) = (   0.0015273   1.4827037   9.2680791  )
         9           O1  tau(   9) = (   3.2644249   0.0086278  11.2869930  )
        10           O1  tau(  10) = (   0.0116148   5.9584955  10.6183126  )
        11           O1  tau(  11) = (   1.2700591   1.4733127  12.6309263  )
        12           O1  tau(  12) = (   5.2751843   1.4954020  12.5848179  )
        13           Ti1 tau(  13) = (   6.5455424   3.1153876  12.7101385  )
        14           Ti1 tau(  14) = (   3.2833704   1.6184148  12.4736748  )
        15           O1  tau(  15) = (   6.4599305   0.0050319  14.6091115  )
        16           O1  tau(  16) = (   3.3300269   5.9263713  13.9180617  )
        17           O1  tau(  17) = (   4.5165145   1.5716339  16.0125648  )
        18           O1  tau(  18) = (   1.9127028   1.4417528  15.8564018  )
        19           Ti1 tau(  19) = (   3.2288969   3.0847727  15.7886749  )
        20           Ti1 tau(  20) = (   6.4478006   1.4606891  15.8161894  )
        21           O1  tau(  21) = (   3.2904802   0.0005063   4.7018136  )
        22           O1  tau(  22) = (   6.4882405   0.0114324  17.1415363  )
        23           O1  tau(  23) = (   1.3043587   1.4918075   6.0039043  )
        24           O1  tau(  24) = (   5.2767064   1.4903225   6.0039473  )
        25           Ti1 tau(  25) = (   0.0000382   5.9609847   6.0000000  )
        26           Ti1 tau(  26) = (   3.2902200   4.4714249   6.0002472  )
        27           O1  tau(  27) = (   0.0002396   2.9813036   7.9858123  )
        28           O1  tau(  28) = (   3.2902150   2.9813002   7.3038282  )
        29           O1  tau(  29) = (   4.5938453   4.4726049   9.2879030  )
        30           O1  tau(  30) = (   1.9864658   4.4711199   9.2879459  )
        31           Ti1 tau(  31) = (   3.2891106   5.8743827   9.1763621  )
        32           Ti1 tau(  32) = (   0.0006254   4.4649316   9.2693709  )
        33           O1  tau(  33) = (   3.2692249   2.9538419  11.2423542  )
        34           O1  tau(  34) = (   0.0092240   2.9805883  10.6323155  )
        35           O1  tau(  35) = (   1.2565178   4.4877289  12.6449601  )
        36           O1  tau(  36) = (   5.2732762   4.4628510  12.5929129  )
        37           Ti1 tau(  37) = (   6.5734634   0.1294159  12.5697125  )
        38           Ti1 tau(  38) = (   3.2704022   4.6437612  12.6513646  )
        39           O1  tau(  39) = (   6.5063912   2.9643141  14.6466205  )
        40           O1  tau(  40) = (   3.2471416   2.9787476  13.8564769  )
        41           O1  tau(  41) = (   4.5405411   4.3625105  16.0593999  )
        42           O1  tau(  42) = (   1.9254132   4.5167653  15.8604027  )
        43           Ti1 tau(  43) = (   3.1528194   0.1083906  16.0566338  )
        44           Ti1 tau(  44) = (   6.5270785   4.6226534  15.9816197  )
        45           O1  tau(  45) = (   3.2900926   2.9813045   4.7018136  )
        46           O1  tau(  46) = (   1.3039711   4.4726057   6.0039043  )
        47           O1  tau(  47) = (   5.2763189   4.4711207   6.0039473  )
        48           N1  tau(  48) = (   1.2829970   2.9130689  18.3045482  )
        49           N1  tau(  49) = (   0.1754257   2.9641015  17.4510142  )
        50           C1  tau(  50) = (   2.5260228   2.9473648  17.9488278  )
        51           H1  tau(  51) = (   3.1619500   2.8785295  18.8336233  )
        52           H1  tau(  52) = (   1.0209804   2.8219014  19.2831343  )
        53           H1  tau(  53) = (   5.9303595   2.9248499  18.0583253  )
        54           O1  tau(  54) = (   3.2854906   0.0173217  17.9285145  )
        55           H1  tau(  55) = (   4.1908827   5.7946650  18.2246816  )

     number of k points=    10  Fermi-Dirac smearing, width (Ry)=  0.0073
                       cart. coord. in units 2pi/alat
        k(    1) = (   0.0000000   0.0000000   0.0000000), wk =   0.1250000
        k(    2) = (   0.0000000   0.0419351   0.0000000), wk =   0.2500000
        k(    3) = (   0.0000000  -0.0838702   0.0000000), wk =   0.1250000
        k(    4) = (   0.0379955   0.0000049   0.0000000), wk =   0.2500000
        k(    5) = (   0.0379955   0.0419400   0.0000000), wk =   0.2500000
        k(    6) = (   0.0379955  -0.0838652   0.0000000), wk =   0.2500000
        k(    7) = (   0.0379955  -0.0419301   0.0000000), wk =   0.2500000
        k(    8) = (  -0.0759910  -0.0000099   0.0000000), wk =   0.1250000
        k(    9) = (  -0.0759910   0.0419252   0.0000000), wk =   0.2500000
        k(   10) = (  -0.0759910  -0.0838800   0.0000000), wk =   0.1250000

     Initial potential from superposition of free atoms

     starting charge  385.99915, renormalised to  402.00000

     negative rho (up, down):  1.797E-02 0.000E+00

     %%%%%%%%%%%%%%%%%%%%%%%%%%%%%%%%%%%%%%%%%%%%%%%%%%%%%%%%%%%%%%%%%%%%%%%%
     %                                                                      %
     % You are using vdW-DF, which was implemented by the Thonhauser group. %
     % Please cite the following two papers that made this development      %
     % possible and the two reviews that describe the various versions:     %
     %                                                                      %
     %   T. Thonhauser et al., PRL 115, 136402 (2015).                      %
     %   T. Thonhauser et al., PRB 76, 125112 (2007).                       %
     %   K. Berland et al., Rep. Prog. Phys. 78, 066501 (2015).             %
     %   D.C. Langreth et al., J. Phys.: Condens. Matter 21, 084203 (2009). %
     %                                                                      %
     %                                                                      %
     % If you are calculating the stress with vdW-DF, please also cite:     %
     %                                                                      %
     %   R. Sabatini et al., J. Phys.: Condens. Matter 24, 424209 (2012).   %
     %                                                                      %
     %%%%%%%%%%%%%%%%%%%%%%%%%%%%%%%%%%%%%%%%%%%%%%%%%%%%%%%%%%%%%%%%%%%%%%%%

     Adding external electric field

     Computed dipole along edir(3) :
        Dipole              -10.6951 Ry au,        -27.1842 Debye
        Dipole field         -0.0202 Ry au,

        Potential amp.        1.8709 Ry
        Total length         46.3494 bohr

     Starting wfcs are  304 atomic wfcs
  @ DRIVER MODE: Message from server: STATUS
  @ DRIVER MODE: Message from server: POSDATA
  @ DRIVER MODE: Reading and sharing cell
  @ DRIVER MODE: Reading and sharing positions
  @ DRIVER MODE: Received positions

     Self-consistent Calculation

     iteration #  1     ecut=    29.40 Ry     beta= 0.05
     Davidson diagonalization with overlap
     c_bands:  2 eigenvalues not converged
     c_bands:  4 eigenvalues not converged
     c_bands:  4 eigenvalues not converged
     c_bands:  3 eigenvalues not converged
     c_bands:  3 eigenvalues not converged
     c_bands:  3 eigenvalues not converged
     c_bands:  2 eigenvalues not converged
     c_bands:  4 eigenvalues not converged
     c_bands:  4 eigenvalues not converged
     ethr =  1.00E-05,  avg # of iterations = 21.8

[...]

     total energy              =   -2413.99017689 Ry
     estimated scf accuracy    <    6230.11156280 Ry

     iteration #  2     ecut=    29.40 Ry     beta= 0.05
     Davidson diagonalization with overlap
     ethr =  1.00E-02,  avg # of iterations = 25.0

[...]

     iteration # 43     ecut=    29.40 Ry     beta= 0.05
     Davidson diagonalization with overlap
     c_bands:  1 eigenvalues not converged
     ethr =  1.60E-06,  avg # of iterations =  8.5

[...]

     total energy              =   -2972.68730861 Ry
     estimated scf accuracy    <       0.00000010 Ry

     iteration # 83     ecut=    29.40 Ry     beta= 0.05
     Davidson diagonalization with overlap
     ethr =  2.03E-11,  avg # of iterations =  5.0

     negative rho (up, down):  1.824E-02 0.000E+00

     Adding external electric field

     Computed dipole along edir(3) :
        Dipole                0.6946 Ry au,          1.7655 Debye
        Dipole field          0.0013 Ry au,

        Potential amp.       -0.1215 Ry
        Total length         46.3494 bohr

     End of self-consistent calculation

          k = 0.0000 0.0000 0.0000 ( 18029 PWs)   bands (ev):

   -56.6060 -56.5725 -55.7182 -55.6845 -55.4147 -55.3709 -55.1426 -55.1088
   -54.9738 -54.9636 -54.9316 -54.8938 -54.8129 -54.7864 -54.7825 -54.7096
   -33.0242 -32.8784 -32.8504 -32.7842 -32.6941 -32.6513 -32.2069 -31.9408
   -31.9029 -31.9014 -31.8651 -31.8536 -31.8286 -31.6438 -31.6344 -31.6068
   -31.5720 -31.5274 -31.5142 -31.4910 -31.4699 -31.4664 -31.4492 -31.3781
   -31.3453 -31.2874 -31.2757 -31.2660 -31.2341 -31.2289 -31.1788 -31.1653
   -31.1544 -31.1125 -31.1086 -31.0955 -31.0687 -31.0625 -31.0605 -31.0266
   -31.0083 -31.0058 -30.9988 -30.9880 -30.9427 -30.9204 -30.9170 -30.9022
   -18.1269 -16.7064 -16.1529 -15.9187 -15.7961 -15.7783 -15.7693 -15.7528
   -15.5610 -15.5096 -15.4069 -15.3288 -15.3062 -15.0725 -15.0490 -14.9753
   -14.8442 -14.8097 -14.7254 -14.6988 -14.6895 -14.6092 -14.5952 -14.5087
   -14.4590 -14.4417 -14.3538 -14.2454 -14.1921 -14.0806 -14.0389 -13.6403
   -13.5338 -12.9456  -8.2696  -6.7820  -4.2803  -3.8390  -3.6181  -3.4602
    -3.2994  -3.2695  -3.1171  -3.0895  -3.0642  -3.0120  -2.9529  -2.9369
    -2.8639  -2.8442  -2.7423  -2.7017  -2.6579  -2.6395  -2.4091  -2.3508
    -2.3145  -2.3135  -2.2095  -2.1334  -2.1115  -2.1060  -2.0380  -1.9682
    -1.9091  -1.8633  -1.8452  -1.8245  -1.7996  -1.7017  -1.6160  -1.6029
    -1.5973  -1.5552  -1.4399  -1.4148  -1.3927  -1.3311  -1.2660  -1.1986
    -1.1738  -1.1505  -1.0520  -1.0415  -0.9396  -0.9113  -0.8745  -0.8197
    -0.7412  -0.7152  -0.5957  -0.5854  -0.4766  -0.4700  -0.4426  -0.4370
    -0.3373  -0.2569  -0.2036  -0.1519  -0.1272  -0.1059  -0.0469  -0.0405
    -0.0036   0.0322   0.1074   0.2004   0.2625   0.2976   0.3408   0.4967
     0.5382   0.5683   0.5822   0.6705   0.7143   0.7362   0.7695   0.8470
     0.8746   0.8782   0.9765   1.0144   1.0552   1.0786   1.1377   1.1740
     1.2031   1.3806   1.4128   1.4334   1.4546   1.5299   1.7694   1.8073
     1.9348   2.6887   2.8619   3.1314   3.2874   3.6536   3.6743   3.6927
     3.6937   3.9716   4.1417

[...]

          k = 0.0380-0.0419 0.0000 ( 17876 PWs)   bands (ev):

[...]

          k =-0.0760-0.0000 0.0000 ( 17886 PWs)   bands (ev):

[...]

          k =-0.0760-0.0839 0.0000 ( 17948 PWs)   bands (ev):

   -56.5894 -56.5889 -55.7030 -55.6996 -55.4067 -55.3789 -55.1257 -55.1256
   -54.9719 -54.9592 -54.9299 -54.8981 -54.8102 -54.7873 -54.7848 -54.7122
   -32.8644 -32.8640 -32.8420 -32.8410 -32.7378 -32.7378 -32.0296 -32.0254
   -31.9004 -31.8925 -31.8768 -31.8759 -31.7196 -31.6981 -31.6316 -31.6236
   -31.6054 -31.6003 -31.4795 -31.4795 -31.3881 -31.3448 -31.3445 -31.3063
   -31.3058 -31.2916 -31.2700 -31.2466 -31.2230 -31.2087 -31.1955 -31.1892
   -31.1738 -31.1464 -31.1442 -31.1333 -31.1203 -31.0991 -31.0797 -31.0626
   -31.0500 -31.0399 -31.0285 -31.0144 -31.0112 -30.9611 -30.9220 -30.9091
   -18.1220 -16.0712 -16.0682 -16.0164 -16.0157 -15.7687 -15.7613 -15.7006
   -15.4582 -15.4529 -15.2667 -15.1529 -15.1315 -15.0725 -15.0685 -14.9373
   -14.9166 -14.8984 -14.8105 -14.7609 -14.7275 -14.7050 -14.6421 -14.5724
   -14.4616 -14.4441 -14.4295 -14.3935 -14.3379 -14.2474 -14.2062 -13.6387
   -13.6378 -12.9660  -8.2625  -6.7009  -3.9871  -3.3026  -3.1347  -3.1337
    -3.1334  -3.1120  -2.9286  -2.8966  -2.8841  -2.7144  -2.6205  -2.6148
    -2.6100  -2.4739  -2.4417  -2.4252  -2.4164  -2.3963  -2.3275  -2.3131
    -2.3088  -2.2740  -2.2527  -2.0986  -2.0895  -2.0404  -1.9716  -1.9626
    -1.9405  -1.9072  -1.8428  -1.8042  -1.7982  -1.7821  -1.7645  -1.7444
    -1.6992  -1.6409  -1.4474  -1.4008  -1.3829  -1.3632  -1.3181  -1.3098
    -1.2903  -1.2323  -1.1953  -1.1855  -1.1610  -1.1330  -1.0614  -1.0413
    -0.9953  -0.8627  -0.8146  -0.7876  -0.7519  -0.6578  -0.6179  -0.5905
    -0.5565  -0.4692  -0.4126  -0.3795  -0.3024  -0.2643  -0.2192  -0.1931
    -0.1696  -0.1243  -0.1054   0.0027   0.0591   0.0905   0.1134   0.1982
     0.3276   0.3436   0.3978   0.4464   0.5392   0.5776   0.6556   0.6982
     0.7802   0.8589   0.9296   1.0792   1.1154   1.1708   1.2377   1.2551
     1.2568   1.2855   1.2968   1.3396   1.3612   1.4456   1.5202   1.6842
     1.7090   3.2835   3.2849   3.3425   3.3460   3.6513   3.6575   3.7603
     3.7673   4.0779   4.1281

     the Fermi energy is     2.3672 ev

!    total energy              =   -2972.68731577 Ry
     estimated scf accuracy    <       0.00000003 Ry
     smearing contrib. (-TS)   =      -0.00154135 Ry
     internal energy E=F+TS    =   -2972.68577442 Ry

     The total energy is F=E-TS. E is the sum of the following terms:
     one-electron contribution =  -24519.73421198 Ry
     hartree contribution      =   12356.16155219 Ry
     xc contribution           =    -493.19300788 Ry
     ewald contribution        =    9684.07898273 Ry
     electric field correction =       0.00091053 Ry

     convergence has been achieved in  83 iterations

     Forces acting on atoms (cartesian axes, Ry/au):

     atom    1 type  1   force =     0.00016377   -0.00060555    0.12516956
     atom    2 type  1   force =     0.00002525    0.00003491   -0.15415721
     atom    3 type  2   force =    -0.00002945   -0.00028095   -0.06546255
     atom    4 type  2   force =    -0.00011350    0.00074204    0.01451041
     atom    5 type  2   force =     0.00023604   -0.00326042   -0.01519847
     atom    6 type  2   force =     0.00027749   -0.00242386   -0.01816357
     atom    7 type  1   force =    -0.00129042   -0.00082474    0.06314364
     atom    8 type  1   force =     0.00164537    0.01847307    0.09180474
     atom    9 type  2   force =     0.00018413   -0.00020321   -0.00006962
     atom   10 type  2   force =    -0.00307284    0.00126281   -0.06779746
     atom   11 type  2   force =    -0.00038452   -0.00021707   -0.00020713
     atom   12 type  2   force =    -0.00025687    0.00041518    0.00017090
     atom   13 type  1   force =     0.00103881    0.00025388   -0.00016244
     atom   14 type  1   force =    -0.00051903    0.00062211   -0.00059954
     atom   15 type  2   force =     0.00008931    0.00069332    0.00040042
     atom   16 type  2   force =     0.00009653    0.00018745   -0.00021392
     atom   17 type  2   force =     0.00000033    0.00027216   -0.00003789
     atom   18 type  2   force =     0.00099662   -0.00087822   -0.00011306
     atom   19 type  1   force =    -0.00065450   -0.00036112    0.00014050
     atom   20 type  1   force =     0.00094116   -0.00043703   -0.00039150
     atom   21 type  2   force =     0.00008313    0.00004918    0.09750346
     atom   22 type  2   force =    -0.00027129    0.00024828    0.00053341
     atom   23 type  2   force =    -0.08325346    0.00001062   -0.03310472
     atom   24 type  2   force =     0.08316634    0.00045393   -0.03312383
     atom   25 type  1   force =     0.00014789   -0.00036850    0.12539136
     atom   26 type  1   force =    -0.00002759   -0.00123149   -0.15381379
     atom   27 type  2   force =    -0.00002047   -0.00014816   -0.06355399
     atom   28 type  2   force =     0.00000319    0.00070848    0.01026284
     atom   29 type  2   force =    -0.00227430    0.00251002   -0.01349072
     atom   30 type  2   force =     0.00266109    0.00282622   -0.01637693
     atom   31 type  1   force =    -0.00126577   -0.00143102    0.06109027
     atom   32 type  1   force =     0.00157322   -0.01942609    0.09384806
     atom   33 type  2   force =     0.00026378    0.00000287   -0.00018997
     atom   34 type  2   force =    -0.00076198    0.00124604   -0.07923200
     atom   35 type  2   force =     0.00025869   -0.00003433    0.00010278
     atom   36 type  2   force =    -0.00049417    0.00015678    0.00042212
     atom   37 type  1   force =     0.00096123    0.00013975    0.00020443
     atom   38 type  1   force =    -0.00055597   -0.00027789   -0.00007906
     atom   39 type  2   force =     0.00023696    0.00013039    0.00015931
     atom   40 type  2   force =    -0.00015575    0.00009502    0.00036654
     atom   41 type  2   force =     0.00014164   -0.00009904   -0.00026345
     atom   42 type  2   force =     0.00065378   -0.00002170    0.00010327
     atom   43 type  1   force =    -0.00114919   -0.00039641   -0.00045739
     atom   44 type  1   force =     0.00059498    0.00087516   -0.00048322
     atom   45 type  2   force =     0.00007232    0.00005808    0.09736445
     atom   46 type  2   force =    -0.08319664   -0.00003602   -0.03309027
     atom   47 type  2   force =     0.08314428    0.00037957   -0.03309425
     atom   48 type  3   force =     0.00629231   -0.00032407    0.00302730
     atom   49 type  3   force =    -0.01855359   -0.00035951    0.00404471
     atom   50 type  4   force =     0.00244272   -0.00027945    0.00078007
     atom   51 type  5   force =    -0.00013868   -0.00021840   -0.00041984
     atom   52 type  5   force =     0.00026856   -0.00015125   -0.00040828
     atom   53 type  5   force =     0.00943318    0.00023362   -0.00719856
     atom   54 type  2   force =     0.00010639    0.00045853    0.00051525
     atom   55 type  5   force =     0.00023947    0.00075604   -0.00010519

     Total force =     0.420367     Total SCF correction =     0.000465
  @ DRIVER MODE: Message from server: STATUS
  @ DRIVER MODE: Message from server: GETFORCE
  @ DRIVER MODE: Returning v,forces,stress,ensemble

     Writing output data file ./calc.save/
  @ DRIVER MODE: Message from server: EXIT
  @ DRIVE MODE: Exiting

     General routines

     Parallel routines

   This run was terminated on:  19: 2:17  22Sep2021

   JOB DONE.