     Program PWSCF v.6.7GPU starts on 22Sep2021 at 21:35:28

     R & G space division:  proc/nbgrp/npool/nimage =      10
     Reading input from /storage/home/hcoda1/3/ntian30/research/carbon/CxH_vib/H2O_calc/ads_slab/CH3NHO_a/out_0017/pw.inp
Warning: card &CELL ignored
Warning: card   CELL_DYNAMICS='IPI', ignored
Warning: card / ignored

     Current dimensions of program PWSCF are:
     Max number of different atomic species (ntypx) = 10
     Max number of k-points (npk) =  40000
     Max angular momentum in pseudopotentials (lmaxx) =  3
     Presently no symmetry can be used with electric field

     Message from routine cell_base_init:
     DEPRECATED: use true lattice parameter, not A to a.u. conversion factor

     IMPORTANT: XC functional enforced from input :
     Exchange-correlation= BEEF-VDW
                           (   1   4  43  14   2   0   0)
     Any further DFT definition will be discarded
     Please, verify this is what you really want

  @ DRIVER MODE: Connecting to
 qe_1139763_2937319.sched-torque.pace.gatech.edu1c97fa0k_scratch
  using UNIX socket
  @ DRIVER MODE: Message from server: STATUS
  @ DRIVER MODE: Message from server: INIT
  @ DRIVER MODE: Receiving replica           0          -1
  @ DRIVER MODE: Receiving encoded integer          25
  @ DRIVER MODE:  SCF:  T  FORCE:  T  STRESS:  F  VC:  F  ENSEMBLE:  F
  @ DRIVER MODE:  SCF:  T  FORCE:  T  STRESS:  F  VC:  F  ENSEMBLE:  F

     Using Slab Decomposition

     bravais-lattice index     =            0
     lattice parameter (alat)  =       1.8897  a.u.
     unit-cell volume          =    6658.9804 (a.u.)^3
     number of atoms/cell      =           54
     number of atomic types    =            5
     number of electrons       =       397.00
     number of Kohn-Sham states=          208
     kinetic-energy cutoff     =      29.3995  Ry
     charge density cutoff     =     293.9946  Ry
     scf convergence threshold =      7.3E-08
     mixing beta               =       0.0500
     number of iterations used =            8  plain     mixing
     Exchange-correlation= BEEF-VDW
                           (   1   4  43  14   2   0   0)

     celldm(1)=   1.889726  celldm(2)=   0.000000  celldm(3)=   0.000000
     celldm(4)=   0.000000  celldm(5)=   0.000000  celldm(6)=   0.000000

     crystal axes: (cart. coord. in units of alat)
               a(1) = (   6.579727   0.000000   0.000000 )
               a(2) = (  -0.000775   5.961596   0.000000 )
               a(3) = (   0.000000   0.000000  25.155947 )

     reciprocal axes: (cart. coord. in units 2 pi/alat)
               b(1) = (  0.151982  0.000020  0.000000 )
               b(2) = (  0.000000  0.167740  0.000000 )
               b(3) = (  0.000000  0.000000  0.039752 )

     PseudoPot. # 1 for Ti read from file:
     /storage/coda1/p-amedford6/0/shared/rich_project_chbe-medford/medford-share/data/pseudos_module/espresso/nninc/pbe/van/Ti.UPF
     MD5 check sum: 8e4df49b7f0d34bbd5052bf3f5ea0213
     Pseudo is Ultrasoft, Zval = 12.0
     Generated by new atomic code, or converted to UPF format
     Using radial grid of  851 points,  6 beta functions with:
                l(1) =   0
                l(2) =   0
                l(3) =   1
                l(4) =   1
                l(5) =   2
                l(6) =   2
     Q(r) pseudized with  8 coefficients,  rinner =    1.000   1.000   1.000
                                                       1.000   1.000

     PseudoPot. # 2 for O  read from file:
     /storage/coda1/p-amedford6/0/shared/rich_project_chbe-medford/medford-share/data/pseudos_module/espresso/nninc/pbe/van/O.UPF
     MD5 check sum: 78c19812648e8988a0fe644b0f25305e
     Pseudo is Ultrasoft, Zval =  6.0
     Generated by new atomic code, or converted to UPF format
     Using radial grid of  737 points,  4 beta functions with:
                l(1) =   0
                l(2) =   0
                l(3) =   1
                l(4) =   1
     Q(r) pseudized with  8 coefficients,  rinner =    0.800   0.800   0.800

     PseudoPot. # 3 for N  read from file:
     /storage/coda1/p-amedford6/0/shared/rich_project_chbe-medford/medford-share/data/pseudos_module/espresso/nninc/pbe/van/N.UPF
     MD5 check sum: 90d10febe142ad51ac9d5be1deb811c4
     Pseudo is Ultrasoft, Zval =  5.0
     Generated by new atomic code, or converted to UPF format
     Using radial grid of  729 points,  4 beta functions with:
                l(1) =   0
                l(2) =   0
                l(3) =   1
                l(4) =   1
     Q(r) pseudized with  8 coefficients,  rinner =    0.800   0.800   0.800

     PseudoPot. # 4 for C  read from file:
     /storage/coda1/p-amedford6/0/shared/rich_project_chbe-medford/medford-share/data/pseudos_module/espresso/nninc/pbe/van/C.UPF
     MD5 check sum: 1a69bf6b8db32088f5b2163dbdb77a27
     Pseudo is Ultrasoft, Zval =  4.0
     Generated by new atomic code, or converted to UPF format
     Using radial grid of  721 points,  4 beta functions with:
                l(1) =   0
                l(2) =   0
                l(3) =   1
                l(4) =   1
     Q(r) pseudized with  8 coefficients,  rinner =    0.800   0.800   0.800

     PseudoPot. # 5 for H  read from file:
     /storage/coda1/p-amedford6/0/shared/rich_project_chbe-medford/medford-share/data/pseudos_module/espresso/nninc/pbe/van/H.UPF
     MD5 check sum: b5ee9d7bfd3a09ee7748110bda690ff7
     Pseudo is Ultrasoft, Zval =  1.0
     Generated by new atomic code, or converted to UPF format
     Using radial grid of  615 points,  1 beta functions with:
                l(1) =   0
     Q(r) pseudized with  8 coefficients,  rinner =    0.800

     atomic species   valence    mass     pseudopotential
        Ti1           12.00    47.86700     Ti( 1.00)
        O1             6.00    15.99900     O ( 1.00)
        N1             5.00    14.00700     N ( 1.00)
        C1             4.00    12.01100     C ( 1.00)
        H1             1.00     1.00800     H ( 1.00)

     No symmetry found

   Cartesian axes

     site n.     atom                  positions (alat units)
         1           Ti1 tau(   1) = (   0.0004258   2.9801865   6.0000000  )
         2           Ti1 tau(   2) = (   3.2906075   1.4906267   6.0002472  )
         3           O1  tau(   3) = (   0.0006271   0.0005054   7.9858123  )
         4           O1  tau(   4) = (   3.2906025   0.0005020   7.3038282  )
         5           O1  tau(   5) = (   4.5942328   1.4918067   9.2879030  )
         6           O1  tau(   6) = (   1.9868534   1.4903216   9.2879459  )
         7           Ti1 tau(   7) = (   3.2907910   2.8959150   9.1758416  )
         8           Ti1 tau(   8) = (   0.0015273   1.4827037   9.2680791  )
         9           O1  tau(   9) = (   3.2880966   5.9442215  11.2779904  )
        10           O1  tau(  10) = (   0.0116148   5.9584955  10.6183126  )
        11           O1  tau(  11) = (   1.2901275   1.4920942  12.6240107  )
        12           O1  tau(  12) = (   5.2966278   1.4852543  12.6143030  )
        13           Ti1 tau(  13) = (   0.0031916   3.1007002  12.7073671  )
        14           Ti1 tau(  14) = (   3.2978183   1.3116672  12.6600973  )
        15           O1  tau(  15) = (   6.5743189   0.0224225  14.6379036  )
        16           O1  tau(  16) = (   3.2931419   0.0435670  13.8892854  )
        17           O1  tau(  17) = (   4.5409235   1.5821231  16.0748620  )
        18           O1  tau(  18) = (   2.0417342   1.5698890  16.0900686  )
        19           Ti1 tau(  19) = (   3.2746960   3.0378214  15.6558348  )
        20           Ti1 tau(  20) = (   6.4705883   1.5381531  15.9030332  )
        21           O1  tau(  21) = (   3.2904802   0.0005063   4.7018136  )
        22           O1  tau(  22) = (   6.5584422   0.0457650  17.1906971  )
        23           O1  tau(  23) = (   1.3043587   1.4918075   6.0039043  )
        24           O1  tau(  24) = (   5.2767064   1.4903225   6.0039473  )
        25           Ti1 tau(  25) = (   0.0000382   5.9609847   6.0000000  )
        26           Ti1 tau(  26) = (   3.2902200   4.4714249   6.0002472  )
        27           O1  tau(  27) = (   0.0002396   2.9813036   7.9858123  )
        28           O1  tau(  28) = (   3.2902150   2.9813002   7.3038282  )
        29           O1  tau(  29) = (   4.5938453   4.4726049   9.2879030  )
        30           O1  tau(  30) = (   1.9864658   4.4711199   9.2879459  )
        31           Ti1 tau(  31) = (   3.2891106   5.8743827   9.1763621  )
        32           Ti1 tau(  32) = (   0.0006254   4.4649316   9.2693709  )
        33           O1  tau(  33) = (   3.2918970   3.0256722  11.2465752  )
        34           O1  tau(  34) = (   0.0092240   2.9805883  10.6323155  )
        35           O1  tau(  35) = (   1.2932338   4.4650182  12.6342030  )
        36           O1  tau(  36) = (   5.2897350   4.4662865  12.6224893  )
        37           Ti1 tau(  37) = (   0.0112454   0.1207271  12.6557084  )
        38           Ti1 tau(  38) = (   3.2993242   4.4067673  12.4119285  )
        39           O1  tau(  39) = (   6.5542949   2.9732608  14.6543823  )
        40           O1  tau(  40) = (   3.2957262   2.9928748  13.8751945  )
        41           O1  tau(  41) = (   4.5169628   4.4726675  16.1294972  )
        42           O1  tau(  42) = (   2.0179035   4.4711894  16.0655614  )
        43           Ti1 tau(  43) = (   3.1791666   0.0518155  16.3463265  )
        44           Ti1 tau(  44) = (   6.5235282   4.6410908  16.0777984  )
        45           O1  tau(  45) = (   3.2900926   2.9813045   4.7018136  )
        46           O1  tau(  46) = (   1.3039711   4.4726057   6.0039043  )
        47           O1  tau(  47) = (   5.2763189   4.4711207   6.0039473  )
        48           N1  tau(  48) = (   0.0679940   2.9882472  17.3287890  )
        49           C1  tau(  49) = (   0.3445104   2.8919884  18.7043053  )
        50           H1  tau(  50) = (   0.5935414   3.8503421  19.1619745  )
        51           H1  tau(  51) = (   6.0379261   2.4644003  19.2136804  )
        52           H1  tau(  52) = (   1.1315070   2.1426081  18.8955932  )
        53           O1  tau(  53) = (   3.2362511   0.0690349  18.1809703  )
        54           H1  tau(  54) = (   3.8186072   5.4079590  18.6400750  )

     number of k points=    10  Fermi-Dirac smearing, width (Ry)=  0.0073
                       cart. coord. in units 2pi/alat
        k(    1) = (   0.0000000   0.0000000   0.0000000), wk =   0.1250000
        k(    2) = (   0.0000000   0.0419351   0.0000000), wk =   0.2500000
        k(    3) = (   0.0000000  -0.0838702   0.0000000), wk =   0.1250000
        k(    4) = (   0.0379955   0.0000049   0.0000000), wk =   0.2500000
        k(    5) = (   0.0379955   0.0419400   0.0000000), wk =   0.2500000
        k(    6) = (   0.0379955  -0.0838652   0.0000000), wk =   0.2500000
        k(    7) = (   0.0379955  -0.0419301   0.0000000), wk =   0.2500000
        k(    8) = (  -0.0759910  -0.0000099   0.0000000), wk =   0.1250000
        k(    9) = (  -0.0759910   0.0419252   0.0000000), wk =   0.2500000
        k(   10) = (  -0.0759910  -0.0838800   0.0000000), wk =   0.1250000

     Initial potential from superposition of free atoms

     starting charge  380.99916, renormalised to  397.00000

     negative rho (up, down):  1.677E-02 0.000E+00

     %%%%%%%%%%%%%%%%%%%%%%%%%%%%%%%%%%%%%%%%%%%%%%%%%%%%%%%%%%%%%%%%%%%%%%%%
     %                                                                      %
     % You are using vdW-DF, which was implemented by the Thonhauser group. %
     % Please cite the following two papers that made this development      %
     % possible and the two reviews that describe the various versions:     %
     %                                                                      %
     %   T. Thonhauser et al., PRL 115, 136402 (2015).                      %
     %   T. Thonhauser et al., PRB 76, 125112 (2007).                       %
     %   K. Berland et al., Rep. Prog. Phys. 78, 066501 (2015).             %
     %   D.C. Langreth et al., J. Phys.: Condens. Matter 21, 084203 (2009). %
     %                                                                      %
     %                                                                      %
     % If you are calculating the stress with vdW-DF, please also cite:     %
     %                                                                      %
     %   R. Sabatini et al., J. Phys.: Condens. Matter 24, 424209 (2012).   %
     %                                                                      %
     %%%%%%%%%%%%%%%%%%%%%%%%%%%%%%%%%%%%%%%%%%%%%%%%%%%%%%%%%%%%%%%%%%%%%%%%

     Adding external electric field

     Computed dipole along edir(3) :
        Dipole               -8.2913 Ry au,        -21.0744 Debye
        Dipole field         -0.0156 Ry au,

        Potential amp.        1.4504 Ry
        Total length         46.3494 bohr

     Starting wfcs are  300 atomic wfcs
  @ DRIVER MODE: Message from server: STATUS
  @ DRIVER MODE: Message from server: POSDATA
  @ DRIVER MODE: Reading and sharing cell
  @ DRIVER MODE: Reading and sharing positions
  @ DRIVER MODE: Received positions

     Self-consistent Calculation

     iteration #  1     ecut=    29.40 Ry     beta= 0.05
     Davidson diagonalization with overlap
     c_bands:  1 eigenvalues not converged
     c_bands:  1 eigenvalues not converged
     c_bands:  1 eigenvalues not converged
     c_bands:  3 eigenvalues not converged
     c_bands:  2 eigenvalues not converged
     c_bands:  1 eigenvalues not converged
     c_bands:  1 eigenvalues not converged
     ethr =  1.00E-05,  avg # of iterations = 19.2

[...]

     total energy              =   -2606.53267486 Ry
     estimated scf accuracy    <    3819.85188857 Ry

     iteration #  2     ecut=    29.40 Ry     beta= 0.05
     Davidson diagonalization with overlap
     ethr =  1.00E-02,  avg # of iterations = 24.5

[...]

     iteration # 48     ecut=    29.40 Ry     beta= 0.05
     Davidson diagonalization with overlap
     c_bands:  1 eigenvalues not converged
     ethr =  1.41E-06,  avg # of iterations =  7.4

[...]

     total energy              =   -2952.64741291 Ry
     estimated scf accuracy    <       0.00000008 Ry

     iteration # 70     ecut=    29.40 Ry     beta= 0.05
     Davidson diagonalization with overlap
     ethr =  2.10E-11,  avg # of iterations =  3.6

     negative rho (up, down):  1.696E-02 0.000E+00

     Adding external electric field

     Computed dipole along edir(3) :
        Dipole                0.3618 Ry au,          0.9197 Debye
        Dipole field          0.0007 Ry au,

        Potential amp.       -0.0633 Ry
        Total length         46.3494 bohr

     End of self-consistent calculation

          k = 0.0000 0.0000 0.0000 ( 18029 PWs)   bands (ev):

   -56.8753 -56.8418 -55.9456 -55.9100 -55.7351 -55.6704 -55.5499 -55.4267
   -55.3928 -55.3138 -55.3109 -55.2404 -55.2185 -55.1149 -55.0466 -54.9197
   -33.2940 -33.1454 -33.1174 -33.0551 -32.9649 -32.9211 -32.4268 -32.2104
   -32.1658 -32.1456 -32.0901 -32.0816 -32.0561 -31.9689 -31.9475 -31.9052
   -31.8912 -31.8729 -31.8326 -31.8046 -31.7958 -31.7932 -31.7811 -31.7737
   -31.7492 -31.7300 -31.6652 -31.6308 -31.5907 -31.5819 -31.5505 -31.5288
   -31.5164 -31.5077 -31.4743 -31.4655 -31.4391 -31.4301 -31.4080 -31.3936
   -31.3557 -31.3053 -31.2980 -31.2822 -31.2503 -31.1916 -31.1563 -31.1026
   -16.9781 -16.4645 -16.4162 -16.1916 -16.0690 -16.0635 -16.0178 -15.9565
   -15.7826 -15.7293 -15.6890 -15.6254 -15.4746 -15.3639 -15.2670 -15.0717
   -15.0369 -15.0045 -15.0031 -14.9889 -14.9582 -14.9460 -14.8703 -14.8193
   -14.7888 -14.7066 -14.7004 -14.5387 -14.3106 -14.2866 -13.9244 -13.8174
   -13.8006  -8.0354  -4.5538  -4.0918  -3.8847  -3.7094  -3.5600  -3.5200
    -3.4616  -3.3939  -3.3805  -3.2436  -3.2350  -3.2287  -3.2221  -3.1377
    -3.0718  -3.0148  -2.9258  -2.9103  -2.8199  -2.7694  -2.6102  -2.5760
    -2.4881  -2.4096  -2.4040  -2.3374  -2.3187  -2.2769  -2.2423  -2.2106
    -2.1811  -2.1377  -2.0833  -2.0729  -1.9787  -1.9727  -1.8896  -1.8744
    -1.8680  -1.7459  -1.7078  -1.6483  -1.5086  -1.4869  -1.4698  -1.4384
    -1.4001  -1.3399  -1.2357  -1.1775  -1.1484  -1.0945  -1.0252  -0.9685
    -0.9481  -0.8744  -0.8478  -0.7733  -0.7299  -0.7140  -0.6942  -0.6700
    -0.5310  -0.4488  -0.4143  -0.3618  -0.3468  -0.3076  -0.2831  -0.2285
    -0.1699  -0.1483  -0.0501  -0.0468   0.0894   0.1572   0.1597   0.2586
     0.3032   0.3093   0.3659   0.4350   0.4467   0.5104   0.5303   0.5886
     0.5944   0.6370   0.7206   0.7972   0.8407   0.8707   0.9109   0.9312
     1.0429   1.0685   1.1318   1.1881   1.4992   1.5707   2.1783   2.4188
     2.5908   2.8684   3.0639   3.3635   3.4049   3.4232   3.4233   3.7342

[...]

          k = 0.0380-0.0419 0.0000 ( 17876 PWs)   bands (ev):

[...]

          k =-0.0760-0.0000 0.0000 ( 17886 PWs)   bands (ev):

[...]

          k =-0.0760-0.0839 0.0000 ( 17948 PWs)   bands (ev):

   -56.8592 -56.8578 -55.9336 -55.9218 -55.7303 -55.6751 -55.5491 -55.4103
   -55.4091 -55.3144 -55.3063 -55.2446 -55.2171 -55.1134 -55.0481 -54.9211
   -33.1319 -33.1304 -33.1119 -33.1105 -33.0092 -33.0081 -32.2518 -32.2416
   -32.1281 -32.1240 -32.1161 -32.1150 -32.0285 -31.9879 -31.9620 -31.9483
   -31.9007 -31.8991 -31.8348 -31.7924 -31.7722 -31.7627 -31.7618 -31.6866
   -31.6359 -31.6305 -31.6291 -31.6050 -31.5942 -31.5905 -31.5896 -31.5838
   -31.5351 -31.5279 -31.5105 -31.4849 -31.4800 -31.4643 -31.4347 -31.4100
   -31.3932 -31.3585 -31.3074 -31.2923 -31.2601 -31.2561 -31.1587 -31.1406
   -16.4538 -16.3359 -16.3340 -16.2915 -16.2900 -16.0263 -16.0219 -15.7739
   -15.7449 -15.5697 -15.4573 -15.4352 -15.3935 -15.3530 -15.2760 -15.2252
   -15.2121 -15.1839 -15.1574 -15.0852 -15.0515 -14.9498 -14.9142 -14.8522
   -14.8179 -14.7443 -14.7040 -14.6754 -14.4817 -14.4195 -13.9219 -13.9214
   -13.8240  -8.0342  -4.0955  -3.5031  -3.4128  -3.4085  -3.3732  -3.3660
    -3.2918  -3.1617  -3.1582  -3.0379  -2.9577  -2.9307  -2.9010  -2.8470
    -2.8327  -2.7373  -2.6874  -2.6825  -2.6675  -2.6330  -2.6017  -2.5946
    -2.5371  -2.4110  -2.3665  -2.3290  -2.2888  -2.2205  -2.1898  -2.1818
    -2.1495  -2.1098  -2.0916  -2.0626  -2.0500  -2.0433  -2.0327  -1.9462
    -1.7988  -1.7722  -1.6786  -1.6755  -1.6659  -1.6258  -1.5962  -1.5821
    -1.5617  -1.5281  -1.4514  -1.4256  -1.3617  -1.2267  -1.2131  -1.1783
    -1.1248  -1.0220  -1.0071  -0.9114  -0.8935  -0.8833  -0.8199  -0.7970
    -0.7802  -0.7183  -0.6809  -0.5606  -0.4890  -0.4805  -0.4624  -0.4534
    -0.4028  -0.3557  -0.2829  -0.2790  -0.2623  -0.1541  -0.0583   0.0352
     0.0414   0.1107   0.1257   0.1807   0.3381   0.3487   0.3908   0.4519
     0.5683   0.6599   0.7140   0.8136   0.8460   0.9525   0.9713   0.9764
     0.9956   1.0045   1.0481   1.1038   1.1673   1.4811   1.9778   3.0118
     3.0150   3.0732   3.0787   3.3900   3.3922   3.5044   3.5093   3.8303

     the Fermi energy is     2.0757 ev

!    total energy              =   -2952.64744528 Ry
     estimated scf accuracy    <       0.00000006 Ry
     smearing contrib. (-TS)   =      -0.01068777 Ry
     internal energy E=F+TS    =   -2952.63675751 Ry

     The total energy is F=E-TS. E is the sum of the following terms:
     one-electron contribution =  -24061.70154547 Ry
     hartree contribution      =   12121.30955009 Ry
     xc contribution           =    -487.78056842 Ry
     ewald contribution        =    9475.53555923 Ry
     electric field correction =       0.00024705 Ry

     convergence has been achieved in  70 iterations

     Forces acting on atoms (cartesian axes, Ry/au):

     atom    1 type  1   force =     0.00005166   -0.00036331    0.12634366
     atom    2 type  1   force =    -0.00006439    0.00039585   -0.15474186
     atom    3 type  2   force =     0.00003764    0.00023060   -0.06866620
     atom    4 type  2   force =     0.00004398    0.00001319    0.01722155
     atom    5 type  2   force =    -0.00541917   -0.00183291   -0.01282809
     atom    6 type  2   force =     0.00700183   -0.00107275   -0.01372873
     atom    7 type  1   force =    -0.00029536   -0.00640154    0.05891402
     atom    8 type  1   force =     0.00058445    0.00674873    0.10095039
     atom    9 type  2   force =     0.00031962    0.00036650    0.00014173
     atom   10 type  2   force =    -0.00198554    0.00132429   -0.06336022
     atom   11 type  2   force =    -0.00016218   -0.00065693    0.00024853
     atom   12 type  2   force =    -0.00037168   -0.00040206    0.00006659
     atom   13 type  1   force =     0.00057826   -0.00074890    0.00024435
     atom   14 type  1   force =    -0.00003232   -0.00055169    0.00117996
     atom   15 type  2   force =     0.00000913   -0.00005809    0.00025355
     atom   16 type  2   force =     0.00005964   -0.00020269   -0.00084838
     atom   17 type  2   force =    -0.00042919   -0.00055034   -0.00040826
     atom   18 type  2   force =    -0.00041526   -0.00060582   -0.00058795
     atom   19 type  1   force =     0.00126409    0.00037079   -0.00084629
     atom   20 type  1   force =    -0.00080632    0.00103390   -0.00071024
     atom   21 type  2   force =     0.00009420    0.00015108    0.09785527
     atom   22 type  2   force =    -0.00010233   -0.00006904   -0.00023469
     atom   23 type  2   force =    -0.08271820    0.00003178   -0.03314561
     atom   24 type  2   force =     0.08268695    0.00046271   -0.03321015
     atom   25 type  1   force =     0.00005117   -0.00040409    0.12671457
     atom   26 type  1   force =    -0.00005022   -0.00139428   -0.15489794
     atom   27 type  2   force =     0.00011971   -0.00036865   -0.06707485
     atom   28 type  2   force =     0.00007288    0.00177186    0.01243990
     atom   29 type  2   force =    -0.00384199    0.00476714   -0.01597179
     atom   30 type  2   force =     0.00537168    0.00500674   -0.01689983
     atom   31 type  1   force =    -0.00029091    0.00187637    0.04200095
     atom   32 type  1   force =     0.00074214   -0.00886665    0.10188061
     atom   33 type  2   force =    -0.00004795   -0.00034791   -0.00057604
     atom   34 type  2   force =    -0.00187794    0.00205970   -0.07568118
     atom   35 type  2   force =     0.00014333   -0.00012863   -0.00046781
     atom   36 type  2   force =    -0.00031475    0.00007052   -0.00019003
     atom   37 type  1   force =     0.00046920    0.00055218    0.00035870
     atom   38 type  1   force =    -0.00035109   -0.00073604   -0.00039251
     atom   39 type  2   force =     0.00001773   -0.00049431    0.00064213
     atom   40 type  2   force =    -0.00008831   -0.00057095   -0.00042708
     atom   41 type  2   force =     0.00046918   -0.00034828   -0.00062030
     atom   42 type  2   force =    -0.00134718    0.00021313   -0.00003072
     atom   43 type  1   force =     0.00082912   -0.00066241   -0.00078222
     atom   44 type  1   force =    -0.00114796   -0.00078337   -0.00021689
     atom   45 type  2   force =     0.00008390   -0.00002722    0.09770750
     atom   46 type  2   force =    -0.08275377    0.00001530   -0.03315988
     atom   47 type  2   force =     0.08271705    0.00042989   -0.03320542
     atom   48 type  3   force =    -0.00009213   -0.00178756   -0.00191900
     atom   49 type  4   force =    -0.00138303   -0.00353710   -0.00337621
     atom   50 type  5   force =     0.00091519    0.00349680    0.00448518
     atom   51 type  5   force =     0.00060691    0.00055532    0.00002078
     atom   52 type  5   force =    -0.00052142    0.00083849    0.00027300
     atom   53 type  2   force =     0.00035003    0.00025581   -0.00081700
     atom   54 type  5   force =     0.00121993    0.00093487    0.00008043

     Total force =     0.421207     Total SCF correction =     0.000520
  @ DRIVER MODE: Message from server: STATUS
  @ DRIVER MODE: Message from server: GETFORCE
  @ DRIVER MODE: Returning v,forces,stress,ensemble

     Writing output data file ./calc.save/
  @ DRIVER MODE: Message from server: EXIT
  @ DRIVE MODE: Exiting

     General routines

     Parallel routines

   This run was terminated on:  21:53:17  22Sep2021

   JOB DONE.