     Program PWSCF v.6.7GPU starts on  4Aug2021 at  2:25:25

     R & G space division:  proc/nbgrp/npool/nimage =      16
     Reading input from /storage/home/hcoda1/3/ntian30/research/carbon/02Aug_vib_paired/ads_slab/CH3NH3NH3_a/out_0035/pw.inp
Warning: card &CELL ignored
Warning: card   CELL_DYNAMICS='IPI', ignored
Warning: card / ignored

     Current dimensions of program PWSCF are:
     Max number of different atomic species (ntypx) = 10
     Max number of k-points (npk) =  40000
     Max angular momentum in pseudopotentials (lmaxx) =  3
     Presently no symmetry can be used with electric field

     Message from routine cell_base_init:
     DEPRECATED: use true lattice parameter, not A to a.u. conversion factor

     IMPORTANT: XC functional enforced from input :
     Exchange-correlation= BEEF-VDW
                           (   1   4  43  14   2   0   0)
     Any further DFT definition will be discarded
     Please, verify this is what you really want

  @ DRIVER MODE: Connecting to
 qe_1139763_2492108.sched-torque.pace.gatech.edutjwoipkn_scratch
  using UNIX socket
  @ DRIVER MODE: Message from server: STATUS
  @ DRIVER MODE: Message from server: INIT
  @ DRIVER MODE: Receiving replica           0          -1
  @ DRIVER MODE: Receiving encoded integer          25
  @ DRIVER MODE:  SCF:  T  FORCE:  T  STRESS:  F  VC:  F  ENSEMBLE:  F
  @ DRIVER MODE:  SCF:  T  FORCE:  T  STRESS:  F  VC:  F  ENSEMBLE:  F

     Using Slab Decomposition

     bravais-lattice index     =            0
     lattice parameter (alat)  =       1.8897  a.u.
     unit-cell volume          =    6658.9804 (a.u.)^3
     number of atoms/cell      =           59
     number of atomic types    =            5
     number of electrons       =       401.00
     number of Kohn-Sham states=          210
     kinetic-energy cutoff     =      29.3995  Ry
     charge density cutoff     =     293.9946  Ry
     scf convergence threshold =      7.3E-08
     mixing beta               =       0.0500
     number of iterations used =            8  plain     mixing
     Exchange-correlation= BEEF-VDW
                           (   1   4  43  14   2   0   0)

     celldm(1)=   1.889726  celldm(2)=   0.000000  celldm(3)=   0.000000
     celldm(4)=   0.000000  celldm(5)=   0.000000  celldm(6)=   0.000000

     crystal axes: (cart. coord. in units of alat)
               a(1) = (   6.579727   0.000000   0.000000 )
               a(2) = (  -0.000775   5.961596   0.000000 )
               a(3) = (   0.000000   0.000000  25.155947 )

     reciprocal axes: (cart. coord. in units 2 pi/alat)
               b(1) = (  0.151982  0.000020  0.000000 )
               b(2) = (  0.000000  0.167740  0.000000 )
               b(3) = (  0.000000  0.000000  0.039752 )

     PseudoPot. # 1 for Ti read from file:
     /storage/coda1/p-amedford6/0/shared/rich_project_chbe-medford/medford-share/data/pseudos_module/espresso/nninc/pbe/van/Ti.UPF
     MD5 check sum: 8e4df49b7f0d34bbd5052bf3f5ea0213
     Pseudo is Ultrasoft, Zval = 12.0
     Generated by new atomic code, or converted to UPF format
     Using radial grid of  851 points,  6 beta functions with:
                l(1) =   0
                l(2) =   0
                l(3) =   1
                l(4) =   1
                l(5) =   2
                l(6) =   2
     Q(r) pseudized with  8 coefficients,  rinner =    1.000   1.000   1.000
                                                       1.000   1.000

     PseudoPot. # 2 for O  read from file:
     /storage/coda1/p-amedford6/0/shared/rich_project_chbe-medford/medford-share/data/pseudos_module/espresso/nninc/pbe/van/O.UPF
     MD5 check sum: 78c19812648e8988a0fe644b0f25305e
     Pseudo is Ultrasoft, Zval =  6.0
     Generated by new atomic code, or converted to UPF format
     Using radial grid of  737 points,  4 beta functions with:
                l(1) =   0
                l(2) =   0
                l(3) =   1
                l(4) =   1
     Q(r) pseudized with  8 coefficients,  rinner =    0.800   0.800   0.800

     PseudoPot. # 3 for C  read from file:
     /storage/coda1/p-amedford6/0/shared/rich_project_chbe-medford/medford-share/data/pseudos_module/espresso/nninc/pbe/van/C.UPF
     MD5 check sum: 1a69bf6b8db32088f5b2163dbdb77a27
     Pseudo is Ultrasoft, Zval =  4.0
     Generated by new atomic code, or converted to UPF format
     Using radial grid of  721 points,  4 beta functions with:
                l(1) =   0
                l(2) =   0
                l(3) =   1
                l(4) =   1
     Q(r) pseudized with  8 coefficients,  rinner =    0.800   0.800   0.800

     PseudoPot. # 4 for H  read from file:
     /storage/coda1/p-amedford6/0/shared/rich_project_chbe-medford/medford-share/data/pseudos_module/espresso/nninc/pbe/van/H.UPF
     MD5 check sum: b5ee9d7bfd3a09ee7748110bda690ff7
     Pseudo is Ultrasoft, Zval =  1.0
     Generated by new atomic code, or converted to UPF format
     Using radial grid of  615 points,  1 beta functions with:
                l(1) =   0
     Q(r) pseudized with  8 coefficients,  rinner =    0.800

     PseudoPot. # 5 for N  read from file:
     /storage/coda1/p-amedford6/0/shared/rich_project_chbe-medford/medford-share/data/pseudos_module/espresso/nninc/pbe/van/N.UPF
     MD5 check sum: 90d10febe142ad51ac9d5be1deb811c4
     Pseudo is Ultrasoft, Zval =  5.0
     Generated by new atomic code, or converted to UPF format
     Using radial grid of  729 points,  4 beta functions with:
                l(1) =   0
                l(2) =   0
                l(3) =   1
                l(4) =   1
     Q(r) pseudized with  8 coefficients,  rinner =    0.800   0.800   0.800

     atomic species   valence    mass     pseudopotential
        Ti1           12.00    47.86700     Ti( 1.00)
        O1             6.00    15.99900     O ( 1.00)
        C1             4.00    12.01100     C ( 1.00)
        H1             1.00     1.00800     H ( 1.00)
        N1             5.00    14.00700     N ( 1.00)

     No symmetry found

   Cartesian axes

     site n.     atom                  positions (alat units)
         1           Ti1 tau(   1) = (   0.0004258   2.9801865   6.0000000  )
         2           Ti1 tau(   2) = (   3.2906075   1.4906267   6.0002472  )
         3           O1  tau(   3) = (   0.0006271   0.0005054   7.9858123  )
         4           O1  tau(   4) = (   3.2906025   0.0005020   7.3038282  )
         5           O1  tau(   5) = (   4.5942328   1.4918067   9.2879030  )
         6           O1  tau(   6) = (   1.9868534   1.4903216   9.2879459  )
         7           Ti1 tau(   7) = (   3.2907910   2.8959150   9.1758416  )
         8           Ti1 tau(   8) = (   0.0015273   1.4827037   9.2680791  )
         9           O1  tau(   9) = (   3.3006472   5.9526327  11.3326431  )
        10           O1  tau(  10) = (   0.0116148   5.9584955  10.6183126  )
        11           O1  tau(  11) = (   1.2986171   1.4856602  12.6180737  )
        12           O1  tau(  12) = (   5.2832837   1.4869688  12.6136912  )
        13           Ti1 tau(  13) = (   0.0716907   2.9700601  12.6329626  )
        14           Ti1 tau(  14) = (   3.3921379   1.4824266  12.4783935  )
        15           O1  tau(  15) = (   0.0098915   0.0277142  14.6273811  )
        16           O1  tau(  16) = (   3.2980527   0.0034327  13.9214941  )
        17           O1  tau(  17) = (   4.5491770   1.5035522  16.0668258  )
        18           O1  tau(  18) = (   2.0540802   1.5011373  16.0688643  )
        19           Ti1 tau(  19) = (   3.2973159   2.9845483  15.7023000  )
        20           Ti1 tau(  20) = (   6.5754392   1.4353193  15.8239573  )
        21           O1  tau(  21) = (   3.2904802   0.0005063   4.7018136  )
        22           O1  tau(  22) = (   0.0048264   5.9571524  17.1588256  )
        23           O1  tau(  23) = (   1.3043587   1.4918075   6.0039043  )
        24           O1  tau(  24) = (   5.2767064   1.4903225   6.0039473  )
        25           Ti1 tau(  25) = (   0.0000382   5.9609847   6.0000000  )
        26           Ti1 tau(  26) = (   3.2902200   4.4714249   6.0002472  )
        27           O1  tau(  27) = (   0.0002396   2.9813036   7.9858123  )
        28           O1  tau(  28) = (   3.2902150   2.9813002   7.3038282  )
        29           O1  tau(  29) = (   4.5938453   4.4726049   9.2879030  )
        30           O1  tau(  30) = (   1.9864658   4.4711199   9.2879459  )
        31           Ti1 tau(  31) = (   3.2891106   5.8743827   9.1763621  )
        32           Ti1 tau(  32) = (   0.0006254   4.4649316   9.2693709  )
        33           O1  tau(  33) = (   3.3024910   2.9811918  11.3312481  )
        34           O1  tau(  34) = (   0.0092240   2.9805883  10.6323155  )
        35           O1  tau(  35) = (   1.2967186   4.4682081  12.6345707  )
        36           O1  tau(  36) = (   5.2888097   4.4704914  12.6297389  )
        37           Ti1 tau(  37) = (   0.0778612   5.9457776  12.5489457  )
        38           Ti1 tau(  38) = (   3.3928769   4.4622707  12.4864817  )
        39           O1  tau(  39) = (   0.0140712   2.9461142  14.6842920  )
        40           O1  tau(  40) = (   3.2991745   2.9776924  13.9065265  )
        41           O1  tau(  41) = (   4.5418516   4.4678888  16.0645815  )
        42           O1  tau(  42) = (   2.0574864   4.4691885  16.0636024  )
        43           Ti1 tau(  43) = (   3.2861726   0.0051191  15.7195692  )
        44           Ti1 tau(  44) = (   6.5761434   4.5285208  16.1368719  )
        45           O1  tau(  45) = (   3.2900926   2.9813045   4.7018136  )
        46           O1  tau(  46) = (   1.3039711   4.4726057   6.0039043  )
        47           O1  tau(  47) = (   5.2763189   4.4711207   6.0039473  )
        48           C1  tau(  48) = (   0.0175971   3.0427671  17.7901079  )
        49           H1  tau(  49) = (   5.6823727   3.3959267  18.2745233  )
        50           H1  tau(  50) = (   0.1100020   1.9921885  18.0671921  )
        51           H1  tau(  51) = (   0.8707680   3.5346006  18.2680029  )
        52           N1  tau(  52) = (   6.1495222   1.5591847  21.8098380  )
        53           H1  tau(  53) = (   6.1793786   2.4848735  21.3946126  )
        54           H1  tau(  54) = (   6.2462200   0.9013766  21.0428083  )
        55           H1  tau(  55) = (   5.2088654   1.4380024  22.1828036  )
        56           N1  tau(  56) = (   2.8510371   0.9763425  23.1735989  )
        57           H1  tau(  57) = (   2.8683653   5.9129692  23.1556095  )
        58           H1  tau(  58) = (   1.9074079   1.2374795  22.9038124  )
        59           H1  tau(  59) = (   2.9640119   1.2328864  24.1466208  )

     number of k points=    10  Fermi-Dirac smearing, width (Ry)=  0.0073
                       cart. coord. in units 2pi/alat
        k(    1) = (   0.0000000   0.0000000   0.0000000), wk =   0.1250000
        k(    2) = (   0.0000000   0.0419351   0.0000000), wk =   0.2500000
        k(    3) = (   0.0000000  -0.0838702   0.0000000), wk =   0.1250000
        k(    4) = (   0.0379955   0.0000049   0.0000000), wk =   0.2500000
        k(    5) = (   0.0379955   0.0419400   0.0000000), wk =   0.2500000
        k(    6) = (   0.0379955  -0.0838652   0.0000000), wk =   0.2500000
        k(    7) = (   0.0379955  -0.0419301   0.0000000), wk =   0.2500000
        k(    8) = (  -0.0759910  -0.0000099   0.0000000), wk =   0.1250000
        k(    9) = (  -0.0759910   0.0419252   0.0000000), wk =   0.2500000
        k(   10) = (  -0.0759910  -0.0838800   0.0000000), wk =   0.1250000

     Initial potential from superposition of free atoms

     starting charge  384.99911, renormalised to  401.00000

     negative rho (up, down):  4.922E-03 0.000E+00

     %%%%%%%%%%%%%%%%%%%%%%%%%%%%%%%%%%%%%%%%%%%%%%%%%%%%%%%%%%%%%%%%%%%%%%%%
     %                                                                      %
     % You are using vdW-DF, which was implemented by the Thonhauser group. %
     % Please cite the following two papers that made this development      %
     % possible and the two reviews that describe the various versions:     %
     %                                                                      %
     %   T. Thonhauser et al., PRL 115, 136402 (2015).                      %
     %   T. Thonhauser et al., PRB 76, 125112 (2007).                       %
     %   K. Berland et al., Rep. Prog. Phys. 78, 066501 (2015).             %
     %   D.C. Langreth et al., J. Phys.: Condens. Matter 21, 084203 (2009). %
     %                                                                      %
     %                                                                      %
     % If you are calculating the stress with vdW-DF, please also cite:     %
     %                                                                      %
     %   R. Sabatini et al., J. Phys.: Condens. Matter 24, 424209 (2012).   %
     %                                                                      %
     %%%%%%%%%%%%%%%%%%%%%%%%%%%%%%%%%%%%%%%%%%%%%%%%%%%%%%%%%%%%%%%%%%%%%%%%

     Adding external electric field

     Computed dipole along edir(3) :
        Dipole              -16.7053 Ry au,        -42.4606 Debye
        Dipole field         -0.0315 Ry au,

        Potential amp.        2.9223 Ry
        Total length         46.3494 bohr

     Starting wfcs are  305 atomic wfcs
  @ DRIVER MODE: Message from server: STATUS
  @ DRIVER MODE: Message from server: POSDATA
  @ DRIVER MODE: Reading and sharing cell
  @ DRIVER MODE: Reading and sharing positions
  @ DRIVER MODE: Received positions

     Self-consistent Calculation

     iteration #  1     ecut=    29.40 Ry     beta= 0.05
     Davidson diagonalization with overlap
     c_bands:  2 eigenvalues not converged
     c_bands:  3 eigenvalues not converged
     c_bands:  1 eigenvalues not converged
     c_bands:  4 eigenvalues not converged
     c_bands:  4 eigenvalues not converged
     c_bands:  2 eigenvalues not converged
     c_bands:  3 eigenvalues not converged
     c_bands:  3 eigenvalues not converged
     c_bands:  4 eigenvalues not converged
     ethr =  1.00E-05,  avg # of iterations = 19.8

[...]

     total energy              =   -2364.27794118 Ry
     estimated scf accuracy    <    6692.62676404 Ry

     iteration #  2     ecut=    29.40 Ry     beta= 0.05
     Davidson diagonalization with overlap
     ethr =  1.00E-02,  avg # of iterations = 22.0

[...]

     iteration # 72     ecut=    29.40 Ry     beta= 0.05
     Davidson diagonalization with overlap
     c_bands:  1 eigenvalues not converged
     ethr =  1.90E-10,  avg # of iterations = 14.5

[...]

     total energy              =   -2946.58232924 Ry
     estimated scf accuracy    <       0.00000015 Ry

     iteration # 77     ecut=    29.40 Ry     beta= 0.05
     Davidson diagonalization with overlap
     ethr =  3.86E-11,  avg # of iterations =  9.3

     negative rho (up, down):  6.994E-03 0.000E+00

     Adding external electric field

     Computed dipole along edir(3) :
        Dipole                0.3153 Ry au,          0.8013 Debye
        Dipole field          0.0006 Ry au,

        Potential amp.       -0.0551 Ry
        Total length         46.3494 bohr

     End of self-consistent calculation

          k = 0.0000 0.0000 0.0000 ( 18029 PWs)   bands (ev):

   -55.9973 -55.9881 -55.9632 -55.9510 -55.8786 -55.8540 -55.8332 -55.8149
   -55.8050 -55.7717 -55.7709 -55.7380 -55.6128 -55.3907 -54.9781 -54.9441
   -32.5420 -32.4796 -32.3529 -32.3330 -32.3042 -32.3021 -32.2902 -32.2622
   -32.2396 -32.2167 -32.2098 -32.1953 -32.1678 -32.1496 -32.1410 -32.1272
   -32.1109 -32.1015 -32.0873 -32.0588 -32.0551 -32.0545 -32.0273 -32.0078
   -32.0073 -32.0025 -31.9932 -31.9891 -31.9760 -31.9739 -31.9654 -31.9458
   -31.9437 -31.9369 -31.9246 -31.9106 -31.8836 -31.8660 -31.8286 -31.6675
   -31.6412 -31.5285 -31.3854 -31.2964 -31.2740 -31.2019 -31.1154 -31.0046
   -16.7431 -16.4735 -16.2473 -16.1511 -16.1241 -16.0050 -15.8396 -15.7176
   -15.6695 -15.5692 -15.5597 -15.5345 -15.5021 -15.4783 -15.4777 -15.4434
   -15.4404 -15.4209 -15.4095 -15.3594 -15.3364 -15.3247 -15.2095 -15.1758
   -15.1330 -15.1123 -15.0546 -15.0419 -14.6196 -13.4815 -13.3651 -13.0348
   -12.9224  -9.1024  -4.1163  -3.9595  -3.9046  -3.8602  -3.8295  -3.6124
    -3.5465  -3.2487  -3.1847  -3.1699  -3.1527  -3.1315  -3.1202  -3.0880
    -2.9952  -2.9821  -2.9018  -2.8328  -2.8239  -2.8093  -2.8062  -2.7769
    -2.7674  -2.7552  -2.7146  -2.6890  -2.6630  -2.6127  -2.5579  -2.4955
    -2.4123  -2.3943  -2.3122  -2.2902  -2.2841  -2.2411  -2.2268  -2.2188
    -2.1999  -2.1748  -2.1618  -1.9783  -1.9398  -1.8371  -1.7810  -1.7789
    -1.6072  -1.5075  -1.4658  -1.4547  -1.4254  -1.3915  -1.3850  -1.2989
    -1.1821  -1.1508  -1.1179  -1.0458  -1.0021  -0.9705  -0.8729  -0.8456
    -0.7624  -0.7598  -0.7378  -0.6501  -0.5964  -0.4826  -0.4349  -0.4247
    -0.3869  -0.3577  -0.2884  -0.2741  -0.2173  -0.1448  -0.1241  -0.0612
    -0.0306  -0.0167  -0.0055   0.0112   0.0377   0.0680   0.1720   0.2025
     0.2819   0.3496   0.4449   0.5424   0.6482   0.6574   0.7586   0.9680
     1.0418   1.1398   1.1984   1.2359   1.6150   1.6609   1.7405   2.1802
     3.1394   3.2236   3.2708   3.2814   3.3724   3.3888   3.5899   3.6135
     3.6347   3.6866

[...]

          k = 0.0380-0.0419 0.0000 ( 17876 PWs)   bands (ev):

[...]

          k =-0.0760-0.0000 0.0000 ( 17886 PWs)   bands (ev):

[...]

          k =-0.0760-0.0839 0.0000 ( 17948 PWs)   bands (ev):

   -55.9808 -55.9796 -55.9740 -55.9649 -55.8706 -55.8437 -55.8410 -55.8251
   -55.7890 -55.7864 -55.7562 -55.7537 -55.6116 -55.3917 -54.9611 -54.9610
   -32.3496 -32.3410 -32.2953 -32.2945 -32.2761 -32.2750 -32.2596 -32.2507
   -32.2041 -32.1924 -32.1863 -32.1836 -32.1458 -32.1299 -32.1281 -32.1188
   -32.1082 -32.1006 -32.1003 -32.0991 -32.0943 -32.0915 -32.0706 -32.0605
   -32.0415 -32.0386 -32.0291 -32.0120 -31.9891 -31.9882 -31.9867 -31.9851
   -31.9705 -31.9692 -31.9657 -31.9616 -31.9335 -31.8572 -31.8318 -31.6812
   -31.6694 -31.5728 -31.2868 -31.2867 -31.1982 -31.1981 -31.1587 -31.1587
   -16.1759 -16.1565 -15.9487 -15.9119 -15.9090 -15.8999 -15.7880 -15.7030
   -15.6928 -15.6921 -15.6100 -15.5978 -15.5815 -15.5371 -15.5331 -15.5237
   -15.5141 -15.5022 -15.4589 -15.4540 -15.4350 -15.4275 -15.3457 -15.3152
   -15.3115 -15.2733 -15.1411 -15.0098 -14.8615 -13.4671 -13.4668 -12.9972
   -12.9596  -9.1189  -3.4679  -3.4423  -3.1920  -3.1559  -3.1466  -3.1146
    -3.0824  -3.0472  -2.9911  -2.9219  -2.9139  -2.8957  -2.8810  -2.8763
    -2.8399  -2.8275  -2.8177  -2.8056  -2.7874  -2.7534  -2.7445  -2.7121
    -2.7012  -2.6812  -2.6678  -2.6523  -2.6274  -2.6149  -2.6086  -2.5774
    -2.5630  -2.5464  -2.5258  -2.5028  -2.4200  -2.2307  -2.2009  -2.1362
    -2.1271  -2.0967  -2.0850  -2.0612  -2.0469  -2.0289  -1.9818  -1.8290
    -1.7269  -1.7007  -1.6729  -1.5978  -1.5770  -1.5292  -1.4151  -1.3804
    -1.3530  -1.3272  -1.2770  -1.2261  -1.2087  -1.1858  -1.1167  -1.1031
    -1.0255  -0.9821  -0.9591  -0.9548  -0.8903  -0.8473  -0.7651  -0.7598
    -0.7159  -0.6802  -0.6329  -0.5927  -0.5880  -0.5009  -0.4752  -0.3588
    -0.3040  -0.0443   0.0053   0.0566   0.0831   0.1416   0.1920   0.2070
     0.3161   0.3204   0.3566   0.4004   0.4410   0.5288   0.5480   0.5827
     0.7289   1.3027   1.4064   1.4070   1.4803   1.4807   1.9478   1.9571
     3.4239   3.4392   3.4696   3.5021   3.6438   3.6476   3.6692   3.6710
     3.7990   3.8115

     the Fermi energy is     3.1370 ev

!    total energy              =   -2946.58234380 Ry
     estimated scf accuracy    <       0.00000006 Ry
     smearing contrib. (-TS)   =      -0.02179346 Ry
     internal energy E=F+TS    =   -2946.56055034 Ry

     The total energy is F=E-TS. E is the sum of the following terms:
     one-electron contribution =  -22199.60023093 Ry
     hartree contribution      =   11188.79671754 Ry
     xc contribution           =    -489.84299075 Ry
     ewald contribution        =    8554.08576625 Ry
     electric field correction =       0.00018756 Ry

     convergence has been achieved in  77 iterations

     Forces acting on atoms (cartesian axes, Ry/au):

     atom    1 type  1   force =     0.00012738   -0.00024832    0.09665079
     atom    2 type  1   force =    -0.00013958   -0.00055441   -0.17512231
     atom    3 type  2   force =    -0.00000058   -0.00002903   -0.02501489
     atom    4 type  2   force =     0.00007605   -0.00144100    0.05271621
     atom    5 type  2   force =    -0.01211286   -0.00084114    0.00340061
     atom    6 type  2   force =     0.01403116   -0.00015627    0.00290938
     atom    7 type  1   force =    -0.00082145    0.00068001   -0.01137123
     atom    8 type  1   force =     0.00025691    0.01149855    0.02860436
     atom    9 type  2   force =    -0.00009945    0.00009014   -0.00001136
     atom   10 type  2   force =    -0.00084688    0.00077404   -0.01659419
     atom   11 type  2   force =    -0.00030394    0.00010154    0.00003195
     atom   12 type  2   force =    -0.00000047    0.00020775    0.00005620
     atom   13 type  1   force =    -0.00011829   -0.00019797    0.00010775
     atom   14 type  1   force =    -0.00022420    0.00001316   -0.00004441
     atom   15 type  2   force =    -0.00003099    0.00005277   -0.00010128
     atom   16 type  2   force =    -0.00012156   -0.00004166    0.00002656
     atom   17 type  2   force =    -0.00002339   -0.00015808   -0.00002187
     atom   18 type  2   force =    -0.00020641   -0.00017577   -0.00002538
     atom   19 type  1   force =     0.00000027   -0.00021014    0.00012695
     atom   20 type  1   force =     0.00010451   -0.00035965   -0.00005499
     atom   21 type  2   force =     0.00006420    0.00001066    0.10292247
     atom   22 type  2   force =    -0.00010798   -0.00006977   -0.00039974
     atom   23 type  2   force =    -0.07135177   -0.00010413   -0.02771719
     atom   24 type  2   force =     0.07130798    0.00030067   -0.02774820
     atom   25 type  1   force =     0.00001061   -0.00030065    0.09642968
     atom   26 type  1   force =    -0.00018005   -0.00026826   -0.17531889
     atom   27 type  2   force =     0.00009341   -0.00019779   -0.02391141
     atom   28 type  2   force =     0.00011330   -0.00119887    0.05275387
     atom   29 type  2   force =    -0.01214534    0.00045124    0.00288106
     atom   30 type  2   force =     0.01398112    0.00079681    0.00242772
     atom   31 type  1   force =    -0.00075903    0.00310695   -0.01228967
     atom   32 type  1   force =     0.00027226   -0.01311108    0.02918246
     atom   33 type  2   force =    -0.00009701   -0.00002928    0.00004769
     atom   34 type  2   force =    -0.00028573    0.00077482   -0.02204338
     atom   35 type  2   force =    -0.00015851    0.00007941   -0.00003830
     atom   36 type  2   force =    -0.00009743    0.00020254   -0.00002431
     atom   37 type  1   force =    -0.00001914   -0.00031122   -0.00016776
     atom   38 type  1   force =     0.00002650    0.00000692    0.00000729
     atom   39 type  2   force =    -0.00008167    0.00013367    0.00028257
     atom   40 type  2   force =    -0.00013317   -0.00001247   -0.00007331
     atom   41 type  2   force =     0.00001261   -0.00021380    0.00000191
     atom   42 type  2   force =    -0.00020745   -0.00021695    0.00017262
     atom   43 type  1   force =     0.00031312   -0.00017271   -0.00018047
     atom   44 type  1   force =     0.00017087   -0.00027502    0.00020095
     atom   45 type  2   force =     0.00006335   -0.00006916    0.10291501
     atom   46 type  2   force =    -0.07136484   -0.00008720   -0.02771992
     atom   47 type  2   force =     0.07132426    0.00037209   -0.02773331
     atom   48 type  3   force =    -0.00018365    0.00037788    0.00004924
     atom   49 type  4   force =    -0.00007904    0.00041957    0.00021798
     atom   50 type  4   force =    -0.00008189    0.00012733    0.00005932
     atom   51 type  4   force =     0.00008790    0.00029643    0.00038771
     atom   52 type  5   force =    -0.00054028   -0.00036850    0.00145588
     atom   53 type  4   force =     0.00008298    0.00055512   -0.00046061
     atom   54 type  4   force =    -0.00043582   -0.00040867   -0.00135780
     atom   55 type  4   force =     0.00065214    0.00030550   -0.00050806
     atom   56 type  5   force =     0.00477591   -0.01971954   -0.00414970
     atom   57 type  4   force =     0.00058483    0.01461334   -0.00014143
     atom   58 type  4   force =    -0.00464073    0.00256456   -0.00072967
     atom   59 type  4   force =    -0.00053304    0.00263503    0.00404887

     Total force =     0.368619     Total SCF correction =     0.000486
  @ DRIVER MODE: Message from server: STATUS
  @ DRIVER MODE: Message from server: GETFORCE
  @ DRIVER MODE: Returning v,forces,stress,ensemble

     Writing output data file ./calc.save/
  @ DRIVER MODE: Message from server: EXIT
  @ DRIVE MODE: Exiting

     General routines

     Parallel routines

   This run was terminated on:   2:42:48   4Aug2021

   JOB DONE.