     Program PWSCF v.6.7GPU starts on  3Aug2021 at 18:12:25

     R & G space division:  proc/nbgrp/npool/nimage =      16
     Reading input from /storage/home/hcoda1/3/ntian30/research/carbon/02Aug_vib_paired/ads_slab/CH3NH3NH3_a/out_0011/pw.inp
Warning: card &CELL ignored
Warning: card   CELL_DYNAMICS='IPI', ignored
Warning: card / ignored

     Current dimensions of program PWSCF are:
     Max number of different atomic species (ntypx) = 10
     Max number of k-points (npk) =  40000
     Max angular momentum in pseudopotentials (lmaxx) =  3
     Presently no symmetry can be used with electric field

     Message from routine cell_base_init:
     DEPRECATED: use true lattice parameter, not A to a.u. conversion factor

     IMPORTANT: XC functional enforced from input :
     Exchange-correlation= BEEF-VDW
                           (   1   4  43  14   2   0   0)
     Any further DFT definition will be discarded
     Please, verify this is what you really want

  @ DRIVER MODE: Connecting to
 qe_1139763_2492108.sched-torque.pace.gatech.eduiszmnkl3_scratch
  using UNIX socket
  @ DRIVER MODE: Message from server: STATUS
  @ DRIVER MODE: Message from server: INIT
  @ DRIVER MODE: Receiving replica           0          -1
  @ DRIVER MODE: Receiving encoded integer          25
  @ DRIVER MODE:  SCF:  T  FORCE:  T  STRESS:  F  VC:  F  ENSEMBLE:  F
  @ DRIVER MODE:  SCF:  T  FORCE:  T  STRESS:  F  VC:  F  ENSEMBLE:  F

     Using Slab Decomposition

     bravais-lattice index     =            0
     lattice parameter (alat)  =       1.8897  a.u.
     unit-cell volume          =    6658.9804 (a.u.)^3
     number of atoms/cell      =           59
     number of atomic types    =            5
     number of electrons       =       401.00
     number of Kohn-Sham states=          210
     kinetic-energy cutoff     =      29.3995  Ry
     charge density cutoff     =     293.9946  Ry
     scf convergence threshold =      7.3E-08
     mixing beta               =       0.0500
     number of iterations used =            8  plain     mixing
     Exchange-correlation= BEEF-VDW
                           (   1   4  43  14   2   0   0)

     celldm(1)=   1.889726  celldm(2)=   0.000000  celldm(3)=   0.000000
     celldm(4)=   0.000000  celldm(5)=   0.000000  celldm(6)=   0.000000

     crystal axes: (cart. coord. in units of alat)
               a(1) = (   6.579727   0.000000   0.000000 )
               a(2) = (  -0.000775   5.961596   0.000000 )
               a(3) = (   0.000000   0.000000  25.155947 )

     reciprocal axes: (cart. coord. in units 2 pi/alat)
               b(1) = (  0.151982  0.000020  0.000000 )
               b(2) = (  0.000000  0.167740  0.000000 )
               b(3) = (  0.000000  0.000000  0.039752 )

     PseudoPot. # 1 for Ti read from file:
     /storage/coda1/p-amedford6/0/shared/rich_project_chbe-medford/medford-share/data/pseudos_module/espresso/nninc/pbe/van/Ti.UPF
     MD5 check sum: 8e4df49b7f0d34bbd5052bf3f5ea0213
     Pseudo is Ultrasoft, Zval = 12.0
     Generated by new atomic code, or converted to UPF format
     Using radial grid of  851 points,  6 beta functions with:
                l(1) =   0
                l(2) =   0
                l(3) =   1
                l(4) =   1
                l(5) =   2
                l(6) =   2
     Q(r) pseudized with  8 coefficients,  rinner =    1.000   1.000   1.000
                                                       1.000   1.000

     PseudoPot. # 2 for O  read from file:
     /storage/coda1/p-amedford6/0/shared/rich_project_chbe-medford/medford-share/data/pseudos_module/espresso/nninc/pbe/van/O.UPF
     MD5 check sum: 78c19812648e8988a0fe644b0f25305e
     Pseudo is Ultrasoft, Zval =  6.0
     Generated by new atomic code, or converted to UPF format
     Using radial grid of  737 points,  4 beta functions with:
                l(1) =   0
                l(2) =   0
                l(3) =   1
                l(4) =   1
     Q(r) pseudized with  8 coefficients,  rinner =    0.800   0.800   0.800

     PseudoPot. # 3 for C  read from file:
     /storage/coda1/p-amedford6/0/shared/rich_project_chbe-medford/medford-share/data/pseudos_module/espresso/nninc/pbe/van/C.UPF
     MD5 check sum: 1a69bf6b8db32088f5b2163dbdb77a27
     Pseudo is Ultrasoft, Zval =  4.0
     Generated by new atomic code, or converted to UPF format
     Using radial grid of  721 points,  4 beta functions with:
                l(1) =   0
                l(2) =   0
                l(3) =   1
                l(4) =   1
     Q(r) pseudized with  8 coefficients,  rinner =    0.800   0.800   0.800

     PseudoPot. # 4 for H  read from file:
     /storage/coda1/p-amedford6/0/shared/rich_project_chbe-medford/medford-share/data/pseudos_module/espresso/nninc/pbe/van/H.UPF
     MD5 check sum: b5ee9d7bfd3a09ee7748110bda690ff7
     Pseudo is Ultrasoft, Zval =  1.0
     Generated by new atomic code, or converted to UPF format
     Using radial grid of  615 points,  1 beta functions with:
                l(1) =   0
     Q(r) pseudized with  8 coefficients,  rinner =    0.800

     PseudoPot. # 5 for N  read from file:
     /storage/coda1/p-amedford6/0/shared/rich_project_chbe-medford/medford-share/data/pseudos_module/espresso/nninc/pbe/van/N.UPF
     MD5 check sum: 90d10febe142ad51ac9d5be1deb811c4
     Pseudo is Ultrasoft, Zval =  5.0
     Generated by new atomic code, or converted to UPF format
     Using radial grid of  729 points,  4 beta functions with:
                l(1) =   0
                l(2) =   0
                l(3) =   1
                l(4) =   1
     Q(r) pseudized with  8 coefficients,  rinner =    0.800   0.800   0.800

     atomic species   valence    mass     pseudopotential
        Ti1           12.00    47.86700     Ti( 1.00)
        O1             6.00    15.99900     O ( 1.00)
        C1             4.00    12.01100     C ( 1.00)
        H1             1.00     1.00800     H ( 1.00)
        N1             5.00    14.00700     N ( 1.00)

     No symmetry found

   Cartesian axes

     site n.     atom                  positions (alat units)
         1           Ti1 tau(   1) = (   0.0004258   2.9801865   6.0000000  )
         2           Ti1 tau(   2) = (   3.2906075   1.4906267   6.0002472  )
         3           O1  tau(   3) = (   0.0006271   0.0005054   7.9858123  )
         4           O1  tau(   4) = (   3.2906025   0.0005020   7.3038282  )
         5           O1  tau(   5) = (   4.5942328   1.4918067   9.2879030  )
         6           O1  tau(   6) = (   1.9868534   1.4903216   9.2879459  )
         7           Ti1 tau(   7) = (   3.2907910   2.8959150   9.1758416  )
         8           Ti1 tau(   8) = (   0.0015273   1.4827037   9.2680791  )
         9           O1  tau(   9) = (   3.3006472   5.9526327  11.3326431  )
        10           O1  tau(  10) = (   0.0116148   5.9584955  10.6183126  )
        11           O1  tau(  11) = (   1.2986171   1.4856602  12.6180737  )
        12           O1  tau(  12) = (   5.2832837   1.4869688  12.6136912  )
        13           Ti1 tau(  13) = (   0.0716907   2.9700601  12.6329626  )
        14           Ti1 tau(  14) = (   3.3921379   1.4824266  12.4783935  )
        15           O1  tau(  15) = (   0.0098915   0.0277142  14.6273811  )
        16           O1  tau(  16) = (   3.2980527   0.0034327  13.9214941  )
        17           O1  tau(  17) = (   4.5491770   1.5035522  16.0668258  )
        18           O1  tau(  18) = (   2.0540802   1.5011373  16.0688643  )
        19           Ti1 tau(  19) = (   3.2973159   2.9845483  15.7023000  )
        20           Ti1 tau(  20) = (   6.5754392   1.4353193  15.8239573  )
        21           O1  tau(  21) = (   3.2904802   0.0005063   4.7018136  )
        22           O1  tau(  22) = (   0.0048264   5.9571524  17.1588256  )
        23           O1  tau(  23) = (   1.3043587   1.4918075   6.0039043  )
        24           O1  tau(  24) = (   5.2767064   1.4903225   6.0039473  )
        25           Ti1 tau(  25) = (   0.0000382   5.9609847   6.0000000  )
        26           Ti1 tau(  26) = (   3.2902200   4.4714249   6.0002472  )
        27           O1  tau(  27) = (   0.0002396   2.9813036   7.9858123  )
        28           O1  tau(  28) = (   3.2902150   2.9813002   7.3038282  )
        29           O1  tau(  29) = (   4.5938453   4.4726049   9.2879030  )
        30           O1  tau(  30) = (   1.9864658   4.4711199   9.2879459  )
        31           Ti1 tau(  31) = (   3.2891106   5.8743827   9.1763621  )
        32           Ti1 tau(  32) = (   0.0006254   4.4649316   9.2693709  )
        33           O1  tau(  33) = (   3.3024910   2.9811918  11.3312481  )
        34           O1  tau(  34) = (   0.0092240   2.9805883  10.6323155  )
        35           O1  tau(  35) = (   1.2967186   4.4682081  12.6345707  )
        36           O1  tau(  36) = (   5.2888097   4.4704914  12.6297389  )
        37           Ti1 tau(  37) = (   0.0778612   5.9457776  12.5489457  )
        38           Ti1 tau(  38) = (   3.3928769   4.4622707  12.4864817  )
        39           O1  tau(  39) = (   0.0140712   2.9461142  14.6842920  )
        40           O1  tau(  40) = (   3.2991745   2.9776924  13.9065265  )
        41           O1  tau(  41) = (   4.5418516   4.4678888  16.0645815  )
        42           O1  tau(  42) = (   2.0574864   4.4691885  16.0636024  )
        43           Ti1 tau(  43) = (   3.2861726   0.0051191  15.7195692  )
        44           Ti1 tau(  44) = (   6.5761434   4.5285208  16.1368719  )
        45           O1  tau(  45) = (   3.2900926   2.9813045   4.7018136  )
        46           O1  tau(  46) = (   1.3039711   4.4726057   6.0039043  )
        47           O1  tau(  47) = (   5.2763189   4.4711207   6.0039473  )
        48           C1  tau(  48) = (   0.0175971   3.0427671  17.7901079  )
        49           H1  tau(  49) = (   5.6823727   3.3959267  18.2745233  )
        50           H1  tau(  50) = (   0.1100020   1.9921885  18.0671921  )
        51           H1  tau(  51) = (   0.8707680   3.5346006  18.2680029  )
        52           N1  tau(  52) = (   6.1495222   1.5691847  21.8098380  )
        53           H1  tau(  53) = (   6.1793786   2.4848735  21.3946126  )
        54           H1  tau(  54) = (   6.2462200   0.9013766  21.0428083  )
        55           H1  tau(  55) = (   5.2088654   1.4380024  22.1828036  )
        56           N1  tau(  56) = (   2.8510371   0.9663425  23.1735989  )
        57           H1  tau(  57) = (   2.8683653   5.9129692  23.1556095  )
        58           H1  tau(  58) = (   1.9074079   1.2374795  22.9038124  )
        59           H1  tau(  59) = (   2.9640119   1.2328864  24.1466208  )

     number of k points=    10  Fermi-Dirac smearing, width (Ry)=  0.0073
                       cart. coord. in units 2pi/alat
        k(    1) = (   0.0000000   0.0000000   0.0000000), wk =   0.1250000
        k(    2) = (   0.0000000   0.0419351   0.0000000), wk =   0.2500000
        k(    3) = (   0.0000000  -0.0838702   0.0000000), wk =   0.1250000
        k(    4) = (   0.0379955   0.0000049   0.0000000), wk =   0.2500000
        k(    5) = (   0.0379955   0.0419400   0.0000000), wk =   0.2500000
        k(    6) = (   0.0379955  -0.0838652   0.0000000), wk =   0.2500000
        k(    7) = (   0.0379955  -0.0419301   0.0000000), wk =   0.2500000
        k(    8) = (  -0.0759910  -0.0000099   0.0000000), wk =   0.1250000
        k(    9) = (  -0.0759910   0.0419252   0.0000000), wk =   0.2500000
        k(   10) = (  -0.0759910  -0.0838800   0.0000000), wk =   0.1250000

     Initial potential from superposition of free atoms

     starting charge  384.99911, renormalised to  401.00000

     negative rho (up, down):  4.919E-03 0.000E+00

     %%%%%%%%%%%%%%%%%%%%%%%%%%%%%%%%%%%%%%%%%%%%%%%%%%%%%%%%%%%%%%%%%%%%%%%%
     %                                                                      %
     % You are using vdW-DF, which was implemented by the Thonhauser group. %
     % Please cite the following two papers that made this development      %
     % possible and the two reviews that describe the various versions:     %
     %                                                                      %
     %   T. Thonhauser et al., PRL 115, 136402 (2015).                      %
     %   T. Thonhauser et al., PRB 76, 125112 (2007).                       %
     %   K. Berland et al., Rep. Prog. Phys. 78, 066501 (2015).             %
     %   D.C. Langreth et al., J. Phys.: Condens. Matter 21, 084203 (2009). %
     %                                                                      %
     %                                                                      %
     % If you are calculating the stress with vdW-DF, please also cite:     %
     %                                                                      %
     %   R. Sabatini et al., J. Phys.: Condens. Matter 24, 424209 (2012).   %
     %                                                                      %
     %%%%%%%%%%%%%%%%%%%%%%%%%%%%%%%%%%%%%%%%%%%%%%%%%%%%%%%%%%%%%%%%%%%%%%%%

     Adding external electric field

     Computed dipole along edir(3) :
        Dipole              -16.7053 Ry au,        -42.4606 Debye
        Dipole field         -0.0315 Ry au,

        Potential amp.        2.9223 Ry
        Total length         46.3494 bohr

     Starting wfcs are  305 atomic wfcs
  @ DRIVER MODE: Message from server: STATUS
  @ DRIVER MODE: Message from server: POSDATA
  @ DRIVER MODE: Reading and sharing cell
  @ DRIVER MODE: Reading and sharing positions
  @ DRIVER MODE: Received positions

     Self-consistent Calculation

     iteration #  1     ecut=    29.40 Ry     beta= 0.05
     Davidson diagonalization with overlap
     c_bands:  2 eigenvalues not converged
     c_bands:  3 eigenvalues not converged
     c_bands:  1 eigenvalues not converged
     c_bands:  4 eigenvalues not converged
     c_bands:  4 eigenvalues not converged
     c_bands:  2 eigenvalues not converged
     c_bands:  3 eigenvalues not converged
     c_bands:  3 eigenvalues not converged
     c_bands:  4 eigenvalues not converged
     ethr =  1.00E-05,  avg # of iterations = 19.8

[...]

     total energy              =   -2364.25976330 Ry
     estimated scf accuracy    <    6692.63163255 Ry

     iteration #  2     ecut=    29.40 Ry     beta= 0.05
     Davidson diagonalization with overlap
     ethr =  1.00E-02,  avg # of iterations = 22.0

[...]

     iteration # 71     ecut=    29.40 Ry     beta= 0.05
     Davidson diagonalization with overlap
     c_bands:  1 eigenvalues not converged
     ethr =  1.62E-10,  avg # of iterations = 11.5

[...]

     total energy              =   -2946.58229274 Ry
     estimated scf accuracy    <       0.00000025 Ry

     iteration # 75     ecut=    29.40 Ry     beta= 0.05
     Davidson diagonalization with overlap
     ethr =  6.35E-11,  avg # of iterations = 11.3

     negative rho (up, down):  6.997E-03 0.000E+00

     Adding external electric field

     Computed dipole along edir(3) :
        Dipole                0.3146 Ry au,          0.7997 Debye
        Dipole field          0.0006 Ry au,

        Potential amp.       -0.0550 Ry
        Total length         46.3494 bohr

     End of self-consistent calculation

          k = 0.0000 0.0000 0.0000 ( 18029 PWs)   bands (ev):

   -55.9977 -55.9878 -55.9636 -55.9506 -55.8782 -55.8537 -55.8330 -55.8147
   -55.8049 -55.7713 -55.7708 -55.7375 -55.6118 -55.3900 -54.9783 -54.9443
   -32.5416 -32.4803 -32.3527 -32.3327 -32.3042 -32.3018 -32.2905 -32.2617
   -32.2398 -32.2164 -32.2094 -32.1950 -32.1674 -32.1498 -32.1408 -32.1268
   -32.1105 -32.1021 -32.0870 -32.0585 -32.0549 -32.0547 -32.0266 -32.0076
   -32.0070 -32.0022 -31.9930 -31.9889 -31.9756 -31.9736 -31.9651 -31.9455
   -31.9434 -31.9369 -31.9241 -31.9105 -31.8832 -31.8651 -31.8277 -31.6668
   -31.6405 -31.5278 -31.3855 -31.2967 -31.2743 -31.2021 -31.1156 -31.0047
   -16.7427 -16.4734 -16.2470 -16.1510 -16.1238 -16.0046 -15.8395 -15.7176
   -15.6691 -15.5689 -15.5594 -15.5346 -15.5019 -15.4780 -15.4773 -15.4430
   -15.4401 -15.4208 -15.4092 -15.3592 -15.3361 -15.3244 -15.2092 -15.1754
   -15.1330 -15.1119 -15.0544 -15.0418 -14.6192 -13.4815 -13.3651 -13.0396
   -12.9294  -9.1020  -4.1159  -3.9592  -3.9048  -3.8599  -3.8291  -3.6123
    -3.5461  -3.2485  -3.1844  -3.1697  -3.1524  -3.1486  -3.1199  -3.0874
    -3.0271  -2.9865  -2.9015  -2.8334  -2.8236  -2.8091  -2.8061  -2.7767
    -2.7671  -2.7549  -2.7143  -2.6886  -2.6625  -2.6124  -2.5575  -2.4954
    -2.4120  -2.3940  -2.3123  -2.2900  -2.2839  -2.2409  -2.2265  -2.2186
    -2.1997  -2.1746  -2.1615  -1.9781  -1.9395  -1.8366  -1.7807  -1.7785
    -1.6072  -1.5071  -1.4654  -1.4545  -1.4252  -1.3914  -1.3847  -1.2986
    -1.1817  -1.1506  -1.1175  -1.0456  -1.0020  -0.9702  -0.8726  -0.8452
    -0.7622  -0.7599  -0.7378  -0.6497  -0.5961  -0.4825  -0.4345  -0.4245
    -0.3866  -0.3574  -0.2881  -0.2739  -0.2171  -0.1446  -0.1238  -0.0611
    -0.0305  -0.0165  -0.0053   0.0115   0.0380   0.0683   0.1723   0.2028
     0.2822   0.3499   0.4453   0.5427   0.6486   0.6575   0.7588   0.9681
     1.0418   1.1401   1.1988   1.2359   1.6150   1.6609   1.7499   2.1880
     3.1394   3.2234   3.2709   3.2817   3.3728   3.3891   3.5895   3.6139
     3.6350   3.6872

[...]

          k = 0.0380-0.0419 0.0000 ( 17876 PWs)   bands (ev):

[...]

          k =-0.0760-0.0000 0.0000 ( 17886 PWs)   bands (ev):

[...]

          k =-0.0760-0.0839 0.0000 ( 17948 PWs)   bands (ev):

   -55.9810 -55.9801 -55.9737 -55.9645 -55.8702 -55.8434 -55.8408 -55.8249
   -55.7889 -55.7863 -55.7557 -55.7532 -55.6107 -55.3910 -54.9612 -54.9612
   -32.3493 -32.3405 -32.2958 -32.2953 -32.2762 -32.2755 -32.2593 -32.2503
   -32.2039 -32.1921 -32.1859 -32.1833 -32.1454 -32.1296 -32.1279 -32.1186
   -32.1080 -32.1005 -32.1004 -32.0994 -32.0939 -32.0911 -32.0702 -32.0602
   -32.0412 -32.0384 -32.0288 -32.0118 -31.9888 -31.9879 -31.9864 -31.9847
   -31.9701 -31.9686 -31.9655 -31.9615 -31.9328 -31.8563 -31.8309 -31.6805
   -31.6687 -31.5721 -31.2870 -31.2870 -31.1983 -31.1982 -31.1589 -31.1588
   -16.1755 -16.1561 -15.9485 -15.9118 -15.9088 -15.8995 -15.7878 -15.7026
   -15.6928 -15.6921 -15.6096 -15.5974 -15.5812 -15.5370 -15.5328 -15.5235
   -15.5138 -15.5019 -15.4587 -15.4538 -15.4349 -15.4274 -15.3454 -15.3151
   -15.3114 -15.2729 -15.1408 -15.0093 -14.8611 -13.4670 -13.4669 -13.0010
   -12.9676  -9.1185  -3.4676  -3.4420  -3.1918  -3.1556  -3.1524  -3.1462
    -3.0823  -3.0620  -2.9620  -2.9435  -2.9218  -2.8955  -2.8807  -2.8760
    -2.8396  -2.8273  -2.8175  -2.8055  -2.7873  -2.7531  -2.7441  -2.7118
    -2.7008  -2.6808  -2.6675  -2.6521  -2.6273  -2.6146  -2.6082  -2.5772
    -2.5630  -2.5462  -2.5255  -2.5026  -2.4195  -2.2304  -2.2006  -2.1360
    -2.1269  -2.0963  -2.0848  -2.0613  -2.0469  -2.0285  -1.9817  -1.8286
    -1.7267  -1.7005  -1.6727  -1.5975  -1.5766  -1.5287  -1.4149  -1.3801
    -1.3527  -1.3269  -1.2768  -1.2258  -1.2084  -1.1854  -1.1164  -1.1028
    -1.0252  -0.9818  -0.9592  -0.9548  -0.8900  -0.8470  -0.7650  -0.7597
    -0.7158  -0.6801  -0.6327  -0.5925  -0.5877  -0.5007  -0.4750  -0.3584
    -0.3037  -0.0440   0.0056   0.0569   0.0832   0.1420   0.1924   0.2072
     0.3161   0.3204   0.3570   0.4007   0.4413   0.5289   0.5482   0.5830
     0.7291   1.3031   1.4064   1.4069   1.4803   1.4806   1.9549   1.9679
     3.4243   3.4396   3.4700   3.5025   3.6438   3.6477   3.6691   3.6707
     3.7970   3.8115

     the Fermi energy is     3.1370 ev

!    total energy              =   -2946.58230445 Ry
     estimated scf accuracy    <       0.00000004 Ry
     smearing contrib. (-TS)   =      -0.02179092 Ry
     internal energy E=F+TS    =   -2946.56051353 Ry

     The total energy is F=E-TS. E is the sum of the following terms:
     one-electron contribution =  -22199.63942727 Ry
     hartree contribution      =   11188.81975633 Ry
     xc contribution           =    -489.84810996 Ry
     ewald contribution        =    8554.10708058 Ry
     electric field correction =       0.00018679 Ry

     convergence has been achieved in  75 iterations

     Forces acting on atoms (cartesian axes, Ry/au):

     atom    1 type  1   force =     0.00011787   -0.00025385    0.09667988
     atom    2 type  1   force =    -0.00013693   -0.00057124   -0.17511379
     atom    3 type  2   force =    -0.00000326   -0.00002912   -0.02502164
     atom    4 type  2   force =     0.00007605   -0.00144169    0.05269503
     atom    5 type  2   force =    -0.01211419   -0.00083475    0.00339787
     atom    6 type  2   force =     0.01402473   -0.00015089    0.00290517
     atom    7 type  1   force =    -0.00081323    0.00067548   -0.01134928
     atom    8 type  1   force =     0.00025798    0.01148609    0.02861072
     atom    9 type  2   force =    -0.00010397    0.00008160   -0.00003186
     atom   10 type  2   force =    -0.00085121    0.00076936   -0.01661898
     atom   11 type  2   force =    -0.00031081    0.00010547    0.00002645
     atom   12 type  2   force =    -0.00000899    0.00021291    0.00005136
     atom   13 type  1   force =    -0.00011546   -0.00020458    0.00010025
     atom   14 type  1   force =    -0.00021076    0.00001220   -0.00002817
     atom   15 type  2   force =    -0.00003210    0.00005361   -0.00009684
     atom   16 type  2   force =    -0.00012488   -0.00004321    0.00002333
     atom   17 type  2   force =    -0.00001858   -0.00015966   -0.00001708
     atom   18 type  2   force =    -0.00021244   -0.00017647   -0.00002143
     atom   19 type  1   force =     0.00000902   -0.00021729    0.00011933
     atom   20 type  1   force =     0.00009871   -0.00035841   -0.00004589
     atom   21 type  2   force =     0.00006403    0.00001029    0.10295432
     atom   22 type  2   force =    -0.00010578   -0.00007946   -0.00040298
     atom   23 type  2   force =    -0.07138153   -0.00010167   -0.02771923
     atom   24 type  2   force =     0.07134111    0.00030236   -0.02775363
     atom   25 type  1   force =     0.00001394   -0.00029959    0.09645482
     atom   26 type  1   force =    -0.00017464   -0.00027270   -0.17529083
     atom   27 type  2   force =     0.00009203   -0.00020160   -0.02392804
     atom   28 type  2   force =     0.00011379   -0.00120094    0.05273903
     atom   29 type  2   force =    -0.01214499    0.00045784    0.00288073
     atom   30 type  2   force =     0.01397756    0.00080272    0.00242555
     atom   31 type  1   force =    -0.00076308    0.00310728   -0.01227426
     atom   32 type  1   force =     0.00026611   -0.01312879    0.02919658
     atom   33 type  2   force =    -0.00010073   -0.00002651    0.00002230
     atom   34 type  2   force =    -0.00028930    0.00077222   -0.02206562
     atom   35 type  2   force =    -0.00016011    0.00007563   -0.00004450
     atom   36 type  2   force =    -0.00010992    0.00019900   -0.00003308
     atom   37 type  1   force =    -0.00001600   -0.00031171   -0.00016211
     atom   38 type  1   force =     0.00003869    0.00000262    0.00000123
     atom   39 type  2   force =    -0.00008137    0.00012628    0.00028205
     atom   40 type  2   force =    -0.00013695   -0.00001412   -0.00007380
     atom   41 type  2   force =     0.00001744   -0.00021606    0.00001359
     atom   42 type  2   force =    -0.00021069   -0.00022147    0.00018202
     atom   43 type  1   force =     0.00031839   -0.00015129   -0.00019014
     atom   44 type  1   force =     0.00017602   -0.00027886    0.00019190
     atom   45 type  2   force =     0.00006310   -0.00007237    0.10293839
     atom   46 type  2   force =    -0.07139703   -0.00009001   -0.02772813
     atom   47 type  2   force =     0.07135512    0.00036779   -0.02773968
     atom   48 type  3   force =    -0.00018026    0.00038104    0.00004421
     atom   49 type  4   force =    -0.00007903    0.00041633    0.00021620
     atom   50 type  4   force =    -0.00008327    0.00013005    0.00005774
     atom   51 type  4   force =     0.00008816    0.00029553    0.00038541
     atom   52 type  5   force =    -0.00189328   -0.02365791    0.00065360
     atom   53 type  4   force =    -0.00057273    0.01415074   -0.00665259
     atom   54 type  4   force =    -0.00020729    0.00699851    0.00592952
     atom   55 type  4   force =     0.00242265    0.00266085   -0.00074559
     atom   56 type  5   force =     0.00069253    0.00030284   -0.00065814
     atom   57 type  4   force =     0.00004997   -0.00035019    0.00034400
     atom   58 type  4   force =    -0.00049819    0.00003969   -0.00059747
     atom   59 type  4   force =    -0.00003202    0.00012008   -0.00011780

     Total force =     0.368937     Total SCF correction =     0.000386
  @ DRIVER MODE: Message from server: STATUS
  @ DRIVER MODE: Message from server: GETFORCE
  @ DRIVER MODE: Returning v,forces,stress,ensemble

     Writing output data file ./calc.save/
  @ DRIVER MODE: Message from server: EXIT
  @ DRIVE MODE: Exiting

     General routines

     Parallel routines

   This run was terminated on:  18:30:18   3Aug2021

   JOB DONE.