     Program PWSCF v.6.7GPU starts on 25Aug2021 at  2:11:23

     R & G space division:  proc/nbgrp/npool/nimage =       6
     Reading input from /storage/home/hcoda1/3/ntian30/research/carbon/CH3_vib_end_on/ads_slab/CH3N2H_a/out_0020/pw.inp
Warning: card &CELL ignored
Warning: card   CELL_DYNAMICS='IPI', ignored
Warning: card / ignored

     Current dimensions of program PWSCF are:
     Max number of different atomic species (ntypx) = 10
     Max number of k-points (npk) =  40000
     Max angular momentum in pseudopotentials (lmaxx) =  3
     Presently no symmetry can be used with electric field

     Message from routine cell_base_init:
     DEPRECATED: use true lattice parameter, not A to a.u. conversion factor

     IMPORTANT: XC functional enforced from input :
     Exchange-correlation= BEEF-VDW
                           (   1   4  43  14   2   0   0)
     Any further DFT definition will be discarded
     Please, verify this is what you really want

  @ DRIVER MODE: Connecting to
 qe_1139763_2643869.sched-torque.pace.gatech.edu87gmav30_scratch
  using UNIX socket
  @ DRIVER MODE: Message from server: STATUS
  @ DRIVER MODE: Message from server: INIT
  @ DRIVER MODE: Receiving replica           0          -1
  @ DRIVER MODE: Receiving encoded integer          25
  @ DRIVER MODE:  SCF:  T  FORCE:  T  STRESS:  F  VC:  F  ENSEMBLE:  F
  @ DRIVER MODE:  SCF:  T  FORCE:  T  STRESS:  F  VC:  F  ENSEMBLE:  F

     Using Slab Decomposition

     bravais-lattice index     =            0
     lattice parameter (alat)  =       1.8897  a.u.
     unit-cell volume          =    6658.9804 (a.u.)^3
     number of atoms/cell      =           54
     number of atomic types    =            5
     number of electrons       =       396.00
     number of Kohn-Sham states=          208
     kinetic-energy cutoff     =      29.3995  Ry
     charge density cutoff     =     293.9946  Ry
     scf convergence threshold =      7.3E-08
     mixing beta               =       0.0500
     number of iterations used =            8  plain     mixing
     Exchange-correlation= BEEF-VDW
                           (   1   4  43  14   2   0   0)

     celldm(1)=   1.889726  celldm(2)=   0.000000  celldm(3)=   0.000000
     celldm(4)=   0.000000  celldm(5)=   0.000000  celldm(6)=   0.000000

     crystal axes: (cart. coord. in units of alat)
               a(1) = (   6.579727   0.000000   0.000000 )
               a(2) = (  -0.000775   5.961596   0.000000 )
               a(3) = (   0.000000   0.000000  25.155947 )

     reciprocal axes: (cart. coord. in units 2 pi/alat)
               b(1) = (  0.151982  0.000020  0.000000 )
               b(2) = (  0.000000  0.167740  0.000000 )
               b(3) = (  0.000000  0.000000  0.039752 )

     PseudoPot. # 1 for Ti read from file:
     /storage/coda1/p-amedford6/0/shared/rich_project_chbe-medford/medford-share/data/pseudos_module/espresso/nninc/pbe/van/Ti.UPF
     MD5 check sum: 8e4df49b7f0d34bbd5052bf3f5ea0213
     Pseudo is Ultrasoft, Zval = 12.0
     Generated by new atomic code, or converted to UPF format
     Using radial grid of  851 points,  6 beta functions with:
                l(1) =   0
                l(2) =   0
                l(3) =   1
                l(4) =   1
                l(5) =   2
                l(6) =   2
     Q(r) pseudized with  8 coefficients,  rinner =    1.000   1.000   1.000
                                                       1.000   1.000

     PseudoPot. # 2 for O  read from file:
     /storage/coda1/p-amedford6/0/shared/rich_project_chbe-medford/medford-share/data/pseudos_module/espresso/nninc/pbe/van/O.UPF
     MD5 check sum: 78c19812648e8988a0fe644b0f25305e
     Pseudo is Ultrasoft, Zval =  6.0
     Generated by new atomic code, or converted to UPF format
     Using radial grid of  737 points,  4 beta functions with:
                l(1) =   0
                l(2) =   0
                l(3) =   1
                l(4) =   1
     Q(r) pseudized with  8 coefficients,  rinner =    0.800   0.800   0.800

     PseudoPot. # 3 for N  read from file:
     /storage/coda1/p-amedford6/0/shared/rich_project_chbe-medford/medford-share/data/pseudos_module/espresso/nninc/pbe/van/N.UPF
     MD5 check sum: 90d10febe142ad51ac9d5be1deb811c4
     Pseudo is Ultrasoft, Zval =  5.0
     Generated by new atomic code, or converted to UPF format
     Using radial grid of  729 points,  4 beta functions with:
                l(1) =   0
                l(2) =   0
                l(3) =   1
                l(4) =   1
     Q(r) pseudized with  8 coefficients,  rinner =    0.800   0.800   0.800

     PseudoPot. # 4 for C  read from file:
     /storage/coda1/p-amedford6/0/shared/rich_project_chbe-medford/medford-share/data/pseudos_module/espresso/nninc/pbe/van/C.UPF
     MD5 check sum: 1a69bf6b8db32088f5b2163dbdb77a27
     Pseudo is Ultrasoft, Zval =  4.0
     Generated by new atomic code, or converted to UPF format
     Using radial grid of  721 points,  4 beta functions with:
                l(1) =   0
                l(2) =   0
                l(3) =   1
                l(4) =   1
     Q(r) pseudized with  8 coefficients,  rinner =    0.800   0.800   0.800

     PseudoPot. # 5 for H  read from file:
     /storage/coda1/p-amedford6/0/shared/rich_project_chbe-medford/medford-share/data/pseudos_module/espresso/nninc/pbe/van/H.UPF
     MD5 check sum: b5ee9d7bfd3a09ee7748110bda690ff7
     Pseudo is Ultrasoft, Zval =  1.0
     Generated by new atomic code, or converted to UPF format
     Using radial grid of  615 points,  1 beta functions with:
                l(1) =   0
     Q(r) pseudized with  8 coefficients,  rinner =    0.800

     atomic species   valence    mass     pseudopotential
        Ti1           12.00    47.86700     Ti( 1.00)
        O1             6.00    15.99900     O ( 1.00)
        N1             5.00    14.00700     N ( 1.00)
        C1             4.00    12.01100     C ( 1.00)
        H1             1.00     1.00800     H ( 1.00)

     No symmetry found

   Cartesian axes

     site n.     atom                  positions (alat units)
         1           Ti1 tau(   1) = (   0.0004258   2.9801865   6.0000000  )
         2           Ti1 tau(   2) = (   3.2906075   1.4906267   6.0002472  )
         3           O1  tau(   3) = (   0.0006271   0.0005054   7.9858123  )
         4           O1  tau(   4) = (   3.2906025   0.0005020   7.3038282  )
         5           O1  tau(   5) = (   4.5942328   1.4918067   9.2879030  )
         6           O1  tau(   6) = (   1.9868534   1.4903216   9.2879459  )
         7           Ti1 tau(   7) = (   3.2907910   2.8959150   9.1758416  )
         8           Ti1 tau(   8) = (   0.0015273   1.4827037   9.2680791  )
         9           O1  tau(   9) = (   3.2896288   0.0042867  11.3205077  )
        10           O1  tau(  10) = (   0.0116148   5.9584955  10.6183126  )
        11           O1  tau(  11) = (   1.2848067   1.4985890  12.6232755  )
        12           O1  tau(  12) = (   5.2688617   1.4893877  12.6055203  )
        13           Ti1 tau(  13) = (   0.0799559   3.0171279  12.6206390  )
        14           Ti1 tau(  14) = (   3.4009582   1.4891986  12.4726338  )
        15           O1  tau(  15) = (   6.5707323   0.0080309  14.6263129  )
        16           O1  tau(  16) = (   3.2902489   0.0120312  13.8979102  )
        17           O1  tau(  17) = (   4.5126121   1.5346005  16.0500440  )
        18           O1  tau(  18) = (   2.0453867   1.5362785  16.0447169  )
        19           Ti1 tau(  19) = (   3.2767562   3.0203775  15.6892921  )
        20           Ti1 tau(  20) = (   6.5596632   1.5778499  15.8310978  )
        21           O1  tau(  21) = (   3.2904802   0.0005063   4.7018136  )
        22           O1  tau(  22) = (   6.5709656   0.0671247  17.2345223  )
        23           O1  tau(  23) = (   1.3043587   1.4918075   6.0039043  )
        24           O1  tau(  24) = (   5.2767064   1.4903225   6.0039473  )
        25           Ti1 tau(  25) = (   0.0000382   5.9609847   6.0000000  )
        26           Ti1 tau(  26) = (   3.2902200   4.4714249   6.0002472  )
        27           O1  tau(  27) = (   0.0002396   2.9813036   7.9858123  )
        28           O1  tau(  28) = (   3.2902150   2.9813002   7.3038282  )
        29           O1  tau(  29) = (   4.5938453   4.4726049   9.2879030  )
        30           O1  tau(  30) = (   1.9864658   4.4711199   9.2879459  )
        31           Ti1 tau(  31) = (   3.2891106   5.8743827   9.1763621  )
        32           Ti1 tau(  32) = (   0.0006254   4.4649316   9.2693709  )
        33           O1  tau(  33) = (   3.2919429   2.9835650  11.3172650  )
        34           O1  tau(  34) = (   0.0092240   2.9805883  10.6323155  )
        35           O1  tau(  35) = (   1.2842535   4.4799506  12.6241420  )
        36           O1  tau(  36) = (   5.2755836   4.4732255  12.6042992  )
        37           Ti1 tau(  37) = (   0.0783641   0.0295629  12.6394962  )
        38           Ti1 tau(  38) = (   3.4022659   4.4693352  12.4708195  )
        39           O1  tau(  39) = (   6.5693815   2.9799975  14.6326336  )
        40           O1  tau(  40) = (   3.2899495   3.0014797  13.8849495  )
        41           O1  tau(  41) = (   4.5062741   4.5069571  16.0893315  )
        42           O1  tau(  42) = (   2.0480812   4.5060041  16.0753496  )
        43           Ti1 tau(  43) = (   3.2742444   0.0367023  15.7020416  )
        44           Ti1 tau(  44) = (   6.5658628   4.6518251  16.1481936  )
        45           O1  tau(  45) = (   3.2900926   2.9813045   4.7018136  )
        46           O1  tau(  46) = (   1.3039711   4.4726057   6.0039043  )
        47           O1  tau(  47) = (   5.2763189   4.4711207   6.0039473  )
        48           N1  tau(  48) = (   6.5201982   2.6597193  18.5868863  )
        49           N1  tau(  49) = (   6.5663212   2.9659568  17.3251533  )
        50           C1  tau(  50) = (   0.1092964   3.6297355  19.6533281  )
        51           H1  tau(  51) = (   6.1465678   4.5355971  19.4091500  )
        52           H1  tau(  52) = (   6.3142024   3.1981282  20.5813133  )
        53           H1  tau(  53) = (   1.1661384   3.8973747  19.7839464  )
        54           H1  tau(  54) = (   6.5756389   1.6632157  18.8047554  )

     number of k points=    10  Fermi-Dirac smearing, width (Ry)=  0.0073
                       cart. coord. in units 2pi/alat
        k(    1) = (   0.0000000   0.0000000   0.0000000), wk =   0.1250000
        k(    2) = (   0.0000000   0.0419351   0.0000000), wk =   0.2500000
        k(    3) = (   0.0000000  -0.0838702   0.0000000), wk =   0.1250000
        k(    4) = (   0.0379955   0.0000049   0.0000000), wk =   0.2500000
        k(    5) = (   0.0379955   0.0419400   0.0000000), wk =   0.2500000
        k(    6) = (   0.0379955  -0.0838652   0.0000000), wk =   0.2500000
        k(    7) = (   0.0379955  -0.0419301   0.0000000), wk =   0.2500000
        k(    8) = (  -0.0759910  -0.0000099   0.0000000), wk =   0.1250000
        k(    9) = (  -0.0759910   0.0419252   0.0000000), wk =   0.2500000
        k(   10) = (  -0.0759910  -0.0838800   0.0000000), wk =   0.1250000

     Initial potential from superposition of free atoms

     starting charge  379.99915, renormalised to  396.00000

     negative rho (up, down):  1.474E-02 0.000E+00

     %%%%%%%%%%%%%%%%%%%%%%%%%%%%%%%%%%%%%%%%%%%%%%%%%%%%%%%%%%%%%%%%%%%%%%%%
     %                                                                      %
     % You are using vdW-DF, which was implemented by the Thonhauser group. %
     % Please cite the following two papers that made this development      %
     % possible and the two reviews that describe the various versions:     %
     %                                                                      %
     %   T. Thonhauser et al., PRL 115, 136402 (2015).                      %
     %   T. Thonhauser et al., PRB 76, 125112 (2007).                       %
     %   K. Berland et al., Rep. Prog. Phys. 78, 066501 (2015).             %
     %   D.C. Langreth et al., J. Phys.: Condens. Matter 21, 084203 (2009). %
     %                                                                      %
     %                                                                      %
     % If you are calculating the stress with vdW-DF, please also cite:     %
     %                                                                      %
     %   R. Sabatini et al., J. Phys.: Condens. Matter 24, 424209 (2012).   %
     %                                                                      %
     %%%%%%%%%%%%%%%%%%%%%%%%%%%%%%%%%%%%%%%%%%%%%%%%%%%%%%%%%%%%%%%%%%%%%%%%

     Adding external electric field

     Computed dipole along edir(3) :
        Dipole               -9.2704 Ry au,        -23.5631 Debye
        Dipole field         -0.0175 Ry au,

        Potential amp.        1.6217 Ry
        Total length         46.3494 bohr

     Starting wfcs are  300 atomic wfcs
  @ DRIVER MODE: Message from server: STATUS
  @ DRIVER MODE: Message from server: POSDATA
  @ DRIVER MODE: Reading and sharing cell
  @ DRIVER MODE: Reading and sharing positions
  @ DRIVER MODE: Received positions

     Self-consistent Calculation

     iteration #  1     ecut=    29.40 Ry     beta= 0.05
     Davidson diagonalization with overlap
     c_bands:  1 eigenvalues not converged
     c_bands:  1 eigenvalues not converged
     c_bands:  1 eigenvalues not converged
     ethr =  1.00E-05,  avg # of iterations = 17.9

[...]

     total energy              =   -2585.38469764 Ry
     estimated scf accuracy    <    3945.99383426 Ry

     iteration #  2     ecut=    29.40 Ry     beta= 0.05
     Davidson diagonalization with overlap
     ethr =  1.00E-02,  avg # of iterations = 22.6

[...]

     iteration # 54     ecut=    29.40 Ry     beta= 0.05
     Davidson diagonalization with overlap
     c_bands:  1 eigenvalues not converged
     ethr =  3.97E-07,  avg # of iterations = 11.8

[...]

     total energy              =   -2940.39765939 Ry
     estimated scf accuracy    <       0.00000008 Ry

     iteration # 78     ecut=    29.40 Ry     beta= 0.05
     Davidson diagonalization with overlap
     ethr =  2.08E-11,  avg # of iterations =  8.9

     negative rho (up, down):  1.568E-02 0.000E+00

     Adding external electric field

     Computed dipole along edir(3) :
        Dipole                1.1306 Ry au,          2.8736 Debye
        Dipole field          0.0021 Ry au,

        Potential amp.       -0.1978 Ry
        Total length         46.3494 bohr

     End of self-consistent calculation

          k = 0.0000 0.0000 0.0000 ( 18029 PWs)   bands (ev):

   -55.6433 -55.6093 -55.5512 -55.5136 -55.4071 -55.3847 -55.3733 -55.3494
   -55.3424 -55.3355 -55.3156 -55.2658 -54.7254 -54.5848 -54.5570 -54.5508
   -32.1178 -32.0948 -31.9376 -31.9244 -31.8942 -31.8637 -31.8457 -31.8389
   -31.7965 -31.7797 -31.7790 -31.7401 -31.7310 -31.7132 -31.7020 -31.6920
   -31.6818 -31.6726 -31.6396 -31.6280 -31.6055 -31.5853 -31.5780 -31.5641
   -31.5508 -31.5445 -31.5378 -31.5360 -31.5303 -31.5132 -31.5039 -31.5024
   -31.4986 -31.4616 -31.4475 -31.3800 -31.2232 -30.9906 -30.9485 -30.9339
   -30.9059 -30.8945 -30.8832 -30.8074 -30.7653 -30.7368 -30.7211 -30.6101
   -18.0017 -16.2774 -16.0496 -15.7722 -15.6714 -15.6479 -15.5271 -15.3946
   -15.2942 -15.1992 -15.1589 -15.1046 -15.1000 -15.0706 -15.0404 -15.0043
   -14.9767 -14.9373 -14.9192 -14.8996 -14.8744 -14.8653 -14.7550 -14.7413
   -14.7169 -14.6254 -14.6151 -14.5422 -14.5163 -14.0865 -13.0872 -12.9715
   -12.0235  -8.9400  -5.7268  -4.4655  -4.1441  -3.6603  -3.5345  -3.5042
    -3.4028  -3.2312  -3.1383  -3.0782  -2.9690  -2.7644  -2.7296  -2.7197
    -2.6996  -2.6419  -2.4437  -2.4182  -2.3868  -2.3470  -2.3371  -2.3348
    -2.3206  -2.2590  -2.1927  -2.1280  -2.0292  -2.0238  -1.9683  -1.9550
    -1.9379  -1.9031  -1.8596  -1.8202  -1.7986  -1.7567  -1.7380  -1.7315
    -1.6900  -1.6075  -1.5053  -1.3479  -1.3292  -1.3007  -1.2524  -1.1972
    -1.0327  -1.0171  -0.9797  -0.9735  -0.9416  -0.8662  -0.7994  -0.7140
    -0.6780  -0.6010  -0.5852  -0.5562  -0.4822  -0.3965  -0.3738  -0.3588
    -0.3512  -0.3356  -0.2777  -0.1626  -0.0678  -0.0382   0.0834   0.0880
     0.1231   0.1674   0.1839   0.2655   0.3019   0.3157   0.3671   0.3676
     0.3792   0.4230   0.4460   0.5085   0.5644   0.6486   0.7218   0.7872
     0.8241   0.9405   1.0115   1.0768   1.1087   1.2379   1.3660   1.3751
     1.4367   1.6321   1.6346   2.0052   2.0495   3.5282   3.5492   3.6420
     3.6855   3.7834   3.8224   3.9667   4.0216   4.0592   4.1883   4.2139

[...]

          k = 0.0380-0.0419 0.0000 ( 17876 PWs)   bands (ev):

[...]

          k =-0.0760-0.0000 0.0000 ( 17886 PWs)   bands (ev):

[...]

          k =-0.0760-0.0839 0.0000 ( 17948 PWs)   bands (ev):

   -55.6263 -55.6261 -55.5381 -55.5265 -55.3902 -55.3898 -55.3757 -55.3513
   -55.3339 -55.3311 -55.3308 -55.2704 -54.7239 -54.5678 -54.5677 -54.5585
   -31.9333 -31.9333 -31.9228 -31.9227 -31.9026 -31.8933 -31.7958 -31.7860
   -31.7621 -31.7494 -31.7473 -31.7468 -31.7020 -31.6991 -31.6868 -31.6835
   -31.6746 -31.6709 -31.6704 -31.6452 -31.6009 -31.5990 -31.5859 -31.5828
   -31.5784 -31.5768 -31.5752 -31.5649 -31.5623 -31.5569 -31.5488 -31.5458
   -31.5391 -31.5286 -31.5025 -31.4681 -31.1325 -30.9689 -30.9348 -30.9220
   -30.8960 -30.8959 -30.8037 -30.8035 -30.7846 -30.7666 -30.7643 -30.7643
   -17.9960 -15.7004 -15.6891 -15.5099 -15.5047 -15.4443 -15.4381 -15.2853
   -15.2844 -15.2659 -15.2577 -15.1345 -15.1308 -15.0991 -15.0955 -15.0532
   -15.0445 -15.0264 -15.0180 -15.0164 -15.0098 -14.9831 -14.9322 -14.8984
   -14.8928 -14.7156 -14.7148 -14.5944 -14.5617 -14.2219 -13.0735 -13.0735
   -12.0244  -8.9499  -5.7186  -4.4041  -4.1473  -2.9907  -2.9883  -2.9781
    -2.7048  -2.6997  -2.6754  -2.6647  -2.4597  -2.4469  -2.4257  -2.4201
    -2.3928  -2.3870  -2.3721  -2.3649  -2.2821  -2.2713  -2.2601  -2.2358
    -2.2322  -2.2277  -2.2116  -2.2041  -2.1942  -2.1607  -2.1251  -2.0959
    -2.0613  -2.0387  -1.9195  -1.8091  -1.7313  -1.7245  -1.6940  -1.6882
    -1.6823  -1.6758  -1.6428  -1.5384  -1.4819  -1.4270  -1.2901  -1.2649
    -1.2476  -1.2017  -1.1133  -1.0327  -0.9694  -0.9524  -0.9048  -0.8617
    -0.8368  -0.7524  -0.7285  -0.7208  -0.6531  -0.6205  -0.5761  -0.5703
    -0.5558  -0.4899  -0.4418  -0.3922  -0.3689  -0.3382  -0.2929  -0.2723
    -0.2094  -0.1572  -0.1100  -0.1045  -0.0563  -0.0480   0.0170   0.1666
     0.2161   0.4698   0.4842   0.5149   0.6394   0.7107   0.7161   0.7439
     0.7758   0.8272   0.8392   0.9728   0.9845   0.9871   1.1524   1.1767
     1.2640   1.8051   1.8053   1.8686   1.8690   3.4308   3.9206   3.9379
     3.9631   3.9782   4.0496   4.0505   4.0587   4.0662   4.2444   4.2648

     the Fermi energy is     3.5053 ev

!    total energy              =   -2940.39767089 Ry
     estimated scf accuracy    <       0.00000004 Ry
     smearing contrib. (-TS)   =      -0.02302231 Ry
     internal energy E=F+TS    =   -2940.37464858 Ry

     The total energy is F=E-TS. E is the sum of the following terms:
     one-electron contribution =  -24109.37286650 Ry
     hartree contribution      =   12145.91592241 Ry
     xc contribution           =    -486.04925854 Ry
     ewald contribution        =    9509.12914199 Ry
     electric field correction =       0.00241207 Ry

     convergence has been achieved in  78 iterations

     Forces acting on atoms (cartesian axes, Ry/au):

     atom    1 type  1   force =     0.00015395   -0.00012920    0.09933532
     atom    2 type  1   force =    -0.00012574   -0.00046851   -0.17359585
     atom    3 type  2   force =    -0.00005209   -0.00000329   -0.02879212
     atom    4 type  2   force =     0.00007488   -0.00125139    0.04997948
     atom    5 type  2   force =    -0.01306601    0.00057879    0.00121327
     atom    6 type  2   force =     0.01461327    0.00138583   -0.00011034
     atom    7 type  1   force =    -0.00144345   -0.00059892   -0.00835499
     atom    8 type  1   force =     0.00088155   -0.00411345    0.04512711
     atom    9 type  2   force =    -0.00003266   -0.00065964   -0.00025713
     atom   10 type  2   force =    -0.00129124    0.00227410   -0.02839786
     atom   11 type  2   force =     0.00019582    0.00061123   -0.00003560
     atom   12 type  2   force =     0.00025328    0.00040668    0.00011161
     atom   13 type  1   force =     0.00037772    0.00021207   -0.00060434
     atom   14 type  1   force =     0.00003483    0.00047610    0.00030654
     atom   15 type  2   force =     0.00034152   -0.00011029   -0.00004665
     atom   16 type  2   force =    -0.00041024   -0.00023428   -0.00018317
     atom   17 type  2   force =    -0.00100648    0.00013966   -0.00052178
     atom   18 type  2   force =     0.00088859    0.00019271    0.00024008
     atom   19 type  1   force =     0.00022267   -0.00006600    0.00002044
     atom   20 type  1   force =    -0.00048021   -0.00081599    0.00020255
     atom   21 type  2   force =     0.00009009   -0.00007162    0.10277857
     atom   22 type  2   force =     0.00011541    0.00003168    0.00016850
     atom   23 type  2   force =    -0.07214393   -0.00015655   -0.02833086
     atom   24 type  2   force =     0.07214324    0.00030189   -0.02833015
     atom   25 type  1   force =     0.00012254   -0.00020591    0.09864295
     atom   26 type  1   force =    -0.00011299   -0.00045957   -0.17381426
     atom   27 type  2   force =     0.00001039   -0.00002542   -0.02807188
     atom   28 type  2   force =     0.00011497   -0.00099886    0.04943366
     atom   29 type  2   force =    -0.01338453    0.00005466    0.00127588
     atom   30 type  2   force =     0.01484040    0.00042021   -0.00006739
     atom   31 type  1   force =    -0.00139464    0.00250799   -0.00863772
     atom   32 type  1   force =     0.00106267    0.00237644    0.04544861
     atom   33 type  2   force =    -0.00013012    0.00104496    0.00056369
     atom   34 type  2   force =    -0.00071790    0.00120432   -0.03113788
     atom   35 type  2   force =     0.00068652   -0.00051184   -0.00017838
     atom   36 type  2   force =    -0.00163042   -0.00011120    0.00006567
     atom   37 type  1   force =    -0.00017881   -0.00153877    0.00019020
     atom   38 type  1   force =     0.00078496   -0.00004354    0.00050557
     atom   39 type  2   force =     0.00032600    0.00018640   -0.00056073
     atom   40 type  2   force =    -0.00040344    0.00033199   -0.00003956
     atom   41 type  2   force =     0.00044891   -0.00058824    0.00002599
     atom   42 type  2   force =    -0.00043942   -0.00071265    0.00053000
     atom   43 type  1   force =     0.00037093   -0.00032713   -0.00057116
     atom   44 type  1   force =    -0.00036569   -0.00067717   -0.00028359
     atom   45 type  2   force =     0.00010991   -0.00006917    0.10280898
     atom   46 type  2   force =    -0.07216577   -0.00009659   -0.02832725
     atom   47 type  2   force =     0.07215014    0.00034273   -0.02830194
     atom   48 type  3   force =    -0.00020435   -0.00021027   -0.00107182
     atom   49 type  3   force =    -0.00003812   -0.00047471   -0.00015084
     atom   50 type  4   force =     0.00546640   -0.00401438    0.00208027
     atom   51 type  5   force =    -0.00477383    0.00404943   -0.00129965
     atom   52 type  5   force =     0.00008569    0.00058060   -0.00048619
     atom   53 type  5   force =    -0.00042021   -0.00045630   -0.00059902
     atom   54 type  5   force =    -0.00055496    0.00049040    0.00010516

     Total force =     0.372343     Total SCF correction =     0.000610
  @ DRIVER MODE: Message from server: STATUS
  @ DRIVER MODE: Message from server: GETFORCE
  @ DRIVER MODE: Returning v,forces,stress,ensemble

     Writing output data file ./calc.save/
  @ DRIVER MODE: Message from server: EXIT
  @ DRIVE MODE: Exiting

     General routines

     Parallel routines

   This run was terminated on:   2:42:45  25Aug2021

   JOB DONE.