     Program PWSCF v.6.7GPU starts on 11Sep2021 at  1:55:26

     R & G space division:  proc/nbgrp/npool/nimage =      10
     Reading input from /storage/home/hcoda1/3/ntian30/research/carbon/CxH_vib/CH2_calc/ads_slab/CH2NHNH2_a/out_0022/pw.inp
Warning: card &CELL ignored
Warning: card   CELL_DYNAMICS='IPI', ignored
Warning: card / ignored

     Current dimensions of program PWSCF are:
     Max number of different atomic species (ntypx) = 10
     Max number of k-points (npk) =  40000
     Max angular momentum in pseudopotentials (lmaxx) =  3
     Presently no symmetry can be used with electric field

     Message from routine cell_base_init:
     DEPRECATED: use true lattice parameter, not A to a.u. conversion factor

     IMPORTANT: XC functional enforced from input :
     Exchange-correlation= BEEF-VDW
                           (   1   4  43  14   2   0   0)
     Any further DFT definition will be discarded
     Please, verify this is what you really want

  @ DRIVER MODE: Connecting to
 qe_1139763_2792044.sched-torque.pace.gatech.edu_dgjysyj_scratch
  using UNIX socket
  @ DRIVER MODE: Message from server: STATUS
  @ DRIVER MODE: Message from server: INIT
  @ DRIVER MODE: Receiving replica           0          -1
  @ DRIVER MODE: Receiving encoded integer          25
  @ DRIVER MODE:  SCF:  T  FORCE:  T  STRESS:  F  VC:  F  ENSEMBLE:  F
  @ DRIVER MODE:  SCF:  T  FORCE:  T  STRESS:  F  VC:  F  ENSEMBLE:  F

     Using Slab Decomposition

     bravais-lattice index     =            0
     lattice parameter (alat)  =       1.8897  a.u.
     unit-cell volume          =    6658.9804 (a.u.)^3
     number of atoms/cell      =           55
     number of atomic types    =            5
     number of electrons       =       397.00
     number of Kohn-Sham states=          208
     kinetic-energy cutoff     =      29.3995  Ry
     charge density cutoff     =     293.9946  Ry
     scf convergence threshold =      7.3E-08
     mixing beta               =       0.0500
     number of iterations used =            8  plain     mixing
     Exchange-correlation= BEEF-VDW
                           (   1   4  43  14   2   0   0)

     celldm(1)=   1.889726  celldm(2)=   0.000000  celldm(3)=   0.000000
     celldm(4)=   0.000000  celldm(5)=   0.000000  celldm(6)=   0.000000

     crystal axes: (cart. coord. in units of alat)
               a(1) = (   6.579727   0.000000   0.000000 )
               a(2) = (  -0.000775   5.961596   0.000000 )
               a(3) = (   0.000000   0.000000  25.155947 )

     reciprocal axes: (cart. coord. in units 2 pi/alat)
               b(1) = (  0.151982  0.000020  0.000000 )
               b(2) = (  0.000000  0.167740  0.000000 )
               b(3) = (  0.000000  0.000000  0.039752 )

     PseudoPot. # 1 for Ti read from file:
     /storage/coda1/p-amedford6/0/shared/rich_project_chbe-medford/medford-share/data/pseudos_module/espresso/nninc/pbe/van/Ti.UPF
     MD5 check sum: 8e4df49b7f0d34bbd5052bf3f5ea0213
     Pseudo is Ultrasoft, Zval = 12.0
     Generated by new atomic code, or converted to UPF format
     Using radial grid of  851 points,  6 beta functions with:
                l(1) =   0
                l(2) =   0
                l(3) =   1
                l(4) =   1
                l(5) =   2
                l(6) =   2
     Q(r) pseudized with  8 coefficients,  rinner =    1.000   1.000   1.000
                                                       1.000   1.000

     PseudoPot. # 2 for O  read from file:
     /storage/coda1/p-amedford6/0/shared/rich_project_chbe-medford/medford-share/data/pseudos_module/espresso/nninc/pbe/van/O.UPF
     MD5 check sum: 78c19812648e8988a0fe644b0f25305e
     Pseudo is Ultrasoft, Zval =  6.0
     Generated by new atomic code, or converted to UPF format
     Using radial grid of  737 points,  4 beta functions with:
                l(1) =   0
                l(2) =   0
                l(3) =   1
                l(4) =   1
     Q(r) pseudized with  8 coefficients,  rinner =    0.800   0.800   0.800

     PseudoPot. # 3 for N  read from file:
     /storage/coda1/p-amedford6/0/shared/rich_project_chbe-medford/medford-share/data/pseudos_module/espresso/nninc/pbe/van/N.UPF
     MD5 check sum: 90d10febe142ad51ac9d5be1deb811c4
     Pseudo is Ultrasoft, Zval =  5.0
     Generated by new atomic code, or converted to UPF format
     Using radial grid of  729 points,  4 beta functions with:
                l(1) =   0
                l(2) =   0
                l(3) =   1
                l(4) =   1
     Q(r) pseudized with  8 coefficients,  rinner =    0.800   0.800   0.800

     PseudoPot. # 4 for C  read from file:
     /storage/coda1/p-amedford6/0/shared/rich_project_chbe-medford/medford-share/data/pseudos_module/espresso/nninc/pbe/van/C.UPF
     MD5 check sum: 1a69bf6b8db32088f5b2163dbdb77a27
     Pseudo is Ultrasoft, Zval =  4.0
     Generated by new atomic code, or converted to UPF format
     Using radial grid of  721 points,  4 beta functions with:
                l(1) =   0
                l(2) =   0
                l(3) =   1
                l(4) =   1
     Q(r) pseudized with  8 coefficients,  rinner =    0.800   0.800   0.800

     PseudoPot. # 5 for H  read from file:
     /storage/coda1/p-amedford6/0/shared/rich_project_chbe-medford/medford-share/data/pseudos_module/espresso/nninc/pbe/van/H.UPF
     MD5 check sum: b5ee9d7bfd3a09ee7748110bda690ff7
     Pseudo is Ultrasoft, Zval =  1.0
     Generated by new atomic code, or converted to UPF format
     Using radial grid of  615 points,  1 beta functions with:
                l(1) =   0
     Q(r) pseudized with  8 coefficients,  rinner =    0.800

     atomic species   valence    mass     pseudopotential
        Ti1           12.00    47.86700     Ti( 1.00)
        O1             6.00    15.99900     O ( 1.00)
        N1             5.00    14.00700     N ( 1.00)
        C1             4.00    12.01100     C ( 1.00)
        H1             1.00     1.00800     H ( 1.00)

     No symmetry found

   Cartesian axes

     site n.     atom                  positions (alat units)
         1           Ti1 tau(   1) = (   0.0004258   2.9801865   6.0000000  )
         2           Ti1 tau(   2) = (   3.2906075   1.4906267   6.0002472  )
         3           O1  tau(   3) = (   0.0006271   0.0005054   7.9858123  )
         4           O1  tau(   4) = (   3.2906025   0.0005020   7.3038282  )
         5           O1  tau(   5) = (   4.5942328   1.4918067   9.2879030  )
         6           O1  tau(   6) = (   1.9868534   1.4903216   9.2879459  )
         7           Ti1 tau(   7) = (   3.2907910   2.8959150   9.1758416  )
         8           Ti1 tau(   8) = (   0.0015273   1.4827037   9.2680791  )
         9           O1  tau(   9) = (   3.2904964   5.9585769  11.3857690  )
        10           O1  tau(  10) = (   0.0116148   5.9584955  10.6183126  )
        11           O1  tau(  11) = (   1.2878431   1.4867815  12.6991744  )
        12           O1  tau(  12) = (   5.2968392   1.4897239  12.6840540  )
        13           Ti1 tau(  13) = (   0.0031652   2.9724310  12.5021289  )
        14           Ti1 tau(  14) = (   3.2974598   1.4750309  12.5411678  )
        15           O1  tau(  15) = (   6.5490940   5.8844369  14.7025010  )
        16           O1  tau(  16) = (   3.3056738   5.9474069  14.0077327  )
        17           O1  tau(  17) = (   4.5358307   1.5199601  16.1809847  )
        18           O1  tau(  18) = (   2.0145668   1.5037208  16.1256758  )
        19           Ti1 tau(  19) = (   3.2722398   2.9952086  15.7861162  )
        20           Ti1 tau(  20) = (   6.5630583   1.3046800  15.8709962  )
        21           O1  tau(  21) = (   3.2904802   0.0005063   4.7018136  )
        22           O1  tau(  22) = (   0.0019326   0.1554656  17.2922311  )
        23           O1  tau(  23) = (   1.3043587   1.4918075   6.0039043  )
        24           O1  tau(  24) = (   5.2767064   1.4903225   6.0039473  )
        25           Ti1 tau(  25) = (   0.0000382   5.9609847   6.0000000  )
        26           Ti1 tau(  26) = (   3.2902200   4.4714249   6.0002472  )
        27           O1  tau(  27) = (   0.0002396   2.9813036   7.9858123  )
        28           O1  tau(  28) = (   3.2902150   2.9813002   7.3038282  )
        29           O1  tau(  29) = (   4.5938453   4.4726049   9.2879030  )
        30           O1  tau(  30) = (   1.9864658   4.4711199   9.2879459  )
        31           Ti1 tau(  31) = (   3.2891106   5.8743827   9.1763621  )
        32           Ti1 tau(  32) = (   0.0006254   4.4649316   9.2693709  )
        33           O1  tau(  33) = (   3.2902589   2.9648534  11.3782866  )
        34           O1  tau(  34) = (   0.0092240   2.9805883  10.6323155  )
        35           O1  tau(  35) = (   1.2907939   4.4579819  12.6664495  )
        36           O1  tau(  36) = (   5.2949113   4.4550998  12.6520156  )
        37           Ti1 tau(  37) = (   0.0082621   5.9437129  12.5015890  )
        38           Ti1 tau(  38) = (   3.2989848   4.4491302  12.5337562  )
        39           O1  tau(  39) = (   6.5545586   3.0159292  14.9830317  )
        40           O1  tau(  40) = (   3.2960925   2.9977268  13.9872472  )
        41           O1  tau(  41) = (   4.5245867   4.4695491  16.2648171  )
        42           O1  tau(  42) = (   2.0004542   4.4779941  16.2115700  )
        43           Ti1 tau(  43) = (   3.2998562   0.0139781  15.8031611  )
        44           Ti1 tau(  44) = (   0.0298651   4.5190837  16.0363964  )
        45           O1  tau(  45) = (   3.2900926   2.9813045   4.7018136  )
        46           O1  tau(  46) = (   1.3039711   4.4726057   6.0039043  )
        47           O1  tau(  47) = (   5.2763189   4.4711207   6.0039473  )
        48           N1  tau(  48) = (   0.7490466   2.5008218  18.8353846  )
        49           N1  tau(  49) = (   6.4369825   3.4131575  18.1751453  )
        50           C1  tau(  50) = (   1.9829018   2.9174465  19.1941100  )
        51           H1  tau(  51) = (   2.1359794   3.9644348  19.4490303  )
        52           H1  tau(  52) = (   2.6935556   2.1521737  19.4548401  )
        53           H1  tau(  53) = (   0.6355624   1.5475814  18.4636284  )
        54           H1  tau(  54) = (   6.4936903   4.3158724  18.6511896  )
        55           H1  tau(  55) = (   5.4890587   3.0624770  18.3097170  )

     number of k points=    10  Fermi-Dirac smearing, width (Ry)=  0.0073
                       cart. coord. in units 2pi/alat
        k(    1) = (   0.0000000   0.0000000   0.0000000), wk =   0.1250000
        k(    2) = (   0.0000000   0.0419351   0.0000000), wk =   0.2500000
        k(    3) = (   0.0000000  -0.0838702   0.0000000), wk =   0.1250000
        k(    4) = (   0.0379955   0.0000049   0.0000000), wk =   0.2500000
        k(    5) = (   0.0379955   0.0419400   0.0000000), wk =   0.2500000
        k(    6) = (   0.0379955  -0.0838652   0.0000000), wk =   0.2500000
        k(    7) = (   0.0379955  -0.0419301   0.0000000), wk =   0.2500000
        k(    8) = (  -0.0759910  -0.0000099   0.0000000), wk =   0.1250000
        k(    9) = (  -0.0759910   0.0419252   0.0000000), wk =   0.2500000
        k(   10) = (  -0.0759910  -0.0838800   0.0000000), wk =   0.1250000

     Initial potential from superposition of free atoms

     starting charge  380.99914, renormalised to  397.00000

     negative rho (up, down):  1.606E-02 0.000E+00

     %%%%%%%%%%%%%%%%%%%%%%%%%%%%%%%%%%%%%%%%%%%%%%%%%%%%%%%%%%%%%%%%%%%%%%%%
     %                                                                      %
     % You are using vdW-DF, which was implemented by the Thonhauser group. %
     % Please cite the following two papers that made this development      %
     % possible and the two reviews that describe the various versions:     %
     %                                                                      %
     %   T. Thonhauser et al., PRL 115, 136402 (2015).                      %
     %   T. Thonhauser et al., PRB 76, 125112 (2007).                       %
     %   K. Berland et al., Rep. Prog. Phys. 78, 066501 (2015).             %
     %   D.C. Langreth et al., J. Phys.: Condens. Matter 21, 084203 (2009). %
     %                                                                      %
     %                                                                      %
     % If you are calculating the stress with vdW-DF, please also cite:     %
     %                                                                      %
     %   R. Sabatini et al., J. Phys.: Condens. Matter 24, 424209 (2012).   %
     %                                                                      %
     %%%%%%%%%%%%%%%%%%%%%%%%%%%%%%%%%%%%%%%%%%%%%%%%%%%%%%%%%%%%%%%%%%%%%%%%

     Adding external electric field

     Computed dipole along edir(3) :
        Dipole              -10.6770 Ry au,        -27.1381 Debye
        Dipole field         -0.0201 Ry au,

        Potential amp.        1.8678 Ry
        Total length         46.3494 bohr

     Starting wfcs are  301 atomic wfcs
  @ DRIVER MODE: Message from server: STATUS
  @ DRIVER MODE: Message from server: POSDATA
  @ DRIVER MODE: Reading and sharing cell
  @ DRIVER MODE: Reading and sharing positions
  @ DRIVER MODE: Received positions

     Self-consistent Calculation

     iteration #  1     ecut=    29.40 Ry     beta= 0.05
     Davidson diagonalization with overlap
     c_bands:  2 eigenvalues not converged
     c_bands:  3 eigenvalues not converged
     c_bands:  1 eigenvalues not converged
     c_bands:  4 eigenvalues not converged
     c_bands:  4 eigenvalues not converged
     c_bands:  4 eigenvalues not converged
     c_bands:  1 eigenvalues not converged
     c_bands:  2 eigenvalues not converged
     c_bands:  2 eigenvalues not converged
     ethr =  1.00E-05,  avg # of iterations = 20.0

[...]

     total energy              =   -2465.32794078 Ry
     estimated scf accuracy    <    5331.47174155 Ry

     iteration #  2     ecut=    29.40 Ry     beta= 0.05
     Davidson diagonalization with overlap
     ethr =  1.00E-02,  avg # of iterations = 23.4

[...]

     iteration # 98     ecut=    29.40 Ry     beta= 0.05
     Davidson diagonalization with overlap
     c_bands:  1 eigenvalues not converged
     ethr =  7.51E-11,  avg # of iterations = 11.1

[...]

     total energy              =   -2941.51048934 Ry
     estimated scf accuracy    <       0.00000014 Ry

     iteration #102     ecut=    29.40 Ry     beta= 0.05
     Davidson diagonalization with overlap
     ethr =  3.61E-11,  avg # of iterations = 14.4

     negative rho (up, down):  1.513E-02 0.000E+00

     Adding external electric field

     Computed dipole along edir(3) :
        Dipole                1.2026 Ry au,          3.0568 Debye
        Dipole field          0.0023 Ry au,

        Potential amp.       -0.2104 Ry
        Total length         46.3494 bohr

     End of self-consistent calculation

          k = 0.0000 0.0000 0.0000 ( 18029 PWs)   bands (ev):

   -55.3825 -55.3456 -55.3370 -55.3029 -55.2644 -55.2584 -55.2297 -55.2114
   -55.1869 -55.1845 -55.1770 -55.1674 -55.1337 -55.0322 -54.3699 -54.3359
   -31.9453 -31.8303 -31.7776 -31.7517 -31.7005 -31.6900 -31.6844 -31.6739
   -31.6257 -31.6173 -31.5948 -31.5816 -31.5724 -31.5482 -31.5418 -31.5347
   -31.5223 -31.5064 -31.5050 -31.4897 -31.4889 -31.4519 -31.4516 -31.4417
   -31.4416 -31.4138 -31.3948 -31.3942 -31.3937 -31.3891 -31.3730 -31.3662
   -31.3653 -31.3591 -31.3591 -31.3566 -31.3247 -31.3005 -31.2952 -31.2788
   -31.2473 -31.2024 -30.7796 -30.6848 -30.6628 -30.5959 -30.5090 -30.3982
   -18.8991 -16.2149 -15.9614 -15.8143 -15.7068 -15.5892 -15.4805 -15.4256
   -15.3194 -15.2479 -15.1342 -15.0848 -15.0683 -15.0365 -15.0273 -15.0152
   -14.9355 -14.9291 -14.9113 -14.8882 -14.8825 -14.8405 -14.8289 -14.7880
   -14.7630 -14.7574 -14.6357 -14.5497 -14.4750 -14.3249 -14.3132 -12.8728
   -12.7553  -9.8449  -7.4677  -6.2461  -4.9915  -4.0148  -3.5845  -3.5473
    -3.4085  -3.3003  -3.2795  -3.2428  -3.1430  -2.9622  -2.8256  -2.7924
    -2.6761  -2.5954  -2.5822  -2.5516  -2.4267  -2.3896  -2.3509  -2.2862
    -2.2564  -2.1939  -2.1753  -2.1639  -2.1448  -2.1208  -2.0960  -1.9952
    -1.9563  -1.8605  -1.8207  -1.7872  -1.7461  -1.7288  -1.7088  -1.6779
    -1.6678  -1.6136  -1.6002  -1.5858  -1.5369  -1.4191  -1.2982  -1.2647
    -1.1763  -1.0282  -0.9910  -0.9708  -0.9142  -0.8785  -0.8561  -0.8259
    -0.7651  -0.7260  -0.6681  -0.6095  -0.5415  -0.4969  -0.4498  -0.4138
    -0.3781  -0.2936  -0.2121  -0.1680  -0.1548  -0.1376  -0.0384  -0.0021
     0.0523   0.1292   0.1310   0.1433   0.1861   0.2682   0.3455   0.3631
     0.3863   0.4914   0.4961   0.5390   0.5416   0.5617   0.5959   0.6303
     0.6807   0.7078   0.7950   0.8916   1.1176   1.2189   1.2220   1.5454
     1.5563   1.6525   1.8356   2.2292   2.2777   3.7092   3.7797   3.8012
     3.8571   3.8600   3.9297   3.9465   4.1922   4.2178   4.2182   4.2372

[...]

          k = 0.0380-0.0419 0.0000 ( 17876 PWs)   bands (ev):

[...]

          k =-0.0760-0.0000 0.0000 ( 17886 PWs)   bands (ev):

[...]

          k =-0.0760-0.0839 0.0000 ( 17948 PWs)   bands (ev):

   -55.3684 -55.3595 -55.3201 -55.3196 -55.2540 -55.2493 -55.2448 -55.1956
   -55.1924 -55.1901 -55.1833 -55.1510 -55.1502 -55.0344 -54.3529 -54.3527
   -31.7544 -31.7455 -31.6865 -31.6624 -31.6455 -31.6452 -31.6271 -31.6110
   -31.6108 -31.5943 -31.5863 -31.5780 -31.5627 -31.5308 -31.5286 -31.5243
   -31.5237 -31.5225 -31.5110 -31.5068 -31.4776 -31.4653 -31.4613 -31.4516
   -31.4459 -31.4424 -31.4399 -31.4394 -31.4367 -31.4281 -31.4254 -31.4082
   -31.4071 -31.4048 -31.3852 -31.3835 -31.3833 -31.3735 -31.3315 -31.3305
   -31.2964 -31.2491 -30.6755 -30.6754 -30.5921 -30.5920 -30.5525 -30.5524
   -18.8930 -15.7666 -15.5976 -15.5785 -15.4342 -15.3979 -15.3552 -15.3441
   -15.2502 -15.2152 -15.1890 -15.1580 -15.1370 -15.1014 -15.0878 -15.0711
   -15.0138 -14.9914 -14.9858 -14.9659 -14.9068 -14.9024 -14.8947 -14.8919
   -14.8370 -14.8339 -14.8259 -14.7433 -14.7404 -14.6299 -14.2476 -12.8568
   -12.8567  -9.8145  -7.4279  -6.2431  -5.0892  -3.9571  -3.6101  -2.8550
    -2.8487  -2.8353  -2.6503  -2.5674  -2.5447  -2.5393  -2.4493  -2.4118
    -2.3668  -2.3642  -2.3112  -2.3047  -2.2774  -2.2368  -2.2253  -2.2054
    -2.1867  -2.1779  -2.1422  -2.1188  -2.1090  -2.0791  -2.0481  -2.0320
    -2.0243  -2.0027  -1.9720  -1.9526  -1.9403  -1.8874  -1.7753  -1.7600
    -1.6649  -1.5980  -1.5937  -1.5203  -1.4962  -1.4541  -1.4463  -1.4215
    -1.3766  -1.1976  -1.1660  -1.1349  -1.1272  -1.0417  -0.9892  -0.9177
    -0.9122  -0.8863  -0.8516  -0.7578  -0.7213  -0.7021  -0.6269  -0.6032
    -0.5366  -0.4948  -0.4292  -0.3985  -0.3443  -0.3424  -0.3075  -0.2937
    -0.2733  -0.2048  -0.1585  -0.1241  -0.1118  -0.0800   0.1172   0.1265
     0.1421   0.2507   0.2957   0.4429   0.4577   0.5206   0.6265   0.6526
     0.7227   0.7476   0.9041   0.9160   0.9307   0.9844   0.9925   1.0623
     1.0717   2.0086   2.0091   2.0975   2.0978   3.6779   3.8961   3.9674
     3.9825   4.0153   4.1401   4.2088   4.2269   4.2952   4.2983   4.3278

     the Fermi energy is     3.7752 ev

!    total energy              =   -2941.51049036 Ry
     estimated scf accuracy    <       0.00000006 Ry
     smearing contrib. (-TS)   =      -0.04441139 Ry
     internal energy E=F+TS    =   -2941.46607897 Ry

     The total energy is F=E-TS. E is the sum of the following terms:
     one-electron contribution =  -23633.64860928 Ry
     hartree contribution      =   11909.11100613 Ry
     xc contribution           =    -486.87915898 Ry
     ewald contribution        =    9269.94795380 Ry
     electric field correction =       0.00272936 Ry

     convergence has been achieved in 102 iterations

     Forces acting on atoms (cartesian axes, Ry/au):

     atom    1 type  1   force =     0.00013245   -0.00019243    0.09302095
     atom    2 type  1   force =    -0.00008890   -0.00045445   -0.17841767
     atom    3 type  2   force =     0.00004571   -0.00037185   -0.02008599
     atom    4 type  2   force =    -0.00001007   -0.00201632    0.05930554
     atom    5 type  2   force =    -0.01030587   -0.00098977    0.00817539
     atom    6 type  2   force =     0.01173415   -0.00039098    0.00731580
     atom    7 type  1   force =    -0.00038176    0.00238811   -0.01418324
     atom    8 type  1   force =     0.00023260   -0.00123475   -0.00619079
     atom    9 type  2   force =    -0.00023271    0.00021766    0.00013302
     atom   10 type  2   force =    -0.00162412    0.00148137    0.00163446
     atom   11 type  2   force =    -0.00003957   -0.00016029    0.00010402
     atom   12 type  2   force =    -0.00018690   -0.00016106   -0.00000594
     atom   13 type  1   force =     0.00007204   -0.00027616    0.00005556
     atom   14 type  1   force =     0.00017616    0.00019175    0.00029549
     atom   15 type  2   force =    -0.00006768    0.00021775   -0.00032261
     atom   16 type  2   force =     0.00017495   -0.00021756    0.00012842
     atom   17 type  2   force =    -0.00000687    0.00000061    0.00044771
     atom   18 type  2   force =    -0.00025943   -0.00003234   -0.00012408
     atom   19 type  1   force =    -0.00010854   -0.00007002    0.00020324
     atom   20 type  1   force =    -0.00014161   -0.00001196    0.00010120
     atom   21 type  2   force =     0.00005875   -0.00008476    0.10402062
     atom   22 type  2   force =     0.00010294   -0.00013976   -0.00025495
     atom   23 type  2   force =    -0.07031942   -0.00018225   -0.02686777
     atom   24 type  2   force =     0.07020455    0.00026466   -0.02689308
     atom   25 type  1   force =    -0.00001603   -0.00013784    0.09259180
     atom   26 type  1   force =    -0.00006812   -0.00039063   -0.17856819
     atom   27 type  2   force =     0.00009524   -0.00030215   -0.01917208
     atom   28 type  2   force =     0.00003907   -0.00178732    0.05865074
     atom   29 type  2   force =    -0.01079936   -0.00126548    0.00871990
     atom   30 type  2   force =     0.01215087   -0.00086489    0.00782318
     atom   31 type  1   force =    -0.00028422    0.00613507   -0.01441527
     atom   32 type  1   force =     0.00028806    0.00071308   -0.00651150
     atom   33 type  2   force =    -0.00022676   -0.00025205   -0.00000573
     atom   34 type  2   force =    -0.00093612   -0.00222402   -0.00015893
     atom   35 type  2   force =    -0.00039404    0.00023184    0.00015137
     atom   36 type  2   force =     0.00010407    0.00019325   -0.00026931
     atom   37 type  1   force =     0.00017852   -0.00001805    0.00004902
     atom   38 type  1   force =     0.00032138    0.00019282    0.00010041
     atom   39 type  2   force =    -0.00026544    0.00009868   -0.00027269
     atom   40 type  2   force =    -0.00009220   -0.00015558   -0.00007939
     atom   41 type  2   force =    -0.00004736    0.00031118    0.00001214
     atom   42 type  2   force =    -0.00022252    0.00009470    0.00002671
     atom   43 type  1   force =     0.00044627   -0.00002492    0.00016163
     atom   44 type  1   force =     0.00006897   -0.00010874   -0.00015390
     atom   45 type  2   force =     0.00004558   -0.00008678    0.10399825
     atom   46 type  2   force =    -0.07030020   -0.00009584   -0.02682386
     atom   47 type  2   force =     0.07017614    0.00032026   -0.02686034
     atom   48 type  3   force =     0.00111157    0.00010741    0.00026555
     atom   49 type  3   force =     0.00059275   -0.00015910   -0.00045686
     atom   50 type  4   force =     0.00048841    0.01201563    0.00113296
     atom   51 type  5   force =    -0.00108039   -0.01318556   -0.00248497
     atom   52 type  5   force =     0.00051614    0.00076839    0.00037877
     atom   53 type  5   force =    -0.00042163    0.00131918    0.00023334
     atom   54 type  5   force =    -0.00006680    0.00113078    0.00038878
     atom   55 type  5   force =    -0.00056271   -0.00034853   -0.00004682

     Total force =     0.366877     Total SCF correction =     0.000612
  @ DRIVER MODE: Message from server: STATUS
  @ DRIVER MODE: Message from server: GETFORCE
  @ DRIVER MODE: Returning v,forces,stress,ensemble

     Writing output data file ./calc.save/
  @ DRIVER MODE: Message from server: EXIT
  @ DRIVE MODE: Exiting

     General routines

     Parallel routines

   This run was terminated on:   2:22:12  11Sep2021

   JOB DONE.