     Program PWSCF v.6.7GPU starts on 25Aug2021 at  1:47: 5

     R & G space division:  proc/nbgrp/npool/nimage =       6
     Reading input from /storage/home/hcoda1/3/ntian30/research/carbon/CH3_vib_end_on/ads_slab/CH3N2H_a/out_0019/pw.inp
Warning: card &CELL ignored
Warning: card   CELL_DYNAMICS='IPI', ignored
Warning: card / ignored

     Current dimensions of program PWSCF are:
     Max number of different atomic species (ntypx) = 10
     Max number of k-points (npk) =  40000
     Max angular momentum in pseudopotentials (lmaxx) =  3
     Presently no symmetry can be used with electric field

     Message from routine cell_base_init:
     DEPRECATED: use true lattice parameter, not A to a.u. conversion factor

     IMPORTANT: XC functional enforced from input :
     Exchange-correlation= BEEF-VDW
                           (   1   4  43  14   2   0   0)
     Any further DFT definition will be discarded
     Please, verify this is what you really want

  @ DRIVER MODE: Connecting to
 qe_1139763_2643869.sched-torque.pace.gatech.edu8t01_s38_scratch
  using UNIX socket
  @ DRIVER MODE: Message from server: STATUS
  @ DRIVER MODE: Message from server: INIT
  @ DRIVER MODE: Receiving replica           0          -1
  @ DRIVER MODE: Receiving encoded integer          25
  @ DRIVER MODE:  SCF:  T  FORCE:  T  STRESS:  F  VC:  F  ENSEMBLE:  F
  @ DRIVER MODE:  SCF:  T  FORCE:  T  STRESS:  F  VC:  F  ENSEMBLE:  F

     Using Slab Decomposition

     bravais-lattice index     =            0
     lattice parameter (alat)  =       1.8897  a.u.
     unit-cell volume          =    6658.9804 (a.u.)^3
     number of atoms/cell      =           54
     number of atomic types    =            5
     number of electrons       =       396.00
     number of Kohn-Sham states=          208
     kinetic-energy cutoff     =      29.3995  Ry
     charge density cutoff     =     293.9946  Ry
     scf convergence threshold =      7.3E-08
     mixing beta               =       0.0500
     number of iterations used =            8  plain     mixing
     Exchange-correlation= BEEF-VDW
                           (   1   4  43  14   2   0   0)

     celldm(1)=   1.889726  celldm(2)=   0.000000  celldm(3)=   0.000000
     celldm(4)=   0.000000  celldm(5)=   0.000000  celldm(6)=   0.000000

     crystal axes: (cart. coord. in units of alat)
               a(1) = (   6.579727   0.000000   0.000000 )
               a(2) = (  -0.000775   5.961596   0.000000 )
               a(3) = (   0.000000   0.000000  25.155947 )

     reciprocal axes: (cart. coord. in units 2 pi/alat)
               b(1) = (  0.151982  0.000020  0.000000 )
               b(2) = (  0.000000  0.167740  0.000000 )
               b(3) = (  0.000000  0.000000  0.039752 )

     PseudoPot. # 1 for Ti read from file:
     /storage/coda1/p-amedford6/0/shared/rich_project_chbe-medford/medford-share/data/pseudos_module/espresso/nninc/pbe/van/Ti.UPF
     MD5 check sum: 8e4df49b7f0d34bbd5052bf3f5ea0213
     Pseudo is Ultrasoft, Zval = 12.0
     Generated by new atomic code, or converted to UPF format
     Using radial grid of  851 points,  6 beta functions with:
                l(1) =   0
                l(2) =   0
                l(3) =   1
                l(4) =   1
                l(5) =   2
                l(6) =   2
     Q(r) pseudized with  8 coefficients,  rinner =    1.000   1.000   1.000
                                                       1.000   1.000

     PseudoPot. # 2 for O  read from file:
     /storage/coda1/p-amedford6/0/shared/rich_project_chbe-medford/medford-share/data/pseudos_module/espresso/nninc/pbe/van/O.UPF
     MD5 check sum: 78c19812648e8988a0fe644b0f25305e
     Pseudo is Ultrasoft, Zval =  6.0
     Generated by new atomic code, or converted to UPF format
     Using radial grid of  737 points,  4 beta functions with:
                l(1) =   0
                l(2) =   0
                l(3) =   1
                l(4) =   1
     Q(r) pseudized with  8 coefficients,  rinner =    0.800   0.800   0.800

     PseudoPot. # 3 for N  read from file:
     /storage/coda1/p-amedford6/0/shared/rich_project_chbe-medford/medford-share/data/pseudos_module/espresso/nninc/pbe/van/N.UPF
     MD5 check sum: 90d10febe142ad51ac9d5be1deb811c4
     Pseudo is Ultrasoft, Zval =  5.0
     Generated by new atomic code, or converted to UPF format
     Using radial grid of  729 points,  4 beta functions with:
                l(1) =   0
                l(2) =   0
                l(3) =   1
                l(4) =   1
     Q(r) pseudized with  8 coefficients,  rinner =    0.800   0.800   0.800

     PseudoPot. # 4 for C  read from file:
     /storage/coda1/p-amedford6/0/shared/rich_project_chbe-medford/medford-share/data/pseudos_module/espresso/nninc/pbe/van/C.UPF
     MD5 check sum: 1a69bf6b8db32088f5b2163dbdb77a27
     Pseudo is Ultrasoft, Zval =  4.0
     Generated by new atomic code, or converted to UPF format
     Using radial grid of  721 points,  4 beta functions with:
                l(1) =   0
                l(2) =   0
                l(3) =   1
                l(4) =   1
     Q(r) pseudized with  8 coefficients,  rinner =    0.800   0.800   0.800

     PseudoPot. # 5 for H  read from file:
     /storage/coda1/p-amedford6/0/shared/rich_project_chbe-medford/medford-share/data/pseudos_module/espresso/nninc/pbe/van/H.UPF
     MD5 check sum: b5ee9d7bfd3a09ee7748110bda690ff7
     Pseudo is Ultrasoft, Zval =  1.0
     Generated by new atomic code, or converted to UPF format
     Using radial grid of  615 points,  1 beta functions with:
                l(1) =   0
     Q(r) pseudized with  8 coefficients,  rinner =    0.800

     atomic species   valence    mass     pseudopotential
        Ti1           12.00    47.86700     Ti( 1.00)
        O1             6.00    15.99900     O ( 1.00)
        N1             5.00    14.00700     N ( 1.00)
        C1             4.00    12.01100     C ( 1.00)
        H1             1.00     1.00800     H ( 1.00)

     No symmetry found

   Cartesian axes

     site n.     atom                  positions (alat units)
         1           Ti1 tau(   1) = (   0.0004258   2.9801865   6.0000000  )
         2           Ti1 tau(   2) = (   3.2906075   1.4906267   6.0002472  )
         3           O1  tau(   3) = (   0.0006271   0.0005054   7.9858123  )
         4           O1  tau(   4) = (   3.2906025   0.0005020   7.3038282  )
         5           O1  tau(   5) = (   4.5942328   1.4918067   9.2879030  )
         6           O1  tau(   6) = (   1.9868534   1.4903216   9.2879459  )
         7           Ti1 tau(   7) = (   3.2907910   2.8959150   9.1758416  )
         8           Ti1 tau(   8) = (   0.0015273   1.4827037   9.2680791  )
         9           O1  tau(   9) = (   3.2896288   0.0042867  11.3205077  )
        10           O1  tau(  10) = (   0.0116148   5.9584955  10.6183126  )
        11           O1  tau(  11) = (   1.2848067   1.4985890  12.6232755  )
        12           O1  tau(  12) = (   5.2688617   1.4893877  12.6055203  )
        13           Ti1 tau(  13) = (   0.0799559   3.0171279  12.6206390  )
        14           Ti1 tau(  14) = (   3.4009582   1.4891986  12.4726338  )
        15           O1  tau(  15) = (   6.5707323   0.0080309  14.6263129  )
        16           O1  tau(  16) = (   3.2902489   0.0120312  13.8979102  )
        17           O1  tau(  17) = (   4.5126121   1.5346005  16.0500440  )
        18           O1  tau(  18) = (   2.0453867   1.5362785  16.0447169  )
        19           Ti1 tau(  19) = (   3.2767562   3.0203775  15.6892921  )
        20           Ti1 tau(  20) = (   6.5596632   1.5778499  15.8310978  )
        21           O1  tau(  21) = (   3.2904802   0.0005063   4.7018136  )
        22           O1  tau(  22) = (   6.5709656   0.0671247  17.2345223  )
        23           O1  tau(  23) = (   1.3043587   1.4918075   6.0039043  )
        24           O1  tau(  24) = (   5.2767064   1.4903225   6.0039473  )
        25           Ti1 tau(  25) = (   0.0000382   5.9609847   6.0000000  )
        26           Ti1 tau(  26) = (   3.2902200   4.4714249   6.0002472  )
        27           O1  tau(  27) = (   0.0002396   2.9813036   7.9858123  )
        28           O1  tau(  28) = (   3.2902150   2.9813002   7.3038282  )
        29           O1  tau(  29) = (   4.5938453   4.4726049   9.2879030  )
        30           O1  tau(  30) = (   1.9864658   4.4711199   9.2879459  )
        31           Ti1 tau(  31) = (   3.2891106   5.8743827   9.1763621  )
        32           Ti1 tau(  32) = (   0.0006254   4.4649316   9.2693709  )
        33           O1  tau(  33) = (   3.2919429   2.9835650  11.3172650  )
        34           O1  tau(  34) = (   0.0092240   2.9805883  10.6323155  )
        35           O1  tau(  35) = (   1.2842535   4.4799506  12.6241420  )
        36           O1  tau(  36) = (   5.2755836   4.4732255  12.6042992  )
        37           Ti1 tau(  37) = (   0.0783641   0.0295629  12.6394962  )
        38           Ti1 tau(  38) = (   3.4022659   4.4693352  12.4708195  )
        39           O1  tau(  39) = (   6.5693815   2.9799975  14.6326336  )
        40           O1  tau(  40) = (   3.2899495   3.0014797  13.8849495  )
        41           O1  tau(  41) = (   4.5062741   4.5069571  16.0893315  )
        42           O1  tau(  42) = (   2.0480812   4.5060041  16.0753496  )
        43           Ti1 tau(  43) = (   3.2742444   0.0367023  15.7020416  )
        44           Ti1 tau(  44) = (   6.5658628   4.6518251  16.1481936  )
        45           O1  tau(  45) = (   3.2900926   2.9813045   4.7018136  )
        46           O1  tau(  46) = (   1.3039711   4.4726057   6.0039043  )
        47           O1  tau(  47) = (   5.2763189   4.4711207   6.0039473  )
        48           N1  tau(  48) = (   6.5201982   2.6597193  18.5868863  )
        49           N1  tau(  49) = (   6.5663212   2.9659568  17.3251533  )
        50           C1  tau(  50) = (   0.1092964   3.6297355  19.6533281  )
        51           H1  tau(  51) = (   6.1265678   4.5355971  19.4091500  )
        52           H1  tau(  52) = (   6.3142024   3.1981282  20.5813133  )
        53           H1  tau(  53) = (   1.1661384   3.8973747  19.7839464  )
        54           H1  tau(  54) = (   6.5756389   1.6632157  18.8047554  )

     number of k points=    10  Fermi-Dirac smearing, width (Ry)=  0.0073
                       cart. coord. in units 2pi/alat
        k(    1) = (   0.0000000   0.0000000   0.0000000), wk =   0.1250000
        k(    2) = (   0.0000000   0.0419351   0.0000000), wk =   0.2500000
        k(    3) = (   0.0000000  -0.0838702   0.0000000), wk =   0.1250000
        k(    4) = (   0.0379955   0.0000049   0.0000000), wk =   0.2500000
        k(    5) = (   0.0379955   0.0419400   0.0000000), wk =   0.2500000
        k(    6) = (   0.0379955  -0.0838652   0.0000000), wk =   0.2500000
        k(    7) = (   0.0379955  -0.0419301   0.0000000), wk =   0.2500000
        k(    8) = (  -0.0759910  -0.0000099   0.0000000), wk =   0.1250000
        k(    9) = (  -0.0759910   0.0419252   0.0000000), wk =   0.2500000
        k(   10) = (  -0.0759910  -0.0838800   0.0000000), wk =   0.1250000

     Initial potential from superposition of free atoms

     starting charge  379.99915, renormalised to  396.00000

     negative rho (up, down):  1.474E-02 0.000E+00

     %%%%%%%%%%%%%%%%%%%%%%%%%%%%%%%%%%%%%%%%%%%%%%%%%%%%%%%%%%%%%%%%%%%%%%%%
     %                                                                      %
     % You are using vdW-DF, which was implemented by the Thonhauser group. %
     % Please cite the following two papers that made this development      %
     % possible and the two reviews that describe the various versions:     %
     %                                                                      %
     %   T. Thonhauser et al., PRL 115, 136402 (2015).                      %
     %   T. Thonhauser et al., PRB 76, 125112 (2007).                       %
     %   K. Berland et al., Rep. Prog. Phys. 78, 066501 (2015).             %
     %   D.C. Langreth et al., J. Phys.: Condens. Matter 21, 084203 (2009). %
     %                                                                      %
     %                                                                      %
     % If you are calculating the stress with vdW-DF, please also cite:     %
     %                                                                      %
     %   R. Sabatini et al., J. Phys.: Condens. Matter 24, 424209 (2012).   %
     %                                                                      %
     %%%%%%%%%%%%%%%%%%%%%%%%%%%%%%%%%%%%%%%%%%%%%%%%%%%%%%%%%%%%%%%%%%%%%%%%

     Adding external electric field

     Computed dipole along edir(3) :
        Dipole               -9.2704 Ry au,        -23.5631 Debye
        Dipole field         -0.0175 Ry au,

        Potential amp.        1.6217 Ry
        Total length         46.3494 bohr

     Starting wfcs are  300 atomic wfcs
  @ DRIVER MODE: Message from server: STATUS
  @ DRIVER MODE: Message from server: POSDATA
  @ DRIVER MODE: Reading and sharing cell
  @ DRIVER MODE: Reading and sharing positions
  @ DRIVER MODE: Received positions

     Self-consistent Calculation

     iteration #  1     ecut=    29.40 Ry     beta= 0.05
     Davidson diagonalization with overlap
     c_bands:  1 eigenvalues not converged
     c_bands:  1 eigenvalues not converged
     c_bands:  1 eigenvalues not converged
     ethr =  1.00E-05,  avg # of iterations = 17.9

[...]

     total energy              =   -2585.12516048 Ry
     estimated scf accuracy    <    3948.87030005 Ry

     iteration #  2     ecut=    29.40 Ry     beta= 0.05
     Davidson diagonalization with overlap
     ethr =  1.00E-02,  avg # of iterations = 22.3

[...]

     iteration # 35     ecut=    29.40 Ry     beta= 0.05
     Davidson diagonalization with overlap
     c_bands:  1 eigenvalues not converged
     ethr =  6.87E-07,  avg # of iterations = 11.1

[...]

     total energy              =   -2940.39761671 Ry
     estimated scf accuracy    <       0.00000011 Ry

     iteration # 56     ecut=    29.40 Ry     beta= 0.05
     Davidson diagonalization with overlap
     ethr =  2.82E-11,  avg # of iterations =  8.2

     negative rho (up, down):  1.567E-02 0.000E+00

     Adding external electric field

     Computed dipole along edir(3) :
        Dipole                1.1322 Ry au,          2.8777 Debye
        Dipole field          0.0021 Ry au,

        Potential amp.       -0.1981 Ry
        Total length         46.3494 bohr

     End of self-consistent calculation

          k = 0.0000 0.0000 0.0000 ( 18029 PWs)   bands (ev):

   -55.6433 -55.6093 -55.5511 -55.5134 -55.4074 -55.3846 -55.3736 -55.3498
   -55.3423 -55.3352 -55.3160 -55.2655 -54.7248 -54.5855 -54.5563 -54.5514
   -32.1178 -32.0946 -31.9375 -31.9244 -31.8940 -31.8638 -31.8456 -31.8393
   -31.7966 -31.7794 -31.7788 -31.7401 -31.7308 -31.7130 -31.7021 -31.6917
   -31.6816 -31.6730 -31.6393 -31.6282 -31.6053 -31.5856 -31.5782 -31.5637
   -31.5511 -31.5444 -31.5377 -31.5362 -31.5307 -31.5135 -31.5039 -31.5028
   -31.4985 -31.4620 -31.4472 -31.3796 -31.2225 -30.9912 -30.9478 -30.9333
   -30.9065 -30.8936 -30.8838 -30.8080 -30.7647 -30.7360 -30.7218 -30.6107
   -18.0002 -16.2774 -16.0498 -15.7723 -15.6711 -15.6478 -15.5270 -15.3948
   -15.2945 -15.1991 -15.1591 -15.1048 -15.0998 -15.0707 -15.0406 -15.0046
   -14.9765 -14.9376 -14.9187 -14.8999 -14.8737 -14.8649 -14.7552 -14.7409
   -14.7167 -14.6256 -14.6153 -14.5417 -14.5161 -14.0850 -13.0877 -12.9719
   -12.0154  -8.9211  -5.7250  -4.4494  -4.1593  -3.6602  -3.5346  -3.5042
    -3.4028  -3.2233  -3.1381  -3.0779  -2.9327  -2.7645  -2.7295  -2.7197
    -2.6995  -2.6417  -2.4438  -2.4183  -2.3865  -2.3471  -2.3373  -2.3348
    -2.3207  -2.2588  -2.1919  -2.1280  -2.0292  -2.0246  -1.9682  -1.9547
    -1.9380  -1.9027  -1.8595  -1.8204  -1.7989  -1.7566  -1.7383  -1.7315
    -1.6895  -1.6078  -1.5052  -1.3480  -1.3312  -1.3004  -1.2519  -1.1975
    -1.0328  -1.0166  -0.9796  -0.9737  -0.9413  -0.8663  -0.7989  -0.7141
    -0.6774  -0.6007  -0.5852  -0.5563  -0.4820  -0.3964  -0.3736  -0.3587
    -0.3512  -0.3356  -0.2772  -0.1626  -0.0676  -0.0373   0.0835   0.0881
     0.1233   0.1674   0.1841   0.2661   0.3018   0.3160   0.3670   0.3674
     0.3792   0.4232   0.4461   0.5089   0.5649   0.6489   0.7222   0.7877
     0.8245   0.9406   1.0115   1.0766   1.1094   1.2383   1.3667   1.3748
     1.4363   1.6322   1.6343   2.0048   2.0491   3.5279   3.5492   3.6418
     3.6853   3.7833   3.8223   3.9666   4.0220   4.0592   4.1746   4.2044

[...]

          k = 0.0380-0.0419 0.0000 ( 17876 PWs)   bands (ev):

[...]

          k =-0.0760-0.0000 0.0000 ( 17886 PWs)   bands (ev):

[...]

          k =-0.0760-0.0839 0.0000 ( 17948 PWs)   bands (ev):

   -55.6265 -55.6261 -55.5380 -55.5263 -55.3905 -55.3901 -55.3755 -55.3512
   -55.3343 -55.3315 -55.3305 -55.2701 -54.7232 -54.5684 -54.5684 -54.5577
   -31.9334 -31.9332 -31.9228 -31.9227 -31.9024 -31.8931 -31.7956 -31.7858
   -31.7620 -31.7492 -31.7474 -31.7468 -31.7023 -31.6994 -31.6866 -31.6833
   -31.6749 -31.6711 -31.6704 -31.6449 -31.6007 -31.5987 -31.5861 -31.5831
   -31.5787 -31.5771 -31.5752 -31.5651 -31.5626 -31.5565 -31.5492 -31.5462
   -31.5388 -31.5285 -31.5024 -31.4678 -31.1318 -30.9680 -30.9342 -30.9213
   -30.8966 -30.8965 -30.8042 -30.8041 -30.7838 -30.7659 -30.7649 -30.7649
   -17.9944 -15.7003 -15.6890 -15.5102 -15.5051 -15.4443 -15.4381 -15.2855
   -15.2846 -15.2657 -15.2575 -15.1347 -15.1309 -15.0988 -15.0952 -15.0529
   -15.0441 -15.0266 -15.0182 -15.0166 -15.0100 -14.9827 -14.9317 -14.8987
   -14.8932 -14.7153 -14.7147 -14.5942 -14.5612 -14.2202 -13.0739 -13.0739
   -12.0163  -8.9308  -5.7170  -4.3878  -4.1617  -2.9900  -2.9780  -2.9463
    -2.7048  -2.6996  -2.6752  -2.6648  -2.4595  -2.4468  -2.4257  -2.4201
    -2.3927  -2.3869  -2.3719  -2.3648  -2.2815  -2.2713  -2.2601  -2.2362
    -2.2332  -2.2280  -2.2116  -2.2043  -2.1943  -2.1607  -2.1248  -2.0956
    -2.0612  -2.0385  -1.9190  -1.8085  -1.7312  -1.7245  -1.6941  -1.6883
    -1.6824  -1.6760  -1.6426  -1.5384  -1.4830  -1.4274  -1.2906  -1.2650
    -1.2480  -1.2014  -1.1131  -1.0324  -0.9695  -0.9517  -0.9048  -0.8617
    -0.8367  -0.7523  -0.7282  -0.7205  -0.6530  -0.6203  -0.5759  -0.5704
    -0.5548  -0.4895  -0.4414  -0.3920  -0.3689  -0.3382  -0.2928  -0.2723
    -0.2093  -0.1574  -0.1100  -0.1045  -0.0563  -0.0480   0.0175   0.1671
     0.2166   0.4698   0.4840   0.5152   0.6398   0.7106   0.7159   0.7442
     0.7762   0.8276   0.8395   0.9728   0.9846   0.9875   1.1525   1.1768
     1.2649   1.8047   1.8050   1.8682   1.8685   3.4304   3.9207   3.9380
     3.9632   3.9783   4.0493   4.0503   4.0586   4.0661   4.2452   4.2650

     the Fermi energy is     3.5051 ev

!    total energy              =   -2940.39768069 Ry
     estimated scf accuracy    <       0.00000005 Ry
     smearing contrib. (-TS)   =      -0.02301968 Ry
     internal energy E=F+TS    =   -2940.37466101 Ry

     The total energy is F=E-TS. E is the sum of the following terms:
     one-electron contribution =  -24109.28783718 Ry
     hartree contribution      =   12145.87513805 Ry
     xc contribution           =    -486.04243488 Ry
     ewald contribution        =    9509.07805409 Ry
     electric field correction =       0.00241890 Ry

     convergence has been achieved in  56 iterations

     Forces acting on atoms (cartesian axes, Ry/au):

     atom    1 type  1   force =     0.00015888   -0.00011708    0.09936135
     atom    2 type  1   force =    -0.00012563   -0.00047856   -0.17357587
     atom    3 type  2   force =    -0.00005054   -0.00000251   -0.02877809
     atom    4 type  2   force =     0.00007369   -0.00125072    0.04996343
     atom    5 type  2   force =    -0.01306684    0.00057671    0.00122270
     atom    6 type  2   force =     0.01461280    0.00138709   -0.00009951
     atom    7 type  1   force =    -0.00144714   -0.00058182   -0.00833878
     atom    8 type  1   force =     0.00087434   -0.00413413    0.04514734
     atom    9 type  2   force =    -0.00003308   -0.00066061   -0.00025463
     atom   10 type  2   force =    -0.00129367    0.00227552   -0.02842544
     atom   11 type  2   force =     0.00017181    0.00061184   -0.00002584
     atom   12 type  2   force =     0.00026269    0.00040682    0.00012054
     atom   13 type  1   force =     0.00038330    0.00021582   -0.00055744
     atom   14 type  1   force =     0.00004603    0.00047221    0.00033343
     atom   15 type  2   force =     0.00033991   -0.00008714   -0.00007867
     atom   16 type  2   force =    -0.00040694   -0.00023393   -0.00017302
     atom   17 type  2   force =    -0.00102815    0.00015130   -0.00052725
     atom   18 type  2   force =     0.00090871    0.00020476    0.00022730
     atom   19 type  1   force =     0.00021424   -0.00006473    0.00001153
     atom   20 type  1   force =    -0.00047748   -0.00083744    0.00021685
     atom   21 type  2   force =     0.00008931   -0.00007143    0.10271166
     atom   22 type  2   force =     0.00010079    0.00002844   -0.00001728
     atom   23 type  2   force =    -0.07213002   -0.00015706   -0.02833293
     atom   24 type  2   force =     0.07212833    0.00030371   -0.02833565
     atom   25 type  1   force =     0.00012927   -0.00020071    0.09864270
     atom   26 type  1   force =    -0.00010927   -0.00045768   -0.17378945
     atom   27 type  2   force =     0.00001092   -0.00002703   -0.02806064
     atom   28 type  2   force =     0.00011373   -0.00099893    0.04941712
     atom   29 type  2   force =    -0.01338636    0.00005833    0.00128305
     atom   30 type  2   force =     0.01484070    0.00042273   -0.00005727
     atom   31 type  1   force =    -0.00139418    0.00252398   -0.00862675
     atom   32 type  1   force =     0.00106157    0.00237477    0.04546866
     atom   33 type  2   force =    -0.00013263    0.00104631    0.00056956
     atom   34 type  2   force =    -0.00072044    0.00120381   -0.03116779
     atom   35 type  2   force =     0.00066664   -0.00051304   -0.00017357
     atom   36 type  2   force =    -0.00162531   -0.00011364    0.00007218
     atom   37 type  1   force =    -0.00016885   -0.00152676    0.00023197
     atom   38 type  1   force =     0.00079214   -0.00005158    0.00052374
     atom   39 type  2   force =     0.00032367    0.00016942   -0.00058367
     atom   40 type  2   force =    -0.00040136    0.00033042   -0.00002961
     atom   41 type  2   force =     0.00041026   -0.00059108    0.00003112
     atom   42 type  2   force =    -0.00040047   -0.00071784    0.00052750
     atom   43 type  1   force =     0.00036266   -0.00033834   -0.00058243
     atom   44 type  1   force =    -0.00033986   -0.00062430   -0.00017535
     atom   45 type  2   force =     0.00011029   -0.00006744    0.10273928
     atom   46 type  2   force =    -0.07215349   -0.00009733   -0.02833301
     atom   47 type  2   force =     0.07213746    0.00034221   -0.02830995
     atom   48 type  3   force =     0.00016591   -0.00077916   -0.00087622
     atom   49 type  3   force =    -0.00002705   -0.00045555   -0.00013875
     atom   50 type  4   force =    -0.00324363    0.00444395   -0.00032118
     atom   51 type  5   force =     0.00435356   -0.00490433    0.00148595
     atom   52 type  5   force =     0.00059156   -0.00028691   -0.00034778
     atom   53 type  5   force =    -0.00169828    0.00145592   -0.00123880
     atom   54 type  5   force =    -0.00057451    0.00042273    0.00002369

     Total force =     0.372272     Total SCF correction =     0.000576
  @ DRIVER MODE: Message from server: STATUS
  @ DRIVER MODE: Message from server: GETFORCE
  @ DRIVER MODE: Returning v,forces,stress,ensemble

     Writing output data file ./calc.save/
  @ DRIVER MODE: Message from server: EXIT
  @ DRIVE MODE: Exiting

     General routines

     Parallel routines

   This run was terminated on:   2:11:22  25Aug2021

   JOB DONE.