     Program PWSCF v.6.7GPU starts on 16Sep2021 at  3: 6:55

     R & G space division:  proc/nbgrp/npool/nimage =      10
     Reading input from /storage/home/hcoda1/3/ntian30/research/carbon/CxH_vib/H2O_calc/ads_slab/CH2NH2O_a/out_0035/pw.inp
Warning: card &CELL ignored
Warning: card   CELL_DYNAMICS='IPI', ignored
Warning: card / ignored

     Current dimensions of program PWSCF are:
     Max number of different atomic species (ntypx) = 10
     Max number of k-points (npk) =  40000
     Max angular momentum in pseudopotentials (lmaxx) =  3
     Presently no symmetry can be used with electric field

     Message from routine cell_base_init:
     DEPRECATED: use true lattice parameter, not A to a.u. conversion factor

     IMPORTANT: XC functional enforced from input :
     Exchange-correlation= BEEF-VDW
                           (   1   4  43  14   2   0   0)
     Any further DFT definition will be discarded
     Please, verify this is what you really want

  @ DRIVER MODE: Connecting to
 qe_1139763_2852607.sched-torque.pace.gatech.edu8po9p64o_scratch
  using UNIX socket
  @ DRIVER MODE: Message from server: STATUS
  @ DRIVER MODE: Message from server: INIT
  @ DRIVER MODE: Receiving replica           0          -1
  @ DRIVER MODE: Receiving encoded integer          25
  @ DRIVER MODE:  SCF:  T  FORCE:  T  STRESS:  F  VC:  F  ENSEMBLE:  F
  @ DRIVER MODE:  SCF:  T  FORCE:  T  STRESS:  F  VC:  F  ENSEMBLE:  F

     Using Slab Decomposition

     bravais-lattice index     =            0
     lattice parameter (alat)  =       1.8897  a.u.
     unit-cell volume          =    6658.9804 (a.u.)^3
     number of atoms/cell      =           54
     number of atomic types    =            5
     number of electrons       =       397.00
     number of Kohn-Sham states=          208
     kinetic-energy cutoff     =      29.3995  Ry
     charge density cutoff     =     293.9946  Ry
     scf convergence threshold =      7.3E-08
     mixing beta               =       0.0500
     number of iterations used =            8  plain     mixing
     Exchange-correlation= BEEF-VDW
                           (   1   4  43  14   2   0   0)

     celldm(1)=   1.889726  celldm(2)=   0.000000  celldm(3)=   0.000000
     celldm(4)=   0.000000  celldm(5)=   0.000000  celldm(6)=   0.000000

     crystal axes: (cart. coord. in units of alat)
               a(1) = (   6.579727   0.000000   0.000000 )
               a(2) = (  -0.000775   5.961596   0.000000 )
               a(3) = (   0.000000   0.000000  25.155947 )

     reciprocal axes: (cart. coord. in units 2 pi/alat)
               b(1) = (  0.151982  0.000020  0.000000 )
               b(2) = (  0.000000  0.167740  0.000000 )
               b(3) = (  0.000000  0.000000  0.039752 )

     PseudoPot. # 1 for Ti read from file:
     /storage/coda1/p-amedford6/0/shared/rich_project_chbe-medford/medford-share/data/pseudos_module/espresso/nninc/pbe/van/Ti.UPF
     MD5 check sum: 8e4df49b7f0d34bbd5052bf3f5ea0213
     Pseudo is Ultrasoft, Zval = 12.0
     Generated by new atomic code, or converted to UPF format
     Using radial grid of  851 points,  6 beta functions with:
                l(1) =   0
                l(2) =   0
                l(3) =   1
                l(4) =   1
                l(5) =   2
                l(6) =   2
     Q(r) pseudized with  8 coefficients,  rinner =    1.000   1.000   1.000
                                                       1.000   1.000

     PseudoPot. # 2 for O  read from file:
     /storage/coda1/p-amedford6/0/shared/rich_project_chbe-medford/medford-share/data/pseudos_module/espresso/nninc/pbe/van/O.UPF
     MD5 check sum: 78c19812648e8988a0fe644b0f25305e
     Pseudo is Ultrasoft, Zval =  6.0
     Generated by new atomic code, or converted to UPF format
     Using radial grid of  737 points,  4 beta functions with:
                l(1) =   0
                l(2) =   0
                l(3) =   1
                l(4) =   1
     Q(r) pseudized with  8 coefficients,  rinner =    0.800   0.800   0.800

     PseudoPot. # 3 for N  read from file:
     /storage/coda1/p-amedford6/0/shared/rich_project_chbe-medford/medford-share/data/pseudos_module/espresso/nninc/pbe/van/N.UPF
     MD5 check sum: 90d10febe142ad51ac9d5be1deb811c4
     Pseudo is Ultrasoft, Zval =  5.0
     Generated by new atomic code, or converted to UPF format
     Using radial grid of  729 points,  4 beta functions with:
                l(1) =   0
                l(2) =   0
                l(3) =   1
                l(4) =   1
     Q(r) pseudized with  8 coefficients,  rinner =    0.800   0.800   0.800

     PseudoPot. # 4 for C  read from file:
     /storage/coda1/p-amedford6/0/shared/rich_project_chbe-medford/medford-share/data/pseudos_module/espresso/nninc/pbe/van/C.UPF
     MD5 check sum: 1a69bf6b8db32088f5b2163dbdb77a27
     Pseudo is Ultrasoft, Zval =  4.0
     Generated by new atomic code, or converted to UPF format
     Using radial grid of  721 points,  4 beta functions with:
                l(1) =   0
                l(2) =   0
                l(3) =   1
                l(4) =   1
     Q(r) pseudized with  8 coefficients,  rinner =    0.800   0.800   0.800

     PseudoPot. # 5 for H  read from file:
     /storage/coda1/p-amedford6/0/shared/rich_project_chbe-medford/medford-share/data/pseudos_module/espresso/nninc/pbe/van/H.UPF
     MD5 check sum: b5ee9d7bfd3a09ee7748110bda690ff7
     Pseudo is Ultrasoft, Zval =  1.0
     Generated by new atomic code, or converted to UPF format
     Using radial grid of  615 points,  1 beta functions with:
                l(1) =   0
     Q(r) pseudized with  8 coefficients,  rinner =    0.800

     atomic species   valence    mass     pseudopotential
        Ti1           12.00    47.86700     Ti( 1.00)
        O1             6.00    15.99900     O ( 1.00)
        N1             5.00    14.00700     N ( 1.00)
        C1             4.00    12.01100     C ( 1.00)
        H1             1.00     1.00800     H ( 1.00)

     No symmetry found

   Cartesian axes

     site n.     atom                  positions (alat units)
         1           Ti1 tau(   1) = (   0.0004258   2.9801865   6.0000000  )
         2           Ti1 tau(   2) = (   3.2906075   1.4906267   6.0002472  )
         3           O1  tau(   3) = (   0.0006271   0.0005054   7.9858123  )
         4           O1  tau(   4) = (   3.2906025   0.0005020   7.3038282  )
         5           O1  tau(   5) = (   4.5942328   1.4918067   9.2879030  )
         6           O1  tau(   6) = (   1.9868534   1.4903216   9.2879459  )
         7           Ti1 tau(   7) = (   3.2907910   2.8959150   9.1758416  )
         8           Ti1 tau(   8) = (   0.0015273   1.4827037   9.2680791  )
         9           O1  tau(   9) = (   3.3024300   0.0156651  11.3362489  )
        10           O1  tau(  10) = (   0.0116148   5.9584955  10.6183126  )
        11           O1  tau(  11) = (   1.3202942   1.5021919  12.6211084  )
        12           O1  tau(  12) = (   5.3089492   1.4933221  12.6244093  )
        13           Ti1 tau(  13) = (   6.5318549   2.9554166  12.6004298  )
        14           Ti1 tau(  14) = (   3.2163550   1.4959796  12.4995714  )
        15           O1  tau(  15) = (   0.0198598   0.0281632  14.6562685  )
        16           O1  tau(  16) = (   3.3115091   0.0214956  13.9462002  )
        17           O1  tau(  17) = (   4.5768415   1.5604546  16.0171077  )
        18           O1  tau(  18) = (   2.0579415   1.5629007  16.0064375  )
        19           Ti1 tau(  19) = (   3.3180608   3.0267156  15.6839788  )
        20           Ti1 tau(  20) = (   0.0373526   1.5614015  15.8096867  )
        21           O1  tau(  21) = (   3.2904802   0.0005063   4.7018136  )
        22           O1  tau(  22) = (   0.0417102   0.0258274  17.2400240  )
        23           O1  tau(  23) = (   1.3043587   1.4918075   6.0039043  )
        24           O1  tau(  24) = (   5.2767064   1.4903225   6.0039473  )
        25           Ti1 tau(  25) = (   0.0000382   5.9609847   6.0000000  )
        26           Ti1 tau(  26) = (   3.2902200   4.4714249   6.0002472  )
        27           O1  tau(  27) = (   0.0002396   2.9813036   7.9858123  )
        28           O1  tau(  28) = (   3.2902150   2.9813002   7.3038282  )
        29           O1  tau(  29) = (   4.5938453   4.4726049   9.2879030  )
        30           O1  tau(  30) = (   1.9864658   4.4711199   9.2879459  )
        31           Ti1 tau(  31) = (   3.2891106   5.8743827   9.1763621  )
        32           Ti1 tau(  32) = (   0.0006254   4.4649316   9.2693709  )
        33           O1  tau(  33) = (   3.2972593   2.9937737  11.3378417  )
        34           O1  tau(  34) = (   0.0092240   2.9805883  10.6323155  )
        35           O1  tau(  35) = (   1.3143161   4.4928581  12.6237603  )
        36           O1  tau(  36) = (   5.3098643   4.4818631  12.6293382  )
        37           Ti1 tau(  37) = (   6.5333161   5.9285706  12.5502982  )
        38           Ti1 tau(  38) = (   3.2144982   4.4885123  12.4917375  )
        39           O1  tau(  39) = (   0.0198576   2.9709144  14.6477637  )
        40           O1  tau(  40) = (   3.3145585   3.0140958  13.8917140  )
        41           O1  tau(  41) = (   4.5688195   4.4932876  16.0791699  )
        42           O1  tau(  42) = (   2.0650477   4.4875755  16.0663885  )
        43           Ti1 tau(  43) = (   3.3331689   0.0560974  15.7812046  )
        44           Ti1 tau(  44) = (   0.0348837   4.6827776  16.0884590  )
        45           O1  tau(  45) = (   3.2900926   2.9813045   4.7018136  )
        46           O1  tau(  46) = (   1.3039711   4.4726057   6.0039043  )
        47           O1  tau(  47) = (   5.2763189   4.4711207   6.0039473  )
        48           N1  tau(  48) = (   0.0359943   2.9709886  17.3934402  )
        49           C1  tau(  49) = (   0.0487696   2.8543938  18.6443550  )
        50           H1  tau(  50) = (   0.0551173   3.7295775  19.3121947  )
        51           H1  tau(  51) = (   0.0550652   1.8705629  19.1311967  )
        52           O1  tau(  52) = (   3.2796845   0.1561466  18.1797653  )
        53           H1  tau(  53) = (   4.0301203   5.5808867  18.4695516  )
        54           H1  tau(  54) = (   2.4663764   5.6445902  18.4210942  )

     number of k points=    10  Fermi-Dirac smearing, width (Ry)=  0.0073
                       cart. coord. in units 2pi/alat
        k(    1) = (   0.0000000   0.0000000   0.0000000), wk =   0.1250000
        k(    2) = (   0.0000000   0.0419351   0.0000000), wk =   0.2500000
        k(    3) = (   0.0000000  -0.0838702   0.0000000), wk =   0.1250000
        k(    4) = (   0.0379955   0.0000049   0.0000000), wk =   0.2500000
        k(    5) = (   0.0379955   0.0419400   0.0000000), wk =   0.2500000
        k(    6) = (   0.0379955  -0.0838652   0.0000000), wk =   0.2500000
        k(    7) = (   0.0379955  -0.0419301   0.0000000), wk =   0.2500000
        k(    8) = (  -0.0759910  -0.0000099   0.0000000), wk =   0.1250000
        k(    9) = (  -0.0759910   0.0419252   0.0000000), wk =   0.2500000
        k(   10) = (  -0.0759910  -0.0838800   0.0000000), wk =   0.1250000

     Initial potential from superposition of free atoms

     starting charge  380.99916, renormalised to  397.00000

     negative rho (up, down):  1.695E-02 0.000E+00

     %%%%%%%%%%%%%%%%%%%%%%%%%%%%%%%%%%%%%%%%%%%%%%%%%%%%%%%%%%%%%%%%%%%%%%%%
     %                                                                      %
     % You are using vdW-DF, which was implemented by the Thonhauser group. %
     % Please cite the following two papers that made this development      %
     % possible and the two reviews that describe the various versions:     %
     %                                                                      %
     %   T. Thonhauser et al., PRL 115, 136402 (2015).                      %
     %   T. Thonhauser et al., PRB 76, 125112 (2007).                       %
     %   K. Berland et al., Rep. Prog. Phys. 78, 066501 (2015).             %
     %   D.C. Langreth et al., J. Phys.: Condens. Matter 21, 084203 (2009). %
     %                                                                      %
     %                                                                      %
     % If you are calculating the stress with vdW-DF, please also cite:     %
     %                                                                      %
     %   R. Sabatini et al., J. Phys.: Condens. Matter 24, 424209 (2012).   %
     %                                                                      %
     %%%%%%%%%%%%%%%%%%%%%%%%%%%%%%%%%%%%%%%%%%%%%%%%%%%%%%%%%%%%%%%%%%%%%%%%

     Adding external electric field

     Computed dipole along edir(3) :
        Dipole               -9.2257 Ry au,        -23.4493 Debye
        Dipole field         -0.0174 Ry au,

        Potential amp.        1.6139 Ry
        Total length         46.3494 bohr

     Starting wfcs are  300 atomic wfcs
  @ DRIVER MODE: Message from server: STATUS
  @ DRIVER MODE: Message from server: POSDATA
  @ DRIVER MODE: Reading and sharing cell
  @ DRIVER MODE: Reading and sharing positions
  @ DRIVER MODE: Received positions

     Self-consistent Calculation

     iteration #  1     ecut=    29.40 Ry     beta= 0.05
     Davidson diagonalization with overlap
     c_bands:  1 eigenvalues not converged
     c_bands:  1 eigenvalues not converged
     c_bands:  1 eigenvalues not converged
     c_bands:  1 eigenvalues not converged
     c_bands:  1 eigenvalues not converged
     c_bands:  1 eigenvalues not converged
     c_bands:  1 eigenvalues not converged
     ethr =  1.00E-05,  avg # of iterations = 19.0

[...]

     total energy              =   -2550.54625701 Ry
     estimated scf accuracy    <    4467.35081279 Ry

     iteration #  2     ecut=    29.40 Ry     beta= 0.05
     Davidson diagonalization with overlap
     ethr =  1.00E-02,  avg # of iterations = 24.6

[...]

     iteration # 60     ecut=    29.40 Ry     beta= 0.05
     Davidson diagonalization with overlap
     c_bands:  1 eigenvalues not converged
     ethr =  8.76E-11,  avg # of iterations =  8.6

[...]

     total energy              =   -2952.76139883 Ry
     estimated scf accuracy    <       0.00000018 Ry

     iteration # 63     ecut=    29.40 Ry     beta= 0.05
     Davidson diagonalization with overlap
     ethr =  4.59E-11,  avg # of iterations =  9.1

     negative rho (up, down):  1.682E-02 0.000E+00

     Adding external electric field

     Computed dipole along edir(3) :
        Dipole                1.0205 Ry au,          2.5938 Debye
        Dipole field          0.0019 Ry au,

        Potential amp.       -0.1785 Ry
        Total length         46.3494 bohr

     End of self-consistent calculation

          k = 0.0000 0.0000 0.0000 ( 18029 PWs)   bands (ev):

   -55.6898 -55.6577 -55.6558 -55.6296 -55.6219 -55.5371 -55.5033 -55.5020
   -55.4712 -55.4692 -55.4657 -55.4319 -55.2156 -54.9992 -54.6691 -54.6351
   -32.2019 -32.1731 -32.0439 -32.0402 -32.0018 -31.9825 -31.9623 -31.9558
   -31.9335 -31.8925 -31.8835 -31.8532 -31.8419 -31.8406 -31.8357 -31.8154
   -31.7950 -31.7871 -31.7844 -31.7516 -31.7468 -31.7389 -31.7051 -31.6940
   -31.6939 -31.6925 -31.6827 -31.6651 -31.6649 -31.6567 -31.6513 -31.6427
   -31.6343 -31.6331 -31.6191 -31.6114 -31.5780 -31.4642 -31.4115 -31.2719
   -31.2515 -31.2132 -31.0763 -30.9879 -30.9654 -30.8930 -30.8065 -30.6955
   -19.1616 -16.4057 -16.1635 -15.9458 -15.8463 -15.8089 -15.6110 -15.5088
   -15.4220 -15.3119 -15.2475 -15.2271 -15.2202 -15.2005 -15.1902 -15.1484
   -15.1354 -15.1313 -15.1120 -15.0944 -15.0414 -15.0314 -15.0237 -14.9344
   -14.8609 -14.8266 -14.8146 -14.8079 -14.7900 -14.7478 -14.3016 -13.1712
   -13.0548  -7.4979  -6.9824  -4.2714  -3.8249  -3.7491  -3.6449  -3.5968
    -3.5525  -3.4072  -3.3497  -3.2627  -3.1455  -2.9362  -2.8766  -2.8367
    -2.8089  -2.7480  -2.5979  -2.5536  -2.5021  -2.4920  -2.4806  -2.4674
    -2.4398  -2.4251  -2.3291  -2.2877  -2.2417  -2.2319  -2.0920  -2.0791
    -2.0523  -2.0031  -1.9693  -1.9547  -1.9491  -1.9374  -1.9235  -1.9003
    -1.8753  -1.7723  -1.6828  -1.6141  -1.5009  -1.4567  -1.4060  -1.3128
    -1.3043  -1.2342  -1.1559  -1.1435  -1.1195  -1.0898  -1.0818  -0.9666
    -0.8610  -0.8472  -0.7472  -0.6941  -0.6112  -0.5817  -0.5273  -0.4818
    -0.4526  -0.4489  -0.4331  -0.3818  -0.2391  -0.2129  -0.1749  -0.0954
    -0.0362  -0.0245   0.0195   0.0608   0.1145   0.1398   0.1946   0.2021
     0.2361   0.2801   0.2835   0.3025   0.3199   0.3452   0.5196   0.5607
     0.5722   0.6480   0.6575   0.8254   0.8379   0.9650   1.0755   1.2801
     1.3533   1.4398   1.5455   1.6479   1.9245   1.9701   3.4388   3.5305
     3.5732   3.6043   3.6830   3.6864   3.8965   3.9140   3.9355   4.0191

[...]

          k = 0.0380-0.0419 0.0000 ( 17876 PWs)   bands (ev):

[...]

          k =-0.0760-0.0000 0.0000 ( 17886 PWs)   bands (ev):

[...]

          k =-0.0760-0.0839 0.0000 ( 17948 PWs)   bands (ev):

   -55.6731 -55.6723 -55.6408 -55.6387 -55.6275 -55.5225 -55.5166 -55.4862
   -55.4857 -55.4730 -55.4502 -55.4476 -55.2143 -55.0003 -54.6522 -54.6519
   -32.0142 -31.9997 -31.9887 -31.9881 -31.9683 -31.9675 -31.9240 -31.9185
   -31.9059 -31.8835 -31.8752 -31.8535 -31.8365 -31.8221 -31.8079 -31.8045
   -31.8014 -31.7979 -31.7925 -31.7918 -31.7890 -31.7861 -31.7746 -31.7402
   -31.7328 -31.7210 -31.7107 -31.6869 -31.6857 -31.6805 -31.6756 -31.6727
   -31.6657 -31.6628 -31.6602 -31.6578 -31.5855 -31.4677 -31.4061 -31.3460
   -31.2532 -31.2348 -30.9782 -30.9781 -30.8891 -30.8889 -30.8498 -30.8497
   -19.1607 -15.8571 -15.7588 -15.6446 -15.6140 -15.5626 -15.4981 -15.4858
   -15.4190 -15.3745 -15.3714 -15.3015 -15.2942 -15.2614 -15.2511 -15.2170
   -15.2163 -15.2094 -15.1588 -15.1460 -15.1306 -15.1281 -15.1217 -15.0448
   -15.0094 -15.0045 -14.9962 -14.9128 -14.8295 -14.7714 -14.4609 -13.1566
   -13.1565  -7.4948  -6.9753  -4.2457  -3.5277  -3.4344  -3.1419  -2.9713
    -2.8864  -2.8199  -2.7949  -2.7696  -2.6195  -2.5980  -2.5447  -2.5411
    -2.5170  -2.5146  -2.5104  -2.4923  -2.4844  -2.4589  -2.4333  -2.3921
    -2.3665  -2.3602  -2.3480  -2.3354  -2.3113  -2.2985  -2.2894  -2.2418
    -2.2395  -2.2205  -2.1267  -2.0566  -1.9131  -1.8949  -1.8521  -1.8301
    -1.8174  -1.7834  -1.7574  -1.7399  -1.6871  -1.6072  -1.5168  -1.4231
    -1.3821  -1.3697  -1.3024  -1.2844  -1.1925  -1.1676  -1.0921  -1.0726
    -0.9954  -0.9764  -0.8864  -0.8429  -0.8227  -0.7877  -0.7548  -0.7429
    -0.7133  -0.6570  -0.6449  -0.5925  -0.5658  -0.5029  -0.4407  -0.4196
    -0.4081  -0.3714  -0.3517  -0.3256  -0.1863  -0.1549  -0.1384  -0.1007
     0.0368   0.0676   0.2772   0.3640   0.3849   0.4632   0.5141   0.5948
     0.6188   0.6272   0.6440   0.6799   0.7710   0.8428   0.8541   0.8867
     0.9872   1.4918   1.7169   1.7178   1.7900   1.7901   3.7289   3.7721
     3.8076   3.8299   3.9255   3.9570   3.9777   3.9796   4.0321   4.1119

     the Fermi energy is     3.4425 ev

!    total energy              =   -2952.76145404 Ry
     estimated scf accuracy    <       0.00000006 Ry
     smearing contrib. (-TS)   =      -0.02154466 Ry
     internal energy E=F+TS    =   -2952.73990938 Ry

     The total energy is F=E-TS. E is the sum of the following terms:
     one-electron contribution =  -24473.26426824 Ry
     hartree contribution      =   12327.72682271 Ry
     xc contribution           =    -488.06739333 Ry
     ewald contribution        =    9680.86296427 Ry
     electric field correction =       0.00196522 Ry

     convergence has been achieved in  63 iterations

     Forces acting on atoms (cartesian axes, Ry/au):

     atom    1 type  1   force =    -0.00000986   -0.00029230    0.09611640
     atom    2 type  1   force =     0.00008192   -0.00044840   -0.17561172
     atom    3 type  2   force =     0.00011270   -0.00005002   -0.02423957
     atom    4 type  2   force =     0.00000909   -0.00137039    0.05323302
     atom    5 type  2   force =    -0.01130569    0.00005792    0.00282924
     atom    6 type  2   force =     0.01305662    0.00040356    0.00283652
     atom    7 type  1   force =     0.00079459    0.00048825   -0.00788884
     atom    8 type  1   force =     0.00007776    0.00681139    0.02440535
     atom    9 type  2   force =    -0.00025078   -0.00080600    0.00030232
     atom   10 type  2   force =    -0.00266017    0.00235583   -0.01481992
     atom   11 type  2   force =    -0.00020397   -0.00011535   -0.00056033
     atom   12 type  2   force =     0.00053649   -0.00001652   -0.00062941
     atom   13 type  1   force =    -0.00055358   -0.00159651    0.00049141
     atom   14 type  1   force =     0.00044016   -0.00022434   -0.00027462
     atom   15 type  2   force =    -0.00000435   -0.00079276   -0.00068448
     atom   16 type  2   force =    -0.00005145   -0.00043892   -0.00031168
     atom   17 type  2   force =    -0.00106153   -0.00073400    0.00005364
     atom   18 type  2   force =     0.00149001   -0.00040395    0.00002016
     atom   19 type  1   force =    -0.00048931    0.00047764    0.00012178
     atom   20 type  1   force =     0.00045265   -0.00071623   -0.00054277
     atom   21 type  2   force =     0.00005294   -0.00001745    0.10319846
     atom   22 type  2   force =    -0.00013065   -0.00033955    0.00100738
     atom   23 type  2   force =    -0.07153687   -0.00012898   -0.02770953
     atom   24 type  2   force =     0.07145567    0.00035275   -0.02778346
     atom   25 type  1   force =     0.00017416   -0.00025889    0.09583989
     atom   26 type  1   force =     0.00006286   -0.00033866   -0.17581786
     atom   27 type  2   force =     0.00014662   -0.00004319   -0.02331856
     atom   28 type  2   force =     0.00000897   -0.00106932    0.05284397
     atom   29 type  2   force =    -0.01164807    0.00075239    0.00296822
     atom   30 type  2   force =     0.01328038    0.00126347    0.00299688
     atom   31 type  1   force =     0.00070838    0.00395736   -0.01079242
     atom   32 type  1   force =     0.00010067   -0.00902209    0.02488392
     atom   33 type  2   force =    -0.00007243    0.00060978   -0.00014873
     atom   34 type  2   force =    -0.00202542    0.00169264   -0.02186285
     atom   35 type  2   force =     0.00005063   -0.00026076   -0.00027465
     atom   36 type  2   force =    -0.00007940   -0.00007439   -0.00060949
     atom   37 type  1   force =    -0.00028338    0.00157105    0.00007091
     atom   38 type  1   force =     0.00052300    0.00040967    0.00021611
     atom   39 type  2   force =    -0.00010237   -0.00008241   -0.00117356
     atom   40 type  2   force =     0.00013354    0.00012489    0.00036728
     atom   41 type  2   force =     0.00011835   -0.00014662    0.00020291
     atom   42 type  2   force =     0.00046825   -0.00032392    0.00011846
     atom   43 type  1   force =    -0.00128744   -0.00037412    0.00030822
     atom   44 type  1   force =     0.00048164    0.00006853    0.00006854
     atom   45 type  2   force =     0.00004538   -0.00005489    0.10318721
     atom   46 type  2   force =    -0.07155956   -0.00005903   -0.02772605
     atom   47 type  2   force =     0.07147512    0.00037422   -0.02779108
     atom   48 type  3   force =    -0.00034965   -0.00029288   -0.00001466
     atom   49 type  4   force =    -0.00014258   -0.00016329    0.00077398
     atom   50 type  5   force =    -0.00014671    0.00032912    0.00020396
     atom   51 type  5   force =    -0.00016687   -0.00019069    0.00080574
     atom   52 type  2   force =    -0.00297008    0.00401030   -0.00266159
     atom   53 type  5   force =     0.00379953   -0.00397420    0.00233370
     atom   54 type  5   force =    -0.00104593   -0.00088971    0.00044224

     Total force =     0.367100     Total SCF correction =     0.000569
  @ DRIVER MODE: Message from server: STATUS
  @ DRIVER MODE: Message from server: GETFORCE
  @ DRIVER MODE: Returning v,forces,stress,ensemble

     Writing output data file ./calc.save/
  @ DRIVER MODE: Message from server: EXIT
  @ DRIVE MODE: Exiting

     General routines

     Parallel routines

   This run was terminated on:   3:24:43  16Sep2021

   JOB DONE.