     Program PWSCF v.6.7GPU starts on 24Sep2021 at  4:22:14

     R & G space division:  proc/nbgrp/npool/nimage =       8
     Reading input from /storage/home/hcoda1/3/ntian30/research/carbon/CxH_vib/H2O_calc/ads_slab/CH2NNHHHO_a/out_0040/pw.inp
Warning: card &CELL ignored
Warning: card   CELL_DYNAMICS='IPI', ignored
Warning: card / ignored

     Current dimensions of program PWSCF are:
     Max number of different atomic species (ntypx) = 10
     Max number of k-points (npk) =  40000
     Max angular momentum in pseudopotentials (lmaxx) =  3
     Presently no symmetry can be used with electric field

     Message from routine cell_base_init:
     DEPRECATED: use true lattice parameter, not A to a.u. conversion factor

     IMPORTANT: XC functional enforced from input :
     Exchange-correlation= BEEF-VDW
                           (   1   4  43  14   2   0   0)
     Any further DFT definition will be discarded
     Please, verify this is what you really want

  @ DRIVER MODE: Connecting to
 qe_1139763_2947314.sched-torque.pace.gatech.eduqjt8gjpm_scratch
  using UNIX socket
  @ DRIVER MODE: Message from server: STATUS
  @ DRIVER MODE: Message from server: INIT
  @ DRIVER MODE: Receiving replica           0          -1
  @ DRIVER MODE: Receiving encoded integer          25
  @ DRIVER MODE:  SCF:  T  FORCE:  T  STRESS:  F  VC:  F  ENSEMBLE:  F
  @ DRIVER MODE:  SCF:  T  FORCE:  T  STRESS:  F  VC:  F  ENSEMBLE:  F

     Using Slab Decomposition

     bravais-lattice index     =            0
     lattice parameter (alat)  =       1.8897  a.u.
     unit-cell volume          =    6658.9804 (a.u.)^3
     number of atoms/cell      =           56
     number of atomic types    =            5
     number of electrons       =       403.00
     number of Kohn-Sham states=          211
     kinetic-energy cutoff     =      29.3995  Ry
     charge density cutoff     =     293.9946  Ry
     scf convergence threshold =      7.3E-08
     mixing beta               =       0.0500
     number of iterations used =            8  plain     mixing
     Exchange-correlation= BEEF-VDW
                           (   1   4  43  14   2   0   0)

     celldm(1)=   1.889726  celldm(2)=   0.000000  celldm(3)=   0.000000
     celldm(4)=   0.000000  celldm(5)=   0.000000  celldm(6)=   0.000000

     crystal axes: (cart. coord. in units of alat)
               a(1) = (   6.579727   0.000000   0.000000 )
               a(2) = (  -0.000775   5.961596   0.000000 )
               a(3) = (   0.000000   0.000000  25.155947 )

     reciprocal axes: (cart. coord. in units 2 pi/alat)
               b(1) = (  0.151982  0.000020  0.000000 )
               b(2) = (  0.000000  0.167740  0.000000 )
               b(3) = (  0.000000  0.000000  0.039752 )

     PseudoPot. # 1 for Ti read from file:
     /storage/coda1/p-amedford6/0/shared/rich_project_chbe-medford/medford-share/data/pseudos_module/espresso/nninc/pbe/van/Ti.UPF
     MD5 check sum: 8e4df49b7f0d34bbd5052bf3f5ea0213
     Pseudo is Ultrasoft, Zval = 12.0
     Generated by new atomic code, or converted to UPF format
     Using radial grid of  851 points,  6 beta functions with:
                l(1) =   0
                l(2) =   0
                l(3) =   1
                l(4) =   1
                l(5) =   2
                l(6) =   2
     Q(r) pseudized with  8 coefficients,  rinner =    1.000   1.000   1.000
                                                       1.000   1.000

     PseudoPot. # 2 for O  read from file:
     /storage/coda1/p-amedford6/0/shared/rich_project_chbe-medford/medford-share/data/pseudos_module/espresso/nninc/pbe/van/O.UPF
     MD5 check sum: 78c19812648e8988a0fe644b0f25305e
     Pseudo is Ultrasoft, Zval =  6.0
     Generated by new atomic code, or converted to UPF format
     Using radial grid of  737 points,  4 beta functions with:
                l(1) =   0
                l(2) =   0
                l(3) =   1
                l(4) =   1
     Q(r) pseudized with  8 coefficients,  rinner =    0.800   0.800   0.800

     PseudoPot. # 3 for N  read from file:
     /storage/coda1/p-amedford6/0/shared/rich_project_chbe-medford/medford-share/data/pseudos_module/espresso/nninc/pbe/van/N.UPF
     MD5 check sum: 90d10febe142ad51ac9d5be1deb811c4
     Pseudo is Ultrasoft, Zval =  5.0
     Generated by new atomic code, or converted to UPF format
     Using radial grid of  729 points,  4 beta functions with:
                l(1) =   0
                l(2) =   0
                l(3) =   1
                l(4) =   1
     Q(r) pseudized with  8 coefficients,  rinner =    0.800   0.800   0.800

     PseudoPot. # 4 for C  read from file:
     /storage/coda1/p-amedford6/0/shared/rich_project_chbe-medford/medford-share/data/pseudos_module/espresso/nninc/pbe/van/C.UPF
     MD5 check sum: 1a69bf6b8db32088f5b2163dbdb77a27
     Pseudo is Ultrasoft, Zval =  4.0
     Generated by new atomic code, or converted to UPF format
     Using radial grid of  721 points,  4 beta functions with:
                l(1) =   0
                l(2) =   0
                l(3) =   1
                l(4) =   1
     Q(r) pseudized with  8 coefficients,  rinner =    0.800   0.800   0.800

     PseudoPot. # 5 for H  read from file:
     /storage/coda1/p-amedford6/0/shared/rich_project_chbe-medford/medford-share/data/pseudos_module/espresso/nninc/pbe/van/H.UPF
     MD5 check sum: b5ee9d7bfd3a09ee7748110bda690ff7
     Pseudo is Ultrasoft, Zval =  1.0
     Generated by new atomic code, or converted to UPF format
     Using radial grid of  615 points,  1 beta functions with:
                l(1) =   0
     Q(r) pseudized with  8 coefficients,  rinner =    0.800

     atomic species   valence    mass     pseudopotential
        Ti1           12.00    47.86700     Ti( 1.00)
        O1             6.00    15.99900     O ( 1.00)
        N1             5.00    14.00700     N ( 1.00)
        C1             4.00    12.01100     C ( 1.00)
        H1             1.00     1.00800     H ( 1.00)

     No symmetry found

   Cartesian axes

     site n.     atom                  positions (alat units)
         1           Ti1 tau(   1) = (   0.0004258   2.9801865   6.0000000  )
         2           Ti1 tau(   2) = (   3.2906075   1.4906267   6.0002472  )
         3           O1  tau(   3) = (   0.0006271   0.0005054   7.9858123  )
         4           O1  tau(   4) = (   3.2906025   0.0005020   7.3038282  )
         5           O1  tau(   5) = (   4.5942328   1.4918067   9.2879030  )
         6           O1  tau(   6) = (   1.9868534   1.4903216   9.2879459  )
         7           Ti1 tau(   7) = (   3.2907910   2.8959150   9.1758416  )
         8           Ti1 tau(   8) = (   0.0015273   1.4827037   9.2680791  )
         9           O1  tau(   9) = (   3.2834828   5.9254549  11.3560997  )
        10           O1  tau(  10) = (   0.0116148   5.9584955  10.6183126  )
        11           O1  tau(  11) = (   1.2632982   1.4794151  12.6467768  )
        12           O1  tau(  12) = (   5.2979234   1.4912170  12.6376735  )
        13           Ti1 tau(  13) = (   6.5593102   2.9584919  12.5255918  )
        14           Ti1 tau(  14) = (   3.2941082   1.2876829  12.7086691  )
        15           O1  tau(  15) = (   6.5459232   0.0848410  14.6672212  )
        16           O1  tau(  16) = (   3.2899079   0.0686032  13.9983899  )
        17           O1  tau(  17) = (   4.5347701   1.5447734  16.1667714  )
        18           O1  tau(  18) = (   1.9898569   1.5359154  16.1924900  )
        19           Ti1 tau(  19) = (   3.2532585   2.9792413  15.6887139  )
        20           Ti1 tau(  20) = (   6.5162390   1.4193964  16.0443711  )
        21           O1  tau(  21) = (   3.2904802   0.0005063   4.7018136  )
        22           O1  tau(  22) = (   6.5314393   5.8470953  17.1670503  )
        23           O1  tau(  23) = (   1.3043587   1.4918075   6.0039043  )
        24           O1  tau(  24) = (   5.2767064   1.4903225   6.0039473  )
        25           Ti1 tau(  25) = (   0.0000382   5.9609847   6.0000000  )
        26           Ti1 tau(  26) = (   3.2902200   4.4714249   6.0002472  )
        27           O1  tau(  27) = (   0.0002396   2.9813036   7.9858123  )
        28           O1  tau(  28) = (   3.2902150   2.9813002   7.3038282  )
        29           O1  tau(  29) = (   4.5938453   4.4726049   9.2879030  )
        30           O1  tau(  30) = (   1.9864658   4.4711199   9.2879459  )
        31           Ti1 tau(  31) = (   3.2891106   5.8743827   9.1763621  )
        32           Ti1 tau(  32) = (   0.0006254   4.4649316   9.2693709  )
        33           O1  tau(  33) = (   3.2801501   3.0037454  11.3162440  )
        34           O1  tau(  34) = (   0.0092240   2.9805883  10.6323155  )
        35           O1  tau(  35) = (   1.2628463   4.4620516  12.6871769  )
        36           O1  tau(  36) = (   5.2965349   4.4479299  12.6783795  )
        37           Ti1 tau(  37) = (   0.0245004   5.9521619  12.5031165  )
        38           Ti1 tau(  38) = (   3.2934334   4.3725749  12.4478892  )
        39           O1  tau(  39) = (   0.0012172   2.9324930  14.9038371  )
        40           O1  tau(  40) = (   3.2612729   2.9642313  13.9201381  )
        41           O1  tau(  41) = (   4.5459169   4.3864222  16.0774642  )
        42           O1  tau(  42) = (   2.0085495   4.4473877  16.1057765  )
        43           Ti1 tau(  43) = (   3.2275989   5.9528725  16.3079466  )
        44           Ti1 tau(  44) = (   6.5418721   4.6299905  15.7990834  )
        45           O1  tau(  45) = (   3.2900926   2.9813045   4.7018136  )
        46           O1  tau(  46) = (   1.3039711   4.4726057   6.0039043  )
        47           O1  tau(  47) = (   5.2763189   4.4711207   6.0039473  )
        48           N1  tau(  48) = (   6.5153795   2.7269917  18.1720481  )
        49           C1  tau(  49) = (   0.9714328   2.6352729  18.9176740  )
        50           H1  tau(  50) = (   0.9613011   2.9697384  19.9541300  )
        51           H1  tau(  51) = (   1.8619620   2.1844435  18.5121220  )
        52           N1  tau(  52) = (   5.3313596   3.1722530  18.7397816  )
        53           H1  tau(  53) = (   5.4931776   3.7097374  19.5894643  )
        54           H1  tau(  54) = (   4.8256156   3.7572006  18.0707398  )
        55           O1  tau(  55) = (   3.3867674   5.8992794  18.1610867  )
        56           H1  tau(  56) = (   4.0349165   0.5560778  18.5374839  )

     number of k points=    10  Fermi-Dirac smearing, width (Ry)=  0.0073
                       cart. coord. in units 2pi/alat
        k(    1) = (   0.0000000   0.0000000   0.0000000), wk =   0.1250000
        k(    2) = (   0.0000000   0.0419351   0.0000000), wk =   0.2500000
        k(    3) = (   0.0000000  -0.0838702   0.0000000), wk =   0.1250000
        k(    4) = (   0.0379955   0.0000049   0.0000000), wk =   0.2500000
        k(    5) = (   0.0379955   0.0419400   0.0000000), wk =   0.2500000
        k(    6) = (   0.0379955  -0.0838652   0.0000000), wk =   0.2500000
        k(    7) = (   0.0379955  -0.0419301   0.0000000), wk =   0.2500000
        k(    8) = (  -0.0759910  -0.0000099   0.0000000), wk =   0.1250000
        k(    9) = (  -0.0759910   0.0419252   0.0000000), wk =   0.2500000
        k(   10) = (  -0.0759910  -0.0838800   0.0000000), wk =   0.1250000

     Initial potential from superposition of free atoms

     starting charge  386.99914, renormalised to  403.00000

     negative rho (up, down):  1.547E-02 0.000E+00

     %%%%%%%%%%%%%%%%%%%%%%%%%%%%%%%%%%%%%%%%%%%%%%%%%%%%%%%%%%%%%%%%%%%%%%%%
     %                                                                      %
     % You are using vdW-DF, which was implemented by the Thonhauser group. %
     % Please cite the following two papers that made this development      %
     % possible and the two reviews that describe the various versions:     %
     %                                                                      %
     %   T. Thonhauser et al., PRL 115, 136402 (2015).                      %
     %   T. Thonhauser et al., PRB 76, 125112 (2007).                       %
     %   K. Berland et al., Rep. Prog. Phys. 78, 066501 (2015).             %
     %   D.C. Langreth et al., J. Phys.: Condens. Matter 21, 084203 (2009). %
     %                                                                      %
     %                                                                      %
     % If you are calculating the stress with vdW-DF, please also cite:     %
     %                                                                      %
     %   R. Sabatini et al., J. Phys.: Condens. Matter 24, 424209 (2012).   %
     %                                                                      %
     %%%%%%%%%%%%%%%%%%%%%%%%%%%%%%%%%%%%%%%%%%%%%%%%%%%%%%%%%%%%%%%%%%%%%%%%

     Adding external electric field

     Computed dipole along edir(3) :
        Dipole              -13.0228 Ry au,        -33.1008 Debye
        Dipole field         -0.0246 Ry au,

        Potential amp.        2.2781 Ry
        Total length         46.3494 bohr

     Starting wfcs are  305 atomic wfcs
  @ DRIVER MODE: Message from server: STATUS
  @ DRIVER MODE: Message from server: POSDATA
  @ DRIVER MODE: Reading and sharing cell
  @ DRIVER MODE: Reading and sharing positions
  @ DRIVER MODE: Received positions

     Self-consistent Calculation

     iteration #  1     ecut=    29.40 Ry     beta= 0.05
     Davidson diagonalization with overlap
     c_bands:  4 eigenvalues not converged
     c_bands:  5 eigenvalues not converged
     c_bands:  3 eigenvalues not converged
     c_bands:  1 eigenvalues not converged
     c_bands:  5 eigenvalues not converged
     c_bands:  2 eigenvalues not converged
     c_bands:  3 eigenvalues not converged
     ethr =  1.00E-05,  avg # of iterations = 28.6

[...]

     total energy              =   -2311.56417958 Ry
     estimated scf accuracy    <    7504.65470679 Ry

     iteration #  2     ecut=    29.40 Ry     beta= 0.05
     Davidson diagonalization with overlap
     ethr =  1.00E-02,  avg # of iterations = 25.4

[...]

     iteration # 59     ecut=    29.40 Ry     beta= 0.05
     Davidson diagonalization with overlap
     c_bands:  1 eigenvalues not converged
     ethr =  2.77E-10,  avg # of iterations = 15.4

[...]

     total energy              =   -2974.00152313 Ry
     estimated scf accuracy    <       0.00000010 Ry

     iteration # 66     ecut=    29.40 Ry     beta= 0.05
     Davidson diagonalization with overlap
     ethr =  2.40E-11,  avg # of iterations =  9.6

     negative rho (up, down):  1.591E-02 0.000E+00

     Adding external electric field

     Computed dipole along edir(3) :
        Dipole                1.0878 Ry au,          2.7649 Debye
        Dipole field          0.0021 Ry au,

        Potential amp.       -0.1903 Ry
        Total length         46.3494 bohr

     End of self-consistent calculation

          k = 0.0000 0.0000 0.0000 ( 18029 PWs)   bands (ev):

   -55.5967 -55.5309 -55.4969 -55.3802 -55.3742 -55.3574 -55.3439 -55.3315
   -55.3236 -55.2956 -55.2480 -55.1482 -55.1329 -55.0561 -54.4989 -54.4648
   -32.0152 -31.9337 -31.8982 -31.8655 -31.8604 -31.8259 -31.8218 -31.8082
   -31.7805 -31.7767 -31.7581 -31.6835 -31.6572 -31.6493 -31.6372 -31.6336
   -31.6222 -31.6122 -31.5885 -31.5885 -31.5819 -31.5540 -31.5436 -31.5387
   -31.5205 -31.5164 -31.5120 -31.4977 -31.4878 -31.4852 -31.4772 -31.4679
   -31.4678 -31.4443 -31.4221 -31.4033 -31.3453 -31.3371 -31.3044 -31.2945
   -31.2747 -31.2625 -30.9045 -30.8190 -30.7965 -30.7221 -30.6358 -30.5239
   -18.3753 -16.4408 -16.1677 -16.0006 -15.7880 -15.7080 -15.6693 -15.4761
   -15.3839 -15.3224 -15.0935 -15.0705 -15.0650 -15.0397 -15.0299 -15.0140
   -14.9972 -14.9575 -14.9487 -14.9403 -14.9167 -14.9020 -14.8699 -14.8182
   -14.7754 -14.7591 -14.6643 -14.5958 -14.5493 -14.3146 -14.2166 -13.4859
   -12.9971 -12.8809  -8.5588  -6.2344  -5.8497  -4.0443  -3.8459  -3.5294
    -3.4340  -3.4127  -3.3519  -3.2887  -3.0474  -2.9723  -2.8841  -2.8348
    -2.7618  -2.6466  -2.5976  -2.5273  -2.4562  -2.4469  -2.3995  -2.3704
    -2.3088  -2.2954  -2.2597  -2.2525  -2.1823  -2.1625  -2.0618  -2.0496
    -2.0352  -1.9004  -1.8873  -1.8445  -1.8368  -1.8365  -1.7977  -1.7789
    -1.7632  -1.7467  -1.6417  -1.6030  -1.5819  -1.5105  -1.4781  -1.1624
    -1.1297  -1.0844  -1.0675  -1.0165  -0.9644  -0.9413  -0.9187  -0.8544
    -0.8161  -0.7666  -0.7339  -0.7006  -0.6194  -0.5832  -0.5414  -0.4585
    -0.3840  -0.3094  -0.3040  -0.2594  -0.2315  -0.2056  -0.1069  -0.0818
    -0.0683   0.0307   0.0515   0.1266   0.1668   0.2099   0.2488   0.2964
     0.3614   0.3788   0.4045   0.4404   0.4481   0.5032   0.5236   0.5823
     0.6352   0.6503   0.7483   0.8061   0.8204   0.8391   0.9467   1.0247
     1.1453   1.1531   1.2540   1.4798   1.5279   1.5716   1.7211   2.0941
     2.1391   3.5557   3.7044   3.7212   3.7650   3.8123   3.8963   4.0427
     4.1051   4.2426   4.2475

[...]

          k = 0.0380-0.0419 0.0000 ( 17876 PWs)   bands (ev):

[...]

          k =-0.0760-0.0000 0.0000 ( 17886 PWs)   bands (ev):

[...]

          k =-0.0760-0.0839 0.0000 ( 17948 PWs)   bands (ev):

   -55.5959 -55.5140 -55.5136 -55.3729 -55.3669 -55.3569 -55.3406 -55.3401
   -55.3321 -55.2886 -55.2550 -55.1451 -55.1341 -55.0591 -54.4822 -54.4814
   -31.8792 -31.8306 -31.8304 -31.8287 -31.8172 -31.8074 -31.8071 -31.8008
   -31.7332 -31.6859 -31.6769 -31.6665 -31.6615 -31.6341 -31.6339 -31.6321
   -31.6303 -31.6159 -31.6130 -31.5984 -31.5864 -31.5769 -31.5671 -31.5565
   -31.5477 -31.5436 -31.5348 -31.5340 -31.5187 -31.5133 -31.5108 -31.5067
   -31.5063 -31.4782 -31.4742 -31.4161 -31.3972 -31.3740 -31.3479 -31.3408
   -31.3109 -31.2664 -30.8095 -30.8090 -30.7180 -30.7168 -30.6793 -30.6787
   -18.3723 -16.4253 -15.7489 -15.6234 -15.4980 -15.4936 -15.3729 -15.2954
   -15.2780 -15.2493 -15.2374 -15.2029 -15.1856 -15.1500 -15.1182 -15.0872
   -15.0472 -15.0263 -15.0129 -14.9737 -14.9630 -14.9460 -14.9362 -14.9132
   -14.8719 -14.8363 -14.8254 -14.6820 -14.6272 -14.5809 -14.4411 -13.4947
   -12.9829 -12.9825  -8.5353  -6.2003  -5.8690  -3.9941  -3.9231  -2.9796
    -2.9187  -2.8173  -2.7141  -2.6191  -2.5651  -2.5297  -2.4921  -2.4476
    -2.4253  -2.3752  -2.3340  -2.3140  -2.3056  -2.2729  -2.2640  -2.2485
    -2.2289  -2.2140  -2.1988  -2.1886  -2.1604  -2.1432  -2.1423  -2.1086
    -2.0973  -2.0697  -2.0617  -2.0093  -1.9118  -1.8829  -1.7895  -1.6895
    -1.6818  -1.6686  -1.6446  -1.6069  -1.5958  -1.5701  -1.5338  -1.4730
    -1.4649  -1.3016  -1.2475  -1.2181  -1.1438  -1.0879  -1.0573  -1.0301
    -0.9867  -0.9620  -0.8886  -0.8590  -0.7625  -0.7078  -0.6817  -0.6224
    -0.5461  -0.4817  -0.4728  -0.4669  -0.4398  -0.4168  -0.3914  -0.3617
    -0.3364  -0.2659  -0.2282  -0.2094  -0.2000  -0.1444  -0.0989   0.0041
     0.1304   0.2394   0.2559   0.2862   0.3252   0.4757   0.5200   0.5811
     0.6288   0.6601   0.6904   0.7838   0.7950   0.8780   0.9027   0.9399
     0.9857   1.0108   1.0432   1.0726   1.0814   1.8913   1.8986   1.9594
     1.9597   3.7736   4.0519   4.0768   4.0848   4.1028   4.1229   4.1381
     4.1580   4.2272   4.2331

     the Fermi energy is     3.5912 ev

!    total energy              =   -2974.00155163 Ry
     estimated scf accuracy    <       0.00000004 Ry
     smearing contrib. (-TS)   =      -0.01962744 Ry
     internal energy E=F+TS    =   -2973.98192419 Ry

     The total energy is F=E-TS. E is the sum of the following terms:
     one-electron contribution =  -23471.97235259 Ry
     hartree contribution      =   11831.40285005 Ry
     xc contribution           =    -494.06055856 Ry
     ewald contribution        =    9160.64590383 Ry
     electric field correction =       0.00223308 Ry

     convergence has been achieved in  66 iterations

     Forces acting on atoms (cartesian axes, Ry/au):

     atom    1 type  1   force =     0.00012676   -0.00018547    0.09455629
     atom    2 type  1   force =    -0.00003284    0.00034687   -0.17511458
     atom    3 type  2   force =    -0.00002458   -0.00002802   -0.02134202
     atom    4 type  2   force =     0.00001502   -0.00189566    0.05323795
     atom    5 type  2   force =    -0.00694657   -0.00239707    0.00356908
     atom    6 type  2   force =     0.00805727   -0.00193243    0.00204832
     atom    7 type  1   force =    -0.00070303   -0.00277512    0.01002571
     atom    8 type  1   force =     0.00060930    0.00276270    0.00501240
     atom    9 type  2   force =     0.00003286   -0.00046608    0.00023496
     atom   10 type  2   force =    -0.00253851   -0.00140691   -0.01078313
     atom   11 type  2   force =     0.00128622   -0.00017642    0.00055303
     atom   12 type  2   force =    -0.00081638   -0.00022630    0.00065952
     atom   13 type  1   force =    -0.00094878   -0.00095546    0.00045583
     atom   14 type  1   force =     0.00031893    0.00033572    0.00008441
     atom   15 type  2   force =     0.00012057    0.00024465   -0.00038622
     atom   16 type  2   force =    -0.00045951    0.00019767    0.00009597
     atom   17 type  2   force =    -0.00018019    0.00021246    0.00009925
     atom   18 type  2   force =     0.00098623   -0.00020621   -0.00031624
     atom   19 type  1   force =     0.00122334    0.00054398    0.00017770
     atom   20 type  1   force =    -0.00080215    0.00013556    0.00001035
     atom   21 type  2   force =     0.00006418    0.00009694    0.10309954
     atom   22 type  2   force =     0.00057173    0.00069190    0.00054309
     atom   23 type  2   force =    -0.07211670   -0.00013631   -0.02735164
     atom   24 type  2   force =     0.07200296    0.00029565   -0.02735265
     atom   25 type  1   force =     0.00002091   -0.00014191    0.09405165
     atom   26 type  1   force =    -0.00015742   -0.00109220   -0.17521262
     atom   27 type  2   force =     0.00012218   -0.00024802   -0.02013366
     atom   28 type  2   force =    -0.00000297   -0.00027032    0.04931063
     atom   29 type  2   force =    -0.00564216    0.00192520    0.00158818
     atom   30 type  2   force =     0.00666961    0.00249637   -0.00000985
     atom   31 type  1   force =    -0.00072312    0.00677968   -0.00109642
     atom   32 type  1   force =     0.00050200   -0.00385382    0.00432462
     atom   33 type  2   force =     0.00016164   -0.00010504   -0.00080821
     atom   34 type  2   force =    -0.00187365    0.00169927   -0.01046689
     atom   35 type  2   force =     0.00117907    0.00028959   -0.00016830
     atom   36 type  2   force =    -0.00056955    0.00042957   -0.00025350
     atom   37 type  1   force =    -0.00064671    0.00044818   -0.00027042
     atom   38 type  1   force =     0.00055584    0.00013452    0.00012836
     atom   39 type  2   force =     0.00032746   -0.00038481    0.00040363
     atom   40 type  2   force =     0.00020672    0.00014725   -0.00035747
     atom   41 type  2   force =     0.00007595   -0.00000270   -0.00101525
     atom   42 type  2   force =     0.00036167   -0.00032988    0.00038913
     atom   43 type  1   force =     0.00009503   -0.00062196    0.00030294
     atom   44 type  1   force =    -0.00042087   -0.00016987    0.00007151
     atom   45 type  2   force =     0.00007542   -0.00006766    0.10288545
     atom   46 type  2   force =    -0.07215590   -0.00002865   -0.02735061
     atom   47 type  2   force =     0.07207473    0.00040793   -0.02738697
     atom   48 type  3   force =     0.00053148    0.00035355   -0.00053336
     atom   49 type  4   force =     0.00018932   -0.00044433   -0.00012998
     atom   50 type  5   force =    -0.00011275   -0.00033171   -0.00011564
     atom   51 type  5   force =    -0.00025672    0.00006987    0.00006592
     atom   52 type  3   force =    -0.00561466    0.00522923   -0.00488236
     atom   53 type  5   force =     0.00065300   -0.00044860    0.00087090
     atom   54 type  5   force =     0.00431176   -0.00536069    0.00408168
     atom   55 type  2   force =    -0.00013029    0.00085043    0.00009889
     atom   56 type  5   force =     0.00034686   -0.00043508   -0.00019889

     Total force =     0.362132     Total SCF correction =     0.000476
  @ DRIVER MODE: Message from server: STATUS
  @ DRIVER MODE: Message from server: GETFORCE
  @ DRIVER MODE: Returning v,forces,stress,ensemble

     Writing output data file ./calc.save/
  @ DRIVER MODE: Message from server: EXIT
  @ DRIVE MODE: Exiting

     General routines

     Parallel routines

   This run was terminated on:   4:46: 4  24Sep2021

   JOB DONE.