     Program PWSCF v.6.7GPU starts on 26Sep2021 at 11:30:11

     R & G space division:  proc/nbgrp/npool/nimage =       8
     Reading input from /storage/home/hcoda1/3/ntian30/research/carbon/CxH_vib/H2O_calc/ads_slab/CH2OHN2HO_a/out_0037/pw.inp
Warning: card &CELL ignored
Warning: card   CELL_DYNAMICS='IPI', ignored
Warning: card / ignored

     Current dimensions of program PWSCF are:
     Max number of different atomic species (ntypx) = 10
     Max number of k-points (npk) =  40000
     Max angular momentum in pseudopotentials (lmaxx) =  3
     Presently no symmetry can be used with electric field

     Message from routine cell_base_init:
     DEPRECATED: use true lattice parameter, not A to a.u. conversion factor

     IMPORTANT: XC functional enforced from input :
     Exchange-correlation= BEEF-VDW
                           (   1   4  43  14   2   0   0)
     Any further DFT definition will be discarded
     Please, verify this is what you really want

  @ DRIVER MODE: Connecting to
 qe_1139763_2971670.sched-torque.pace.gatech.eduxbme36nn_scratch
  using UNIX socket
  @ DRIVER MODE: Message from server: STATUS
  @ DRIVER MODE: Message from server: INIT
  @ DRIVER MODE: Receiving replica           0          -1
  @ DRIVER MODE: Receiving encoded integer          25
  @ DRIVER MODE:  SCF:  T  FORCE:  T  STRESS:  F  VC:  F  ENSEMBLE:  F
  @ DRIVER MODE:  SCF:  T  FORCE:  T  STRESS:  F  VC:  F  ENSEMBLE:  F

     Using Slab Decomposition

     bravais-lattice index     =            0
     lattice parameter (alat)  =       1.8897  a.u.
     unit-cell volume          =    6658.9804 (a.u.)^3
     number of atoms/cell      =           56
     number of atomic types    =            5
     number of electrons       =       408.00
     number of Kohn-Sham states=          214
     kinetic-energy cutoff     =      29.3995  Ry
     charge density cutoff     =     293.9946  Ry
     scf convergence threshold =      7.3E-08
     mixing beta               =       0.0500
     number of iterations used =            8  plain     mixing
     Exchange-correlation= BEEF-VDW
                           (   1   4  43  14   2   0   0)

     celldm(1)=   1.889726  celldm(2)=   0.000000  celldm(3)=   0.000000
     celldm(4)=   0.000000  celldm(5)=   0.000000  celldm(6)=   0.000000

     crystal axes: (cart. coord. in units of alat)
               a(1) = (   6.579727   0.000000   0.000000 )
               a(2) = (  -0.000775   5.961596   0.000000 )
               a(3) = (   0.000000   0.000000  25.155947 )

     reciprocal axes: (cart. coord. in units 2 pi/alat)
               b(1) = (  0.151982  0.000020  0.000000 )
               b(2) = (  0.000000  0.167740  0.000000 )
               b(3) = (  0.000000  0.000000  0.039752 )

     PseudoPot. # 1 for C  read from file:
     /storage/coda1/p-amedford6/0/shared/rich_project_chbe-medford/medford-share/data/pseudos_module/espresso/nninc/pbe/van/C.UPF
     MD5 check sum: 1a69bf6b8db32088f5b2163dbdb77a27
     Pseudo is Ultrasoft, Zval =  4.0
     Generated by new atomic code, or converted to UPF format
     Using radial grid of  721 points,  4 beta functions with:
                l(1) =   0
                l(2) =   0
                l(3) =   1
                l(4) =   1
     Q(r) pseudized with  8 coefficients,  rinner =    0.800   0.800   0.800

     PseudoPot. # 2 for H  read from file:
     /storage/coda1/p-amedford6/0/shared/rich_project_chbe-medford/medford-share/data/pseudos_module/espresso/nninc/pbe/van/H.UPF
     MD5 check sum: b5ee9d7bfd3a09ee7748110bda690ff7
     Pseudo is Ultrasoft, Zval =  1.0
     Generated by new atomic code, or converted to UPF format
     Using radial grid of  615 points,  1 beta functions with:
                l(1) =   0
     Q(r) pseudized with  8 coefficients,  rinner =    0.800

     PseudoPot. # 3 for O  read from file:
     /storage/coda1/p-amedford6/0/shared/rich_project_chbe-medford/medford-share/data/pseudos_module/espresso/nninc/pbe/van/O.UPF
     MD5 check sum: 78c19812648e8988a0fe644b0f25305e
     Pseudo is Ultrasoft, Zval =  6.0
     Generated by new atomic code, or converted to UPF format
     Using radial grid of  737 points,  4 beta functions with:
                l(1) =   0
                l(2) =   0
                l(3) =   1
                l(4) =   1
     Q(r) pseudized with  8 coefficients,  rinner =    0.800   0.800   0.800

     PseudoPot. # 4 for Ti read from file:
     /storage/coda1/p-amedford6/0/shared/rich_project_chbe-medford/medford-share/data/pseudos_module/espresso/nninc/pbe/van/Ti.UPF
     MD5 check sum: 8e4df49b7f0d34bbd5052bf3f5ea0213
     Pseudo is Ultrasoft, Zval = 12.0
     Generated by new atomic code, or converted to UPF format
     Using radial grid of  851 points,  6 beta functions with:
                l(1) =   0
                l(2) =   0
                l(3) =   1
                l(4) =   1
                l(5) =   2
                l(6) =   2
     Q(r) pseudized with  8 coefficients,  rinner =    1.000   1.000   1.000
                                                       1.000   1.000

     PseudoPot. # 5 for N  read from file:
     /storage/coda1/p-amedford6/0/shared/rich_project_chbe-medford/medford-share/data/pseudos_module/espresso/nninc/pbe/van/N.UPF
     MD5 check sum: 90d10febe142ad51ac9d5be1deb811c4
     Pseudo is Ultrasoft, Zval =  5.0
     Generated by new atomic code, or converted to UPF format
     Using radial grid of  729 points,  4 beta functions with:
                l(1) =   0
                l(2) =   0
                l(3) =   1
                l(4) =   1
     Q(r) pseudized with  8 coefficients,  rinner =    0.800   0.800   0.800

     atomic species   valence    mass     pseudopotential
        C1             4.00    12.01100     C ( 1.00)
        H1             1.00     1.00800     H ( 1.00)
        O1             6.00    15.99900     O ( 1.00)
        Ti1           12.00    47.86700     Ti( 1.00)
        N1             5.00    14.00700     N ( 1.00)

     No symmetry found

   Cartesian axes

     site n.     atom                  positions (alat units)
         1           C1  tau(   1) = (   4.4694424   3.1333252  19.5683752  )
         2           H1  tau(   2) = (   3.5225350   3.1610456  19.0510688  )
         3           H1  tau(   3) = (   5.8501665   2.9975095  17.9951248  )
         4           H1  tau(   4) = (   4.8161173   2.2403860  20.0673745  )
         5           O1  tau(   5) = (   0.0006271   0.0005054   7.9858123  )
         6           O1  tau(   6) = (   3.2906025   0.0005020   7.3038282  )
         7           O1  tau(   7) = (   4.5942328   1.4918067   9.2879030  )
         8           O1  tau(   8) = (   1.9868534   1.4903216   9.2879459  )
         9           O1  tau(   9) = (   3.2658522   0.0207364  11.3165592  )
        10           O1  tau(  10) = (   0.0022773   0.0111808  10.5833539  )
        11           O1  tau(  11) = (   1.2584498   1.5025451  12.6333345  )
        12           O1  tau(  12) = (   5.2827793   1.4879884  12.6049259  )
        13           O1  tau(  13) = (   6.5229081   0.0016576  14.6697044  )
        14           O1  tau(  14) = (   3.2671471   5.9223268  13.9212949  )
        15           O1  tau(  15) = (   4.5038562   1.5078053  16.0770842  )
        16           O1  tau(  16) = (   1.9713840   1.5400684  15.9915579  )
        17           O1  tau(  17) = (   3.2904802   0.0005063   4.7018136  )
        18           O1  tau(  18) = (   0.0083768   5.9574009  17.1899481  )
        19           O1  tau(  19) = (   1.3043587   1.4918075   6.0039043  )
        20           O1  tau(  20) = (   5.2767064   1.4903225   6.0039473  )
        21           O1  tau(  21) = (   0.0002396   2.9813036   7.9858123  )
        22           O1  tau(  22) = (   3.2902150   2.9813002   7.3038282  )
        23           O1  tau(  23) = (   4.5938453   4.4726049   9.2879030  )
        24           O1  tau(  24) = (   1.9864658   4.4711199   9.2879459  )
        25           O1  tau(  25) = (   3.2699439   2.9592623  11.2883102  )
        26           O1  tau(  26) = (   0.0014687   2.9942081  10.5424492  )
        27           O1  tau(  27) = (   1.2624719   4.4656417  12.6394791  )
        28           O1  tau(  28) = (   5.2897987   4.4902883  12.6063686  )
        29           O1  tau(  29) = (   6.5205774   2.9949485  14.6561412  )
        30           O1  tau(  30) = (   3.3050662   2.9767913  13.8748461  )
        31           O1  tau(  31) = (   4.4950179   4.4323158  16.0974573  )
        32           O1  tau(  32) = (   1.9671975   4.4064719  15.9829847  )
        33           O1  tau(  33) = (   3.2900926   2.9813045   4.7018136  )
        34           O1  tau(  34) = (   1.3039711   4.4726057   6.0039043  )
        35           O1  tau(  35) = (   5.2763189   4.4711207   6.0039473  )
        36           O1  tau(  36) = (   6.5424668   2.9800173  17.2949776  )
        37           Ti1 tau(  37) = (   0.0004258   2.9801865   6.0000000  )
        38           Ti1 tau(  38) = (   3.2906075   1.4906267   6.0002472  )
        39           Ti1 tau(  39) = (   3.3167600   3.1006338   9.2159236  )
        40           Ti1 tau(  40) = (   0.0391818   1.5627686   9.3440282  )
        41           Ti1 tau(  41) = (   6.5783755   3.0458713  12.7937554  )
        42           Ti1 tau(  42) = (   3.2318486   1.5634082  12.4209175  )
        43           Ti1 tau(  43) = (   3.2670811   2.9501284  15.6494465  )
        44           Ti1 tau(  44) = (   0.0280251   1.4030395  16.0254105  )
        45           Ti1 tau(  45) = (   0.0000382   5.9609847   6.0000000  )
        46           Ti1 tau(  46) = (   3.2902200   4.4714249   6.0002472  )
        47           Ti1 tau(  47) = (   3.3194908   0.1157174   9.1781592  )
        48           Ti1 tau(  48) = (   0.0398790   4.5135925   9.3581580  )
        49           Ti1 tau(  49) = (   6.5007586   0.0629955  12.6074658  )
        50           Ti1 tau(  50) = (   3.2510718   4.6571100  12.6672192  )
        51           Ti1 tau(  51) = (   3.3282601   5.9350673  16.2366838  )
        52           Ti1 tau(  52) = (   0.0495319   4.5308688  15.9870001  )
        53           N1  tau(  53) = (   5.2748021   5.2735043  20.4272172  )
        54           N1  tau(  54) = (   4.8679203   4.2732533  20.0576380  )
        55           O1  tau(  55) = (   3.0402417   5.9484128  18.0530970  )
        56           H1  tau(  56) = (   2.1234608   0.1014992  18.3542784  )

     number of k points=    10  Fermi-Dirac smearing, width (Ry)=  0.0073
                       cart. coord. in units 2pi/alat
        k(    1) = (   0.0000000   0.0000000   0.0000000), wk =   0.1250000
        k(    2) = (   0.0000000   0.0419351   0.0000000), wk =   0.2500000
        k(    3) = (   0.0000000  -0.0838702   0.0000000), wk =   0.1250000
        k(    4) = (   0.0379955   0.0000049   0.0000000), wk =   0.2500000
        k(    5) = (   0.0379955   0.0419400   0.0000000), wk =   0.2500000
        k(    6) = (   0.0379955  -0.0838652   0.0000000), wk =   0.2500000
        k(    7) = (   0.0379955  -0.0419301   0.0000000), wk =   0.2500000
        k(    8) = (  -0.0759910  -0.0000099   0.0000000), wk =   0.1250000
        k(    9) = (  -0.0759910   0.0419252   0.0000000), wk =   0.2500000
        k(   10) = (  -0.0759910  -0.0838800   0.0000000), wk =   0.1250000

     Initial potential from superposition of free atoms

     starting charge  391.99915, renormalised to  408.00000

     negative rho (up, down):  1.414E-02 0.000E+00

     %%%%%%%%%%%%%%%%%%%%%%%%%%%%%%%%%%%%%%%%%%%%%%%%%%%%%%%%%%%%%%%%%%%%%%%%
     %                                                                      %
     % You are using vdW-DF, which was implemented by the Thonhauser group. %
     % Please cite the following two papers that made this development      %
     % possible and the two reviews that describe the various versions:     %
     %                                                                      %
     %   T. Thonhauser et al., PRL 115, 136402 (2015).                      %
     %   T. Thonhauser et al., PRB 76, 125112 (2007).                       %
     %   K. Berland et al., Rep. Prog. Phys. 78, 066501 (2015).             %
     %   D.C. Langreth et al., J. Phys.: Condens. Matter 21, 084203 (2009). %
     %                                                                      %
     %                                                                      %
     % If you are calculating the stress with vdW-DF, please also cite:     %
     %                                                                      %
     %   R. Sabatini et al., J. Phys.: Condens. Matter 24, 424209 (2012).   %
     %                                                                      %
     %%%%%%%%%%%%%%%%%%%%%%%%%%%%%%%%%%%%%%%%%%%%%%%%%%%%%%%%%%%%%%%%%%%%%%%%

     Adding external electric field

     Computed dipole along edir(3) :
        Dipole              -15.5929 Ry au,        -39.6331 Debye
        Dipole field         -0.0294 Ry au,

        Potential amp.        2.7277 Ry
        Total length         46.3494 bohr

     Starting wfcs are  308 atomic wfcs
  @ DRIVER MODE: Message from server: STATUS
  @ DRIVER MODE: Message from server: POSDATA
  @ DRIVER MODE: Reading and sharing cell
  @ DRIVER MODE: Reading and sharing positions
  @ DRIVER MODE: Received positions

     Self-consistent Calculation

     iteration #  1     ecut=    29.40 Ry     beta= 0.05
     Davidson diagonalization with overlap
     c_bands:  3 eigenvalues not converged
     c_bands:  1 eigenvalues not converged
     c_bands:  1 eigenvalues not converged
     c_bands:  2 eigenvalues not converged
     c_bands:  4 eigenvalues not converged
     c_bands:  2 eigenvalues not converged
     ethr =  1.00E-05,  avg # of iterations = 30.2

[...]

     total energy              =   -2234.29456081 Ry
     estimated scf accuracy    <    8817.39026302 Ry

     iteration #  2     ecut=    29.40 Ry     beta= 0.05
     Davidson diagonalization with overlap
     ethr =  1.00E-02,  avg # of iterations = 31.0

[...]

     iteration # 55     ecut=    29.40 Ry     beta= 0.05
     Davidson diagonalization with overlap
     c_bands:  1 eigenvalues not converged
     ethr =  4.14E-07,  avg # of iterations = 10.1

[...]

     total energy              =   -3005.15883939 Ry
     estimated scf accuracy    <       0.00000016 Ry

     iteration # 72     ecut=    29.40 Ry     beta= 0.05
     Davidson diagonalization with overlap
     ethr =  3.97E-11,  avg # of iterations =  5.7

     negative rho (up, down):  1.448E-02 0.000E+00

     Adding external electric field

     Computed dipole along edir(3) :
        Dipole                0.4917 Ry au,          1.2498 Debye
        Dipole field          0.0009 Ry au,

        Potential amp.       -0.0860 Ry
        Total length         46.3494 bohr

     End of self-consistent calculation

          k = 0.0000 0.0000 0.0000 ( 18029 PWs)   bands (ev):

   -56.1979 -56.1515 -55.6529 -55.6485 -55.6305 -55.5839 -55.5720 -55.5316
   -55.5196 -55.4917 -55.4475 -55.4050 -55.4005 -55.2776 -54.8222 -54.7883
   -32.6120 -32.4611 -32.4124 -32.3782 -32.2838 -32.2384 -32.1484 -32.0890
   -32.0795 -32.0239 -31.9568 -31.9454 -31.9436 -31.8884 -31.8878 -31.8797
   -31.8643 -31.8466 -31.8313 -31.8134 -31.8040 -31.7954 -31.7593 -31.7356
   -31.7321 -31.7147 -31.7090 -31.7054 -31.7048 -31.6964 -31.6903 -31.6820
   -31.6712 -31.6533 -31.6501 -31.6088 -31.5999 -31.5924 -31.5669 -31.5313
   -31.4910 -31.4793 -31.2170 -31.1614 -31.1371 -31.0340 -30.9490 -30.8380
   -20.5426 -16.8474 -16.4184 -16.3606 -16.2178 -15.9875 -15.8504 -15.7663
   -15.5355 -15.5188 -15.4053 -15.3971 -15.3541 -15.2420 -15.2273 -15.1909
   -15.1852 -15.1710 -15.1584 -15.1237 -15.1189 -15.1117 -15.0444 -15.0165
   -14.9891 -14.9452 -14.8900 -14.8495 -14.7803 -14.7741 -14.7304 -14.5264
   -13.7727 -13.3227 -13.2137  -6.3517  -5.3605  -4.8313  -4.2495  -4.0113
    -3.8861  -3.6702  -3.5750  -3.5665  -3.3864  -3.3696  -3.2779  -3.0583
    -2.9254  -2.8428  -2.8124  -2.7523  -2.7295  -2.6594  -2.6248  -2.6160
    -2.5756  -2.5257  -2.4731  -2.4588  -2.4441  -2.3897  -2.3807  -2.3576
    -2.3417  -2.3376  -2.2959  -2.1512  -2.1384  -2.0808  -2.0717  -2.0251
    -2.0189  -1.9904  -1.9797  -1.9339  -1.8967  -1.7573  -1.7395  -1.7256
    -1.6580  -1.4396  -1.4051  -1.3082  -1.2480  -1.2137  -1.1182  -1.1168
    -1.0850  -1.0544  -1.0060  -0.9253  -0.8920  -0.8357  -0.7902  -0.7822
    -0.7341  -0.6669  -0.6165  -0.5584  -0.5225  -0.4815  -0.4046  -0.3530
    -0.2870  -0.2679  -0.2178  -0.1791  -0.0874  -0.0538  -0.0253   0.0270
     0.0518   0.1164   0.1200   0.1608   0.1793   0.2584   0.2874   0.3051
     0.3550   0.3806   0.3965   0.4581   0.5208   0.5649   0.6096   0.7116
     0.7574   0.7815   0.8518   0.9284   1.0969   1.1965   1.2253   1.4207
     1.4531   1.7501   1.7981   1.8507   3.1001   3.2649   3.5527   3.6422
     3.6795   3.7106   3.8077   3.8377   3.9991   4.0370

[...]

          k = 0.0380-0.0419 0.0000 ( 17876 PWs)   bands (ev):

[...]

          k =-0.0760-0.0000 0.0000 ( 17886 PWs)   bands (ev):

[...]

          k =-0.0760-0.0839 0.0000 ( 17948 PWs)   bands (ev):

   -56.1907 -56.1586 -55.6511 -55.6465 -55.6251 -55.5775 -55.5771 -55.5382
   -55.5210 -55.4935 -55.4391 -55.4134 -55.3982 -55.2798 -54.8054 -54.8049
   -32.4564 -32.4425 -32.4167 -32.4151 -32.3431 -32.3159 -32.0377 -31.9554
   -31.9541 -31.9259 -31.9227 -31.8880 -31.8869 -31.8750 -31.8669 -31.8555
   -31.8456 -31.8338 -31.8197 -31.8117 -31.8051 -31.8021 -31.7936 -31.7911
   -31.7850 -31.7846 -31.7722 -31.7555 -31.7262 -31.7224 -31.7136 -31.7043
   -31.7028 -31.6782 -31.6616 -31.6513 -31.6465 -31.6276 -31.5973 -31.5915
   -31.5312 -31.4829 -31.1502 -31.1500 -31.0325 -31.0308 -30.9913 -30.9904
   -20.5419 -16.7712 -16.3933 -15.8022 -15.6723 -15.6643 -15.6635 -15.6282
   -15.5873 -15.5346 -15.5076 -15.4531 -15.3847 -15.3577 -15.3405 -15.3157
   -15.2717 -15.2398 -15.2256 -15.1525 -15.1151 -15.1032 -15.0880 -15.0772
   -15.0338 -15.0309 -15.0116 -15.0038 -14.9966 -14.9410 -14.8435 -14.6671
   -13.7800 -13.3178 -13.3168  -6.2836  -5.4035  -4.7786  -4.2223  -3.9839
    -3.4789  -3.0298  -2.9281  -2.8497  -2.8420  -2.7540  -2.7130  -2.6824
    -2.6625  -2.6443  -2.6174  -2.5680  -2.5444  -2.5087  -2.4991  -2.4977
    -2.4787  -2.4719  -2.4504  -2.4264  -2.4136  -2.3983  -2.3864  -2.3625
    -2.3504  -2.3405  -2.3138  -2.2761  -2.2476  -2.2292  -2.0500  -2.0211
    -2.0135  -2.0132  -1.9455  -1.9414  -1.8834  -1.8102  -1.7942  -1.7731
    -1.7545  -1.6410  -1.5034  -1.4564  -1.3993  -1.3782  -1.3099  -1.2578
    -1.1615  -1.1431  -1.1323  -1.1141  -1.0702  -1.0662  -0.9799  -0.9260
    -0.8829  -0.8788  -0.8574  -0.8134  -0.6950  -0.6861  -0.6478  -0.6246
    -0.6106  -0.5085  -0.4766  -0.4563  -0.4417  -0.4298  -0.3258  -0.2763
    -0.2300  -0.1824  -0.1211  -0.0631   0.0603   0.0855   0.1789   0.2096
     0.2503   0.3845   0.4101   0.4589   0.4947   0.5475   0.5857   0.6013
     0.7270   0.7830   0.8014   0.8677   0.8881   0.9269   0.9506   1.5889
     1.5949   1.6022   1.6047   1.7886   3.6426   3.6689   3.6752   3.7096
     3.8935   3.9225   4.0009   4.0249   4.0396   4.0500

     the Fermi energy is     2.5591 ev

!    total energy              =   -3005.15886301 Ry
     estimated scf accuracy    <       0.00000006 Ry
     smearing contrib. (-TS)   =      -0.00023863 Ry
     internal energy E=F+TS    =   -3005.15862439 Ry

     The total energy is F=E-TS. E is the sum of the following terms:
     one-electron contribution =  -22952.11207794 Ry
     hartree contribution      =   11571.95562934 Ry
     xc contribution           =    -500.30310439 Ry
     ewald contribution        =    8875.30047236 Ry
     electric field correction =       0.00045624 Ry

     convergence has been achieved in  72 iterations

     Forces acting on atoms (cartesian axes, Ry/au):

     atom    1 type  1   force =    -0.00371636   -0.00332326   -0.00198571
     atom    2 type  2   force =    -0.00054603   -0.00117583   -0.00059775
     atom    3 type  2   force =     0.00019389    0.00007090   -0.00045534
     atom    4 type  2   force =    -0.00034651   -0.00014748    0.00037788
     atom    5 type  3   force =     0.00027299   -0.00316213   -0.05386540
     atom    6 type  3   force =     0.00044646    0.00120004    0.04056349
     atom    7 type  3   force =    -0.00981024   -0.00222076    0.00043976
     atom    8 type  3   force =     0.00888667   -0.00512288   -0.00066173
     atom    9 type  3   force =     0.00010234    0.00004444    0.00001663
     atom   10 type  3   force =    -0.00010366    0.00004468    0.00001673
     atom   11 type  3   force =     0.00014753   -0.00001234   -0.00009501
     atom   12 type  3   force =     0.00000674    0.00013206    0.00002236
     atom   13 type  3   force =     0.00000321    0.00002614   -0.00002697
     atom   14 type  3   force =     0.00006560   -0.00009026    0.00035087
     atom   15 type  3   force =    -0.00003077    0.00010586    0.00012572
     atom   16 type  3   force =    -0.00000173   -0.00008845   -0.00000744
     atom   17 type  3   force =    -0.00006900    0.00016469    0.09944703
     atom   18 type  3   force =     0.00008761   -0.00003092   -0.00001973
     atom   19 type  3   force =    -0.08022991    0.00059376   -0.03416985
     atom   20 type  3   force =     0.08000053    0.00110581   -0.03419530
     atom   21 type  3   force =     0.00051514    0.00001990   -0.05294803
     atom   22 type  3   force =     0.00038385    0.00049018    0.04231802
     atom   23 type  3   force =    -0.01093922    0.00575933    0.00234811
     atom   24 type  3   force =     0.01006411    0.00213313    0.00120369
     atom   25 type  3   force =     0.00007913   -0.00000628    0.00009611
     atom   26 type  3   force =     0.00000604    0.00006446    0.00000937
     atom   27 type  3   force =     0.00008069    0.00008917   -0.00000051
     atom   28 type  3   force =     0.00005044   -0.00001734    0.00007688
     atom   29 type  3   force =     0.00013376   -0.00013956    0.00011207
     atom   30 type  3   force =    -0.00001691   -0.00006612    0.00003600
     atom   31 type  3   force =     0.00009647   -0.00009945   -0.00004553
     atom   32 type  3   force =    -0.00001884   -0.00019715    0.00014329
     atom   33 type  3   force =    -0.00007723    0.00025266    0.09901827
     atom   34 type  3   force =    -0.08022882   -0.00145151   -0.03416948
     atom   35 type  3   force =     0.08000775   -0.00092814   -0.03421870
     atom   36 type  3   force =    -0.00012325   -0.00015161    0.00027332
     atom   37 type  4   force =     0.00020487    0.00017153    0.13338610
     atom   38 type  4   force =     0.00002521    0.00799106   -0.15915206
     atom   39 type  4   force =    -0.00006360   -0.00007058   -0.00004274
     atom   40 type  4   force =    -0.00008173    0.00015742    0.00001477
     atom   41 type  4   force =    -0.00028742   -0.00002474   -0.00006554
     atom   42 type  4   force =    -0.00006884    0.00009856   -0.00006776
     atom   43 type  4   force =     0.00010004   -0.00003560    0.00002551
     atom   44 type  4   force =     0.00019901   -0.00014624   -0.00009944
     atom   45 type  4   force =    -0.00024587   -0.00009122    0.14215455
     atom   46 type  4   force =    -0.00019043   -0.00647551   -0.15861334
     atom   47 type  4   force =     0.00011512   -0.00007841   -0.00000573
     atom   48 type  4   force =    -0.00016242    0.00017313    0.00011042
     atom   49 type  4   force =    -0.00012900   -0.00000380    0.00007231
     atom   50 type  4   force =    -0.00010169   -0.00006022   -0.00003088
     atom   51 type  4   force =     0.00018285    0.00006119    0.00032169
     atom   52 type  4   force =     0.00010762    0.00005013    0.00013791
     atom   53 type  5   force =    -0.00675153   -0.01242809   -0.00469736
     atom   54 type  5   force =     0.01159362    0.01690734    0.00727258
     atom   55 type  3   force =    -0.00016445    0.00034820   -0.00062130
     atom   56 type  2   force =     0.00034621   -0.00040992    0.00036720

     Total force =     0.386002     Total SCF correction =     0.000635
  @ DRIVER MODE: Message from server: STATUS
  @ DRIVER MODE: Message from server: GETFORCE
  @ DRIVER MODE: Returning v,forces,stress,ensemble

     Writing output data file ./calc.save/
  @ DRIVER MODE: Message from server: EXIT
  @ DRIVE MODE: Exiting

     General routines

     Parallel routines

   This run was terminated on:  12: 4:34  26Sep2021

   JOB DONE.