     Program PWSCF v.6.7GPU starts on 24Sep2021 at 11:47:14

     R & G space division:  proc/nbgrp/npool/nimage =       8
     Reading input from /storage/home/hcoda1/3/ntian30/research/carbon/CxH_vib/H2O_calc/ads_slab/CH3NNHHHHO_a/out_0060/pw.inp
Warning: card &CELL ignored
Warning: card   CELL_DYNAMICS='IPI', ignored
Warning: card / ignored

     Current dimensions of program PWSCF are:
     Max number of different atomic species (ntypx) = 10
     Max number of k-points (npk) =  40000
     Max angular momentum in pseudopotentials (lmaxx) =  3
     Presently no symmetry can be used with electric field

     Message from routine cell_base_init:
     DEPRECATED: use true lattice parameter, not A to a.u. conversion factor

     IMPORTANT: XC functional enforced from input :
     Exchange-correlation= BEEF-VDW
                           (   1   4  43  14   2   0   0)
     Any further DFT definition will be discarded
     Please, verify this is what you really want

  @ DRIVER MODE: Connecting to
 qe_1139763_2947308.sched-torque.pace.gatech.edu2vnwream_scratch
  using UNIX socket
  @ DRIVER MODE: Message from server: STATUS
  @ DRIVER MODE: Message from server: INIT
  @ DRIVER MODE: Receiving replica           0          -1
  @ DRIVER MODE: Receiving encoded integer          25
  @ DRIVER MODE:  SCF:  T  FORCE:  T  STRESS:  F  VC:  F  ENSEMBLE:  F
  @ DRIVER MODE:  SCF:  T  FORCE:  T  STRESS:  F  VC:  F  ENSEMBLE:  F

     Using Slab Decomposition

     bravais-lattice index     =            0
     lattice parameter (alat)  =       1.8897  a.u.
     unit-cell volume          =    6658.9804 (a.u.)^3
     number of atoms/cell      =           58
     number of atomic types    =            5
     number of electrons       =       405.00
     number of Kohn-Sham states=          212
     kinetic-energy cutoff     =      29.3995  Ry
     charge density cutoff     =     293.9946  Ry
     scf convergence threshold =      7.3E-08
     mixing beta               =       0.0500
     number of iterations used =            8  plain     mixing
     Exchange-correlation= BEEF-VDW
                           (   1   4  43  14   2   0   0)

     celldm(1)=   1.889726  celldm(2)=   0.000000  celldm(3)=   0.000000
     celldm(4)=   0.000000  celldm(5)=   0.000000  celldm(6)=   0.000000

     crystal axes: (cart. coord. in units of alat)
               a(1) = (   6.579727   0.000000   0.000000 )
               a(2) = (  -0.000775   5.961596   0.000000 )
               a(3) = (   0.000000   0.000000  25.155947 )

     reciprocal axes: (cart. coord. in units 2 pi/alat)
               b(1) = (  0.151982  0.000020  0.000000 )
               b(2) = (  0.000000  0.167740  0.000000 )
               b(3) = (  0.000000  0.000000  0.039752 )

     PseudoPot. # 1 for Ti read from file:
     /storage/coda1/p-amedford6/0/shared/rich_project_chbe-medford/medford-share/data/pseudos_module/espresso/nninc/pbe/van/Ti.UPF
     MD5 check sum: 8e4df49b7f0d34bbd5052bf3f5ea0213
     Pseudo is Ultrasoft, Zval = 12.0
     Generated by new atomic code, or converted to UPF format
     Using radial grid of  851 points,  6 beta functions with:
                l(1) =   0
                l(2) =   0
                l(3) =   1
                l(4) =   1
                l(5) =   2
                l(6) =   2
     Q(r) pseudized with  8 coefficients,  rinner =    1.000   1.000   1.000
                                                       1.000   1.000

     PseudoPot. # 2 for O  read from file:
     /storage/coda1/p-amedford6/0/shared/rich_project_chbe-medford/medford-share/data/pseudos_module/espresso/nninc/pbe/van/O.UPF
     MD5 check sum: 78c19812648e8988a0fe644b0f25305e
     Pseudo is Ultrasoft, Zval =  6.0
     Generated by new atomic code, or converted to UPF format
     Using radial grid of  737 points,  4 beta functions with:
                l(1) =   0
                l(2) =   0
                l(3) =   1
                l(4) =   1
     Q(r) pseudized with  8 coefficients,  rinner =    0.800   0.800   0.800

     PseudoPot. # 3 for N  read from file:
     /storage/coda1/p-amedford6/0/shared/rich_project_chbe-medford/medford-share/data/pseudos_module/espresso/nninc/pbe/van/N.UPF
     MD5 check sum: 90d10febe142ad51ac9d5be1deb811c4
     Pseudo is Ultrasoft, Zval =  5.0
     Generated by new atomic code, or converted to UPF format
     Using radial grid of  729 points,  4 beta functions with:
                l(1) =   0
                l(2) =   0
                l(3) =   1
                l(4) =   1
     Q(r) pseudized with  8 coefficients,  rinner =    0.800   0.800   0.800

     PseudoPot. # 4 for C  read from file:
     /storage/coda1/p-amedford6/0/shared/rich_project_chbe-medford/medford-share/data/pseudos_module/espresso/nninc/pbe/van/C.UPF
     MD5 check sum: 1a69bf6b8db32088f5b2163dbdb77a27
     Pseudo is Ultrasoft, Zval =  4.0
     Generated by new atomic code, or converted to UPF format
     Using radial grid of  721 points,  4 beta functions with:
                l(1) =   0
                l(2) =   0
                l(3) =   1
                l(4) =   1
     Q(r) pseudized with  8 coefficients,  rinner =    0.800   0.800   0.800

     PseudoPot. # 5 for H  read from file:
     /storage/coda1/p-amedford6/0/shared/rich_project_chbe-medford/medford-share/data/pseudos_module/espresso/nninc/pbe/van/H.UPF
     MD5 check sum: b5ee9d7bfd3a09ee7748110bda690ff7
     Pseudo is Ultrasoft, Zval =  1.0
     Generated by new atomic code, or converted to UPF format
     Using radial grid of  615 points,  1 beta functions with:
                l(1) =   0
     Q(r) pseudized with  8 coefficients,  rinner =    0.800

     atomic species   valence    mass     pseudopotential
        Ti1           12.00    47.86700     Ti( 1.00)
        O1             6.00    15.99900     O ( 1.00)
        N1             5.00    14.00700     N ( 1.00)
        C1             4.00    12.01100     C ( 1.00)
        H1             1.00     1.00800     H ( 1.00)

     No symmetry found

   Cartesian axes

     site n.     atom                  positions (alat units)
         1           Ti1 tau(   1) = (   0.0004258   2.9801865   6.0000000  )
         2           Ti1 tau(   2) = (   3.2906075   1.4906267   6.0002472  )
         3           O1  tau(   3) = (   0.0006271   0.0005054   7.9858123  )
         4           O1  tau(   4) = (   3.2906025   0.0005020   7.3038282  )
         5           O1  tau(   5) = (   4.5942328   1.4918067   9.2879030  )
         6           O1  tau(   6) = (   1.9868534   1.4903216   9.2879459  )
         7           Ti1 tau(   7) = (   3.2907910   2.8959150   9.1758416  )
         8           Ti1 tau(   8) = (   0.0015273   1.4827037   9.2680791  )
         9           O1  tau(   9) = (   3.3066316   0.0080679  11.3583267  )
        10           O1  tau(  10) = (   0.0116148   5.9584955  10.6183126  )
        11           O1  tau(  11) = (   1.3000076   1.5005770  12.6434233  )
        12           O1  tau(  12) = (   5.3281586   1.4930334  12.6431679  )
        13           Ti1 tau(  13) = (   0.0126194   3.0144704  12.5166071  )
        14           Ti1 tau(  14) = (   3.3185830   1.5708444  12.4374219  )
        15           O1  tau(  15) = (   0.0449490   0.0685618  14.6579901  )
        16           O1  tau(  16) = (   3.3164028   5.8986079  13.9921319  )
        17           O1  tau(  17) = (   4.5763498   1.4919541  16.1892649  )
        18           O1  tau(  18) = (   2.0390356   1.5007807  16.1677599  )
        19           Ti1 tau(  19) = (   3.3152479   2.9236451  15.6986563  )
        20           Ti1 tau(  20) = (   0.0808212   1.4292116  16.0039943  )
        21           O1  tau(  21) = (   3.2904802   0.0005063   4.7018136  )
        22           O1  tau(  22) = (   0.0303022   5.8046116  17.1736243  )
        23           O1  tau(  23) = (   1.3043587   1.4918075   6.0039043  )
        24           O1  tau(  24) = (   5.2767064   1.4903225   6.0039473  )
        25           Ti1 tau(  25) = (   0.0000382   5.9609847   6.0000000  )
        26           Ti1 tau(  26) = (   3.2902200   4.4714249   6.0002472  )
        27           O1  tau(  27) = (   0.0002396   2.9813036   7.9858123  )
        28           O1  tau(  28) = (   3.2902150   2.9813002   7.3038282  )
        29           O1  tau(  29) = (   4.5938453   4.4726049   9.2879030  )
        30           O1  tau(  30) = (   1.9864658   4.4711199   9.2879459  )
        31           Ti1 tau(  31) = (   3.2891106   5.8743827   9.1763621  )
        32           Ti1 tau(  32) = (   0.0006254   4.4649316   9.2693709  )
        33           O1  tau(  33) = (   3.3101163   2.9547251  11.3177968  )
        34           O1  tau(  34) = (   0.0092240   2.9805883  10.6323155  )
        35           O1  tau(  35) = (   1.2917786   4.4638488  12.6831265  )
        36           O1  tau(  36) = (   5.3332004   4.4701953  12.6833355  )
        37           Ti1 tau(  37) = (   0.0360484   0.0435164  12.5022323  )
        38           Ti1 tau(  38) = (   3.3166134   4.6596848  12.7231989  )
        39           O1  tau(  39) = (   6.5734590   2.9070644  14.8960501  )
        40           O1  tau(  40) = (   3.3256711   2.9499323  13.9293234  )
        41           O1  tau(  41) = (   4.5718193   4.3849529  16.1598725  )
        42           O1  tau(  42) = (   2.0293811   4.3548050  16.0908550  )
        43           Ti1 tau(  43) = (   3.3839698   5.9011270  16.3477160  )
        44           Ti1 tau(  44) = (   0.0762916   4.6312412  15.8077656  )
        45           O1  tau(  45) = (   3.2900926   2.9813045   4.7018136  )
        46           O1  tau(  46) = (   1.3039711   4.4726057   6.0039043  )
        47           O1  tau(  47) = (   5.2763189   4.4711207   6.0039473  )
        48           N1  tau(  48) = (   1.0338470   3.0145746  18.8549854  )
        49           N1  tau(  49) = (   6.4614719   2.5758313  18.0922931  )
        50           C1  tau(  50) = (   0.6385090   3.7489381  20.0602371  )
        51           H1  tau(  51) = (   6.5128770   4.5633600  19.8465500  )
        52           H1  tau(  52) = (   0.1876125   3.0656416  20.7809517  )
        53           H1  tau(  53) = (   1.5398112   4.1767214  20.4987412  )
        54           H1  tau(  54) = (   5.7034478   3.2665398  18.1448723  )
        55           H1  tau(  55) = (   6.1095767   1.7263867  18.5341855  )
        56           H1  tau(  56) = (   1.5400177   3.6533120  18.2466354  )
        57           O1  tau(  57) = (   3.2295176   5.8880611  18.2042677  )
        58           H1  tau(  58) = (   2.6769533   0.6239085  18.5854980  )

     number of k points=    10  Fermi-Dirac smearing, width (Ry)=  0.0073
                       cart. coord. in units 2pi/alat
        k(    1) = (   0.0000000   0.0000000   0.0000000), wk =   0.1250000
        k(    2) = (   0.0000000   0.0419351   0.0000000), wk =   0.2500000
        k(    3) = (   0.0000000  -0.0838702   0.0000000), wk =   0.1250000
        k(    4) = (   0.0379955   0.0000049   0.0000000), wk =   0.2500000
        k(    5) = (   0.0379955   0.0419400   0.0000000), wk =   0.2500000
        k(    6) = (   0.0379955  -0.0838652   0.0000000), wk =   0.2500000
        k(    7) = (   0.0379955  -0.0419301   0.0000000), wk =   0.2500000
        k(    8) = (  -0.0759910  -0.0000099   0.0000000), wk =   0.1250000
        k(    9) = (  -0.0759910   0.0419252   0.0000000), wk =   0.2500000
        k(   10) = (  -0.0759910  -0.0838800   0.0000000), wk =   0.1250000

     Initial potential from superposition of free atoms

     starting charge  388.99913, renormalised to  405.00000

     negative rho (up, down):  1.325E-02 0.000E+00

     %%%%%%%%%%%%%%%%%%%%%%%%%%%%%%%%%%%%%%%%%%%%%%%%%%%%%%%%%%%%%%%%%%%%%%%%
     %                                                                      %
     % You are using vdW-DF, which was implemented by the Thonhauser group. %
     % Please cite the following two papers that made this development      %
     % possible and the two reviews that describe the various versions:     %
     %                                                                      %
     %   T. Thonhauser et al., PRL 115, 136402 (2015).                      %
     %   T. Thonhauser et al., PRB 76, 125112 (2007).                       %
     %   K. Berland et al., Rep. Prog. Phys. 78, 066501 (2015).             %
     %   D.C. Langreth et al., J. Phys.: Condens. Matter 21, 084203 (2009). %
     %                                                                      %
     %                                                                      %
     % If you are calculating the stress with vdW-DF, please also cite:     %
     %                                                                      %
     %   R. Sabatini et al., J. Phys.: Condens. Matter 24, 424209 (2012).   %
     %                                                                      %
     %%%%%%%%%%%%%%%%%%%%%%%%%%%%%%%%%%%%%%%%%%%%%%%%%%%%%%%%%%%%%%%%%%%%%%%%

     Adding external electric field

     Computed dipole along edir(3) :
        Dipole              -14.7698 Ry au,        -37.5411 Debye
        Dipole field         -0.0279 Ry au,

        Potential amp.        2.5838 Ry
        Total length         46.3494 bohr

     Starting wfcs are  307 atomic wfcs
  @ DRIVER MODE: Message from server: STATUS
  @ DRIVER MODE: Message from server: POSDATA
  @ DRIVER MODE: Reading and sharing cell
  @ DRIVER MODE: Reading and sharing positions
  @ DRIVER MODE: Received positions

     Self-consistent Calculation

     iteration #  1     ecut=    29.40 Ry     beta= 0.05
     Davidson diagonalization with overlap
     c_bands:  3 eigenvalues not converged
     c_bands:  4 eigenvalues not converged
     c_bands:  2 eigenvalues not converged
     c_bands:  3 eigenvalues not converged
     c_bands:  3 eigenvalues not converged
     c_bands:  3 eigenvalues not converged
     ethr =  1.00E-05,  avg # of iterations = 23.1

[...]

     total energy              =   -2204.22801519 Ry
     estimated scf accuracy    <    8786.34297079 Ry

[...]

     iteration #  3     ecut=    29.40 Ry     beta= 0.05
     Davidson diagonalization with overlap
     ethr =  1.00E-02,  avg # of iterations = 16.2

[...]

     iteration # 38     ecut=    29.40 Ry     beta= 0.05
     Davidson diagonalization with overlap
     c_bands:  1 eigenvalues not converged
     ethr =  1.30E-06,  avg # of iterations = 12.7

[...]

     total energy              =   -2976.49812212 Ry
     estimated scf accuracy    <       0.00000008 Ry

     iteration # 59     ecut=    29.40 Ry     beta= 0.05
     Davidson diagonalization with overlap
     ethr =  1.91E-11,  avg # of iterations =  7.1

     negative rho (up, down):  1.443E-02 0.000E+00

     Adding external electric field

     Computed dipole along edir(3) :
        Dipole                0.9776 Ry au,          2.4848 Debye
        Dipole field          0.0018 Ry au,

        Potential amp.       -0.1710 Ry
        Total length         46.3494 bohr

     End of self-consistent calculation

          k = 0.0000 0.0000 0.0000 ( 18029 PWs)   bands (ev):

   -55.5971 -55.5101 -55.4761 -55.3724 -55.3537 -55.3382 -55.3234 -55.3173
   -55.3045 -55.2747 -55.2310 -55.1087 -55.0942 -55.0215 -54.4794 -54.4454
   -31.9947 -31.9329 -31.8857 -31.8417 -31.8398 -31.8216 -31.8072 -31.8010
   -31.7612 -31.7560 -31.7372 -31.6628 -31.6371 -31.6187 -31.6167 -31.6148
   -31.6072 -31.5962 -31.5930 -31.5678 -31.5612 -31.5364 -31.5357 -31.5238
   -31.5077 -31.4976 -31.4895 -31.4692 -31.4684 -31.4655 -31.4557 -31.4498
   -31.4458 -31.4267 -31.3848 -31.3829 -31.3091 -31.3052 -31.2874 -31.2710
   -31.2341 -31.2268 -30.8851 -30.7995 -30.7771 -30.7027 -30.6164 -30.5045
   -17.5711 -16.3850 -16.1502 -15.9873 -15.7719 -15.6861 -15.6582 -15.4657
   -15.3605 -15.3078 -15.1185 -15.0748 -15.0450 -15.0323 -15.0186 -14.9958
   -14.9757 -14.9378 -14.9294 -14.9190 -14.9134 -14.8750 -14.8525 -14.8017
   -14.7780 -14.7169 -14.6446 -14.5768 -14.5291 -14.2634 -14.2510 -12.9779
   -12.9558 -12.8616  -9.4453  -6.1444  -5.1908  -4.6223  -3.9157  -3.5149
    -3.4145  -3.3980  -3.3398  -3.2792  -3.1586  -3.0069  -2.8981  -2.8399
    -2.7436  -2.6363  -2.5803  -2.5163  -2.4709  -2.4400  -2.4085  -2.3934
    -2.3881  -2.2939  -2.2832  -2.2569  -2.2210  -2.1667  -2.1507  -2.0704
    -2.0369  -2.0268  -1.9032  -1.8904  -1.8257  -1.8216  -1.8150  -1.7811
    -1.7605  -1.7447  -1.7159  -1.6315  -1.5772  -1.5087  -1.4853  -1.4565
    -1.1894  -1.1058  -1.0668  -1.0374  -0.9423  -0.9209  -0.9083  -0.9024
    -0.8944  -0.8373  -0.7942  -0.7122  -0.6020  -0.5767  -0.5685  -0.5307
    -0.4619  -0.3833  -0.3059  -0.2797  -0.2434  -0.2306  -0.1593  -0.0851
    -0.0690  -0.0573   0.0557   0.0687   0.1466   0.2102   0.2245   0.2659
     0.3138   0.3410   0.3946   0.4304   0.4610   0.4666   0.5018   0.5449
     0.6005   0.6318   0.6594   0.7440   0.7973   0.8421   0.8706   1.0454
     1.0781   1.1480   1.1671   1.2561   1.4969   1.5471   1.5867   1.7415
     2.1134   2.1586   3.5745   3.7256   3.7407   3.8095   3.8353   3.9265
     4.0639   4.1300   4.2649   4.2703

[...]

          k = 0.0380-0.0419 0.0000 ( 17876 PWs)   bands (ev):

[...]

          k =-0.0760-0.0000 0.0000 ( 17886 PWs)   bands (ev):

[...]

          k =-0.0760-0.0839 0.0000 ( 17948 PWs)   bands (ev):

   -55.5963 -55.4932 -55.4928 -55.3711 -55.3406 -55.3303 -55.3240 -55.3214
   -55.3209 -55.2668 -55.2389 -55.1056 -55.0953 -55.0245 -54.4625 -54.4622
   -31.8803 -31.8150 -31.8123 -31.8101 -31.8099 -31.7970 -31.7867 -31.7862
   -31.7171 -31.6611 -31.6534 -31.6460 -31.6411 -31.6266 -31.6133 -31.6132
   -31.6109 -31.6080 -31.5963 -31.5852 -31.5777 -31.5677 -31.5485 -31.5303
   -31.5266 -31.5240 -31.5167 -31.5136 -31.4998 -31.4940 -31.4898 -31.4856
   -31.4805 -31.4618 -31.4561 -31.3790 -31.3631 -31.3532 -31.3110 -31.3093
   -31.2764 -31.2302 -30.7899 -30.7897 -30.6982 -30.6978 -30.6598 -30.6594
   -17.5650 -16.3699 -15.7568 -15.5807 -15.4849 -15.4784 -15.3478 -15.2813
   -15.2730 -15.2381 -15.2196 -15.2039 -15.1716 -15.1539 -15.1132 -15.0622
   -15.0287 -15.0061 -14.9945 -14.9575 -14.9449 -14.9228 -14.9157 -14.9071
   -14.8488 -14.8169 -14.8078 -14.7746 -14.5815 -14.5532 -14.3842 -12.9635
   -12.9634 -12.9573  -9.4428  -6.1294  -5.1925  -4.6323  -3.9115  -3.1526
    -2.9320  -2.7897  -2.7137  -2.5786  -2.5691  -2.5116  -2.4817  -2.4563
    -2.4484  -2.4088  -2.3558  -2.3374  -2.2963  -2.2903  -2.2601  -2.2476
    -2.2370  -2.2282  -2.2026  -2.1840  -2.1750  -2.1337  -2.1295  -2.1130
    -2.0926  -2.0777  -2.0502  -2.0389  -1.9986  -1.9568  -1.8883  -1.8188
    -1.7338  -1.6518  -1.6414  -1.6308  -1.5843  -1.5780  -1.5310  -1.5175
    -1.4695  -1.4183  -1.3040  -1.1770  -1.1399  -1.1175  -1.0853  -1.0509
    -0.9970  -0.9745  -0.9401  -0.8889  -0.8468  -0.7349  -0.7225  -0.6533
    -0.5697  -0.5374  -0.4664  -0.4537  -0.4382  -0.4210  -0.4007  -0.3787
    -0.3539  -0.3355  -0.2343  -0.2085  -0.2062  -0.1842  -0.1236  -0.0297
     0.0495   0.1285   0.2303   0.2809   0.3082   0.3430   0.4464   0.5594
     0.5859   0.6547   0.6781   0.7213   0.7906   0.8087   0.8591   0.9452
     0.9956   1.0278   1.0540   1.0594   1.1139   1.1671   1.9101   1.9186
     1.9788   1.9792   3.7883   4.0641   4.0903   4.1058   4.1431   4.1474
     4.1699   4.1844   4.2489   4.2652

     the Fermi energy is     3.6114 ev

!    total energy              =   -2976.49817787 Ry
     estimated scf accuracy    <       0.00000005 Ry
     smearing contrib. (-TS)   =      -0.01953260 Ry
     internal energy E=F+TS    =   -2976.47864527 Ry

     The total energy is F=E-TS. E is the sum of the following terms:
     one-electron contribution =  -23031.11328582 Ry
     hartree contribution      =   11611.81240309 Ry
     xc contribution           =    -495.70665632 Ry
     ewald contribution        =    8938.52709023 Ry
     electric field correction =       0.00180355 Ry

     convergence has been achieved in  59 iterations

     Forces acting on atoms (cartesian axes, Ry/au):

     atom    1 type  1   force =     0.00000978   -0.00022910    0.09406714
     atom    2 type  1   force =    -0.00015912    0.00025142   -0.17514074
     atom    3 type  2   force =     0.00007389   -0.00016277   -0.02116147
     atom    4 type  2   force =     0.00000293   -0.00104269    0.05355813
     atom    5 type  2   force =    -0.00456014   -0.00322861    0.00114618
     atom    6 type  2   force =     0.00661769   -0.00242847    0.00161180
     atom    7 type  1   force =     0.00037082    0.00457967    0.01038882
     atom    8 type  1   force =    -0.00055756    0.00198780    0.00312696
     atom    9 type  2   force =     0.00010211   -0.00051843   -0.00046396
     atom   10 type  2   force =    -0.00031321   -0.00004455   -0.01132626
     atom   11 type  2   force =    -0.00022256    0.00045358    0.00002515
     atom   12 type  2   force =    -0.00028196    0.00067049    0.00006125
     atom   13 type  1   force =     0.00061396   -0.00066351    0.00032153
     atom   14 type  1   force =    -0.00035406    0.00022957    0.00019776
     atom   15 type  2   force =    -0.00017679    0.00009194    0.00037123
     atom   16 type  2   force =     0.00006671    0.00000038    0.00067386
     atom   17 type  2   force =    -0.00065375   -0.00011254    0.00004918
     atom   18 type  2   force =     0.00031241   -0.00020536    0.00030746
     atom   19 type  1   force =    -0.00017233    0.00053786   -0.00001805
     atom   20 type  1   force =    -0.00001284   -0.00013235    0.00037088
     atom   21 type  2   force =     0.00003021   -0.00001376    0.10311028
     atom   22 type  2   force =    -0.00007761   -0.00022276   -0.00080914
     atom   23 type  2   force =    -0.07214439   -0.00021294   -0.02725162
     atom   24 type  2   force =     0.07204690    0.00023240   -0.02732993
     atom   25 type  1   force =     0.00006902   -0.00034775    0.09404921
     atom   26 type  1   force =     0.00000093   -0.00128688   -0.17518027
     atom   27 type  2   force =     0.00015419   -0.00021435   -0.01993591
     atom   28 type  2   force =     0.00008767   -0.00111264    0.04907863
     atom   29 type  2   force =    -0.00669403    0.00152556    0.00212379
     atom   30 type  2   force =     0.00856241    0.00170339    0.00249587
     atom   31 type  1   force =     0.00049564   -0.00019420    0.00053407
     atom   32 type  1   force =    -0.00020318   -0.00145240    0.00351439
     atom   33 type  2   force =    -0.00007837    0.00001352   -0.00002607
     atom   34 type  2   force =    -0.00088898    0.00246268   -0.01153716
     atom   35 type  2   force =     0.00005949   -0.00043013    0.00046704
     atom   36 type  2   force =    -0.00056001   -0.00040646    0.00032368
     atom   37 type  1   force =     0.00037119    0.00028813    0.00011155
     atom   38 type  1   force =    -0.00037962    0.00011174    0.00021971
     atom   39 type  2   force =    -0.00052049    0.00040113    0.00033903
     atom   40 type  2   force =    -0.00001697   -0.00006166   -0.00009713
     atom   41 type  2   force =    -0.00068889    0.00010531    0.00033161
     atom   42 type  2   force =     0.00006544    0.00000950   -0.00022926
     atom   43 type  1   force =    -0.00042891   -0.00041990    0.00665034
     atom   44 type  1   force =    -0.00014957    0.00034631    0.00050314
     atom   45 type  2   force =     0.00002005   -0.00001577    0.10296101
     atom   46 type  2   force =    -0.07214843   -0.00008722   -0.02724886
     atom   47 type  2   force =     0.07200405    0.00035162   -0.02729080
     atom   48 type  3   force =     0.00059222   -0.00048351   -0.00038040
     atom   49 type  3   force =    -0.00068228    0.00006430   -0.00011790
     atom   50 type  4   force =     0.00030927   -0.00024410    0.00027963
     atom   51 type  5   force =    -0.00030142    0.00023919    0.00004367
     atom   52 type  5   force =    -0.00010497   -0.00080708   -0.00001468
     atom   53 type  5   force =     0.00018977   -0.00053472   -0.00003855
     atom   54 type  5   force =     0.00013580    0.00018705   -0.00045923
     atom   55 type  5   force =    -0.00022200    0.00033516    0.00049117
     atom   56 type  5   force =     0.00032130    0.00024003   -0.00023508
     atom   57 type  2   force =     0.00473587   -0.00505647   -0.01082415
     atom   58 type  5   force =    -0.00466727    0.00495337    0.00321145

     Total force =     0.362080     Total SCF correction =     0.000375
  @ DRIVER MODE: Message from server: STATUS
  @ DRIVER MODE: Message from server: GETFORCE
  @ DRIVER MODE: Returning v,forces,stress,ensemble

     Writing output data file ./calc.save/
  @ DRIVER MODE: Message from server: EXIT
  @ DRIVE MODE: Exiting

     General routines

     Parallel routines

   This run was terminated on:  12: 9:47  24Sep2021

   JOB DONE.