     Program PWSCF v.6.7GPU starts on 14Sep2021 at 16:58:52

     R & G space division:  proc/nbgrp/npool/nimage =      10
     Reading input from /storage/home/hcoda1/3/ntian30/research/carbon/CxH_vib/CH2_calc/ads_slab/CH2ON2_b/out_0010/pw.inp
Warning: card &CELL ignored
Warning: card   CELL_DYNAMICS='IPI', ignored
Warning: card / ignored

     Current dimensions of program PWSCF are:
     Max number of different atomic species (ntypx) = 10
     Max number of k-points (npk) =  40000
     Max angular momentum in pseudopotentials (lmaxx) =  3
     Presently no symmetry can be used with electric field

     Message from routine cell_base_init:
     DEPRECATED: use true lattice parameter, not A to a.u. conversion factor

     IMPORTANT: XC functional enforced from input :
     Exchange-correlation= BEEF-VDW
                           (   1   4  43  14   2   0   0)
     Any further DFT definition will be discarded
     Please, verify this is what you really want

  @ DRIVER MODE: Connecting to
 qe_1139763_2840441.sched-torque.pace.gatech.edup9prwx9j_scratch
  using UNIX socket
  @ DRIVER MODE: Message from server: STATUS
  @ DRIVER MODE: Message from server: INIT
  @ DRIVER MODE: Receiving replica           0          -1
  @ DRIVER MODE: Receiving encoded integer          25
  @ DRIVER MODE:  SCF:  T  FORCE:  T  STRESS:  F  VC:  F  ENSEMBLE:  F
  @ DRIVER MODE:  SCF:  T  FORCE:  T  STRESS:  F  VC:  F  ENSEMBLE:  F

     Using Slab Decomposition

     bravais-lattice index     =            0
     lattice parameter (alat)  =       1.8897  a.u.
     unit-cell volume          =    6658.9804 (a.u.)^3
     number of atoms/cell      =           53
     number of atomic types    =            5
     number of electrons       =       400.00
     number of Kohn-Sham states=          210
     kinetic-energy cutoff     =      29.3995  Ry
     charge density cutoff     =     293.9946  Ry
     scf convergence threshold =      7.3E-08
     mixing beta               =       0.0500
     number of iterations used =            8  plain     mixing
     Exchange-correlation= BEEF-VDW
                           (   1   4  43  14   2   0   0)

     celldm(1)=   1.889726  celldm(2)=   0.000000  celldm(3)=   0.000000
     celldm(4)=   0.000000  celldm(5)=   0.000000  celldm(6)=   0.000000

     crystal axes: (cart. coord. in units of alat)
               a(1) = (   6.579727   0.000000   0.000000 )
               a(2) = (  -0.000775   5.961596   0.000000 )
               a(3) = (   0.000000   0.000000  25.155947 )

     reciprocal axes: (cart. coord. in units 2 pi/alat)
               b(1) = (  0.151982  0.000020  0.000000 )
               b(2) = (  0.000000  0.167740  0.000000 )
               b(3) = (  0.000000  0.000000  0.039752 )

     PseudoPot. # 1 for C  read from file:
     /storage/coda1/p-amedford6/0/shared/rich_project_chbe-medford/medford-share/data/pseudos_module/espresso/nninc/pbe/van/C.UPF
     MD5 check sum: 1a69bf6b8db32088f5b2163dbdb77a27
     Pseudo is Ultrasoft, Zval =  4.0
     Generated by new atomic code, or converted to UPF format
     Using radial grid of  721 points,  4 beta functions with:
                l(1) =   0
                l(2) =   0
                l(3) =   1
                l(4) =   1
     Q(r) pseudized with  8 coefficients,  rinner =    0.800   0.800   0.800

     PseudoPot. # 2 for H  read from file:
     /storage/coda1/p-amedford6/0/shared/rich_project_chbe-medford/medford-share/data/pseudos_module/espresso/nninc/pbe/van/H.UPF
     MD5 check sum: b5ee9d7bfd3a09ee7748110bda690ff7
     Pseudo is Ultrasoft, Zval =  1.0
     Generated by new atomic code, or converted to UPF format
     Using radial grid of  615 points,  1 beta functions with:
                l(1) =   0
     Q(r) pseudized with  8 coefficients,  rinner =    0.800

     PseudoPot. # 3 for O  read from file:
     /storage/coda1/p-amedford6/0/shared/rich_project_chbe-medford/medford-share/data/pseudos_module/espresso/nninc/pbe/van/O.UPF
     MD5 check sum: 78c19812648e8988a0fe644b0f25305e
     Pseudo is Ultrasoft, Zval =  6.0
     Generated by new atomic code, or converted to UPF format
     Using radial grid of  737 points,  4 beta functions with:
                l(1) =   0
                l(2) =   0
                l(3) =   1
                l(4) =   1
     Q(r) pseudized with  8 coefficients,  rinner =    0.800   0.800   0.800

     PseudoPot. # 4 for Ti read from file:
     /storage/coda1/p-amedford6/0/shared/rich_project_chbe-medford/medford-share/data/pseudos_module/espresso/nninc/pbe/van/Ti.UPF
     MD5 check sum: 8e4df49b7f0d34bbd5052bf3f5ea0213
     Pseudo is Ultrasoft, Zval = 12.0
     Generated by new atomic code, or converted to UPF format
     Using radial grid of  851 points,  6 beta functions with:
                l(1) =   0
                l(2) =   0
                l(3) =   1
                l(4) =   1
                l(5) =   2
                l(6) =   2
     Q(r) pseudized with  8 coefficients,  rinner =    1.000   1.000   1.000
                                                       1.000   1.000

     PseudoPot. # 5 for N  read from file:
     /storage/coda1/p-amedford6/0/shared/rich_project_chbe-medford/medford-share/data/pseudos_module/espresso/nninc/pbe/van/N.UPF
     MD5 check sum: 90d10febe142ad51ac9d5be1deb811c4
     Pseudo is Ultrasoft, Zval =  5.0
     Generated by new atomic code, or converted to UPF format
     Using radial grid of  729 points,  4 beta functions with:
                l(1) =   0
                l(2) =   0
                l(3) =   1
                l(4) =   1
     Q(r) pseudized with  8 coefficients,  rinner =    0.800   0.800   0.800

     atomic species   valence    mass     pseudopotential
        C1             4.00    12.01100     C ( 1.00)
        H1             1.00     1.00800     H ( 1.00)
        O1             6.00    15.99900     O ( 1.00)
        Ti1           12.00    47.86700     Ti( 1.00)
        N1             5.00    14.00700     N ( 1.00)

     No symmetry found

   Cartesian axes

     site n.     atom                  positions (alat units)
         1           C1  tau(   1) = (   6.4247902   2.9910588  18.6917704  )
         2           H1  tau(   2) = (   6.3980358   3.9338040  19.2291268  )
         3           H1  tau(   3) = (   6.3671137   2.0386567  19.2103458  )
         4           O1  tau(   4) = (   3.2904802   0.0005063   4.7018136  )
         5           O1  tau(   5) = (   3.2900926   2.9813045   4.7018136  )
         6           O1  tau(   6) = (   1.3043587   1.4918075   6.0039043  )
         7           O1  tau(   7) = (   1.3039711   4.4726057   6.0039043  )
         8           O1  tau(   8) = (   5.2767064   1.4903225   6.0039473  )
         9           O1  tau(   9) = (   5.2763189   4.4711207   6.0039473  )
        10           O1  tau(  10) = (   3.2906025   0.0005020   7.3038282  )
        11           O1  tau(  11) = (   3.2902150   2.9813002   7.3038282  )
        12           O1  tau(  12) = (   0.0006271   0.0005054   7.9858123  )
        13           O1  tau(  13) = (   0.0002396   2.9813036   7.9858123  )
        14           O1  tau(  14) = (   4.5942328   1.4918067   9.2879030  )
        15           O1  tau(  15) = (   4.5938453   4.4726049   9.2879030  )
        16           O1  tau(  16) = (   1.9868534   1.4903216   9.2879459  )
        17           O1  tau(  17) = (   1.9864658   4.4711199   9.2879459  )
        18           O1  tau(  18) = (   0.0058113   2.9878523  10.5832334  )
        19           O1  tau(  19) = (   0.0062988   0.0093020  10.6005518  )
        20           O1  tau(  20) = (   3.2955317   2.9954032  11.3404818  )
        21           O1  tau(  21) = (   3.2944299   0.0136787  11.3445968  )
        22           O1  tau(  22) = (   5.2904553   1.5027675  12.6317203  )
        23           O1  tau(  23) = (   5.2914467   4.4836083  12.6349631  )
        24           O1  tau(  24) = (   1.2933861   1.5040032  12.6362007  )
        25           O1  tau(  25) = (   1.2922507   4.4849626  12.6395598  )
        26           O1  tau(  26) = (   3.2955364   2.9961609  13.9180299  )
        27           O1  tau(  27) = (   3.2969677   0.0155663  13.9438287  )
        28           O1  tau(  28) = (   0.0016464   0.0229801  14.6780835  )
        29           O1  tau(  29) = (   0.0078505   2.9966620  14.7218711  )
        30           O1  tau(  30) = (   4.5417949   4.4807699  16.1031406  )
        31           O1  tau(  31) = (   4.5422182   1.5234006  16.1020929  )
        32           O1  tau(  32) = (   2.0382733   4.4802786  16.1011463  )
        33           O1  tau(  33) = (   2.0385641   1.5240134  16.0993588  )
        34           O1  tau(  34) = (   6.5794991   0.0244991  17.1995468  )
        35           O1  tau(  35) = (   6.5588415   3.0026814  17.4289308  )
        36           Ti1 tau(  36) = (   0.0004258   2.9801865   6.0000000  )
        37           Ti1 tau(  37) = (   0.0000382   5.9609847   6.0000000  )
        38           Ti1 tau(  38) = (   3.2906075   1.4906267   6.0002472  )
        39           Ti1 tau(  39) = (   3.2902200   4.4714249   6.0002472  )
        40           Ti1 tau(  40) = (   3.2947477   0.0499856   9.1537742  )
        41           Ti1 tau(  41) = (   3.3215383   3.0289251   9.1580241  )
        42           Ti1 tau(  42) = (   0.0276872   4.5181110   9.2597866  )
        43           Ti1 tau(  43) = (   0.0223396   1.5961087   9.3523429  )
        44           Ti1 tau(  44) = (   3.3278215   4.4891914  12.4850086  )
        45           Ti1 tau(  45) = (   3.3277968   1.5111787  12.4828596  )
        46           Ti1 tau(  46) = (   0.0250534   0.0277200  12.4935153  )
        47           Ti1 tau(  47) = (   0.0290128   3.0118426  12.7617797  )
        48           Ti1 tau(  48) = (   3.2948489   3.0033751  15.7103116  )
        49           Ti1 tau(  49) = (   3.2995243   0.0326186  15.7353524  )
        50           Ti1 tau(  50) = (   0.0095488   1.4190105  15.9501391  )
        51           Ti1 tau(  51) = (   0.0117608   4.6113996  15.9785021  )
        52           N1  tau(  52) = (   3.7826193   3.0501191  20.3090129  )
        53           N1  tau(  53) = (   2.7364546   2.9530354  19.9655958  )

     number of k points=    10  Fermi-Dirac smearing, width (Ry)=  0.0073
                       cart. coord. in units 2pi/alat
        k(    1) = (   0.0000000   0.0000000   0.0000000), wk =   0.1250000
        k(    2) = (   0.0000000   0.0419351   0.0000000), wk =   0.2500000
        k(    3) = (   0.0000000  -0.0838702   0.0000000), wk =   0.1250000
        k(    4) = (   0.0379955   0.0000049   0.0000000), wk =   0.2500000
        k(    5) = (   0.0379955   0.0419400   0.0000000), wk =   0.2500000
        k(    6) = (   0.0379955  -0.0838652   0.0000000), wk =   0.2500000
        k(    7) = (   0.0379955  -0.0419301   0.0000000), wk =   0.2500000
        k(    8) = (  -0.0759910  -0.0000099   0.0000000), wk =   0.1250000
        k(    9) = (  -0.0759910   0.0419252   0.0000000), wk =   0.2500000
        k(   10) = (  -0.0759910  -0.0838800   0.0000000), wk =   0.1250000

     Initial potential from superposition of free atoms

     starting charge  383.99917, renormalised to  400.00000

     negative rho (up, down):  1.497E-02 0.000E+00

     %%%%%%%%%%%%%%%%%%%%%%%%%%%%%%%%%%%%%%%%%%%%%%%%%%%%%%%%%%%%%%%%%%%%%%%%
     %                                                                      %
     % You are using vdW-DF, which was implemented by the Thonhauser group. %
     % Please cite the following two papers that made this development      %
     % possible and the two reviews that describe the various versions:     %
     %                                                                      %
     %   T. Thonhauser et al., PRL 115, 136402 (2015).                      %
     %   T. Thonhauser et al., PRB 76, 125112 (2007).                       %
     %   K. Berland et al., Rep. Prog. Phys. 78, 066501 (2015).             %
     %   D.C. Langreth et al., J. Phys.: Condens. Matter 21, 084203 (2009). %
     %                                                                      %
     %                                                                      %
     % If you are calculating the stress with vdW-DF, please also cite:     %
     %                                                                      %
     %   R. Sabatini et al., J. Phys.: Condens. Matter 24, 424209 (2012).   %
     %                                                                      %
     %%%%%%%%%%%%%%%%%%%%%%%%%%%%%%%%%%%%%%%%%%%%%%%%%%%%%%%%%%%%%%%%%%%%%%%%

     Adding external electric field

     Computed dipole along edir(3) :
        Dipole              -12.3567 Ry au,        -31.4077 Debye
        Dipole field         -0.0233 Ry au,

        Potential amp.        2.1616 Ry
        Total length         46.3494 bohr

     Starting wfcs are  302 atomic wfcs
  @ DRIVER MODE: Message from server: STATUS
  @ DRIVER MODE: Message from server: POSDATA
  @ DRIVER MODE: Reading and sharing cell
  @ DRIVER MODE: Reading and sharing positions
  @ DRIVER MODE: Received positions

     Self-consistent Calculation

     iteration #  1     ecut=    29.40 Ry     beta= 0.05
     Davidson diagonalization with overlap
     c_bands:  2 eigenvalues not converged
     c_bands:  2 eigenvalues not converged
     c_bands:  2 eigenvalues not converged
     c_bands:  2 eigenvalues not converged
     c_bands:  4 eigenvalues not converged
     c_bands:  1 eigenvalues not converged
     c_bands:  5 eigenvalues not converged
     c_bands:  1 eigenvalues not converged
     c_bands:  3 eigenvalues not converged
     ethr =  1.00E-05,  avg # of iterations = 23.3

[...]

     total energy              =   -2430.18848545 Ry
     estimated scf accuracy    <    6093.29890843 Ry

     iteration #  2     ecut=    29.40 Ry     beta= 0.05
     Davidson diagonalization with overlap
     ethr =  1.00E-02,  avg # of iterations = 22.3

[...]

     iteration # 65     ecut=    29.40 Ry     beta= 0.05
     Davidson diagonalization with overlap
     c_bands:  1 eigenvalues not converged
     ethr =  1.14E-09,  avg # of iterations =  8.2

[...]

     total energy              =   -2970.35119996 Ry
     estimated scf accuracy    <       0.00000011 Ry

     iteration # 77     ecut=    29.40 Ry     beta= 0.05
     Davidson diagonalization with overlap
     ethr =  2.76E-11,  avg # of iterations =  8.4

     negative rho (up, down):  1.508E-02 0.000E+00

     Adding external electric field

     Computed dipole along edir(3) :
        Dipole                0.9947 Ry au,          2.5283 Debye
        Dipole field          0.0019 Ry au,

        Potential amp.       -0.1740 Ry
        Total length         46.3494 bohr

     End of self-consistent calculation

          k = 0.0000 0.0000 0.0000 ( 18029 PWs)   bands (ev):

   -55.5221 -55.5127 -55.4850 -55.4763 -55.4179 -55.4005 -55.3757 -55.3119
   -55.3059 -55.2970 -55.2932 -55.2599 -55.2402 -55.2166 -54.5469 -54.5128
   -32.0836 -31.9949 -31.8958 -31.8858 -31.8325 -31.8266 -31.8203 -31.8005
   -31.7725 -31.7565 -31.7540 -31.7291 -31.7053 -31.6947 -31.6800 -31.6617
   -31.6468 -31.6464 -31.6371 -31.6167 -31.5971 -31.5929 -31.5845 -31.5790
   -31.5745 -31.5476 -31.5469 -31.5255 -31.5198 -31.5185 -31.4973 -31.4746
   -31.4696 -31.4497 -31.4379 -31.4375 -31.4301 -31.4221 -31.4036 -31.3992
   -31.3936 -31.3862 -30.9569 -30.8594 -30.8371 -30.7736 -30.6875 -30.5762
   -21.4045 -19.7412 -16.3056 -16.0051 -15.8639 -15.7330 -15.6764 -15.5649
   -15.4081 -15.3486 -15.2516 -15.2022 -15.1517 -15.1187 -15.1107 -15.0902
   -15.0788 -15.0548 -15.0519 -14.9843 -14.9732 -14.9369 -14.9239 -14.9235
   -14.8262 -14.7748 -14.7112 -14.6519 -14.5983 -14.5448 -14.5201 -13.0473
   -12.9289  -9.1235  -6.6670  -5.3887  -5.3871  -4.5586  -4.5480  -3.6546
    -3.4762  -3.4340  -3.4269  -3.3717  -3.3619  -3.2641  -3.1449  -3.1087
    -2.8239  -2.7348  -2.7013  -2.6881  -2.6796  -2.5504  -2.4897  -2.3723
    -2.3662  -2.3522  -2.3503  -2.3419  -2.2983  -2.2945  -2.2506  -2.2199
    -2.1345  -2.0735  -1.9637  -1.9530  -1.9276  -1.8650  -1.8318  -1.8092
    -1.8070  -1.7610  -1.7596  -1.7550  -1.7114  -1.6236  -1.5196  -1.4781
    -1.3794  -1.3518  -1.2366  -1.1066  -1.0273  -0.9872  -0.9343  -0.8840
    -0.8782  -0.8581  -0.8384  -0.8206  -0.8067  -0.6900  -0.5756  -0.5732
    -0.4720  -0.4193  -0.3938  -0.3812  -0.2821  -0.2641  -0.2565  -0.1787
    -0.0268  -0.0193  -0.0013   0.1129   0.1415   0.1583   0.2083   0.2297
     0.2715   0.2958   0.3485   0.4078   0.4113   0.4637   0.4720   0.4935
     0.5993   0.6577   0.6635   0.7219   0.7661   0.9517   0.9659   1.1067
     1.1651   1.3813   1.4781   1.5285   1.6471   2.0651   2.1242   3.6382
     3.6737   3.6940   3.7427   3.7751   3.8090   3.8735   4.0802   4.0978
     4.1000   4.1274

[...]

          k = 0.0380-0.0419 0.0000 ( 17876 PWs)   bands (ev):

[...]

          k =-0.0760-0.0000 0.0000 ( 17886 PWs)   bands (ev):

[...]

          k =-0.0760-0.0839 0.0000 ( 17948 PWs)   bands (ev):

   -55.5109 -55.4960 -55.4960 -55.4928 -55.4102 -55.3969 -55.3835 -55.3151
   -55.3019 -55.2912 -55.2770 -55.2765 -55.2461 -55.2200 -54.5303 -54.5293
   -31.8866 -31.8832 -31.8189 -31.8053 -31.8030 -31.8005 -31.7910 -31.7805
   -31.7686 -31.7436 -31.7274 -31.7146 -31.7020 -31.6629 -31.6510 -31.6447
   -31.6393 -31.6346 -31.6289 -31.6250 -31.6133 -31.6064 -31.6046 -31.6011
   -31.5978 -31.5956 -31.5779 -31.5716 -31.5435 -31.5339 -31.5295 -31.5158
   -31.5041 -31.4946 -31.4898 -31.4826 -31.4802 -31.4757 -31.4616 -31.4383
   -31.4245 -31.4140 -30.8504 -30.8492 -30.7702 -30.7694 -30.7310 -30.7301
   -21.4043 -19.7340 -15.7367 -15.7064 -15.6073 -15.4740 -15.4622 -15.4218
   -15.3811 -15.3222 -15.2721 -15.2572 -15.2247 -15.1930 -15.1915 -15.1565
   -15.1152 -15.0745 -15.0622 -15.0574 -15.0441 -14.9901 -14.9835 -14.9439
   -14.9254 -14.9186 -14.8742 -14.8667 -14.7921 -14.7518 -14.7296 -13.0314
   -13.0289  -9.1361  -6.6506  -5.3652  -5.3187  -4.5632  -4.5579  -3.5714
    -3.1697  -3.0262  -2.9899  -2.8310  -2.6957  -2.6842  -2.6299  -2.5400
    -2.5060  -2.4623  -2.4115  -2.3964  -2.3733  -2.3688  -2.3596  -2.3554
    -2.3474  -2.2963  -2.2777  -2.2424  -2.1866  -2.1790  -2.1658  -2.1592
    -2.1163  -2.1008  -2.0927  -2.0871  -2.0806  -2.0125  -1.9451  -1.8718
    -1.7816  -1.7411  -1.7192  -1.6831  -1.6473  -1.6121  -1.5906  -1.5728
    -1.4609  -1.4338  -1.2903  -1.2660  -1.2492  -1.2386  -1.1972  -1.1940
    -1.0608  -0.9837  -0.9735  -0.9499  -0.8966  -0.8613  -0.8170  -0.7915
    -0.7026  -0.6685  -0.6269  -0.5764  -0.4965  -0.4866  -0.4355  -0.4186
    -0.3382  -0.3235  -0.2926  -0.2890  -0.2234  -0.1774  -0.1043  -0.0970
    -0.0717   0.0363   0.0914   0.1040   0.2875   0.4600   0.4744   0.4851
     0.5970   0.6085   0.6536   0.7274   0.7387   0.8224   0.8783   0.9755
     0.9947   1.0043   1.0833   1.8371   1.8381   1.9277   1.9391   3.6352
     3.8545   3.8846   3.9078   3.9589   4.1156   4.1201   4.1331   4.1461
     4.2582   4.2764

     the Fermi energy is     3.6269 ev

!    total energy              =   -2970.35120872 Ry
     estimated scf accuracy    <       0.00000003 Ry
     smearing contrib. (-TS)   =      -0.03416771 Ry
     internal energy E=F+TS    =   -2970.31704102 Ry

     The total energy is F=E-TS. E is the sum of the following terms:
     one-electron contribution =  -23485.57758005 Ry
     hartree contribution      =   11835.42810501 Ry
     xc contribution           =    -491.50813042 Ry
     ewald contribution        =    9171.33869723 Ry
     electric field correction =       0.00186721 Ry

     convergence has been achieved in  77 iterations

     Forces acting on atoms (cartesian axes, Ry/au):

     atom    1 type  1   force =    -0.00028082    0.00014536   -0.00010997
     atom    2 type  2   force =    -0.00046552    0.00078949    0.00026409
     atom    3 type  2   force =     0.00016035   -0.00058298   -0.00027906
     atom    4 type  3   force =    -0.00007385    0.00002108    0.10426165
     atom    5 type  3   force =    -0.00005973   -0.00001485    0.10431758
     atom    6 type  3   force =    -0.06903093    0.00075775   -0.02907063
     atom    7 type  3   force =    -0.06858319   -0.00135545   -0.02907695
     atom    8 type  3   force =     0.06869574    0.00128707   -0.02914289
     atom    9 type  3   force =     0.06834938   -0.00097907   -0.02915066
     atom   10 type  3   force =     0.00016703    0.00039034    0.04597177
     atom   11 type  3   force =     0.00058487    0.00072063    0.04714902
     atom   12 type  3   force =     0.00031035   -0.00528998   -0.03192830
     atom   13 type  3   force =     0.00036046    0.00311375   -0.02590889
     atom   14 type  3   force =    -0.01815099   -0.00007336    0.00386954
     atom   15 type  3   force =    -0.01656859    0.00120707    0.00340731
     atom   16 type  3   force =     0.01841256   -0.00125594    0.00383887
     atom   17 type  3   force =     0.01756983    0.00141962    0.00327311
     atom   18 type  3   force =     0.00002292    0.00031336    0.00041698
     atom   19 type  3   force =     0.00003716   -0.00011614    0.00013851
     atom   20 type  3   force =    -0.00005771    0.00036738    0.00034928
     atom   21 type  3   force =    -0.00008307   -0.00030348   -0.00037883
     atom   22 type  3   force =     0.00036794    0.00029541    0.00031471
     atom   23 type  3   force =     0.00029862   -0.00026741    0.00026274
     atom   24 type  3   force =    -0.00035767    0.00036837    0.00018005
     atom   25 type  3   force =    -0.00026331   -0.00031070    0.00012617
     atom   26 type  3   force =    -0.00018077   -0.00009027    0.00030541
     atom   27 type  3   force =    -0.00013563    0.00077451    0.00017747
     atom   28 type  3   force =     0.00008019    0.00024591   -0.00019711
     atom   29 type  3   force =     0.00001485   -0.00017228   -0.00051657
     atom   30 type  3   force =    -0.00062302   -0.00011099   -0.00016906
     atom   31 type  3   force =    -0.00003512    0.00090917    0.00029564
     atom   32 type  3   force =     0.00068271   -0.00029320    0.00014779
     atom   33 type  3   force =     0.00037674    0.00091387    0.00050780
     atom   34 type  3   force =    -0.00015311    0.00068132    0.00087827
     atom   35 type  3   force =    -0.00034054   -0.00090176   -0.00026895
     atom   36 type  4   force =    -0.00025428   -0.00176747    0.10174354
     atom   37 type  4   force =    -0.00008613    0.00134726    0.11447464
     atom   38 type  4   force =    -0.00031768    0.00053474   -0.18033964
     atom   39 type  4   force =    -0.00021797   -0.00040144   -0.18062840
     atom   40 type  4   force =     0.00026300    0.00084281   -0.00111437
     atom   41 type  4   force =     0.00021242   -0.00079989   -0.00089888
     atom   42 type  4   force =    -0.00023104    0.00087338   -0.00020741
     atom   43 type  4   force =    -0.00017005   -0.00020664    0.00000896
     atom   44 type  4   force =     0.00000632   -0.00008914    0.00045948
     atom   45 type  4   force =     0.00005305    0.00005512    0.00023785
     atom   46 type  4   force =    -0.00017472    0.00047500   -0.00010302
     atom   47 type  4   force =    -0.00029946   -0.00038791    0.00042790
     atom   48 type  4   force =    -0.00057954    0.00535736    0.00088813
     atom   49 type  4   force =    -0.00051626   -0.00737715    0.00022464
     atom   50 type  4   force =     0.00020190    0.00018804   -0.00019195
     atom   51 type  4   force =     0.00024615   -0.00069170   -0.00048458
     atom   52 type  5   force =     0.00113757    0.00044192    0.00135674
     atom   53 type  5   force =    -0.00032139   -0.00099792   -0.00010949

     Total force =     0.374296     Total SCF correction =     0.000691
  @ DRIVER MODE: Message from server: STATUS
  @ DRIVER MODE: Message from server: GETFORCE
  @ DRIVER MODE: Returning v,forces,stress,ensemble

     Writing output data file ./calc.save/
  @ DRIVER MODE: Message from server: EXIT
  @ DRIVE MODE: Exiting

     General routines

     Parallel routines

   This run was terminated on:  17:19:43  14Sep2021

   JOB DONE.