     Program PWSCF v.6.7GPU starts on 24Sep2021 at  0: 3:13

     R & G space division:  proc/nbgrp/npool/nimage =       8
     Reading input from /storage/home/hcoda1/3/ntian30/research/carbon/CxH_vib/H2O_calc/ads_slab/CH3NHHO_a/out_0035/pw.inp
Warning: card &CELL ignored
Warning: card   CELL_DYNAMICS='IPI', ignored
Warning: card / ignored

     Current dimensions of program PWSCF are:
     Max number of different atomic species (ntypx) = 10
     Max number of k-points (npk) =  40000
     Max angular momentum in pseudopotentials (lmaxx) =  3
     Presently no symmetry can be used with electric field

     Message from routine cell_base_init:
     DEPRECATED: use true lattice parameter, not A to a.u. conversion factor

     IMPORTANT: XC functional enforced from input :
     Exchange-correlation= BEEF-VDW
                           (   1   4  43  14   2   0   0)
     Any further DFT definition will be discarded
     Please, verify this is what you really want

  @ DRIVER MODE: Connecting to
 qe_1139763_2947309.sched-torque.pace.gatech.eduwd8lksjx_scratch
  using UNIX socket
  @ DRIVER MODE: Message from server: STATUS
  @ DRIVER MODE: Message from server: INIT
  @ DRIVER MODE: Receiving replica           0          -1
  @ DRIVER MODE: Receiving encoded integer          25
  @ DRIVER MODE:  SCF:  T  FORCE:  T  STRESS:  F  VC:  F  ENSEMBLE:  F
  @ DRIVER MODE:  SCF:  T  FORCE:  T  STRESS:  F  VC:  F  ENSEMBLE:  F

     Using Slab Decomposition

     bravais-lattice index     =            0
     lattice parameter (alat)  =       1.8897  a.u.
     unit-cell volume          =    6658.9804 (a.u.)^3
     number of atoms/cell      =           55
     number of atomic types    =            5
     number of electrons       =       398.00
     number of Kohn-Sham states=          209
     kinetic-energy cutoff     =      29.3995  Ry
     charge density cutoff     =     293.9946  Ry
     scf convergence threshold =      7.3E-08
     mixing beta               =       0.0500
     number of iterations used =            8  plain     mixing
     Exchange-correlation= BEEF-VDW
                           (   1   4  43  14   2   0   0)

     celldm(1)=   1.889726  celldm(2)=   0.000000  celldm(3)=   0.000000
     celldm(4)=   0.000000  celldm(5)=   0.000000  celldm(6)=   0.000000

     crystal axes: (cart. coord. in units of alat)
               a(1) = (   6.579727   0.000000   0.000000 )
               a(2) = (  -0.000775   5.961596   0.000000 )
               a(3) = (   0.000000   0.000000  25.155947 )

     reciprocal axes: (cart. coord. in units 2 pi/alat)
               b(1) = (  0.151982  0.000020  0.000000 )
               b(2) = (  0.000000  0.167740  0.000000 )
               b(3) = (  0.000000  0.000000  0.039752 )

     PseudoPot. # 1 for Ti read from file:
     /storage/coda1/p-amedford6/0/shared/rich_project_chbe-medford/medford-share/data/pseudos_module/espresso/nninc/pbe/van/Ti.UPF
     MD5 check sum: 8e4df49b7f0d34bbd5052bf3f5ea0213
     Pseudo is Ultrasoft, Zval = 12.0
     Generated by new atomic code, or converted to UPF format
     Using radial grid of  851 points,  6 beta functions with:
                l(1) =   0
                l(2) =   0
                l(3) =   1
                l(4) =   1
                l(5) =   2
                l(6) =   2
     Q(r) pseudized with  8 coefficients,  rinner =    1.000   1.000   1.000
                                                       1.000   1.000

     PseudoPot. # 2 for O  read from file:
     /storage/coda1/p-amedford6/0/shared/rich_project_chbe-medford/medford-share/data/pseudos_module/espresso/nninc/pbe/van/O.UPF
     MD5 check sum: 78c19812648e8988a0fe644b0f25305e
     Pseudo is Ultrasoft, Zval =  6.0
     Generated by new atomic code, or converted to UPF format
     Using radial grid of  737 points,  4 beta functions with:
                l(1) =   0
                l(2) =   0
                l(3) =   1
                l(4) =   1
     Q(r) pseudized with  8 coefficients,  rinner =    0.800   0.800   0.800

     PseudoPot. # 3 for H  read from file:
     /storage/coda1/p-amedford6/0/shared/rich_project_chbe-medford/medford-share/data/pseudos_module/espresso/nninc/pbe/van/H.UPF
     MD5 check sum: b5ee9d7bfd3a09ee7748110bda690ff7
     Pseudo is Ultrasoft, Zval =  1.0
     Generated by new atomic code, or converted to UPF format
     Using radial grid of  615 points,  1 beta functions with:
                l(1) =   0
     Q(r) pseudized with  8 coefficients,  rinner =    0.800

     PseudoPot. # 4 for N  read from file:
     /storage/coda1/p-amedford6/0/shared/rich_project_chbe-medford/medford-share/data/pseudos_module/espresso/nninc/pbe/van/N.UPF
     MD5 check sum: 90d10febe142ad51ac9d5be1deb811c4
     Pseudo is Ultrasoft, Zval =  5.0
     Generated by new atomic code, or converted to UPF format
     Using radial grid of  729 points,  4 beta functions with:
                l(1) =   0
                l(2) =   0
                l(3) =   1
                l(4) =   1
     Q(r) pseudized with  8 coefficients,  rinner =    0.800   0.800   0.800

     PseudoPot. # 5 for C  read from file:
     /storage/coda1/p-amedford6/0/shared/rich_project_chbe-medford/medford-share/data/pseudos_module/espresso/nninc/pbe/van/C.UPF
     MD5 check sum: 1a69bf6b8db32088f5b2163dbdb77a27
     Pseudo is Ultrasoft, Zval =  4.0
     Generated by new atomic code, or converted to UPF format
     Using radial grid of  721 points,  4 beta functions with:
                l(1) =   0
                l(2) =   0
                l(3) =   1
                l(4) =   1
     Q(r) pseudized with  8 coefficients,  rinner =    0.800   0.800   0.800

     atomic species   valence    mass     pseudopotential
        Ti1           12.00    47.86700     Ti( 1.00)
        O1             6.00    15.99900     O ( 1.00)
        H1             1.00     1.00800     H ( 1.00)
        N1             5.00    14.00700     N ( 1.00)
        C1             4.00    12.01100     C ( 1.00)

     No symmetry found

   Cartesian axes

     site n.     atom                  positions (alat units)
         1           Ti1 tau(   1) = (   0.0004258   2.9801865   6.0000000  )
         2           Ti1 tau(   2) = (   3.2906075   1.4906267   6.0002472  )
         3           O1  tau(   3) = (   0.0006271   0.0005054   7.9858123  )
         4           O1  tau(   4) = (   3.2906025   0.0005020   7.3038282  )
         5           O1  tau(   5) = (   4.5942328   1.4918067   9.2879030  )
         6           O1  tau(   6) = (   1.9868534   1.4903216   9.2879459  )
         7           Ti1 tau(   7) = (   3.2907910   2.8959150   9.1758416  )
         8           Ti1 tau(   8) = (   0.0015273   1.4827037   9.2680791  )
         9           O1  tau(   9) = (   3.2831040   5.9360571  11.2641146  )
        10           O1  tau(  10) = (   0.0116148   5.9584955  10.6183126  )
        11           O1  tau(  11) = (   1.2851963   1.4867209  12.6255510  )
        12           O1  tau(  12) = (   5.2924406   1.4772461  12.6192171  )
        13           Ti1 tau(  13) = (   0.0036382   2.8404764  12.7021481  )
        14           Ti1 tau(  14) = (   3.2814461   1.2926050  12.6442039  )
        15           O1  tau(  15) = (   6.5789252   5.9354829  14.6389027  )
        16           O1  tau(  16) = (   3.2852549   0.0163589  13.8648689  )
        17           O1  tau(  17) = (   4.5445832   1.5164849  16.0197972  )
        18           O1  tau(  18) = (   2.0258823   1.4930055  16.0750729  )
        19           Ti1 tau(  19) = (   3.3156224   2.9699746  15.6194889  )
        20           Ti1 tau(  20) = (   0.0515760   1.3234122  16.0730098  )
        21           O1  tau(  21) = (   3.2904802   0.0005063   4.7018136  )
        22           O1  tau(  22) = (   6.5454194   5.9222349  17.1870725  )
        23           O1  tau(  23) = (   1.3043587   1.4918075   6.0039043  )
        24           O1  tau(  24) = (   5.2767064   1.4903225   6.0039473  )
        25           Ti1 tau(  25) = (   0.0000382   5.9609847   6.0000000  )
        26           Ti1 tau(  26) = (   3.2902200   4.4714249   6.0002472  )
        27           O1  tau(  27) = (   0.0002396   2.9813036   7.9858123  )
        28           O1  tau(  28) = (   3.2902150   2.9813002   7.3038282  )
        29           O1  tau(  29) = (   4.5938453   4.4726049   9.2879030  )
        30           O1  tau(  30) = (   1.9864658   4.4711199   9.2879459  )
        31           Ti1 tau(  31) = (   3.2891106   5.8743827   9.1763621  )
        32           Ti1 tau(  32) = (   0.0006254   4.4649316   9.2693709  )
        33           O1  tau(  33) = (   3.2861177   3.0127509  11.2320142  )
        34           O1  tau(  34) = (   0.0092240   2.9805883  10.6323155  )
        35           O1  tau(  35) = (   1.2872320   4.4646868  12.6147789  )
        36           O1  tau(  36) = (   5.2799320   4.4658550  12.6114028  )
        37           Ti1 tau(  37) = (   6.5510365   5.8261734  12.6423015  )
        38           Ti1 tau(  38) = (   3.2652589   4.3917841  12.4002916  )
        39           O1  tau(  39) = (   0.0003569   2.9920414  14.6539809  )
        40           O1  tau(  40) = (   3.2835110   2.9651371  13.8409569  )
        41           O1  tau(  41) = (   4.5245492   4.4030193  16.0142317  )
        42           O1  tau(  42) = (   2.0132503   4.4096711  16.0494848  )
        43           Ti1 tau(  43) = (   3.3389516   5.9588577  16.2858146  )
        44           Ti1 tau(  44) = (   0.0865397   4.4271626  15.8895714  )
        45           O1  tau(  45) = (   3.2900926   2.9813045   4.7018136  )
        46           O1  tau(  46) = (   1.3039711   4.4726057   6.0039043  )
        47           O1  tau(  47) = (   5.2763189   4.4711207   6.0039473  )
        48           H1  tau(  48) = (   5.5649379   3.0085428  17.7754687  )
        49           N1  tau(  49) = (   6.5266086   2.9804045  17.4451690  )
        50           C1  tau(  50) = (   0.8252436   3.0135910  18.6253707  )
        51           H1  tau(  51) = (   0.7415300   3.9712607  19.1474969  )
        52           H1  tau(  52) = (   0.5789590   2.2014881  19.3161603  )
        53           H1  tau(  53) = (   1.8636945   2.8847911  18.3211598  )
        54           O1  tau(  54) = (   3.4430348   5.9447220  18.1074838  )
        55           H1  tau(  55) = (   4.3135669   5.8364121  18.5244127  )

     number of k points=    10  Fermi-Dirac smearing, width (Ry)=  0.0073
                       cart. coord. in units 2pi/alat
        k(    1) = (   0.0000000   0.0000000   0.0000000), wk =   0.1250000
        k(    2) = (   0.0000000   0.0419351   0.0000000), wk =   0.2500000
        k(    3) = (   0.0000000  -0.0838702   0.0000000), wk =   0.1250000
        k(    4) = (   0.0379955   0.0000049   0.0000000), wk =   0.2500000
        k(    5) = (   0.0379955   0.0419400   0.0000000), wk =   0.2500000
        k(    6) = (   0.0379955  -0.0838652   0.0000000), wk =   0.2500000
        k(    7) = (   0.0379955  -0.0419301   0.0000000), wk =   0.2500000
        k(    8) = (  -0.0759910  -0.0000099   0.0000000), wk =   0.1250000
        k(    9) = (  -0.0759910   0.0419252   0.0000000), wk =   0.2500000
        k(   10) = (  -0.0759910  -0.0838800   0.0000000), wk =   0.1250000

     Initial potential from superposition of free atoms

     starting charge  381.99915, renormalised to  398.00000

     negative rho (up, down):  1.687E-02 0.000E+00

     %%%%%%%%%%%%%%%%%%%%%%%%%%%%%%%%%%%%%%%%%%%%%%%%%%%%%%%%%%%%%%%%%%%%%%%%
     %                                                                      %
     % You are using vdW-DF, which was implemented by the Thonhauser group. %
     % Please cite the following two papers that made this development      %
     % possible and the two reviews that describe the various versions:     %
     %                                                                      %
     %   T. Thonhauser et al., PRL 115, 136402 (2015).                      %
     %   T. Thonhauser et al., PRB 76, 125112 (2007).                       %
     %   K. Berland et al., Rep. Prog. Phys. 78, 066501 (2015).             %
     %   D.C. Langreth et al., J. Phys.: Condens. Matter 21, 084203 (2009). %
     %                                                                      %
     %                                                                      %
     % If you are calculating the stress with vdW-DF, please also cite:     %
     %                                                                      %
     %   R. Sabatini et al., J. Phys.: Condens. Matter 24, 424209 (2012).   %
     %                                                                      %
     %%%%%%%%%%%%%%%%%%%%%%%%%%%%%%%%%%%%%%%%%%%%%%%%%%%%%%%%%%%%%%%%%%%%%%%%

     Adding external electric field

     Computed dipole along edir(3) :
        Dipole               -8.7621 Ry au,        -22.2712 Debye
        Dipole field         -0.0165 Ry au,

        Potential amp.        1.5328 Ry
        Total length         46.3494 bohr

     Starting wfcs are  301 atomic wfcs
  @ DRIVER MODE: Message from server: STATUS
  @ DRIVER MODE: Message from server: POSDATA
  @ DRIVER MODE: Reading and sharing cell
  @ DRIVER MODE: Reading and sharing positions
  @ DRIVER MODE: Received positions

     Self-consistent Calculation

     iteration #  1     ecut=    29.40 Ry     beta= 0.05
     Davidson diagonalization with overlap
     c_bands:  1 eigenvalues not converged
     c_bands:  1 eigenvalues not converged
     c_bands:  1 eigenvalues not converged
     c_bands:  2 eigenvalues not converged
     ethr =  1.00E-05,  avg # of iterations = 18.0

[...]

     total energy              =   -2565.38693528 Ry
     estimated scf accuracy    <    4293.17864042 Ry

     iteration #  2     ecut=    29.40 Ry     beta= 0.05
     Davidson diagonalization with overlap
     ethr =  1.00E-02,  avg # of iterations = 22.6

[...]

     iteration # 50     ecut=    29.40 Ry     beta= 0.05
     Davidson diagonalization with overlap
     c_bands:  1 eigenvalues not converged
     ethr =  6.46E-07,  avg # of iterations =  5.3

[...]

     total energy              =   -2954.01287932 Ry
     estimated scf accuracy    <       0.00000011 Ry

     iteration # 73     ecut=    29.40 Ry     beta= 0.05
     Davidson diagonalization with overlap
     ethr =  2.72E-11,  avg # of iterations =  5.0

     negative rho (up, down):  1.731E-02 0.000E+00

     Adding external electric field

     Computed dipole along edir(3) :
        Dipole                0.2160 Ry au,          0.5491 Debye
        Dipole field          0.0004 Ry au,

        Potential amp.       -0.0378 Ry
        Total length         46.3494 bohr

     End of self-consistent calculation

          k = 0.0000 0.0000 0.0000 ( 18029 PWs)   bands (ev):

   -56.9293 -56.8958 -56.0284 -55.9936 -55.7932 -55.7252 -55.6381 -55.4806
   -55.4467 -55.4073 -55.3951 -55.3292 -55.3236 -55.2785 -55.1326 -55.0558
   -33.3484 -33.2012 -33.1731 -33.1078 -33.0176 -32.9755 -32.5112 -32.2689
   -32.2492 -32.2232 -32.1708 -32.1658 -32.1402 -32.0289 -32.0090 -31.9619
   -31.9450 -31.9298 -31.9131 -31.8904 -31.8884 -31.8667 -31.8597 -31.8286
   -31.8278 -31.8033 -31.7589 -31.7180 -31.6849 -31.6774 -31.6188 -31.6079
   -31.6044 -31.5884 -31.5763 -31.5472 -31.5268 -31.5211 -31.5076 -31.5009
   -31.4928 -31.4419 -31.3983 -31.3749 -31.3362 -31.3113 -31.3050 -31.2384
   -17.0356 -16.4901 -16.4456 -16.2471 -16.1444 -16.1246 -16.0871 -16.0378
   -15.8382 -15.7885 -15.7506 -15.6846 -15.5873 -15.4309 -15.3339 -15.1607
   -15.1111 -15.0801 -15.0620 -15.0560 -15.0500 -15.0373 -14.9823 -14.9263
   -14.8860 -14.8030 -14.7488 -14.6381 -14.4121 -14.3822 -13.9782 -13.8712
   -13.8090  -8.4808  -4.6093  -4.1071  -3.9725  -3.9417  -3.7800  -3.6267
    -3.5019  -3.4490  -3.4229  -3.3148  -3.2981  -3.2884  -3.1989  -3.0698
    -2.9991  -2.9878  -2.9177  -2.9025  -2.8732  -2.8572  -2.6963  -2.6641
    -2.5699  -2.5180  -2.4963  -2.4153  -2.4062  -2.3463  -2.2961  -2.2847
    -2.2619  -2.2030  -2.1993  -2.1281  -2.0982  -2.0251  -2.0002  -1.9687
    -1.9450  -1.8740  -1.7979  -1.7637  -1.6084  -1.5720  -1.5393  -1.5041
    -1.4876  -1.4070  -1.3367  -1.2544  -1.2203  -1.1531  -1.1046  -1.0647
    -1.0519  -0.9371  -0.9120  -0.8549  -0.7910  -0.7747  -0.7680  -0.7221
    -0.6080  -0.5300  -0.5190  -0.4973  -0.4351  -0.4150  -0.3775  -0.3533
    -0.2768  -0.2602  -0.1518  -0.0792  -0.0479  -0.0228   0.0780   0.1571
     0.1786   0.2207   0.2634   0.3063   0.3352   0.3790   0.4471   0.4948
     0.5180   0.5407   0.5697   0.6656   0.7164   0.7531   0.8090   0.8245
     0.8891   0.9598   0.9869   1.0757   1.1200   1.4858   1.6376   2.3640
     2.5346   2.8107   2.9840   3.2998   3.3498   3.3656   3.3671   3.6535
     3.7723

[...]

          k = 0.0380-0.0419 0.0000 ( 17876 PWs)   bands (ev):

[...]

          k =-0.0760-0.0000 0.0000 ( 17886 PWs)   bands (ev):

[...]

          k =-0.0760-0.0839 0.0000 ( 17948 PWs)   bands (ev):

   -56.9131 -56.9118 -56.0157 -56.0062 -55.7886 -55.7297 -55.6373 -55.4642
   -55.4630 -55.4032 -55.3957 -55.3329 -55.3224 -55.2773 -55.1340 -55.0570
   -33.1876 -33.1863 -33.1663 -33.1650 -33.0619 -33.0608 -32.3353 -32.3272
   -32.2106 -32.2010 -32.2000 -32.1942 -32.0922 -32.0465 -32.0221 -32.0078
   -31.9567 -31.9558 -31.9098 -31.8776 -31.8662 -31.8168 -31.8159 -31.7738
   -31.7351 -31.7027 -31.6842 -31.6826 -31.6789 -31.6748 -31.6454 -31.6444
   -31.6339 -31.6296 -31.6086 -31.5976 -31.5749 -31.5661 -31.5350 -31.5246
   -31.5159 -31.4836 -31.4375 -31.3998 -31.3745 -31.3407 -31.3133 -31.2660
   -16.4323 -16.3963 -16.3943 -16.3472 -16.3455 -16.0908 -16.0861 -15.8403
   -15.8084 -15.6872 -15.5341 -15.5048 -15.4674 -15.4178 -15.3717 -15.3017
   -15.2832 -15.2426 -15.2092 -15.1535 -15.1280 -15.0498 -15.0157 -14.9567
   -14.9207 -14.8318 -14.7850 -14.7788 -14.5584 -14.5423 -13.9758 -13.9752
   -13.8258  -8.4858  -4.0721  -3.9988  -3.4694  -3.4643  -3.4433  -3.4340
    -3.2196  -3.2140  -3.0463  -3.0033  -2.9840  -2.9419  -2.9267  -2.8396
    -2.8206  -2.7837  -2.7502  -2.7453  -2.7357  -2.7186  -2.6716  -2.6628
    -2.6226  -2.4858  -2.4709  -2.4515  -2.3926  -2.3288  -2.2976  -2.2466
    -2.2192  -2.2056  -2.1788  -2.1711  -2.1659  -2.1363  -2.1089  -1.9526
    -1.9069  -1.8090  -1.7768  -1.7515  -1.7302  -1.6756  -1.6722  -1.6423
    -1.6193  -1.5873  -1.5269  -1.4935  -1.4520  -1.3276  -1.3059  -1.2670
    -1.2486  -1.1900  -1.0932  -1.0043  -0.9911  -0.9482  -0.9289  -0.8829
    -0.8687  -0.8397  -0.7605  -0.7032  -0.5960  -0.5659  -0.5538  -0.5312
    -0.5010  -0.4587  -0.4113  -0.3429  -0.3275  -0.2084  -0.1396  -0.0937
    -0.0275   0.0385   0.0779   0.1182   0.1708   0.2664   0.2861   0.3603
     0.3744   0.4946   0.6033   0.6214   0.7742   0.8065   0.8753   0.9158
     0.9206   0.9311   0.9487   0.9601   1.0129   1.0891   1.5868   2.9555
     2.9585   3.0157   3.0216   3.3315   3.3324   3.4424   3.4442   3.7597
     3.7695

     the Fermi energy is     2.0646 ev

!    total energy              =   -2954.01289396 Ry
     estimated scf accuracy    <       0.00000003 Ry
     smearing contrib. (-TS)   =      -0.00173741 Ry
     internal energy E=F+TS    =   -2954.01115655 Ry

     The total energy is F=E-TS. E is the sum of the following terms:
     one-electron contribution =  -24214.51083264 Ry
     hartree contribution      =   12197.33812968 Ry
     xc contribution           =    -488.74772212 Ry
     ewald contribution        =    9551.90918045 Ry
     electric field correction =       0.00008808 Ry

     convergence has been achieved in  73 iterations

     Forces acting on atoms (cartesian axes, Ry/au):

     atom    1 type  1   force =     0.00017749   -0.00052667    0.12564674
     atom    2 type  1   force =     0.00000478    0.00026745   -0.15442906
     atom    3 type  2   force =     0.00002384   -0.00022333   -0.06670767
     atom    4 type  2   force =    -0.00001986    0.00008474    0.01672861
     atom    5 type  2   force =    -0.00391766   -0.00228971   -0.01290338
     atom    6 type  2   force =     0.00531463   -0.00149408   -0.01431292
     atom    7 type  1   force =    -0.00049483   -0.00698963    0.05721564
     atom    8 type  1   force =     0.00071655    0.00723176    0.09830355
     atom    9 type  2   force =     0.00002853    0.00009284   -0.00007000
     atom   10 type  2   force =    -0.00290058    0.00059285   -0.06191693
     atom   11 type  2   force =    -0.00001771   -0.00005747   -0.00001035
     atom   12 type  2   force =    -0.00006736    0.00015923    0.00016307
     atom   13 type  1   force =     0.00010646    0.00015685   -0.00011321
     atom   14 type  1   force =     0.00000974   -0.00006785    0.00010665
     atom   15 type  2   force =    -0.00002307    0.00005196   -0.00001492
     atom   16 type  2   force =     0.00005675    0.00014638   -0.00016145
     atom   17 type  2   force =    -0.00002428    0.00010392    0.00016871
     atom   18 type  2   force =    -0.00002741    0.00027785   -0.00005071
     atom   19 type  1   force =    -0.00003899    0.00000867    0.00006708
     atom   20 type  1   force =     0.00018932    0.00019285    0.00016247
     atom   21 type  2   force =     0.00006786    0.00021879    0.09778623
     atom   22 type  2   force =     0.00039196   -0.00000946    0.00004524
     atom   23 type  2   force =    -0.08273367    0.00009261   -0.03301336
     atom   24 type  2   force =     0.08268760    0.00051049   -0.03306017
     atom   25 type  1   force =     0.00010332   -0.00059614    0.12549318
     atom   26 type  1   force =     0.00000662   -0.00169688   -0.15484561
     atom   27 type  2   force =     0.00009050   -0.00076854   -0.06514150
     atom   28 type  2   force =     0.00004970    0.00188485    0.01157893
     atom   29 type  2   force =    -0.00251790    0.00468501   -0.01584966
     atom   30 type  2   force =     0.00368784    0.00502138   -0.01727807
     atom   31 type  1   force =    -0.00029248    0.00180288    0.04010302
     atom   32 type  1   force =     0.00091538   -0.01042286    0.09795908
     atom   33 type  2   force =    -0.00004392   -0.00002226    0.00013355
     atom   34 type  2   force =    -0.00229995    0.00077943   -0.07401008
     atom   35 type  2   force =     0.00010988    0.00002539    0.00002439
     atom   36 type  2   force =    -0.00009168   -0.00007776   -0.00002980
     atom   37 type  1   force =     0.00035151    0.00006204    0.00010175
     atom   38 type  1   force =     0.00012113   -0.00006239   -0.00028191
     atom   39 type  2   force =     0.00016756   -0.00010917   -0.00006375
     atom   40 type  2   force =     0.00001764    0.00003396   -0.00012612
     atom   41 type  2   force =    -0.00003580    0.00017510    0.00009056
     atom   42 type  2   force =    -0.00002265    0.00002765    0.00009475
     atom   43 type  1   force =     0.00022599   -0.00018206   -0.00006550
     atom   44 type  1   force =     0.00026224    0.00011230    0.00022244
     atom   45 type  2   force =     0.00005007    0.00004446    0.09757611
     atom   46 type  2   force =    -0.08279332    0.00004995   -0.03302945
     atom   47 type  2   force =     0.08271853    0.00047846   -0.03304420
     atom   48 type  3   force =    -0.00035206    0.00004383   -0.00007170
     atom   49 type  4   force =    -0.00098925    0.00024856    0.00026655
     atom   50 type  5   force =     0.00283452   -0.00100315   -0.00243398
     atom   51 type  3   force =     0.00040282    0.00006077    0.00005440
     atom   52 type  3   force =     0.00050086    0.00038822   -0.00016669
     atom   53 type  3   force =    -0.00265409    0.00068404    0.00313375
     atom   54 type  2   force =     0.00034806   -0.00062791    0.00086993
     atom   55 type  3   force =    -0.00038117    0.00042979   -0.00089421

     Total force =     0.417210     Total SCF correction =     0.000449
  @ DRIVER MODE: Message from server: STATUS
  @ DRIVER MODE: Message from server: GETFORCE
  @ DRIVER MODE: Returning v,forces,stress,ensemble

     Writing output data file ./calc.save/
  @ DRIVER MODE: Message from server: EXIT
  @ DRIVE MODE: Exiting

     General routines

     Parallel routines

   This run was terminated on:   0:28:34  24Sep2021

   JOB DONE.