     Program PWSCF v.6.7GPU starts on 14Sep2021 at 16:25:45

     R & G space division:  proc/nbgrp/npool/nimage =      10
     Reading input from /storage/home/hcoda1/3/ntian30/research/carbon/CxH_vib/CH2_calc/ads_slab/CH2OHN2_a/out_0008/pw.inp
Warning: card &CELL ignored
Warning: card   CELL_DYNAMICS='IPI', ignored
Warning: card / ignored

     Current dimensions of program PWSCF are:
     Max number of different atomic species (ntypx) = 10
     Max number of k-points (npk) =  40000
     Max angular momentum in pseudopotentials (lmaxx) =  3
     Presently no symmetry can be used with electric field

     Message from routine cell_base_init:
     DEPRECATED: use true lattice parameter, not A to a.u. conversion factor

     IMPORTANT: XC functional enforced from input :
     Exchange-correlation= BEEF-VDW
                           (   1   4  43  14   2   0   0)
     Any further DFT definition will be discarded
     Please, verify this is what you really want

  @ DRIVER MODE: Connecting to
 qe_1139763_2840440.sched-torque.pace.gatech.edumqyvwhbm_scratch
  using UNIX socket
  @ DRIVER MODE: Message from server: STATUS
  @ DRIVER MODE: Message from server: INIT
  @ DRIVER MODE: Receiving replica           0          -1
  @ DRIVER MODE: Receiving encoded integer          25
  @ DRIVER MODE:  SCF:  T  FORCE:  T  STRESS:  F  VC:  F  ENSEMBLE:  F
  @ DRIVER MODE:  SCF:  T  FORCE:  T  STRESS:  F  VC:  F  ENSEMBLE:  F

     Using Slab Decomposition

     bravais-lattice index     =            0
     lattice parameter (alat)  =       1.8897  a.u.
     unit-cell volume          =    6658.9804 (a.u.)^3
     number of atoms/cell      =           54
     number of atomic types    =            5
     number of electrons       =       401.00
     number of Kohn-Sham states=          210
     kinetic-energy cutoff     =      29.3995  Ry
     charge density cutoff     =     293.9946  Ry
     scf convergence threshold =      7.3E-08
     mixing beta               =       0.0500
     number of iterations used =            8  plain     mixing
     Exchange-correlation= BEEF-VDW
                           (   1   4  43  14   2   0   0)

     celldm(1)=   1.889726  celldm(2)=   0.000000  celldm(3)=   0.000000
     celldm(4)=   0.000000  celldm(5)=   0.000000  celldm(6)=   0.000000

     crystal axes: (cart. coord. in units of alat)
               a(1) = (   6.579727   0.000000   0.000000 )
               a(2) = (  -0.000775   5.961596   0.000000 )
               a(3) = (   0.000000   0.000000  25.155947 )

     reciprocal axes: (cart. coord. in units 2 pi/alat)
               b(1) = (  0.151982  0.000020  0.000000 )
               b(2) = (  0.000000  0.167740  0.000000 )
               b(3) = (  0.000000  0.000000  0.039752 )

     PseudoPot. # 1 for C  read from file:
     /storage/coda1/p-amedford6/0/shared/rich_project_chbe-medford/medford-share/data/pseudos_module/espresso/nninc/pbe/van/C.UPF
     MD5 check sum: 1a69bf6b8db32088f5b2163dbdb77a27
     Pseudo is Ultrasoft, Zval =  4.0
     Generated by new atomic code, or converted to UPF format
     Using radial grid of  721 points,  4 beta functions with:
                l(1) =   0
                l(2) =   0
                l(3) =   1
                l(4) =   1
     Q(r) pseudized with  8 coefficients,  rinner =    0.800   0.800   0.800

     PseudoPot. # 2 for H  read from file:
     /storage/coda1/p-amedford6/0/shared/rich_project_chbe-medford/medford-share/data/pseudos_module/espresso/nninc/pbe/van/H.UPF
     MD5 check sum: b5ee9d7bfd3a09ee7748110bda690ff7
     Pseudo is Ultrasoft, Zval =  1.0
     Generated by new atomic code, or converted to UPF format
     Using radial grid of  615 points,  1 beta functions with:
                l(1) =   0
     Q(r) pseudized with  8 coefficients,  rinner =    0.800

     PseudoPot. # 3 for O  read from file:
     /storage/coda1/p-amedford6/0/shared/rich_project_chbe-medford/medford-share/data/pseudos_module/espresso/nninc/pbe/van/O.UPF
     MD5 check sum: 78c19812648e8988a0fe644b0f25305e
     Pseudo is Ultrasoft, Zval =  6.0
     Generated by new atomic code, or converted to UPF format
     Using radial grid of  737 points,  4 beta functions with:
                l(1) =   0
                l(2) =   0
                l(3) =   1
                l(4) =   1
     Q(r) pseudized with  8 coefficients,  rinner =    0.800   0.800   0.800

     PseudoPot. # 4 for Ti read from file:
     /storage/coda1/p-amedford6/0/shared/rich_project_chbe-medford/medford-share/data/pseudos_module/espresso/nninc/pbe/van/Ti.UPF
     MD5 check sum: 8e4df49b7f0d34bbd5052bf3f5ea0213
     Pseudo is Ultrasoft, Zval = 12.0
     Generated by new atomic code, or converted to UPF format
     Using radial grid of  851 points,  6 beta functions with:
                l(1) =   0
                l(2) =   0
                l(3) =   1
                l(4) =   1
                l(5) =   2
                l(6) =   2
     Q(r) pseudized with  8 coefficients,  rinner =    1.000   1.000   1.000
                                                       1.000   1.000

     PseudoPot. # 5 for N  read from file:
     /storage/coda1/p-amedford6/0/shared/rich_project_chbe-medford/medford-share/data/pseudos_module/espresso/nninc/pbe/van/N.UPF
     MD5 check sum: 90d10febe142ad51ac9d5be1deb811c4
     Pseudo is Ultrasoft, Zval =  5.0
     Generated by new atomic code, or converted to UPF format
     Using radial grid of  729 points,  4 beta functions with:
                l(1) =   0
                l(2) =   0
                l(3) =   1
                l(4) =   1
     Q(r) pseudized with  8 coefficients,  rinner =    0.800   0.800   0.800

     atomic species   valence    mass     pseudopotential
        C1             4.00    12.01100     C ( 1.00)
        H1             1.00     1.00800     H ( 1.00)
        O1             6.00    15.99900     O ( 1.00)
        Ti1           12.00    47.86700     Ti( 1.00)
        N1             5.00    14.00700     N ( 1.00)

     No symmetry found

   Cartesian axes

     site n.     atom                  positions (alat units)
         1           C1  tau(   1) = (   5.1764158   1.5385028  19.8564928  )
         2           H1  tau(   2) = (   4.2418317   1.4168958  19.3325039  )
         3           H1  tau(   3) = (   6.1328006   2.9100337  18.2018079  )
         4           H1  tau(   4) = (   6.0297582   0.9181690  19.6386741  )
         5           O1  tau(   5) = (   0.0006271   0.0005054   7.9858123  )
         6           O1  tau(   6) = (   3.2906025   0.0005020   7.3038282  )
         7           O1  tau(   7) = (   4.5942328   1.4918067   9.2879030  )
         8           O1  tau(   8) = (   1.9868534   1.4903216   9.2879459  )
         9           O1  tau(   9) = (   3.2696825   0.0177092  11.3460806  )
        10           O1  tau(  10) = (   6.5743896   0.0111799  10.6115589  )
        11           O1  tau(  11) = (   1.2770957   1.5070501  12.6511825  )
        12           O1  tau(  12) = (   5.2749141   1.5057152  12.6378801  )
        13           O1  tau(  13) = (   6.5263050   0.0247340  14.7317399  )
        14           O1  tau(  14) = (   3.2747511   0.0213673  13.9312909  )
        15           O1  tau(  15) = (   4.4933390   1.5239927  16.1070736  )
        16           O1  tau(  16) = (   2.0026543   1.5217075  16.0711130  )
        17           O1  tau(  17) = (   3.2904802   0.0005063   4.7018136  )
        18           O1  tau(  18) = (   6.5469758   0.0421337  17.2556835  )
        19           O1  tau(  19) = (   1.3043587   1.4918075   6.0039043  )
        20           O1  tau(  20) = (   5.2767064   1.4903225   6.0039473  )
        21           O1  tau(  21) = (   0.0002396   2.9813036   7.9858123  )
        22           O1  tau(  22) = (   3.2902150   2.9813002   7.3038282  )
        23           O1  tau(  23) = (   4.5938453   4.4726049   9.2879030  )
        24           O1  tau(  24) = (   1.9864658   4.4711199   9.2879459  )
        25           O1  tau(  25) = (   3.2722311   3.0011533  11.3472759  )
        26           O1  tau(  26) = (   6.5787409   2.9955660  10.5677177  )
        27           O1  tau(  27) = (   1.2755865   4.4883074  12.6550720  )
        28           O1  tau(  28) = (   5.2773609   4.4903743  12.6413705  )
        29           O1  tau(  29) = (   6.5451067   2.9841024  14.7029789  )
        30           O1  tau(  30) = (   3.2773495   3.0062142  13.9304278  )
        31           O1  tau(  31) = (   4.4941242   4.5002890  16.1165364  )
        32           O1  tau(  32) = (   2.0016379   4.5015838  16.0818063  )
        33           O1  tau(  33) = (   3.2900926   2.9813045   4.7018136  )
        34           O1  tau(  34) = (   1.3039711   4.4726057   6.0039043  )
        35           O1  tau(  35) = (   5.2763189   4.4711207   6.0039473  )
        36           O1  tau(  36) = (   6.5536212   3.0044252  17.3297899  )
        37           Ti1 tau(  37) = (   0.0004258   2.9801865   6.0000000  )
        38           Ti1 tau(  38) = (   3.2906075   1.4906267   6.0002472  )
        39           Ti1 tau(  39) = (   3.3348906   3.0327224   9.1579215  )
        40           Ti1 tau(  40) = (   0.0203972   1.6099837   9.3624797  )
        41           Ti1 tau(  41) = (   6.5380572   3.0081639  12.8251979  )
        42           Ti1 tau(  42) = (   3.2225065   1.5141752  12.4854623  )
        43           Ti1 tau(  43) = (   3.2525775   3.0161725  15.7233172  )
        44           Ti1 tau(  44) = (   6.5465844   1.4469101  15.9770741  )
        45           Ti1 tau(  45) = (   0.0000382   5.9609847   6.0000000  )
        46           Ti1 tau(  46) = (   3.2902200   4.4714249   6.0002472  )
        47           Ti1 tau(  47) = (   3.2831171   0.0558662   9.1532617  )
        48           Ti1 tau(  48) = (   0.0294011   4.5318189   9.2743274  )
        49           Ti1 tau(  49) = (   6.5260019   0.0223579  12.5245727  )
        50           Ti1 tau(  50) = (   3.2207252   4.4944464  12.4919313  )
        51           Ti1 tau(  51) = (   3.2545639   0.0336594  15.7221480  )
        52           Ti1 tau(  52) = (   6.5427997   4.6104004  16.1309301  )
        53           N1  tau(  53) = (   5.0796009   2.6163306  22.0446247  )
        54           N1  tau(  54) = (   5.1188049   2.0915644  21.0330699  )

     number of k points=    10  Fermi-Dirac smearing, width (Ry)=  0.0073
                       cart. coord. in units 2pi/alat
        k(    1) = (   0.0000000   0.0000000   0.0000000), wk =   0.1250000
        k(    2) = (   0.0000000   0.0419351   0.0000000), wk =   0.2500000
        k(    3) = (   0.0000000  -0.0838702   0.0000000), wk =   0.1250000
        k(    4) = (   0.0379955   0.0000049   0.0000000), wk =   0.2500000
        k(    5) = (   0.0379955   0.0419400   0.0000000), wk =   0.2500000
        k(    6) = (   0.0379955  -0.0838652   0.0000000), wk =   0.2500000
        k(    7) = (   0.0379955  -0.0419301   0.0000000), wk =   0.2500000
        k(    8) = (  -0.0759910  -0.0000099   0.0000000), wk =   0.1250000
        k(    9) = (  -0.0759910   0.0419252   0.0000000), wk =   0.2500000
        k(   10) = (  -0.0759910  -0.0838800   0.0000000), wk =   0.1250000

     Initial potential from superposition of free atoms

     starting charge  384.99916, renormalised to  401.00000

     negative rho (up, down):  1.196E-02 0.000E+00

     %%%%%%%%%%%%%%%%%%%%%%%%%%%%%%%%%%%%%%%%%%%%%%%%%%%%%%%%%%%%%%%%%%%%%%%%
     %                                                                      %
     % You are using vdW-DF, which was implemented by the Thonhauser group. %
     % Please cite the following two papers that made this development      %
     % possible and the two reviews that describe the various versions:     %
     %                                                                      %
     %   T. Thonhauser et al., PRL 115, 136402 (2015).                      %
     %   T. Thonhauser et al., PRB 76, 125112 (2007).                       %
     %   K. Berland et al., Rep. Prog. Phys. 78, 066501 (2015).             %
     %   D.C. Langreth et al., J. Phys.: Condens. Matter 21, 084203 (2009). %
     %                                                                      %
     %                                                                      %
     % If you are calculating the stress with vdW-DF, please also cite:     %
     %                                                                      %
     %   R. Sabatini et al., J. Phys.: Condens. Matter 24, 424209 (2012).   %
     %                                                                      %
     %%%%%%%%%%%%%%%%%%%%%%%%%%%%%%%%%%%%%%%%%%%%%%%%%%%%%%%%%%%%%%%%%%%%%%%%

     Adding external electric field

     Computed dipole along edir(3) :
        Dipole              -14.0962 Ry au,        -35.8290 Debye
        Dipole field         -0.0266 Ry au,

        Potential amp.        2.4659 Ry
        Total length         46.3494 bohr

     Starting wfcs are  303 atomic wfcs
  @ DRIVER MODE: Message from server: STATUS
  @ DRIVER MODE: Message from server: POSDATA
  @ DRIVER MODE: Reading and sharing cell
  @ DRIVER MODE: Reading and sharing positions
  @ DRIVER MODE: Received positions

     Self-consistent Calculation

     iteration #  1     ecut=    29.40 Ry     beta= 0.05
     Davidson diagonalization with overlap
     c_bands:  5 eigenvalues not converged
     c_bands:  4 eigenvalues not converged
     c_bands:  5 eigenvalues not converged
     c_bands:  2 eigenvalues not converged
     c_bands:  4 eigenvalues not converged
     c_bands:  4 eigenvalues not converged
     c_bands:  4 eigenvalues not converged
     c_bands:  4 eigenvalues not converged
     c_bands:  5 eigenvalues not converged
     ethr =  1.00E-05,  avg # of iterations = 22.0

[...]

     total energy              =   -2410.43006356 Ry
     estimated scf accuracy    <    6378.96911591 Ry

     iteration #  2     ecut=    29.40 Ry     beta= 0.05
     Davidson diagonalization with overlap
     ethr =  1.00E-02,  avg # of iterations = 23.8

[...]

     iteration # 60     ecut=    29.40 Ry     beta= 0.05
     Davidson diagonalization with overlap
     c_bands:  1 eigenvalues not converged
     c_bands:  2 eigenvalues not converged
     ethr =  7.48E-11,  avg # of iterations = 16.3

[...]

     total energy              =   -2971.53802306 Ry
     estimated scf accuracy    <       0.00000016 Ry

     iteration # 61     ecut=    29.40 Ry     beta= 0.05
     Davidson diagonalization with overlap
     ethr =  4.08E-11,  avg # of iterations = 12.1

     negative rho (up, down):  1.325E-02 0.000E+00

     Adding external electric field

     Computed dipole along edir(3) :
        Dipole                0.4410 Ry au,          1.1209 Debye
        Dipole field          0.0008 Ry au,

        Potential amp.       -0.0771 Ry
        Total length         46.3494 bohr

     End of self-consistent calculation

          k = 0.0000 0.0000 0.0000 ( 18029 PWs)   bands (ev):

   -55.7651 -55.7523 -55.7280 -55.7161 -55.6726 -55.6518 -55.6259 -55.5897
   -55.5895 -55.5797 -55.5383 -55.5149 -55.4813 -55.4151 -54.7756 -54.7415
   -32.3166 -32.2322 -32.1988 -32.1114 -32.0842 -32.0665 -32.0569 -32.0335
   -31.9946 -31.9904 -31.9755 -31.9673 -31.9620 -31.9333 -31.9254 -31.9218
   -31.9177 -31.8965 -31.8887 -31.8617 -31.8543 -31.8305 -31.8302 -31.8241
   -31.8050 -31.8009 -31.7825 -31.7759 -31.7711 -31.7689 -31.7616 -31.7541
   -31.7406 -31.7391 -31.7339 -31.6953 -31.6944 -31.6598 -31.6372 -31.6211
   -31.6038 -31.6009 -31.1852 -31.0884 -31.0660 -31.0019 -30.9159 -30.8047
   -20.7438 -16.9996 -16.4997 -16.2063 -16.0394 -15.9123 -15.8829 -15.7825
   -15.5919 -15.4569 -15.4400 -15.3663 -15.3316 -15.3261 -15.2942 -15.2843
   -15.2775 -15.2679 -15.2205 -15.1902 -15.1802 -15.1656 -15.1394 -15.0882
   -15.0406 -14.9680 -14.9189 -14.8810 -14.8603 -14.7623 -14.7433 -13.9465
   -13.2761 -13.1579  -6.5498  -5.5908  -4.9824  -4.5210  -3.8628  -3.6866
    -3.6702  -3.6519  -3.5690  -3.5146  -3.3256  -3.3103  -3.0090  -2.9344
    -2.9113  -2.8946  -2.8864  -2.7086  -2.6477  -2.5998  -2.5904  -2.5747
    -2.5721  -2.5486  -2.5289  -2.5181  -2.4901  -2.4693  -2.4608  -2.3229
    -2.2944  -2.1760  -2.1571  -2.1410  -2.0886  -2.0643  -2.0299  -2.0101
    -2.0040  -1.9853  -1.9656  -1.9303  -1.8452  -1.8206  -1.6963  -1.5911
    -1.5545  -1.4608  -1.3138  -1.2404  -1.2206  -1.1920  -1.1639  -1.1447
    -1.1020  -1.0766  -1.0244  -0.9622  -0.9558  -0.8525  -0.7790  -0.7417
    -0.6654  -0.6430  -0.6256  -0.5054  -0.4847  -0.4772  -0.3019  -0.2382
    -0.2319  -0.2262  -0.0979  -0.0559  -0.0220  -0.0072   0.0209   0.0515
     0.0972   0.1400   0.1982   0.2227   0.2350   0.2426   0.2653   0.2905
     0.4067   0.4266   0.4381   0.5524   0.5717   0.7612   0.7688   0.8854
     0.9859   1.1530   1.2490   1.3204   1.4200   1.7194   1.8378   1.8982
     3.4244   3.4540   3.4864   3.5037   3.5755   3.6983   3.8081   3.8613
     3.8832   3.9045

[...]

          k = 0.0380-0.0419 0.0000 ( 17876 PWs)   bands (ev):

[...]

          k =-0.0760-0.0000 0.0000 ( 17886 PWs)   bands (ev):

[...]

          k =-0.0760-0.0839 0.0000 ( 17948 PWs)   bands (ev):

   -55.7539 -55.7390 -55.7353 -55.7329 -55.6692 -55.6473 -55.6138 -55.6016
   -55.5942 -55.5829 -55.5355 -55.4989 -55.4973 -55.4175 -54.7590 -54.7579
   -32.1202 -32.1161 -32.0988 -32.0562 -32.0460 -32.0406 -32.0231 -32.0222
   -32.0155 -31.9783 -31.9544 -31.9468 -31.9429 -31.9101 -31.9053 -31.8968
   -31.8852 -31.8818 -31.8803 -31.8706 -31.8689 -31.8591 -31.8550 -31.8468
   -31.8444 -31.8225 -31.8178 -31.8128 -31.8061 -31.8031 -31.8016 -31.7823
   -31.7763 -31.7585 -31.7554 -31.7495 -31.7339 -31.7173 -31.7041 -31.6970
   -31.6455 -31.6103 -31.0794 -31.0781 -30.9986 -30.9978 -30.9594 -30.9585
   -20.7436 -16.9341 -15.9423 -15.9330 -15.6914 -15.6849 -15.6808 -15.6103
   -15.5260 -15.5049 -15.4833 -15.4792 -15.4293 -15.4156 -15.4039 -15.3413
   -15.3094 -15.2855 -15.2673 -15.2622 -15.2118 -15.2067 -15.1608 -15.1392
   -15.1199 -15.1147 -15.0907 -15.0866 -15.0468 -14.9863 -14.9172 -13.9464
   -13.2603 -13.2580  -6.5440  -5.5932  -4.9208  -4.5197  -3.5141  -3.2339
    -3.2227  -2.9577  -2.9085  -2.8955  -2.8140  -2.7506  -2.6852  -2.6470
    -2.6191  -2.6098  -2.6001  -2.5896  -2.5844  -2.5695  -2.5577  -2.5486
    -2.5251  -2.5133  -2.4577  -2.4378  -2.4126  -2.3937  -2.3855  -2.3751
    -2.3379  -2.3195  -2.3083  -2.2917  -2.2865  -2.2065  -2.0622  -2.0179
    -1.9194  -1.9008  -1.8903  -1.8487  -1.8266  -1.8101  -1.7951  -1.7450
    -1.7292  -1.5614  -1.4918  -1.4752  -1.4571  -1.4248  -1.3669  -1.2781
    -1.2479  -1.1737  -1.1666  -1.1251  -1.0657  -0.9901  -0.9672  -0.9259
    -0.8706  -0.8325  -0.7735  -0.7390  -0.7199  -0.7131  -0.6621  -0.6060
    -0.5659  -0.5063  -0.4818  -0.4178  -0.3776  -0.3413  -0.2845  -0.2587
    -0.2224  -0.1136  -0.0052   0.1290   0.1915   0.2675   0.2837   0.3096
     0.3286   0.4466   0.4790   0.5051   0.5483   0.6354   0.6891   0.7593
     0.7784   0.8058   0.8634   1.6095   1.6107   1.6999   1.7107   1.7228
     3.6224   3.6590   3.6762   3.7252   3.8831   3.8878   3.9064   3.9143
     3.9666   4.0457

     the Fermi energy is     3.3905 ev

!    total energy              =   -2971.53806022 Ry
     estimated scf accuracy    <       0.00000007 Ry
     smearing contrib. (-TS)   =      -0.02328032 Ry
     internal energy E=F+TS    =   -2971.51477990 Ry

     The total energy is F=E-TS. E is the sum of the following terms:
     one-electron contribution =  -22751.43681919 Ry
     hartree contribution      =   11466.79372629 Ry
     xc contribution           =    -492.33055122 Ry
     ewald contribution        =    8805.45849725 Ry
     electric field correction =       0.00036697 Ry

     convergence has been achieved in  61 iterations

     Forces acting on atoms (cartesian axes, Ry/au):

     atom    1 type  1   force =    -0.00064014    0.00094665    0.00071801
     atom    2 type  2   force =    -0.00045069    0.00082483   -0.00061905
     atom    3 type  2   force =    -0.00143118   -0.00070964   -0.00054154
     atom    4 type  2   force =     0.00082009   -0.00050314   -0.00027487
     atom    5 type  3   force =     0.00034311   -0.00680650   -0.03337938
     atom    6 type  3   force =    -0.00002473    0.00054602    0.04531912
     atom    7 type  3   force =    -0.02048308    0.00052564    0.00448609
     atom    8 type  3   force =     0.01814101   -0.00160156    0.00417753
     atom    9 type  3   force =    -0.00024233    0.00000161   -0.00006108
     atom   10 type  3   force =     0.00045426   -0.00005554    0.00014709
     atom   11 type  3   force =     0.00069611   -0.00027603   -0.00026334
     atom   12 type  3   force =     0.00134999    0.00000110   -0.00015671
     atom   13 type  3   force =     0.00067765   -0.00020095   -0.00008005
     atom   14 type  3   force =     0.00002409    0.00020842   -0.00003713
     atom   15 type  3   force =    -0.00025388   -0.00012803    0.00036964
     atom   16 type  3   force =     0.00026896   -0.00010427    0.00007255
     atom   17 type  3   force =     0.00003526    0.00006068    0.10414655
     atom   18 type  3   force =    -0.00012909    0.00012318    0.00065783
     atom   19 type  3   force =    -0.06901561    0.00070656   -0.02969444
     atom   20 type  3   force =     0.06879846    0.00126149   -0.02968276
     atom   21 type  3   force =     0.00040260    0.00379014   -0.02830838
     atom   22 type  3   force =     0.00085168    0.00084329    0.04701766
     atom   23 type  3   force =    -0.01799650    0.00140374    0.00373643
     atom   24 type  3   force =     0.01767388    0.00227407    0.00331909
     atom   25 type  3   force =    -0.00051197   -0.00020013    0.00008070
     atom   26 type  3   force =     0.00039482   -0.00003919    0.00033143
     atom   27 type  3   force =     0.00019461    0.00009740    0.00029276
     atom   28 type  3   force =     0.00085203   -0.00017459    0.00059264
     atom   29 type  3   force =     0.00037168   -0.00057841    0.00027302
     atom   30 type  3   force =    -0.00052116   -0.00034648    0.00039764
     atom   31 type  3   force =    -0.00037004   -0.00011297    0.00005498
     atom   32 type  3   force =    -0.00006519   -0.00019781   -0.00038064
     atom   33 type  3   force =     0.00004709    0.00003461    0.10421431
     atom   34 type  3   force =    -0.06859194   -0.00136590   -0.02972764
     atom   35 type  3   force =     0.06848373   -0.00098430   -0.02971229
     atom   36 type  3   force =     0.00113164    0.00049062    0.00017066
     atom   37 type  4   force =    -0.00000101   -0.00159156    0.10640950
     atom   38 type  4   force =    -0.00015170    0.00074439   -0.17960614
     atom   39 type  4   force =    -0.00033491    0.00004846   -0.00016425
     atom   40 type  4   force =    -0.00011231    0.00012188   -0.00008610
     atom   41 type  4   force =    -0.00369187    0.00054839   -0.00068373
     atom   42 type  4   force =     0.00270028    0.00002094    0.00019706
     atom   43 type  4   force =    -0.00006745   -0.00022812   -0.00051742
     atom   44 type  4   force =     0.00047816    0.00050055   -0.00048651
     atom   45 type  4   force =    -0.00000976    0.00121632    0.11834097
     atom   46 type  4   force =     0.00001173   -0.00035730   -0.17984495
     atom   47 type  4   force =     0.00046759    0.00004368   -0.00022885
     atom   48 type  4   force =    -0.00011815    0.00020277   -0.00037359
     atom   49 type  4   force =    -0.00403413    0.00068598   -0.00004101
     atom   50 type  4   force =     0.00290036    0.00011445   -0.00083176
     atom   51 type  4   force =     0.00048295   -0.00078241   -0.00014236
     atom   52 type  4   force =     0.00077478   -0.00102467    0.00044875
     atom   53 type  5   force =     0.00068168    0.00129976    0.00003327
     atom   54 type  5   force =    -0.00126147   -0.00131814   -0.00007933

     Total force =     0.376618     Total SCF correction =     0.000730
  @ DRIVER MODE: Message from server: STATUS
  @ DRIVER MODE: Message from server: GETFORCE
  @ DRIVER MODE: Returning v,forces,stress,ensemble

     Writing output data file ./calc.save/
  @ DRIVER MODE: Message from server: EXIT
  @ DRIVE MODE: Exiting

     General routines

     Parallel routines

   This run was terminated on:  16:43:15  14Sep2021

   JOB DONE.