     Program PWSCF v.6.7GPU starts on 14Sep2021 at 15:24:47

     R & G space division:  proc/nbgrp/npool/nimage =      10
     Reading input from /storage/home/hcoda1/3/ntian30/research/carbon/CxH_vib/CH2_calc/ads_slab/CH2OHN2_a/out_0005/pw.inp
Warning: card &CELL ignored
Warning: card   CELL_DYNAMICS='IPI', ignored
Warning: card / ignored

     Current dimensions of program PWSCF are:
     Max number of different atomic species (ntypx) = 10
     Max number of k-points (npk) =  40000
     Max angular momentum in pseudopotentials (lmaxx) =  3
     Presently no symmetry can be used with electric field

     Message from routine cell_base_init:
     DEPRECATED: use true lattice parameter, not A to a.u. conversion factor

     IMPORTANT: XC functional enforced from input :
     Exchange-correlation= BEEF-VDW
                           (   1   4  43  14   2   0   0)
     Any further DFT definition will be discarded
     Please, verify this is what you really want

  @ DRIVER MODE: Connecting to
 qe_1139763_2840440.sched-torque.pace.gatech.eduerlfxghc_scratch
  using UNIX socket
  @ DRIVER MODE: Message from server: STATUS
  @ DRIVER MODE: Message from server: INIT
  @ DRIVER MODE: Receiving replica           0          -1
  @ DRIVER MODE: Receiving encoded integer          25
  @ DRIVER MODE:  SCF:  T  FORCE:  T  STRESS:  F  VC:  F  ENSEMBLE:  F
  @ DRIVER MODE:  SCF:  T  FORCE:  T  STRESS:  F  VC:  F  ENSEMBLE:  F

     Using Slab Decomposition

     bravais-lattice index     =            0
     lattice parameter (alat)  =       1.8897  a.u.
     unit-cell volume          =    6658.9804 (a.u.)^3
     number of atoms/cell      =           54
     number of atomic types    =            5
     number of electrons       =       401.00
     number of Kohn-Sham states=          210
     kinetic-energy cutoff     =      29.3995  Ry
     charge density cutoff     =     293.9946  Ry
     scf convergence threshold =      7.3E-08
     mixing beta               =       0.0500
     number of iterations used =            8  plain     mixing
     Exchange-correlation= BEEF-VDW
                           (   1   4  43  14   2   0   0)

     celldm(1)=   1.889726  celldm(2)=   0.000000  celldm(3)=   0.000000
     celldm(4)=   0.000000  celldm(5)=   0.000000  celldm(6)=   0.000000

     crystal axes: (cart. coord. in units of alat)
               a(1) = (   6.579727   0.000000   0.000000 )
               a(2) = (  -0.000775   5.961596   0.000000 )
               a(3) = (   0.000000   0.000000  25.155947 )

     reciprocal axes: (cart. coord. in units 2 pi/alat)
               b(1) = (  0.151982  0.000020  0.000000 )
               b(2) = (  0.000000  0.167740  0.000000 )
               b(3) = (  0.000000  0.000000  0.039752 )

     PseudoPot. # 1 for C  read from file:
     /storage/coda1/p-amedford6/0/shared/rich_project_chbe-medford/medford-share/data/pseudos_module/espresso/nninc/pbe/van/C.UPF
     MD5 check sum: 1a69bf6b8db32088f5b2163dbdb77a27
     Pseudo is Ultrasoft, Zval =  4.0
     Generated by new atomic code, or converted to UPF format
     Using radial grid of  721 points,  4 beta functions with:
                l(1) =   0
                l(2) =   0
                l(3) =   1
                l(4) =   1
     Q(r) pseudized with  8 coefficients,  rinner =    0.800   0.800   0.800

     PseudoPot. # 2 for H  read from file:
     /storage/coda1/p-amedford6/0/shared/rich_project_chbe-medford/medford-share/data/pseudos_module/espresso/nninc/pbe/van/H.UPF
     MD5 check sum: b5ee9d7bfd3a09ee7748110bda690ff7
     Pseudo is Ultrasoft, Zval =  1.0
     Generated by new atomic code, or converted to UPF format
     Using radial grid of  615 points,  1 beta functions with:
                l(1) =   0
     Q(r) pseudized with  8 coefficients,  rinner =    0.800

     PseudoPot. # 3 for O  read from file:
     /storage/coda1/p-amedford6/0/shared/rich_project_chbe-medford/medford-share/data/pseudos_module/espresso/nninc/pbe/van/O.UPF
     MD5 check sum: 78c19812648e8988a0fe644b0f25305e
     Pseudo is Ultrasoft, Zval =  6.0
     Generated by new atomic code, or converted to UPF format
     Using radial grid of  737 points,  4 beta functions with:
                l(1) =   0
                l(2) =   0
                l(3) =   1
                l(4) =   1
     Q(r) pseudized with  8 coefficients,  rinner =    0.800   0.800   0.800

     PseudoPot. # 4 for Ti read from file:
     /storage/coda1/p-amedford6/0/shared/rich_project_chbe-medford/medford-share/data/pseudos_module/espresso/nninc/pbe/van/Ti.UPF
     MD5 check sum: 8e4df49b7f0d34bbd5052bf3f5ea0213
     Pseudo is Ultrasoft, Zval = 12.0
     Generated by new atomic code, or converted to UPF format
     Using radial grid of  851 points,  6 beta functions with:
                l(1) =   0
                l(2) =   0
                l(3) =   1
                l(4) =   1
                l(5) =   2
                l(6) =   2
     Q(r) pseudized with  8 coefficients,  rinner =    1.000   1.000   1.000
                                                       1.000   1.000

     PseudoPot. # 5 for N  read from file:
     /storage/coda1/p-amedford6/0/shared/rich_project_chbe-medford/medford-share/data/pseudos_module/espresso/nninc/pbe/van/N.UPF
     MD5 check sum: 90d10febe142ad51ac9d5be1deb811c4
     Pseudo is Ultrasoft, Zval =  5.0
     Generated by new atomic code, or converted to UPF format
     Using radial grid of  729 points,  4 beta functions with:
                l(1) =   0
                l(2) =   0
                l(3) =   1
                l(4) =   1
     Q(r) pseudized with  8 coefficients,  rinner =    0.800   0.800   0.800

     atomic species   valence    mass     pseudopotential
        C1             4.00    12.01100     C ( 1.00)
        H1             1.00     1.00800     H ( 1.00)
        O1             6.00    15.99900     O ( 1.00)
        Ti1           12.00    47.86700     Ti( 1.00)
        N1             5.00    14.00700     N ( 1.00)

     No symmetry found

   Cartesian axes

     site n.     atom                  positions (alat units)
         1           C1  tau(   1) = (   5.1764158   1.5385028  19.8564928  )
         2           H1  tau(   2) = (   4.2418317   1.4168958  19.3325039  )
         3           H1  tau(   3) = (   6.1328006   2.9100337  18.2018079  )
         4           H1  tau(   4) = (   6.0297582   0.9181690  19.6386741  )
         5           O1  tau(   5) = (   0.0006271   0.0005054   7.9858123  )
         6           O1  tau(   6) = (   3.2906025   0.0005020   7.3038282  )
         7           O1  tau(   7) = (   4.5942328   1.4918067   9.2879030  )
         8           O1  tau(   8) = (   1.9868534   1.4903216   9.2879459  )
         9           O1  tau(   9) = (   3.2696825   0.0177092  11.3460806  )
        10           O1  tau(  10) = (   6.5743896   0.0111799  10.6115589  )
        11           O1  tau(  11) = (   1.2770957   1.5070501  12.6511825  )
        12           O1  tau(  12) = (   5.2749141   1.5057152  12.6378801  )
        13           O1  tau(  13) = (   6.5263050   0.0247340  14.7317399  )
        14           O1  tau(  14) = (   3.2747511   0.0213673  13.9312909  )
        15           O1  tau(  15) = (   4.4933390   1.5239927  16.1070736  )
        16           O1  tau(  16) = (   2.0026543   1.5217075  16.0711130  )
        17           O1  tau(  17) = (   3.2904802   0.0005063   4.7018136  )
        18           O1  tau(  18) = (   6.5469758   0.0421337  17.2556835  )
        19           O1  tau(  19) = (   1.3043587   1.4918075   6.0039043  )
        20           O1  tau(  20) = (   5.2767064   1.4903225   6.0039473  )
        21           O1  tau(  21) = (   0.0002396   2.9813036   7.9858123  )
        22           O1  tau(  22) = (   3.2902150   2.9813002   7.3038282  )
        23           O1  tau(  23) = (   4.5938453   4.4726049   9.2879030  )
        24           O1  tau(  24) = (   1.9864658   4.4711199   9.2879459  )
        25           O1  tau(  25) = (   3.2722311   3.0011533  11.3472759  )
        26           O1  tau(  26) = (   6.5787409   2.9955660  10.5677177  )
        27           O1  tau(  27) = (   1.2755865   4.4883074  12.6550720  )
        28           O1  tau(  28) = (   5.2773609   4.4903743  12.6413705  )
        29           O1  tau(  29) = (   6.5451067   2.9841024  14.7029789  )
        30           O1  tau(  30) = (   3.2773495   3.0062142  13.9304278  )
        31           O1  tau(  31) = (   4.4941242   4.5002890  16.1165364  )
        32           O1  tau(  32) = (   2.0016379   4.5015838  16.0818063  )
        33           O1  tau(  33) = (   3.2900926   2.9813045   4.7018136  )
        34           O1  tau(  34) = (   1.3039711   4.4726057   6.0039043  )
        35           O1  tau(  35) = (   5.2763189   4.4711207   6.0039473  )
        36           O1  tau(  36) = (   6.5536212   3.0044252  17.3297899  )
        37           Ti1 tau(  37) = (   0.0004258   2.9801865   6.0000000  )
        38           Ti1 tau(  38) = (   3.2906075   1.4906267   6.0002472  )
        39           Ti1 tau(  39) = (   3.3348906   3.0327224   9.1579215  )
        40           Ti1 tau(  40) = (   0.0203972   1.6099837   9.3624797  )
        41           Ti1 tau(  41) = (   6.5380572   3.0081639  12.8251979  )
        42           Ti1 tau(  42) = (   3.2225065   1.5141752  12.4854623  )
        43           Ti1 tau(  43) = (   3.2525775   3.0161725  15.7233172  )
        44           Ti1 tau(  44) = (   6.5465844   1.4469101  15.9770741  )
        45           Ti1 tau(  45) = (   0.0000382   5.9609847   6.0000000  )
        46           Ti1 tau(  46) = (   3.2902200   4.4714249   6.0002472  )
        47           Ti1 tau(  47) = (   3.2831171   0.0558662   9.1532617  )
        48           Ti1 tau(  48) = (   0.0294011   4.5318189   9.2643274  )
        49           Ti1 tau(  49) = (   6.5160019   0.0223579  12.5245727  )
        50           Ti1 tau(  50) = (   3.2207252   4.4944464  12.4919313  )
        51           Ti1 tau(  51) = (   3.2545639   0.0336594  15.7221480  )
        52           Ti1 tau(  52) = (   6.5427997   4.6104004  16.1309301  )
        53           N1  tau(  53) = (   5.0796009   2.6163306  22.0446247  )
        54           N1  tau(  54) = (   5.1188049   2.0915644  21.0330699  )

     number of k points=    10  Fermi-Dirac smearing, width (Ry)=  0.0073
                       cart. coord. in units 2pi/alat
        k(    1) = (   0.0000000   0.0000000   0.0000000), wk =   0.1250000
        k(    2) = (   0.0000000   0.0419351   0.0000000), wk =   0.2500000
        k(    3) = (   0.0000000  -0.0838702   0.0000000), wk =   0.1250000
        k(    4) = (   0.0379955   0.0000049   0.0000000), wk =   0.2500000
        k(    5) = (   0.0379955   0.0419400   0.0000000), wk =   0.2500000
        k(    6) = (   0.0379955  -0.0838652   0.0000000), wk =   0.2500000
        k(    7) = (   0.0379955  -0.0419301   0.0000000), wk =   0.2500000
        k(    8) = (  -0.0759910  -0.0000099   0.0000000), wk =   0.1250000
        k(    9) = (  -0.0759910   0.0419252   0.0000000), wk =   0.2500000
        k(   10) = (  -0.0759910  -0.0838800   0.0000000), wk =   0.1250000

     Initial potential from superposition of free atoms

     starting charge  384.99916, renormalised to  401.00000

     negative rho (up, down):  1.198E-02 0.000E+00

     %%%%%%%%%%%%%%%%%%%%%%%%%%%%%%%%%%%%%%%%%%%%%%%%%%%%%%%%%%%%%%%%%%%%%%%%
     %                                                                      %
     % You are using vdW-DF, which was implemented by the Thonhauser group. %
     % Please cite the following two papers that made this development      %
     % possible and the two reviews that describe the various versions:     %
     %                                                                      %
     %   T. Thonhauser et al., PRL 115, 136402 (2015).                      %
     %   T. Thonhauser et al., PRB 76, 125112 (2007).                       %
     %   K. Berland et al., Rep. Prog. Phys. 78, 066501 (2015).             %
     %   D.C. Langreth et al., J. Phys.: Condens. Matter 21, 084203 (2009). %
     %                                                                      %
     %                                                                      %
     % If you are calculating the stress with vdW-DF, please also cite:     %
     %                                                                      %
     %   R. Sabatini et al., J. Phys.: Condens. Matter 24, 424209 (2012).   %
     %                                                                      %
     %%%%%%%%%%%%%%%%%%%%%%%%%%%%%%%%%%%%%%%%%%%%%%%%%%%%%%%%%%%%%%%%%%%%%%%%

     Adding external electric field

     Computed dipole along edir(3) :
        Dipole              -14.1065 Ry au,        -35.8550 Debye
        Dipole field         -0.0266 Ry au,

        Potential amp.        2.4677 Ry
        Total length         46.3494 bohr

     Starting wfcs are  303 atomic wfcs
  @ DRIVER MODE: Message from server: STATUS
  @ DRIVER MODE: Message from server: POSDATA
  @ DRIVER MODE: Reading and sharing cell
  @ DRIVER MODE: Reading and sharing positions
  @ DRIVER MODE: Received positions

     Self-consistent Calculation

     iteration #  1     ecut=    29.40 Ry     beta= 0.05
     Davidson diagonalization with overlap
     c_bands:  5 eigenvalues not converged
     c_bands:  4 eigenvalues not converged
     c_bands:  5 eigenvalues not converged
     c_bands:  2 eigenvalues not converged
     c_bands:  4 eigenvalues not converged
     c_bands:  4 eigenvalues not converged
     c_bands:  4 eigenvalues not converged
     c_bands:  4 eigenvalues not converged
     ethr =  1.00E-05,  avg # of iterations = 23.7

[...]

     total energy              =   -2409.53481147 Ry
     estimated scf accuracy    <    6389.27198747 Ry

     iteration #  2     ecut=    29.40 Ry     beta= 0.05
     Davidson diagonalization with overlap
     ethr =  1.00E-02,  avg # of iterations = 23.9

[...]

     iteration # 74     ecut=    29.40 Ry     beta= 0.05
     Davidson diagonalization with overlap
     c_bands:  1 eigenvalues not converged
     c_bands:  2 eigenvalues not converged
     ethr =  1.33E-09,  avg # of iterations = 15.5

[...]

     total energy              =   -2971.53804963 Ry
     estimated scf accuracy    <       0.00000010 Ry

     iteration # 82     ecut=    29.40 Ry     beta= 0.05
     Davidson diagonalization with overlap
     ethr =  2.49E-11,  avg # of iterations =  7.1

     negative rho (up, down):  1.326E-02 0.000E+00

     Adding external electric field

     Computed dipole along edir(3) :
        Dipole                0.4409 Ry au,          1.1207 Debye
        Dipole field          0.0008 Ry au,

        Potential amp.       -0.0771 Ry
        Total length         46.3494 bohr

     End of self-consistent calculation

          k = 0.0000 0.0000 0.0000 ( 18029 PWs)   bands (ev):

   -55.7654 -55.7521 -55.7287 -55.7158 -55.6725 -55.6475 -55.6260 -55.5910
   -55.5896 -55.5795 -55.5345 -55.5145 -55.4810 -55.4089 -54.7775 -54.7434
   -32.3160 -32.2337 -32.1986 -32.1103 -32.0843 -32.0665 -32.0574 -32.0333
   -31.9941 -31.9878 -31.9754 -31.9666 -31.9620 -31.9331 -31.9251 -31.9212
   -31.9177 -31.8960 -31.8883 -31.8563 -31.8553 -31.8298 -31.8287 -31.8240
   -31.8050 -31.7991 -31.7824 -31.7769 -31.7711 -31.7687 -31.7616 -31.7510
   -31.7401 -31.7390 -31.7336 -31.6954 -31.6917 -31.6595 -31.6318 -31.6198
   -31.5993 -31.5959 -31.1872 -31.0903 -31.0680 -31.0038 -30.9178 -30.8067
   -20.7421 -16.9994 -16.4980 -16.2087 -16.0396 -15.9091 -15.8815 -15.7816
   -15.5911 -15.4561 -15.4390 -15.3649 -15.3315 -15.3218 -15.2921 -15.2873
   -15.2776 -15.2693 -15.2220 -15.1926 -15.1832 -15.1689 -15.1381 -15.0837
   -15.0391 -14.9679 -14.9182 -14.8841 -14.8606 -14.7609 -14.7370 -13.9450
   -13.2783 -13.1602  -6.5484  -5.5893  -4.9820  -4.5196  -3.8622  -3.6867
    -3.6704  -3.6539  -3.5666  -3.5132  -3.3252  -3.3066  -3.0055  -2.9316
    -2.9028  -2.8976  -2.8903  -2.7074  -2.6478  -2.5998  -2.5923  -2.5757
    -2.5739  -2.5477  -2.5291  -2.5172  -2.4901  -2.4696  -2.4624  -2.3229
    -2.2947  -2.1764  -2.1563  -2.1426  -2.0876  -2.0670  -2.0288  -2.0069
    -2.0031  -1.9864  -1.9609  -1.9285  -1.8436  -1.8219  -1.7014  -1.5901
    -1.5510  -1.4625  -1.3136  -1.2396  -1.2177  -1.1878  -1.1666  -1.1473
    -1.1019  -1.0763  -1.0232  -0.9598  -0.9527  -0.8539  -0.7793  -0.7377
    -0.6656  -0.6429  -0.6251  -0.5108  -0.4887  -0.4733  -0.3018  -0.2414
    -0.2296  -0.2266  -0.0970  -0.0575  -0.0225  -0.0070   0.0252   0.0567
     0.0975   0.1401   0.1963   0.2210   0.2315   0.2434   0.2659   0.2871
     0.4113   0.4244   0.4374   0.5542   0.5733   0.7646   0.7680   0.8836
     0.9842   1.1511   1.2466   1.3247   1.4179   1.7208   1.8347   1.8938
     3.4232   3.4572   3.4853   3.5049   3.5766   3.6982   3.8088   3.8629
     3.8806   3.9053

[...]

          k = 0.0380-0.0419 0.0000 ( 17876 PWs)   bands (ev):

[...]

          k =-0.0760-0.0000 0.0000 ( 17886 PWs)   bands (ev):

[...]

          k =-0.0760-0.0839 0.0000 ( 17948 PWs)   bands (ev):

   -55.7539 -55.7400 -55.7350 -55.7326 -55.6690 -55.6424 -55.6139 -55.6017
   -55.5960 -55.5827 -55.5317 -55.4986 -55.4971 -55.4112 -54.7610 -54.7597
   -32.1196 -32.1156 -32.0986 -32.0574 -32.0467 -32.0425 -32.0246 -32.0232
   -32.0155 -31.9756 -31.9544 -31.9467 -31.9434 -31.9101 -31.9043 -31.8968
   -31.8844 -31.8794 -31.8778 -31.8707 -31.8676 -31.8585 -31.8510 -31.8445
   -31.8441 -31.8217 -31.8172 -31.8128 -31.8062 -31.8047 -31.8018 -31.7821
   -31.7761 -31.7554 -31.7532 -31.7494 -31.7307 -31.7142 -31.7037 -31.6960
   -31.6395 -31.6048 -31.0814 -31.0799 -31.0007 -30.9997 -30.9614 -30.9603
   -20.7420 -16.9339 -15.9414 -15.9323 -15.6845 -15.6820 -15.6794 -15.6152
   -15.5262 -15.5057 -15.4847 -15.4804 -15.4293 -15.4155 -15.4056 -15.3388
   -15.3017 -15.2848 -15.2679 -15.2666 -15.2130 -15.2078 -15.1597 -15.1327
   -15.1239 -15.1171 -15.0904 -15.0861 -15.0466 -15.0019 -14.8971 -13.9449
   -13.2626 -13.2603  -6.5426  -5.5917  -4.9204  -4.5183  -3.5128  -3.2334
    -3.2226  -2.9538  -2.9080  -2.8942  -2.8175  -2.7480  -2.6738  -2.6424
    -2.6177  -2.6098  -2.5982  -2.5891  -2.5849  -2.5684  -2.5630  -2.5465
    -2.5272  -2.5141  -2.4578  -2.4380  -2.4132  -2.3938  -2.3866  -2.3758
    -2.3408  -2.3216  -2.3106  -2.2916  -2.2875  -2.2062  -2.0600  -2.0136
    -1.9196  -1.9010  -1.8907  -1.8499  -1.8284  -1.8108  -1.7990  -1.7445
    -1.7287  -1.5540  -1.4902  -1.4711  -1.4551  -1.4232  -1.3669  -1.2781
    -1.2479  -1.1726  -1.1645  -1.1244  -1.0663  -0.9902  -0.9685  -0.9272
    -0.8709  -0.8342  -0.7738  -0.7426  -0.7216  -0.7149  -0.6620  -0.6039
    -0.5688  -0.5095  -0.4828  -0.4187  -0.3738  -0.3400  -0.2836  -0.2575
    -0.2217  -0.1098  -0.0039   0.1317   0.1924   0.2680   0.2849   0.3099
     0.3294   0.4481   0.4778   0.5067   0.5464   0.6290   0.6883   0.7583
     0.7784   0.8033   0.8735   1.6071   1.6081   1.6971   1.7076   1.7241
     3.6223   3.6591   3.6773   3.7272   3.8834   3.8871   3.9072   3.9146
     3.9675   4.0475

     the Fermi energy is     3.3906 ev

!    total energy              =   -2971.53805640 Ry
     estimated scf accuracy    <       0.00000006 Ry
     smearing contrib. (-TS)   =      -0.02325766 Ry
     internal energy E=F+TS    =   -2971.51479874 Ry

     The total energy is F=E-TS. E is the sum of the following terms:
     one-electron contribution =  -22749.59763447 Ry
     hartree contribution      =   11465.88180855 Ry
     xc contribution           =    -492.33169203 Ry
     ewald contribution        =    8804.53235232 Ry
     electric field correction =       0.00036689 Ry

     convergence has been achieved in  82 iterations

     Forces acting on atoms (cartesian axes, Ry/au):

     atom    1 type  1   force =    -0.00064525    0.00095747    0.00072159
     atom    2 type  2   force =    -0.00046747    0.00082505   -0.00062533
     atom    3 type  2   force =    -0.00144480   -0.00071707   -0.00052952
     atom    4 type  2   force =     0.00082423   -0.00051046   -0.00027539
     atom    5 type  3   force =     0.00032189   -0.00622501   -0.03421613
     atom    6 type  3   force =    -0.00001822    0.00054212    0.04516226
     atom    7 type  3   force =    -0.02061953    0.00050989    0.00421714
     atom    8 type  3   force =     0.01832420   -0.00163504    0.00384261
     atom    9 type  3   force =     0.00013184    0.00002081   -0.00003945
     atom   10 type  3   force =    -0.00005031   -0.00026483   -0.00022166
     atom   11 type  3   force =     0.00042283   -0.00001941   -0.00013181
     atom   12 type  3   force =     0.00037793    0.00022039    0.00003465
     atom   13 type  3   force =     0.00031055   -0.00017944    0.00003560
     atom   14 type  3   force =     0.00036042    0.00021331    0.00001217
     atom   15 type  3   force =    -0.00022555   -0.00013913    0.00035203
     atom   16 type  3   force =     0.00026863   -0.00009938    0.00009084
     atom   17 type  3   force =     0.00003398    0.00006213    0.10411841
     atom   18 type  3   force =    -0.00012195    0.00011576    0.00058805
     atom   19 type  3   force =    -0.06905135    0.00064429   -0.02951190
     atom   20 type  3   force =     0.06882470    0.00120773   -0.02950873
     atom   21 type  3   force =     0.00036817    0.00410387   -0.02902899
     atom   22 type  3   force =     0.00085983    0.00085226    0.04686645
     atom   23 type  3   force =    -0.01805760    0.00140849    0.00338354
     atom   24 type  3   force =     0.01777488    0.00228129    0.00288142
     atom   25 type  3   force =    -0.00015514   -0.00021193    0.00009198
     atom   26 type  3   force =     0.00018667   -0.00086798   -0.00074649
     atom   27 type  3   force =    -0.00009419   -0.00022616    0.00045427
     atom   28 type  3   force =    -0.00007961   -0.00031005    0.00079167
     atom   29 type  3   force =     0.00010050   -0.00059191    0.00027715
     atom   30 type  3   force =    -0.00019482   -0.00035065    0.00045495
     atom   31 type  3   force =    -0.00034704   -0.00010321    0.00003400
     atom   32 type  3   force =    -0.00006762   -0.00019907   -0.00036079
     atom   33 type  3   force =     0.00004189    0.00003846    0.10419300
     atom   34 type  3   force =    -0.06858738   -0.00130465   -0.02954777
     atom   35 type  3   force =     0.06847124   -0.00093142   -0.02953054
     atom   36 type  3   force =     0.00110196    0.00049242    0.00014329
     atom   37 type  4   force =    -0.00001776   -0.00176416    0.10521506
     atom   38 type  4   force =    -0.00016535    0.00073162   -0.17957120
     atom   39 type  4   force =    -0.00039318    0.00007960    0.00019303
     atom   40 type  4   force =    -0.00002882    0.00052923    0.00368934
     atom   41 type  4   force =    -0.00010735    0.00068512   -0.00143640
     atom   42 type  4   force =    -0.00020898    0.00002745    0.00009909
     atom   43 type  4   force =    -0.00015151   -0.00022459   -0.00054578
     atom   44 type  4   force =     0.00057736    0.00047715   -0.00050822
     atom   45 type  4   force =    -0.00001934    0.00142387    0.11674895
     atom   46 type  4   force =     0.00000560   -0.00036267   -0.17989109
     atom   47 type  4   force =     0.00033994    0.00010597    0.00008121
     atom   48 type  4   force =    -0.00004817    0.00000273    0.00422775
     atom   49 type  4   force =     0.00055372    0.00037029   -0.00198094
     atom   50 type  4   force =     0.00010657    0.00011156   -0.00093840
     atom   51 type  4   force =     0.00039403   -0.00077920   -0.00019449
     atom   52 type  4   force =     0.00086872   -0.00099086    0.00042650
     atom   53 type  5   force =     0.00067592    0.00128245   -0.00001172
     atom   54 type  5   force =    -0.00125991   -0.00131451   -0.00007527

     Total force =     0.375811     Total SCF correction =     0.000831
  @ DRIVER MODE: Message from server: STATUS
  @ DRIVER MODE: Message from server: GETFORCE
  @ DRIVER MODE: Returning v,forces,stress,ensemble

     Writing output data file ./calc.save/
  @ DRIVER MODE: Message from server: EXIT
  @ DRIVE MODE: Exiting

     General routines

     Parallel routines

   This run was terminated on:  15:46:45  14Sep2021

   JOB DONE.