     Program PWSCF v.6.7GPU starts on 15Sep2021 at 18:11:10

     R & G space division:  proc/nbgrp/npool/nimage =      10
     Reading input from /storage/home/hcoda1/3/ntian30/research/carbon/CxH_vib/H2O_calc/ads_slab/CHOHH2O_a/out_0008/pw.inp
Warning: card &CELL ignored
Warning: card   CELL_DYNAMICS='IPI', ignored
Warning: card / ignored

     Current dimensions of program PWSCF are:
     Max number of different atomic species (ntypx) = 10
     Max number of k-points (npk) =  40000
     Max angular momentum in pseudopotentials (lmaxx) =  3
     Presently no symmetry can be used with electric field

     Message from routine cell_base_init:
     DEPRECATED: use true lattice parameter, not A to a.u. conversion factor

     IMPORTANT: XC functional enforced from input :
     Exchange-correlation= BEEF-VDW
                           (   1   4  43  14   2   0   0)
     Any further DFT definition will be discarded
     Please, verify this is what you really want

  @ DRIVER MODE: Connecting to
 qe_1139763_2852632.sched-torque.pace.gatech.edupjkgz0gw_scratch
  using UNIX socket
  @ DRIVER MODE: Message from server: STATUS
  @ DRIVER MODE: Message from server: INIT
  @ DRIVER MODE: Receiving replica           0          -1
  @ DRIVER MODE: Receiving encoded integer          25
  @ DRIVER MODE:  SCF:  T  FORCE:  T  STRESS:  F  VC:  F  ENSEMBLE:  F
  @ DRIVER MODE:  SCF:  T  FORCE:  T  STRESS:  F  VC:  F  ENSEMBLE:  F

     Using Slab Decomposition

     bravais-lattice index     =            0
     lattice parameter (alat)  =       1.8897  a.u.
     unit-cell volume          =    6658.9804 (a.u.)^3
     number of atoms/cell      =           54
     number of atomic types    =            4
     number of electrons       =       398.00
     number of Kohn-Sham states=          209
     kinetic-energy cutoff     =      29.3995  Ry
     charge density cutoff     =     293.9946  Ry
     scf convergence threshold =      7.3E-08
     mixing beta               =       0.0500
     number of iterations used =            8  plain     mixing
     Exchange-correlation= BEEF-VDW
                           (   1   4  43  14   2   0   0)

     celldm(1)=   1.889726  celldm(2)=   0.000000  celldm(3)=   0.000000
     celldm(4)=   0.000000  celldm(5)=   0.000000  celldm(6)=   0.000000

     crystal axes: (cart. coord. in units of alat)
               a(1) = (   6.579727   0.000000   0.000000 )
               a(2) = (  -0.000775   5.961596   0.000000 )
               a(3) = (   0.000000   0.000000  25.155947 )

     reciprocal axes: (cart. coord. in units 2 pi/alat)
               b(1) = (  0.151982  0.000020  0.000000 )
               b(2) = (  0.000000  0.167740  0.000000 )
               b(3) = (  0.000000  0.000000  0.039752 )

     PseudoPot. # 1 for Ti read from file:
     /storage/coda1/p-amedford6/0/shared/rich_project_chbe-medford/medford-share/data/pseudos_module/espresso/nninc/pbe/van/Ti.UPF
     MD5 check sum: 8e4df49b7f0d34bbd5052bf3f5ea0213
     Pseudo is Ultrasoft, Zval = 12.0
     Generated by new atomic code, or converted to UPF format
     Using radial grid of  851 points,  6 beta functions with:
                l(1) =   0
                l(2) =   0
                l(3) =   1
                l(4) =   1
                l(5) =   2
                l(6) =   2
     Q(r) pseudized with  8 coefficients,  rinner =    1.000   1.000   1.000
                                                       1.000   1.000

     PseudoPot. # 2 for O  read from file:
     /storage/coda1/p-amedford6/0/shared/rich_project_chbe-medford/medford-share/data/pseudos_module/espresso/nninc/pbe/van/O.UPF
     MD5 check sum: 78c19812648e8988a0fe644b0f25305e
     Pseudo is Ultrasoft, Zval =  6.0
     Generated by new atomic code, or converted to UPF format
     Using radial grid of  737 points,  4 beta functions with:
                l(1) =   0
                l(2) =   0
                l(3) =   1
                l(4) =   1
     Q(r) pseudized with  8 coefficients,  rinner =    0.800   0.800   0.800

     PseudoPot. # 3 for C  read from file:
     /storage/coda1/p-amedford6/0/shared/rich_project_chbe-medford/medford-share/data/pseudos_module/espresso/nninc/pbe/van/C.UPF
     MD5 check sum: 1a69bf6b8db32088f5b2163dbdb77a27
     Pseudo is Ultrasoft, Zval =  4.0
     Generated by new atomic code, or converted to UPF format
     Using radial grid of  721 points,  4 beta functions with:
                l(1) =   0
                l(2) =   0
                l(3) =   1
                l(4) =   1
     Q(r) pseudized with  8 coefficients,  rinner =    0.800   0.800   0.800

     PseudoPot. # 4 for H  read from file:
     /storage/coda1/p-amedford6/0/shared/rich_project_chbe-medford/medford-share/data/pseudos_module/espresso/nninc/pbe/van/H.UPF
     MD5 check sum: b5ee9d7bfd3a09ee7748110bda690ff7
     Pseudo is Ultrasoft, Zval =  1.0
     Generated by new atomic code, or converted to UPF format
     Using radial grid of  615 points,  1 beta functions with:
                l(1) =   0
     Q(r) pseudized with  8 coefficients,  rinner =    0.800

     atomic species   valence    mass     pseudopotential
        Ti1           12.00    47.86700     Ti( 1.00)
        O1             6.00    15.99900     O ( 1.00)
        C1             4.00    12.01100     C ( 1.00)
        H1             1.00     1.00800     H ( 1.00)

     No symmetry found

   Cartesian axes

     site n.     atom                  positions (alat units)
         1           Ti1 tau(   1) = (   0.0004258   2.9801865   6.0000000  )
         2           Ti1 tau(   2) = (   3.2906075   1.4906267   6.0002472  )
         3           O1  tau(   3) = (   0.0006271   0.0005054   7.9858123  )
         4           O1  tau(   4) = (   3.2906025   0.0005020   7.3038282  )
         5           O1  tau(   5) = (   4.5942328   1.4918067   9.2879030  )
         6           O1  tau(   6) = (   1.9868534   1.4903216   9.2879459  )
         7           Ti1 tau(   7) = (   3.3203992   3.0065636   9.1614972  )
         8           Ti1 tau(   8) = (   0.0364112   1.5055733   9.2692997  )
         9           O1  tau(   9) = (   3.3037507   0.0048223  11.3846665  )
        10           O1  tau(  10) = (   0.0023770   0.0017864  10.5989407  )
        11           O1  tau(  11) = (   1.2986710   1.4943985  12.6419360  )
        12           O1  tau(  12) = (   5.3019195   1.4930987  12.6558330  )
        13           Ti1 tau(  13) = (   0.0201679   2.9954199  12.5459836  )
        14           Ti1 tau(  14) = (   3.3085843   1.4996073  12.5278567  )
        15           O1  tau(  15) = (   0.0306707   0.0063333  14.6434371  )
        16           O1  tau(  16) = (   3.2901280   5.9588824  14.0411263  )
        17           O1  tau(  17) = (   4.5937705   1.5245028  16.1210063  )
        18           O1  tau(  18) = (   2.0412355   1.5396885  16.1535958  )
        19           Ti1 tau(  19) = (   3.3250740   2.9785215  15.7238461  )
        20           Ti1 tau(  20) = (   0.0142243   1.3716099  15.9029131  )
        21           O1  tau(  21) = (   3.2904802   0.0005063   4.7018136  )
        22           O1  tau(  22) = (   0.0234726   5.9563001  17.1693433  )
        23           O1  tau(  23) = (   1.3043587   1.4918075   6.0039043  )
        24           O1  tau(  24) = (   5.2767064   1.4903225   6.0039473  )
        25           Ti1 tau(  25) = (   0.0000382   5.9609847   6.0000000  )
        26           Ti1 tau(  26) = (   3.2902200   4.4714249   6.0002472  )
        27           O1  tau(  27) = (   0.0002396   2.9813036   7.9858123  )
        28           O1  tau(  28) = (   3.2902150   2.9813002   7.3038282  )
        29           O1  tau(  29) = (   4.5938453   4.4726049   9.2879030  )
        30           O1  tau(  30) = (   1.9864658   4.4711199   9.2879459  )
        31           Ti1 tau(  31) = (   3.3166040   0.0254347   9.1556988  )
        32           Ti1 tau(  32) = (   0.0362352   4.4699824   9.2670842  )
        33           O1  tau(  33) = (   3.3035804   2.9865095  11.3763011  )
        34           O1  tau(  34) = (   0.0042610   2.9829788  10.6236548  )
        35           O1  tau(  35) = (   1.2977823   4.4749822  12.6434080  )
        36           O1  tau(  36) = (   5.3021498   4.4756442  12.6578133  )
        37           Ti1 tau(  37) = (   0.0128731   0.0155586  12.4748574  )
        38           Ti1 tau(  38) = (   3.3087006   4.4877506  12.5360639  )
        39           O1  tau(  39) = (   0.0289868   2.9802581  14.8446641  )
        40           O1  tau(  40) = (   3.2975897   2.9808645  13.9396156  )
        41           O1  tau(  41) = (   4.5936103   4.4348319  16.1149158  )
        42           O1  tau(  42) = (   2.0365336   4.4144103  16.1518429  )
        43           Ti1 tau(  43) = (   3.2980932   5.9591119  15.8729608  )
        44           Ti1 tau(  44) = (   0.0070259   4.5936845  15.8821292  )
        45           O1  tau(  45) = (   3.2900926   2.9813045   4.7018136  )
        46           O1  tau(  46) = (   1.3039711   4.4726057   6.0039043  )
        47           O1  tau(  47) = (   5.2763189   4.4711207   6.0039473  )
        48           C1  tau(  48) = (   6.0563806   2.9601134  19.0478501  )
        49           O1  tau(  49) = (   0.1803025   2.9720528  17.8813388  )
        50           H1  tau(  50) = (   5.0099104   2.8626262  18.6876999  )
        51           H1  tau(  51) = (   1.1251272   3.0566160  18.0647747  )
        52           O1  tau(  52) = (   3.2803433   5.9178330  18.2983259  )
        53           H1  tau(  53) = (   4.0549949   5.9397654  18.8787675  )
        54           H1  tau(  54) = (   2.4787048   0.0262026  18.8357284  )

     number of k points=    10  Fermi-Dirac smearing, width (Ry)=  0.0073
                       cart. coord. in units 2pi/alat
        k(    1) = (   0.0000000   0.0000000   0.0000000), wk =   0.1250000
        k(    2) = (   0.0000000   0.0419351   0.0000000), wk =   0.2500000
        k(    3) = (   0.0000000  -0.0838702   0.0000000), wk =   0.1250000
        k(    4) = (   0.0379955   0.0000049   0.0000000), wk =   0.2500000
        k(    5) = (   0.0379955   0.0419400   0.0000000), wk =   0.2500000
        k(    6) = (   0.0379955  -0.0838652   0.0000000), wk =   0.2500000
        k(    7) = (   0.0379955  -0.0419301   0.0000000), wk =   0.2500000
        k(    8) = (  -0.0759910  -0.0000099   0.0000000), wk =   0.1250000
        k(    9) = (  -0.0759910   0.0419252   0.0000000), wk =   0.2500000
        k(   10) = (  -0.0759910  -0.0838800   0.0000000), wk =   0.1250000

     Initial potential from superposition of free atoms

     starting charge  381.99917, renormalised to  398.00000

     negative rho (up, down):  1.670E-02 0.000E+00

     %%%%%%%%%%%%%%%%%%%%%%%%%%%%%%%%%%%%%%%%%%%%%%%%%%%%%%%%%%%%%%%%%%%%%%%%
     %                                                                      %
     % You are using vdW-DF, which was implemented by the Thonhauser group. %
     % Please cite the following two papers that made this development      %
     % possible and the two reviews that describe the various versions:     %
     %                                                                      %
     %   T. Thonhauser et al., PRL 115, 136402 (2015).                      %
     %   T. Thonhauser et al., PRB 76, 125112 (2007).                       %
     %   K. Berland et al., Rep. Prog. Phys. 78, 066501 (2015).             %
     %   D.C. Langreth et al., J. Phys.: Condens. Matter 21, 084203 (2009). %
     %                                                                      %
     %                                                                      %
     % If you are calculating the stress with vdW-DF, please also cite:     %
     %                                                                      %
     %   R. Sabatini et al., J. Phys.: Condens. Matter 24, 424209 (2012).   %
     %                                                                      %
     %%%%%%%%%%%%%%%%%%%%%%%%%%%%%%%%%%%%%%%%%%%%%%%%%%%%%%%%%%%%%%%%%%%%%%%%

     Adding external electric field

     Computed dipole along edir(3) :
        Dipole              -10.5131 Ry au,        -26.7216 Debye
        Dipole field         -0.0198 Ry au,

        Potential amp.        1.8391 Ry
        Total length         46.3494 bohr

     Starting wfcs are  300 atomic wfcs
  @ DRIVER MODE: Message from server: STATUS
  @ DRIVER MODE: Message from server: POSDATA
  @ DRIVER MODE: Reading and sharing cell
  @ DRIVER MODE: Reading and sharing positions
  @ DRIVER MODE: Received positions

     Self-consistent Calculation

     iteration #  1     ecut=    29.40 Ry     beta= 0.05
     Davidson diagonalization with overlap
     c_bands:  2 eigenvalues not converged
     c_bands:  3 eigenvalues not converged
     c_bands:  1 eigenvalues not converged
     c_bands:  4 eigenvalues not converged
     c_bands:  4 eigenvalues not converged
     c_bands:  4 eigenvalues not converged
     c_bands:  1 eigenvalues not converged
     c_bands:  3 eigenvalues not converged
     c_bands:  4 eigenvalues not converged
     ethr =  1.00E-05,  avg # of iterations = 19.9

[...]

     total energy              =   -2479.41394210 Ry
     estimated scf accuracy    <    5441.13004316 Ry

     iteration #  2     ecut=    29.40 Ry     beta= 0.05
     Davidson diagonalization with overlap
     ethr =  1.00E-02,  avg # of iterations = 25.7

[...]

     iteration # 88     ecut=    29.40 Ry     beta= 0.05
     Davidson diagonalization with overlap
     c_bands:  1 eigenvalues not converged
     ethr =  1.47E-10,  avg # of iterations = 15.0

[...]

     total energy              =   -2964.77928383 Ry
     estimated scf accuracy    <       0.00000018 Ry

     iteration # 91     ecut=    29.40 Ry     beta= 0.05
     Davidson diagonalization with overlap
     ethr =  4.62E-11,  avg # of iterations =  6.7

     negative rho (up, down):  1.518E-02 0.000E+00

     Adding external electric field

     Computed dipole along edir(3) :
        Dipole                0.7061 Ry au,          1.7948 Debye
        Dipole field          0.0013 Ry au,

        Potential amp.       -0.1235 Ry
        Total length         46.3494 bohr

     End of self-consistent calculation

          k = 0.0000 0.0000 0.0000 ( 18029 PWs)   bands (ev):

   -55.7086 -55.6957 -55.6724 -55.6702 -55.6612 -55.6103 -55.5587 -55.5573
   -55.5441 -55.5243 -55.5117 -55.4902 -55.4885 -55.4778 -54.7765 -54.7424
   -32.2691 -32.1898 -32.1851 -32.0914 -32.0541 -32.0343 -32.0234 -32.0129
   -31.9847 -31.9491 -31.9393 -31.9244 -31.8997 -31.8927 -31.8857 -31.8663
   -31.8492 -31.8486 -31.8454 -31.8380 -31.8214 -31.8108 -31.8107 -31.8012
   -31.7982 -31.7839 -31.7807 -31.7526 -31.7400 -31.7270 -31.7157 -31.7148
   -31.7089 -31.7055 -31.6992 -31.6913 -31.6589 -31.6575 -31.6525 -31.6489
   -31.6225 -31.5651 -31.1882 -31.0867 -31.0650 -31.0044 -30.9180 -30.8071
   -21.1174 -19.2563 -16.5267 -16.2847 -16.1416 -16.0379 -15.9343 -15.8015
   -15.7149 -15.5914 -15.5284 -15.4012 -15.3614 -15.3551 -15.3487 -15.3212
   -15.2975 -15.2776 -15.2533 -15.2128 -15.2082 -15.2046 -15.1754 -15.1636
   -15.1061 -15.0933 -15.0467 -14.9310 -14.8799 -14.8188 -14.4976 -13.2772
   -13.1580 -10.3504  -7.2167  -5.6737  -4.7439  -3.9810  -3.9431  -3.8160
    -3.7211  -3.6526  -3.6141  -3.5443  -3.4674  -3.2641  -3.1327  -3.1255
    -2.9933  -2.9566  -2.9119  -2.8105  -2.7441  -2.6828  -2.6722  -2.5960
    -2.5924  -2.5847  -2.5715  -2.4776  -2.4710  -2.4226  -2.3827  -2.3028
    -2.2667  -2.1506  -2.1198  -2.1111  -2.0676  -2.0518  -2.0452  -2.0322
    -1.9829  -1.9569  -1.9381  -1.9369  -1.7951  -1.7541  -1.6072  -1.4833
    -1.4476  -1.4358  -1.3020  -1.2702  -1.2535  -1.1951  -1.1740  -1.1659
    -1.1270  -1.0458  -0.9624  -0.9359  -0.8655  -0.8229  -0.7191  -0.6242
    -0.5787  -0.5303  -0.5092  -0.4999  -0.4806  -0.4137  -0.3673  -0.2814
    -0.2269  -0.1622  -0.1371  -0.1305  -0.0749  -0.0455   0.0353   0.0808
     0.1151   0.1303   0.2154   0.2294   0.2427   0.2742   0.2761   0.3891
     0.4427   0.5017   0.5067   0.6552   0.8240   0.8469   0.9273   1.1408
     1.2492   1.2518   1.4125   1.4816   1.8342   1.8885   3.3790   3.4492
     3.4836   3.4978   3.5076   3.5848   3.8090   3.8662   3.8984   3.9174
     3.9270

[...]

          k = 0.0380-0.0419 0.0000 ( 17876 PWs)   bands (ev):

[...]

          k =-0.0760-0.0000 0.0000 ( 17886 PWs)   bands (ev):

[...]

          k =-0.0760-0.0839 0.0000 ( 17948 PWs)   bands (ev):

   -55.6931 -55.6877 -55.6807 -55.6760 -55.6685 -55.6040 -55.5636 -55.5433
   -55.5393 -55.5373 -55.4959 -55.4953 -55.4937 -55.4917 -54.7594 -54.7593
   -32.1101 -32.0794 -32.0683 -32.0070 -32.0024 -31.9832 -31.9747 -31.9654
   -31.9632 -31.9388 -31.9377 -31.9130 -31.9037 -31.8751 -31.8616 -31.8598
   -31.8585 -31.8503 -31.8453 -31.8413 -31.8333 -31.8249 -31.8088 -31.8057
   -31.8031 -31.8008 -31.8004 -31.7997 -31.7962 -31.7882 -31.7856 -31.7567
   -31.7419 -31.7415 -31.7255 -31.7173 -31.7154 -31.7090 -31.6846 -31.6799
   -31.6784 -31.6547 -31.0776 -31.0776 -31.0010 -31.0007 -30.9613 -30.9611
   -21.1161 -19.2558 -16.1569 -15.9625 -15.8125 -15.7283 -15.7216 -15.6623
   -15.5818 -15.5404 -15.4939 -15.4828 -15.4729 -15.4381 -15.4275 -15.4158
   -15.3546 -15.3054 -15.3019 -15.2864 -15.2370 -15.2297 -15.2195 -15.2138
   -15.2051 -15.1621 -15.1578 -15.1432 -15.1324 -14.9868 -14.8289 -13.2595
   -13.2587 -10.3537  -7.2143  -5.6762  -4.7232  -3.9090  -3.8688  -3.2376
    -3.2354  -2.9737  -2.9516  -2.8928  -2.8813  -2.8176  -2.7861  -2.7104
    -2.7042  -2.6582  -2.6185  -2.6098  -2.5971  -2.5729  -2.5397  -2.5250
    -2.4844  -2.4737  -2.4484  -2.4419  -2.4253  -2.4093  -2.3845  -2.3785
    -2.3462  -2.3259  -2.3173  -2.3136  -2.2343  -2.1745  -2.0522  -2.0295
    -1.9883  -1.9407  -1.9250  -1.8544  -1.8187  -1.8037  -1.7458  -1.7106
    -1.6834  -1.5121  -1.4996  -1.4793  -1.3871  -1.3554  -1.3400  -1.3125
    -1.2569  -1.2297  -1.2247  -1.1480  -1.0363  -1.0132  -0.9156  -0.8696
    -0.8684  -0.7792  -0.7468  -0.7086  -0.7065  -0.6681  -0.6129  -0.5910
    -0.5337  -0.5275  -0.4799  -0.4602  -0.4368  -0.4053  -0.2313  -0.1777
    -0.1215  -0.0248   0.0057   0.2330   0.2639   0.2696   0.3359   0.3655
     0.4730   0.4937   0.5561   0.5709   0.6723   0.7063   0.7205   0.7253
     0.7720   1.4879   1.6010   1.6036   1.7025   1.7062   3.5274   3.5435
     3.6440   3.6965   3.7335   3.8376   3.8859   3.9185   3.9256   3.9409
     4.0144

     the Fermi energy is     3.4270 ev

!    total energy              =   -2964.77928731 Ry
     estimated scf accuracy    <       0.00000006 Ry
     smearing contrib. (-TS)   =      -0.03746869 Ry
     internal energy E=F+TS    =   -2964.74181862 Ry

     The total energy is F=E-TS. E is the sum of the following terms:
     one-electron contribution =  -24112.30012945 Ry
     hartree contribution      =   12146.33377855 Ry
     xc contribution           =    -490.02294843 Ry
     ewald contribution        =    9491.24653972 Ry
     electric field correction =       0.00094098 Ry

     convergence has been achieved in  91 iterations

     Forces acting on atoms (cartesian axes, Ry/au):

     atom    1 type  1   force =    -0.00035712   -0.00001994    0.09252248
     atom    2 type  1   force =    -0.00033052    0.00121504   -0.18262579
     atom    3 type  2   force =     0.00043601    0.00023095   -0.02456434
     atom    4 type  2   force =     0.00073497    0.00044720    0.05162913
     atom    5 type  2   force =    -0.01464280   -0.00007768    0.00466055
     atom    6 type  2   force =     0.01552197   -0.00056888    0.00541255
     atom    7 type  1   force =    -0.00050711   -0.00016612    0.00008669
     atom    8 type  1   force =     0.00021463    0.00005586    0.00020729
     atom    9 type  2   force =    -0.00016810   -0.00017650   -0.00032414
     atom   10 type  2   force =     0.00006126   -0.00004473    0.00030564
     atom   11 type  2   force =    -0.00030720    0.00020561    0.00003213
     atom   12 type  2   force =     0.00037838    0.00007435   -0.00021370
     atom   13 type  1   force =    -0.00019628   -0.00025405    0.00030327
     atom   14 type  1   force =     0.00012336   -0.00021328   -0.00043034
     atom   15 type  2   force =    -0.00030798    0.00034403   -0.00016803
     atom   16 type  2   force =     0.00009598    0.00001499   -0.00033574
     atom   17 type  2   force =    -0.00008370   -0.00012741    0.00013380
     atom   18 type  2   force =     0.00046375   -0.00025209   -0.00056094
     atom   19 type  1   force =    -0.00111016    0.00006753   -0.00018241
     atom   20 type  1   force =     0.00063738    0.00036709    0.00063453
     atom   21 type  2   force =    -0.00009513    0.00005706    0.10488890
     atom   22 type  2   force =    -0.00040140   -0.00000386    0.00008553
     atom   23 type  2   force =    -0.06833861    0.00002899   -0.02692669
     atom   24 type  2   force =     0.06803409    0.00046298   -0.02700276
     atom   25 type  1   force =    -0.00029386   -0.00000972    0.09718394
     atom   26 type  1   force =    -0.00030082   -0.00120097   -0.18267104
     atom   27 type  2   force =     0.00034946    0.00023587   -0.02298986
     atom   28 type  2   force =     0.00081429    0.00042641    0.05201990
     atom   29 type  2   force =    -0.01462471    0.00065124    0.00458937
     atom   30 type  2   force =     0.01564597    0.00040026    0.00531825
     atom   31 type  1   force =    -0.00046374    0.00000544    0.00011490
     atom   32 type  1   force =     0.00021219    0.00005970    0.00018303
     atom   33 type  2   force =    -0.00008313    0.00012930    0.00015354
     atom   34 type  2   force =     0.00001205    0.00001459    0.00015116
     atom   35 type  2   force =    -0.00014574   -0.00030141    0.00012165
     atom   36 type  2   force =     0.00021649   -0.00019556   -0.00010890
     atom   37 type  1   force =    -0.00028397    0.00016802   -0.00042440
     atom   38 type  1   force =     0.00012113    0.00037283   -0.00032669
     atom   39 type  2   force =    -0.00041202   -0.00027784   -0.00037291
     atom   40 type  2   force =     0.00018753   -0.00008487   -0.00008445
     atom   41 type  2   force =    -0.00032280   -0.00012901   -0.00022329
     atom   42 type  2   force =     0.00067137    0.00000284   -0.00090284
     atom   43 type  1   force =    -0.00105247   -0.00026542    0.00022313
     atom   44 type  1   force =     0.00060927   -0.00094235    0.00067878
     atom   45 type  2   force =    -0.00007193    0.00005284    0.10478581
     atom   46 type  2   force =    -0.06832661   -0.00060463   -0.02691805
     atom   47 type  2   force =     0.06802723   -0.00014064   -0.02699366
     atom   48 type  3   force =     0.00472045    0.00022004   -0.00244603
     atom   49 type  2   force =    -0.02415067   -0.00182085   -0.00104115
     atom   50 type  4   force =     0.00145965    0.00018231   -0.00202325
     atom   51 type  4   force =     0.01730479    0.00141312    0.00465191
     atom   52 type  2   force =     0.00006009   -0.00110287    0.00078900
     atom   53 type  4   force =    -0.00024228    0.00057785   -0.00041212
     atom   54 type  4   force =     0.00050710    0.00049632   -0.00059330

     Total force =     0.369722     Total SCF correction =     0.000549
  @ DRIVER MODE: Message from server: STATUS
  @ DRIVER MODE: Message from server: GETFORCE
  @ DRIVER MODE: Returning v,forces,stress,ensemble

     Writing output data file ./calc.save/
  @ DRIVER MODE: Message from server: EXIT
  @ DRIVE MODE: Exiting

     General routines

     Parallel routines

   This run was terminated on:  18:34:21  15Sep2021

   JOB DONE.