     Program PWSCF v.6.7GPU starts on  9Sep2021 at  2:49:31

     R & G space division:  proc/nbgrp/npool/nimage =      10
     Reading input from /storage/home/hcoda1/3/ntian30/research/carbon/CxH_vib/CH_calc/ads_slab/CHO_a/out_0018/pw.inp
Warning: card &CELL ignored
Warning: card   CELL_DYNAMICS='IPI', ignored
Warning: card / ignored

     Current dimensions of program PWSCF are:
     Max number of different atomic species (ntypx) = 10
     Max number of k-points (npk) =  40000
     Max angular momentum in pseudopotentials (lmaxx) =  3
     Presently no symmetry can be used with electric field

     Message from routine cell_base_init:
     DEPRECATED: use true lattice parameter, not A to a.u. conversion factor

     IMPORTANT: XC functional enforced from input :
     Exchange-correlation= BEEF-VDW
                           (   1   4  43  14   2   0   0)
     Any further DFT definition will be discarded
     Please, verify this is what you really want

  @ DRIVER MODE: Connecting to
 qe_1139763_2767379.sched-torque.pace.gatech.eduefy15exz_scratch
  using UNIX socket
  @ DRIVER MODE: Message from server: STATUS
  @ DRIVER MODE: Message from server: INIT
  @ DRIVER MODE: Receiving replica           0          -1
  @ DRIVER MODE: Receiving encoded integer          25
  @ DRIVER MODE:  SCF:  T  FORCE:  T  STRESS:  F  VC:  F  ENSEMBLE:  F
  @ DRIVER MODE:  SCF:  T  FORCE:  T  STRESS:  F  VC:  F  ENSEMBLE:  F

     Using Slab Decomposition

     bravais-lattice index     =            0
     lattice parameter (alat)  =       1.8897  a.u.
     unit-cell volume          =    6658.9804 (a.u.)^3
     number of atoms/cell      =           50
     number of atomic types    =            4
     number of electrons       =       389.00
     number of Kohn-Sham states=          204
     kinetic-energy cutoff     =      29.3995  Ry
     charge density cutoff     =     293.9946  Ry
     scf convergence threshold =      7.3E-08
     mixing beta               =       0.0500
     number of iterations used =            8  plain     mixing
     Exchange-correlation= BEEF-VDW
                           (   1   4  43  14   2   0   0)

     celldm(1)=   1.889726  celldm(2)=   0.000000  celldm(3)=   0.000000
     celldm(4)=   0.000000  celldm(5)=   0.000000  celldm(6)=   0.000000

     crystal axes: (cart. coord. in units of alat)
               a(1) = (   6.579727   0.000000   0.000000 )
               a(2) = (  -0.000775   5.961596   0.000000 )
               a(3) = (   0.000000   0.000000  25.155947 )

     reciprocal axes: (cart. coord. in units 2 pi/alat)
               b(1) = (  0.151982  0.000020  0.000000 )
               b(2) = (  0.000000  0.167740  0.000000 )
               b(3) = (  0.000000  0.000000  0.039752 )

     PseudoPot. # 1 for O  read from file:
     /storage/coda1/p-amedford6/0/shared/rich_project_chbe-medford/medford-share/data/pseudos_module/espresso/nninc/pbe/van/O.UPF
     MD5 check sum: 78c19812648e8988a0fe644b0f25305e
     Pseudo is Ultrasoft, Zval =  6.0
     Generated by new atomic code, or converted to UPF format
     Using radial grid of  737 points,  4 beta functions with:
                l(1) =   0
                l(2) =   0
                l(3) =   1
                l(4) =   1
     Q(r) pseudized with  8 coefficients,  rinner =    0.800   0.800   0.800

     PseudoPot. # 2 for Ti read from file:
     /storage/coda1/p-amedford6/0/shared/rich_project_chbe-medford/medford-share/data/pseudos_module/espresso/nninc/pbe/van/Ti.UPF
     MD5 check sum: 8e4df49b7f0d34bbd5052bf3f5ea0213
     Pseudo is Ultrasoft, Zval = 12.0
     Generated by new atomic code, or converted to UPF format
     Using radial grid of  851 points,  6 beta functions with:
                l(1) =   0
                l(2) =   0
                l(3) =   1
                l(4) =   1
                l(5) =   2
                l(6) =   2
     Q(r) pseudized with  8 coefficients,  rinner =    1.000   1.000   1.000
                                                       1.000   1.000

     PseudoPot. # 3 for C  read from file:
     /storage/coda1/p-amedford6/0/shared/rich_project_chbe-medford/medford-share/data/pseudos_module/espresso/nninc/pbe/van/C.UPF
     MD5 check sum: 1a69bf6b8db32088f5b2163dbdb77a27
     Pseudo is Ultrasoft, Zval =  4.0
     Generated by new atomic code, or converted to UPF format
     Using radial grid of  721 points,  4 beta functions with:
                l(1) =   0
                l(2) =   0
                l(3) =   1
                l(4) =   1
     Q(r) pseudized with  8 coefficients,  rinner =    0.800   0.800   0.800

     PseudoPot. # 4 for H  read from file:
     /storage/coda1/p-amedford6/0/shared/rich_project_chbe-medford/medford-share/data/pseudos_module/espresso/nninc/pbe/van/H.UPF
     MD5 check sum: b5ee9d7bfd3a09ee7748110bda690ff7
     Pseudo is Ultrasoft, Zval =  1.0
     Generated by new atomic code, or converted to UPF format
     Using radial grid of  615 points,  1 beta functions with:
                l(1) =   0
     Q(r) pseudized with  8 coefficients,  rinner =    0.800

     atomic species   valence    mass     pseudopotential
        O1             6.00    15.99900     O ( 1.00)
        Ti1           12.00    47.86700     Ti( 1.00)
        C1             4.00    12.01100     C ( 1.00)
        H1             1.00     1.00800     H ( 1.00)

     No symmetry found

   Cartesian axes

     site n.     atom                  positions (alat units)
         1           O1  tau(   1) = (   3.2904802   0.0005063   4.7018136  )
         2           O1  tau(   2) = (   3.2900926   2.9813045   4.7018136  )
         3           Ti1 tau(   3) = (   0.0004258   2.9801865   6.0000000  )
         4           Ti1 tau(   4) = (   0.0000382   5.9609847   6.0000000  )
         5           Ti1 tau(   5) = (   3.2906075   1.4906267   6.0002472  )
         6           Ti1 tau(   6) = (   3.2902200   4.4714249   6.0002472  )
         7           O1  tau(   7) = (   1.3043587   1.4918075   6.0039043  )
         8           O1  tau(   8) = (   1.3039711   4.4726057   6.0039043  )
         9           O1  tau(   9) = (   5.2767064   1.4903225   6.0039473  )
        10           O1  tau(  10) = (   5.2763189   4.4711207   6.0039473  )
        11           O1  tau(  11) = (   3.2906025   0.0005020   7.3038282  )
        12           O1  tau(  12) = (   3.2902150   2.9813002   7.3038282  )
        13           O1  tau(  13) = (   0.0006271   0.0005054   7.9858123  )
        14           O1  tau(  14) = (   0.0002396   2.9813036   7.9858123  )
        15           Ti1 tau(  15) = (   3.2969808   0.0564913   9.1534998  )
        16           Ti1 tau(  16) = (   3.3141337   3.0327768   9.1571505  )
        17           Ti1 tau(  17) = (   0.0233175   4.5369896   9.2585411  )
        18           Ti1 tau(  18) = (   0.0198836   1.6172415   9.3624336  )
        19           O1  tau(  19) = (   4.5942328   1.4918067   9.2879030  )
        20           O1  tau(  20) = (   4.5938453   4.4726049   9.2879030  )
        21           O1  tau(  21) = (   1.9868534   1.4903216   9.2879459  )
        22           O1  tau(  22) = (   1.9864658   4.4711199   9.2879459  )
        23           O1  tau(  23) = (   0.0063158   0.0123177  10.6034754  )
        24           O1  tau(  24) = (   0.0044132   2.9941235  10.5786081  )
        25           O1  tau(  25) = (   3.2970120   2.9984392  11.3520126  )
        26           O1  tau(  26) = (   3.2962737   0.0176366  11.3543537  )
        27           Ti1 tau(  27) = (   0.0302790   0.0280999  12.4961607  )
        28           Ti1 tau(  28) = (   3.3312859   4.4933669  12.4927350  )
        29           Ti1 tau(  29) = (   3.3314798   1.5140231  12.4973429  )
        30           Ti1 tau(  30) = (   0.0296678   3.0111287  12.7911082  )
        31           O1  tau(  31) = (   1.2935131   4.4896988  12.6418387  )
        32           O1  tau(  32) = (   1.2923886   1.5080263  12.6414434  )
        33           O1  tau(  33) = (   5.2919490   4.4892252  12.6414299  )
        34           O1  tau(  34) = (   5.2935099   1.5067266  12.6404615  )
        35           O1  tau(  35) = (   3.2972132   2.9952276  13.9333167  )
        36           O1  tau(  36) = (   3.2969292   0.0217920  13.9560627  )
        37           O1  tau(  37) = (   0.0109375   0.0110981  14.6876342  )
        38           O1  tau(  38) = (   0.0109565   3.0062585  14.7134293  )
        39           Ti1 tau(  39) = (   3.3068652   2.9980133  15.7272348  )
        40           Ti1 tau(  40) = (   3.3088638   0.0192678  15.7517854  )
        41           Ti1 tau(  41) = (   0.0288418   4.5446802  15.9499200  )
        42           Ti1 tau(  42) = (   0.0223207   1.3431340  16.0223868  )
        43           O1  tau(  43) = (   4.5495857   4.4747881  16.0802101  )
        44           O1  tau(  44) = (   4.5538725   1.5135375  16.1032510  )
        45           O1  tau(  45) = (   2.0418931   1.5171625  16.1093315  )
        46           O1  tau(  46) = (   2.0408760   4.4691196  16.0910022  )
        47           O1  tau(  47) = (   0.0096378   0.0051088  17.2033978  )
        48           O1  tau(  48) = (   6.5496506   3.0476207  17.4767105  )
        49           C1  tau(  49) = (   6.4067813   3.0303407  18.7370298  )
        50           H1  tau(  50) = (   6.4030715   1.9712591  19.1129599  )

     number of k points=    10  Fermi-Dirac smearing, width (Ry)=  0.0073
                       cart. coord. in units 2pi/alat
        k(    1) = (   0.0000000   0.0000000   0.0000000), wk =   0.1250000
        k(    2) = (   0.0000000   0.0419351   0.0000000), wk =   0.2500000
        k(    3) = (   0.0000000  -0.0838702   0.0000000), wk =   0.1250000
        k(    4) = (   0.0379955   0.0000049   0.0000000), wk =   0.2500000
        k(    5) = (   0.0379955   0.0419400   0.0000000), wk =   0.2500000
        k(    6) = (   0.0379955  -0.0838652   0.0000000), wk =   0.2500000
        k(    7) = (   0.0379955  -0.0419301   0.0000000), wk =   0.2500000
        k(    8) = (  -0.0759910  -0.0000099   0.0000000), wk =   0.1250000
        k(    9) = (  -0.0759910   0.0419252   0.0000000), wk =   0.2500000
        k(   10) = (  -0.0759910  -0.0838800   0.0000000), wk =   0.1250000

     Initial potential from superposition of free atoms

     starting charge  372.99920, renormalised to  389.00000

     negative rho (up, down):  1.924E-02 0.000E+00

     %%%%%%%%%%%%%%%%%%%%%%%%%%%%%%%%%%%%%%%%%%%%%%%%%%%%%%%%%%%%%%%%%%%%%%%%
     %                                                                      %
     % You are using vdW-DF, which was implemented by the Thonhauser group. %
     % Please cite the following two papers that made this development      %
     % possible and the two reviews that describe the various versions:     %
     %                                                                      %
     %   T. Thonhauser et al., PRL 115, 136402 (2015).                      %
     %   T. Thonhauser et al., PRB 76, 125112 (2007).                       %
     %   K. Berland et al., Rep. Prog. Phys. 78, 066501 (2015).             %
     %   D.C. Langreth et al., J. Phys.: Condens. Matter 21, 084203 (2009). %
     %                                                                      %
     %                                                                      %
     % If you are calculating the stress with vdW-DF, please also cite:     %
     %                                                                      %
     %   R. Sabatini et al., J. Phys.: Condens. Matter 24, 424209 (2012).   %
     %                                                                      %
     %%%%%%%%%%%%%%%%%%%%%%%%%%%%%%%%%%%%%%%%%%%%%%%%%%%%%%%%%%%%%%%%%%%%%%%%

     Adding external electric field

     Computed dipole along edir(3) :
        Dipole               -4.4821 Ry au,        -11.3923 Debye
        Dipole field         -0.0085 Ry au,

        Potential amp.        0.7841 Ry
        Total length         46.3494 bohr

     Starting wfcs are  293 atomic wfcs
  @ DRIVER MODE: Message from server: STATUS
  @ DRIVER MODE: Message from server: POSDATA
  @ DRIVER MODE: Reading and sharing cell
  @ DRIVER MODE: Reading and sharing positions
  @ DRIVER MODE: Received positions

     Self-consistent Calculation

     iteration #  1     ecut=    29.40 Ry     beta= 0.05
     Davidson diagonalization with overlap
     c_bands:  1 eigenvalues not converged
     c_bands:  5 eigenvalues not converged
     c_bands:  5 eigenvalues not converged
     c_bands:  3 eigenvalues not converged
     c_bands:  2 eigenvalues not converged
     c_bands:  1 eigenvalues not converged
     c_bands:  3 eigenvalues not converged
     c_bands:  3 eigenvalues not converged
     c_bands:  3 eigenvalues not converged
     c_bands:  1 eigenvalues not converged
     ethr =  1.00E-05,  avg # of iterations = 22.0

[...]

     total energy              =   -2877.48880914 Ry
     estimated scf accuracy    <     589.59833507 Ry

     iteration #  2     ecut=    29.40 Ry     beta= 0.05
     Davidson diagonalization with overlap
     ethr =  1.00E-02,  avg # of iterations = 14.1

[...]

     iteration # 71     ecut=    29.40 Ry     beta= 0.05
     Davidson diagonalization with overlap
     c_bands:  1 eigenvalues not converged
     ethr =  3.92E-11,  avg # of iterations = 15.7

[...]

     total energy              =   -2928.82042667 Ry
     estimated scf accuracy    <       0.00000010 Ry

     iteration # 73     ecut=    29.40 Ry     beta= 0.05
     Davidson diagonalization with overlap
     ethr =  2.48E-11,  avg # of iterations = 12.0

     negative rho (up, down):  1.791E-02 0.000E+00

     Adding external electric field

     Computed dipole along edir(3) :
        Dipole                0.1909 Ry au,          0.4852 Debye
        Dipole field          0.0004 Ry au,

        Potential amp.       -0.0334 Ry
        Total length         46.3494 bohr

     End of self-consistent calculation

          k = 0.0000 0.0000 0.0000 ( 18029 PWs)   bands (ev):

   -56.3003 -56.2873 -56.2637 -56.2510 -56.1989 -56.1870 -56.1542 -56.1336
   -56.1215 -56.0853 -56.0712 -56.0375 -55.9905 -55.9686 -55.3268 -55.2927
   -32.8538 -32.7724 -32.6784 -32.6618 -32.6413 -32.6093 -32.5963 -32.5779
   -32.5500 -32.5339 -32.5326 -32.5052 -32.5026 -32.4685 -32.4590 -32.4492
   -32.4331 -32.4219 -32.4212 -32.3942 -32.3737 -32.3657 -32.3636 -32.3537
   -32.3394 -32.3300 -32.3275 -32.3248 -32.3074 -32.3021 -32.2965 -32.2930
   -32.2549 -32.2446 -32.2238 -32.2150 -32.2060 -32.1923 -32.1761 -32.1595
   -32.1582 -32.1561 -31.7370 -31.6390 -31.6167 -31.5536 -31.4675 -31.3564
   -19.8995 -17.0596 -16.7744 -16.6231 -16.4922 -16.4448 -16.3125 -16.1709
   -16.0828 -16.0043 -15.9548 -15.9152 -15.8852 -15.8742 -15.8545 -15.8361
   -15.8330 -15.8223 -15.7519 -15.7484 -15.7148 -15.6982 -15.6952 -15.5983
   -15.5375 -15.4749 -15.4299 -15.3556 -15.3192 -15.2500 -13.8277 -13.7093
    -8.2650  -5.0581  -4.4078  -4.2384  -4.2084  -4.2010  -4.1276  -3.9093
    -3.8564  -3.6501  -3.6057  -3.4863  -3.4616  -3.4506  -3.4128  -3.3602
    -3.2695  -3.1413  -3.1388  -3.1282  -3.1215  -3.1086  -3.0736  -3.0502
    -3.0425  -3.0075  -2.9280  -2.8262  -2.8230  -2.7233  -2.6961  -2.6795
    -2.6212  -2.6101  -2.5777  -2.5587  -2.5467  -2.5251  -2.4808  -2.4601
    -2.3783  -2.2770  -2.1561  -2.1005  -2.0183  -1.9827  -1.8528  -1.7948
    -1.7385  -1.7131  -1.6651  -1.6364  -1.5974  -1.5669  -1.5335  -1.4588
    -1.3398  -1.3385  -1.2396  -1.1645  -1.1323  -1.1059  -1.0514  -1.0369
    -1.0288  -0.9275  -0.7934  -0.7847  -0.7762  -0.6865  -0.6429  -0.6251
    -0.5425  -0.5364  -0.5011  -0.4781  -0.4521  -0.3729  -0.3640  -0.3162
    -0.3004  -0.2728  -0.1595  -0.1096  -0.0975  -0.0564  -0.0139   0.1733
     0.1860   0.3279   0.4053   0.5987   0.6975   0.7526   0.8665   1.2855
     1.3438   2.6286   2.8742   2.9012   2.9320   2.9696   3.0132   3.1237
     3.2321   3.3136   3.3295   3.3620

[...]

          k = 0.0380-0.0419 0.0000 ( 17876 PWs)   bands (ev):

[...]

          k =-0.0760-0.0000 0.0000 ( 17886 PWs)   bands (ev):

[...]

          k =-0.0760-0.0839 0.0000 ( 17948 PWs)   bands (ev):

   -56.2888 -56.2750 -56.2701 -56.2680 -56.1939 -56.1733 -56.1679 -56.1382
   -56.1193 -56.0822 -56.0567 -56.0523 -55.9927 -55.9711 -55.3103 -55.3091
   -32.6579 -32.6543 -32.5962 -32.5952 -32.5827 -32.5809 -32.5783 -32.5604
   -32.5536 -32.5061 -32.5048 -32.4961 -32.4905 -32.4638 -32.4358 -32.4316
   -32.4184 -32.4163 -32.4132 -32.4045 -32.4042 -32.3924 -32.3808 -32.3782
   -32.3771 -32.3725 -32.3668 -32.3465 -32.3373 -32.3238 -32.3100 -32.3098
   -32.3090 -32.2851 -32.2655 -32.2652 -32.2613 -32.2512 -32.2143 -32.2095
   -32.1996 -32.1652 -31.6302 -31.6286 -31.5504 -31.5494 -31.5111 -31.5101
   -19.8918 -16.4871 -16.4566 -16.3517 -16.2300 -16.2174 -16.1864 -16.1443
   -16.0886 -16.0368 -16.0314 -15.9821 -15.9602 -15.9590 -15.9185 -15.8836
   -15.8345 -15.8266 -15.8202 -15.8163 -15.7649 -15.7602 -15.7201 -15.6945
   -15.6862 -15.6478 -15.6459 -15.5673 -15.4932 -15.4544 -13.8117 -13.8093
    -8.2649  -5.0096  -3.7783  -3.7374  -3.6474  -3.6058  -3.4476  -3.4377
    -3.3930  -3.3307  -3.2732  -3.2192  -3.1928  -3.1667  -3.1502  -3.1348
    -3.1250  -3.1141  -3.1039  -3.0497  -3.0435  -3.0077  -2.9883  -2.9546
    -2.9408  -2.9341  -2.9323  -2.8903  -2.8749  -2.8638  -2.8574  -2.8478
    -2.7514  -2.6680  -2.6257  -2.5598  -2.5083  -2.4527  -2.4360  -2.4175
    -2.3813  -2.3658  -2.3494  -2.2118  -2.1818  -2.0469  -2.0354  -2.0157
    -1.9965  -1.9101  -1.8741  -1.7664  -1.7487  -1.7431  -1.6544  -1.6208
    -1.5598  -1.5437  -1.4685  -1.4264  -1.4034  -1.3277  -1.2762  -1.2640
    -1.2133  -1.1940  -1.1076  -1.0667  -1.0614  -1.0442  -0.9880  -0.9589
    -0.8790  -0.8618  -0.8415  -0.7496  -0.6855  -0.6603  -0.4761  -0.3138
    -0.3052  -0.2674  -0.1771  -0.1245  -0.0801  -0.0295  -0.0268   0.0535
     0.1072   0.2001   0.2178   0.2236   0.2985   1.0560   1.0573   1.1485
     1.1595   2.5407   3.0498   3.0945   3.1202   3.1878   3.3158   3.3408
     3.3545   3.3634   3.3772   3.4850

     the Fermi energy is     2.8504 ev

!    total energy              =   -2928.82044069 Ry
     estimated scf accuracy    <       0.00000003 Ry
     smearing contrib. (-TS)   =      -0.02926055 Ry
     internal energy E=F+TS    =   -2928.79118014 Ry

     The total energy is F=E-TS. E is the sum of the following terms:
     one-electron contribution =  -24717.62150480 Ry
     hartree contribution      =   12438.77239884 Ry
     xc contribution           =    -480.33960206 Ry
     ewald contribution        =    9830.39745911 Ry
     electric field correction =       0.00006876 Ry

     convergence has been achieved in  73 iterations

     Forces acting on atoms (cartesian axes, Ry/au):

     atom    1 type  1   force =    -0.00008929    0.00005771    0.10422481
     atom    2 type  1   force =    -0.00008771    0.00006515    0.10430744
     atom    3 type  2   force =    -0.00023508   -0.00191122    0.10279516
     atom    4 type  2   force =    -0.00013065    0.00161335    0.11444682
     atom    5 type  2   force =    -0.00028436    0.00044481   -0.18036355
     atom    6 type  2   force =    -0.00019085   -0.00001488   -0.18073874
     atom    7 type  1   force =    -0.06892676    0.00068677   -0.02916607
     atom    8 type  1   force =    -0.06847664   -0.00125669   -0.02921690
     atom    9 type  1   force =     0.06856092    0.00118917   -0.02922812
     atom   10 type  1   force =     0.06819303   -0.00087824   -0.02930016
     atom   11 type  1   force =     0.00017987    0.00061754    0.04601953
     atom   12 type  1   force =     0.00045257    0.00080812    0.04736284
     atom   13 type  1   force =     0.00022625   -0.00580876   -0.03327008
     atom   14 type  1   force =     0.00032503    0.00433446   -0.02638699
     atom   15 type  2   force =     0.00024996   -0.00053680   -0.00006234
     atom   16 type  2   force =     0.00041868    0.00040117    0.00031814
     atom   17 type  2   force =    -0.00027565   -0.00074328   -0.00077455
     atom   18 type  2   force =    -0.00040626   -0.00093825   -0.00124146
     atom   19 type  1   force =    -0.01836838    0.00018791    0.00432805
     atom   20 type  1   force =    -0.01688757    0.00156648    0.00359947
     atom   21 type  1   force =     0.01896250   -0.00059982    0.00445629
     atom   22 type  1   force =     0.01762490    0.00156063    0.00358661
     atom   23 type  1   force =     0.00002042    0.00013777   -0.00074628
     atom   24 type  1   force =     0.00004799    0.00026867    0.00099558
     atom   25 type  1   force =     0.00000290   -0.00008669   -0.00002147
     atom   26 type  1   force =    -0.00006748   -0.00024756   -0.00056443
     atom   27 type  2   force =    -0.00007129    0.00037349    0.00130818
     atom   28 type  2   force =    -0.00007583   -0.00029272    0.00065722
     atom   29 type  2   force =     0.00004728    0.00018285    0.00038357
     atom   30 type  2   force =    -0.00000150   -0.00033454    0.00110453
     atom   31 type  1   force =    -0.00003547   -0.00043791    0.00004055
     atom   32 type  1   force =     0.00001381    0.00017199    0.00014243
     atom   33 type  1   force =     0.00017599   -0.00039753   -0.00006838
     atom   34 type  1   force =     0.00006468    0.00011794    0.00004623
     atom   35 type  1   force =    -0.00018509   -0.00013046   -0.00020865
     atom   36 type  1   force =    -0.00019030   -0.00063768    0.00083435
     atom   37 type  1   force =     0.00020280   -0.00078774    0.00111901
     atom   38 type  1   force =    -0.00019721    0.00028367   -0.00075662
     atom   39 type  2   force =    -0.00008214   -0.00025676    0.00010731
     atom   40 type  2   force =     0.00021019   -0.00039454   -0.00052252
     atom   41 type  2   force =    -0.00018348    0.00066291   -0.00000291
     atom   42 type  2   force =    -0.00005149    0.00024341   -0.00067813
     atom   43 type  1   force =     0.00091695   -0.00019767    0.00029171
     atom   44 type  1   force =    -0.00034453    0.00007912   -0.00040404
     atom   45 type  1   force =    -0.00018046    0.00013319   -0.00019514
     atom   46 type  1   force =    -0.00137072    0.00000236    0.00034655
     atom   47 type  1   force =    -0.00009743   -0.00029624    0.00034787
     atom   48 type  1   force =    -0.00064732   -0.00104028    0.00300860
     atom   49 type  3   force =     0.00107259   -0.00088429    0.00025178
     atom   50 type  4   force =     0.00017165    0.00291992   -0.00251310

     Total force =     0.374769     Total SCF correction =     0.000776
  @ DRIVER MODE: Message from server: STATUS
  @ DRIVER MODE: Message from server: GETFORCE
  @ DRIVER MODE: Returning v,forces,stress,ensemble

     Writing output data file ./calc.save/
  @ DRIVER MODE: Message from server: EXIT
  @ DRIVE MODE: Exiting

     General routines

     Parallel routines

   This run was terminated on:   3: 6:48   9Sep2021

   JOB DONE.