     Program PWSCF v.6.7GPU starts on  5Aug2021 at 23:14: 2

     R & G space division:  proc/nbgrp/npool/nimage =      16
     Reading input from /storage/home/hcoda1/3/ntian30/research/carbon/02Aug_vib_paired/ads_slab/CH3_a/out_0024/pw.inp
Warning: card &CELL ignored
Warning: card   CELL_DYNAMICS='IPI', ignored
Warning: card / ignored

     Current dimensions of program PWSCF are:
     Max number of different atomic species (ntypx) = 10
     Max number of k-points (npk) =  40000
     Max angular momentum in pseudopotentials (lmaxx) =  3
     Presently no symmetry can be used with electric field

     Message from routine cell_base_init:
     DEPRECATED: use true lattice parameter, not A to a.u. conversion factor

     IMPORTANT: XC functional enforced from input :
     Exchange-correlation= BEEF-VDW
                           (   1   4  43  14   2   0   0)
     Any further DFT definition will be discarded
     Please, verify this is what you really want

  @ DRIVER MODE: Connecting to
 qe_1139763_2507748.sched-torque.pace.gatech.edu5k1ujlik_scratch
  using UNIX socket
  @ DRIVER MODE: Message from server: STATUS
  @ DRIVER MODE: Message from server: INIT
  @ DRIVER MODE: Receiving replica           0          -1
  @ DRIVER MODE: Receiving encoded integer          25
  @ DRIVER MODE:  SCF:  T  FORCE:  T  STRESS:  F  VC:  F  ENSEMBLE:  F
  @ DRIVER MODE:  SCF:  T  FORCE:  T  STRESS:  F  VC:  F  ENSEMBLE:  F

     Using Slab Decomposition

     bravais-lattice index     =            0
     lattice parameter (alat)  =       1.8897  a.u.
     unit-cell volume          =    6658.9804 (a.u.)^3
     number of atoms/cell      =           51
     number of atomic types    =            4
     number of electrons       =       385.00
     number of Kohn-Sham states=          202
     kinetic-energy cutoff     =      29.3995  Ry
     charge density cutoff     =     293.9946  Ry
     scf convergence threshold =      7.3E-08
     mixing beta               =       0.0500
     number of iterations used =            8  plain     mixing
     Exchange-correlation= BEEF-VDW
                           (   1   4  43  14   2   0   0)

     celldm(1)=   1.889726  celldm(2)=   0.000000  celldm(3)=   0.000000
     celldm(4)=   0.000000  celldm(5)=   0.000000  celldm(6)=   0.000000

     crystal axes: (cart. coord. in units of alat)
               a(1) = (   6.579727   0.000000   0.000000 )
               a(2) = (  -0.000775   5.961596   0.000000 )
               a(3) = (   0.000000   0.000000  25.155947 )

     reciprocal axes: (cart. coord. in units 2 pi/alat)
               b(1) = (  0.151982  0.000020  0.000000 )
               b(2) = (  0.000000  0.167740  0.000000 )
               b(3) = (  0.000000  0.000000  0.039752 )

     PseudoPot. # 1 for Ti read from file:
     /storage/coda1/p-amedford6/0/shared/rich_project_chbe-medford/medford-share/data/pseudos_module/espresso/nninc/pbe/van/Ti.UPF
     MD5 check sum: 8e4df49b7f0d34bbd5052bf3f5ea0213
     Pseudo is Ultrasoft, Zval = 12.0
     Generated by new atomic code, or converted to UPF format
     Using radial grid of  851 points,  6 beta functions with:
                l(1) =   0
                l(2) =   0
                l(3) =   1
                l(4) =   1
                l(5) =   2
                l(6) =   2
     Q(r) pseudized with  8 coefficients,  rinner =    1.000   1.000   1.000
                                                       1.000   1.000

     PseudoPot. # 2 for O  read from file:
     /storage/coda1/p-amedford6/0/shared/rich_project_chbe-medford/medford-share/data/pseudos_module/espresso/nninc/pbe/van/O.UPF
     MD5 check sum: 78c19812648e8988a0fe644b0f25305e
     Pseudo is Ultrasoft, Zval =  6.0
     Generated by new atomic code, or converted to UPF format
     Using radial grid of  737 points,  4 beta functions with:
                l(1) =   0
                l(2) =   0
                l(3) =   1
                l(4) =   1
     Q(r) pseudized with  8 coefficients,  rinner =    0.800   0.800   0.800

     PseudoPot. # 3 for C  read from file:
     /storage/coda1/p-amedford6/0/shared/rich_project_chbe-medford/medford-share/data/pseudos_module/espresso/nninc/pbe/van/C.UPF
     MD5 check sum: 1a69bf6b8db32088f5b2163dbdb77a27
     Pseudo is Ultrasoft, Zval =  4.0
     Generated by new atomic code, or converted to UPF format
     Using radial grid of  721 points,  4 beta functions with:
                l(1) =   0
                l(2) =   0
                l(3) =   1
                l(4) =   1
     Q(r) pseudized with  8 coefficients,  rinner =    0.800   0.800   0.800

     PseudoPot. # 4 for H  read from file:
     /storage/coda1/p-amedford6/0/shared/rich_project_chbe-medford/medford-share/data/pseudos_module/espresso/nninc/pbe/van/H.UPF
     MD5 check sum: b5ee9d7bfd3a09ee7748110bda690ff7
     Pseudo is Ultrasoft, Zval =  1.0
     Generated by new atomic code, or converted to UPF format
     Using radial grid of  615 points,  1 beta functions with:
                l(1) =   0
     Q(r) pseudized with  8 coefficients,  rinner =    0.800

     atomic species   valence    mass     pseudopotential
        Ti1           12.00    47.86700     Ti( 1.00)
        O1             6.00    15.99900     O ( 1.00)
        C1             4.00    12.01100     C ( 1.00)
        H1             1.00     1.00800     H ( 1.00)

     No symmetry found

   Cartesian axes

     site n.     atom                  positions (alat units)
         1           Ti1 tau(   1) = (   0.0004258   2.9801865   6.0000000  )
         2           Ti1 tau(   2) = (   3.2906075   1.4906267   6.0002472  )
         3           O1  tau(   3) = (   0.0006271   0.0005054   7.9858123  )
         4           O1  tau(   4) = (   3.2906025   0.0005020   7.3038282  )
         5           O1  tau(   5) = (   4.5942328   1.4918067   9.2879030  )
         6           O1  tau(   6) = (   1.9868534   1.4903216   9.2879459  )
         7           Ti1 tau(   7) = (   3.3226903   2.9514341   9.1576891  )
         8           Ti1 tau(   8) = (   0.0343464   1.5915341   9.3698150  )
         9           O1  tau(   9) = (   3.2914246   5.9565917  11.3520874  )
        10           O1  tau(  10) = (   0.0056322   0.0001635  10.6062760  )
        11           O1  tau(  11) = (   1.2817320   1.4815673  12.6483243  )
        12           O1  tau(  12) = (   5.2831613   1.4908443  12.6423163  )
        13           Ti1 tau(  13) = (   0.0382653   2.9371430  12.8126397  )
        14           Ti1 tau(  14) = (   3.3532929   1.4821923  12.4951370  )
        15           O1  tau(  15) = (   6.5662424   5.9331786  14.6600200  )
        16           O1  tau(  16) = (   3.2816364   5.9551084  13.9465949  )
        17           O1  tau(  17) = (   4.5315606   1.5040344  16.0986503  )
        18           O1  tau(  18) = (   2.0287349   1.4998145  16.0995964  )
        19           Ti1 tau(  19) = (   3.2668404   2.9769305  15.7222481  )
        20           Ti1 tau(  20) = (   6.5415330   1.4777109  16.1743724  )
        21           O1  tau(  21) = (   3.2904802   0.0005063   4.7018136  )
        22           O1  tau(  22) = (   6.5659521   0.0029676  17.1944956  )
        23           O1  tau(  23) = (   1.3043587   1.4918075   6.0039043  )
        24           O1  tau(  24) = (   5.2767064   1.4903225   6.0039473  )
        25           Ti1 tau(  25) = (   0.0000382   5.9609847   6.0000000  )
        26           Ti1 tau(  26) = (   3.2902200   4.4714249   6.0002472  )
        27           O1  tau(  27) = (   0.0002396   2.9813036   7.9858123  )
        28           O1  tau(  28) = (   3.2902150   2.9813002   7.3038282  )
        29           O1  tau(  29) = (   4.5938453   4.4726049   9.2879030  )
        30           O1  tau(  30) = (   1.9864658   4.4711199   9.2879459  )
        31           Ti1 tau(  31) = (   3.3086233   5.9367107   9.1526142  )
        32           Ti1 tau(  32) = (   0.0357814   4.5182409   9.2638332  )
        33           O1  tau(  33) = (   3.2921447   2.9709340  11.3500156  )
        34           O1  tau(  34) = (   0.0064783   2.9842416  10.5732297  )
        35           O1  tau(  35) = (   1.2836142   4.4569143  12.6423601  )
        36           O1  tau(  36) = (   5.2821634   4.4598214  12.6376843  )
        37           Ti1 tau(  37) = (   0.0453433   5.9192801  12.5257453  )
        38           Ti1 tau(  38) = (   3.3504828   4.4607682  12.4868234  )
        39           O1  tau(  39) = (   0.0004961   2.9772524  14.7247240  )
        40           O1  tau(  40) = (   3.2810368   2.9729593  13.9290527  )
        41           O1  tau(  41) = (   4.5304642   4.4591278  16.0913236  )
        42           O1  tau(  42) = (   2.0231910   4.4609068  16.0933517  )
        43           Ti1 tau(  43) = (   3.2586866   5.9546939  15.7393459  )
        44           Ti1 tau(  44) = (   6.5465221   4.6060206  15.8931146  )
        45           O1  tau(  45) = (   3.2900926   2.9813045   4.7018136  )
        46           O1  tau(  46) = (   1.3039711   4.4726057   6.0039043  )
        47           O1  tau(  47) = (   5.2763189   4.4711207   6.0039473  )
        48           C1  tau(  48) = (   6.5676456   2.8990966  17.8516705  )
        49           H1  tau(  49) = (   6.5659762   3.9554521  18.1205428  )
        50           H1  tau(  50) = (   0.8773746   2.4756544  18.3284787  )
        51           H1  tau(  51) = (   5.6845275   2.4719798  18.3496978  )

     number of k points=    10  Fermi-Dirac smearing, width (Ry)=  0.0073
                       cart. coord. in units 2pi/alat
        k(    1) = (   0.0000000   0.0000000   0.0000000), wk =   0.1250000
        k(    2) = (   0.0000000   0.0419351   0.0000000), wk =   0.2500000
        k(    3) = (   0.0000000  -0.0838702   0.0000000), wk =   0.1250000
        k(    4) = (   0.0379955   0.0000049   0.0000000), wk =   0.2500000
        k(    5) = (   0.0379955   0.0419400   0.0000000), wk =   0.2500000
        k(    6) = (   0.0379955  -0.0838652   0.0000000), wk =   0.2500000
        k(    7) = (   0.0379955  -0.0419301   0.0000000), wk =   0.2500000
        k(    8) = (  -0.0759910  -0.0000099   0.0000000), wk =   0.1250000
        k(    9) = (  -0.0759910   0.0419252   0.0000000), wk =   0.2500000
        k(   10) = (  -0.0759910  -0.0838800   0.0000000), wk =   0.1250000

     Initial potential from superposition of free atoms

     starting charge  368.99918, renormalised to  385.00000

     negative rho (up, down):  2.031E-02 0.000E+00

     %%%%%%%%%%%%%%%%%%%%%%%%%%%%%%%%%%%%%%%%%%%%%%%%%%%%%%%%%%%%%%%%%%%%%%%%
     %                                                                      %
     % You are using vdW-DF, which was implemented by the Thonhauser group. %
     % Please cite the following two papers that made this development      %
     % possible and the two reviews that describe the various versions:     %
     %                                                                      %
     %   T. Thonhauser et al., PRL 115, 136402 (2015).                      %
     %   T. Thonhauser et al., PRB 76, 125112 (2007).                       %
     %   K. Berland et al., Rep. Prog. Phys. 78, 066501 (2015).             %
     %   D.C. Langreth et al., J. Phys.: Condens. Matter 21, 084203 (2009). %
     %                                                                      %
     %                                                                      %
     % If you are calculating the stress with vdW-DF, please also cite:     %
     %                                                                      %
     %   R. Sabatini et al., J. Phys.: Condens. Matter 24, 424209 (2012).   %
     %                                                                      %
     %%%%%%%%%%%%%%%%%%%%%%%%%%%%%%%%%%%%%%%%%%%%%%%%%%%%%%%%%%%%%%%%%%%%%%%%

     Adding external electric field

     Computed dipole along edir(3) :
        Dipole               -1.9982 Ry au,         -5.0790 Debye
        Dipole field         -0.0038 Ry au,

        Potential amp.        0.3496 Ry
        Total length         46.3494 bohr

     Starting wfcs are  291 atomic wfcs
  @ DRIVER MODE: Message from server: STATUS
  @ DRIVER MODE: Message from server: POSDATA
  @ DRIVER MODE: Reading and sharing cell
  @ DRIVER MODE: Reading and sharing positions
  @ DRIVER MODE: Received positions

     Self-consistent Calculation

     iteration #  1     ecut=    29.40 Ry     beta= 0.05
     Davidson diagonalization with overlap
     c_bands:  2 eigenvalues not converged
     c_bands:  1 eigenvalues not converged
     c_bands:  3 eigenvalues not converged
     c_bands:  1 eigenvalues not converged
     ethr =  1.00E-05,  avg # of iterations = 18.6

[...]

     total energy              =   -2900.52478767 Ry
     estimated scf accuracy    <      12.60058977 Ry

     iteration #  2     ecut=    29.40 Ry     beta= 0.05
     Davidson diagonalization with overlap
     ethr =  3.27E-03,  avg # of iterations =  1.0

[...]

     iteration # 36     ecut=    29.40 Ry     beta= 0.05
     Davidson diagonalization with overlap
     c_bands:  1 eigenvalues not converged
     ethr =  6.54E-09,  avg # of iterations =  9.8

[...]

     total energy              =   -2899.02565801 Ry
     estimated scf accuracy    <       0.00000012 Ry

     iteration # 48     ecut=    29.40 Ry     beta= 0.05
     Davidson diagonalization with overlap
     ethr =  3.16E-11,  avg # of iterations = 12.5

     negative rho (up, down):  1.950E-02 0.000E+00

     Adding external electric field

     Computed dipole along edir(3) :
        Dipole                0.4671 Ry au,          1.1871 Debye
        Dipole field          0.0009 Ry au,

        Potential amp.       -0.0817 Ry
        Total length         46.3494 bohr

     End of self-consistent calculation

          k = 0.0000 0.0000 0.0000 ( 18029 PWs)   bands (ev):

   -56.2366 -56.2159 -56.2000 -56.1796 -56.1262 -56.1251 -56.0888 -56.0732
   -56.0036 -55.9973 -55.9648 -55.9625 -55.8919 -55.8705 -55.2532 -55.2191
   -32.7804 -32.7042 -32.6037 -32.5743 -32.5416 -32.5275 -32.5040 -32.4735
   -32.4637 -32.4595 -32.4450 -32.4431 -32.4380 -32.3983 -32.3972 -32.3630
   -32.3601 -32.3575 -32.3424 -32.3263 -32.3061 -32.3020 -32.2914 -32.2757
   -32.2739 -32.2541 -32.2494 -32.2412 -32.2321 -32.2250 -32.2174 -32.1890
   -32.1653 -32.1574 -32.1386 -32.1314 -32.1097 -32.0980 -32.0909 -32.0799
   -32.0757 -31.9730 -31.6634 -31.5654 -31.5430 -31.4799 -31.3938 -31.2828
   -16.9847 -16.6858 -16.5415 -16.3930 -16.3651 -16.2462 -16.0645 -15.9289
   -15.9145 -15.8398 -15.8118 -15.8064 -15.7758 -15.7581 -15.7497 -15.7432
   -15.6899 -15.6856 -15.6504 -15.6398 -15.6102 -15.5362 -15.5127 -15.4525
   -15.4114 -15.3548 -15.2600 -15.2315 -15.1980 -13.7542 -13.6359  -9.4763
    -4.3413  -4.1725  -4.1468  -4.1279  -4.0438  -3.8052  -3.7871  -3.5392
    -3.4176  -3.3971  -3.3726  -3.3679  -3.3186  -3.1811  -3.0906  -3.0636
    -3.0629  -3.0505  -3.0221  -3.0140  -2.9827  -2.9800  -2.9477  -2.9249
    -2.8954  -2.7306  -2.6532  -2.6473  -2.5758  -2.5376  -2.5228  -2.5030
    -2.4672  -2.4581  -2.4426  -2.4274  -2.3747  -2.2876  -2.2370  -2.1462
    -2.0666  -2.0361  -1.9450  -1.8545  -1.7792  -1.6888  -1.6617  -1.6360
    -1.5594  -1.5536  -1.4861  -1.4406  -1.4246  -1.3304  -1.2663  -1.2342
    -1.1348  -1.0948  -1.0045  -0.9868  -0.9745  -0.9584  -0.9462  -0.7695
    -0.7213  -0.6988  -0.6903  -0.5705  -0.5576  -0.5325  -0.5017  -0.4430
    -0.4031  -0.3491  -0.3189  -0.2724  -0.2544  -0.2484  -0.2320  -0.2084
    -0.1284  -0.0490  -0.0307   0.0630   0.1147   0.2365   0.3025   0.4077
     0.4949   0.6733   0.7711   0.8055   0.8484   0.9391   1.3608   1.4232
     2.9524   2.9942   3.0190   3.0537   3.0657   3.2226   3.3283   3.4054
     3.4074   3.4471

[...]

          k = 0.0380-0.0419 0.0000 ( 17876 PWs)   bands (ev):

[...]

          k =-0.0760-0.0000 0.0000 ( 17886 PWs)   bands (ev):

[...]

          k =-0.0760-0.0839 0.0000 ( 17948 PWs)   bands (ev):

   -56.2250 -56.2115 -56.1985 -56.1968 -56.1199 -56.1150 -56.0988 -56.0793
   -55.9994 -55.9820 -55.9814 -55.9597 -55.8945 -55.8732 -55.2366 -55.2355
   -32.5839 -32.5812 -32.5276 -32.5168 -32.5131 -32.5094 -32.4953 -32.4882
   -32.4527 -32.4366 -32.4252 -32.4213 -32.3913 -32.3721 -32.3663 -32.3567
   -32.3543 -32.3515 -32.3429 -32.3402 -32.3259 -32.3198 -32.3144 -32.3103
   -32.2994 -32.2991 -32.2971 -32.2765 -32.2441 -32.2408 -32.2355 -32.2277
   -32.2011 -32.1846 -32.1837 -32.1752 -32.1643 -32.1351 -32.1274 -32.1192
   -32.0894 -32.0213 -31.5563 -31.5550 -31.4768 -31.4759 -31.4373 -31.4364
   -16.4198 -16.3948 -16.1658 -16.1564 -16.1485 -16.0842 -15.9990 -15.9770
   -15.9601 -15.9558 -15.9011 -15.8822 -15.8740 -15.8375 -15.7798 -15.7716
   -15.7642 -15.7407 -15.6894 -15.6831 -15.6282 -15.6029 -15.5877 -15.5837
   -15.5654 -15.5611 -15.4632 -15.4203 -15.3864 -13.7381 -13.7360  -9.4920
    -3.7124  -3.6808  -3.4171  -3.3709  -3.3656  -3.2871  -3.2040  -3.1732
    -3.1480  -3.1380  -3.0819  -3.0752  -3.0730  -3.0640  -3.0389  -3.0276
    -3.0046  -2.9925  -2.9869  -2.9737  -2.9296  -2.8657  -2.8574  -2.8566
    -2.8452  -2.7999  -2.7897  -2.7826  -2.7637  -2.7629  -2.7084  -2.5099
    -2.4905  -2.4263  -2.3776  -2.3551  -2.3310  -2.3214  -2.2955  -2.2711
    -2.2058  -2.1352  -2.0177  -1.9793  -1.9561  -1.9413  -1.8873  -1.8382
    -1.7230  -1.6821  -1.6553  -1.6369  -1.5710  -1.4977  -1.4722  -1.4576
    -1.3742  -1.3466  -1.3050  -1.2405  -1.2038  -1.1906  -1.1396  -1.1266
    -1.0405  -0.9802  -0.9448  -0.8993  -0.8905  -0.8571  -0.8084  -0.7577
    -0.7448  -0.6839  -0.6221  -0.5247  -0.3157  -0.2300  -0.2207  -0.1784
    -0.1214  -0.0955   0.0122   0.0466   0.0611   0.1552   0.2213   0.2873
     0.3046   0.3298   0.3974   0.8819   1.1312   1.1320   1.2237   1.2340
     3.1567   3.1667   3.1964   3.2635   3.4098   3.4159   3.4350   3.4408
     3.5341   3.5837

     the Fermi energy is     2.9195 ev

!    total energy              =   -2899.02577554 Ry
     estimated scf accuracy    <       0.00000004 Ry
     smearing contrib. (-TS)   =      -0.02330281 Ry
     internal energy E=F+TS    =   -2899.00247273 Ry

     The total energy is F=E-TS. E is the sum of the following terms:
     one-electron contribution =  -24814.09374843 Ry
     hartree contribution      =   12485.98885242 Ry
     xc contribution           =    -474.69787548 Ry
     ewald contribution        =    9903.79988709 Ry
     electric field correction =       0.00041167 Ry

     convergence has been achieved in  48 iterations

     Forces acting on atoms (cartesian axes, Ry/au):

     atom    1 type  1   force =    -0.00012697   -0.00193824    0.10691196
     atom    2 type  1   force =    -0.00037754    0.00069335   -0.18022074
     atom    3 type  2   force =     0.00035233   -0.00663521   -0.03351270
     atom    4 type  2   force =     0.00056863   -0.00063135    0.04567676
     atom    5 type  2   force =    -0.01961664   -0.00121719    0.00435109
     atom    6 type  2   force =     0.02145254   -0.00007189    0.00423508
     atom    7 type  1   force =    -0.00029358    0.00034981   -0.00014270
     atom    8 type  1   force =    -0.00049428    0.00047078    0.00013681
     atom    9 type  2   force =    -0.00004852   -0.00039258   -0.00056735
     atom   10 type  2   force =     0.00010130    0.00045991   -0.00035942
     atom   11 type  2   force =     0.00013461   -0.00002774   -0.00003566
     atom   12 type  2   force =     0.00027821   -0.00015048   -0.00003755
     atom   13 type  1   force =    -0.00055920    0.00008609    0.00064009
     atom   14 type  1   force =    -0.00057835    0.00015404    0.00003152
     atom   15 type  2   force =    -0.00006520    0.00020237   -0.00015782
     atom   16 type  2   force =    -0.00003448   -0.00004066    0.00048892
     atom   17 type  2   force =    -0.00092797   -0.00093971   -0.00027068
     atom   18 type  2   force =     0.00071401   -0.00077076   -0.00040845
     atom   19 type  1   force =    -0.00013899    0.00038623   -0.00023484
     atom   20 type  1   force =     0.00028499    0.00068755    0.00073243
     atom   21 type  2   force =     0.00000432    0.00003304    0.10431691
     atom   22 type  2   force =    -0.00008276   -0.00019192   -0.00070285
     atom   23 type  2   force =    -0.06877741    0.00083790   -0.02966439
     atom   24 type  2   force =     0.06853523    0.00129541   -0.02973660
     atom   25 type  1   force =    -0.00010662    0.00130832    0.11806737
     atom   26 type  1   force =    -0.00021058   -0.00066670   -0.18053771
     atom   27 type  2   force =     0.00055786    0.00239572   -0.02741840
     atom   28 type  2   force =     0.00073089   -0.00049105    0.04719134
     atom   29 type  2   force =    -0.01935050    0.00075485    0.00375323
     atom   30 type  2   force =     0.01930084    0.00249311    0.00343647
     atom   31 type  1   force =    -0.00008279   -0.00073944    0.00035320
     atom   32 type  1   force =    -0.00042507    0.00004301    0.00034698
     atom   33 type  2   force =    -0.00013453    0.00036307   -0.00074964
     atom   34 type  2   force =    -0.00007650    0.00004567   -0.00012499
     atom   35 type  2   force =     0.00041723    0.00022971   -0.00042384
     atom   36 type  2   force =    -0.00078203    0.00002207   -0.00041220
     atom   37 type  1   force =    -0.00055955    0.00051096    0.00059975
     atom   38 type  1   force =     0.00014802   -0.00042204    0.00035551
     atom   39 type  2   force =    -0.00028311   -0.00015248   -0.00011553
     atom   40 type  2   force =    -0.00004397    0.00078156    0.00058957
     atom   41 type  2   force =    -0.00020624    0.00126576   -0.00022235
     atom   42 type  2   force =     0.00032896    0.00125248   -0.00043230
     atom   43 type  1   force =    -0.00011658    0.00067880   -0.00017922
     atom   44 type  1   force =     0.00033777    0.00018277    0.00001070
     atom   45 type  2   force =    -0.00000357    0.00005839    0.10432584
     atom   46 type  2   force =    -0.06831403   -0.00103206   -0.02972381
     atom   47 type  2   force =     0.06816620   -0.00064903   -0.02976433
     atom   48 type  3   force =    -0.00474570   -0.00349228    0.00380425
     atom   49 type  4   force =     0.00025588   -0.00058860   -0.00016649
     atom   50 type  4   force =     0.00015085    0.00066632   -0.00039760
     atom   51 type  4   force =     0.00474258    0.00253237   -0.00363559

     Total force =     0.377501     Total SCF correction =     0.000561
  @ DRIVER MODE: Message from server: STATUS
  @ DRIVER MODE: Message from server: GETFORCE
  @ DRIVER MODE: Returning v,forces,stress,ensemble

     Writing output data file ./calc.save/
  @ DRIVER MODE: Message from server: EXIT
  @ DRIVE MODE: Exiting

     General routines

     Parallel routines

   This run was terminated on:  23:36:33   5Aug2021

   JOB DONE.