     Program PWSCF v.6.7GPU starts on 27Sep2021 at  7:35: 8

     R & G space division:  proc/nbgrp/npool/nimage =       8
     Reading input from /storage/home/hcoda1/3/ntian30/research/carbon/CxH_vib/H2O_calc/ads_slab/CH2NHNHHO_b/out_0048/pw.inp
Warning: card &CELL ignored
Warning: card   CELL_DYNAMICS='IPI', ignored
Warning: card / ignored

     Current dimensions of program PWSCF are:
     Max number of different atomic species (ntypx) = 10
     Max number of k-points (npk) =  40000
     Max angular momentum in pseudopotentials (lmaxx) =  3
     Presently no symmetry can be used with electric field

     Message from routine cell_base_init:
     DEPRECATED: use true lattice parameter, not A to a.u. conversion factor

     IMPORTANT: XC functional enforced from input :
     Exchange-correlation= BEEF-VDW
                           (   1   4  43  14   2   0   0)
     Any further DFT definition will be discarded
     Please, verify this is what you really want

  @ DRIVER MODE: Connecting to
 qe_1139763_2971671.sched-torque.pace.gatech.eduzwumkv59_scratch
  using UNIX socket
  @ DRIVER MODE: Message from server: STATUS
  @ DRIVER MODE: Message from server: INIT
  @ DRIVER MODE: Receiving replica           0          -1
  @ DRIVER MODE: Receiving encoded integer          25
  @ DRIVER MODE:  SCF:  T  FORCE:  T  STRESS:  F  VC:  F  ENSEMBLE:  F
  @ DRIVER MODE:  SCF:  T  FORCE:  T  STRESS:  F  VC:  F  ENSEMBLE:  F

     Using Slab Decomposition

     bravais-lattice index     =            0
     lattice parameter (alat)  =       1.8897  a.u.
     unit-cell volume          =    6658.9804 (a.u.)^3
     number of atoms/cell      =           56
     number of atomic types    =            5
     number of electrons       =       403.00
     number of Kohn-Sham states=          211
     kinetic-energy cutoff     =      29.3995  Ry
     charge density cutoff     =     293.9946  Ry
     scf convergence threshold =      7.3E-08
     mixing beta               =       0.0500
     number of iterations used =            8  plain     mixing
     Exchange-correlation= BEEF-VDW
                           (   1   4  43  14   2   0   0)

     celldm(1)=   1.889726  celldm(2)=   0.000000  celldm(3)=   0.000000
     celldm(4)=   0.000000  celldm(5)=   0.000000  celldm(6)=   0.000000

     crystal axes: (cart. coord. in units of alat)
               a(1) = (   6.579727   0.000000   0.000000 )
               a(2) = (  -0.000775   5.961596   0.000000 )
               a(3) = (   0.000000   0.000000  25.155947 )

     reciprocal axes: (cart. coord. in units 2 pi/alat)
               b(1) = (  0.151982  0.000020  0.000000 )
               b(2) = (  0.000000  0.167740  0.000000 )
               b(3) = (  0.000000  0.000000  0.039752 )

     PseudoPot. # 1 for Ti read from file:
     /storage/coda1/p-amedford6/0/shared/rich_project_chbe-medford/medford-share/data/pseudos_module/espresso/nninc/pbe/van/Ti.UPF
     MD5 check sum: 8e4df49b7f0d34bbd5052bf3f5ea0213
     Pseudo is Ultrasoft, Zval = 12.0
     Generated by new atomic code, or converted to UPF format
     Using radial grid of  851 points,  6 beta functions with:
                l(1) =   0
                l(2) =   0
                l(3) =   1
                l(4) =   1
                l(5) =   2
                l(6) =   2
     Q(r) pseudized with  8 coefficients,  rinner =    1.000   1.000   1.000
                                                       1.000   1.000

     PseudoPot. # 2 for O  read from file:
     /storage/coda1/p-amedford6/0/shared/rich_project_chbe-medford/medford-share/data/pseudos_module/espresso/nninc/pbe/van/O.UPF
     MD5 check sum: 78c19812648e8988a0fe644b0f25305e
     Pseudo is Ultrasoft, Zval =  6.0
     Generated by new atomic code, or converted to UPF format
     Using radial grid of  737 points,  4 beta functions with:
                l(1) =   0
                l(2) =   0
                l(3) =   1
                l(4) =   1
     Q(r) pseudized with  8 coefficients,  rinner =    0.800   0.800   0.800

     PseudoPot. # 3 for N  read from file:
     /storage/coda1/p-amedford6/0/shared/rich_project_chbe-medford/medford-share/data/pseudos_module/espresso/nninc/pbe/van/N.UPF
     MD5 check sum: 90d10febe142ad51ac9d5be1deb811c4
     Pseudo is Ultrasoft, Zval =  5.0
     Generated by new atomic code, or converted to UPF format
     Using radial grid of  729 points,  4 beta functions with:
                l(1) =   0
                l(2) =   0
                l(3) =   1
                l(4) =   1
     Q(r) pseudized with  8 coefficients,  rinner =    0.800   0.800   0.800

     PseudoPot. # 4 for C  read from file:
     /storage/coda1/p-amedford6/0/shared/rich_project_chbe-medford/medford-share/data/pseudos_module/espresso/nninc/pbe/van/C.UPF
     MD5 check sum: 1a69bf6b8db32088f5b2163dbdb77a27
     Pseudo is Ultrasoft, Zval =  4.0
     Generated by new atomic code, or converted to UPF format
     Using radial grid of  721 points,  4 beta functions with:
                l(1) =   0
                l(2) =   0
                l(3) =   1
                l(4) =   1
     Q(r) pseudized with  8 coefficients,  rinner =    0.800   0.800   0.800

     PseudoPot. # 5 for H  read from file:
     /storage/coda1/p-amedford6/0/shared/rich_project_chbe-medford/medford-share/data/pseudos_module/espresso/nninc/pbe/van/H.UPF
     MD5 check sum: b5ee9d7bfd3a09ee7748110bda690ff7
     Pseudo is Ultrasoft, Zval =  1.0
     Generated by new atomic code, or converted to UPF format
     Using radial grid of  615 points,  1 beta functions with:
                l(1) =   0
     Q(r) pseudized with  8 coefficients,  rinner =    0.800

     atomic species   valence    mass     pseudopotential
        Ti1           12.00    47.86700     Ti( 1.00)
        O1             6.00    15.99900     O ( 1.00)
        N1             5.00    14.00700     N ( 1.00)
        C1             4.00    12.01100     C ( 1.00)
        H1             1.00     1.00800     H ( 1.00)

     No symmetry found

   Cartesian axes

     site n.     atom                  positions (alat units)
         1           Ti1 tau(   1) = (   0.0004258   2.9801865   6.0000000  )
         2           Ti1 tau(   2) = (   3.2906075   1.4906267   6.0002472  )
         3           O1  tau(   3) = (   0.0006271   0.0005054   7.9858123  )
         4           O1  tau(   4) = (   3.2906025   0.0005020   7.3038282  )
         5           O1  tau(   5) = (   4.5942328   1.4918067   9.2879030  )
         6           O1  tau(   6) = (   1.9868534   1.4903216   9.2879459  )
         7           Ti1 tau(   7) = (   3.2907910   2.8959150   9.1758416  )
         8           Ti1 tau(   8) = (   0.0015273   1.4827037   9.2680791  )
         9           O1  tau(   9) = (   3.2987294   5.9443783  11.3578989  )
        10           O1  tau(  10) = (   0.0116148   5.9584955  10.6183126  )
        11           O1  tau(  11) = (   1.2795512   1.4821507  12.6386044  )
        12           O1  tau(  12) = (   5.2980455   1.5005163  12.6536529  )
        13           Ti1 tau(  13) = (   6.5652885   2.9238251  12.5528928  )
        14           Ti1 tau(  14) = (   3.2988635   1.2998061  12.7048432  )
        15           O1  tau(  15) = (   0.0127057   0.0339484  14.6761273  )
        16           O1  tau(  16) = (   3.2875936   0.0940603  14.0290633  )
        17           O1  tau(  17) = (   4.5650748   1.6033894  16.0357995  )
        18           O1  tau(  18) = (   2.0190796   1.5896112  16.2175902  )
        19           Ti1 tau(  19) = (   3.3013862   3.0422678  15.6649453  )
        20           Ti1 tau(  20) = (   6.4815444   1.5191555  15.8288377  )
        21           O1  tau(  21) = (   3.2904802   0.0005063   4.7018136  )
        22           O1  tau(  22) = (   6.5172723   5.9480513  17.2191950  )
        23           O1  tau(  23) = (   1.3043587   1.4918075   6.0039043  )
        24           O1  tau(  24) = (   5.2767064   1.4903225   6.0039473  )
        25           Ti1 tau(  25) = (   0.0000382   5.9609847   6.0000000  )
        26           Ti1 tau(  26) = (   3.2902200   4.4714249   6.0002472  )
        27           O1  tau(  27) = (   0.0002396   2.9813036   7.9858123  )
        28           O1  tau(  28) = (   3.2902150   2.9813002   7.3038282  )
        29           O1  tau(  29) = (   4.5938453   4.4726049   9.2879030  )
        30           O1  tau(  30) = (   1.9864658   4.4711199   9.2879459  )
        31           Ti1 tau(  31) = (   3.2891106   5.8743827   9.1763621  )
        32           Ti1 tau(  32) = (   0.0006254   4.4649316   9.2693709  )
        33           O1  tau(  33) = (   3.2945946   2.9940555  11.3077331  )
        34           O1  tau(  34) = (   0.0092240   2.9805883  10.6323155  )
        35           O1  tau(  35) = (   1.2876619   4.4781899  12.6403949  )
        36           O1  tau(  36) = (   5.3010724   4.4646845  12.6541769  )
        37           Ti1 tau(  37) = (   0.0424196   5.9023569  12.5123361  )
        38           Ti1 tau(  38) = (   3.3119368   4.3729351  12.4217702  )
        39           O1  tau(  39) = (   0.0401333   2.9740317  14.7512036  )
        40           O1  tau(  40) = (   3.2576645   3.0028392  13.8982547  )
        41           O1  tau(  41) = (   4.5666544   4.4234537  16.0705803  )
        42           O1  tau(  42) = (   2.0215446   4.4756893  16.1430302  )
        43           Ti1 tau(  43) = (   3.2259990   0.0392177  16.2341362  )
        44           Ti1 tau(  44) = (   6.5723990   4.6710500  15.9980081  )
        45           O1  tau(  45) = (   3.2900926   2.9813045   4.7018136  )
        46           O1  tau(  46) = (   1.3039711   4.4726057   6.0039043  )
        47           O1  tau(  47) = (   5.2763189   4.4711207   6.0039473  )
        48           N1  tau(  48) = (   0.9334729   2.5913682  18.4753943  )
        49           N1  tau(  49) = (   6.5156687   2.9055835  17.6419879  )
        50           C1  tau(  50) = (   1.0224037   2.6952286  19.7617917  )
        51           H1  tau(  51) = (   1.9166829   2.3177709  20.2270220  )
        52           H1  tau(  52) = (   0.2162702   3.1370440  20.3260263  )
        53           H1  tau(  53) = (   1.6995924   2.1399843  17.9426691  )
        54           H1  tau(  54) = (   5.6785098   3.1284051  18.1783837  )
        55           O1  tau(  55) = (   3.5318048   0.0910060  18.0997867  )
        56           H1  tau(  56) = (   4.4897960   0.0680733  18.2655997  )

     number of k points=    10  Fermi-Dirac smearing, width (Ry)=  0.0073
                       cart. coord. in units 2pi/alat
        k(    1) = (   0.0000000   0.0000000   0.0000000), wk =   0.1250000
        k(    2) = (   0.0000000   0.0419351   0.0000000), wk =   0.2500000
        k(    3) = (   0.0000000  -0.0838702   0.0000000), wk =   0.1250000
        k(    4) = (   0.0379955   0.0000049   0.0000000), wk =   0.2500000
        k(    5) = (   0.0379955   0.0419400   0.0000000), wk =   0.2500000
        k(    6) = (   0.0379955  -0.0838652   0.0000000), wk =   0.2500000
        k(    7) = (   0.0379955  -0.0419301   0.0000000), wk =   0.2500000
        k(    8) = (  -0.0759910  -0.0000099   0.0000000), wk =   0.1250000
        k(    9) = (  -0.0759910   0.0419252   0.0000000), wk =   0.2500000
        k(   10) = (  -0.0759910  -0.0838800   0.0000000), wk =   0.1250000

     Initial potential from superposition of free atoms

     starting charge  386.99914, renormalised to  403.00000

     negative rho (up, down):  1.427E-02 0.000E+00

     %%%%%%%%%%%%%%%%%%%%%%%%%%%%%%%%%%%%%%%%%%%%%%%%%%%%%%%%%%%%%%%%%%%%%%%%
     %                                                                      %
     % You are using vdW-DF, which was implemented by the Thonhauser group. %
     % Please cite the following two papers that made this development      %
     % possible and the two reviews that describe the various versions:     %
     %                                                                      %
     %   T. Thonhauser et al., PRL 115, 136402 (2015).                      %
     %   T. Thonhauser et al., PRB 76, 125112 (2007).                       %
     %   K. Berland et al., Rep. Prog. Phys. 78, 066501 (2015).             %
     %   D.C. Langreth et al., J. Phys.: Condens. Matter 21, 084203 (2009). %
     %                                                                      %
     %                                                                      %
     % If you are calculating the stress with vdW-DF, please also cite:     %
     %                                                                      %
     %   R. Sabatini et al., J. Phys.: Condens. Matter 24, 424209 (2012).   %
     %                                                                      %
     %%%%%%%%%%%%%%%%%%%%%%%%%%%%%%%%%%%%%%%%%%%%%%%%%%%%%%%%%%%%%%%%%%%%%%%%

     Adding external electric field

     Computed dipole along edir(3) :
        Dipole              -12.9730 Ry au,        -32.9740 Debye
        Dipole field         -0.0245 Ry au,

        Potential amp.        2.2694 Ry
        Total length         46.3494 bohr

     Starting wfcs are  305 atomic wfcs
  @ DRIVER MODE: Message from server: STATUS
  @ DRIVER MODE: Message from server: POSDATA
  @ DRIVER MODE: Reading and sharing cell
  @ DRIVER MODE: Reading and sharing positions
  @ DRIVER MODE: Received positions

     Self-consistent Calculation

     iteration #  1     ecut=    29.40 Ry     beta= 0.05
     Davidson diagonalization with overlap
     c_bands:  4 eigenvalues not converged
     c_bands:  4 eigenvalues not converged
     c_bands:  3 eigenvalues not converged
     c_bands:  1 eigenvalues not converged
     c_bands:  5 eigenvalues not converged
     c_bands:  3 eigenvalues not converged
     c_bands:  2 eigenvalues not converged
     ethr =  1.00E-05,  avg # of iterations = 24.0

[...]

     total energy              =   -2352.68938208 Ry
     estimated scf accuracy    <    7059.89988087 Ry

     iteration #  2     ecut=    29.40 Ry     beta= 0.05
     Davidson diagonalization with overlap
     ethr =  1.00E-02,  avg # of iterations = 22.0

[...]

     iteration # 57     ecut=    29.40 Ry     beta= 0.05
     Davidson diagonalization with overlap
     c_bands:  1 eigenvalues not converged
     ethr =  2.00E-10,  avg # of iterations = 13.4

[...]

     total energy              =   -2973.99835380 Ry
     estimated scf accuracy    <       0.00000010 Ry

     iteration # 60     ecut=    29.40 Ry     beta= 0.05
     Davidson diagonalization with overlap
     ethr =  2.50E-11,  avg # of iterations = 14.9

     negative rho (up, down):  1.507E-02 0.000E+00

     Adding external electric field

     Computed dipole along edir(3) :
        Dipole                1.3411 Ry au,          3.4087 Debye
        Dipole field          0.0025 Ry au,

        Potential amp.       -0.2346 Ry
        Total length         46.3494 bohr

     End of self-consistent calculation

          k = 0.0000 0.0000 0.0000 ( 18029 PWs)   bands (ev):

   -55.4335 -55.3341 -55.3001 -55.1552 -55.1516 -55.1400 -55.1195 -55.1177
   -55.0907 -55.0609 -55.0406 -54.9643 -54.9584 -54.9179 -54.2977 -54.2637
   -31.8171 -31.7549 -31.6897 -31.6550 -31.6438 -31.6297 -31.6258 -31.6023
   -31.5791 -31.5782 -31.5739 -31.4899 -31.4864 -31.4392 -31.4254 -31.4113
   -31.4053 -31.3915 -31.3687 -31.3540 -31.3456 -31.3440 -31.3358 -31.3218
   -31.3090 -31.2978 -31.2845 -31.2823 -31.2810 -31.2698 -31.2662 -31.2560
   -31.2404 -31.2361 -31.2307 -31.1965 -31.1830 -31.1582 -31.1456 -31.1327
   -31.1237 -31.1195 -30.7032 -30.6181 -30.5956 -30.5208 -30.4345 -30.3226
   -19.6144 -16.1562 -15.9537 -15.8016 -15.6204 -15.4979 -15.4395 -15.2265
   -15.1586 -15.0879 -15.0076 -14.9423 -14.8650 -14.8505 -14.8247 -14.8099
   -14.7860 -14.7479 -14.7464 -14.7422 -14.6992 -14.6926 -14.6624 -14.6126
   -14.6071 -14.5854 -14.4630 -14.3895 -14.3434 -14.2108 -14.0854 -13.9490
   -12.7962 -12.6800 -10.1648  -7.0130  -6.6875  -4.2762  -4.0161  -3.5941
    -3.3350  -3.2585  -3.2290  -3.1882  -3.0635  -2.8832  -2.7631  -2.6916
    -2.5888  -2.4646  -2.4470  -2.3456  -2.3216  -2.2544  -2.2184  -2.1779
    -2.1578  -2.1342  -2.1118  -2.1076  -1.9964  -1.9919  -1.8668  -1.8472
    -1.7994  -1.7398  -1.6919  -1.6461  -1.6345  -1.6159  -1.6001  -1.5917
    -1.5608  -1.5456  -1.5224  -1.4703  -1.4101  -1.3620  -1.3259  -1.2117
    -1.0203  -0.9261  -0.8732  -0.8309  -0.7957  -0.7503  -0.7217  -0.7157
    -0.6812  -0.6466  -0.5099  -0.5021  -0.4607  -0.3841  -0.3451  -0.3229
    -0.1941  -0.1854  -0.1110  -0.0554  -0.0522  -0.0413   0.0535   0.1118
     0.1419   0.1700   0.2218   0.2802   0.3484   0.3779   0.4105   0.4703
     0.5318   0.5585   0.6182   0.6371   0.6490   0.7312   0.7528   0.7772
     0.8033   0.8707   0.9181   0.9540   0.9933   1.0942   1.1147   1.1646
     1.1986   1.3536   1.4079   1.6774   1.7287   1.7930   1.9226   2.2950
     2.3399   3.7678   3.9033   3.9217   3.9267   4.0246   4.1273   4.2411
     4.2845   4.3305   4.3683

[...]

          k = 0.0380-0.0419 0.0000 ( 17876 PWs)   bands (ev):

[...]

          k =-0.0760-0.0000 0.0000 ( 17886 PWs)   bands (ev):

[...]

          k =-0.0760-0.0839 0.0000 ( 17948 PWs)   bands (ev):

   -55.4327 -55.3174 -55.3167 -55.1406 -55.1404 -55.1371 -55.1355 -55.1304
   -55.0842 -55.0581 -55.0471 -54.9612 -54.9576 -54.9245 -54.2811 -54.2801
   -31.6889 -31.6815 -31.6326 -31.6323 -31.6316 -31.6115 -31.6109 -31.5522
   -31.5104 -31.4660 -31.4584 -31.4578 -31.4513 -31.4501 -31.4371 -31.4362
   -31.4267 -31.4048 -31.3844 -31.3750 -31.3640 -31.3491 -31.3481 -31.3368
   -31.3355 -31.3256 -31.3145 -31.3079 -31.3049 -31.3028 -31.3011 -31.2908
   -31.2799 -31.2691 -31.2621 -31.2565 -31.2271 -31.2133 -31.1867 -31.1669
   -31.1503 -31.1242 -30.6086 -30.6079 -30.5167 -30.5155 -30.4780 -30.4773
   -19.6125 -16.1140 -15.4921 -15.4220 -15.2742 -15.2650 -15.1941 -15.1528
   -15.1466 -15.0951 -15.0887 -15.0204 -14.9959 -14.9873 -14.9471 -14.8964
   -14.8462 -14.8162 -14.8109 -14.7627 -14.7528 -14.7412 -14.7048 -14.6852
   -14.6362 -14.6326 -14.6172 -14.5372 -14.4827 -14.3234 -14.3071 -13.9617
   -12.7822 -12.7816 -10.1680  -7.0088  -6.6847  -4.2657  -4.0046  -3.5448
    -2.6985  -2.6906  -2.6302  -2.4771  -2.4332  -2.3326  -2.3216  -2.2629
    -2.2491  -2.2009  -2.1807  -2.1685  -2.1326  -2.1126  -2.1092  -2.0826
    -2.0630  -2.0524  -2.0270  -1.9910  -1.9887  -1.9586  -1.9502  -1.9332
    -1.9126  -1.8915  -1.8717  -1.8665  -1.8143  -1.7765  -1.6234  -1.6037
    -1.4664  -1.4637  -1.4495  -1.4284  -1.3949  -1.3829  -1.3439  -1.3100
    -1.2381  -1.1932  -1.1003  -1.0661  -0.9602  -0.9315  -0.8610  -0.8128
    -0.7742  -0.7475  -0.7350  -0.7064  -0.6321  -0.5627  -0.5160  -0.4718
    -0.3740  -0.2997  -0.2754  -0.2718  -0.2644  -0.2314  -0.1602  -0.1576
    -0.1186  -0.1026  -0.0195  -0.0089   0.0048   0.0255   0.1593   0.1921
     0.2891   0.3550   0.4008   0.4596   0.4924   0.5438   0.6523   0.7829
     0.8389   0.8610   0.8754   0.9398   0.9852   1.0006   1.0481   1.1259
     1.1905   1.2388   1.2584   1.2819   1.3337   2.0917   2.1004   2.1599
     2.1604   4.0292   4.1353   4.2482   4.2807   4.2966   4.3156   4.3330
     4.3578   4.4012   4.4466

     the Fermi energy is     3.7932 ev

!    total energy              =   -2973.99840377 Ry
     estimated scf accuracy    <       0.00000006 Ry
     smearing contrib. (-TS)   =      -0.02051769 Ry
     internal energy E=F+TS    =   -2973.97788608 Ry

     The total energy is F=E-TS. E is the sum of the following terms:
     one-electron contribution =  -23632.08081598 Ry
     hartree contribution      =   11912.88549708 Ry
     xc contribution           =    -494.11436649 Ry
     ewald contribution        =    9239.32840519 Ry
     electric field correction =       0.00339411 Ry

     convergence has been achieved in  60 iterations

     Forces acting on atoms (cartesian axes, Ry/au):

     atom    1 type  1   force =    -0.00006200   -0.00028922    0.09523230
     atom    2 type  1   force =    -0.00010751    0.00043274   -0.17495114
     atom    3 type  2   force =     0.00000990   -0.00027889   -0.02252848
     atom    4 type  2   force =     0.00005194   -0.00195770    0.05327181
     atom    5 type  2   force =    -0.00764942   -0.00250874    0.00195370
     atom    6 type  2   force =     0.00924071   -0.00206901    0.00147538
     atom    7 type  1   force =    -0.00022904   -0.00468019    0.00729867
     atom    8 type  1   force =     0.00013959    0.00535382    0.01280082
     atom    9 type  2   force =    -0.00010589   -0.00001217    0.00024151
     atom   10 type  2   force =    -0.00275656    0.00061693   -0.01381858
     atom   11 type  2   force =    -0.00013395    0.00022244   -0.00002285
     atom   12 type  2   force =     0.00011946   -0.00003769    0.00022976
     atom   13 type  1   force =     0.00025478    0.00019513    0.00033533
     atom   14 type  1   force =     0.00002700    0.00009071    0.00007230
     atom   15 type  2   force =     0.00037013   -0.00002442   -0.00001214
     atom   16 type  2   force =    -0.00042990   -0.00014154    0.00040773
     atom   17 type  2   force =     0.00003339   -0.00059174    0.00016723
     atom   18 type  2   force =     0.00030654   -0.00028143    0.00028815
     atom   19 type  1   force =     0.00031717   -0.00002052    0.00013841
     atom   20 type  1   force =     0.00012604   -0.00021587    0.00016554
     atom   21 type  2   force =     0.00005689    0.00003544    0.10301560
     atom   22 type  2   force =     0.00016201    0.00003593   -0.00050790
     atom   23 type  2   force =    -0.07221377   -0.00019686   -0.02752014
     atom   24 type  2   force =     0.07211642    0.00021416   -0.02758800
     atom   25 type  1   force =     0.00010569   -0.00024739    0.09496859
     atom   26 type  1   force =    -0.00022416   -0.00137008   -0.17516586
     atom   27 type  2   force =     0.00015838   -0.00013913   -0.02136897
     atom   28 type  2   force =     0.00004921   -0.00025400    0.04861431
     atom   29 type  2   force =    -0.00691227    0.00262229    0.00144707
     atom   30 type  2   force =     0.00849417    0.00314524    0.00087055
     atom   31 type  1   force =    -0.00009128    0.00788415   -0.00303805
     atom   32 type  1   force =     0.00038983   -0.00772928    0.01219832
     atom   33 type  2   force =     0.00008227   -0.00003634   -0.00012472
     atom   34 type  2   force =    -0.00196000    0.00048804   -0.01638374
     atom   35 type  2   force =    -0.00011476    0.00002503   -0.00001421
     atom   36 type  2   force =    -0.00006805    0.00031952   -0.00002361
     atom   37 type  1   force =    -0.00014265    0.00017233    0.00007708
     atom   38 type  1   force =    -0.00009619   -0.00000387    0.00012410
     atom   39 type  2   force =    -0.00004683   -0.00030119   -0.00006946
     atom   40 type  2   force =     0.00011957   -0.00000942    0.00016716
     atom   41 type  2   force =    -0.00015186    0.00019083    0.00010654
     atom   42 type  2   force =     0.00050082    0.00017813   -0.00000800
     atom   43 type  1   force =     0.00046597    0.00007227    0.00427676
     atom   44 type  1   force =     0.00022754    0.00009801    0.00028854
     atom   45 type  2   force =     0.00008950   -0.00014035    0.10280891
     atom   46 type  2   force =    -0.07220096   -0.00009543   -0.02757563
     atom   47 type  2   force =     0.07213037    0.00035966   -0.02760036
     atom   48 type  3   force =    -0.00003982    0.00021772    0.00050202
     atom   49 type  3   force =     0.00041887    0.00006210   -0.00011709
     atom   50 type  4   force =    -0.00017053    0.00019642   -0.00054557
     atom   51 type  5   force =     0.00026665    0.00022433    0.00031190
     atom   52 type  5   force =    -0.00058947   -0.00017414    0.00014044
     atom   53 type  5   force =     0.00062342    0.00000795    0.00002812
     atom   54 type  5   force =     0.00002734    0.00010626   -0.00000770
     atom   55 type  2   force =    -0.00467273   -0.00006238   -0.00629769
     atom   56 type  5   force =     0.00368806    0.00030139    0.00126520

     Total force =     0.363352     Total SCF correction =     0.000550
  @ DRIVER MODE: Message from server: STATUS
  @ DRIVER MODE: Message from server: GETFORCE
  @ DRIVER MODE: Returning v,forces,stress,ensemble

     Writing output data file ./calc.save/
  @ DRIVER MODE: Message from server: EXIT
  @ DRIVE MODE: Exiting

     General routines

     Parallel routines

   This run was terminated on:   7:58:21  27Sep2021

   JOB DONE.