     Program PWSCF v.6.7GPU starts on 16Sep2021 at 12:22:45

     R & G space division:  proc/nbgrp/npool/nimage =      10
     Reading input from /storage/home/hcoda1/3/ntian30/research/carbon/CxH_vib/H2O_calc/ads_slab/CH3NH2NHH2O_c/out_0058/pw.inp
Warning: card &CELL ignored
Warning: card   CELL_DYNAMICS='IPI', ignored
Warning: card / ignored

     Current dimensions of program PWSCF are:
     Max number of different atomic species (ntypx) = 10
     Max number of k-points (npk) =  40000
     Max angular momentum in pseudopotentials (lmaxx) =  3
     Presently no symmetry can be used with electric field

     Message from routine cell_base_init:
     DEPRECATED: use true lattice parameter, not A to a.u. conversion factor

     IMPORTANT: XC functional enforced from input :
     Exchange-correlation= BEEF-VDW
                           (   1   4  43  14   2   0   0)
     Any further DFT definition will be discarded
     Please, verify this is what you really want

  @ DRIVER MODE: Connecting to
 qe_1139763_2852614.sched-torque.pace.gatech.eduajj_3x3i_scratch
  using UNIX socket
  @ DRIVER MODE: Message from server: STATUS
  @ DRIVER MODE: Message from server: INIT
  @ DRIVER MODE: Receiving replica           0          -1
  @ DRIVER MODE: Receiving encoded integer          25
  @ DRIVER MODE:  SCF:  T  FORCE:  T  STRESS:  F  VC:  F  ENSEMBLE:  F
  @ DRIVER MODE:  SCF:  T  FORCE:  T  STRESS:  F  VC:  F  ENSEMBLE:  F

     Using Slab Decomposition

     bravais-lattice index     =            0
     lattice parameter (alat)  =       1.8897  a.u.
     unit-cell volume          =    6658.9804 (a.u.)^3
     number of atoms/cell      =           59
     number of atomic types    =            5
     number of electrons       =       406.00
     number of Kohn-Sham states=          213
     kinetic-energy cutoff     =      29.3995  Ry
     charge density cutoff     =     293.9946  Ry
     scf convergence threshold =      7.3E-08
     mixing beta               =       0.0500
     number of iterations used =            8  plain     mixing
     Exchange-correlation= BEEF-VDW
                           (   1   4  43  14   2   0   0)

     celldm(1)=   1.889726  celldm(2)=   0.000000  celldm(3)=   0.000000
     celldm(4)=   0.000000  celldm(5)=   0.000000  celldm(6)=   0.000000

     crystal axes: (cart. coord. in units of alat)
               a(1) = (   6.579727   0.000000   0.000000 )
               a(2) = (  -0.000775   5.961596   0.000000 )
               a(3) = (   0.000000   0.000000  25.155947 )

     reciprocal axes: (cart. coord. in units 2 pi/alat)
               b(1) = (  0.151982  0.000020  0.000000 )
               b(2) = (  0.000000  0.167740  0.000000 )
               b(3) = (  0.000000  0.000000  0.039752 )

     PseudoPot. # 1 for Ti read from file:
     /storage/coda1/p-amedford6/0/shared/rich_project_chbe-medford/medford-share/data/pseudos_module/espresso/nninc/pbe/van/Ti.UPF
     MD5 check sum: 8e4df49b7f0d34bbd5052bf3f5ea0213
     Pseudo is Ultrasoft, Zval = 12.0
     Generated by new atomic code, or converted to UPF format
     Using radial grid of  851 points,  6 beta functions with:
                l(1) =   0
                l(2) =   0
                l(3) =   1
                l(4) =   1
                l(5) =   2
                l(6) =   2
     Q(r) pseudized with  8 coefficients,  rinner =    1.000   1.000   1.000
                                                       1.000   1.000

     PseudoPot. # 2 for O  read from file:
     /storage/coda1/p-amedford6/0/shared/rich_project_chbe-medford/medford-share/data/pseudos_module/espresso/nninc/pbe/van/O.UPF
     MD5 check sum: 78c19812648e8988a0fe644b0f25305e
     Pseudo is Ultrasoft, Zval =  6.0
     Generated by new atomic code, or converted to UPF format
     Using radial grid of  737 points,  4 beta functions with:
                l(1) =   0
                l(2) =   0
                l(3) =   1
                l(4) =   1
     Q(r) pseudized with  8 coefficients,  rinner =    0.800   0.800   0.800

     PseudoPot. # 3 for N  read from file:
     /storage/coda1/p-amedford6/0/shared/rich_project_chbe-medford/medford-share/data/pseudos_module/espresso/nninc/pbe/van/N.UPF
     MD5 check sum: 90d10febe142ad51ac9d5be1deb811c4
     Pseudo is Ultrasoft, Zval =  5.0
     Generated by new atomic code, or converted to UPF format
     Using radial grid of  729 points,  4 beta functions with:
                l(1) =   0
                l(2) =   0
                l(3) =   1
                l(4) =   1
     Q(r) pseudized with  8 coefficients,  rinner =    0.800   0.800   0.800

     PseudoPot. # 4 for C  read from file:
     /storage/coda1/p-amedford6/0/shared/rich_project_chbe-medford/medford-share/data/pseudos_module/espresso/nninc/pbe/van/C.UPF
     MD5 check sum: 1a69bf6b8db32088f5b2163dbdb77a27
     Pseudo is Ultrasoft, Zval =  4.0
     Generated by new atomic code, or converted to UPF format
     Using radial grid of  721 points,  4 beta functions with:
                l(1) =   0
                l(2) =   0
                l(3) =   1
                l(4) =   1
     Q(r) pseudized with  8 coefficients,  rinner =    0.800   0.800   0.800

     PseudoPot. # 5 for H  read from file:
     /storage/coda1/p-amedford6/0/shared/rich_project_chbe-medford/medford-share/data/pseudos_module/espresso/nninc/pbe/van/H.UPF
     MD5 check sum: b5ee9d7bfd3a09ee7748110bda690ff7
     Pseudo is Ultrasoft, Zval =  1.0
     Generated by new atomic code, or converted to UPF format
     Using radial grid of  615 points,  1 beta functions with:
                l(1) =   0
     Q(r) pseudized with  8 coefficients,  rinner =    0.800

     atomic species   valence    mass     pseudopotential
        Ti1           12.00    47.86700     Ti( 1.00)
        O1             6.00    15.99900     O ( 1.00)
        N1             5.00    14.00700     N ( 1.00)
        C1             4.00    12.01100     C ( 1.00)
        H1             1.00     1.00800     H ( 1.00)

     No symmetry found

   Cartesian axes

     site n.     atom                  positions (alat units)
         1           Ti1 tau(   1) = (   0.0004258   2.9801865   6.0000000  )
         2           Ti1 tau(   2) = (   3.2906075   1.4906267   6.0002472  )
         3           O1  tau(   3) = (   0.0006271   0.0005054   7.9858123  )
         4           O1  tau(   4) = (   3.2906025   0.0005020   7.3038282  )
         5           O1  tau(   5) = (   4.5942328   1.4918067   9.2879030  )
         6           O1  tau(   6) = (   1.9868534   1.4903216   9.2879459  )
         7           Ti1 tau(   7) = (   3.2907910   2.8959150   9.1758416  )
         8           Ti1 tau(   8) = (   0.0015273   1.4827037   9.2680791  )
         9           O1  tau(   9) = (   3.2795193   0.0050042  11.3600746  )
        10           O1  tau(  10) = (   0.0116148   5.9584955  10.6183126  )
        11           O1  tau(  11) = (   1.2764768   1.4833402  12.6625751  )
        12           O1  tau(  12) = (   5.2691860   1.4824858  12.6730715  )
        13           Ti1 tau(  13) = (   6.5785005   2.9712200  12.5432933  )
        14           Ti1 tau(  14) = (   3.2815129   1.4861921  12.5133659  )
        15           O1  tau(  15) = (   0.0084525   5.9333602  14.7514412  )
        16           O1  tau(  16) = (   3.2474592   5.9449689  14.0025778  )
        17           O1  tau(  17) = (   4.5272503   1.5270814  16.0535473  )
        18           O1  tau(  18) = (   2.0088677   1.5398698  16.1918835  )
        19           Ti1 tau(  19) = (   3.2695027   3.0127370  15.7044713  )
        20           Ti1 tau(  20) = (   6.4897317   1.5391078  15.7731133  )
        21           O1  tau(  21) = (   3.2904802   0.0005063   4.7018136  )
        22           O1  tau(  22) = (   6.4943121   0.0104379  17.3746616  )
        23           O1  tau(  23) = (   1.3043587   1.4918075   6.0039043  )
        24           O1  tau(  24) = (   5.2767064   1.4903225   6.0039473  )
        25           Ti1 tau(  25) = (   0.0000382   5.9609847   6.0000000  )
        26           Ti1 tau(  26) = (   3.2902200   4.4714249   6.0002472  )
        27           O1  tau(  27) = (   0.0002396   2.9813036   7.9858123  )
        28           O1  tau(  28) = (   3.2902150   2.9813002   7.3038282  )
        29           O1  tau(  29) = (   4.5938453   4.4726049   9.2879030  )
        30           O1  tau(  30) = (   1.9864658   4.4711199   9.2879459  )
        31           Ti1 tau(  31) = (   3.2891106   5.8743827   9.1763621  )
        32           Ti1 tau(  32) = (   0.0006254   4.4649316   9.2693709  )
        33           O1  tau(  33) = (   3.2806081   2.9711243  11.3509633  )
        34           O1  tau(  34) = (   0.0092240   2.9805883  10.6323155  )
        35           O1  tau(  35) = (   1.2760424   4.4718827  12.6381679  )
        36           O1  tau(  36) = (   5.2690016   4.4731519  12.6446470  )
        37           Ti1 tau(  37) = (   6.5708669   5.9382087  12.5160675  )
        38           Ti1 tau(  38) = (   3.2845625   4.4656782  12.4980923  )
        39           O1  tau(  39) = (   6.5779858   3.0049062  14.7590937  )
        40           O1  tau(  40) = (   3.2501146   3.0001303  13.9242794  )
        41           O1  tau(  41) = (   4.5300198   4.4412671  16.1793791  )
        42           O1  tau(  42) = (   2.0030354   4.4482434  16.2507355  )
        43           Ti1 tau(  43) = (   3.2558399   0.0045369  15.7947069  )
        44           Ti1 tau(  44) = (   0.0024851   4.6597080  16.1671864  )
        45           O1  tau(  45) = (   3.2900926   2.9813045   4.7018136  )
        46           O1  tau(  46) = (   1.3039711   4.4726057   6.0039043  )
        47           O1  tau(  47) = (   5.2763189   4.4711207   6.0039473  )
        48           N1  tau(  48) = (   0.8610865   2.3037131  18.4629187  )
        49           N1  tau(  49) = (   6.4642385   2.8627238  17.5618644  )
        50           C1  tau(  50) = (   1.1134797   3.0572184  19.7121060  )
        51           H1  tau(  51) = (   0.2160447   3.0254214  20.3281890  )
        52           H1  tau(  52) = (   1.9467850   2.5864873  20.2353232  )
        53           H1  tau(  53) = (   1.3463996   4.0866186  19.4485780  )
        54           H1  tau(  54) = (   0.5832711   1.3114681  18.6183785  )
        55           H1  tau(  55) = (   5.5643591   2.7461405  18.0238738  )
        56           H1  tau(  56) = (   1.7079168   2.1891883  17.8702682  )
        57           O1  tau(  57) = (   4.0734316   0.3175885  18.7765601  )
        58           H1  tau(  58) = (   4.9241673   0.1787741  18.2816895  )
        59           H1  tau(  59) = (   3.8734322   5.3936830  19.1372508  )

     number of k points=    10  Fermi-Dirac smearing, width (Ry)=  0.0073
                       cart. coord. in units 2pi/alat
        k(    1) = (   0.0000000   0.0000000   0.0000000), wk =   0.1250000
        k(    2) = (   0.0000000   0.0419351   0.0000000), wk =   0.2500000
        k(    3) = (   0.0000000  -0.0838702   0.0000000), wk =   0.1250000
        k(    4) = (   0.0379955   0.0000049   0.0000000), wk =   0.2500000
        k(    5) = (   0.0379955   0.0419400   0.0000000), wk =   0.2500000
        k(    6) = (   0.0379955  -0.0838652   0.0000000), wk =   0.2500000
        k(    7) = (   0.0379955  -0.0419301   0.0000000), wk =   0.2500000
        k(    8) = (  -0.0759910  -0.0000099   0.0000000), wk =   0.1250000
        k(    9) = (  -0.0759910   0.0419252   0.0000000), wk =   0.2500000
        k(   10) = (  -0.0759910  -0.0838800   0.0000000), wk =   0.1250000

     Initial potential from superposition of free atoms

     starting charge  389.99912, renormalised to  406.00000

     negative rho (up, down):  1.392E-02 0.000E+00

     %%%%%%%%%%%%%%%%%%%%%%%%%%%%%%%%%%%%%%%%%%%%%%%%%%%%%%%%%%%%%%%%%%%%%%%%
     %                                                                      %
     % You are using vdW-DF, which was implemented by the Thonhauser group. %
     % Please cite the following two papers that made this development      %
     % possible and the two reviews that describe the various versions:     %
     %                                                                      %
     %   T. Thonhauser et al., PRL 115, 136402 (2015).                      %
     %   T. Thonhauser et al., PRB 76, 125112 (2007).                       %
     %   K. Berland et al., Rep. Prog. Phys. 78, 066501 (2015).             %
     %   D.C. Langreth et al., J. Phys.: Condens. Matter 21, 084203 (2009). %
     %                                                                      %
     %                                                                      %
     % If you are calculating the stress with vdW-DF, please also cite:     %
     %                                                                      %
     %   R. Sabatini et al., J. Phys.: Condens. Matter 24, 424209 (2012).   %
     %                                                                      %
     %%%%%%%%%%%%%%%%%%%%%%%%%%%%%%%%%%%%%%%%%%%%%%%%%%%%%%%%%%%%%%%%%%%%%%%%

     Adding external electric field

     Computed dipole along edir(3) :
        Dipole              -15.6809 Ry au,        -39.8568 Debye
        Dipole field         -0.0296 Ry au,

        Potential amp.        2.7431 Ry
        Total length         46.3494 bohr

     Starting wfcs are  308 atomic wfcs
  @ DRIVER MODE: Message from server: STATUS
  @ DRIVER MODE: Message from server: POSDATA
  @ DRIVER MODE: Reading and sharing cell
  @ DRIVER MODE: Reading and sharing positions
  @ DRIVER MODE: Received positions

     Self-consistent Calculation

     iteration #  1     ecut=    29.40 Ry     beta= 0.05
     Davidson diagonalization with overlap
     c_bands:  2 eigenvalues not converged
     c_bands:  5 eigenvalues not converged
     c_bands:  2 eigenvalues not converged
     c_bands:  4 eigenvalues not converged
     c_bands:  4 eigenvalues not converged
     c_bands:  5 eigenvalues not converged
     c_bands:  5 eigenvalues not converged
     c_bands:  1 eigenvalues not converged
     ethr =  1.00E-05,  avg # of iterations = 22.5

[...]

     total energy              =   -2140.17188921 Ry
     estimated scf accuracy    <    9575.46952427 Ry

     iteration #  2     ecut=    29.40 Ry     beta= 0.05
     Davidson diagonalization with overlap
     ethr =  1.00E-02,  avg # of iterations = 31.9

[...]

     iteration # 54     ecut=    29.40 Ry     beta= 0.05
     Davidson diagonalization with overlap
     c_bands:  1 eigenvalues not converged
     c_bands:  1 eigenvalues not converged
     c_bands:  1 eigenvalues not converged
     ethr =  8.20E-11,  avg # of iterations = 14.8

[...]

     total energy              =   -2977.68472162 Ry
     estimated scf accuracy    <       0.00000015 Ry

     iteration # 56     ecut=    29.40 Ry     beta= 0.05
     Davidson diagonalization with overlap
     ethr =  3.62E-11,  avg # of iterations =  8.6

     negative rho (up, down):  1.243E-02 0.000E+00

     Adding external electric field

     Computed dipole along edir(3) :
        Dipole                1.6057 Ry au,          4.0814 Debye
        Dipole field          0.0030 Ry au,

        Potential amp.       -0.2809 Ry
        Total length         46.3494 bohr

     End of self-consistent calculation

          k = 0.0000 0.0000 0.0000 ( 18029 PWs)   bands (ev):

   -54.9552 -54.9190 -54.9159 -54.8849 -54.8451 -54.8350 -54.7949 -54.7632
   -54.7587 -54.7482 -54.7281 -54.7230 -54.7150 -54.6607 -53.9341 -53.9001
   -31.5271 -31.4091 -31.3215 -31.2830 -31.2659 -31.2527 -31.2504 -31.2449
   -31.2106 -31.2089 -31.1640 -31.1640 -31.1581 -31.1279 -31.1092 -31.0893
   -31.0789 -31.0731 -31.0719 -31.0645 -31.0306 -31.0258 -31.0193 -31.0135
   -30.9937 -30.9759 -30.9651 -30.9641 -30.9568 -30.9566 -30.9464 -30.9376
   -30.9215 -30.9213 -30.9126 -30.9108 -30.8853 -30.8789 -30.8770 -30.8760
   -30.8574 -30.8570 -30.3428 -30.2504 -30.2282 -30.1593 -30.0726 -29.9616
   -18.9607 -18.1619 -15.7904 -15.5226 -15.3973 -15.1973 -15.1443 -15.0393
   -14.8794 -14.8185 -14.7537 -14.7285 -14.7226 -14.6961 -14.6235 -14.5680
   -14.5386 -14.4868 -14.4863 -14.4499 -14.4430 -14.4379 -14.3834 -14.3796
   -14.3430 -14.3294 -14.3217 -14.1785 -14.1001 -14.0517 -14.0414 -13.1966
   -12.4369 -12.3197 -10.9821  -7.5849  -6.3955  -5.8949  -5.7546  -4.0082
    -3.8434  -3.1343  -2.9636  -2.9517  -2.8739  -2.8505  -2.6798  -2.6236
    -2.5277  -2.3959  -2.3192  -2.2218  -2.1780  -2.1597  -2.1460  -2.0324
    -1.9469  -1.9094  -1.8700  -1.8319  -1.8146  -1.7693  -1.7479  -1.7380
    -1.7052  -1.6802  -1.5269  -1.4522  -1.4156  -1.3810  -1.3414  -1.2843
    -1.2628  -1.2465  -1.2411  -1.2331  -1.2165  -1.1921  -1.1562  -1.1245
    -1.0565  -0.9712  -0.9632  -0.8516  -0.7673  -0.6328  -0.5818  -0.5239
    -0.4936  -0.4272  -0.3849  -0.3379  -0.3018  -0.2953  -0.2484  -0.1605
    -0.1457  -0.0908  -0.0723   0.0124   0.0597   0.0643   0.0751   0.2517
     0.2619   0.2796   0.3829   0.4639   0.5024   0.5190   0.5766   0.6390
     0.6415   0.6798   0.7018   0.7324   0.8152   0.9188   0.9437   0.9822
     0.9964   1.0219   1.0389   1.0664   1.1053   1.1864   1.1925   1.2699
     1.3628   1.3736   1.6362   1.6682   1.9990   2.0259   2.0883   2.2740
     2.6628   2.7102   4.1466   4.2087   4.2538   4.2794   4.2976   4.3787
     4.3981   4.6146   4.6409   4.6417   4.6511

[...]

          k = 0.0380-0.0419 0.0000 ( 17876 PWs)   bands (ev):

[...]

          k =-0.0760-0.0000 0.0000 ( 17886 PWs)   bands (ev):

[...]

          k =-0.0760-0.0839 0.0000 ( 17948 PWs)   bands (ev):

   -54.9433 -54.9275 -54.9019 -54.9018 -54.8426 -54.8255 -54.8044 -54.7563
   -54.7479 -54.7424 -54.7333 -54.7305 -54.7253 -54.6631 -53.9171 -53.9169
   -31.3358 -31.3245 -31.2588 -31.2243 -31.2242 -31.2175 -31.1944 -31.1942
   -31.1687 -31.1665 -31.1573 -31.1536 -31.1456 -31.0956 -31.0821 -31.0813
   -31.0771 -31.0758 -31.0727 -31.0699 -31.0428 -31.0328 -31.0304 -31.0239
   -31.0230 -31.0212 -31.0211 -31.0199 -30.9989 -30.9815 -30.9754 -30.9685
   -30.9622 -30.9565 -30.9551 -30.9511 -30.9505 -30.9234 -30.9165 -30.9136
   -30.9091 -30.8984 -30.2410 -30.2408 -30.1555 -30.1553 -30.1160 -30.1159
   -18.9558 -18.1624 -15.2810 -15.1542 -15.0551 -14.9993 -14.9529 -14.9374
   -14.9198 -14.8662 -14.8360 -14.7764 -14.7528 -14.7047 -14.6605 -14.6566
   -14.6287 -14.5492 -14.5341 -14.5215 -14.5141 -14.4633 -14.4493 -14.4265
   -14.4039 -14.3999 -14.3813 -14.3085 -14.2991 -14.2950 -14.2549 -13.2059
   -12.4214 -12.4212 -10.9827  -7.5959  -6.3859  -5.8963  -5.7374  -3.9863
    -3.8378  -2.5818  -2.5452  -2.4059  -2.3920  -2.2808  -2.1885  -2.1383
    -2.1325  -1.9935  -1.9608  -1.9448  -1.9298  -1.9171  -1.8685  -1.8449
    -1.8094  -1.7919  -1.7823  -1.7725  -1.7569  -1.7363  -1.6844  -1.6801
    -1.6697  -1.6553  -1.6112  -1.5957  -1.5646  -1.5538  -1.5257  -1.5030
    -1.4357  -1.3416  -1.2938  -1.2503  -1.1963  -1.1437  -1.1377  -1.0586
    -1.0412  -1.0096  -0.9786  -0.9537  -0.8566  -0.7838  -0.6899  -0.6874
    -0.6839  -0.5640  -0.5239  -0.5059  -0.4926  -0.4635  -0.3794  -0.3682
    -0.3088  -0.2340  -0.2084  -0.2035  -0.1779  -0.0576  -0.0327   0.0267
     0.0577   0.0893   0.0915   0.1710   0.1841   0.2433   0.2577   0.2709
     0.3159   0.3334   0.4320   0.5219   0.5577   0.6606   0.7537   0.7828
     0.8780   0.9356   1.0406   1.0611   1.0845   1.1810   1.1893   1.2242
     1.3530   1.3598   1.4759   1.5156   1.5256   1.5281   2.4464   2.4478
     2.5303   2.5303   4.2732   4.3960   4.4115   4.4577   4.5125   4.6533
     4.6767   4.7237   4.7254   4.8004   4.8085

     the Fermi energy is     4.1989 ev

!    total energy              =   -2977.68479615 Ry
     estimated scf accuracy    <       0.00000007 Ry
     smearing contrib. (-TS)   =      -0.03699347 Ry
     internal energy E=F+TS    =   -2977.64780268 Ry

     The total energy is F=E-TS. E is the sum of the following terms:
     one-electron contribution =  -23305.62936284 Ry
     hartree contribution      =   11753.80112983 Ry
     xc contribution           =    -496.59941558 Ry
     ewald contribution        =    9070.77498014 Ry
     electric field correction =       0.00486577 Ry

     convergence has been achieved in  56 iterations

     Forces acting on atoms (cartesian axes, Ry/au):

     atom    1 type  1   force =     0.00008062   -0.00025296    0.09413783
     atom    2 type  1   force =    -0.00009512   -0.00045746   -0.17747094
     atom    3 type  2   force =     0.00006258   -0.00032709   -0.02123355
     atom    4 type  2   force =     0.00003812   -0.00179069    0.05729051
     atom    5 type  2   force =    -0.01080436   -0.00101725    0.00668294
     atom    6 type  2   force =     0.01200443   -0.00033235    0.00503641
     atom    7 type  1   force =    -0.00060729    0.00106579   -0.01459529
     atom    8 type  1   force =     0.00086351    0.00328585    0.00459718
     atom    9 type  2   force =     0.00001145   -0.00005570    0.00013566
     atom   10 type  2   force =    -0.00368977    0.00211618   -0.00165371
     atom   11 type  2   force =    -0.00018045    0.00062135   -0.00010220
     atom   12 type  2   force =     0.00019492    0.00028684   -0.00022035
     atom   13 type  1   force =    -0.00019570   -0.00026612    0.00011164
     atom   14 type  1   force =     0.00025054   -0.00022714   -0.00036672
     atom   15 type  2   force =     0.00020463    0.00034303   -0.00010111
     atom   16 type  2   force =    -0.00012137    0.00024175   -0.00019461
     atom   17 type  2   force =    -0.00007584   -0.00023742    0.00016814
     atom   18 type  2   force =     0.00017715    0.00004676   -0.00006879
     atom   19 type  1   force =     0.00000417    0.00010262   -0.00037374
     atom   20 type  1   force =     0.00036060   -0.00001061   -0.00001318
     atom   21 type  2   force =     0.00011949   -0.00008361    0.10375575
     atom   22 type  2   force =     0.00053794   -0.00046180   -0.00069255
     atom   23 type  2   force =    -0.07070072   -0.00014855   -0.02715895
     atom   24 type  2   force =     0.07066345    0.00032393   -0.02716038
     atom   25 type  1   force =     0.00011708   -0.00017690    0.09374717
     atom   26 type  1   force =    -0.00007107   -0.00052859   -0.17769563
     atom   27 type  2   force =     0.00006750   -0.00005329   -0.02033184
     atom   28 type  2   force =     0.00006655   -0.00145923    0.05629850
     atom   29 type  2   force =    -0.01131403   -0.00039237    0.00736421
     atom   30 type  2   force =     0.01242526    0.00000492    0.00575272
     atom   31 type  1   force =    -0.00075267    0.00574785   -0.01563881
     atom   32 type  1   force =     0.00081831   -0.00456400    0.00434534
     atom   33 type  2   force =     0.00001983    0.00015596    0.00030135
     atom   34 type  2   force =    -0.00321469   -0.00103600   -0.00521185
     atom   35 type  2   force =    -0.00012404   -0.00039348    0.00007580
     atom   36 type  2   force =     0.00021775   -0.00006489   -0.00009610
     atom   37 type  1   force =    -0.00012684    0.00044171   -0.00010422
     atom   38 type  1   force =     0.00008564    0.00015877   -0.00013523
     atom   39 type  2   force =    -0.00046177   -0.00031482   -0.00015615
     atom   40 type  2   force =     0.00012860   -0.00007692    0.00028356
     atom   41 type  2   force =    -0.00007477    0.00027895   -0.00004276
     atom   42 type  2   force =     0.00048098    0.00011201   -0.00025784
     atom   43 type  1   force =    -0.00015995    0.00012860   -0.00010247
     atom   44 type  1   force =     0.00037876    0.00036042    0.00035109
     atom   45 type  2   force =     0.00010594   -0.00006600    0.10373817
     atom   46 type  2   force =    -0.07069339   -0.00007430   -0.02713101
     atom   47 type  2   force =     0.07066558    0.00033565   -0.02715695
     atom   48 type  3   force =     0.00056089   -0.00073317    0.00105756
     atom   49 type  3   force =    -0.00020895   -0.00041378    0.00045908
     atom   50 type  4   force =     0.00032520    0.00038037   -0.00023433
     atom   51 type  5   force =     0.00062215    0.00078838   -0.00030577
     atom   52 type  5   force =    -0.00008535    0.00034232    0.00019288
     atom   53 type  5   force =     0.00014465   -0.00054179   -0.00050018
     atom   54 type  5   force =     0.00039556   -0.00009406    0.00020733
     atom   55 type  5   force =     0.00035516   -0.00061138   -0.00012708
     atom   56 type  5   force =     0.00020424   -0.00015145    0.00042509
     atom   57 type  2   force =    -0.00181025   -0.01681641    0.00666624
     atom   58 type  5   force =    -0.00072862    0.00142984   -0.00079916
     atom   59 type  5   force =     0.00253780    0.01513175   -0.00574872

     Total force =     0.366664     Total SCF correction =     0.000766
  @ DRIVER MODE: Message from server: STATUS
  @ DRIVER MODE: Message from server: GETFORCE
  @ DRIVER MODE: Returning v,forces,stress,ensemble

     Writing output data file ./calc.save/
  @ DRIVER MODE: Message from server: EXIT
  @ DRIVE MODE: Exiting

     General routines

     Parallel routines

   This run was terminated on:  12:40:46  16Sep2021

   JOB DONE.