     Program PWSCF v.6.7GPU starts on  9Sep2021 at  7:29:43

     R & G space division:  proc/nbgrp/npool/nimage =      10
     Reading input from /storage/home/hcoda1/3/ntian30/research/carbon/CxH_vib/CH3_calc/ads_slab/CH3NNH3_a/out_0029/pw.inp
Warning: card &CELL ignored
Warning: card   CELL_DYNAMICS='IPI', ignored
Warning: card / ignored

     Current dimensions of program PWSCF are:
     Max number of different atomic species (ntypx) = 10
     Max number of k-points (npk) =  40000
     Max angular momentum in pseudopotentials (lmaxx) =  3
     Presently no symmetry can be used with electric field

     Message from routine cell_base_init:
     DEPRECATED: use true lattice parameter, not A to a.u. conversion factor

     IMPORTANT: XC functional enforced from input :
     Exchange-correlation= BEEF-VDW
                           (   1   4  43  14   2   0   0)
     Any further DFT definition will be discarded
     Please, verify this is what you really want

  @ DRIVER MODE: Connecting to
 qe_1139763_2767402.sched-torque.pace.gatech.edurcgtz06w_scratch
  using UNIX socket
  @ DRIVER MODE: Message from server: STATUS
  @ DRIVER MODE: Message from server: INIT
  @ DRIVER MODE: Receiving replica           0          -1
  @ DRIVER MODE: Receiving encoded integer          25
  @ DRIVER MODE:  SCF:  T  FORCE:  T  STRESS:  F  VC:  F  ENSEMBLE:  F
  @ DRIVER MODE:  SCF:  T  FORCE:  T  STRESS:  F  VC:  F  ENSEMBLE:  F

     Using Slab Decomposition

     bravais-lattice index     =            0
     lattice parameter (alat)  =       1.8897  a.u.
     unit-cell volume          =    6658.9804 (a.u.)^3
     number of atoms/cell      =           56
     number of atomic types    =            5
     number of electrons       =       398.00
     number of Kohn-Sham states=          209
     kinetic-energy cutoff     =      29.3995  Ry
     charge density cutoff     =     293.9946  Ry
     scf convergence threshold =      7.3E-08
     mixing beta               =       0.0500
     number of iterations used =            8  plain     mixing
     Exchange-correlation= BEEF-VDW
                           (   1   4  43  14   2   0   0)

     celldm(1)=   1.889726  celldm(2)=   0.000000  celldm(3)=   0.000000
     celldm(4)=   0.000000  celldm(5)=   0.000000  celldm(6)=   0.000000

     crystal axes: (cart. coord. in units of alat)
               a(1) = (   6.579727   0.000000   0.000000 )
               a(2) = (  -0.000775   5.961596   0.000000 )
               a(3) = (   0.000000   0.000000  25.155947 )

     reciprocal axes: (cart. coord. in units 2 pi/alat)
               b(1) = (  0.151982  0.000020  0.000000 )
               b(2) = (  0.000000  0.167740  0.000000 )
               b(3) = (  0.000000  0.000000  0.039752 )

     PseudoPot. # 1 for Ti read from file:
     /storage/coda1/p-amedford6/0/shared/rich_project_chbe-medford/medford-share/data/pseudos_module/espresso/nninc/pbe/van/Ti.UPF
     MD5 check sum: 8e4df49b7f0d34bbd5052bf3f5ea0213
     Pseudo is Ultrasoft, Zval = 12.0
     Generated by new atomic code, or converted to UPF format
     Using radial grid of  851 points,  6 beta functions with:
                l(1) =   0
                l(2) =   0
                l(3) =   1
                l(4) =   1
                l(5) =   2
                l(6) =   2
     Q(r) pseudized with  8 coefficients,  rinner =    1.000   1.000   1.000
                                                       1.000   1.000

     PseudoPot. # 2 for O  read from file:
     /storage/coda1/p-amedford6/0/shared/rich_project_chbe-medford/medford-share/data/pseudos_module/espresso/nninc/pbe/van/O.UPF
     MD5 check sum: 78c19812648e8988a0fe644b0f25305e
     Pseudo is Ultrasoft, Zval =  6.0
     Generated by new atomic code, or converted to UPF format
     Using radial grid of  737 points,  4 beta functions with:
                l(1) =   0
                l(2) =   0
                l(3) =   1
                l(4) =   1
     Q(r) pseudized with  8 coefficients,  rinner =    0.800   0.800   0.800

     PseudoPot. # 3 for N  read from file:
     /storage/coda1/p-amedford6/0/shared/rich_project_chbe-medford/medford-share/data/pseudos_module/espresso/nninc/pbe/van/N.UPF
     MD5 check sum: 90d10febe142ad51ac9d5be1deb811c4
     Pseudo is Ultrasoft, Zval =  5.0
     Generated by new atomic code, or converted to UPF format
     Using radial grid of  729 points,  4 beta functions with:
                l(1) =   0
                l(2) =   0
                l(3) =   1
                l(4) =   1
     Q(r) pseudized with  8 coefficients,  rinner =    0.800   0.800   0.800

     PseudoPot. # 4 for C  read from file:
     /storage/coda1/p-amedford6/0/shared/rich_project_chbe-medford/medford-share/data/pseudos_module/espresso/nninc/pbe/van/C.UPF
     MD5 check sum: 1a69bf6b8db32088f5b2163dbdb77a27
     Pseudo is Ultrasoft, Zval =  4.0
     Generated by new atomic code, or converted to UPF format
     Using radial grid of  721 points,  4 beta functions with:
                l(1) =   0
                l(2) =   0
                l(3) =   1
                l(4) =   1
     Q(r) pseudized with  8 coefficients,  rinner =    0.800   0.800   0.800

     PseudoPot. # 5 for H  read from file:
     /storage/coda1/p-amedford6/0/shared/rich_project_chbe-medford/medford-share/data/pseudos_module/espresso/nninc/pbe/van/H.UPF
     MD5 check sum: b5ee9d7bfd3a09ee7748110bda690ff7
     Pseudo is Ultrasoft, Zval =  1.0
     Generated by new atomic code, or converted to UPF format
     Using radial grid of  615 points,  1 beta functions with:
                l(1) =   0
     Q(r) pseudized with  8 coefficients,  rinner =    0.800

     atomic species   valence    mass     pseudopotential
        Ti1           12.00    47.86700     Ti( 1.00)
        O1             6.00    15.99900     O ( 1.00)
        N1             5.00    14.00700     N ( 1.00)
        C1             4.00    12.01100     C ( 1.00)
        H1             1.00     1.00800     H ( 1.00)

     No symmetry found

   Cartesian axes

     site n.     atom                  positions (alat units)
         1           Ti1 tau(   1) = (   0.0004258   2.9801865   6.0000000  )
         2           Ti1 tau(   2) = (   3.2906075   1.4906267   6.0002472  )
         3           O1  tau(   3) = (   0.0006271   0.0005054   7.9858123  )
         4           O1  tau(   4) = (   3.2906025   0.0005020   7.3038282  )
         5           O1  tau(   5) = (   4.5942328   1.4918067   9.2879030  )
         6           O1  tau(   6) = (   1.9868534   1.4903216   9.2879459  )
         7           Ti1 tau(   7) = (   3.2907910   2.8959150   9.1758416  )
         8           Ti1 tau(   8) = (   0.0015273   1.4827037   9.2680791  )
         9           O1  tau(   9) = (   3.2915376   0.0135470  11.3011085  )
        10           O1  tau(  10) = (   0.0116148   5.9584955  10.6183126  )
        11           O1  tau(  11) = (   1.3264285   1.5112823  12.6233503  )
        12           O1  tau(  12) = (   5.3038506   1.5117067  12.6402039  )
        13           Ti1 tau(  13) = (   6.4820107   2.9926285  12.7699842  )
        14           Ti1 tau(  14) = (   3.1705855   1.5046985  12.4703807  )
        15           O1  tau(  15) = (   0.0265921   0.0018185  14.6022993  )
        16           O1  tau(  16) = (   3.3077976   0.0231332  13.8844522  )
        17           O1  tau(  17) = (   4.5431088   1.5356983  16.0582573  )
        18           O1  tau(  18) = (   2.0919096   1.5355568  16.0602035  )
        19           Ti1 tau(  19) = (   3.3160089   3.0194793  15.6930983  )
        20           Ti1 tau(  20) = (   0.0166562   1.5958061  16.1043543  )
        21           O1  tau(  21) = (   3.2904802   0.0005063   4.7018136  )
        22           O1  tau(  22) = (   0.0292894   0.0555714  17.2141426  )
        23           O1  tau(  23) = (   1.3043587   1.4918075   6.0039043  )
        24           O1  tau(  24) = (   5.2767064   1.4903225   6.0039473  )
        25           Ti1 tau(  25) = (   0.0000382   5.9609847   6.0000000  )
        26           Ti1 tau(  26) = (   3.2902200   4.4714249   6.0002472  )
        27           O1  tau(  27) = (   0.0002396   2.9813036   7.9858123  )
        28           O1  tau(  28) = (   3.2902150   2.9813002   7.3038282  )
        29           O1  tau(  29) = (   4.5938453   4.4726049   9.2879030  )
        30           O1  tau(  30) = (   1.9864658   4.4711199   9.2879459  )
        31           Ti1 tau(  31) = (   3.2891106   5.8743827   9.1763621  )
        32           Ti1 tau(  32) = (   0.0006254   4.4649316   9.2693709  )
        33           O1  tau(  33) = (   3.2938734   2.9940915  11.3014364  )
        34           O1  tau(  34) = (   0.0092240   2.9805883  10.6323155  )
        35           O1  tau(  35) = (   1.3265148   4.4779228  12.6213786  )
        36           O1  tau(  36) = (   5.3043665   4.4729268  12.6387898  )
        37           Ti1 tau(  37) = (   6.5102921   0.0103953  12.7821347  )
        38           Ti1 tau(  38) = (   3.1702703   4.4844908  12.4724723  )
        39           O1  tau(  39) = (   0.0044238   2.9856840  14.6711682  )
        40           O1  tau(  40) = (   3.3052367   3.0047533  13.8869641  )
        41           O1  tau(  41) = (   4.5463945   4.5179403  16.0573015  )
        42           O1  tau(  42) = (   2.0913021   4.5186677  16.0620504  )
        43           Ti1 tau(  43) = (   3.3128124   0.0388915  15.6953448  )
        44           Ti1 tau(  44) = (   0.0191476   4.5695365  16.1495174  )
        45           O1  tau(  45) = (   3.2900926   2.9813045   4.7018136  )
        46           O1  tau(  46) = (   1.3039711   4.4726057   6.0039043  )
        47           O1  tau(  47) = (   5.2763189   4.4711207   6.0039473  )
        48           N1  tau(  48) = (   0.0657769   3.0188755  17.3428317  )
        49           N1  tau(  49) = (   6.3710133   2.5762042  22.6422586  )
        50           C1  tau(  50) = (   0.3130180   3.0007025  18.7658599  )
        51           H1  tau(  51) = (   0.2928038   4.0066326  19.1970245  )
        52           H1  tau(  52) = (   6.1505335   2.3845869  19.2755718  )
        53           H1  tau(  53) = (   1.2957935   2.5555442  18.9776258  )
        54           H1  tau(  54) = (   5.9555952   3.1943721  23.3306195  )
        55           H1  tau(  55) = (   0.0098814   1.7053999  23.1148127  )
        56           H1  tau(  56) = (   0.6724875   2.9916800  22.3598805  )

     number of k points=    10  Fermi-Dirac smearing, width (Ry)=  0.0073
                       cart. coord. in units 2pi/alat
        k(    1) = (   0.0000000   0.0000000   0.0000000), wk =   0.1250000
        k(    2) = (   0.0000000   0.0419351   0.0000000), wk =   0.2500000
        k(    3) = (   0.0000000  -0.0838702   0.0000000), wk =   0.1250000
        k(    4) = (   0.0379955   0.0000049   0.0000000), wk =   0.2500000
        k(    5) = (   0.0379955   0.0419400   0.0000000), wk =   0.2500000
        k(    6) = (   0.0379955  -0.0838652   0.0000000), wk =   0.2500000
        k(    7) = (   0.0379955  -0.0419301   0.0000000), wk =   0.2500000
        k(    8) = (  -0.0759910  -0.0000099   0.0000000), wk =   0.1250000
        k(    9) = (  -0.0759910   0.0419252   0.0000000), wk =   0.2500000
        k(   10) = (  -0.0759910  -0.0838800   0.0000000), wk =   0.1250000

     Initial potential from superposition of free atoms

     starting charge  381.99914, renormalised to  398.00000

     negative rho (up, down):  7.228E-03 0.000E+00

     %%%%%%%%%%%%%%%%%%%%%%%%%%%%%%%%%%%%%%%%%%%%%%%%%%%%%%%%%%%%%%%%%%%%%%%%
     %                                                                      %
     % You are using vdW-DF, which was implemented by the Thonhauser group. %
     % Please cite the following two papers that made this development      %
     % possible and the two reviews that describe the various versions:     %
     %                                                                      %
     %   T. Thonhauser et al., PRL 115, 136402 (2015).                      %
     %   T. Thonhauser et al., PRB 76, 125112 (2007).                       %
     %   K. Berland et al., Rep. Prog. Phys. 78, 066501 (2015).             %
     %   D.C. Langreth et al., J. Phys.: Condens. Matter 21, 084203 (2009). %
     %                                                                      %
     %                                                                      %
     % If you are calculating the stress with vdW-DF, please also cite:     %
     %                                                                      %
     %   R. Sabatini et al., J. Phys.: Condens. Matter 24, 424209 (2012).   %
     %                                                                      %
     %%%%%%%%%%%%%%%%%%%%%%%%%%%%%%%%%%%%%%%%%%%%%%%%%%%%%%%%%%%%%%%%%%%%%%%%

     Adding external electric field

     Computed dipole along edir(3) :
        Dipole              -12.0370 Ry au,        -30.5950 Debye
        Dipole field         -0.0227 Ry au,

        Potential amp.        2.1057 Ry
        Total length         46.3494 bohr

     Starting wfcs are  302 atomic wfcs
  @ DRIVER MODE: Message from server: STATUS
  @ DRIVER MODE: Message from server: POSDATA
  @ DRIVER MODE: Reading and sharing cell
  @ DRIVER MODE: Reading and sharing positions
  @ DRIVER MODE: Received positions

     Self-consistent Calculation

     iteration #  1     ecut=    29.40 Ry     beta= 0.05
     Davidson diagonalization with overlap
     c_bands:  1 eigenvalues not converged
     c_bands:  1 eigenvalues not converged
     c_bands:  1 eigenvalues not converged
     c_bands:  1 eigenvalues not converged
     c_bands:  1 eigenvalues not converged
     c_bands:  1 eigenvalues not converged
     c_bands:  1 eigenvalues not converged
     c_bands:  2 eigenvalues not converged
     c_bands:  1 eigenvalues not converged
     ethr =  1.00E-05,  avg # of iterations = 19.6

[...]

     total energy              =   -2520.03708079 Ry
     estimated scf accuracy    <    4725.36009774 Ry

     iteration #  2     ecut=    29.40 Ry     beta= 0.05
     Davidson diagonalization with overlap
     ethr =  1.00E-02,  avg # of iterations = 21.9

[...]

     iteration # 38     ecut=    29.40 Ry     beta= 0.05
     Davidson diagonalization with overlap
     c_bands:  1 eigenvalues not converged
     ethr =  2.43E-07,  avg # of iterations = 11.0

[...]

     total energy              =   -2942.90430113 Ry
     estimated scf accuracy    <       0.00000020 Ry

     iteration # 59     ecut=    29.40 Ry     beta= 0.05
     Davidson diagonalization with overlap
     ethr =  3.42E-11,  avg # of iterations =  6.0

     negative rho (up, down):  9.746E-03 0.000E+00

     Adding external electric field

     Computed dipole along edir(3) :
        Dipole                0.6803 Ry au,          1.7292 Debye
        Dipole field          0.0013 Ry au,

        Potential amp.       -0.1190 Ry
        Total length         46.3494 bohr

     End of self-consistent calculation

          k = 0.0000 0.0000 0.0000 ( 18029 PWs)   bands (ev):

   -56.5047 -56.4711 -55.6129 -55.6039 -55.5777 -55.5714 -55.4749 -55.4394
   -55.2603 -55.2251 -55.1679 -55.1616 -55.1340 -55.0490 -54.6090 -54.5658
   -32.9321 -32.7784 -32.7502 -32.6814 -32.5904 -32.5582 -32.0921 -32.0704
   -32.0163 -31.9007 -31.8597 -31.8202 -31.8180 -31.7845 -31.7556 -31.7547
   -31.7531 -31.7353 -31.7249 -31.7205 -31.6994 -31.6834 -31.6572 -31.6433
   -31.6303 -31.6103 -31.6038 -31.5800 -31.5602 -31.5064 -31.4918 -31.4822
   -31.4033 -31.3991 -31.3788 -31.3348 -31.3274 -31.2953 -31.2788 -31.2550
   -31.2358 -31.1846 -31.1362 -30.8535 -30.8297 -30.8126 -30.7873 -30.6671
   -16.6660 -16.2241 -15.9961 -15.8659 -15.7926 -15.7440 -15.6912 -15.5751
   -15.4976 -15.4950 -15.4578 -15.4213 -15.3520 -15.2093 -15.1115 -15.0548
   -15.0127 -14.8979 -14.8320 -14.8054 -14.7955 -14.7640 -14.7466 -14.5477
   -14.5040 -14.4139 -14.4043 -14.2676 -14.0656 -13.9963 -13.6668 -13.5568
   -12.7041  -7.4338  -4.2330  -4.0916  -4.0723  -3.7203  -3.4784  -3.3921
    -3.2890  -3.2768  -3.2035  -3.0837  -3.0307  -2.9847  -2.8700  -2.8677
    -2.7247  -2.7156  -2.6794  -2.6689  -2.6335  -2.5921  -2.5550  -2.5141
    -2.5026  -2.4945  -2.3417  -2.2426  -2.1765  -2.1477  -2.1326  -2.1032
    -2.0281  -2.0030  -1.9918  -1.9836  -1.8954  -1.7459  -1.7412  -1.7119
    -1.6670  -1.6668  -1.6240  -1.6121  -1.4701  -1.3955  -1.2852  -1.2799
    -1.2435  -1.1764  -1.1744  -1.0715  -1.0017  -0.9495  -0.9110  -0.8049
    -0.7610  -0.7348  -0.6499  -0.5789  -0.5451  -0.5292  -0.5057  -0.4090
    -0.3912  -0.3686  -0.2854  -0.2759  -0.2276  -0.1399  -0.1193  -0.1156
    -0.0275  -0.0195   0.0821   0.1191   0.1610   0.1892   0.2788   0.3078
     0.4088   0.4528   0.4682   0.5905   0.6077   0.6671   0.7426   0.8044
     0.8246   0.8532   0.8857   0.8963   0.9783   1.0981   1.1032   1.1374
     1.2054   1.2522   1.4072   1.4461   1.7299   1.7424   2.4153   2.7706
     2.9322   3.2307   3.4318   3.5385   3.7477   3.7613   3.7671   3.9432
     3.9947

[...]

          k = 0.0380-0.0419 0.0000 ( 17876 PWs)   bands (ev):

[...]

          k =-0.0760-0.0000 0.0000 ( 17886 PWs)   bands (ev):

[...]

          k =-0.0760-0.0839 0.0000 ( 17948 PWs)   bands (ev):

   -56.4879 -56.4876 -55.5949 -55.5941 -55.5912 -55.5856 -55.4591 -55.4550
   -55.2450 -55.2402 -55.1588 -55.1510 -55.1509 -55.0516 -54.5999 -54.5748
   -32.7642 -32.7640 -32.7490 -32.7489 -32.6345 -32.6342 -31.9209 -31.9185
   -31.8951 -31.8888 -31.8504 -31.8494 -31.8074 -31.8049 -31.8046 -31.8037
   -31.7814 -31.7795 -31.7781 -31.7744 -31.7103 -31.7068 -31.6615 -31.6558
   -31.5956 -31.5874 -31.5274 -31.5229 -31.4952 -31.4951 -31.4879 -31.4438
   -31.4431 -31.4110 -31.3766 -31.3765 -31.3723 -31.3373 -31.3372 -31.3303
   -31.2946 -31.2566 -30.9985 -30.9259 -30.8259 -30.7984 -30.7948 -30.7527
   -16.0129 -16.0109 -15.9811 -15.9807 -15.7066 -15.7030 -15.6556 -15.6535
   -15.4842 -15.4780 -15.2680 -15.2597 -15.2555 -15.2514 -15.1233 -15.1168
   -15.0583 -15.0409 -14.9580 -14.9537 -14.8916 -14.8814 -14.8460 -14.8275
   -14.5059 -14.4851 -14.3667 -14.3485 -14.2138 -13.9955 -13.6603 -13.6603
   -12.7206  -7.4244  -4.1024  -4.0762  -3.1130  -3.1124  -3.0416  -3.0407
    -2.9184  -2.9133  -2.8450  -2.8442  -2.7338  -2.7314  -2.6896  -2.6018
    -2.5977  -2.5954  -2.5760  -2.5702  -2.4437  -2.4365  -2.4240  -2.4055
    -2.3600  -2.3570  -2.3462  -2.2665  -2.2527  -2.2167  -2.1767  -2.0708
    -2.0586  -2.0439  -2.0142  -1.9525  -1.9431  -1.9277  -1.8783  -1.8632
    -1.7778  -1.7216  -1.6598  -1.5525  -1.5482  -1.5388  -1.5265  -1.3715
    -1.3322  -1.3041  -1.2977  -1.2891  -1.2449  -1.1461  -1.1386  -0.9965
    -0.9961  -0.9241  -0.8438  -0.8281  -0.7978  -0.6673  -0.6245  -0.5839
    -0.5774  -0.5553  -0.5313  -0.5112  -0.4787  -0.3325  -0.3204  -0.2896
    -0.2491  -0.2413  -0.1951  -0.1273  -0.0396   0.0237   0.0253   0.0887
     0.1521   0.2121   0.2923   0.3082   0.3133   0.5944   0.6775   0.7652
     0.8415   0.9089   0.9738   0.9956   1.0643   1.0965   1.1367   1.2335
     1.2375   1.2546   1.2550   1.3263   1.3282   1.7071   2.3073   3.3446
     3.3450   3.4130   3.4135   3.7373   3.7428   3.8532   3.8634   3.9732
     3.9771

     the Fermi energy is     2.6033 ev

!    total energy              =   -2942.90436627 Ry
     estimated scf accuracy    <       0.00000004 Ry
     smearing contrib. (-TS)   =      -0.00455342 Ry
     internal energy E=F+TS    =   -2942.89981285 Ry

     The total energy is F=E-TS. E is the sum of the following terms:
     one-electron contribution =  -23043.44728533 Ry
     hartree contribution      =   11612.34824523 Ry
     xc contribution           =    -487.44569540 Ry
     ewald contribution        =    8975.64404926 Ry
     electric field correction =       0.00087338 Ry

     convergence has been achieved in  59 iterations

     Forces acting on atoms (cartesian axes, Ry/au):

     atom    1 type  1   force =     0.00001994   -0.00049434    0.12499479
     atom    2 type  1   force =    -0.00013658   -0.00062934   -0.16058935
     atom    3 type  2   force =     0.00017246   -0.00022470   -0.06934483
     atom    4 type  2   force =    -0.00004308   -0.00027895    0.02761329
     atom    5 type  2   force =    -0.01719578    0.00222451   -0.00888410
     atom    6 type  2   force =     0.01887634    0.00287449   -0.00920441
     atom    7 type  1   force =     0.00088324   -0.00374436    0.02231657
     atom    8 type  1   force =    -0.00036658   -0.00328586    0.11350696
     atom    9 type  2   force =     0.00050118   -0.00039926    0.00006376
     atom   10 type  2   force =    -0.00234526    0.00260140   -0.07318937
     atom   11 type  2   force =     0.00013209   -0.00095447   -0.00009638
     atom   12 type  2   force =     0.00001581   -0.00058476   -0.00001884
     atom   13 type  1   force =     0.00021653   -0.00019815   -0.00026622
     atom   14 type  1   force =    -0.00009663   -0.00054429   -0.00003960
     atom   15 type  2   force =    -0.00034978   -0.00098564    0.00083590
     atom   16 type  2   force =    -0.00013616   -0.00017192    0.00048142
     atom   17 type  2   force =     0.00088279   -0.00041849   -0.00033071
     atom   18 type  2   force =    -0.00056495   -0.00046307   -0.00030609
     atom   19 type  1   force =    -0.00026823    0.00007427   -0.00056212
     atom   20 type  1   force =     0.00057541   -0.00072437   -0.00103307
     atom   21 type  2   force =     0.00005166   -0.00006485    0.09968499
     atom   22 type  2   force =     0.00015563   -0.00033772   -0.00085171
     atom   23 type  2   force =    -0.07921413   -0.00005999   -0.03252175
     atom   24 type  2   force =     0.07907041    0.00037032   -0.03254865
     atom   25 type  1   force =     0.00003240   -0.00049589    0.12432451
     atom   26 type  1   force =    -0.00012317   -0.00048406   -0.16060440
     atom   27 type  2   force =     0.00028151   -0.00044646   -0.06835076
     atom   28 type  2   force =     0.00000233   -0.00013528    0.02747154
     atom   29 type  2   force =    -0.01765544    0.00173423   -0.00895562
     atom   30 type  2   force =     0.01922775    0.00199753   -0.00929406
     atom   31 type  1   force =     0.00080640   -0.00115370    0.02193514
     atom   32 type  1   force =    -0.00029573    0.00070729    0.11415723
     atom   33 type  2   force =    -0.00007924    0.00003875   -0.00055993
     atom   34 type  2   force =    -0.00201594    0.00206126   -0.07185150
     atom   35 type  2   force =     0.00001926   -0.00021138    0.00013746
     atom   36 type  2   force =    -0.00050461    0.00020189    0.00022448
     atom   37 type  1   force =     0.00086436    0.00095096   -0.00019747
     atom   38 type  1   force =    -0.00022061    0.00027305   -0.00018363
     atom   39 type  2   force =    -0.00003584   -0.00029124   -0.00002763
     atom   40 type  2   force =    -0.00001537   -0.00019687   -0.00021558
     atom   41 type  2   force =     0.00021463   -0.00043239   -0.00032059
     atom   42 type  2   force =     0.00001517   -0.00038937   -0.00036481
     atom   43 type  1   force =    -0.00037505    0.00006468   -0.00046568
     atom   44 type  1   force =     0.00005187    0.00080743    0.00025007
     atom   45 type  2   force =     0.00003782   -0.00007853    0.09970775
     atom   46 type  2   force =    -0.07921794   -0.00003023   -0.03252845
     atom   47 type  2   force =     0.07906958    0.00041249   -0.03253151
     atom   48 type  3   force =     0.00026287    0.00156852   -0.00217723
     atom   49 type  3   force =    -0.00073808   -0.00085001    0.00015952
     atom   50 type  4   force =     0.00281992    0.00284897   -0.00178990
     atom   51 type  5   force =    -0.00080531   -0.00069256   -0.00023448
     atom   52 type  5   force =    -0.00311805   -0.00240429    0.00392872
     atom   53 type  5   force =    -0.00023175    0.00033517   -0.00000094
     atom   54 type  5   force =     0.00050886   -0.00007917   -0.00011301
     atom   55 type  5   force =     0.00031769    0.00096041   -0.00053513
     atom   56 type  5   force =     0.00006339   -0.00017169   -0.00070459

     Total force =     0.426676     Total SCF correction =     0.000432
  @ DRIVER MODE: Message from server: STATUS
  @ DRIVER MODE: Message from server: GETFORCE
  @ DRIVER MODE: Returning v,forces,stress,ensemble

     Writing output data file ./calc.save/
  @ DRIVER MODE: Message from server: EXIT
  @ DRIVE MODE: Exiting

     General routines

     Parallel routines

   This run was terminated on:   7:45:37   9Sep2021

   JOB DONE.