     Program PWSCF v.6.7GPU starts on 15Sep2021 at 21:10:20

     R & G space division:  proc/nbgrp/npool/nimage =      10
     Reading input from /storage/home/hcoda1/3/ntian30/research/carbon/CxH_vib/H2O_calc/ads_slab/CH2NHHH2O_a/out_0017/pw.inp
Warning: card &CELL ignored
Warning: card   CELL_DYNAMICS='IPI', ignored
Warning: card / ignored

     Current dimensions of program PWSCF are:
     Max number of different atomic species (ntypx) = 10
     Max number of k-points (npk) =  40000
     Max angular momentum in pseudopotentials (lmaxx) =  3
     Presently no symmetry can be used with electric field

     Message from routine cell_base_init:
     DEPRECATED: use true lattice parameter, not A to a.u. conversion factor

     IMPORTANT: XC functional enforced from input :
     Exchange-correlation= BEEF-VDW
                           (   1   4  43  14   2   0   0)
     Any further DFT definition will be discarded
     Please, verify this is what you really want

  @ DRIVER MODE: Connecting to
 qe_1139763_2852609.sched-torque.pace.gatech.educu7543ru_scratch
  using UNIX socket
  @ DRIVER MODE: Message from server: STATUS
  @ DRIVER MODE: Message from server: INIT
  @ DRIVER MODE: Receiving replica           0          -1
  @ DRIVER MODE: Receiving encoded integer          25
  @ DRIVER MODE:  SCF:  T  FORCE:  T  STRESS:  F  VC:  F  ENSEMBLE:  F
  @ DRIVER MODE:  SCF:  T  FORCE:  T  STRESS:  F  VC:  F  ENSEMBLE:  F

     Using Slab Decomposition

     bravais-lattice index     =            0
     lattice parameter (alat)  =       1.8897  a.u.
     unit-cell volume          =    6658.9804 (a.u.)^3
     number of atoms/cell      =           56
     number of atomic types    =            5
     number of electrons       =       399.00
     number of Kohn-Sham states=          209
     kinetic-energy cutoff     =      29.3995  Ry
     charge density cutoff     =     293.9946  Ry
     scf convergence threshold =      7.3E-08
     mixing beta               =       0.0500
     number of iterations used =            8  plain     mixing
     Exchange-correlation= BEEF-VDW
                           (   1   4  43  14   2   0   0)

     celldm(1)=   1.889726  celldm(2)=   0.000000  celldm(3)=   0.000000
     celldm(4)=   0.000000  celldm(5)=   0.000000  celldm(6)=   0.000000

     crystal axes: (cart. coord. in units of alat)
               a(1) = (   6.579727   0.000000   0.000000 )
               a(2) = (  -0.000775   5.961596   0.000000 )
               a(3) = (   0.000000   0.000000  25.155947 )

     reciprocal axes: (cart. coord. in units 2 pi/alat)
               b(1) = (  0.151982  0.000020  0.000000 )
               b(2) = (  0.000000  0.167740  0.000000 )
               b(3) = (  0.000000  0.000000  0.039752 )

     PseudoPot. # 1 for Ti read from file:
     /storage/coda1/p-amedford6/0/shared/rich_project_chbe-medford/medford-share/data/pseudos_module/espresso/nninc/pbe/van/Ti.UPF
     MD5 check sum: 8e4df49b7f0d34bbd5052bf3f5ea0213
     Pseudo is Ultrasoft, Zval = 12.0
     Generated by new atomic code, or converted to UPF format
     Using radial grid of  851 points,  6 beta functions with:
                l(1) =   0
                l(2) =   0
                l(3) =   1
                l(4) =   1
                l(5) =   2
                l(6) =   2
     Q(r) pseudized with  8 coefficients,  rinner =    1.000   1.000   1.000
                                                       1.000   1.000

     PseudoPot. # 2 for O  read from file:
     /storage/coda1/p-amedford6/0/shared/rich_project_chbe-medford/medford-share/data/pseudos_module/espresso/nninc/pbe/van/O.UPF
     MD5 check sum: 78c19812648e8988a0fe644b0f25305e
     Pseudo is Ultrasoft, Zval =  6.0
     Generated by new atomic code, or converted to UPF format
     Using radial grid of  737 points,  4 beta functions with:
                l(1) =   0
                l(2) =   0
                l(3) =   1
                l(4) =   1
     Q(r) pseudized with  8 coefficients,  rinner =    0.800   0.800   0.800

     PseudoPot. # 3 for N  read from file:
     /storage/coda1/p-amedford6/0/shared/rich_project_chbe-medford/medford-share/data/pseudos_module/espresso/nninc/pbe/van/N.UPF
     MD5 check sum: 90d10febe142ad51ac9d5be1deb811c4
     Pseudo is Ultrasoft, Zval =  5.0
     Generated by new atomic code, or converted to UPF format
     Using radial grid of  729 points,  4 beta functions with:
                l(1) =   0
                l(2) =   0
                l(3) =   1
                l(4) =   1
     Q(r) pseudized with  8 coefficients,  rinner =    0.800   0.800   0.800

     PseudoPot. # 4 for C  read from file:
     /storage/coda1/p-amedford6/0/shared/rich_project_chbe-medford/medford-share/data/pseudos_module/espresso/nninc/pbe/van/C.UPF
     MD5 check sum: 1a69bf6b8db32088f5b2163dbdb77a27
     Pseudo is Ultrasoft, Zval =  4.0
     Generated by new atomic code, or converted to UPF format
     Using radial grid of  721 points,  4 beta functions with:
                l(1) =   0
                l(2) =   0
                l(3) =   1
                l(4) =   1
     Q(r) pseudized with  8 coefficients,  rinner =    0.800   0.800   0.800

     PseudoPot. # 5 for H  read from file:
     /storage/coda1/p-amedford6/0/shared/rich_project_chbe-medford/medford-share/data/pseudos_module/espresso/nninc/pbe/van/H.UPF
     MD5 check sum: b5ee9d7bfd3a09ee7748110bda690ff7
     Pseudo is Ultrasoft, Zval =  1.0
     Generated by new atomic code, or converted to UPF format
     Using radial grid of  615 points,  1 beta functions with:
                l(1) =   0
     Q(r) pseudized with  8 coefficients,  rinner =    0.800

     atomic species   valence    mass     pseudopotential
        Ti1           12.00    47.86700     Ti( 1.00)
        O1             6.00    15.99900     O ( 1.00)
        N1             5.00    14.00700     N ( 1.00)
        C1             4.00    12.01100     C ( 1.00)
        H1             1.00     1.00800     H ( 1.00)

     No symmetry found

   Cartesian axes

     site n.     atom                  positions (alat units)
         1           Ti1 tau(   1) = (   0.0004258   2.9801865   6.0000000  )
         2           Ti1 tau(   2) = (   3.2906075   1.4906267   6.0002472  )
         3           O1  tau(   3) = (   0.0006271   0.0005054   7.9858123  )
         4           O1  tau(   4) = (   3.2906025   0.0005020   7.3038282  )
         5           O1  tau(   5) = (   4.5942328   1.4918067   9.2879030  )
         6           O1  tau(   6) = (   1.9868534   1.4903216   9.2879459  )
         7           Ti1 tau(   7) = (   3.2907910   2.8959150   9.1758416  )
         8           Ti1 tau(   8) = (   0.0015273   1.4827037   9.2680791  )
         9           O1  tau(   9) = (   3.2861202   0.0128588  11.3777969  )
        10           O1  tau(  10) = (   0.0116148   5.9584955  10.6183126  )
        11           O1  tau(  11) = (   1.2831632   1.4993340  12.6921085  )
        12           O1  tau(  12) = (   5.2921761   1.5015178  12.6679780  )
        13           Ti1 tau(  13) = (   0.0111066   2.9912061  12.5123142  )
        14           Ti1 tau(  14) = (   3.3187119   1.4875497  12.5412637  )
        15           O1  tau(  15) = (   6.5416963   5.9006142  14.6662030  )
        16           O1  tau(  16) = (   3.3066524   0.0016155  14.0179881  )
        17           O1  tau(  17) = (   4.5377470   1.5714702  16.1207712  )
        18           O1  tau(  18) = (   1.9925948   1.5577299  16.0387284  )
        19           Ti1 tau(  19) = (   3.2598466   3.0207798  15.7337896  )
        20           Ti1 tau(  20) = (   0.0086319   1.3133152  15.8444473  )
        21           O1  tau(  21) = (   3.2904802   0.0005063   4.7018136  )
        22           O1  tau(  22) = (   6.5660721   0.1678205  17.2271563  )
        23           O1  tau(  23) = (   1.3043587   1.4918075   6.0039043  )
        24           O1  tau(  24) = (   5.2767064   1.4903225   6.0039473  )
        25           Ti1 tau(  25) = (   0.0000382   5.9609847   6.0000000  )
        26           Ti1 tau(  26) = (   3.2902200   4.4714249   6.0002472  )
        27           O1  tau(  27) = (   0.0002396   2.9813036   7.9858123  )
        28           O1  tau(  28) = (   3.2902150   2.9813002   7.3038282  )
        29           O1  tau(  29) = (   4.5938453   4.4726049   9.2879030  )
        30           O1  tau(  30) = (   1.9864658   4.4711199   9.2879459  )
        31           Ti1 tau(  31) = (   3.2891106   5.8743827   9.1763621  )
        32           Ti1 tau(  32) = (   0.0006254   4.4649316   9.2693709  )
        33           O1  tau(  33) = (   3.2870289   2.9785969  11.3746142  )
        34           O1  tau(  34) = (   0.0092240   2.9805883  10.6323155  )
        35           O1  tau(  35) = (   1.2865429   4.4729593  12.6568099  )
        36           O1  tau(  36) = (   5.2907978   4.4713399  12.6331247  )
        37           Ti1 tau(  37) = (   0.0245089   0.0029545  12.5000319  )
        38           Ti1 tau(  38) = (   3.3192338   4.4773935  12.5310228  )
        39           O1  tau(  39) = (   6.5398775   3.0461246  14.9162120  )
        40           O1  tau(  40) = (   3.2968145   3.0151409  13.9465962  )
        41           O1  tau(  41) = (   4.5189833   4.4812017  16.2068643  )
        42           O1  tau(  42) = (   1.9905864   4.4756957  16.1679402  )
        43           Ti1 tau(  43) = (   3.3140030   0.0507474  15.8534526  )
        44           Ti1 tau(  44) = (   0.0184218   4.5194176  15.9927436  )
        45           O1  tau(  45) = (   3.2900926   2.9813045   4.7018136  )
        46           O1  tau(  46) = (   1.3039711   4.4726057   6.0039043  )
        47           O1  tau(  47) = (   5.2763189   4.4711207   6.0039473  )
        48           N1  tau(  48) = (   6.2908993   3.4294391  18.1752670  )
        49           C1  tau(  49) = (   0.7550536   3.1452864  19.0745941  )
        50           H1  tau(  50) = (   1.1396299   3.9643166  19.6510198  )
        51           H1  tau(  51) = (   1.3301158   2.2513941  18.9084762  )
        52           H1  tau(  52) = (   5.7550451   4.2450011  18.4501662  )
        53           H1  tau(  53) = (   5.6463078   2.6497838  18.0429669  )
        54           O1  tau(  54) = (   3.1180431   0.1968263  18.2683150  )
        55           H1  tau(  55) = (   3.8687171   5.7182160  18.6922429  )
        56           H1  tau(  56) = (   2.3371514   5.6040609  18.4451484  )

     number of k points=    10  Fermi-Dirac smearing, width (Ry)=  0.0073
                       cart. coord. in units 2pi/alat
        k(    1) = (   0.0000000   0.0000000   0.0000000), wk =   0.1250000
        k(    2) = (   0.0000000   0.0419351   0.0000000), wk =   0.2500000
        k(    3) = (   0.0000000  -0.0838702   0.0000000), wk =   0.1250000
        k(    4) = (   0.0379955   0.0000049   0.0000000), wk =   0.2500000
        k(    5) = (   0.0379955   0.0419400   0.0000000), wk =   0.2500000
        k(    6) = (   0.0379955  -0.0838652   0.0000000), wk =   0.2500000
        k(    7) = (   0.0379955  -0.0419301   0.0000000), wk =   0.2500000
        k(    8) = (  -0.0759910  -0.0000099   0.0000000), wk =   0.1250000
        k(    9) = (  -0.0759910   0.0419252   0.0000000), wk =   0.2500000
        k(   10) = (  -0.0759910  -0.0838800   0.0000000), wk =   0.1250000

     Initial potential from superposition of free atoms

     starting charge  382.99914, renormalised to  399.00000

     negative rho (up, down):  1.614E-02 0.000E+00

     %%%%%%%%%%%%%%%%%%%%%%%%%%%%%%%%%%%%%%%%%%%%%%%%%%%%%%%%%%%%%%%%%%%%%%%%
     %                                                                      %
     % You are using vdW-DF, which was implemented by the Thonhauser group. %
     % Please cite the following two papers that made this development      %
     % possible and the two reviews that describe the various versions:     %
     %                                                                      %
     %   T. Thonhauser et al., PRL 115, 136402 (2015).                      %
     %   T. Thonhauser et al., PRB 76, 125112 (2007).                       %
     %   K. Berland et al., Rep. Prog. Phys. 78, 066501 (2015).             %
     %   D.C. Langreth et al., J. Phys.: Condens. Matter 21, 084203 (2009). %
     %                                                                      %
     %                                                                      %
     % If you are calculating the stress with vdW-DF, please also cite:     %
     %                                                                      %
     %   R. Sabatini et al., J. Phys.: Condens. Matter 24, 424209 (2012).   %
     %                                                                      %
     %%%%%%%%%%%%%%%%%%%%%%%%%%%%%%%%%%%%%%%%%%%%%%%%%%%%%%%%%%%%%%%%%%%%%%%%

     Adding external electric field

     Computed dipole along edir(3) :
        Dipole              -11.3161 Ry au,        -28.7627 Debye
        Dipole field         -0.0214 Ry au,

        Potential amp.        1.9796 Ry
        Total length         46.3494 bohr

     Starting wfcs are  302 atomic wfcs
  @ DRIVER MODE: Message from server: STATUS
  @ DRIVER MODE: Message from server: POSDATA
  @ DRIVER MODE: Reading and sharing cell
  @ DRIVER MODE: Reading and sharing positions
  @ DRIVER MODE: Received positions

     Self-consistent Calculation

     iteration #  1     ecut=    29.40 Ry     beta= 0.05
     Davidson diagonalization with overlap
     c_bands:  3 eigenvalues not converged
     c_bands:  3 eigenvalues not converged
     c_bands:  1 eigenvalues not converged
     c_bands:  4 eigenvalues not converged
     c_bands:  1 eigenvalues not converged
     c_bands:  1 eigenvalues not converged
     c_bands:  1 eigenvalues not converged
     c_bands:  3 eigenvalues not converged
     c_bands:  3 eigenvalues not converged
     ethr =  1.00E-05,  avg # of iterations = 24.0

[...]

     total energy              =   -2437.54505647 Ry
     estimated scf accuracy    <    5825.92261712 Ry

     iteration #  2     ecut=    29.40 Ry     beta= 0.05
     Davidson diagonalization with overlap
     ethr =  1.00E-02,  avg # of iterations = 28.6

[...]

     iteration # 81     ecut=    29.40 Ry     beta= 0.05
     Davidson diagonalization with overlap
     c_bands:  1 eigenvalues not converged
     c_bands:  1 eigenvalues not converged
     ethr =  3.39E-10,  avg # of iterations = 13.3

[...]

     total energy              =   -2955.08682051 Ry
     estimated scf accuracy    <       0.00000012 Ry

     iteration # 87     ecut=    29.40 Ry     beta= 0.05
     Davidson diagonalization with overlap
     ethr =  2.79E-11,  avg # of iterations =  8.2

     negative rho (up, down):  1.531E-02 0.000E+00

     Adding external electric field

     Computed dipole along edir(3) :
        Dipole                0.9558 Ry au,          2.4295 Debye
        Dipole field          0.0018 Ry au,

        Potential amp.       -0.1672 Ry
        Total length         46.3494 bohr

     End of self-consistent calculation

          k = 0.0000 0.0000 0.0000 ( 18029 PWs)   bands (ev):

   -55.5445 -55.5110 -55.5079 -55.4901 -55.4769 -55.4283 -55.3920 -55.3727
   -55.3556 -55.3428 -55.3379 -55.3092 -55.2974 -55.1149 -54.5372 -54.5031
   -32.1004 -32.0032 -31.9166 -31.9015 -31.8764 -31.8615 -31.8476 -31.8428
   -31.8001 -31.7648 -31.7591 -31.7559 -31.7459 -31.7216 -31.7162 -31.6953
   -31.6859 -31.6832 -31.6717 -31.6632 -31.6420 -31.6247 -31.6074 -31.6015
   -31.5724 -31.5681 -31.5635 -31.5610 -31.5586 -31.5460 -31.5368 -31.5300
   -31.5259 -31.5207 -31.5099 -31.4976 -31.4864 -31.4709 -31.4687 -31.4538
   -31.3404 -31.2960 -30.9463 -30.8526 -30.8305 -30.7628 -30.6760 -30.5651
   -19.2405 -16.4010 -16.3108 -16.0887 -15.9238 -15.8445 -15.7479 -15.6072
   -15.5358 -15.4252 -15.3890 -15.2302 -15.2056 -15.1989 -15.1642 -15.1469
   -15.1078 -15.0896 -15.0605 -15.0490 -15.0475 -15.0255 -14.9890 -14.9851
   -14.9427 -14.9297 -14.8704 -14.7743 -14.7064 -14.6424 -14.3297 -13.0393
   -12.9220  -9.2260  -7.0130  -6.5588  -4.6057  -3.7178  -3.5865  -3.5627
    -3.5037  -3.4493  -3.4081  -3.3008  -3.0709  -3.0252  -2.9795  -2.9346
    -2.8124  -2.7411  -2.7369  -2.6576  -2.5820  -2.5404  -2.4868  -2.4766
    -2.3987  -2.3652  -2.3474  -2.3238  -2.2806  -2.2524  -2.2111  -2.1200
    -2.0988  -2.0242  -1.9914  -1.9468  -1.9430  -1.8955  -1.8775  -1.8388
    -1.8378  -1.8279  -1.8071  -1.7697  -1.7270  -1.6717  -1.5804  -1.5542
    -1.3871  -1.2752  -1.2108  -1.1835  -1.1309  -1.0993  -1.0338  -0.9853
    -0.9714  -0.9354  -0.8684  -0.7658  -0.6997  -0.6873  -0.6274  -0.5362
    -0.4781  -0.4400  -0.3580  -0.3323  -0.3136  -0.3083  -0.2442  -0.1763
    -0.1300  -0.0558  -0.0397   0.0159   0.0385   0.0886   0.1196   0.1863
     0.2420   0.2823   0.3340   0.3884   0.3899   0.4049   0.4399   0.4415
     0.5417   0.5536   0.5759   0.6766   0.7757   0.9634   1.0615   1.0967
     1.3940   1.4096   1.4859   1.6704   2.0616   2.1096   3.5165   3.5469
     3.6307   3.6860   3.6949   3.7248   3.7813   4.0347   4.0462   4.0682
     4.0813

[...]

          k = 0.0380-0.0419 0.0000 ( 17876 PWs)   bands (ev):

[...]

          k =-0.0760-0.0000 0.0000 ( 17886 PWs)   bands (ev):

[...]

          k =-0.0760-0.0839 0.0000 ( 17948 PWs)   bands (ev):

   -55.5300 -55.5222 -55.4941 -55.4937 -55.4879 -55.4160 -55.4043 -55.3581
   -55.3576 -55.3519 -55.3263 -55.3259 -55.2956 -55.1167 -54.5202 -54.5200
   -31.9121 -31.8998 -31.8186 -31.8181 -31.8015 -31.8004 -31.7889 -31.7856
   -31.7852 -31.7689 -31.7577 -31.7506 -31.7331 -31.7155 -31.6962 -31.6905
   -31.6871 -31.6851 -31.6805 -31.6739 -31.6712 -31.6612 -31.6334 -31.6324
   -31.6135 -31.6133 -31.6105 -31.6011 -31.5902 -31.5817 -31.5715 -31.5655
   -31.5561 -31.5558 -31.5533 -31.5438 -31.5141 -31.5060 -31.5055 -31.4829
   -31.3796 -31.3433 -30.8432 -30.8431 -30.7589 -30.7588 -30.7195 -30.7194
   -19.2397 -16.3291 -15.8852 -15.7860 -15.6562 -15.5732 -15.5505 -15.4772
   -15.4190 -15.3853 -15.3290 -15.3061 -15.2923 -15.2768 -15.2421 -15.2163
   -15.1965 -15.1532 -15.1359 -15.1178 -15.0864 -15.0613 -15.0503 -15.0451
   -15.0394 -15.0049 -15.0005 -14.9149 -14.9058 -14.9023 -14.5716 -13.0235
   -13.0234  -9.2251  -7.0450  -6.4984  -4.5885  -3.5509  -3.0973  -3.0496
    -2.9966  -2.8557  -2.7959  -2.7300  -2.6950  -2.6514  -2.6013  -2.5680
    -2.5496  -2.4984  -2.4914  -2.4255  -2.4101  -2.3951  -2.3761  -2.3731
    -2.3642  -2.3269  -2.2920  -2.2783  -2.2712  -2.2621  -2.2486  -2.2017
    -2.1863  -2.1550  -2.1452  -2.1118  -2.0825  -2.0523  -1.9402  -1.9074
    -1.8826  -1.8198  -1.7542  -1.7484  -1.6670  -1.6453  -1.5891  -1.5854
    -1.5658  -1.5272  -1.4002  -1.2936  -1.2822  -1.2311  -1.1984  -1.1745
    -1.1118  -1.0610  -1.0065  -1.0037  -0.9122  -0.8663  -0.8399  -0.7382
    -0.7079  -0.7001  -0.5832  -0.5582  -0.5197  -0.5087  -0.5024  -0.4430
    -0.4355  -0.4111  -0.3291  -0.3103  -0.2833  -0.2717  -0.2092  -0.0487
    -0.0180   0.0264   0.1541   0.1935   0.3569   0.3880   0.4201   0.5262
     0.5710   0.6186   0.6231   0.7459   0.7559   0.8431   0.8548   0.8724
     0.9082   0.9199   1.8428   1.8442   1.9296   1.9297   3.5327   3.7762
     3.8415   3.8487   3.8859   4.0221   4.0659   4.1267   4.1373   4.1479
     4.2097

     the Fermi energy is     3.6030 ev

!    total energy              =   -2955.08682456 Ry
     estimated scf accuracy    <       0.00000004 Ry
     smearing contrib. (-TS)   =      -0.04070910 Ry
     internal energy E=F+TS    =   -2955.04611546 Ry

     The total energy is F=E-TS. E is the sum of the following terms:
     one-electron contribution =  -23873.76006714 Ry
     hartree contribution      =   12029.05023679 Ry
     xc contribution           =    -489.73694109 Ry
     ewald contribution        =    9379.39893183 Ry
     electric field correction =       0.00172414 Ry

     convergence has been achieved in  87 iterations

     Forces acting on atoms (cartesian axes, Ry/au):

     atom    1 type  1   force =     0.00000127   -0.00026547    0.09338767
     atom    2 type  1   force =    -0.00016440   -0.00039974   -0.17806100
     atom    3 type  2   force =     0.00001296   -0.00034653   -0.02034502
     atom    4 type  2   force =    -0.00003631   -0.00190386    0.05855699
     atom    5 type  2   force =    -0.01017878   -0.00085381    0.00744733
     atom    6 type  2   force =     0.01151766   -0.00018050    0.00624754
     atom    7 type  1   force =    -0.00076367    0.00202290   -0.01056190
     atom    8 type  1   force =     0.00031707    0.00073108   -0.00334168
     atom    9 type  2   force =     0.00024391    0.00042456    0.00014962
     atom   10 type  2   force =    -0.00108428    0.00267246   -0.00406134
     atom   11 type  2   force =    -0.00026740    0.00005307    0.00002470
     atom   12 type  2   force =    -0.00004866   -0.00002757    0.00012496
     atom   13 type  1   force =     0.00075190    0.00071631    0.00041063
     atom   14 type  1   force =    -0.00093183   -0.00011157   -0.00007651
     atom   15 type  2   force =    -0.00013773   -0.00025437    0.00057698
     atom   16 type  2   force =     0.00031718    0.00055340    0.00003721
     atom   17 type  2   force =     0.00012015   -0.00028800    0.00029330
     atom   18 type  2   force =     0.00062472    0.00021017    0.00007079
     atom   19 type  1   force =    -0.00078987   -0.00063333    0.00005575
     atom   20 type  1   force =     0.00022293   -0.00050669   -0.00039055
     atom   21 type  2   force =     0.00002123   -0.00011780    0.10392640
     atom   22 type  2   force =    -0.00000864   -0.00132776    0.00055400
     atom   23 type  2   force =    -0.07055286   -0.00020527   -0.02694572
     atom   24 type  2   force =     0.07037388    0.00023410   -0.02698865
     atom   25 type  1   force =     0.00003957   -0.00021308    0.09298503
     atom   26 type  1   force =    -0.00024071   -0.00044006   -0.17803293
     atom   27 type  2   force =     0.00006955   -0.00023967   -0.01933817
     atom   28 type  2   force =     0.00002243   -0.00162488    0.05765586
     atom   29 type  2   force =    -0.01076302   -0.00046216    0.00807777
     atom   30 type  2   force =     0.01198127   -0.00007214    0.00683758
     atom   31 type  1   force =    -0.00063523    0.00608422   -0.01379704
     atom   32 type  1   force =     0.00028442   -0.00085549   -0.00339874
     atom   33 type  2   force =     0.00014234    0.00006921    0.00001093
     atom   34 type  2   force =    -0.00051034   -0.00106933   -0.00266422
     atom   35 type  2   force =    -0.00040648    0.00006338    0.00004558
     atom   36 type  2   force =     0.00004035    0.00001845    0.00026555
     atom   37 type  1   force =     0.00082912   -0.00082076    0.00025973
     atom   38 type  1   force =    -0.00088711    0.00033275   -0.00052758
     atom   39 type  2   force =    -0.00022685   -0.00014774   -0.00012796
     atom   40 type  2   force =     0.00033334    0.00014459    0.00042721
     atom   41 type  2   force =     0.00003033   -0.00027793   -0.00004466
     atom   42 type  2   force =     0.00054385   -0.00013460   -0.00043051
     atom   43 type  1   force =    -0.00104561    0.00005230    0.00037176
     atom   44 type  1   force =     0.00127360   -0.00051992   -0.00030573
     atom   45 type  2   force =     0.00000570   -0.00011858    0.10392087
     atom   46 type  2   force =    -0.07055679   -0.00017811   -0.02692437
     atom   47 type  2   force =     0.07038505    0.00025949   -0.02699486
     atom   48 type  3   force =     0.00027581   -0.00085208   -0.00007879
     atom   49 type  4   force =    -0.00188369   -0.00337502   -0.00403231
     atom   50 type  5   force =     0.00255646    0.00435747    0.00381220
     atom   51 type  5   force =     0.00015714    0.00002738    0.00029024
     atom   52 type  5   force =     0.00030529   -0.00018536   -0.00027773
     atom   53 type  5   force =    -0.00037729   -0.00013205    0.00064766
     atom   54 type  2   force =    -0.00003669    0.00013657    0.00028162
     atom   55 type  5   force =    -0.00064393   -0.00019578   -0.00010384
     atom   56 type  5   force =    -0.00062227    0.00017316    0.00009835

     Total force =     0.365898     Total SCF correction =     0.000425
  @ DRIVER MODE: Message from server: STATUS
  @ DRIVER MODE: Message from server: GETFORCE
  @ DRIVER MODE: Returning v,forces,stress,ensemble

     Writing output data file ./calc.save/
  @ DRIVER MODE: Message from server: EXIT
  @ DRIVE MODE: Exiting

     General routines

     Parallel routines

   This run was terminated on:  21:31:12  15Sep2021

   JOB DONE.