     Program PWSCF v.6.7GPU starts on 22Sep2021 at 21:59:59

     R & G space division:  proc/nbgrp/npool/nimage =       8
     Reading input from /storage/home/hcoda1/3/ntian30/research/carbon/CxH_vib/H2O_calc/ads_slab/CH3N2HHO_a/out_0000/pw.inp
Warning: card &CELL ignored
Warning: card   CELL_DYNAMICS='IPI', ignored
Warning: card / ignored

     Current dimensions of program PWSCF are:
     Max number of different atomic species (ntypx) = 10
     Max number of k-points (npk) =  40000
     Max angular momentum in pseudopotentials (lmaxx) =  3
     Presently no symmetry can be used with electric field

     Message from routine cell_base_init:
     DEPRECATED: use true lattice parameter, not A to a.u. conversion factor

     IMPORTANT: XC functional enforced from input :
     Exchange-correlation= BEEF-VDW
                           (   1   4  43  14   2   0   0)
     Any further DFT definition will be discarded
     Please, verify this is what you really want

  @ DRIVER MODE: Connecting to
 qe_1139763_2941009.sched-torque.pace.gatech.edu65mxoe8p_scratch
  using UNIX socket
  @ DRIVER MODE: Message from server: STATUS
  @ DRIVER MODE: Message from server: INIT
  @ DRIVER MODE: Receiving replica           0          -1
  @ DRIVER MODE: Receiving encoded integer          25
  @ DRIVER MODE:  SCF:  T  FORCE:  T  STRESS:  F  VC:  F  ENSEMBLE:  F
  @ DRIVER MODE:  SCF:  T  FORCE:  T  STRESS:  F  VC:  F  ENSEMBLE:  F

     Using Slab Decomposition

     bravais-lattice index     =            0
     lattice parameter (alat)  =       1.8897  a.u.
     unit-cell volume          =    6658.9804 (a.u.)^3
     number of atoms/cell      =           56
     number of atomic types    =            5
     number of electrons       =       403.00
     number of Kohn-Sham states=          211
     kinetic-energy cutoff     =      29.3995  Ry
     charge density cutoff     =     293.9946  Ry
     scf convergence threshold =      7.3E-08
     mixing beta               =       0.0500
     number of iterations used =            8  plain     mixing
     Exchange-correlation= BEEF-VDW
                           (   1   4  43  14   2   0   0)

     celldm(1)=   1.889726  celldm(2)=   0.000000  celldm(3)=   0.000000
     celldm(4)=   0.000000  celldm(5)=   0.000000  celldm(6)=   0.000000

     crystal axes: (cart. coord. in units of alat)
               a(1) = (   6.579727   0.000000   0.000000 )
               a(2) = (  -0.000775   5.961596   0.000000 )
               a(3) = (   0.000000   0.000000  25.155947 )

     reciprocal axes: (cart. coord. in units 2 pi/alat)
               b(1) = (  0.151982  0.000020  0.000000 )
               b(2) = (  0.000000  0.167740  0.000000 )
               b(3) = (  0.000000  0.000000  0.039752 )

     PseudoPot. # 1 for Ti read from file:
     /storage/coda1/p-amedford6/0/shared/rich_project_chbe-medford/medford-share/data/pseudos_module/espresso/nninc/pbe/van/Ti.UPF
     MD5 check sum: 8e4df49b7f0d34bbd5052bf3f5ea0213
     Pseudo is Ultrasoft, Zval = 12.0
     Generated by new atomic code, or converted to UPF format
     Using radial grid of  851 points,  6 beta functions with:
                l(1) =   0
                l(2) =   0
                l(3) =   1
                l(4) =   1
                l(5) =   2
                l(6) =   2
     Q(r) pseudized with  8 coefficients,  rinner =    1.000   1.000   1.000
                                                       1.000   1.000

     PseudoPot. # 2 for O  read from file:
     /storage/coda1/p-amedford6/0/shared/rich_project_chbe-medford/medford-share/data/pseudos_module/espresso/nninc/pbe/van/O.UPF
     MD5 check sum: 78c19812648e8988a0fe644b0f25305e
     Pseudo is Ultrasoft, Zval =  6.0
     Generated by new atomic code, or converted to UPF format
     Using radial grid of  737 points,  4 beta functions with:
                l(1) =   0
                l(2) =   0
                l(3) =   1
                l(4) =   1
     Q(r) pseudized with  8 coefficients,  rinner =    0.800   0.800   0.800

     PseudoPot. # 3 for N  read from file:
     /storage/coda1/p-amedford6/0/shared/rich_project_chbe-medford/medford-share/data/pseudos_module/espresso/nninc/pbe/van/N.UPF
     MD5 check sum: 90d10febe142ad51ac9d5be1deb811c4
     Pseudo is Ultrasoft, Zval =  5.0
     Generated by new atomic code, or converted to UPF format
     Using radial grid of  729 points,  4 beta functions with:
                l(1) =   0
                l(2) =   0
                l(3) =   1
                l(4) =   1
     Q(r) pseudized with  8 coefficients,  rinner =    0.800   0.800   0.800

     PseudoPot. # 4 for C  read from file:
     /storage/coda1/p-amedford6/0/shared/rich_project_chbe-medford/medford-share/data/pseudos_module/espresso/nninc/pbe/van/C.UPF
     MD5 check sum: 1a69bf6b8db32088f5b2163dbdb77a27
     Pseudo is Ultrasoft, Zval =  4.0
     Generated by new atomic code, or converted to UPF format
     Using radial grid of  721 points,  4 beta functions with:
                l(1) =   0
                l(2) =   0
                l(3) =   1
                l(4) =   1
     Q(r) pseudized with  8 coefficients,  rinner =    0.800   0.800   0.800

     PseudoPot. # 5 for H  read from file:
     /storage/coda1/p-amedford6/0/shared/rich_project_chbe-medford/medford-share/data/pseudos_module/espresso/nninc/pbe/van/H.UPF
     MD5 check sum: b5ee9d7bfd3a09ee7748110bda690ff7
     Pseudo is Ultrasoft, Zval =  1.0
     Generated by new atomic code, or converted to UPF format
     Using radial grid of  615 points,  1 beta functions with:
                l(1) =   0
     Q(r) pseudized with  8 coefficients,  rinner =    0.800

     atomic species   valence    mass     pseudopotential
        Ti1           12.00    47.86700     Ti( 1.00)
        O1             6.00    15.99900     O ( 1.00)
        N1             5.00    14.00700     N ( 1.00)
        C1             4.00    12.01100     C ( 1.00)
        H1             1.00     1.00800     H ( 1.00)

     No symmetry found

   Cartesian axes

     site n.     atom                  positions (alat units)
         1           Ti1 tau(   1) = (   0.0004258   2.9801865   6.0000000  )
         2           Ti1 tau(   2) = (   3.2906075   1.4906267   6.0002472  )
         3           O1  tau(   3) = (   0.0006271   0.0005054   7.9858123  )
         4           O1  tau(   4) = (   3.2906025   0.0005020   7.3038282  )
         5           O1  tau(   5) = (   4.5942328   1.4918067   9.2879030  )
         6           O1  tau(   6) = (   1.9868534   1.4903216   9.2879459  )
         7           Ti1 tau(   7) = (   3.2907910   2.8959150   9.1758416  )
         8           Ti1 tau(   8) = (   0.0015273   1.4827037   9.2680791  )
         9           O1  tau(   9) = (   3.2827749   5.9542966  11.3123607  )
        10           O1  tau(  10) = (   0.0116148   5.9584955  10.6183126  )
        11           O1  tau(  11) = (   1.2790800   1.4852124  12.6463597  )
        12           O1  tau(  12) = (   5.2943908   1.4901875  12.6352807  )
        13           Ti1 tau(  13) = (   6.5507123   3.1127926  12.6266869  )
        14           Ti1 tau(  14) = (   3.2873181   1.3120036  12.6863921  )
        15           O1  tau(  15) = (   6.5656690   0.0172326  14.6855350  )
        16           O1  tau(  16) = (   3.2842416   0.0515509  13.9244022  )
        17           O1  tau(  17) = (   4.5437539   1.5966601  16.0680646  )
        18           O1  tau(  18) = (   2.0303991   1.5956099  16.0781401  )
        19           Ti1 tau(  19) = (   3.2961159   3.0594788  15.6697774  )
        20           Ti1 tau(  20) = (   6.5318457   1.5630605  15.7780207  )
        21           O1  tau(  21) = (   3.2904802   0.0005063   4.7018136  )
        22           O1  tau(  22) = (   6.5726385   0.0820865  17.2550913  )
        23           O1  tau(  23) = (   1.3043587   1.4918075   6.0039043  )
        24           O1  tau(  24) = (   5.2767064   1.4903225   6.0039473  )
        25           Ti1 tau(  25) = (   0.0000382   5.9609847   6.0000000  )
        26           Ti1 tau(  26) = (   3.2902200   4.4714249   6.0002472  )
        27           O1  tau(  27) = (   0.0002396   2.9813036   7.9858123  )
        28           O1  tau(  28) = (   3.2902150   2.9813002   7.3038282  )
        29           O1  tau(  29) = (   4.5938453   4.4726049   9.2879030  )
        30           O1  tau(  30) = (   1.9864658   4.4711199   9.2879459  )
        31           Ti1 tau(  31) = (   3.2891106   5.8743827   9.1763621  )
        32           Ti1 tau(  32) = (   0.0006254   4.4649316   9.2693709  )
        33           O1  tau(  33) = (   3.2807365   3.0201584  11.2787527  )
        34           O1  tau(  34) = (   0.0092240   2.9805883  10.6323155  )
        35           O1  tau(  35) = (   1.2751182   4.4744369  12.6357194  )
        36           O1  tau(  36) = (   5.2842299   4.4734050  12.6250694  )
        37           Ti1 tau(  37) = (   0.0094520   0.1224552  12.5707632  )
        38           Ti1 tau(  38) = (   3.2670701   4.4034752  12.4162930  )
        39           O1  tau(  39) = (   6.5622168   3.0106679  14.6773207  )
        40           O1  tau(  40) = (   3.2891587   3.0115246  13.8909557  )
        41           O1  tau(  41) = (   4.5321968   4.4927823  16.1577793  )
        42           O1  tau(  42) = (   2.0250423   4.4919485  16.1304878  )
        43           Ti1 tau(  43) = (   3.2250977   0.0853664  16.3312049  )
        44           Ti1 tau(  44) = (   6.5532039   4.7053171  16.1332850  )
        45           O1  tau(  45) = (   3.2900926   2.9813045   4.7018136  )
        46           O1  tau(  46) = (   1.3039711   4.4726057   6.0039043  )
        47           O1  tau(  47) = (   5.2763189   4.4711207   6.0039473  )
        48           N1  tau(  48) = (   0.0650423   2.5931692  18.6004617  )
        49           N1  tau(  49) = (   0.0051179   2.9528117  17.3995676  )
        50           C1  tau(  50) = (   0.1360749   3.5155665  19.7334966  )
        51           H1  tau(  51) = (   6.1082608   4.3937080  19.5213757  )
        52           H1  tau(  52) = (   6.3628389   3.0028702  20.6266755  )
        53           H1  tau(  53) = (   1.1699357   3.8405576  19.8861820  )
        54           H1  tau(  54) = (   0.1060244   1.5775976  18.7788705  )
        55           O1  tau(  55) = (   3.2396048   0.1449850  18.2004881  )
        56           H1  tau(  56) = (   3.4111690   5.2654565  18.6466900  )

     number of k points=    10  Fermi-Dirac smearing, width (Ry)=  0.0073
                       cart. coord. in units 2pi/alat
        k(    1) = (   0.0000000   0.0000000   0.0000000), wk =   0.1250000
        k(    2) = (   0.0000000   0.0419351   0.0000000), wk =   0.2500000
        k(    3) = (   0.0000000  -0.0838702   0.0000000), wk =   0.1250000
        k(    4) = (   0.0379955   0.0000049   0.0000000), wk =   0.2500000
        k(    5) = (   0.0379955   0.0419400   0.0000000), wk =   0.2500000
        k(    6) = (   0.0379955  -0.0838652   0.0000000), wk =   0.2500000
        k(    7) = (   0.0379955  -0.0419301   0.0000000), wk =   0.2500000
        k(    8) = (  -0.0759910  -0.0000099   0.0000000), wk =   0.1250000
        k(    9) = (  -0.0759910   0.0419252   0.0000000), wk =   0.2500000
        k(   10) = (  -0.0759910  -0.0838800   0.0000000), wk =   0.1250000

     Initial potential from superposition of free atoms

     starting charge  386.99914, renormalised to  403.00000

     negative rho (up, down):  1.429E-02 0.000E+00

     %%%%%%%%%%%%%%%%%%%%%%%%%%%%%%%%%%%%%%%%%%%%%%%%%%%%%%%%%%%%%%%%%%%%%%%%
     %                                                                      %
     % You are using vdW-DF, which was implemented by the Thonhauser group. %
     % Please cite the following two papers that made this development      %
     % possible and the two reviews that describe the various versions:     %
     %                                                                      %
     %   T. Thonhauser et al., PRL 115, 136402 (2015).                      %
     %   T. Thonhauser et al., PRB 76, 125112 (2007).                       %
     %   K. Berland et al., Rep. Prog. Phys. 78, 066501 (2015).             %
     %   D.C. Langreth et al., J. Phys.: Condens. Matter 21, 084203 (2009). %
     %                                                                      %
     %                                                                      %
     % If you are calculating the stress with vdW-DF, please also cite:     %
     %                                                                      %
     %   R. Sabatini et al., J. Phys.: Condens. Matter 24, 424209 (2012).   %
     %                                                                      %
     %%%%%%%%%%%%%%%%%%%%%%%%%%%%%%%%%%%%%%%%%%%%%%%%%%%%%%%%%%%%%%%%%%%%%%%%

     Adding external electric field

     Computed dipole along edir(3) :
        Dipole              -12.7219 Ry au,        -32.3358 Debye
        Dipole field         -0.0240 Ry au,

        Potential amp.        2.2255 Ry
        Total length         46.3494 bohr

     Starting wfcs are  305 atomic wfcs
  @ DRIVER MODE: Message from server: STATUS
  @ DRIVER MODE: Message from server: POSDATA
  @ DRIVER MODE: Reading and sharing cell
  @ DRIVER MODE: Reading and sharing positions
  @ DRIVER MODE: Received positions

     Self-consistent Calculation

     iteration #  1     ecut=    29.40 Ry     beta= 0.05
     Davidson diagonalization with overlap
     ethr =  1.00E-02,  avg # of iterations =  3.3

[...]

     total energy              =   -2412.26017002 Ry
     estimated scf accuracy    <    6401.66150398 Ry

[...]

     iteration #  3     ecut=    29.40 Ry     beta= 0.05
     Davidson diagonalization with overlap
     c_bands:  2 eigenvalues not converged
     ethr =  1.00E-02,  avg # of iterations = 16.8

[...]

     iteration # 51     ecut=    29.40 Ry     beta= 0.05
     Davidson diagonalization with overlap
     c_bands:  1 eigenvalues not converged
     c_bands:  1 eigenvalues not converged
     ethr =  2.37E-07,  avg # of iterations = 11.3

[...]

     total energy              =   -2973.99528605 Ry
     estimated scf accuracy    <       0.00000014 Ry

     iteration # 68     ecut=    29.40 Ry     beta= 0.05
     Davidson diagonalization with overlap
     ethr =  3.18E-11,  avg # of iterations =  6.0

     negative rho (up, down):  1.502E-02 0.000E+00

     Adding external electric field

     Computed dipole along edir(3) :
        Dipole                1.1951 Ry au,          3.0377 Debye
        Dipole field          0.0023 Ry au,

        Potential amp.       -0.2091 Ry
        Total length         46.3494 bohr

     End of self-consistent calculation

          k = 0.0000 0.0000 0.0000 ( 18029 PWs)   bands (ev):

   -55.7005 -55.6666 -55.3863 -55.3524 -55.2773 -55.1696 -55.1145 -55.0366
   -54.9906 -54.9584 -54.8298 -54.7361 -54.6950 -54.6246 -54.5277 -54.4937
   -32.1604 -31.9948 -31.9709 -31.8619 -31.8556 -31.7839 -31.7623 -31.6518
   -31.6066 -31.6046 -31.5935 -31.5397 -31.5372 -31.5181 -31.4970 -31.4921
   -31.4883 -31.3952 -31.3868 -31.3708 -31.3353 -31.3162 -31.3057 -31.2947
   -31.2749 -31.2712 -31.2376 -31.1998 -31.1762 -31.1748 -31.1651 -31.1473
   -31.0968 -31.0299 -30.9915 -30.9522 -30.9500 -30.9271 -30.9203 -30.9060
   -30.8958 -30.8573 -30.8384 -30.8348 -30.8340 -30.7453 -30.6602 -30.5482
   -19.0753 -16.2301 -16.0570 -15.7657 -15.5948 -15.3878 -15.3591 -15.2639
   -15.1610 -15.1442 -15.0404 -14.9757 -14.8909 -14.8219 -14.8022 -14.7535
   -14.7240 -14.6958 -14.6812 -14.6716 -14.6333 -14.6016 -14.5846 -14.5089
   -14.4641 -14.4458 -14.4183 -14.3531 -14.2571 -13.9914 -13.9284 -13.0253
   -12.9119 -12.5775  -9.3440  -6.2109  -4.7722  -4.7207  -3.7774  -3.5359
    -3.4421  -3.3308  -3.1221  -3.0727  -2.8942  -2.7737  -2.7534  -2.5331
    -2.5054  -2.3935  -2.3785  -2.3320  -2.3257  -2.2916  -2.2251  -2.1968
    -2.1249  -2.0646  -2.0376  -2.0039  -1.9508  -1.8958  -1.8907  -1.8769
    -1.8196  -1.7516  -1.7234  -1.7143  -1.6704  -1.6068  -1.5982  -1.5817
    -1.5626  -1.5413  -1.3983  -1.2920  -1.2309  -1.1925  -1.1430  -1.0863
    -1.0335  -1.0203  -0.9198  -0.8400  -0.7986  -0.6812  -0.6533  -0.6129
    -0.5284  -0.5041  -0.4613  -0.4422  -0.4010  -0.3938  -0.2889  -0.2715
    -0.2374  -0.1946  -0.0755  -0.0276  -0.0195   0.0619   0.1211   0.2013
     0.2428   0.2584   0.2830   0.3689   0.3967   0.4140   0.4220   0.4945
     0.5134   0.5621   0.6157   0.6985   0.7110   0.7508   0.7851   0.7980
     0.9280   0.9362   1.0259   1.0499   1.0609   1.1252   1.2194   1.2791
     1.3907   1.4048   1.4975   1.4977   1.5181   1.7167   1.8910   2.0498
     2.0901   3.5008   3.6200   3.6821   3.7198   3.9305   3.9421   4.2049
     4.2800   4.3734   4.4120

[...]

          k = 0.0380-0.0419 0.0000 ( 17876 PWs)   bands (ev):

[...]

          k =-0.0760-0.0000 0.0000 ( 17886 PWs)   bands (ev):

[...]

          k =-0.0760-0.0839 0.0000 ( 17948 PWs)   bands (ev):

   -55.6837 -55.6833 -55.3719 -55.3666 -55.2767 -55.1638 -55.1203 -55.0289
   -54.9982 -54.9588 -54.8278 -54.7338 -54.6970 -54.6268 -54.5112 -54.5101
   -31.9807 -31.9802 -31.9760 -31.9758 -31.8073 -31.8067 -31.6901 -31.6846
   -31.5701 -31.5660 -31.5646 -31.5584 -31.5536 -31.4928 -31.4827 -31.4678
   -31.4349 -31.3857 -31.3840 -31.3614 -31.3464 -31.3463 -31.3342 -31.3342
   -31.2577 -31.2440 -31.2373 -31.2332 -31.2054 -31.1943 -31.1650 -31.1559
   -31.0889 -31.0396 -31.0351 -30.9920 -30.9588 -30.9536 -30.9528 -30.9110
   -30.8732 -30.8473 -30.8465 -30.8377 -30.7417 -30.7404 -30.7033 -30.7024
   -19.0720 -16.2229 -15.4717 -15.4615 -15.3174 -15.3081 -15.2303 -15.1408
   -15.1226 -15.0939 -15.0452 -15.0231 -14.9417 -14.8854 -14.8658 -14.8406
   -14.8217 -14.8075 -14.7499 -14.7467 -14.7313 -14.7176 -14.6515 -14.6132
   -14.5828 -14.5764 -14.4683 -14.3888 -14.3047 -14.1555 -14.0648 -13.0149
   -13.0144 -12.5779  -9.3507  -6.2036  -4.7621  -4.7213  -3.7705  -3.4139
    -2.6504  -2.6071  -2.5162  -2.4379  -2.4322  -2.3840  -2.3834  -2.3019
    -2.2492  -2.1914  -2.1671  -2.1589  -2.1584  -2.1274  -2.1183  -2.0640
    -2.0591  -2.0415  -2.0386  -1.9821  -1.9572  -1.9429  -1.8911  -1.8358
    -1.7850  -1.7484  -1.7265  -1.6863  -1.6674  -1.6644  -1.5794  -1.5653
    -1.5378  -1.5103  -1.4654  -1.4350  -1.3798  -1.3580  -1.3016  -1.1742
    -1.1028  -1.0173  -0.9118  -0.8905  -0.8576  -0.8242  -0.8117  -0.7891
    -0.7563  -0.6408  -0.6306  -0.5810  -0.5488  -0.5208  -0.5037  -0.4758
    -0.4530  -0.3519  -0.3098  -0.2805  -0.2404  -0.2063  -0.1783  -0.1450
    -0.0935  -0.0543  -0.0443  -0.0131   0.0208   0.0353   0.1884   0.2681
     0.4009   0.4291   0.5191   0.5659   0.5980   0.6272   0.6558   0.7746
     0.8221   0.8446   0.8812   0.9028   1.0015   1.0982   1.1186   1.1868
     1.2213   1.3263   1.3573   1.4450   1.4965   1.8796   1.8874   1.9083
     1.9088   3.3784   4.0459   4.0487   4.0603   4.0736   4.2388   4.2416
     4.3423   4.3663   4.5034

     the Fermi energy is     3.4573 ev

!    total energy              =   -2973.99531226 Ry
     estimated scf accuracy    <       0.00000007 Ry
     smearing contrib. (-TS)   =      -0.01689229 Ry
     internal energy E=F+TS    =   -2973.97841997 Ry

     The total energy is F=E-TS. E is the sum of the following terms:
     one-electron contribution =  -23437.86640123 Ry
     hartree contribution      =   11816.38908436 Ry
     xc contribution           =    -493.95579430 Ry
     ewald contribution        =    9141.45199577 Ry
     electric field correction =       0.00269544 Ry

     convergence has been achieved in  68 iterations

     Forces acting on atoms (cartesian axes, Ry/au):

     atom    1 type  1   force =     0.00012065   -0.00023845    0.10268452
     atom    2 type  1   force =    -0.00011942    0.00008672   -0.16808058
     atom    3 type  2   force =    -0.00000809    0.00045843   -0.03239057
     atom    4 type  2   force =     0.00002769   -0.00097259    0.04009393
     atom    5 type  2   force =    -0.00542007   -0.00191661   -0.00432089
     atom    6 type  2   force =     0.00665451   -0.00136164   -0.00592117
     atom    7 type  1   force =    -0.00053753   -0.00530520    0.03003901
     atom    8 type  1   force =     0.00069651    0.00860595    0.04850383
     atom    9 type  2   force =     0.00012333   -0.00131164   -0.00105840
     atom   10 type  2   force =    -0.00253572    0.00301212   -0.03414450
     atom   11 type  2   force =    -0.00037507   -0.00008623   -0.00023447
     atom   12 type  2   force =     0.00047460   -0.00036898   -0.00011665
     atom   13 type  1   force =     0.00022815   -0.00162509    0.00018581
     atom   14 type  1   force =     0.00017293   -0.00078318    0.00071222
     atom   15 type  2   force =     0.00008683    0.00004676   -0.00028853
     atom   16 type  2   force =    -0.00012955    0.00005062    0.00172025
     atom   17 type  2   force =    -0.00102567   -0.00057525    0.00038902
     atom   18 type  2   force =     0.00064533   -0.00109221    0.00052252
     atom   19 type  1   force =     0.00060368   -0.00098101   -0.00072770
     atom   20 type  1   force =    -0.00077794   -0.00038682   -0.00021363
     atom   21 type  2   force =     0.00005006    0.00012230    0.10112376
     atom   22 type  2   force =    -0.00010378    0.00052218    0.00032635
     atom   23 type  2   force =    -0.07541761   -0.00012072   -0.02931552
     atom   24 type  2   force =     0.07532953    0.00030137   -0.02933558
     atom   25 type  1   force =     0.00014095   -0.00023121    0.10279772
     atom   26 type  1   force =    -0.00004065   -0.00130032   -0.16848688
     atom   27 type  2   force =     0.00011874    0.00017421   -0.03116131
     atom   28 type  2   force =    -0.00000902    0.00072301    0.03581741
     atom   29 type  2   force =    -0.00425051    0.00378446   -0.00625150
     atom   30 type  2   force =     0.00527422    0.00442142   -0.00777759
     atom   31 type  1   force =    -0.00054132    0.00495598    0.01594285
     atom   32 type  1   force =     0.00077022   -0.01041543    0.04919519
     atom   33 type  2   force =     0.00002808   -0.00092833   -0.00139720
     atom   34 type  2   force =    -0.00240517    0.00222399   -0.04431174
     atom   35 type  2   force =     0.00054914    0.00020514   -0.00013996
     atom   36 type  2   force =    -0.00017878    0.00023642   -0.00006986
     atom   37 type  1   force =     0.00026568    0.00038056   -0.00045651
     atom   38 type  1   force =     0.00041816    0.00141967    0.00106695
     atom   39 type  2   force =     0.00036459    0.00044918    0.00009160
     atom   40 type  2   force =     0.00005911    0.00014909    0.00048986
     atom   41 type  2   force =    -0.00092737   -0.00024133    0.00010623
     atom   42 type  2   force =     0.00044169    0.00024188    0.00032214
     atom   43 type  1   force =     0.00026740    0.00026304   -0.00148345
     atom   44 type  1   force =    -0.00065723   -0.00016370   -0.00090075
     atom   45 type  2   force =     0.00007121   -0.00002103    0.10093347
     atom   46 type  2   force =    -0.07547555   -0.00005024   -0.02933598
     atom   47 type  2   force =     0.07538666    0.00038326   -0.02933160
     atom   48 type  3   force =    -0.00066438   -0.00003843    0.00076243
     atom   49 type  3   force =     0.00035323   -0.00065923   -0.00122519
     atom   50 type  4   force =     0.00120375    0.00122351    0.00052133
     atom   51 type  5   force =     0.00014041   -0.00076258   -0.00135215
     atom   52 type  5   force =    -0.00019287   -0.00054827   -0.00048341
     atom   53 type  5   force =    -0.00012744   -0.00054031   -0.00100516
     atom   54 type  5   force =    -0.00005394   -0.00063732   -0.00136427
     atom   55 type  2   force =    -0.00032971    0.00037462   -0.00099136
     atom   56 type  5   force =     0.00123732   -0.00115253   -0.00067436

     Total force =     0.372750     Total SCF correction =     0.000614
  @ DRIVER MODE: Message from server: STATUS
  @ DRIVER MODE: Message from server: GETFORCE
  @ DRIVER MODE: Returning v,forces,stress,ensemble

     Writing output data file ./calc.save/
  @ DRIVER MODE: Message from server: EXIT
  @ DRIVE MODE: Exiting

     General routines

     Parallel routines

   This run was terminated on:  22:22:38  22Sep2021

   JOB DONE.