     Program PWSCF v.6.7GPU starts on 26Sep2021 at 18:50:25

     R & G space division:  proc/nbgrp/npool/nimage =       8
     Reading input from /storage/home/hcoda1/3/ntian30/research/carbon/CxH_vib/H2O_calc/ads_slab/CH3ON2H2O_a/out_0056/pw.inp
Warning: card &CELL ignored
Warning: card   CELL_DYNAMICS='IPI', ignored
Warning: card / ignored

     Current dimensions of program PWSCF are:
     Max number of different atomic species (ntypx) = 10
     Max number of k-points (npk) =  40000
     Max angular momentum in pseudopotentials (lmaxx) =  3
     Presently no symmetry can be used with electric field

     Message from routine cell_base_init:
     DEPRECATED: use true lattice parameter, not A to a.u. conversion factor

     IMPORTANT: XC functional enforced from input :
     Exchange-correlation= BEEF-VDW
                           (   1   4  43  14   2   0   0)
     Any further DFT definition will be discarded
     Please, verify this is what you really want

  @ DRIVER MODE: Connecting to
 qe_1139763_2971672.sched-torque.pace.gatech.edu_fanyi5k_scratch
  using UNIX socket
  @ DRIVER MODE: Message from server: STATUS
  @ DRIVER MODE: Message from server: INIT
  @ DRIVER MODE: Receiving replica           0          -1
  @ DRIVER MODE: Receiving encoded integer          25
  @ DRIVER MODE:  SCF:  T  FORCE:  T  STRESS:  F  VC:  F  ENSEMBLE:  F
  @ DRIVER MODE:  SCF:  T  FORCE:  T  STRESS:  F  VC:  F  ENSEMBLE:  F

     Using Slab Decomposition

     bravais-lattice index     =            0
     lattice parameter (alat)  =       1.8897  a.u.
     unit-cell volume          =    6658.9804 (a.u.)^3
     number of atoms/cell      =           57
     number of atomic types    =            5
     number of electrons       =       409.00
     number of Kohn-Sham states=          214
     kinetic-energy cutoff     =      29.3995  Ry
     charge density cutoff     =     293.9946  Ry
     scf convergence threshold =      7.3E-08
     mixing beta               =       0.0500
     number of iterations used =            8  plain     mixing
     Exchange-correlation= BEEF-VDW
                           (   1   4  43  14   2   0   0)

     celldm(1)=   1.889726  celldm(2)=   0.000000  celldm(3)=   0.000000
     celldm(4)=   0.000000  celldm(5)=   0.000000  celldm(6)=   0.000000

     crystal axes: (cart. coord. in units of alat)
               a(1) = (   6.579727   0.000000   0.000000 )
               a(2) = (  -0.000775   5.961596   0.000000 )
               a(3) = (   0.000000   0.000000  25.155947 )

     reciprocal axes: (cart. coord. in units 2 pi/alat)
               b(1) = (  0.151982  0.000020  0.000000 )
               b(2) = (  0.000000  0.167740  0.000000 )
               b(3) = (  0.000000  0.000000  0.039752 )

     PseudoPot. # 1 for Ti read from file:
     /storage/coda1/p-amedford6/0/shared/rich_project_chbe-medford/medford-share/data/pseudos_module/espresso/nninc/pbe/van/Ti.UPF
     MD5 check sum: 8e4df49b7f0d34bbd5052bf3f5ea0213
     Pseudo is Ultrasoft, Zval = 12.0
     Generated by new atomic code, or converted to UPF format
     Using radial grid of  851 points,  6 beta functions with:
                l(1) =   0
                l(2) =   0
                l(3) =   1
                l(4) =   1
                l(5) =   2
                l(6) =   2
     Q(r) pseudized with  8 coefficients,  rinner =    1.000   1.000   1.000
                                                       1.000   1.000

     PseudoPot. # 2 for O  read from file:
     /storage/coda1/p-amedford6/0/shared/rich_project_chbe-medford/medford-share/data/pseudos_module/espresso/nninc/pbe/van/O.UPF
     MD5 check sum: 78c19812648e8988a0fe644b0f25305e
     Pseudo is Ultrasoft, Zval =  6.0
     Generated by new atomic code, or converted to UPF format
     Using radial grid of  737 points,  4 beta functions with:
                l(1) =   0
                l(2) =   0
                l(3) =   1
                l(4) =   1
     Q(r) pseudized with  8 coefficients,  rinner =    0.800   0.800   0.800

     PseudoPot. # 3 for C  read from file:
     /storage/coda1/p-amedford6/0/shared/rich_project_chbe-medford/medford-share/data/pseudos_module/espresso/nninc/pbe/van/C.UPF
     MD5 check sum: 1a69bf6b8db32088f5b2163dbdb77a27
     Pseudo is Ultrasoft, Zval =  4.0
     Generated by new atomic code, or converted to UPF format
     Using radial grid of  721 points,  4 beta functions with:
                l(1) =   0
                l(2) =   0
                l(3) =   1
                l(4) =   1
     Q(r) pseudized with  8 coefficients,  rinner =    0.800   0.800   0.800

     PseudoPot. # 4 for H  read from file:
     /storage/coda1/p-amedford6/0/shared/rich_project_chbe-medford/medford-share/data/pseudos_module/espresso/nninc/pbe/van/H.UPF
     MD5 check sum: b5ee9d7bfd3a09ee7748110bda690ff7
     Pseudo is Ultrasoft, Zval =  1.0
     Generated by new atomic code, or converted to UPF format
     Using radial grid of  615 points,  1 beta functions with:
                l(1) =   0
     Q(r) pseudized with  8 coefficients,  rinner =    0.800

     PseudoPot. # 5 for N  read from file:
     /storage/coda1/p-amedford6/0/shared/rich_project_chbe-medford/medford-share/data/pseudos_module/espresso/nninc/pbe/van/N.UPF
     MD5 check sum: 90d10febe142ad51ac9d5be1deb811c4
     Pseudo is Ultrasoft, Zval =  5.0
     Generated by new atomic code, or converted to UPF format
     Using radial grid of  729 points,  4 beta functions with:
                l(1) =   0
                l(2) =   0
                l(3) =   1
                l(4) =   1
     Q(r) pseudized with  8 coefficients,  rinner =    0.800   0.800   0.800

     atomic species   valence    mass     pseudopotential
        Ti1           12.00    47.86700     Ti( 1.00)
        O1             6.00    15.99900     O ( 1.00)
        C1             4.00    12.01100     C ( 1.00)
        H1             1.00     1.00800     H ( 1.00)
        N1             5.00    14.00700     N ( 1.00)

     No symmetry found

   Cartesian axes

     site n.     atom                  positions (alat units)
         1           Ti1 tau(   1) = (   0.0004258   2.9801865   6.0000000  )
         2           Ti1 tau(   2) = (   3.2906075   1.4906267   6.0002472  )
         3           O1  tau(   3) = (   0.0006271   0.0005054   7.9858123  )
         4           O1  tau(   4) = (   3.2906025   0.0005020   7.3038282  )
         5           O1  tau(   5) = (   4.5942328   1.4918067   9.2879030  )
         6           O1  tau(   6) = (   1.9868534   1.4903216   9.2879459  )
         7           Ti1 tau(   7) = (   3.3113259   3.0354369   9.1618307  )
         8           Ti1 tau(   8) = (   0.0141821   1.6139659   9.3625064  )
         9           O1  tau(   9) = (   3.2964399   0.0287090  11.3517035  )
        10           O1  tau(  10) = (   0.0046459   0.0167322  10.6079620  )
        11           O1  tau(  11) = (   1.2916403   1.5142126  12.6509924  )
        12           O1  tau(  12) = (   5.2954765   1.5212855  12.6445515  )
        13           Ti1 tau(  13) = (   0.0303381   3.0181167  12.7741416  )
        14           Ti1 tau(  14) = (   3.3376880   1.5190318  12.5019279  )
        15           O1  tau(  15) = (   6.5702980   0.0162101  14.7136675  )
        16           O1  tau(  16) = (   3.3118210   0.0215951  13.9605728  )
        17           O1  tau(  17) = (   4.5586303   1.5408398  16.0643691  )
        18           O1  tau(  18) = (   2.0376984   1.5397913  16.0346728  )
        19           Ti1 tau(  19) = (   3.2806018   3.0126274  15.6982083  )
        20           Ti1 tau(  20) = (   0.0204579   1.3876160  16.0921805  )
        21           O1  tau(  21) = (   3.2904802   0.0005063   4.7018136  )
        22           O1  tau(  22) = (   0.0362274   0.0182013  17.2505027  )
        23           O1  tau(  23) = (   1.3043587   1.4918075   6.0039043  )
        24           O1  tau(  24) = (   5.2767064   1.4903225   6.0039473  )
        25           Ti1 tau(  25) = (   0.0000382   5.9609847   6.0000000  )
        26           Ti1 tau(  26) = (   3.2902200   4.4714249   6.0002472  )
        27           O1  tau(  27) = (   0.0002396   2.9813036   7.9858123  )
        28           O1  tau(  28) = (   3.2902150   2.9813002   7.3038282  )
        29           O1  tau(  29) = (   4.5938453   4.4726049   9.2879030  )
        30           O1  tau(  30) = (   1.9864658   4.4711199   9.2879459  )
        31           Ti1 tau(  31) = (   3.2918133   0.0584897   9.1554610  )
        32           Ti1 tau(  32) = (   0.0176696   4.5429683   9.2683582  )
        33           O1  tau(  33) = (   3.2944385   3.0046939  11.3531965  )
        34           O1  tau(  34) = (   0.0071923   2.9964285  10.5824339  )
        35           O1  tau(  35) = (   1.2923070   4.5060354  12.6395470  )
        36           O1  tau(  36) = (   5.2930342   4.4972821  12.6335129  )
        37           Ti1 tau(  37) = (   0.0360028   0.0369787  12.5252624  )
        38           Ti1 tau(  38) = (   3.3378333   4.5109478  12.5016189  )
        39           O1  tau(  39) = (   0.0182598   3.0415135  14.6926035  )
        40           O1  tau(  40) = (   3.2973286   3.0139918  13.9115332  )
        41           O1  tau(  41) = (   4.5518717   4.4752506  16.0920674  )
        42           O1  tau(  42) = (   2.0385343   4.4722040  16.0556704  )
        43           Ti1 tau(  43) = (   3.3273276   0.0437280  15.7880462  )
        44           Ti1 tau(  44) = (   0.0148993   4.5306414  15.9319406  )
        45           O1  tau(  45) = (   3.2900926   2.9813045   4.7018136  )
        46           O1  tau(  46) = (   1.3039711   4.4726057   6.0039043  )
        47           O1  tau(  47) = (   5.2763189   4.4711207   6.0039473  )
        48           C1  tau(  48) = (   6.0619278   3.0088867  18.6555636  )
        49           O1  tau(  49) = (   6.5788924   2.9994598  17.3400993  )
        50           H1  tau(  50) = (   4.9713474   2.8828304  18.6515055  )
        51           H1  tau(  51) = (   6.4909130   2.1836263  19.2313859  )
        52           H1  tau(  52) = (   6.3070107   3.9563896  19.1453893  )
        53           N1  tau(  53) = (   5.9950546   3.0301018  22.7159517  )
        54           N1  tau(  54) = (   5.2276613   3.1827328  21.9368001  )
        55           O1  tau(  55) = (   3.1818816   0.0591848  18.2205797  )
        56           H1  tau(  56) = (   3.8437189   5.3938241  18.5518935  )
        57           H1  tau(  57) = (   2.3186839   5.6188137  18.3735615  )

     number of k points=    10  Fermi-Dirac smearing, width (Ry)=  0.0073
                       cart. coord. in units 2pi/alat
        k(    1) = (   0.0000000   0.0000000   0.0000000), wk =   0.1250000
        k(    2) = (   0.0000000   0.0419351   0.0000000), wk =   0.2500000
        k(    3) = (   0.0000000  -0.0838702   0.0000000), wk =   0.1250000
        k(    4) = (   0.0379955   0.0000049   0.0000000), wk =   0.2500000
        k(    5) = (   0.0379955   0.0419400   0.0000000), wk =   0.2500000
        k(    6) = (   0.0379955  -0.0838652   0.0000000), wk =   0.2500000
        k(    7) = (   0.0379955  -0.0419301   0.0000000), wk =   0.2500000
        k(    8) = (  -0.0759910  -0.0000099   0.0000000), wk =   0.1250000
        k(    9) = (  -0.0759910   0.0419252   0.0000000), wk =   0.2500000
        k(   10) = (  -0.0759910  -0.0838800   0.0000000), wk =   0.1250000

     Initial potential from superposition of free atoms

     starting charge  392.99914, renormalised to  409.00000

     negative rho (up, down):  9.746E-03 0.000E+00

     %%%%%%%%%%%%%%%%%%%%%%%%%%%%%%%%%%%%%%%%%%%%%%%%%%%%%%%%%%%%%%%%%%%%%%%%
     %                                                                      %
     % You are using vdW-DF, which was implemented by the Thonhauser group. %
     % Please cite the following two papers that made this development      %
     % possible and the two reviews that describe the various versions:     %
     %                                                                      %
     %   T. Thonhauser et al., PRL 115, 136402 (2015).                      %
     %   T. Thonhauser et al., PRB 76, 125112 (2007).                       %
     %   K. Berland et al., Rep. Prog. Phys. 78, 066501 (2015).             %
     %   D.C. Langreth et al., J. Phys.: Condens. Matter 21, 084203 (2009). %
     %                                                                      %
     %                                                                      %
     % If you are calculating the stress with vdW-DF, please also cite:     %
     %                                                                      %
     %   R. Sabatini et al., J. Phys.: Condens. Matter 24, 424209 (2012).   %
     %                                                                      %
     %%%%%%%%%%%%%%%%%%%%%%%%%%%%%%%%%%%%%%%%%%%%%%%%%%%%%%%%%%%%%%%%%%%%%%%%

     Adding external electric field

     Computed dipole along edir(3) :
        Dipole              -18.5715 Ry au,        -47.2041 Debye
        Dipole field         -0.0350 Ry au,

        Potential amp.        3.2488 Ry
        Total length         46.3494 bohr

     Starting wfcs are  309 atomic wfcs
  @ DRIVER MODE: Message from server: STATUS
  @ DRIVER MODE: Message from server: POSDATA
  @ DRIVER MODE: Reading and sharing cell
  @ DRIVER MODE: Reading and sharing positions
  @ DRIVER MODE: Received positions

     Self-consistent Calculation

     iteration #  1     ecut=    29.40 Ry     beta= 0.05
     Davidson diagonalization with overlap
     c_bands:  3 eigenvalues not converged
     c_bands:  2 eigenvalues not converged
     c_bands:  2 eigenvalues not converged
     c_bands:  5 eigenvalues not converged
     c_bands:  5 eigenvalues not converged
     c_bands:  5 eigenvalues not converged
     c_bands:  1 eigenvalues not converged
     c_bands:  3 eigenvalues not converged
     ethr =  1.00E-05,  avg # of iterations = 28.5

[...]

     total energy              =   -2113.07634260 Ry
     estimated scf accuracy    <   10297.62741451 Ry

     iteration #  2     ecut=    29.40 Ry     beta= 0.05
     Davidson diagonalization with overlap
     ethr =  1.00E-02,  avg # of iterations = 31.3

[...]

     iteration # 91     ecut=    29.40 Ry     beta= 0.05
     Davidson diagonalization with overlap
     c_bands:  1 eigenvalues not converged
     c_bands:  1 eigenvalues not converged
     ethr =  3.09E-11,  avg # of iterations = 17.9

[...]

     total energy              =   -3006.52119001 Ry
     estimated scf accuracy    <       0.00000014 Ry

     iteration # 92     ecut=    29.40 Ry     beta= 0.05
     Davidson diagonalization with overlap
     ethr =  3.09E-11,  avg # of iterations = 11.8

     negative rho (up, down):  1.093E-02 0.000E+00

     Adding external electric field

     Computed dipole along edir(3) :
        Dipole                0.9969 Ry au,          2.5338 Debye
        Dipole field          0.0019 Ry au,

        Potential amp.       -0.1744 Ry
        Total length         46.3494 bohr

     End of self-consistent calculation

          k = 0.0000 0.0000 0.0000 ( 18029 PWs)   bands (ev):

   -55.2847 -55.2501 -55.2487 -55.2137 -55.1914 -55.1753 -55.1681 -55.1324
   -55.0818 -55.0636 -55.0472 -55.0403 -55.0065 -54.9524 -54.2917 -54.2576
   -31.8071 -31.7539 -31.6764 -31.6451 -31.6238 -31.5765 -31.5592 -31.5558
   -31.5197 -31.5144 -31.4777 -31.4644 -31.4577 -31.4486 -31.4443 -31.4314
   -31.4250 -31.3892 -31.3839 -31.3762 -31.3720 -31.3531 -31.3493 -31.3403
   -31.3325 -31.3265 -31.3107 -31.2893 -31.2789 -31.2730 -31.2700 -31.2621
   -31.2598 -31.2436 -31.2311 -31.2208 -31.2196 -31.1849 -31.1699 -31.1495
   -31.1372 -31.1358 -30.7009 -30.6051 -30.5828 -30.5175 -30.4315 -30.3204
   -21.4264 -18.7934 -17.1971 -15.9995 -15.7290 -15.5690 -15.4377 -15.4025
   -15.2155 -15.0938 -14.9607 -14.9369 -14.8832 -14.8562 -14.8216 -14.8107
   -14.8058 -14.7937 -14.7859 -14.7389 -14.7044 -14.6869 -14.6865 -14.6630
   -14.6144 -14.5608 -14.4961 -14.4309 -14.4021 -14.3598 -14.2907 -14.2832
   -12.7922 -12.6743  -9.1227  -6.6036  -6.5633  -4.5645  -4.5537  -3.9159
    -3.7655  -3.4712  -3.3638  -3.2870  -3.2121  -3.1897  -3.1674  -3.0945
    -2.9963  -2.8449  -2.7535  -2.5104  -2.4550  -2.4124  -2.3807  -2.3521
    -2.1949  -2.1699  -2.1013  -2.0904  -2.0817  -2.0708  -2.0439  -2.0146
    -1.9891  -1.9572  -1.8984  -1.8737  -1.8034  -1.6727  -1.6645  -1.6317
    -1.5854  -1.5695  -1.5679  -1.5410  -1.4969  -1.4783  -1.4533  -1.4480
    -1.3513  -1.2629  -1.2186  -1.1218  -1.0428  -0.9693  -0.8489  -0.8083
    -0.7347  -0.7016  -0.6853  -0.6317  -0.5825  -0.5720  -0.5135  -0.4667
    -0.3590  -0.3159  -0.2745  -0.2387  -0.1863  -0.1419  -0.0716  -0.0385
    -0.0055  -0.0012   0.0197   0.2184   0.2297   0.2810   0.2932   0.3908
     0.4434   0.4779   0.4914   0.5003   0.5384   0.6140   0.6695   0.6780
     0.7099   0.7456   0.7651   0.8118   0.8523   0.9045   0.9339   0.9687
     1.0353   1.0758   1.2296   1.3245   1.3683   1.4843   1.6412   1.7326
     1.8063   1.9066   2.3193   2.3767   3.8968   3.9309   3.9576   3.9760
     4.0439   4.1430   4.2596   4.3505   4.3600   4.3905

[...]

          k = 0.0380-0.0419 0.0000 ( 17876 PWs)   bands (ev):

[...]

          k =-0.0760-0.0000 0.0000 ( 17886 PWs)   bands (ev):

[...]

          k =-0.0760-0.0839 0.0000 ( 17948 PWs)   bands (ev):

   -55.2725 -55.2608 -55.2341 -55.2294 -55.1883 -55.1731 -55.1575 -55.1432
   -55.0845 -55.0605 -55.0494 -55.0257 -55.0213 -54.9551 -54.2751 -54.2740
   -31.6190 -31.6025 -31.5767 -31.5743 -31.5647 -31.5633 -31.5458 -31.5130
   -31.5063 -31.4892 -31.4860 -31.4754 -31.4404 -31.4299 -31.4092 -31.4052
   -31.4002 -31.3982 -31.3970 -31.3906 -31.3877 -31.3843 -31.3727 -31.3642
   -31.3583 -31.3496 -31.3489 -31.3470 -31.3419 -31.3158 -31.2903 -31.2775
   -31.2749 -31.2728 -31.2708 -31.2621 -31.2524 -31.2409 -31.2314 -31.2220
   -31.1804 -31.1466 -30.5961 -30.5948 -30.5143 -30.5134 -30.4750 -30.4741
   -21.4262 -18.7925 -17.1667 -15.4676 -15.3585 -15.2293 -15.1649 -15.1421
   -15.1157 -15.0624 -15.0462 -14.9908 -14.9866 -14.9361 -14.9297 -14.8868
   -14.8799 -14.8258 -14.7976 -14.7886 -14.7597 -14.7269 -14.7109 -14.7098
   -14.6699 -14.6484 -14.6398 -14.6094 -14.6021 -14.5400 -14.5013 -14.4696
   -12.7766 -12.7747  -9.1245  -6.6043  -6.5569  -4.5649  -4.5610  -3.8258
    -3.7242  -3.4980  -3.2737  -3.0230  -2.7530  -2.5725  -2.4789  -2.4101
    -2.3571  -2.3390  -2.2294  -2.2049  -2.1750  -2.1403  -2.1181  -2.1072
    -2.0897  -2.0806  -2.0734  -2.0558  -2.0227  -2.0036  -1.9766  -1.9517
    -1.9367  -1.9131  -1.8955  -1.8881  -1.8633  -1.8354  -1.8291  -1.8260
    -1.7636  -1.7234  -1.5649  -1.5205  -1.5002  -1.4086  -1.3893  -1.3726
    -1.3473  -1.3330  -1.3164  -1.1979  -1.1467  -1.1227  -1.0101  -0.9922
    -0.9663  -0.8280  -0.8032  -0.7731  -0.7432  -0.7013  -0.6331  -0.6083
    -0.5529  -0.5400  -0.4384  -0.4014  -0.3769  -0.3637  -0.2674  -0.2450
    -0.2396  -0.2140  -0.1505  -0.1188  -0.0740  -0.0441  -0.0129   0.0112
     0.0576   0.0775   0.1712   0.1916   0.2280   0.2710   0.3647   0.5319
     0.6246   0.7346   0.7604   0.8072   0.8678   0.9099   0.9603   1.0141
     1.0614   1.0681   1.1307   1.1679   1.2528   1.2667   1.2700   1.3384
     2.0939   2.0942   2.1820   2.1910   4.1382   4.1465   4.2036   4.2233
     4.3624   4.3686   4.3821   4.3897   4.4846   4.5422

     the Fermi energy is     3.8668 ev

!    total energy              =   -3006.52119793 Ry
     estimated scf accuracy    <       0.00000004 Ry
     smearing contrib. (-TS)   =      -0.02294656 Ry
     internal energy E=F+TS    =   -3006.49825136 Ry

     The total energy is F=E-TS. E is the sum of the following terms:
     one-electron contribution =  -22563.20987095 Ry
     hartree contribution      =   11380.94797956 Ry
     xc contribution           =    -501.15412399 Ry
     ewald contribution        =    8676.91588868 Ry
     electric field correction =       0.00187534 Ry

     convergence has been achieved in  92 iterations

     Forces acting on atoms (cartesian axes, Ry/au):

     atom    1 type  1   force =    -0.00014912   -0.00167183    0.10541111
     atom    2 type  1   force =    -0.00021890    0.00113480   -0.17918174
     atom    3 type  2   force =     0.00020566   -0.00554138   -0.03234576
     atom    4 type  2   force =     0.00010390    0.00072035    0.04628967
     atom    5 type  2   force =    -0.01804456    0.00052495    0.00423362
     atom    6 type  2   force =     0.01844010   -0.00044630    0.00410341
     atom    7 type  1   force =     0.00007903    0.00020276    0.00006392
     atom    8 type  1   force =     0.00007274    0.00031447   -0.00011969
     atom    9 type  2   force =     0.00017406    0.00034981   -0.00009391
     atom   10 type  2   force =     0.00017181   -0.00000921    0.00001416
     atom   11 type  2   force =     0.00004875   -0.00034384   -0.00038530
     atom   12 type  2   force =    -0.00006091   -0.00051703   -0.00052604
     atom   13 type  1   force =     0.00047457    0.00023822    0.00007125
     atom   14 type  1   force =    -0.00026579   -0.00047054   -0.00043459
     atom   15 type  2   force =     0.00004779   -0.00056061    0.00031472
     atom   16 type  2   force =    -0.00008593    0.00030337   -0.00017698
     atom   17 type  2   force =    -0.00045421   -0.00061390    0.00009257
     atom   18 type  2   force =     0.00007677   -0.00049352    0.00020906
     atom   19 type  1   force =     0.00041528   -0.00031636   -0.00016911
     atom   20 type  1   force =    -0.00007293   -0.00089198   -0.00073751
     atom   21 type  2   force =    -0.00003400    0.00009962    0.10396125
     atom   22 type  2   force =    -0.00011997   -0.00048390    0.00035615
     atom   23 type  2   force =    -0.06943804    0.00051546   -0.02947272
     atom   24 type  2   force =     0.06919375    0.00097533   -0.02952832
     atom   25 type  1   force =    -0.00003710    0.00156592    0.11482714
     atom   26 type  1   force =    -0.00021953   -0.00047838   -0.17918990
     atom   27 type  2   force =     0.00021438    0.00414696   -0.02603913
     atom   28 type  2   force =     0.00042826    0.00093082    0.04807649
     atom   29 type  2   force =    -0.01631428    0.00162590    0.00384555
     atom   30 type  2   force =     0.01736714    0.00217688    0.00361500
     atom   31 type  1   force =    -0.00014364    0.00010747   -0.00022296
     atom   32 type  1   force =     0.00010828   -0.00008396    0.00026272
     atom   33 type  2   force =     0.00028704   -0.00050888    0.00018047
     atom   34 type  2   force =    -0.00004077   -0.00030929   -0.00028619
     atom   35 type  2   force =    -0.00045995   -0.00013686    0.00000793
     atom   36 type  2   force =     0.00053897    0.00001609   -0.00000130
     atom   37 type  1   force =     0.00046766   -0.00073238   -0.00004161
     atom   38 type  1   force =    -0.00037411   -0.00003691   -0.00037806
     atom   39 type  2   force =    -0.00042054   -0.00048820   -0.00049204
     atom   40 type  2   force =     0.00035669   -0.00040643   -0.00024428
     atom   41 type  2   force =    -0.00021114   -0.00003019    0.00010136
     atom   42 type  2   force =    -0.00026569   -0.00018405    0.00012689
     atom   43 type  1   force =     0.00025954    0.00015108    0.00114709
     atom   44 type  1   force =     0.00004289   -0.00023585   -0.00068784
     atom   45 type  2   force =    -0.00003623    0.00007820    0.10400185
     atom   46 type  2   force =    -0.06904646   -0.00106832   -0.02953079
     atom   47 type  2   force =     0.06886029   -0.00062508   -0.02960819
     atom   48 type  3   force =    -0.00019346    0.00002710    0.00028973
     atom   49 type  2   force =    -0.00002230    0.00026162   -0.00081609
     atom   50 type  4   force =    -0.00045463   -0.00006459    0.00003088
     atom   51 type  4   force =     0.00029206   -0.00029094    0.00015214
     atom   52 type  4   force =    -0.00003651    0.00038053   -0.00043207
     atom   53 type  5   force =    -0.00105662   -0.00018254   -0.00110683
     atom   54 type  5   force =     0.00050001    0.00037867    0.00078854
     atom   55 type  2   force =     0.01633078    0.00570975   -0.00162841
     atom   56 type  4   force =    -0.00061911    0.00085549   -0.00097637
     atom   57 type  4   force =    -0.01666175   -0.00556838    0.00227906

     Total force =     0.375392     Total SCF correction =     0.000424
  @ DRIVER MODE: Message from server: STATUS
  @ DRIVER MODE: Message from server: GETFORCE
  @ DRIVER MODE: Returning v,forces,stress,ensemble

     Writing output data file ./calc.save/
  @ DRIVER MODE: Message from server: EXIT
  @ DRIVE MODE: Exiting

     General routines

     Parallel routines

   This run was terminated on:  19:24:56  26Sep2021

   JOB DONE.