     Program PWSCF v.6.7GPU starts on 22Sep2021 at 17:26: 2

     R & G space division:  proc/nbgrp/npool/nimage =      10
     Reading input from /storage/home/hcoda1/3/ntian30/research/carbon/CxH_vib/H2O_calc/ads_slab/CH3NHHH2O_a/out_0005/pw.inp
Warning: card &CELL ignored
Warning: card   CELL_DYNAMICS='IPI', ignored
Warning: card / ignored

     Current dimensions of program PWSCF are:
     Max number of different atomic species (ntypx) = 10
     Max number of k-points (npk) =  40000
     Max angular momentum in pseudopotentials (lmaxx) =  3
     Presently no symmetry can be used with electric field

     Message from routine cell_base_init:
     DEPRECATED: use true lattice parameter, not A to a.u. conversion factor

     IMPORTANT: XC functional enforced from input :
     Exchange-correlation= BEEF-VDW
                           (   1   4  43  14   2   0   0)
     Any further DFT definition will be discarded
     Please, verify this is what you really want

  @ DRIVER MODE: Connecting to
 qe_1139763_2937309.sched-torque.pace.gatech.edukdylt2g__scratch
  using UNIX socket
  @ DRIVER MODE: Message from server: STATUS
  @ DRIVER MODE: Message from server: INIT
  @ DRIVER MODE: Receiving replica           0          -1
  @ DRIVER MODE: Receiving encoded integer          25
  @ DRIVER MODE:  SCF:  T  FORCE:  T  STRESS:  F  VC:  F  ENSEMBLE:  F
  @ DRIVER MODE:  SCF:  T  FORCE:  T  STRESS:  F  VC:  F  ENSEMBLE:  F

     Using Slab Decomposition

     bravais-lattice index     =            0
     lattice parameter (alat)  =       1.8897  a.u.
     unit-cell volume          =    6658.9804 (a.u.)^3
     number of atoms/cell      =           57
     number of atomic types    =            5
     number of electrons       =       400.00
     number of Kohn-Sham states=          210
     kinetic-energy cutoff     =      29.3995  Ry
     charge density cutoff     =     293.9946  Ry
     scf convergence threshold =      7.3E-08
     mixing beta               =       0.0500
     number of iterations used =            8  plain     mixing
     Exchange-correlation= BEEF-VDW
                           (   1   4  43  14   2   0   0)

     celldm(1)=   1.889726  celldm(2)=   0.000000  celldm(3)=   0.000000
     celldm(4)=   0.000000  celldm(5)=   0.000000  celldm(6)=   0.000000

     crystal axes: (cart. coord. in units of alat)
               a(1) = (   6.579727   0.000000   0.000000 )
               a(2) = (  -0.000775   5.961596   0.000000 )
               a(3) = (   0.000000   0.000000  25.155947 )

     reciprocal axes: (cart. coord. in units 2 pi/alat)
               b(1) = (  0.151982  0.000020  0.000000 )
               b(2) = (  0.000000  0.167740  0.000000 )
               b(3) = (  0.000000  0.000000  0.039752 )

     PseudoPot. # 1 for Ti read from file:
     /storage/coda1/p-amedford6/0/shared/rich_project_chbe-medford/medford-share/data/pseudos_module/espresso/nninc/pbe/van/Ti.UPF
     MD5 check sum: 8e4df49b7f0d34bbd5052bf3f5ea0213
     Pseudo is Ultrasoft, Zval = 12.0
     Generated by new atomic code, or converted to UPF format
     Using radial grid of  851 points,  6 beta functions with:
                l(1) =   0
                l(2) =   0
                l(3) =   1
                l(4) =   1
                l(5) =   2
                l(6) =   2
     Q(r) pseudized with  8 coefficients,  rinner =    1.000   1.000   1.000
                                                       1.000   1.000

     PseudoPot. # 2 for O  read from file:
     /storage/coda1/p-amedford6/0/shared/rich_project_chbe-medford/medford-share/data/pseudos_module/espresso/nninc/pbe/van/O.UPF
     MD5 check sum: 78c19812648e8988a0fe644b0f25305e
     Pseudo is Ultrasoft, Zval =  6.0
     Generated by new atomic code, or converted to UPF format
     Using radial grid of  737 points,  4 beta functions with:
                l(1) =   0
                l(2) =   0
                l(3) =   1
                l(4) =   1
     Q(r) pseudized with  8 coefficients,  rinner =    0.800   0.800   0.800

     PseudoPot. # 3 for N  read from file:
     /storage/coda1/p-amedford6/0/shared/rich_project_chbe-medford/medford-share/data/pseudos_module/espresso/nninc/pbe/van/N.UPF
     MD5 check sum: 90d10febe142ad51ac9d5be1deb811c4
     Pseudo is Ultrasoft, Zval =  5.0
     Generated by new atomic code, or converted to UPF format
     Using radial grid of  729 points,  4 beta functions with:
                l(1) =   0
                l(2) =   0
                l(3) =   1
                l(4) =   1
     Q(r) pseudized with  8 coefficients,  rinner =    0.800   0.800   0.800

     PseudoPot. # 4 for C  read from file:
     /storage/coda1/p-amedford6/0/shared/rich_project_chbe-medford/medford-share/data/pseudos_module/espresso/nninc/pbe/van/C.UPF
     MD5 check sum: 1a69bf6b8db32088f5b2163dbdb77a27
     Pseudo is Ultrasoft, Zval =  4.0
     Generated by new atomic code, or converted to UPF format
     Using radial grid of  721 points,  4 beta functions with:
                l(1) =   0
                l(2) =   0
                l(3) =   1
                l(4) =   1
     Q(r) pseudized with  8 coefficients,  rinner =    0.800   0.800   0.800

     PseudoPot. # 5 for H  read from file:
     /storage/coda1/p-amedford6/0/shared/rich_project_chbe-medford/medford-share/data/pseudos_module/espresso/nninc/pbe/van/H.UPF
     MD5 check sum: b5ee9d7bfd3a09ee7748110bda690ff7
     Pseudo is Ultrasoft, Zval =  1.0
     Generated by new atomic code, or converted to UPF format
     Using radial grid of  615 points,  1 beta functions with:
                l(1) =   0
     Q(r) pseudized with  8 coefficients,  rinner =    0.800

     atomic species   valence    mass     pseudopotential
        Ti1           12.00    47.86700     Ti( 1.00)
        O1             6.00    15.99900     O ( 1.00)
        N1             5.00    14.00700     N ( 1.00)
        C1             4.00    12.01100     C ( 1.00)
        H1             1.00     1.00800     H ( 1.00)

     No symmetry found

   Cartesian axes

     site n.     atom                  positions (alat units)
         1           Ti1 tau(   1) = (   0.0004258   2.9801865   6.0000000  )
         2           Ti1 tau(   2) = (   3.2906075   1.4906267   6.0002472  )
         3           O1  tau(   3) = (   0.0006271   0.0005054   7.9858123  )
         4           O1  tau(   4) = (   3.2906025   0.0005020   7.3038282  )
         5           O1  tau(   5) = (   4.5942328   1.4918067   9.2879030  )
         6           O1  tau(   6) = (   1.9868534   1.4903216   9.2879459  )
         7           Ti1 tau(   7) = (   3.2907910   2.8959150   9.1758416  )
         8           Ti1 tau(   8) = (   0.0015273   1.4827037   9.2680791  )
         9           O1  tau(   9) = (   3.2912042   0.0294118  11.3810798  )
        10           O1  tau(  10) = (   0.0116148   5.9584955  10.6183126  )
        11           O1  tau(  11) = (   1.2906363   1.5151137  12.6946382  )
        12           O1  tau(  12) = (   5.2977377   1.5118052  12.6897239  )
        13           Ti1 tau(  13) = (   0.0154927   3.0055723  12.5114375  )
        14           Ti1 tau(  14) = (   3.3120461   1.5076926  12.5412499  )
        15           O1  tau(  15) = (   0.0087391   5.9056098  14.6936070  )
        16           O1  tau(  16) = (   3.3000944   0.0090435  14.0218108  )
        17           O1  tau(  17) = (   4.5606481   1.5918460  16.0876707  )
        18           O1  tau(  18) = (   2.0070218   1.5857768  16.0794533  )
        19           Ti1 tau(  19) = (   3.2835068   3.0412122  15.7371975  )
        20           Ti1 tau(  20) = (   0.0166266   1.3536260  15.8406240  )
        21           O1  tau(  21) = (   3.2904802   0.0005063   4.7018136  )
        22           O1  tau(  22) = (   6.5628702   0.1917167  17.2472498  )
        23           O1  tau(  23) = (   1.3043587   1.4918075   6.0039043  )
        24           O1  tau(  24) = (   5.2767064   1.4903225   6.0039473  )
        25           Ti1 tau(  25) = (   0.0000382   5.9609847   6.0000000  )
        26           Ti1 tau(  26) = (   3.2902200   4.4714249   6.0002472  )
        27           O1  tau(  27) = (   0.0002396   2.9813036   7.9858123  )
        28           O1  tau(  28) = (   3.2902150   2.9813002   7.3038282  )
        29           O1  tau(  29) = (   4.5938453   4.4726049   9.2879030  )
        30           O1  tau(  30) = (   1.9864658   4.4711199   9.2879459  )
        31           Ti1 tau(  31) = (   3.2891106   5.8743827   9.1763621  )
        32           Ti1 tau(  32) = (   0.0006254   4.4649316   9.2693709  )
        33           O1  tau(  33) = (   3.2975917   2.9887808  11.3748511  )
        34           O1  tau(  34) = (   0.0092240   2.9805883  10.6323155  )
        35           O1  tau(  35) = (   1.2927870   4.4849180  12.6503915  )
        36           O1  tau(  36) = (   5.2959677   4.4879952  12.6460094  )
        37           Ti1 tau(  37) = (   0.0189062   0.0134437  12.4995343  )
        38           Ti1 tau(  38) = (   3.3131396   4.4925875  12.5257625  )
        39           O1  tau(  39) = (   6.5658147   3.0796170  14.9398047  )
        40           O1  tau(  40) = (   3.2912769   3.0351834  13.9531456  )
        41           O1  tau(  41) = (   4.5372935   4.5058929  16.2491503  )
        42           O1  tau(  42) = (   2.0060561   4.4992570  16.2466123  )
        43           Ti1 tau(  43) = (   3.3106529   0.0781036  15.8389635  )
        44           Ti1 tau(  44) = (   0.0259428   4.5566345  16.0434284  )
        45           O1  tau(  45) = (   3.2900926   2.9813045   4.7018136  )
        46           O1  tau(  46) = (   1.3039711   4.4726057   6.0039043  )
        47           O1  tau(  47) = (   5.2763189   4.4711207   6.0039473  )
        48           N1  tau(  48) = (   6.3514164   3.3085518  18.1444664  )
        49           C1  tau(  49) = (   0.8695967   3.1501053  19.1301808  )
        50           H1  tau(  50) = (   1.3785670   4.1052268  19.2416751  )
        51           H1  tau(  51) = (   0.5086663   2.8389580  20.1145987  )
        52           H1  tau(  52) = (   1.5779067   2.4119510  18.7640910  )
        53           H1  tau(  53) = (   5.7211048   4.0382881  18.4729098  )
        54           H1  tau(  54) = (   5.7931489   2.4557210  18.1309407  )
        55           O1  tau(  55) = (   3.2817172   0.3149129  18.3340421  )
        56           H1  tau(  56) = (   4.0380937   5.6864266  18.4726034  )
        57           H1  tau(  57) = (   2.4816286   5.7371253  18.4434621  )

     number of k points=    10  Fermi-Dirac smearing, width (Ry)=  0.0073
                       cart. coord. in units 2pi/alat
        k(    1) = (   0.0000000   0.0000000   0.0000000), wk =   0.1250000
        k(    2) = (   0.0000000   0.0419351   0.0000000), wk =   0.2500000
        k(    3) = (   0.0000000  -0.0838702   0.0000000), wk =   0.1250000
        k(    4) = (   0.0379955   0.0000049   0.0000000), wk =   0.2500000
        k(    5) = (   0.0379955   0.0419400   0.0000000), wk =   0.2500000
        k(    6) = (   0.0379955  -0.0838652   0.0000000), wk =   0.2500000
        k(    7) = (   0.0379955  -0.0419301   0.0000000), wk =   0.2500000
        k(    8) = (  -0.0759910  -0.0000099   0.0000000), wk =   0.1250000
        k(    9) = (  -0.0759910   0.0419252   0.0000000), wk =   0.2500000
        k(   10) = (  -0.0759910  -0.0838800   0.0000000), wk =   0.1250000

     Initial potential from superposition of free atoms

     starting charge  383.99913, renormalised to  400.00000

     negative rho (up, down):  1.554E-02 0.000E+00

     %%%%%%%%%%%%%%%%%%%%%%%%%%%%%%%%%%%%%%%%%%%%%%%%%%%%%%%%%%%%%%%%%%%%%%%%
     %                                                                      %
     % You are using vdW-DF, which was implemented by the Thonhauser group. %
     % Please cite the following two papers that made this development      %
     % possible and the two reviews that describe the various versions:     %
     %                                                                      %
     %   T. Thonhauser et al., PRL 115, 136402 (2015).                      %
     %   T. Thonhauser et al., PRB 76, 125112 (2007).                       %
     %   K. Berland et al., Rep. Prog. Phys. 78, 066501 (2015).             %
     %   D.C. Langreth et al., J. Phys.: Condens. Matter 21, 084203 (2009). %
     %                                                                      %
     %                                                                      %
     % If you are calculating the stress with vdW-DF, please also cite:     %
     %                                                                      %
     %   R. Sabatini et al., J. Phys.: Condens. Matter 24, 424209 (2012).   %
     %                                                                      %
     %%%%%%%%%%%%%%%%%%%%%%%%%%%%%%%%%%%%%%%%%%%%%%%%%%%%%%%%%%%%%%%%%%%%%%%%

     Adding external electric field

     Computed dipole along edir(3) :
        Dipole              -12.0818 Ry au,        -30.7089 Debye
        Dipole field         -0.0228 Ry au,

        Potential amp.        2.1135 Ry
        Total length         46.3494 bohr

     Starting wfcs are  303 atomic wfcs
  @ DRIVER MODE: Message from server: STATUS
  @ DRIVER MODE: Message from server: POSDATA
  @ DRIVER MODE: Reading and sharing cell
  @ DRIVER MODE: Reading and sharing positions
  @ DRIVER MODE: Received positions

     Self-consistent Calculation

     iteration #  1     ecut=    29.40 Ry     beta= 0.05
     Davidson diagonalization with overlap
     c_bands:  2 eigenvalues not converged
     c_bands:  1 eigenvalues not converged
     c_bands:  3 eigenvalues not converged
     c_bands:  4 eigenvalues not converged
     c_bands:  2 eigenvalues not converged
     c_bands:  1 eigenvalues not converged
     c_bands:  4 eigenvalues not converged
     c_bands:  4 eigenvalues not converged
     c_bands:  5 eigenvalues not converged
     ethr =  1.00E-05,  avg # of iterations = 22.0

[...]

     total energy              =   -2384.61281091 Ry
     estimated scf accuracy    <    6452.65376689 Ry

     iteration #  2     ecut=    29.40 Ry     beta= 0.05
     Davidson diagonalization with overlap
     ethr =  1.00E-02,  avg # of iterations = 26.3

[...]

     iteration # 71     ecut=    29.40 Ry     beta= 0.05
     Davidson diagonalization with overlap
     c_bands:  2 eigenvalues not converged
     c_bands:  1 eigenvalues not converged
     ethr =  3.37E-11,  avg # of iterations = 17.0

[...]

     total energy              =   -2956.45478796 Ry
     estimated scf accuracy    <       0.00000021 Ry

     iteration # 72     ecut=    29.40 Ry     beta= 0.05
     Davidson diagonalization with overlap
     ethr =  3.37E-11,  avg # of iterations = 13.7

     negative rho (up, down):  1.589E-02 0.000E+00

     Adding external electric field

     Computed dipole along edir(3) :
        Dipole                1.4119 Ry au,          3.5887 Debye
        Dipole field          0.0027 Ry au,

        Potential amp.       -0.2470 Ry
        Total length         46.3494 bohr

     End of self-consistent calculation

          k = 0.0000 0.0000 0.0000 ( 18029 PWs)   bands (ev):

   -55.2111 -55.1738 -55.1681 -55.1418 -55.1340 -55.1136 -55.0922 -55.0572
   -55.0371 -55.0023 -54.9990 -54.9899 -54.9653 -54.9300 -54.1984 -54.1643
   -31.7745 -31.6842 -31.6606 -31.5809 -31.5259 -31.5206 -31.5122 -31.5045
   -31.4571 -31.4337 -31.4221 -31.4130 -31.4087 -31.4067 -31.3830 -31.3795
   -31.3575 -31.3561 -31.3489 -31.3335 -31.3207 -31.3129 -31.2973 -31.2884
   -31.2820 -31.2696 -31.2673 -31.2384 -31.2254 -31.2231 -31.2178 -31.1977
   -31.1948 -31.1872 -31.1832 -31.1662 -31.1503 -31.1358 -31.1284 -31.1271
   -31.1101 -31.1078 -30.6079 -30.5134 -30.4914 -30.4242 -30.3374 -30.2265
   -19.2361 -16.1396 -16.0168 -15.7702 -15.6282 -15.5347 -15.4147 -15.2991
   -15.2349 -15.1209 -15.0626 -14.9273 -14.9121 -14.9004 -14.8756 -14.8422
   -14.8036 -14.7558 -14.7544 -14.7308 -14.7103 -14.7017 -14.6599 -14.6525
   -14.6128 -14.5914 -14.5906 -14.4552 -14.3738 -14.3035 -14.1184 -12.7009
   -12.5834 -10.2779  -7.0303  -6.2548  -4.8161  -3.9183  -3.3997  -3.3418
    -3.2329  -3.1435  -3.1217  -3.1085  -2.9716  -2.8904  -2.7432  -2.6626
    -2.6300  -2.4932  -2.4199  -2.4087  -2.3763  -2.2607  -2.2086  -2.1822
    -2.1498  -2.0776  -2.0298  -2.0190  -2.0010  -1.9703  -1.9552  -1.9211
    -1.8674  -1.7824  -1.7532  -1.6483  -1.6104  -1.5822  -1.5707  -1.5461
    -1.5300  -1.5044  -1.4980  -1.4376  -1.4342  -1.4042  -1.3587  -1.2433
    -1.0815  -1.0178  -0.9476  -0.8532  -0.8055  -0.7917  -0.7346  -0.7148
    -0.6984  -0.5945  -0.5909  -0.5503  -0.4523  -0.4215  -0.3816  -0.3096
    -0.2397  -0.2102  -0.1971  -0.0824  -0.0178   0.0013   0.0210   0.0274
     0.1178   0.1909   0.2385   0.2902   0.3311   0.3382   0.4026   0.4362
     0.5040   0.5559   0.5735   0.6611   0.7058   0.7186   0.7248   0.7581
     0.7700   0.8317   0.8680   0.8924   0.9790   1.0942   1.2461   1.3880
     1.3960   1.7290   1.7299   1.8244   2.0082   2.4008   2.4491   3.8822
     3.9547   4.0139   4.0273   4.0329   4.1181   4.3644   4.3867   4.3923
     4.4024   4.4306

[...]

          k = 0.0380-0.0419 0.0000 ( 17876 PWs)   bands (ev):

[...]

          k =-0.0760-0.0000 0.0000 ( 17886 PWs)   bands (ev):

[...]

          k =-0.0760-0.0839 0.0000 ( 17948 PWs)   bands (ev):

   -55.1975 -55.1871 -55.1511 -55.1509 -55.1401 -55.1114 -55.0780 -55.0713
   -55.0225 -55.0165 -54.9921 -54.9824 -54.9820 -54.9315 -54.1815 -54.1811
   -31.6027 -31.5833 -31.5744 -31.4757 -31.4757 -31.4720 -31.4645 -31.4424
   -31.4423 -31.4227 -31.4149 -31.4082 -31.4008 -31.3861 -31.3688 -31.3541
   -31.3513 -31.3490 -31.3468 -31.3446 -31.3375 -31.3350 -31.3177 -31.3117
   -31.2913 -31.2908 -31.2723 -31.2709 -31.2706 -31.2687 -31.2636 -31.2556
   -31.2481 -31.2353 -31.2296 -31.2149 -31.2119 -31.1943 -31.1675 -31.1630
   -31.1622 -31.1416 -30.5042 -30.5038 -30.4205 -30.4202 -30.3809 -30.3807
   -19.2352 -16.0891 -15.5926 -15.4796 -15.3537 -15.2438 -15.2230 -15.1766
   -15.1279 -15.0773 -15.0257 -14.9971 -14.9761 -14.9673 -14.9243 -14.9140
   -14.8949 -14.8293 -14.8139 -14.8028 -14.7790 -14.7315 -14.7233 -14.7156
   -14.7116 -14.6657 -14.6616 -14.6133 -14.5702 -14.5663 -14.3875 -12.6849
   -12.6848 -10.2795  -7.0561  -6.1879  -4.8182  -3.9326  -3.2410  -2.9912
    -2.7451  -2.6929  -2.6051  -2.4610  -2.4172  -2.3724  -2.3413  -2.2795
    -2.2290  -2.2141  -2.2023  -2.1259  -2.0990  -2.0916  -2.0581  -2.0463
    -2.0363  -1.9982  -1.9778  -1.9523  -1.9437  -1.9329  -1.9303  -1.9222
    -1.8652  -1.8513  -1.8396  -1.8358  -1.7770  -1.7660  -1.7511  -1.7370
    -1.5923  -1.5741  -1.4232  -1.4198  -1.3985  -1.3468  -1.3346  -1.2949
    -1.2492  -1.2404  -1.2148  -0.9695  -0.9605  -0.9579  -0.9307  -0.8921
    -0.8538  -0.7920  -0.7642  -0.6933  -0.6850  -0.5688  -0.5542  -0.4459
    -0.4291  -0.4168  -0.3502  -0.2853  -0.2390  -0.2011  -0.1804  -0.1695
    -0.1529  -0.1164  -0.1140  -0.0168   0.0194   0.0501   0.0633   0.1031
     0.2787   0.3081   0.3241   0.4678   0.4754   0.6351   0.6862   0.7142
     0.8045   0.8648   0.8995   0.9435   1.0791   1.0925   1.1095   1.1646
     1.1878   1.2371   1.2503   2.1805   2.1819   2.2691   2.2692   4.0273
     4.1363   4.1456   4.2034   4.3145   4.3230   4.3972   4.4282   4.4662
     4.4697   4.5374

     the Fermi energy is     3.9443 ev

!    total energy              =   -2956.45480324 Ry
     estimated scf accuracy    <       0.00000004 Ry
     smearing contrib. (-TS)   =      -0.03685517 Ry
     internal energy E=F+TS    =   -2956.41794807 Ry

     The total energy is F=E-TS. E is the sum of the following terms:
     one-electron contribution =  -23696.10308363 Ry
     hartree contribution      =   11943.59818332 Ry
     xc contribution           =    -490.60716776 Ry
     ewald contribution        =    9286.69035797 Ry
     electric field correction =       0.00376203 Ry

     convergence has been achieved in  72 iterations

     Forces acting on atoms (cartesian axes, Ry/au):

     atom    1 type  1   force =     0.00000497   -0.00026865    0.09334919
     atom    2 type  1   force =    -0.00006849   -0.00035189   -0.17817087
     atom    3 type  2   force =     0.00004437   -0.00030454   -0.02033000
     atom    4 type  2   force =    -0.00003506   -0.00185138    0.05914340
     atom    5 type  2   force =    -0.01020916   -0.00060804    0.00752302
     atom    6 type  2   force =     0.01173548    0.00022083    0.00685064
     atom    7 type  1   force =    -0.00031394    0.00187719   -0.01241593
     atom    8 type  1   force =     0.00016703    0.00082946   -0.00450958
     atom    9 type  2   force =     0.00038477   -0.00015223   -0.00080162
     atom   10 type  2   force =    -0.00141735    0.00414941   -0.00107943
     atom   11 type  2   force =    -0.00087334   -0.00030079    0.00018576
     atom   12 type  2   force =     0.00088261   -0.00005475    0.00004229
     atom   13 type  1   force =    -0.00012940   -0.00021698    0.00012643
     atom   14 type  1   force =    -0.00005304   -0.00010046    0.00003822
     atom   15 type  2   force =    -0.00067688    0.00012470   -0.00013901
     atom   16 type  2   force =    -0.00011235    0.00023358   -0.00038875
     atom   17 type  2   force =     0.00021016   -0.00077348   -0.00001740
     atom   18 type  2   force =     0.00081218   -0.00064297   -0.00021245
     atom   19 type  1   force =    -0.00074236    0.00017018    0.00141658
     atom   20 type  1   force =     0.00074964   -0.00062663    0.00025380
     atom   21 type  2   force =     0.00002122   -0.00010963    0.10396648
     atom   22 type  2   force =     0.00010197   -0.00063938    0.00052393
     atom   23 type  2   force =    -0.07040080   -0.00021246   -0.02691456
     atom   24 type  2   force =     0.07023409    0.00022793   -0.02696942
     atom   25 type  1   force =    -0.00004234   -0.00021310    0.09286713
     atom   26 type  1   force =    -0.00020367   -0.00053222   -0.17843449
     atom   27 type  2   force =     0.00007084   -0.00013815   -0.01930127
     atom   28 type  2   force =     0.00005466   -0.00157337    0.05815460
     atom   29 type  2   force =    -0.01090795   -0.00007123    0.00844022
     atom   30 type  2   force =     0.01231256    0.00011733    0.00772793
     atom   31 type  1   force =    -0.00029470    0.00668432   -0.01507060
     atom   32 type  1   force =     0.00011575   -0.00072878   -0.00471278
     atom   33 type  2   force =    -0.00022005    0.00035035   -0.00051473
     atom   34 type  2   force =    -0.00111269   -0.00023328   -0.00039717
     atom   35 type  2   force =    -0.00020336   -0.00011836   -0.00016576
     atom   36 type  2   force =     0.00028157   -0.00036397   -0.00026282
     atom   37 type  1   force =     0.00022988   -0.00018839    0.00023470
     atom   38 type  1   force =    -0.00010821    0.00068674    0.00063410
     atom   39 type  2   force =     0.00014353   -0.00112867    0.00085681
     atom   40 type  2   force =     0.00026002    0.00099522   -0.00061007
     atom   41 type  2   force =    -0.00042409    0.00031165   -0.00039796
     atom   42 type  2   force =     0.00125023    0.00022827   -0.00043568
     atom   43 type  1   force =    -0.00110217    0.00001040    0.00023221
     atom   44 type  1   force =     0.00036310   -0.00137432    0.00069125
     atom   45 type  2   force =     0.00001440   -0.00011353    0.10391969
     atom   46 type  2   force =    -0.07037099   -0.00012290   -0.02688338
     atom   47 type  2   force =     0.07022648    0.00029000   -0.02694899
     atom   48 type  3   force =     0.00195658    0.00325737    0.00962003
     atom   49 type  4   force =    -0.00137425    0.00006734   -0.00461055
     atom   50 type  5   force =    -0.00045859   -0.00075526   -0.00006957
     atom   51 type  5   force =    -0.00129486   -0.00045610   -0.00152546
     atom   52 type  5   force =     0.00009694    0.00009817   -0.00021343
     atom   53 type  5   force =     0.00227743   -0.00299387   -0.00337744
     atom   54 type  5   force =    -0.00048441   -0.00070455   -0.00176952
     atom   55 type  2   force =     0.00033987   -0.00084454    0.00074827
     atom   56 type  5   force =    -0.00073379   -0.00018186    0.00008782
     atom   57 type  5   force =    -0.00097403   -0.00087970    0.00001620

     Total force =     0.366481     Total SCF correction =     0.000506
  @ DRIVER MODE: Message from server: STATUS
  @ DRIVER MODE: Message from server: GETFORCE
  @ DRIVER MODE: Returning v,forces,stress,ensemble

     Writing output data file ./calc.save/
  @ DRIVER MODE: Message from server: EXIT
  @ DRIVE MODE: Exiting

     General routines

     Parallel routines

   This run was terminated on:  17:44:28  22Sep2021

   JOB DONE.