     Program PWSCF v.6.7GPU starts on  2Aug2021 at 23:52:11

     R & G space division:  proc/nbgrp/npool/nimage =      16
     Reading input from /storage/home/hcoda1/3/ntian30/research/carbon/02Aug_vib_paired/ads_slab/CH3NNHHH_a/out_0043/pw.inp
Warning: card &CELL ignored
Warning: card   CELL_DYNAMICS='IPI', ignored
Warning: card / ignored

     Current dimensions of program PWSCF are:
     Max number of different atomic species (ntypx) = 10
     Max number of k-points (npk) =  40000
     Max angular momentum in pseudopotentials (lmaxx) =  3
     Presently no symmetry can be used with electric field

     Message from routine cell_base_init:
     DEPRECATED: use true lattice parameter, not A to a.u. conversion factor

     IMPORTANT: XC functional enforced from input :
     Exchange-correlation= BEEF-VDW
                           (   1   4  43  14   2   0   0)
     Any further DFT definition will be discarded
     Please, verify this is what you really want

  @ DRIVER MODE: Connecting to
 qe_1139763_2482545.sched-torque.pace.gatech.edu_0zoye1e_scratch
  using UNIX socket
  @ DRIVER MODE: Message from server: STATUS
  @ DRIVER MODE: Message from server: INIT
  @ DRIVER MODE: Receiving replica           0          -1
  @ DRIVER MODE: Receiving encoded integer          25
  @ DRIVER MODE:  SCF:  T  FORCE:  T  STRESS:  F  VC:  F  ENSEMBLE:  F
  @ DRIVER MODE:  SCF:  T  FORCE:  T  STRESS:  F  VC:  F  ENSEMBLE:  F

     Using Slab Decomposition

     bravais-lattice index     =            0
     lattice parameter (alat)  =       1.8897  a.u.
     unit-cell volume          =    6658.9804 (a.u.)^3
     number of atoms/cell      =           56
     number of atomic types    =            5
     number of electrons       =       398.00
     number of Kohn-Sham states=          209
     kinetic-energy cutoff     =      29.3995  Ry
     charge density cutoff     =     293.9946  Ry
     scf convergence threshold =      7.3E-08
     mixing beta               =       0.0500
     number of iterations used =            8  plain     mixing
     Exchange-correlation= BEEF-VDW
                           (   1   4  43  14   2   0   0)

     celldm(1)=   1.889726  celldm(2)=   0.000000  celldm(3)=   0.000000
     celldm(4)=   0.000000  celldm(5)=   0.000000  celldm(6)=   0.000000

     crystal axes: (cart. coord. in units of alat)
               a(1) = (   6.579727   0.000000   0.000000 )
               a(2) = (  -0.000775   5.961596   0.000000 )
               a(3) = (   0.000000   0.000000  25.155947 )

     reciprocal axes: (cart. coord. in units 2 pi/alat)
               b(1) = (  0.151982  0.000020  0.000000 )
               b(2) = (  0.000000  0.167740  0.000000 )
               b(3) = (  0.000000  0.000000  0.039752 )

     PseudoPot. # 1 for Ti read from file:
     /storage/coda1/p-amedford6/0/shared/rich_project_chbe-medford/medford-share/data/pseudos_module/espresso/nninc/pbe/van/Ti.UPF
     MD5 check sum: 8e4df49b7f0d34bbd5052bf3f5ea0213
     Pseudo is Ultrasoft, Zval = 12.0
     Generated by new atomic code, or converted to UPF format
     Using radial grid of  851 points,  6 beta functions with:
                l(1) =   0
                l(2) =   0
                l(3) =   1
                l(4) =   1
                l(5) =   2
                l(6) =   2
     Q(r) pseudized with  8 coefficients,  rinner =    1.000   1.000   1.000
                                                       1.000   1.000

     PseudoPot. # 2 for O  read from file:
     /storage/coda1/p-amedford6/0/shared/rich_project_chbe-medford/medford-share/data/pseudos_module/espresso/nninc/pbe/van/O.UPF
     MD5 check sum: 78c19812648e8988a0fe644b0f25305e
     Pseudo is Ultrasoft, Zval =  6.0
     Generated by new atomic code, or converted to UPF format
     Using radial grid of  737 points,  4 beta functions with:
                l(1) =   0
                l(2) =   0
                l(3) =   1
                l(4) =   1
     Q(r) pseudized with  8 coefficients,  rinner =    0.800   0.800   0.800

     PseudoPot. # 3 for N  read from file:
     /storage/coda1/p-amedford6/0/shared/rich_project_chbe-medford/medford-share/data/pseudos_module/espresso/nninc/pbe/van/N.UPF
     MD5 check sum: 90d10febe142ad51ac9d5be1deb811c4
     Pseudo is Ultrasoft, Zval =  5.0
     Generated by new atomic code, or converted to UPF format
     Using radial grid of  729 points,  4 beta functions with:
                l(1) =   0
                l(2) =   0
                l(3) =   1
                l(4) =   1
     Q(r) pseudized with  8 coefficients,  rinner =    0.800   0.800   0.800

     PseudoPot. # 4 for C  read from file:
     /storage/coda1/p-amedford6/0/shared/rich_project_chbe-medford/medford-share/data/pseudos_module/espresso/nninc/pbe/van/C.UPF
     MD5 check sum: 1a69bf6b8db32088f5b2163dbdb77a27
     Pseudo is Ultrasoft, Zval =  4.0
     Generated by new atomic code, or converted to UPF format
     Using radial grid of  721 points,  4 beta functions with:
                l(1) =   0
                l(2) =   0
                l(3) =   1
                l(4) =   1
     Q(r) pseudized with  8 coefficients,  rinner =    0.800   0.800   0.800

     PseudoPot. # 5 for H  read from file:
     /storage/coda1/p-amedford6/0/shared/rich_project_chbe-medford/medford-share/data/pseudos_module/espresso/nninc/pbe/van/H.UPF
     MD5 check sum: b5ee9d7bfd3a09ee7748110bda690ff7
     Pseudo is Ultrasoft, Zval =  1.0
     Generated by new atomic code, or converted to UPF format
     Using radial grid of  615 points,  1 beta functions with:
                l(1) =   0
     Q(r) pseudized with  8 coefficients,  rinner =    0.800

     atomic species   valence    mass     pseudopotential
        Ti1           12.00    47.86700     Ti( 1.00)
        O1             6.00    15.99900     O ( 1.00)
        N1             5.00    14.00700     N ( 1.00)
        C1             4.00    12.01100     C ( 1.00)
        H1             1.00     1.00800     H ( 1.00)

     No symmetry found

   Cartesian axes

     site n.     atom                  positions (alat units)
         1           Ti1 tau(   1) = (   0.0004258   2.9801865   6.0000000  )
         2           Ti1 tau(   2) = (   3.2906075   1.4906267   6.0002472  )
         3           O1  tau(   3) = (   0.0006271   0.0005054   7.9858123  )
         4           O1  tau(   4) = (   3.2906025   0.0005020   7.3038282  )
         5           O1  tau(   5) = (   4.5942328   1.4918067   9.2879030  )
         6           O1  tau(   6) = (   1.9868534   1.4903216   9.2879459  )
         7           Ti1 tau(   7) = (   3.2907910   2.8959150   9.1758416  )
         8           Ti1 tau(   8) = (   0.0015273   1.4827037   9.2680791  )
         9           O1  tau(   9) = (   3.2969863   5.9453513  11.3493076  )
        10           O1  tau(  10) = (   0.0116148   5.9584955  10.6183126  )
        11           O1  tau(  11) = (   1.3059050   1.4736943  12.6642453  )
        12           O1  tau(  12) = (   5.3003793   1.4775083  12.6459419  )
        13           Ti1 tau(  13) = (   0.0167275   2.9625105  12.5508078  )
        14           Ti1 tau(  14) = (   3.3131340   1.4712512  12.4909780  )
        15           O1  tau(  15) = (   6.5517612   5.9325698  14.7566896  )
        16           O1  tau(  16) = (   3.3302114   5.9429442  13.9823395  )
        17           O1  tau(  17) = (   4.5243935   1.5056208  16.2316672  )
        18           O1  tau(  18) = (   2.0170937   1.4633510  16.1378485  )
        19           Ti1 tau(  19) = (   3.2500237   2.9242626  15.6920970  )
        20           Ti1 tau(  20) = (   6.5441017   1.2779805  16.1516014  )
        21           O1  tau(  21) = (   3.2904802   0.0005063   4.7018136  )
        22           O1  tau(  22) = (   6.5540411   5.9581837  17.3465722  )
        23           O1  tau(  23) = (   1.3043587   1.4918075   6.0039043  )
        24           O1  tau(  24) = (   5.2767064   1.4903225   6.0039473  )
        25           Ti1 tau(  25) = (   0.0000382   5.9609847   6.0000000  )
        26           Ti1 tau(  26) = (   3.2902200   4.4714249   6.0002472  )
        27           O1  tau(  27) = (   0.0002396   2.9813036   7.9858123  )
        28           O1  tau(  28) = (   3.2902150   2.9813002   7.3038282  )
        29           O1  tau(  29) = (   4.5938453   4.4726049   9.2879030  )
        30           O1  tau(  30) = (   1.9864658   4.4711199   9.2879459  )
        31           Ti1 tau(  31) = (   3.2891106   5.8743827   9.1763621  )
        32           Ti1 tau(  32) = (   0.0006254   4.4649316   9.2693709  )
        33           O1  tau(  33) = (   3.2962403   2.9651072  11.3429128  )
        34           O1  tau(  34) = (   0.0092240   2.9805883  10.6323155  )
        35           O1  tau(  35) = (   1.3076126   4.4641214  12.6643835  )
        36           O1  tau(  36) = (   5.2981430   4.4591552  12.6429889  )
        37           Ti1 tau(  37) = (   0.0194730   5.9489450  12.5196332  )
        38           Ti1 tau(  38) = (   3.3150505   4.4522436  12.4946186  )
        39           O1  tau(  39) = (   6.5702761   2.9869041  14.8038460  )
        40           O1  tau(  40) = (   3.3119818   2.9576719  13.9204832  )
        41           O1  tau(  41) = (   4.5223198   4.3950437  16.2490866  )
        42           O1  tau(  42) = (   2.0356696   4.4339808  16.1311045  )
        43           Ti1 tau(  43) = (   3.3057863   5.9493229  15.7677403  )
        44           Ti1 tau(  44) = (   0.0958844   4.4293496  15.8701971  )
        45           O1  tau(  45) = (   3.2900926   2.9813045   4.7018136  )
        46           O1  tau(  46) = (   1.3039711   4.4726057   6.0039043  )
        47           O1  tau(  47) = (   5.2763189   4.4711207   6.0039473  )
        48           N1  tau(  48) = (   0.0620580   3.0375546  17.6897758  )
        49           C1  tau(  49) = (   1.1116374   2.9693208  18.6984743  )
        50           H1  tau(  50) = (   1.2951007   3.9532040  19.1583453  )
        51           H1  tau(  51) = (   0.8627774   2.2426413  19.4871689  )
        52           H1  tau(  52) = (   2.0263963   2.6228967  18.2308865  )
        53           N1  tau(  53) = (   5.4279256   3.3744730  18.4033390  )
        54           H1  tau(  54) = (   5.6103604   4.1199394  19.0852601  )
        55           H1  tau(  55) = (   4.7834260   3.8076565  17.6395878  )
        56           H1  tau(  56) = (   5.0090149   2.5598412  18.8678436  )

     number of k points=    10  Fermi-Dirac smearing, width (Ry)=  0.0073
                       cart. coord. in units 2pi/alat
        k(    1) = (   0.0000000   0.0000000   0.0000000), wk =   0.1250000
        k(    2) = (   0.0000000   0.0419351   0.0000000), wk =   0.2500000
        k(    3) = (   0.0000000  -0.0838702   0.0000000), wk =   0.1250000
        k(    4) = (   0.0379955   0.0000049   0.0000000), wk =   0.2500000
        k(    5) = (   0.0379955   0.0419400   0.0000000), wk =   0.2500000
        k(    6) = (   0.0379955  -0.0838652   0.0000000), wk =   0.2500000
        k(    7) = (   0.0379955  -0.0419301   0.0000000), wk =   0.2500000
        k(    8) = (  -0.0759910  -0.0000099   0.0000000), wk =   0.1250000
        k(    9) = (  -0.0759910   0.0419252   0.0000000), wk =   0.2500000
        k(   10) = (  -0.0759910  -0.0838800   0.0000000), wk =   0.1250000

     Initial potential from superposition of free atoms

     starting charge  381.99914, renormalised to  398.00000

     negative rho (up, down):  1.617E-02 0.000E+00

     %%%%%%%%%%%%%%%%%%%%%%%%%%%%%%%%%%%%%%%%%%%%%%%%%%%%%%%%%%%%%%%%%%%%%%%%
     %                                                                      %
     % You are using vdW-DF, which was implemented by the Thonhauser group. %
     % Please cite the following two papers that made this development      %
     % possible and the two reviews that describe the various versions:     %
     %                                                                      %
     %   T. Thonhauser et al., PRL 115, 136402 (2015).                      %
     %   T. Thonhauser et al., PRB 76, 125112 (2007).                       %
     %   K. Berland et al., Rep. Prog. Phys. 78, 066501 (2015).             %
     %   D.C. Langreth et al., J. Phys.: Condens. Matter 21, 084203 (2009). %
     %                                                                      %
     %                                                                      %
     % If you are calculating the stress with vdW-DF, please also cite:     %
     %                                                                      %
     %   R. Sabatini et al., J. Phys.: Condens. Matter 24, 424209 (2012).   %
     %                                                                      %
     %%%%%%%%%%%%%%%%%%%%%%%%%%%%%%%%%%%%%%%%%%%%%%%%%%%%%%%%%%%%%%%%%%%%%%%%

     Adding external electric field

     Computed dipole along edir(3) :
        Dipole              -10.5729 Ry au,        -26.8736 Debye
        Dipole field         -0.0200 Ry au,

        Potential amp.        1.8496 Ry
        Total length         46.3494 bohr

     Starting wfcs are  302 atomic wfcs
  @ DRIVER MODE: Message from server: STATUS
  @ DRIVER MODE: Message from server: POSDATA
  @ DRIVER MODE: Reading and sharing cell
  @ DRIVER MODE: Reading and sharing positions
  @ DRIVER MODE: Received positions

     Self-consistent Calculation

     iteration #  1     ecut=    29.40 Ry     beta= 0.05
     Davidson diagonalization with overlap
     c_bands:  3 eigenvalues not converged
     c_bands:  3 eigenvalues not converged
     c_bands:  1 eigenvalues not converged
     c_bands:  5 eigenvalues not converged
     c_bands:  5 eigenvalues not converged
     c_bands:  5 eigenvalues not converged
     c_bands:  1 eigenvalues not converged
     c_bands:  4 eigenvalues not converged
     c_bands:  3 eigenvalues not converged
     ethr =  1.00E-05,  avg # of iterations = 20.0

[...]

     total energy              =   -2442.75479312 Ry
     estimated scf accuracy    <    5591.59716731 Ry

     iteration #  2     ecut=    29.40 Ry     beta= 0.05
     Davidson diagonalization with overlap
     ethr =  1.00E-02,  avg # of iterations = 24.1

[...]

     iteration # 67     ecut=    29.40 Ry     beta= 0.05
     Davidson diagonalization with overlap
     c_bands:  1 eigenvalues not converged
     ethr =  2.54E-11,  avg # of iterations = 12.1

[...]

     total energy              =   -2942.82504219 Ry
     estimated scf accuracy    <       0.00000015 Ry

     iteration # 68     ecut=    29.40 Ry     beta= 0.05
     Davidson diagonalization with overlap
     ethr =  2.54E-11,  avg # of iterations =  9.4

     negative rho (up, down):  1.416E-02 0.000E+00

     Adding external electric field

     Computed dipole along edir(3) :
        Dipole                1.6023 Ry au,          4.0726 Debye
        Dipole field          0.0030 Ry au,

        Potential amp.       -0.2803 Ry
        Total length         46.3494 bohr

     End of self-consistent calculation

          k = 0.0000 0.0000 0.0000 ( 18029 PWs)   bands (ev):

   -55.1449 -55.1082 -55.1064 -55.0723 -55.0272 -55.0120 -54.9892 -54.9465
   -54.9341 -54.9259 -54.9114 -54.9012 -54.8651 -54.7932 -54.1186 -54.0846
   -31.7247 -31.5962 -31.5136 -31.4819 -31.4374 -31.4364 -31.4340 -31.4035
   -31.3993 -31.3963 -31.3698 -31.3546 -31.3513 -31.3224 -31.3046 -31.2796
   -31.2629 -31.2592 -31.2489 -31.2436 -31.2178 -31.2114 -31.2044 -31.1779
   -31.1633 -31.1565 -31.1496 -31.1420 -31.1416 -31.1305 -31.1284 -31.1222
   -31.1055 -31.0967 -31.0908 -31.0646 -31.0618 -31.0496 -31.0429 -31.0358
   -31.0250 -30.9829 -30.5272 -30.4352 -30.4130 -30.3438 -30.2571 -30.1460
   -18.9142 -16.0091 -15.7548 -15.6193 -15.3842 -15.3324 -15.2758 -15.0718
   -15.0669 -14.9948 -14.9795 -14.9313 -14.9120 -14.8448 -14.7602 -14.7392
   -14.6718 -14.6701 -14.6399 -14.6284 -14.6281 -14.5655 -14.5554 -14.5263
   -14.5133 -14.4877 -14.3697 -14.2855 -14.2271 -13.9730 -13.5876 -12.6215
   -12.5043  -9.7395  -7.6995  -7.1799  -5.4541  -3.8110  -3.3463  -3.2776
    -3.1705  -3.1426  -3.0656  -3.0364  -2.8514  -2.8300  -2.4888  -2.4498
    -2.4026  -2.3847  -2.3627  -2.3458  -2.1774  -2.1518  -2.0790  -2.0452
    -2.0270  -1.9867  -1.9704  -1.9604  -1.9266  -1.9209  -1.9120  -1.7047
    -1.6482  -1.5528  -1.5307  -1.5036  -1.4717  -1.4355  -1.4272  -1.4241
    -1.4182  -1.4047  -1.3919  -1.3116  -1.2498  -1.1723  -1.1628  -1.1268
    -1.0235  -0.9758  -0.7760  -0.7623  -0.7164  -0.6743  -0.6116  -0.5897
    -0.5240  -0.4931  -0.4725  -0.3517  -0.3232  -0.2830  -0.2549  -0.1883
    -0.1563  -0.1126  -0.0268   0.0433   0.0782   0.0967   0.1559   0.2855
     0.2974   0.3263   0.3880   0.4512   0.4917   0.5127   0.5310   0.5684
     0.6172   0.7427   0.7876   0.8072   0.8115   0.8455   0.8691   0.9202
     0.9444   1.0042   1.0098   1.1290   1.1982   1.4299   1.4639   1.4840
     1.8161   1.8399   1.9038   2.0898   2.4778   2.5251   3.9596   4.0202
     4.0769   4.0936   4.1126   4.2013   4.2227   4.4224   4.4498   4.4535
     4.4565

[...]

          k = 0.0380-0.0419 0.0000 ( 17876 PWs)   bands (ev):

[...]

          k =-0.0760-0.0000 0.0000 ( 17886 PWs)   bands (ev):

[...]

          k =-0.0760-0.0839 0.0000 ( 17948 PWs)   bands (ev):

   -55.1294 -55.1235 -55.0893 -55.0893 -55.0166 -55.0084 -54.9998 -54.9304
   -54.9292 -54.9263 -54.9188 -54.9173 -54.8613 -54.7968 -54.1016 -54.1015
   -31.5284 -31.5254 -31.4486 -31.4271 -31.4114 -31.4113 -31.3818 -31.3816
   -31.3557 -31.3501 -31.3474 -31.3467 -31.3113 -31.2777 -31.2712 -31.2668
   -31.2656 -31.2616 -31.2596 -31.2533 -31.2223 -31.2185 -31.2160 -31.2131
   -31.2087 -31.2086 -31.1946 -31.1925 -31.1651 -31.1604 -31.1450 -31.1409
   -31.1386 -31.1380 -31.1356 -31.1282 -31.1032 -31.0998 -31.0969 -31.0732
   -31.0475 -31.0303 -30.4258 -30.4256 -30.3398 -30.3396 -30.3005 -30.3004
   -18.9093 -15.5164 -15.4066 -15.3004 -15.2322 -15.1898 -15.1394 -15.1211
   -15.1108 -15.0648 -15.0355 -14.9661 -14.9024 -14.8497 -14.8487 -14.8136
   -14.7355 -14.7216 -14.7146 -14.7039 -14.6475 -14.6408 -14.6093 -14.5885
   -14.5854 -14.5554 -14.4818 -14.4794 -14.3912 -14.1810 -13.6233 -12.6060
   -12.6059  -9.7084  -7.6951  -7.1260  -5.4573  -3.8331  -3.4330  -2.7646
    -2.6535  -2.4427  -2.4169  -2.3570  -2.3361  -2.2497  -2.1908  -2.1689
    -2.1460  -2.1118  -2.1090  -2.0845  -2.0630  -2.0086  -1.9802  -1.9695
    -1.9633  -1.9484  -1.9359  -1.9152  -1.8589  -1.8490  -1.8417  -1.7995
    -1.7882  -1.7567  -1.7504  -1.7117  -1.6947  -1.6184  -1.5260  -1.5016
    -1.4422  -1.3404  -1.3275  -1.3218  -1.2286  -1.2201  -1.1907  -1.1598
    -1.1044  -1.0052  -0.9501  -0.8747  -0.8715  -0.8409  -0.7536  -0.6904
    -0.6565  -0.6473  -0.6064  -0.5496  -0.5265  -0.4941  -0.4113  -0.3698
    -0.3422  -0.3077  -0.2134  -0.1520  -0.1286  -0.0980  -0.0946  -0.0052
     0.0280   0.0647   0.0854   0.1238   0.1503   0.2163   0.2380   0.3476
     0.4190   0.4482   0.5662   0.5908   0.6554   0.7873   0.8587   0.9001
     0.9536   1.0103   1.0369   1.1673   1.1746   1.2043   1.2932   1.3334
     1.3404   1.3535   2.2625   2.2636   2.3452   2.3453   4.0916   4.1783
     4.2216   4.2590   4.3669   4.4764   4.4945   4.5379   4.5384   4.6139
     4.6395

     the Fermi energy is     4.0118 ev

!    total energy              =   -2942.82507044 Ry
     estimated scf accuracy    <       0.00000007 Ry
     smearing contrib. (-TS)   =      -0.03685732 Ry
     internal energy E=F+TS    =   -2942.78821313 Ry

     The total energy is F=E-TS. E is the sum of the following terms:
     one-electron contribution =  -23971.99516116 Ry
     hartree contribution      =   12081.47578554 Ry
     xc contribution           =    -487.76778681 Ry
     ewald contribution        =    9435.49410440 Ry
     electric field correction =       0.00484491 Ry

     convergence has been achieved in  68 iterations

     Forces acting on atoms (cartesian axes, Ry/au):

     atom    1 type  1   force =     0.00014864   -0.00024027    0.09429497
     atom    2 type  1   force =    -0.00009601   -0.00033828   -0.17738236
     atom    3 type  2   force =     0.00005659   -0.00016377   -0.02135630
     atom    4 type  2   force =    -0.00001572   -0.00172312    0.05655790
     atom    5 type  2   force =    -0.01055208   -0.00127333    0.00623345
     atom    6 type  2   force =     0.01221604   -0.00073924    0.00570511
     atom    7 type  1   force =    -0.00034235    0.00173075   -0.01621114
     atom    8 type  1   force =    -0.00010475    0.00438097    0.00559183
     atom    9 type  2   force =     0.00000690   -0.00004249   -0.00006177
     atom   10 type  2   force =    -0.00074537   -0.00021637   -0.00045919
     atom   11 type  2   force =     0.00034030    0.00012392   -0.00020535
     atom   12 type  2   force =    -0.00051967    0.00000299   -0.00014069
     atom   13 type  1   force =     0.00002439   -0.00033399    0.00020686
     atom   14 type  1   force =     0.00056900    0.00009450   -0.00029696
     atom   15 type  2   force =    -0.00043223    0.00021467   -0.00029151
     atom   16 type  2   force =    -0.00032148    0.00018264   -0.00003822
     atom   17 type  2   force =    -0.00029880    0.00004819    0.00028116
     atom   18 type  2   force =     0.00024729    0.00029887   -0.00021454
     atom   19 type  1   force =    -0.00003509   -0.00020587   -0.00008038
     atom   20 type  1   force =     0.00007271    0.00051082    0.00005622
     atom   21 type  2   force =     0.00003577    0.00004009    0.10359486
     atom   22 type  2   force =    -0.00001649   -0.00066014   -0.00068592
     atom   23 type  2   force =    -0.07083965   -0.00010221   -0.02719155
     atom   24 type  2   force =     0.07070081    0.00033569   -0.02722251
     atom   25 type  1   force =    -0.00008835   -0.00021332    0.09375663
     atom   26 type  1   force =    -0.00013429   -0.00031841   -0.17728493
     atom   27 type  2   force =     0.00008845   -0.00035305   -0.02046950
     atom   28 type  2   force =     0.00003231   -0.00143900    0.05587027
     atom   29 type  2   force =    -0.01091731   -0.00073348    0.00608558
     atom   30 type  2   force =     0.01246742   -0.00029293    0.00556286
     atom   31 type  1   force =    -0.00015839    0.00465321   -0.01718317
     atom   32 type  1   force =    -0.00003085   -0.00482699    0.00559312
     atom   33 type  2   force =     0.00005800    0.00012605    0.00026672
     atom   34 type  2   force =     0.00005712   -0.00085340   -0.00298502
     atom   35 type  2   force =     0.00022707    0.00003256    0.00006217
     atom   36 type  2   force =    -0.00042617    0.00015597   -0.00007547
     atom   37 type  1   force =    -0.00012735   -0.00011980   -0.00007303
     atom   38 type  1   force =     0.00044278   -0.00026611    0.00038714
     atom   39 type  2   force =    -0.00046577    0.00014472    0.00060568
     atom   40 type  2   force =    -0.00011520    0.00020135   -0.00016932
     atom   41 type  2   force =    -0.00027927    0.00011933    0.00059267
     atom   42 type  2   force =     0.00006337    0.00023531   -0.00012497
     atom   43 type  1   force =    -0.00058379    0.00081868    0.00003689
     atom   44 type  1   force =    -0.00018807    0.00017654    0.00027469
     atom   45 type  2   force =     0.00002710    0.00000658    0.10360456
     atom   46 type  2   force =    -0.07084047   -0.00003764   -0.02718657
     atom   47 type  2   force =     0.07070862    0.00037694   -0.02719340
     atom   48 type  3   force =    -0.00085317   -0.00039333   -0.00048052
     atom   49 type  4   force =    -0.00039761    0.00023395   -0.00036669
     atom   50 type  5   force =     0.00004083   -0.00003141    0.00005502
     atom   51 type  5   force =    -0.00022134   -0.00024369   -0.00002693
     atom   52 type  5   force =    -0.00035714   -0.00001887    0.00012539
     atom   53 type  3   force =    -0.00386456    0.00196777   -0.00135632
     atom   54 type  5   force =     0.00005744    0.00005038   -0.00029338
     atom   55 type  5   force =     0.00544327   -0.00106953    0.00139186
     atom   56 type  5   force =     0.00023654   -0.00001340    0.00031398

     Total force =     0.365615     Total SCF correction =     0.000597
  @ DRIVER MODE: Message from server: STATUS
  @ DRIVER MODE: Message from server: GETFORCE
  @ DRIVER MODE: Returning v,forces,stress,ensemble

     Writing output data file ./calc.save/
  @ DRIVER MODE: Message from server: EXIT
  @ DRIVE MODE: Exiting

     General routines

     Parallel routines

   This run was terminated on:   0: 6:42   3Aug2021

   JOB DONE.