     Program PWSCF v.6.7GPU starts on 18Oct2021 at 15:28:42

     R & G space division:  proc/nbgrp/npool/nimage =       8
     Reading input from /storage/home/hcoda1/3/ntian30/research/carbon/CxH_vib/Thiel_calc/ads_slab/HH_perslab/out_0008/pw.inp
Warning: card &CELL ignored
Warning: card   CELL_DYNAMICS='IPI', ignored
Warning: card / ignored

     Current dimensions of program PWSCF are:
     Max number of different atomic species (ntypx) = 10
     Max number of k-points (npk) =  40000
     Max angular momentum in pseudopotentials (lmaxx) =  3
     Presently no symmetry can be used with electric field

     Message from routine cell_base_init:
     DEPRECATED: use true lattice parameter, not A to a.u. conversion factor

     IMPORTANT: XC functional enforced from input :
     Exchange-correlation= BEEF-VDW
                           (   1   4  43  14   2   0   0)
     Any further DFT definition will be discarded
     Please, verify this is what you really want

  @ DRIVER MODE: Connecting to
 qe_1139763_3255127.sched-torque.pace.gatech.edu2aujjaz8_scratch
  using UNIX socket
  @ DRIVER MODE: Message from server: STATUS
  @ DRIVER MODE: Message from server: INIT
  @ DRIVER MODE: Receiving replica           0          -1
  @ DRIVER MODE: Receiving encoded integer          25
  @ DRIVER MODE:  SCF:  T  FORCE:  T  STRESS:  F  VC:  F  ENSEMBLE:  F
  @ DRIVER MODE:  SCF:  T  FORCE:  T  STRESS:  F  VC:  F  ENSEMBLE:  F

     Using Slab Decomposition

     bravais-lattice index     =            0
     lattice parameter (alat)  =       1.8897  a.u.
     unit-cell volume          =    9988.4706 (a.u.)^3
     number of atoms/cell      =           55
     number of atomic types    =            3
     number of electrons       =       428.00
     number of Kohn-Sham states=          224
     kinetic-energy cutoff     =      29.3995  Ry
     charge density cutoff     =     293.9946  Ry
     scf convergence threshold =      7.3E-08
     mixing beta               =       0.0500
     number of iterations used =            8  plain     mixing
     Exchange-correlation= BEEF-VDW
                           (   1   4  43  14   2   0   0)

     celldm(1)=   1.889726  celldm(2)=   0.000000  celldm(3)=   0.000000
     celldm(4)=   0.000000  celldm(5)=   0.000000  celldm(6)=   0.000000

     crystal axes: (cart. coord. in units of alat)
               a(1) = (   6.579727   0.000000   0.000000 )
               a(2) = (  -0.001163   8.942395   0.000000 )
               a(3) = (   0.000000   0.000000  25.155947 )

     reciprocal axes: (cart. coord. in units 2 pi/alat)
               b(1) = (  0.151982  0.000020  0.000000 )
               b(2) = (  0.000000  0.111827  0.000000 )
               b(3) = (  0.000000  0.000000  0.039752 )

     PseudoPot. # 1 for O  read from file:
     /storage/coda1/p-amedford6/0/shared/rich_project_chbe-medford/medford-share/data/pseudos_module/espresso/nninc/pbe/van/O.UPF
     MD5 check sum: 78c19812648e8988a0fe644b0f25305e
     Pseudo is Ultrasoft, Zval =  6.0
     Generated by new atomic code, or converted to UPF format
     Using radial grid of  737 points,  4 beta functions with:
                l(1) =   0
                l(2) =   0
                l(3) =   1
                l(4) =   1
     Q(r) pseudized with  8 coefficients,  rinner =    0.800   0.800   0.800

     PseudoPot. # 2 for Ti read from file:
     /storage/coda1/p-amedford6/0/shared/rich_project_chbe-medford/medford-share/data/pseudos_module/espresso/nninc/pbe/van/Ti.UPF
     MD5 check sum: 8e4df49b7f0d34bbd5052bf3f5ea0213
     Pseudo is Ultrasoft, Zval = 12.0
     Generated by new atomic code, or converted to UPF format
     Using radial grid of  851 points,  6 beta functions with:
                l(1) =   0
                l(2) =   0
                l(3) =   1
                l(4) =   1
                l(5) =   2
                l(6) =   2
     Q(r) pseudized with  8 coefficients,  rinner =    1.000   1.000   1.000
                                                       1.000   1.000

     PseudoPot. # 3 for H  read from file:
     /storage/coda1/p-amedford6/0/shared/rich_project_chbe-medford/medford-share/data/pseudos_module/espresso/nninc/pbe/van/H.UPF
     MD5 check sum: b5ee9d7bfd3a09ee7748110bda690ff7
     Pseudo is Ultrasoft, Zval =  1.0
     Generated by new atomic code, or converted to UPF format
     Using radial grid of  615 points,  1 beta functions with:
                l(1) =   0
     Q(r) pseudized with  8 coefficients,  rinner =    0.800

     atomic species   valence    mass     pseudopotential
        O1             6.00    15.99900     O ( 1.00)
        Ti1           12.00    47.86700     Ti( 1.00)
        H1             1.00     1.00800     H ( 1.00)

     No symmetry found

   Cartesian axes

     site n.     atom                  positions (alat units)
         1           O1  tau(   1) = (   0.0007354   0.0005023  10.5931620  )
         2           O1  tau(   2) = (   3.2895597   8.9328148  13.9563037  )
         3           O1  tau(   3) = (   0.0005978   0.0985611  17.3913433  )
         4           O1  tau(   4) = (   0.0006271   0.0005054   7.9858123  )
         5           O1  tau(   5) = (   3.2896697   8.9342645  11.2049655  )
         6           O1  tau(   6) = (  -0.0003651   8.9329897  14.6433231  )
         7           O1  tau(   7) = (   1.9868534   1.4903216   9.2879459  )
         8           O1  tau(   8) = (   5.2447202   1.6209113  12.6144278  )
         9           O1  tau(   9) = (   1.9863342   1.5414685  16.1562942  )
        10           Ti1 tau(  10) = (   0.0007404   1.4906270   9.2895810  )
        11           Ti1 tau(  11) = (   3.2912862   1.3561633  12.5349423  )
        12           Ti1 tau(  12) = (   0.0004920   1.3470917  15.7786735  )
        13           O1  tau(  13) = (   4.5942328   1.4918067   9.2879030  )
        14           O1  tau(  14) = (   1.3364296   1.6200362  12.6141345  )
        15           O1  tau(  15) = (   4.5940299   1.5415597  16.1565144  )
        16           Ti1 tau(  16) = (   3.2902859   2.9801868   9.2893338  )
        17           Ti1 tau(  17) = (   0.0008425   2.8468918  12.4310082  )
        18           Ti1 tau(  18) = (   3.2897726   2.9778300  15.7754387  )
        19           O1  tau(  19) = (   0.0003479   2.9813005  10.5931620  )
        20           O1  tau(  20) = (   3.2899953   2.9760220  13.9593592  )
        21           O1  tau(  21) = (   0.0002396   2.9813036   7.9858123  )
        22           O1  tau(  22) = (   3.2902535   2.9702742  11.2034491  )
        23           O1  tau(  23) = (   0.0001996   3.0016115  14.8754889  )
        24           O1  tau(  24) = (   1.9864658   4.4711199   9.2879459  )
        25           O1  tau(  25) = (   5.2500601   4.5773527  12.6114266  )
        26           O1  tau(  26) = (   1.9844836   4.4355282  16.1532781  )
        27           Ti1 tau(  27) = (   0.0003529   4.4714252   9.2895810  )
        28           Ti1 tau(  28) = (   3.2906597   4.3244847  12.5371400  )
        29           Ti1 tau(  29) = (  -0.0002816   4.6581729  15.7718077  )
        30           O1  tau(  30) = (   4.5938453   4.4726049   9.2879030  )
        31           O1  tau(  31) = (   1.3301928   4.5768014  12.6113087  )
        32           O1  tau(  32) = (   4.5951179   4.4357094  16.1533535  )
        33           Ti1 tau(  33) = (   3.2898983   5.9609850   9.2893338  )
        34           Ti1 tau(  34) = (   0.0001782   5.8230774  12.4473142  )
        35           Ti1 tau(  35) = (   3.2897114   5.9733655  15.7593407  )
        36           O1  tau(  36) = (  -0.0000397   5.9620987  10.5931620  )
        37           O1  tau(  37) = (   3.2897659   5.9527282  13.9548452  )
        38           O1  tau(  38) = (  -0.0000778   5.8930771  17.3915974  )
        39           O1  tau(  39) = (  -0.0001480   5.9621018   7.9858123  )
        40           O1  tau(  40) = (   3.2899370   5.9442392  11.2047318  )
        41           O1  tau(  41) = (  -0.0000177   6.0388360  14.6471464  )
        42           O1  tau(  42) = (   1.9860782   7.4519181   9.2879459  )
        43           O1  tau(  43) = (   5.2406126   7.5613367  12.5866955  )
        44           O1  tau(  44) = (   1.9997133   7.4594595  16.1095921  )
        45           Ti1 tau(  45) = (  -0.0000347   7.4522234   9.2895810  )
        46           Ti1 tau(  46) = (   3.2905271   7.3121622  12.5249915  )
        47           Ti1 tau(  47) = (   0.0000546   7.4652353  16.1046789  )
        48           O1  tau(  48) = (   4.5934577   7.4534031   9.2879030  )
        49           O1  tau(  49) = (   1.3393442   7.5608695  12.5864666  )
        50           O1  tau(  50) = (   4.5795450   7.4594577  16.1094643  )
        51           Ti1 tau(  51) = (   3.2895107   8.9417832   9.2893338  )
        52           Ti1 tau(  52) = (   0.0001497   8.7881157  12.4544516  )
        53           Ti1 tau(  53) = (   3.2897860   8.9238688  15.7591263  )
        54           H1  tau(  54) = (   6.5785799   5.7919152  18.3498116  )
        55           H1  tau(  55) = (   0.0091500   0.1821499  18.3509732  )

     number of k points=    10  Fermi-Dirac smearing, width (Ry)=  0.0073
                       cart. coord. in units 2pi/alat
        k(    1) = (   0.0000000   0.0000000   0.0000000), wk =   0.1250000
        k(    2) = (   0.0000000   0.0279567   0.0000000), wk =   0.2500000
        k(    3) = (   0.0000000  -0.0559134   0.0000000), wk =   0.1250000
        k(    4) = (   0.0379955   0.0000049   0.0000000), wk =   0.2500000
        k(    5) = (   0.0379955   0.0279617   0.0000000), wk =   0.2500000
        k(    6) = (   0.0379955  -0.0559085   0.0000000), wk =   0.2500000
        k(    7) = (   0.0379955  -0.0279518   0.0000000), wk =   0.2500000
        k(    8) = (  -0.0759910  -0.0000099   0.0000000), wk =   0.1250000
        k(    9) = (  -0.0759910   0.0279468   0.0000000), wk =   0.2500000
        k(   10) = (  -0.0759910  -0.0559233   0.0000000), wk =   0.1250000

     Initial potential from superposition of free atoms

     starting charge  409.99914, renormalised to  428.00000

     negative rho (up, down):  4.037E-02 0.000E+00

     %%%%%%%%%%%%%%%%%%%%%%%%%%%%%%%%%%%%%%%%%%%%%%%%%%%%%%%%%%%%%%%%%%%%%%%%
     %                                                                      %
     % You are using vdW-DF, which was implemented by the Thonhauser group. %
     % Please cite the following two papers that made this development      %
     % possible and the two reviews that describe the various versions:     %
     %                                                                      %
     %   T. Thonhauser et al., PRL 115, 136402 (2015).                      %
     %   T. Thonhauser et al., PRB 76, 125112 (2007).                       %
     %   K. Berland et al., Rep. Prog. Phys. 78, 066501 (2015).             %
     %   D.C. Langreth et al., J. Phys.: Condens. Matter 21, 084203 (2009). %
     %                                                                      %
     %                                                                      %
     % If you are calculating the stress with vdW-DF, please also cite:     %
     %                                                                      %
     %   R. Sabatini et al., J. Phys.: Condens. Matter 24, 424209 (2012).   %
     %                                                                      %
     %%%%%%%%%%%%%%%%%%%%%%%%%%%%%%%%%%%%%%%%%%%%%%%%%%%%%%%%%%%%%%%%%%%%%%%%

     Adding external electric field

     Computed dipole along edir(3) :
        Dipole               -0.7971 Ry au,         -2.0260 Debye
        Dipole field         -0.0010 Ry au,

        Potential amp.        0.0930 Ry
        Total length         46.3494 bohr

     Starting wfcs are  322 atomic wfcs
  @ DRIVER MODE: Message from server: STATUS
  @ DRIVER MODE: Message from server: POSDATA
  @ DRIVER MODE: Reading and sharing cell
  @ DRIVER MODE: Reading and sharing positions
  @ DRIVER MODE: Received positions

     Self-consistent Calculation

     iteration #  1     ecut=    29.40 Ry     beta= 0.05
     Davidson diagonalization with overlap
     c_bands:  4 eigenvalues not converged
     c_bands:  4 eigenvalues not converged
     c_bands:  3 eigenvalues not converged
     c_bands:  2 eigenvalues not converged
     c_bands:  3 eigenvalues not converged
     c_bands:  3 eigenvalues not converged
     c_bands:  4 eigenvalues not converged
     c_bands:  2 eigenvalues not converged
     c_bands:  3 eigenvalues not converged
     ethr =  1.00E-05,  avg # of iterations = 19.7

[...]

     total energy              =   -3251.91303266 Ry
     estimated scf accuracy    <      13.90212590 Ry

     iteration #  2     ecut=    29.40 Ry     beta= 0.05
     Davidson diagonalization with overlap
     ethr =  3.25E-03,  avg # of iterations =  1.0

[...]

     iteration # 36     ecut=    29.40 Ry     beta= 0.05
     Davidson diagonalization with overlap
     ethr =  9.47E-08,  avg # of iterations = 10.2

[...]

     total energy              =   -3250.62451836 Ry
     estimated scf accuracy    <       0.00000008 Ry

     iteration # 51     ecut=    29.40 Ry     beta= 0.05
     Davidson diagonalization with overlap
     c_bands:  1 eigenvalues not converged
     ethr =  1.96E-11,  avg # of iterations =  8.5

     negative rho (up, down):  3.757E-02 0.000E+00

     Adding external electric field

     Computed dipole along edir(3) :
        Dipole                1.9735 Ry au,          5.0161 Debye
        Dipole field          0.0025 Ry au,

        Potential amp.       -0.2302 Ry
        Total length         46.3494 bohr

     End of self-consistent calculation

          k = 0.0000 0.0000 0.0000 ( 26871 PWs)   bands (ev):

   -57.5850 -57.5601 -57.5583 -57.5239 -57.5023 -57.4484 -57.4266 -57.4061
   -57.3762 -57.3751 -57.3742 -57.3656 -57.3517 -57.3449 -57.2000 -56.7061
   -56.6830 -56.6728 -33.9764 -33.9754 -33.9744 -33.9503 -33.9047 -33.8900
   -33.8829 -33.8817 -33.8721 -33.8632 -33.8597 -33.8551 -33.8522 -33.8220
   -33.7845 -33.7575 -33.7542 -33.7393 -33.7296 -33.7115 -33.7101 -33.7077
   -33.6866 -33.6827 -33.6816 -33.6717 -33.6653 -33.6643 -33.6552 -33.6331
   -33.6330 -33.6239 -33.6226 -33.6129 -33.6122 -33.6029 -33.5858 -33.5789
   -33.5750 -33.5704 -33.5280 -33.5190 -33.4776 -33.3679 -33.2472 -33.0275
   -33.0156 -33.0128 -32.9980 -32.9889 -32.9356 -32.8757 -32.8645 -32.7342
   -19.5871 -19.4896 -18.4600 -18.0788 -17.9188 -17.8803 -17.8719 -17.8374
   -17.6851 -17.6809 -17.5960 -17.5568 -17.5437 -17.4482 -17.4003 -17.3856
   -17.3804 -17.3593 -17.3464 -17.3278 -17.3140 -17.2990 -17.2727 -17.2287
   -17.1957 -17.1493 -17.1226 -17.1162 -17.0566 -17.0539 -17.0312 -16.7499
   -15.1703 -15.1112 -15.1050  -7.7566  -7.6054  -5.7850  -5.5890  -5.5459
    -5.4116  -5.0617  -5.0461  -5.0170  -4.9801  -4.9651  -4.9386  -4.8985
    -4.8688  -4.8584  -4.8260  -4.8256  -4.7570  -4.7443  -4.7401  -4.6563
    -4.6246  -4.6071  -4.5829  -4.5360  -4.4731  -4.4484  -4.4425  -4.4397
    -4.4190  -4.3880  -4.3672  -4.2566  -4.1607  -4.1308  -4.0255  -3.9626
    -3.9402  -3.9291  -3.9085  -3.8802  -3.8259  -3.7805  -3.7343  -3.7327
    -3.6527  -3.6117  -3.5744  -3.5353  -3.4795  -3.4412  -3.4401  -3.4149
    -3.3562  -3.3300  -3.3152  -3.2407  -3.1224  -3.0982  -3.0188  -2.9589
    -2.8957  -2.8811  -2.7583  -2.7231  -2.6396  -2.6154  -2.6035  -2.5072
    -2.4388  -2.4156  -2.4013  -2.3995  -2.3516  -2.3224  -2.2906  -2.2790
    -2.2655  -2.2217  -2.1510  -2.1508  -2.0613  -2.0252  -2.0191  -1.9904
    -1.9745  -1.9288  -1.9020  -1.8227  -1.6884  -1.6502  -1.5805  -1.5163
    -1.5157  -1.4379  -1.4035  -1.3773  -0.9912  -0.7814  -0.4809  -0.4152
    -0.4136  -0.1313  -0.1238   0.0129   1.3531   1.4271   1.5601   1.6187
     1.7994   1.8320   1.8689   1.9508   1.9778   2.0085   2.0267   2.0463

[...]

          k = 0.0380-0.0280 0.0000 ( 26873 PWs)   bands (ev):

[...]

          k =-0.0760-0.0000 0.0000 ( 26902 PWs)   bands (ev):

[...]

          k =-0.0760-0.0559 0.0000 ( 26868 PWs)   bands (ev):

   -57.5772 -57.5755 -57.5506 -57.5222 -57.5044 -57.4478 -57.4236 -57.4101
   -57.3741 -57.3725 -57.3712 -57.3677 -57.3613 -57.3398 -57.1999 -56.7012
   -56.6923 -56.6684 -34.0696 -33.9786 -33.9721 -33.9557 -33.9356 -33.9319
   -33.8980 -33.8970 -33.8899 -33.8604 -33.8033 -33.7846 -33.7826 -33.7781
   -33.7333 -33.7267 -33.7255 -33.7219 -33.7069 -33.7041 -33.7028 -33.6942
   -33.6938 -33.6753 -33.6748 -33.6658 -33.6608 -33.6597 -33.6577 -33.6508
   -33.6508 -33.6497 -33.6315 -33.6188 -33.6116 -33.6078 -33.6015 -33.5938
   -33.5720 -33.5687 -33.5564 -33.5528 -33.5052 -33.3915 -33.2469 -33.1132
   -33.0150 -33.0071 -32.9843 -32.9193 -32.9086 -32.8488 -32.8363 -32.8258
   -19.5709 -19.4989 -18.1193 -18.0849 -17.8968 -17.8502 -17.7833 -17.7358
   -17.6735 -17.6606 -17.6443 -17.5886 -17.5877 -17.5122 -17.5015 -17.4338
   -17.4035 -17.3834 -17.3826 -17.3760 -17.3719 -17.3437 -17.3066 -17.2476
   -17.2427 -17.2211 -17.1267 -17.0909 -17.0841 -17.0371 -17.0155 -16.7822
   -15.1688 -15.1613 -15.0468  -7.8091  -7.5404  -5.3806  -5.3344  -5.3114
    -5.2586  -5.2028  -5.0356  -4.9797  -4.9276  -4.9218  -4.8627  -4.8181
    -4.7989  -4.7678  -4.7488  -4.7444  -4.7256  -4.6499  -4.6368  -4.6207
    -4.6016  -4.5748  -4.5609  -4.5512  -4.5174  -4.4412  -4.3670  -4.2984
    -4.2922  -4.2762  -4.2210  -4.2105  -4.1776  -4.1275  -4.1019  -4.0600
    -3.9376  -3.8996  -3.8128  -3.7956  -3.7802  -3.7773  -3.7538  -3.6792
    -3.6727  -3.5780  -3.5404  -3.4510  -3.3691  -3.3611  -3.3470  -3.3095
    -3.3018  -3.2580  -3.2218  -3.1841  -3.1729  -3.1598  -3.0964  -3.0403
    -2.9813  -2.9228  -2.8459  -2.8248  -2.7886  -2.7447  -2.7370  -2.7105
    -2.7031  -2.6927  -2.6844  -2.6698  -2.6101  -2.5934  -2.4636  -2.4259
    -2.4093  -2.2903  -2.2745  -2.2309  -2.1993  -2.1507  -2.1467  -2.0347
    -2.0108  -1.9206  -1.8880  -1.8310  -1.8067  -1.7887  -1.7282  -1.4410
    -1.4270  -1.3912  -1.3518  -1.2766  -1.2643  -1.0191  -0.6171  -0.3613
    -0.3374  -0.2934  -0.1229  -0.1194   1.4387   1.5433   1.5800   1.5937
     1.6974   1.7292   1.7330   1.7433   1.7823   1.8116   1.9053   2.0769

     the Fermi energy is     1.4975 ev

!    total energy              =   -3250.62461262 Ry
     estimated scf accuracy    <       0.00000006 Ry
     smearing contrib. (-TS)   =      -0.05124578 Ry
     internal energy E=F+TS    =   -3250.57336684 Ry

     The total energy is F=E-TS. E is the sum of the following terms:
     one-electron contribution =  -33905.53817953 Ry
     hartree contribution      =   17014.56935429 Ry
     xc contribution           =    -530.16930321 Ry
     ewald contribution        =   14170.55986173 Ry
     electric field correction =       0.00489988 Ry

     convergence has been achieved in  51 iterations

     Forces acting on atoms (cartesian axes, Ry/au):

     atom    1 type  1   force =     0.00000530    0.00711914    0.05671019
     atom    2 type  1   force =     0.00003739    0.00336741    0.00112752
     atom    3 type  1   force =    -0.00017882   -0.00276541   -0.00357596
     atom    4 type  1   force =     0.00005053    0.00104792    0.10789961
     atom    5 type  1   force =     0.00004104   -0.00020707    0.01009710
     atom    6 type  1   force =    -0.00001571   -0.00661157   -0.00381282
     atom    7 type  1   force =     0.06423178    0.00011431   -0.02836225
     atom    8 type  1   force =     0.00284963   -0.02999836    0.00401156
     atom    9 type  1   force =     0.01259220   -0.01286379   -0.00053699
     atom   10 type  2   force =    -0.00004592   -0.00846764   -0.19228499
     atom   11 type  2   force =    -0.00023390    0.02102425   -0.01103219
     atom   12 type  2   force =    -0.00001754    0.02019130    0.01358974
     atom   13 type  1   force =    -0.06431996   -0.00033037   -0.02834187
     atom   14 type  1   force =    -0.00308218   -0.02970374    0.00397786
     atom   15 type  1   force =    -0.01259046   -0.01286422   -0.00063429
     atom   16 type  2   force =     0.00007599   -0.00104001    0.07104056
     atom   17 type  2   force =     0.00043361    0.03732503    0.00577500
     atom   18 type  2   force =     0.00001731    0.00095929   -0.00817652
     atom   19 type  1   force =     0.00001031    0.00231812    0.05922872
     atom   20 type  1   force =     0.00004308    0.00209108   -0.00266783
     atom   21 type  1   force =     0.00005859    0.00076873    0.10937319
     atom   22 type  1   force =     0.00004759   -0.00072715    0.01034562
     atom   23 type  1   force =    -0.00001246   -0.00037936   -0.00310766
     atom   24 type  1   force =     0.06384502   -0.00070491   -0.02834592
     atom   25 type  1   force =     0.00326428   -0.02910985    0.00356198
     atom   26 type  1   force =     0.01267782    0.01309288   -0.00040255
     atom   27 type  2   force =    -0.00008111    0.00433878   -0.19446021
     atom   28 type  2   force =    -0.00023747    0.01849916   -0.00939063
     atom   29 type  2   force =     0.00005124   -0.02041950    0.01267789
     atom   30 type  1   force =    -0.06394211   -0.00116457   -0.02831988
     atom   31 type  1   force =    -0.00349336   -0.02886014    0.00352324
     atom   32 type  1   force =    -0.01268434    0.01308816   -0.00042045
     atom   33 type  2   force =     0.00007218   -0.00085252    0.07220568
     atom   34 type  2   force =     0.00041712    0.03345602    0.00561974
     atom   35 type  2   force =    -0.00001872   -0.01675133   -0.00131829
     atom   36 type  1   force =    -0.00000135    0.00274045    0.05600953
     atom   37 type  1   force =     0.00003598    0.00193496    0.00181653
     atom   38 type  1   force =     0.00003378    0.00311972   -0.00353593
     atom   39 type  1   force =     0.00005907   -0.00165938    0.10830517
     atom   40 type  1   force =     0.00004404   -0.00051241    0.00997677
     atom   41 type  1   force =    -0.00005495    0.00767456   -0.00381344
     atom   42 type  1   force =     0.06486271   -0.00062150   -0.02827109
     atom   43 type  1   force =     0.00327661   -0.02818433    0.00162790
     atom   44 type  1   force =     0.01688547   -0.00033648    0.00590931
     atom   45 type  2   force =    -0.00007064    0.00171137   -0.18725701
     atom   46 type  2   force =    -0.00023279    0.01865267   -0.01192232
     atom   47 type  2   force =    -0.00004967    0.00132269   -0.00738394
     atom   48 type  1   force =    -0.06495276   -0.00108517   -0.02825591
     atom   49 type  1   force =    -0.00354787   -0.02790992    0.00160924
     atom   50 type  1   force =    -0.01684886   -0.00039401    0.00586063
     atom   51 type  2   force =     0.00012022   -0.00090370    0.07257070
     atom   52 type  2   force =     0.00045404    0.03355557    0.00542281
     atom   53 type  2   force =     0.00005492    0.01525403   -0.00022464
     atom   54 type  3   force =    -0.00005685   -0.00042393   -0.00214022
     atom   55 type  3   force =     0.00012099    0.00108479   -0.00187800

     Total force =     0.463771     Total SCF correction =     0.000619
  @ DRIVER MODE: Message from server: STATUS
  @ DRIVER MODE: Message from server: GETFORCE
  @ DRIVER MODE: Returning v,forces,stress,ensemble

     Writing output data file ./calc.save/
  @ DRIVER MODE: Message from server: EXIT
  @ DRIVE MODE: Exiting

     General routines

     Parallel routines

   This run was terminated on:  15:54:22  18Oct2021

   JOB DONE.