     Program PWSCF v.6.7GPU starts on 19Oct2021 at  9:15:26

     R & G space division:  proc/nbgrp/npool/nimage =       8
     Reading input from /storage/home/hcoda1/3/ntian30/research/carbon/CxH_vib/Thiel_calc/ads_slab/NH2NH3H_perslab/out_0045/pw.inp
Warning: card &CELL ignored
Warning: card   CELL_DYNAMICS='IPI', ignored
Warning: card / ignored

     Current dimensions of program PWSCF are:
     Max number of different atomic species (ntypx) = 10
     Max number of k-points (npk) =  40000
     Max angular momentum in pseudopotentials (lmaxx) =  3
     Presently no symmetry can be used with electric field

     Message from routine cell_base_init:
     DEPRECATED: use true lattice parameter, not A to a.u. conversion factor

     IMPORTANT: XC functional enforced from input :
     Exchange-correlation= BEEF-VDW
                           (   1   4  43  14   2   0   0)
     Any further DFT definition will be discarded
     Please, verify this is what you really want

  @ DRIVER MODE: Connecting to
 qe_1139763_3255138.sched-torque.pace.gatech.edugjzi_t7s_scratch
  using UNIX socket
  @ DRIVER MODE: Message from server: STATUS
  @ DRIVER MODE: Message from server: INIT
  @ DRIVER MODE: Receiving replica           0          -1
  @ DRIVER MODE: Receiving encoded integer          25
  @ DRIVER MODE:  SCF:  T  FORCE:  T  STRESS:  F  VC:  F  ENSEMBLE:  F
  @ DRIVER MODE:  SCF:  T  FORCE:  T  STRESS:  F  VC:  F  ENSEMBLE:  F

     Using Slab Decomposition

     bravais-lattice index     =            0
     lattice parameter (alat)  =       1.8897  a.u.
     unit-cell volume          =    9988.4706 (a.u.)^3
     number of atoms/cell      =           61
     number of atomic types    =            4
     number of electrons       =       442.00
     number of Kohn-Sham states=          231
     kinetic-energy cutoff     =      29.3995  Ry
     charge density cutoff     =     293.9946  Ry
     scf convergence threshold =      7.3E-08
     mixing beta               =       0.0500
     number of iterations used =            8  plain     mixing
     Exchange-correlation= BEEF-VDW
                           (   1   4  43  14   2   0   0)

     celldm(1)=   1.889726  celldm(2)=   0.000000  celldm(3)=   0.000000
     celldm(4)=   0.000000  celldm(5)=   0.000000  celldm(6)=   0.000000

     crystal axes: (cart. coord. in units of alat)
               a(1) = (   6.579727   0.000000   0.000000 )
               a(2) = (  -0.001163   8.942395   0.000000 )
               a(3) = (   0.000000   0.000000  25.155947 )

     reciprocal axes: (cart. coord. in units 2 pi/alat)
               b(1) = (  0.151982  0.000020  0.000000 )
               b(2) = (  0.000000  0.111827  0.000000 )
               b(3) = (  0.000000  0.000000  0.039752 )

     PseudoPot. # 1 for O  read from file:
     /storage/coda1/p-amedford6/0/shared/rich_project_chbe-medford/medford-share/data/pseudos_module/espresso/nninc/pbe/van/O.UPF
     MD5 check sum: 78c19812648e8988a0fe644b0f25305e
     Pseudo is Ultrasoft, Zval =  6.0
     Generated by new atomic code, or converted to UPF format
     Using radial grid of  737 points,  4 beta functions with:
                l(1) =   0
                l(2) =   0
                l(3) =   1
                l(4) =   1
     Q(r) pseudized with  8 coefficients,  rinner =    0.800   0.800   0.800

     PseudoPot. # 2 for Ti read from file:
     /storage/coda1/p-amedford6/0/shared/rich_project_chbe-medford/medford-share/data/pseudos_module/espresso/nninc/pbe/van/Ti.UPF
     MD5 check sum: 8e4df49b7f0d34bbd5052bf3f5ea0213
     Pseudo is Ultrasoft, Zval = 12.0
     Generated by new atomic code, or converted to UPF format
     Using radial grid of  851 points,  6 beta functions with:
                l(1) =   0
                l(2) =   0
                l(3) =   1
                l(4) =   1
                l(5) =   2
                l(6) =   2
     Q(r) pseudized with  8 coefficients,  rinner =    1.000   1.000   1.000
                                                       1.000   1.000

     PseudoPot. # 3 for N  read from file:
     /storage/coda1/p-amedford6/0/shared/rich_project_chbe-medford/medford-share/data/pseudos_module/espresso/nninc/pbe/van/N.UPF
     MD5 check sum: 90d10febe142ad51ac9d5be1deb811c4
     Pseudo is Ultrasoft, Zval =  5.0
     Generated by new atomic code, or converted to UPF format
     Using radial grid of  729 points,  4 beta functions with:
                l(1) =   0
                l(2) =   0
                l(3) =   1
                l(4) =   1
     Q(r) pseudized with  8 coefficients,  rinner =    0.800   0.800   0.800

     PseudoPot. # 4 for H  read from file:
     /storage/coda1/p-amedford6/0/shared/rich_project_chbe-medford/medford-share/data/pseudos_module/espresso/nninc/pbe/van/H.UPF
     MD5 check sum: b5ee9d7bfd3a09ee7748110bda690ff7
     Pseudo is Ultrasoft, Zval =  1.0
     Generated by new atomic code, or converted to UPF format
     Using radial grid of  615 points,  1 beta functions with:
                l(1) =   0
     Q(r) pseudized with  8 coefficients,  rinner =    0.800

     atomic species   valence    mass     pseudopotential
        O1             6.00    15.99900     O ( 1.00)
        Ti1           12.00    47.86700     Ti( 1.00)
        N1             5.00    14.00700     N ( 1.00)
        H1             1.00     1.00800     H ( 1.00)

     No symmetry found

   Cartesian axes

     site n.     atom                  positions (alat units)
         1           O1  tau(   1) = (   0.0007354   0.0005023  10.5931620  )
         2           O1  tau(   2) = (   3.2893251   8.9324977  13.8850595  )
         3           O1  tau(   3) = (   0.0000810   0.0519898  17.3357851  )
         4           O1  tau(   4) = (   0.0006271   0.0005054   7.9858123  )
         5           O1  tau(   5) = (   3.2891750   8.9291278  11.1853435  )
         6           O1  tau(   6) = (   0.0004222   0.0485762  14.6167438  )
         7           O1  tau(   7) = (   1.9868534   1.4903216   9.2879459  )
         8           O1  tau(   8) = (   5.2393499   1.5905449  12.5682489  )
         9           O1  tau(   9) = (   1.9991366   1.5492019  16.1124644  )
        10           Ti1 tau(  10) = (   0.0007404   1.4906270   9.2895810  )
        11           Ti1 tau(  11) = (   3.2902999   1.3249318  12.4520864  )
        12           Ti1 tau(  12) = (   0.0005939   1.3452645  15.7597600  )
        13           O1  tau(  13) = (   4.5942328   1.4918067   9.2879030  )
        14           O1  tau(  14) = (   1.3411764   1.5910169  12.5684512  )
        15           O1  tau(  15) = (   4.5798538   1.5480364  16.1129854  )
        16           Ti1 tau(  16) = (   3.2902859   2.9801868   9.2893338  )
        17           Ti1 tau(  17) = (   0.0006295   2.8174385  12.4372122  )
        18           Ti1 tau(  18) = (   3.2897038   2.9127836  15.6935398  )
        19           O1  tau(  19) = (   0.0003479   2.9813005  10.5931620  )
        20           O1  tau(  20) = (   3.2904107   2.9319293  13.8952334  )
        21           O1  tau(  21) = (   0.0002396   2.9813036   7.9858123  )
        22           O1  tau(  22) = (   3.2903884   2.9732875  11.2024877  )
        23           O1  tau(  23) = (   6.5791771   2.9400465  14.7470945  )
        24           O1  tau(  24) = (   1.9864658   4.4711199   9.2879459  )
        25           O1  tau(  25) = (   5.2507180   4.5586503  12.6053682  )
        26           O1  tau(  26) = (   1.9989508   4.4013585  16.0758979  )
        27           Ti1 tau(  27) = (   0.0003529   4.4714252   9.2895810  )
        28           Ti1 tau(  28) = (   3.2908498   4.3294621  12.5515864  )
        29           Ti1 tau(  29) = (   0.0012874   4.5361023  15.7587160  )
        30           O1  tau(  30) = (   4.5938453   4.4726049   9.2879030  )
        31           O1  tau(  31) = (   1.3295807   4.5581274  12.6051842  )
        32           O1  tau(  32) = (   4.5807093   4.4011557  16.0767203  )
        33           Ti1 tau(  33) = (   3.2898983   5.9609850   9.2893338  )
        34           Ti1 tau(  34) = (   0.0011720   5.8030845  12.4395124  )
        35           Ti1 tau(  35) = (   3.2913837   5.8399099  16.1904745  )
        36           O1  tau(  36) = (  -0.0000397   5.9620987  10.5931620  )
        37           O1  tau(  37) = (   3.2897076   5.9457256  13.9643012  )
        38           O1  tau(  38) = (   0.0001823   5.8979554  17.1998916  )
        39           O1  tau(  39) = (  -0.0001480   5.9621018   7.9858123  )
        40           O1  tau(  40) = (   3.2897623   5.9362706  11.2341171  )
        41           O1  tau(  41) = (   0.0004469   5.9800359  14.6665197  )
        42           O1  tau(  42) = (   1.9860782   7.4519181   9.2879459  )
        43           O1  tau(  43) = (   5.2507221   7.5245448  12.5933772  )
        44           O1  tau(  44) = (   1.9799843   7.5745874  16.0532815  )
        45           Ti1 tau(  45) = (  -0.0000347   7.4522234   9.2895810  )
        46           Ti1 tau(  46) = (   3.2894177   7.1911746  12.6495270  )
        47           Ti1 tau(  47) = (   0.0007314   7.2822180  16.1322395  )
        48           O1  tau(  48) = (   4.5934577   7.4534031   9.2879030  )
        49           O1  tau(  49) = (   1.3275845   7.5244469  12.5935105  )
        50           O1  tau(  50) = (   4.5990354   7.5728923  16.0522427  )
        51           Ti1 tau(  51) = (   3.2895107   8.9417832   9.2893338  )
        52           Ti1 tau(  52) = (  -0.0007012   8.7603021  12.4499776  )
        53           Ti1 tau(  53) = (   3.2901857   8.8509785  15.6953962  )
        54           N1  tau(  54) = (   3.2899770   5.9827455  18.1265562  )
        55           H1  tau(  55) = (   3.2886311   5.2071789  18.7771882  )
        56           H1  tau(  56) = (   3.2869209   6.8541504  18.6418389  )
        57           H1  tau(  57) = (   6.5771076   8.8877891  18.2917622  )
        58           N1  tau(  58) = (   6.5788838   3.2021548  17.9140464  )
        59           H1  tau(  59) = (   6.5785461   2.2502248  18.2648563  )
        60           H1  tau(  60) = (   5.7591345   3.6762813  18.2792932  )
        61           H1  tau(  61) = (   0.8178175   3.6664091  18.2810048  )

     number of k points=    10  Fermi-Dirac smearing, width (Ry)=  0.0073
                       cart. coord. in units 2pi/alat
        k(    1) = (   0.0000000   0.0000000   0.0000000), wk =   0.1250000
        k(    2) = (   0.0000000   0.0279567   0.0000000), wk =   0.2500000
        k(    3) = (   0.0000000  -0.0559134   0.0000000), wk =   0.1250000
        k(    4) = (   0.0379955   0.0000049   0.0000000), wk =   0.2500000
        k(    5) = (   0.0379955   0.0279617   0.0000000), wk =   0.2500000
        k(    6) = (   0.0379955  -0.0559085   0.0000000), wk =   0.2500000
        k(    7) = (   0.0379955  -0.0279518   0.0000000), wk =   0.2500000
        k(    8) = (  -0.0759910  -0.0000099   0.0000000), wk =   0.1250000
        k(    9) = (  -0.0759910   0.0279468   0.0000000), wk =   0.2500000
        k(   10) = (  -0.0759910  -0.0559233   0.0000000), wk =   0.1250000

     Initial potential from superposition of free atoms

     starting charge  423.99908, renormalised to  442.00000

     negative rho (up, down):  3.661E-02 0.000E+00

     %%%%%%%%%%%%%%%%%%%%%%%%%%%%%%%%%%%%%%%%%%%%%%%%%%%%%%%%%%%%%%%%%%%%%%%%
     %                                                                      %
     % You are using vdW-DF, which was implemented by the Thonhauser group. %
     % Please cite the following two papers that made this development      %
     % possible and the two reviews that describe the various versions:     %
     %                                                                      %
     %   T. Thonhauser et al., PRL 115, 136402 (2015).                      %
     %   T. Thonhauser et al., PRB 76, 125112 (2007).                       %
     %   K. Berland et al., Rep. Prog. Phys. 78, 066501 (2015).             %
     %   D.C. Langreth et al., J. Phys.: Condens. Matter 21, 084203 (2009). %
     %                                                                      %
     %                                                                      %
     % If you are calculating the stress with vdW-DF, please also cite:     %
     %                                                                      %
     %   R. Sabatini et al., J. Phys.: Condens. Matter 24, 424209 (2012).   %
     %                                                                      %
     %%%%%%%%%%%%%%%%%%%%%%%%%%%%%%%%%%%%%%%%%%%%%%%%%%%%%%%%%%%%%%%%%%%%%%%%

     Adding external electric field

     Computed dipole along edir(3) :
        Dipole               -6.2843 Ry au,        -15.9732 Debye
        Dipole field         -0.0079 Ry au,

        Potential amp.        0.7329 Ry
        Total length         46.3494 bohr

     Starting wfcs are  334 atomic wfcs
  @ DRIVER MODE: Message from server: STATUS
  @ DRIVER MODE: Message from server: POSDATA
  @ DRIVER MODE: Reading and sharing cell
  @ DRIVER MODE: Reading and sharing positions
  @ DRIVER MODE: Received positions

     Self-consistent Calculation

     iteration #  1     ecut=    29.40 Ry     beta= 0.05
     Davidson diagonalization with overlap
     c_bands:  2 eigenvalues not converged
     c_bands:  4 eigenvalues not converged
     c_bands:  3 eigenvalues not converged
     c_bands:  4 eigenvalues not converged
     c_bands:  5 eigenvalues not converged
     c_bands:  4 eigenvalues not converged
     c_bands:  2 eigenvalues not converged
     c_bands:  2 eigenvalues not converged
     ethr =  1.00E-05,  avg # of iterations = 21.5

[...]

     total energy              =   -3276.11285030 Ry
     estimated scf accuracy    <     260.18832146 Ry

[...]

     iteration #  3     ecut=    29.40 Ry     beta= 0.05
     Davidson diagonalization with overlap
     ethr =  1.00E-02,  avg # of iterations = 14.5

[...]

     iteration # 53     ecut=    29.40 Ry     beta= 0.05
     Davidson diagonalization with overlap
     c_bands:  2 eigenvalues not converged
     ethr =  5.08E-11,  avg # of iterations = 15.8

[...]

     total energy              =   -3295.82441674 Ry
     estimated scf accuracy    <       0.00000011 Ry

     iteration # 56     ecut=    29.40 Ry     beta= 0.05
     Davidson diagonalization with overlap
     ethr =  2.48E-11,  avg # of iterations =  8.5

     negative rho (up, down):  3.545E-02 0.000E+00

     Adding external electric field

     Computed dipole along edir(3) :
        Dipole                1.9336 Ry au,          4.9147 Debye
        Dipole field          0.0024 Ry au,

        Potential amp.       -0.2255 Ry
        Total length         46.3494 bohr

     End of self-consistent calculation

          k = 0.0000 0.0000 0.0000 ( 26871 PWs)   bands (ev):

   -57.4683 -57.4330 -57.4203 -57.3807 -57.3716 -57.3638 -57.3530 -57.3418
   -57.3210 -57.2822 -57.2760 -57.2394 -57.2180 -57.2013 -57.1816 -56.5417
   -56.5175 -56.5114 -33.9387 -33.8524 -33.8518 -33.8293 -33.8093 -33.7918
   -33.7740 -33.7701 -33.7663 -33.7530 -33.7278 -33.7068 -33.7018 -33.6870
   -33.6852 -33.6806 -33.6599 -33.6511 -33.6297 -33.6242 -33.5926 -33.5780
   -33.5605 -33.5561 -33.5486 -33.5477 -33.5440 -33.5362 -33.5246 -33.5214
   -33.5146 -33.5004 -33.4918 -33.4907 -33.4840 -33.4826 -33.4735 -33.4718
   -33.4638 -33.4530 -33.4412 -33.4243 -33.4085 -33.4020 -33.3874 -32.8604
   -32.8523 -32.8513 -32.8346 -32.8292 -32.7697 -32.7085 -32.7012 -32.5696
   -19.3431 -18.2725 -17.9745 -17.7763 -17.7255 -17.6921 -17.5922 -17.5484
   -17.4953 -17.4417 -17.4053 -17.3628 -17.2875 -17.2471 -17.2453 -17.2213
   -17.1671 -17.1432 -17.1352 -17.1251 -17.1232 -17.0985 -17.0491 -17.0453
   -16.9886 -16.9472 -16.9156 -16.9053 -16.8967 -16.8644 -16.8559 -16.8033
   -16.6049 -15.0244 -15.0077 -14.9488 -14.9454  -7.8535  -7.6637  -7.3897
    -6.4604  -5.5810  -5.4293  -5.3981  -5.2342  -4.9629  -4.9111  -4.8680
    -4.8215  -4.7840  -4.7455  -4.7225  -4.6935  -4.6620  -4.6105  -4.5798
    -4.5631  -4.5298  -4.5096  -4.4788  -4.4487  -4.4438  -4.4140  -4.3252
    -4.3161  -4.2922  -4.2745  -4.2391  -4.2208  -4.2181  -4.1689  -4.1575
    -4.0689  -3.9820  -3.8962  -3.8436  -3.8173  -3.7940  -3.7467  -3.7091
    -3.6800  -3.6356  -3.6154  -3.5470  -3.5191  -3.5085  -3.4326  -3.3976
    -3.3024  -3.2638  -3.2525  -3.2315  -3.1893  -3.1775  -3.0951  -3.0826
    -2.9733  -2.9542  -2.8649  -2.7908  -2.7412  -2.7132  -2.6755  -2.6138
    -2.5942  -2.5489  -2.5207  -2.4603  -2.4464  -2.3203  -2.2527  -2.2492
    -2.2291  -2.1906  -2.1612  -2.1471  -2.1247  -2.1218  -2.0434  -2.0345
    -1.9847  -1.9096  -1.8838  -1.8471  -1.8343  -1.7990  -1.7568  -1.6920
    -1.6865  -1.6510  -1.5631  -1.5022  -1.5013  -1.3550  -1.3489  -1.3156
    -1.2671  -1.2135  -1.1829  -0.7805  -0.6046  -0.4347  -0.3091  -0.2484
    -0.2471   0.0276   0.0326   0.1651   1.6141   1.7650   1.8256   1.9594
     1.9779   2.0371   2.1187   2.1408   2.2080   2.2352   2.2442

[...]

          k = 0.0380-0.0280 0.0000 ( 26873 PWs)   bands (ev):

[...]

          k =-0.0760-0.0000 0.0000 ( 26902 PWs)   bands (ev):

[...]

          k =-0.0760-0.0559 0.0000 ( 26868 PWs)   bands (ev):

   -57.4667 -57.4377 -57.4172 -57.3781 -57.3674 -57.3657 -57.3614 -57.3383
   -57.3205 -57.2819 -57.2764 -57.2357 -57.2246 -57.1984 -57.1816 -56.5365
   -56.5284 -56.5057 -33.9836 -33.9351 -33.8631 -33.8186 -33.8029 -33.7905
   -33.7838 -33.7758 -33.7654 -33.7439 -33.7150 -33.6965 -33.6593 -33.6571
   -33.6375 -33.6240 -33.6093 -33.5957 -33.5946 -33.5900 -33.5856 -33.5760
   -33.5721 -33.5652 -33.5632 -33.5503 -33.5421 -33.5278 -33.5220 -33.5197
   -33.5155 -33.5150 -33.5110 -33.5081 -33.5059 -33.4944 -33.4881 -33.4840
   -33.4814 -33.4742 -33.4468 -33.4407 -33.4352 -33.4232 -33.3992 -32.9478
   -32.8531 -32.8450 -32.8233 -32.7525 -32.7439 -32.6834 -32.6703 -32.6626
   -19.3365 -17.9696 -17.8309 -17.8293 -17.6533 -17.6076 -17.5999 -17.5301
   -17.4844 -17.4437 -17.4344 -17.4031 -17.3544 -17.3299 -17.3008 -17.2748
   -17.2592 -17.2240 -17.1826 -17.1817 -17.1480 -17.1148 -17.0882 -17.0459
   -17.0393 -16.9853 -16.9213 -16.8837 -16.8591 -16.8569 -16.8199 -16.7950
   -16.6381 -15.0250 -15.0056 -15.0013 -14.8854  -7.8616  -7.6811  -7.3787
    -6.4521  -5.2154  -5.1777  -5.1322  -5.0391  -5.0015  -4.9696  -4.8337
    -4.7734  -4.7316  -4.6869  -4.6441  -4.6363  -4.6220  -4.5663  -4.5489
    -4.5333  -4.4871  -4.4464  -4.4263  -4.4034  -4.4020  -4.3983  -4.3952
    -4.2631  -4.2515  -4.1987  -4.1783  -4.1560  -4.1331  -4.1305  -4.0764
    -4.0344  -3.9932  -3.9812  -3.9555  -3.8931  -3.8365  -3.7558  -3.6577
    -3.6469  -3.5900  -3.5799  -3.4872  -3.4818  -3.3897  -3.3253  -3.2808
    -3.2520  -3.2270  -3.1506  -3.1455  -3.1365  -3.0862  -3.0524  -3.0239
    -2.9756  -2.9653  -2.9205  -2.8179  -2.7823  -2.7241  -2.6973  -2.6938
    -2.6364  -2.6321  -2.5951  -2.5935  -2.5868  -2.5419  -2.4872  -2.4535
    -2.4362  -2.4046  -2.3156  -2.2917  -2.2386  -2.2309  -2.1653  -2.1490
    -2.1365  -2.0728  -2.0213  -1.9899  -1.9818  -1.9081  -1.8045  -1.7463
    -1.7244  -1.7031  -1.5973  -1.5484  -1.4926  -1.4500  -1.2678  -1.2556
    -1.1831  -1.1435  -1.0906  -1.0418  -0.8549  -0.4562  -0.4041  -0.1868
    -0.1715  -0.1340   0.0323   0.0381   1.7067   1.7182   1.8157   1.8572
     1.9190   1.9297   1.9741   1.9913   2.0011   2.0471   2.0531

     the Fermi energy is     1.6456 ev

!    total energy              =   -3295.82447496 Ry
     estimated scf accuracy    <       0.00000004 Ry
     smearing contrib. (-TS)   =      -0.03670629 Ry
     internal energy E=F+TS    =   -3295.78776867 Ry

     The total energy is F=E-TS. E is the sum of the following terms:
     one-electron contribution =  -34289.94965807 Ry
     hartree contribution      =   17213.97601827 Ry
     xc contribution           =    -543.77762815 Ry
     ewald contribution        =   14323.95879549 Ry
     electric field correction =       0.00470380 Ry

     convergence has been achieved in  56 iterations

     Forces acting on atoms (cartesian axes, Ry/au):

     atom    1 type  1   force =     0.00001415    0.00239982    0.05209590
     atom    2 type  1   force =    -0.00004546   -0.00061010   -0.00559516
     atom    3 type  1   force =     0.00004468   -0.00290433   -0.00289575
     atom    4 type  1   force =     0.00005405   -0.00036886    0.10761961
     atom    5 type  1   force =    -0.00002210    0.00170536    0.00527546
     atom    6 type  1   force =     0.00001047   -0.00048676    0.00056017
     atom    7 type  1   force =     0.06434630    0.00076903   -0.03001814
     atom    8 type  1   force =     0.00531449   -0.02658969    0.00244845
     atom    9 type  1   force =     0.00841748   -0.01287776   -0.00070753
     atom   10 type  2   force =    -0.00006440   -0.00537181   -0.18727862
     atom   11 type  2   force =     0.00012562    0.02015552   -0.00481057
     atom   12 type  2   force =    -0.00013959    0.01846520   -0.00056918
     atom   13 type  1   force =    -0.06445113    0.00029365   -0.02997758
     atom   14 type  1   force =    -0.00513137   -0.02679807    0.00247710
     atom   15 type  1   force =    -0.00839048   -0.01279580   -0.00073640
     atom   16 type  2   force =     0.00009634   -0.00105214    0.07212859
     atom   17 type  2   force =    -0.00026599    0.03302296    0.00616971
     atom   18 type  2   force =     0.00003716    0.00461765   -0.00760831
     atom   19 type  1   force =     0.00001550    0.00395484    0.05307130
     atom   20 type  1   force =    -0.00003967   -0.00055636   -0.00171233
     atom   21 type  1   force =     0.00005423    0.00130300    0.10846778
     atom   22 type  1   force =    -0.00002553   -0.00119543    0.00628783
     atom   23 type  1   force =     0.00002855   -0.00519303    0.00192702
     atom   24 type  1   force =     0.06586043    0.00139718   -0.02848260
     atom   25 type  1   force =     0.00546441   -0.02924794    0.00263072
     atom   26 type  1   force =     0.00974824   -0.00197673   -0.00019871
     atom   27 type  2   force =    -0.00006922   -0.00075886   -0.19123860
     atom   28 type  2   force =     0.00014798    0.02480561   -0.00470512
     atom   29 type  2   force =    -0.00003662   -0.00412423    0.00941749
     atom   30 type  1   force =    -0.06596532    0.00095854   -0.02845375
     atom   31 type  1   force =    -0.00531488   -0.02936927    0.00266826
     atom   32 type  1   force =    -0.00962936   -0.00198127   -0.00017015
     atom   33 type  2   force =     0.00013548    0.00069846    0.08051384
     atom   34 type  2   force =    -0.00029006    0.03538266    0.00621532
     atom   35 type  2   force =     0.00002262    0.01548536    0.00202099
     atom   36 type  1   force =     0.00006621    0.00027629    0.05319053
     atom   37 type  1   force =    -0.00003252    0.00176210   -0.00890520
     atom   38 type  1   force =    -0.00000657    0.00139603   -0.00019771
     atom   39 type  1   force =     0.00005474   -0.00116805    0.10819436
     atom   40 type  1   force =    -0.00003430   -0.00138467    0.00602327
     atom   41 type  1   force =     0.00001936    0.00389445    0.00141473
     atom   42 type  1   force =     0.06612152   -0.00349021   -0.02907508
     atom   43 type  1   force =     0.00365598   -0.02410575    0.00085637
     atom   44 type  1   force =     0.01423585   -0.01860891    0.00311952
     atom   45 type  2   force =    -0.00009524    0.00311245   -0.18717204
     atom   46 type  2   force =     0.00013669    0.01624190    0.00222388
     atom   47 type  2   force =    -0.00007273    0.01850608   -0.00285279
     atom   48 type  1   force =    -0.06622095   -0.00392613   -0.02903285
     atom   49 type  1   force =    -0.00340627   -0.02429786    0.00087013
     atom   50 type  1   force =    -0.01422926   -0.01855407    0.00312133
     atom   51 type  2   force =     0.00012971   -0.00294670    0.07344657
     atom   52 type  2   force =    -0.00027766    0.03103644    0.00786077
     atom   53 type  2   force =     0.00002238    0.02025418    0.00049781
     atom   54 type  3   force =     0.00003601   -0.00077151   -0.00283730
     atom   55 type  4   force =    -0.00002730   -0.00038910    0.00066531
     atom   56 type  4   force =    -0.00003551    0.00035598   -0.00028160
     atom   57 type  4   force =    -0.00006405   -0.00019434   -0.00006571
     atom   58 type  3   force =    -0.00533710   -0.00478006   -0.00215502
     atom   59 type  4   force =    -0.00116446   -0.00030989   -0.00013987
     atom   60 type  4   force =     0.00075112    0.00094685    0.00102464
     atom   61 type  4   force =     0.00571738    0.00598809    0.00336894

     Total force =     0.459504     Total SCF correction =     0.000556
  @ DRIVER MODE: Message from server: STATUS
  @ DRIVER MODE: Message from server: GETFORCE
  @ DRIVER MODE: Returning v,forces,stress,ensemble

     Writing output data file ./calc.save/
  @ DRIVER MODE: Message from server: EXIT
  @ DRIVE MODE: Exiting

     General routines

     Parallel routines

   This run was terminated on:   9:46:31  19Oct2021

   JOB DONE.