     Program PWSCF v.6.7GPU starts on  9Sep2021 at 11:16:41

     R & G space division:  proc/nbgrp/npool/nimage =      10
     Reading input from /storage/home/hcoda1/3/ntian30/research/carbon/CxH_vib/CH3_calc/ads_slab/CH3NNHHH_a/out_0040/pw.inp
Warning: card &CELL ignored
Warning: card   CELL_DYNAMICS='IPI', ignored
Warning: card / ignored

     Current dimensions of program PWSCF are:
     Max number of different atomic species (ntypx) = 10
     Max number of k-points (npk) =  40000
     Max angular momentum in pseudopotentials (lmaxx) =  3
     Presently no symmetry can be used with electric field

     Message from routine cell_base_init:
     DEPRECATED: use true lattice parameter, not A to a.u. conversion factor

     IMPORTANT: XC functional enforced from input :
     Exchange-correlation= BEEF-VDW
                           (   1   4  43  14   2   0   0)
     Any further DFT definition will be discarded
     Please, verify this is what you really want

  @ DRIVER MODE: Connecting to
 qe_1139763_2767399.sched-torque.pace.gatech.edu20dpjt7v_scratch
  using UNIX socket
  @ DRIVER MODE: Message from server: STATUS
  @ DRIVER MODE: Message from server: INIT
  @ DRIVER MODE: Receiving replica           0          -1
  @ DRIVER MODE: Receiving encoded integer          25
  @ DRIVER MODE:  SCF:  T  FORCE:  T  STRESS:  F  VC:  F  ENSEMBLE:  F
  @ DRIVER MODE:  SCF:  T  FORCE:  T  STRESS:  F  VC:  F  ENSEMBLE:  F

     Using Slab Decomposition

     bravais-lattice index     =            0
     lattice parameter (alat)  =       1.8897  a.u.
     unit-cell volume          =    6658.9804 (a.u.)^3
     number of atoms/cell      =           56
     number of atomic types    =            5
     number of electrons       =       398.00
     number of Kohn-Sham states=          209
     kinetic-energy cutoff     =      29.3995  Ry
     charge density cutoff     =     293.9946  Ry
     scf convergence threshold =      7.3E-08
     mixing beta               =       0.0500
     number of iterations used =            8  plain     mixing
     Exchange-correlation= BEEF-VDW
                           (   1   4  43  14   2   0   0)

     celldm(1)=   1.889726  celldm(2)=   0.000000  celldm(3)=   0.000000
     celldm(4)=   0.000000  celldm(5)=   0.000000  celldm(6)=   0.000000

     crystal axes: (cart. coord. in units of alat)
               a(1) = (   6.579727   0.000000   0.000000 )
               a(2) = (  -0.000775   5.961596   0.000000 )
               a(3) = (   0.000000   0.000000  25.155947 )

     reciprocal axes: (cart. coord. in units 2 pi/alat)
               b(1) = (  0.151982  0.000020  0.000000 )
               b(2) = (  0.000000  0.167740  0.000000 )
               b(3) = (  0.000000  0.000000  0.039752 )

     PseudoPot. # 1 for Ti read from file:
     /storage/coda1/p-amedford6/0/shared/rich_project_chbe-medford/medford-share/data/pseudos_module/espresso/nninc/pbe/van/Ti.UPF
     MD5 check sum: 8e4df49b7f0d34bbd5052bf3f5ea0213
     Pseudo is Ultrasoft, Zval = 12.0
     Generated by new atomic code, or converted to UPF format
     Using radial grid of  851 points,  6 beta functions with:
                l(1) =   0
                l(2) =   0
                l(3) =   1
                l(4) =   1
                l(5) =   2
                l(6) =   2
     Q(r) pseudized with  8 coefficients,  rinner =    1.000   1.000   1.000
                                                       1.000   1.000

     PseudoPot. # 2 for O  read from file:
     /storage/coda1/p-amedford6/0/shared/rich_project_chbe-medford/medford-share/data/pseudos_module/espresso/nninc/pbe/van/O.UPF
     MD5 check sum: 78c19812648e8988a0fe644b0f25305e
     Pseudo is Ultrasoft, Zval =  6.0
     Generated by new atomic code, or converted to UPF format
     Using radial grid of  737 points,  4 beta functions with:
                l(1) =   0
                l(2) =   0
                l(3) =   1
                l(4) =   1
     Q(r) pseudized with  8 coefficients,  rinner =    0.800   0.800   0.800

     PseudoPot. # 3 for N  read from file:
     /storage/coda1/p-amedford6/0/shared/rich_project_chbe-medford/medford-share/data/pseudos_module/espresso/nninc/pbe/van/N.UPF
     MD5 check sum: 90d10febe142ad51ac9d5be1deb811c4
     Pseudo is Ultrasoft, Zval =  5.0
     Generated by new atomic code, or converted to UPF format
     Using radial grid of  729 points,  4 beta functions with:
                l(1) =   0
                l(2) =   0
                l(3) =   1
                l(4) =   1
     Q(r) pseudized with  8 coefficients,  rinner =    0.800   0.800   0.800

     PseudoPot. # 4 for C  read from file:
     /storage/coda1/p-amedford6/0/shared/rich_project_chbe-medford/medford-share/data/pseudos_module/espresso/nninc/pbe/van/C.UPF
     MD5 check sum: 1a69bf6b8db32088f5b2163dbdb77a27
     Pseudo is Ultrasoft, Zval =  4.0
     Generated by new atomic code, or converted to UPF format
     Using radial grid of  721 points,  4 beta functions with:
                l(1) =   0
                l(2) =   0
                l(3) =   1
                l(4) =   1
     Q(r) pseudized with  8 coefficients,  rinner =    0.800   0.800   0.800

     PseudoPot. # 5 for H  read from file:
     /storage/coda1/p-amedford6/0/shared/rich_project_chbe-medford/medford-share/data/pseudos_module/espresso/nninc/pbe/van/H.UPF
     MD5 check sum: b5ee9d7bfd3a09ee7748110bda690ff7
     Pseudo is Ultrasoft, Zval =  1.0
     Generated by new atomic code, or converted to UPF format
     Using radial grid of  615 points,  1 beta functions with:
                l(1) =   0
     Q(r) pseudized with  8 coefficients,  rinner =    0.800

     atomic species   valence    mass     pseudopotential
        Ti1           12.00    47.86700     Ti( 1.00)
        O1             6.00    15.99900     O ( 1.00)
        N1             5.00    14.00700     N ( 1.00)
        C1             4.00    12.01100     C ( 1.00)
        H1             1.00     1.00800     H ( 1.00)

     No symmetry found

   Cartesian axes

     site n.     atom                  positions (alat units)
         1           Ti1 tau(   1) = (   0.0004258   2.9801865   6.0000000  )
         2           Ti1 tau(   2) = (   3.2906075   1.4906267   6.0002472  )
         3           O1  tau(   3) = (   0.0006271   0.0005054   7.9858123  )
         4           O1  tau(   4) = (   3.2906025   0.0005020   7.3038282  )
         5           O1  tau(   5) = (   4.5942328   1.4918067   9.2879030  )
         6           O1  tau(   6) = (   1.9868534   1.4903216   9.2879459  )
         7           Ti1 tau(   7) = (   3.2907910   2.8959150   9.1758416  )
         8           Ti1 tau(   8) = (   0.0015273   1.4827037   9.2680791  )
         9           O1  tau(   9) = (   3.3120675   0.0079458  11.3762204  )
        10           O1  tau(  10) = (   0.0116148   5.9584955  10.6183126  )
        11           O1  tau(  11) = (   1.3148726   1.5133626  12.6447579  )
        12           O1  tau(  12) = (   5.3140862   1.5122126  12.6508301  )
        13           Ti1 tau(  13) = (   0.0289753   2.9995974  12.5105963  )
        14           Ti1 tau(  14) = (   3.3300932   1.5144954  12.5190352  )
        15           O1  tau(  15) = (   0.0303621   0.0967028  14.6836000  )
        16           O1  tau(  16) = (   3.3188409   0.0235386  14.0025835  )
        17           O1  tau(  17) = (   4.5661268   1.5053193  16.2317874  )
        18           O1  tau(  18) = (   2.0488868   1.5039614  16.2002260  )
        19           Ti1 tau(  19) = (   3.3211226   2.9745325  15.7560014  )
        20           Ti1 tau(  20) = (   0.0641794   1.4487855  16.0607878  )
        21           O1  tau(  21) = (   3.2904802   0.0005063   4.7018136  )
        22           O1  tau(  22) = (   0.0207051   5.8381987  17.2232637  )
        23           O1  tau(  23) = (   1.3043587   1.4918075   6.0039043  )
        24           O1  tau(  24) = (   5.2767064   1.4903225   6.0039473  )
        25           Ti1 tau(  25) = (   0.0000382   5.9609847   6.0000000  )
        26           Ti1 tau(  26) = (   3.2902200   4.4714249   6.0002472  )
        27           O1  tau(  27) = (   0.0002396   2.9813036   7.9858123  )
        28           O1  tau(  28) = (   3.2902150   2.9813002   7.3038282  )
        29           O1  tau(  29) = (   4.5938453   4.4726049   9.2879030  )
        30           O1  tau(  30) = (   1.9864658   4.4711199   9.2879459  )
        31           Ti1 tau(  31) = (   3.2891106   5.8743827   9.1763621  )
        32           Ti1 tau(  32) = (   0.0006254   4.4649316   9.2693709  )
        33           O1  tau(  33) = (   3.3137607   3.0039157  11.3695003  )
        34           O1  tau(  34) = (   0.0092240   2.9805883  10.6323155  )
        35           O1  tau(  35) = (   1.3103219   4.4840529  12.6837359  )
        36           O1  tau(  36) = (   5.3166572   4.4842854  12.6901167  )
        37           Ti1 tau(  37) = (   0.0376818   0.0300362  12.4998423  )
        38           Ti1 tau(  38) = (   3.3279277   4.4933691  12.5326681  )
        39           O1  tau(  39) = (   0.0236785   2.9473731  14.9547601  )
        40           O1  tau(  40) = (   3.3158584   2.9778716  13.9675922  )
        41           O1  tau(  41) = (   4.5769684   4.4551829  16.1482216  )
        42           O1  tau(  42) = (   2.0574928   4.4544973  16.1629196  )
        43           Ti1 tau(  43) = (   3.3270828   0.0048838  15.7999907  )
        44           Ti1 tau(  44) = (   0.0216784   4.6657176  15.8371636  )
        45           O1  tau(  45) = (   3.2900926   2.9813045   4.7018136  )
        46           O1  tau(  46) = (   1.3039711   4.4726057   6.0039043  )
        47           O1  tau(  47) = (   5.2763189   4.4711207   6.0039473  )
        48           N1  tau(  48) = (   1.0300599   3.1028741  18.8625222  )
        49           N1  tau(  49) = (   6.4529598   2.6395754  18.1308714  )
        50           C1  tau(  50) = (   0.6566364   3.8075245  20.0867497  )
        51           H1  tau(  51) = (   6.5334193   4.6337433  19.9095685  )
        52           H1  tau(  52) = (   0.2127083   3.1054723  20.7945791  )
        53           H1  tau(  53) = (   1.5644534   4.2160081  20.5287796  )
        54           H1  tau(  54) = (   5.6912064   3.3371340  18.1715891  )
        55           H1  tau(  55) = (   6.1153184   1.7991689  18.5966666  )
        56           H1  tau(  56) = (   1.4989484   3.7555826  18.2384742  )

     number of k points=    10  Fermi-Dirac smearing, width (Ry)=  0.0073
                       cart. coord. in units 2pi/alat
        k(    1) = (   0.0000000   0.0000000   0.0000000), wk =   0.1250000
        k(    2) = (   0.0000000   0.0419351   0.0000000), wk =   0.2500000
        k(    3) = (   0.0000000  -0.0838702   0.0000000), wk =   0.1250000
        k(    4) = (   0.0379955   0.0000049   0.0000000), wk =   0.2500000
        k(    5) = (   0.0379955   0.0419400   0.0000000), wk =   0.2500000
        k(    6) = (   0.0379955  -0.0838652   0.0000000), wk =   0.2500000
        k(    7) = (   0.0379955  -0.0419301   0.0000000), wk =   0.2500000
        k(    8) = (  -0.0759910  -0.0000099   0.0000000), wk =   0.1250000
        k(    9) = (  -0.0759910   0.0419252   0.0000000), wk =   0.2500000
        k(   10) = (  -0.0759910  -0.0838800   0.0000000), wk =   0.1250000

     Initial potential from superposition of free atoms

     starting charge  381.99914, renormalised to  398.00000

     negative rho (up, down):  1.340E-02 0.000E+00

     %%%%%%%%%%%%%%%%%%%%%%%%%%%%%%%%%%%%%%%%%%%%%%%%%%%%%%%%%%%%%%%%%%%%%%%%
     %                                                                      %
     % You are using vdW-DF, which was implemented by the Thonhauser group. %
     % Please cite the following two papers that made this development      %
     % possible and the two reviews that describe the various versions:     %
     %                                                                      %
     %   T. Thonhauser et al., PRL 115, 136402 (2015).                      %
     %   T. Thonhauser et al., PRB 76, 125112 (2007).                       %
     %   K. Berland et al., Rep. Prog. Phys. 78, 066501 (2015).             %
     %   D.C. Langreth et al., J. Phys.: Condens. Matter 21, 084203 (2009). %
     %                                                                      %
     %                                                                      %
     % If you are calculating the stress with vdW-DF, please also cite:     %
     %                                                                      %
     %   R. Sabatini et al., J. Phys.: Condens. Matter 24, 424209 (2012).   %
     %                                                                      %
     %%%%%%%%%%%%%%%%%%%%%%%%%%%%%%%%%%%%%%%%%%%%%%%%%%%%%%%%%%%%%%%%%%%%%%%%

     Adding external electric field

     Computed dipole along edir(3) :
        Dipole              -11.7464 Ry au,        -29.8564 Debye
        Dipole field         -0.0222 Ry au,

        Potential amp.        2.0549 Ry
        Total length         46.3494 bohr

     Starting wfcs are  302 atomic wfcs
  @ DRIVER MODE: Message from server: STATUS
  @ DRIVER MODE: Message from server: POSDATA
  @ DRIVER MODE: Reading and sharing cell
  @ DRIVER MODE: Reading and sharing positions
  @ DRIVER MODE: Received positions

     Self-consistent Calculation

     iteration #  1     ecut=    29.40 Ry     beta= 0.05
     Davidson diagonalization with overlap
     c_bands:  1 eigenvalues not converged
     c_bands:  1 eigenvalues not converged
     c_bands:  1 eigenvalues not converged
     c_bands:  3 eigenvalues not converged
     c_bands:  3 eigenvalues not converged
     c_bands:  3 eigenvalues not converged
     c_bands:  4 eigenvalues not converged
     c_bands:  2 eigenvalues not converged
     ethr =  1.00E-05,  avg # of iterations = 21.6

[...]

     total energy              =   -2428.10557831 Ry
     estimated scf accuracy    <    5789.72744447 Ry

     iteration #  2     ecut=    29.40 Ry     beta= 0.05
     Davidson diagonalization with overlap
     ethr =  1.00E-02,  avg # of iterations = 22.0

[...]

     iteration # 59     ecut=    29.40 Ry     beta= 0.05
     Davidson diagonalization with overlap
     ethr =  3.07E-11,  avg # of iterations =  6.4

[...]

     total energy              =   -2942.85965169 Ry
     estimated scf accuracy    <       0.00000009 Ry

     iteration # 60     ecut=    29.40 Ry     beta= 0.05
     Davidson diagonalization with overlap
     c_bands:  1 eigenvalues not converged
     ethr =  2.37E-11,  avg # of iterations = 12.6

     negative rho (up, down):  1.464E-02 0.000E+00

     Adding external electric field

     Computed dipole along edir(3) :
        Dipole                1.2226 Ry au,          3.1074 Debye
        Dipole field          0.0023 Ry au,

        Potential amp.       -0.2139 Ry
        Total length         46.3494 bohr

     End of self-consistent calculation

          k = 0.0000 0.0000 0.0000 ( 18029 PWs)   bands (ev):

   -55.3494 -55.3125 -55.3016 -55.2707 -55.2674 -55.2332 -55.2260 -55.1906
   -55.1696 -55.1459 -55.1351 -55.1331 -55.0995 -55.0276 -54.3312 -54.2972
   -31.9179 -31.8023 -31.7941 -31.7145 -31.6650 -31.6590 -31.6523 -31.6388
   -31.5908 -31.5901 -31.5588 -31.5536 -31.5466 -31.5307 -31.5193 -31.5118
   -31.5047 -31.4893 -31.4868 -31.4668 -31.4541 -31.4461 -31.4193 -31.4154
   -31.4041 -31.4020 -31.4005 -31.3723 -31.3587 -31.3564 -31.3515 -31.3320
   -31.3288 -31.3207 -31.3194 -31.3175 -31.2833 -31.2693 -31.2615 -31.2445
   -31.2338 -31.2095 -30.7406 -30.6463 -30.6243 -30.5570 -30.4702 -30.3593
   -17.7891 -16.1855 -15.9179 -15.7780 -15.6681 -15.5493 -15.4306 -15.4111
   -15.2790 -15.1962 -15.0762 -15.0534 -15.0267 -15.0076 -14.9953 -14.9803
   -14.8949 -14.8888 -14.8713 -14.8442 -14.8377 -14.7951 -14.7876 -14.7480
   -14.7261 -14.7253 -14.5965 -14.5089 -14.4374 -14.2018 -13.1588 -12.8342
   -12.7167  -9.7246  -6.3557  -5.3910  -4.8795  -3.5375  -3.4955  -3.3693
    -3.2792  -3.2641  -3.2426  -3.1061  -2.9527  -2.7827  -2.7694  -2.7543
    -2.6392  -2.5616  -2.5553  -2.5305  -2.3792  -2.3575  -2.3066  -2.2410
    -2.2134  -2.1653  -2.1546  -2.1333  -2.1139  -2.0939  -2.0857  -1.9722
    -1.9211  -1.8282  -1.7725  -1.7449  -1.7093  -1.6816  -1.6664  -1.6392
    -1.6313  -1.5886  -1.5613  -1.5397  -1.4885  -1.3765  -1.2675  -1.2373
    -1.1401  -0.9879  -0.9521  -0.9417  -0.9300  -0.8537  -0.8366  -0.7880
    -0.7357  -0.7281  -0.6969  -0.5861  -0.5277  -0.4625  -0.3961  -0.3843
    -0.3376  -0.2758  -0.1633  -0.1391  -0.1168  -0.0918   0.0022   0.0417
     0.0867   0.1614   0.1807   0.1943   0.3011   0.3085   0.3890   0.4011
     0.4464   0.5331   0.5674   0.5897   0.5935   0.6070   0.6368   0.7040
     0.7284   0.7547   0.8298   0.9537   1.0268   1.1854   1.2486   1.2622
     1.5921   1.5961   1.6912   1.8750   2.2674   2.3156   3.7480   3.8175
     3.8924   3.8991   3.9110   3.9847   4.2219   4.2382   4.2506   4.2568
     4.2915

[...]

          k = 0.0380-0.0419 0.0000 ( 17876 PWs)   bands (ev):

[...]

          k =-0.0760-0.0000 0.0000 ( 17886 PWs)   bands (ev):

[...]

          k =-0.0760-0.0839 0.0000 ( 17948 PWs)   bands (ev):

   -55.3352 -55.3265 -55.2846 -55.2843 -55.2691 -55.2298 -55.2124 -55.2041
   -55.1540 -55.1502 -55.1492 -55.1166 -55.1162 -55.0289 -54.3142 -54.3141
   -31.7251 -31.7224 -31.7186 -31.6348 -31.6093 -31.6090 -31.6064 -31.5760
   -31.5759 -31.5576 -31.5502 -31.5480 -31.5419 -31.5122 -31.5051 -31.4869
   -31.4866 -31.4827 -31.4793 -31.4741 -31.4711 -31.4702 -31.4333 -31.4280
   -31.4259 -31.4213 -31.4172 -31.4056 -31.4043 -31.4039 -31.3970 -31.3875
   -31.3833 -31.3671 -31.3637 -31.3475 -31.3471 -31.3376 -31.2976 -31.2971
   -31.2873 -31.2386 -30.6370 -30.6369 -30.5532 -30.5531 -30.5137 -30.5136
   -17.7844 -15.7090 -15.5969 -15.5507 -15.3776 -15.3553 -15.3328 -15.3180
   -15.1900 -15.1717 -15.1436 -15.1173 -15.0921 -15.0646 -15.0535 -15.0483
   -14.9659 -14.9540 -14.9466 -14.9304 -14.8626 -14.8597 -14.8553 -14.8495
   -14.7990 -14.7964 -14.7154 -14.7024 -14.7010 -14.5044 -13.1599 -12.8182
   -12.8182  -9.7210  -6.3434  -5.3907  -4.8852  -3.4681  -2.8654  -2.8302
    -2.8065  -2.7834  -2.5931  -2.5550  -2.5181  -2.5056  -2.4065  -2.3643
    -2.3466  -2.3393  -2.2689  -2.2656  -2.2347  -2.2047  -2.1838  -2.1666
    -2.1528  -2.1309  -2.1062  -2.0767  -2.0707  -2.0552  -2.0015  -1.9988
    -1.9828  -1.9612  -1.9434  -1.9224  -1.9062  -1.8496  -1.7272  -1.7169
    -1.6626  -1.5564  -1.5518  -1.4716  -1.4665  -1.4225  -1.3945  -1.3829
    -1.3552  -1.1754  -1.1217  -1.0954  -1.0879  -1.0754  -0.9680  -0.9335
    -0.8754  -0.8597  -0.8336  -0.7356  -0.6852  -0.6807  -0.5988  -0.5676
    -0.5281  -0.4865  -0.3856  -0.3561  -0.3360  -0.3075  -0.3041  -0.2504
    -0.2449  -0.1683  -0.1205  -0.0844  -0.0700  -0.0389   0.1608   0.1702
     0.1885   0.3354   0.3579   0.4986   0.5423   0.5840   0.6450   0.6969
     0.7625   0.8033   0.9298   0.9578   0.9585   1.0292   1.0498   1.0570
     1.1072   1.1091   2.0477   2.0483   2.1355   2.1358   3.8910   3.9955
     4.0103   4.0557   4.1656   4.2391   4.2627   4.2895   4.3322   4.3350
     4.4059

     the Fermi energy is     3.8108 ev

!    total energy              =   -2942.85970157 Ry
     estimated scf accuracy    <       0.00000007 Ry
     smearing contrib. (-TS)   =      -0.03701601 Ry
     internal energy E=F+TS    =   -2942.82268556 Ry

     The total energy is F=E-TS. E is the sum of the following terms:
     one-electron contribution =  -23389.40514440 Ry
     hartree contribution      =   11787.23643952 Ry
     xc contribution           =    -487.75102733 Ry
     ewald contribution        =    9147.09422606 Ry
     electric field correction =       0.00282060 Ry

     convergence has been achieved in  60 iterations

     Forces acting on atoms (cartesian axes, Ry/au):

     atom    1 type  1   force =     0.00000247   -0.00025998    0.09310154
     atom    2 type  1   force =    -0.00014273   -0.00043645   -0.17825081
     atom    3 type  2   force =     0.00007524   -0.00009787   -0.02023686
     atom    4 type  2   force =     0.00001519   -0.00186568    0.05880666
     atom    5 type  2   force =    -0.01021132   -0.00053895    0.00775009
     atom    6 type  2   force =     0.01226277    0.00007942    0.00821144
     atom    7 type  1   force =     0.00039068    0.00328756   -0.01426088
     atom    8 type  1   force =    -0.00045546    0.00046526   -0.00456126
     atom    9 type  2   force =    -0.00002770   -0.00062154   -0.00035588
     atom   10 type  2   force =    -0.00059853    0.00090439   -0.00142621
     atom   11 type  2   force =    -0.00038049   -0.00012601    0.00023307
     atom   12 type  2   force =     0.00007239   -0.00007179    0.00004244
     atom   13 type  1   force =     0.00004640   -0.00032460    0.00017714
     atom   14 type  1   force =    -0.00035616    0.00012756    0.00041639
     atom   15 type  2   force =    -0.00015474    0.00076977    0.00026974
     atom   16 type  2   force =    -0.00009029   -0.00019359    0.00030780
     atom   17 type  2   force =    -0.00047822    0.00000320    0.00034907
     atom   18 type  2   force =     0.00013986   -0.00021732   -0.00010684
     atom   19 type  1   force =     0.00036048    0.00022884    0.00096532
     atom   20 type  1   force =    -0.00067780   -0.00056197    0.00027883
     atom   21 type  2   force =     0.00000448   -0.00010215    0.10391971
     atom   22 type  2   force =    -0.00020289    0.00005528   -0.00052311
     atom   23 type  2   force =    -0.07035334   -0.00023479   -0.02687429
     atom   24 type  2   force =     0.07025070    0.00019226   -0.02695648
     atom   25 type  1   force =     0.00001864   -0.00027328    0.09276004
     atom   26 type  1   force =    -0.00011467   -0.00044882   -0.17827708
     atom   27 type  2   force =     0.00014041   -0.00032400   -0.01925959
     atom   28 type  2   force =     0.00008257   -0.00154785    0.05820666
     atom   29 type  2   force =    -0.01021347   -0.00032893    0.00696823
     atom   30 type  2   force =     0.01216490   -0.00008417    0.00750371
     atom   31 type  1   force =     0.00040089    0.00495959   -0.01539239
     atom   32 type  1   force =    -0.00038039   -0.00033841   -0.00466603
     atom   33 type  2   force =    -0.00021845   -0.00047285    0.00017894
     atom   34 type  2   force =    -0.00014088    0.00364877   -0.00061063
     atom   35 type  2   force =     0.00002966   -0.00055959    0.00032022
     atom   36 type  2   force =    -0.00018810   -0.00053009   -0.00003383
     atom   37 type  1   force =    -0.00026505   -0.00050340    0.00048925
     atom   38 type  1   force =    -0.00018864   -0.00089396    0.00044507
     atom   39 type  2   force =    -0.00047414   -0.00050746    0.00055179
     atom   40 type  2   force =     0.00001679   -0.00047887   -0.00042721
     atom   41 type  2   force =    -0.00078637   -0.00007625   -0.00013671
     atom   42 type  2   force =     0.00029602   -0.00024468   -0.00032718
     atom   43 type  1   force =     0.00005754   -0.00027445   -0.00003993
     atom   44 type  1   force =    -0.00005064   -0.00072003    0.00056805
     atom   45 type  2   force =     0.00001141   -0.00014187    0.10389488
     atom   46 type  2   force =    -0.07040467   -0.00017048   -0.02688825
     atom   47 type  2   force =     0.07026875    0.00026947   -0.02695655
     atom   48 type  3   force =     0.00112400    0.00116919   -0.00036079
     atom   49 type  3   force =    -0.00524193    0.00893913   -0.00006444
     atom   50 type  4   force =    -0.00169937   -0.00019426   -0.00001048
     atom   51 type  5   force =    -0.00059793    0.00008349    0.00003032
     atom   52 type  5   force =     0.00027324   -0.00008514    0.00031828
     atom   53 type  5   force =     0.00102417    0.00024755    0.00091962
     atom   54 type  5   force =     0.00586595   -0.00867380   -0.00077197
     atom   55 type  5   force =    -0.00044020   -0.00096119   -0.00009071
     atom   56 type  5   force =     0.00013899   -0.00094424   -0.00011791

     Total force =     0.366398     Total SCF correction =     0.000756
  @ DRIVER MODE: Message from server: STATUS
  @ DRIVER MODE: Message from server: GETFORCE
  @ DRIVER MODE: Returning v,forces,stress,ensemble

     Writing output data file ./calc.save/
  @ DRIVER MODE: Message from server: EXIT
  @ DRIVE MODE: Exiting

     General routines

     Parallel routines

   This run was terminated on:  11:33:55   9Sep2021

   JOB DONE.