     Program PWSCF v.6.7GPU starts on 18Oct2021 at 11:58:50

     R & G space division:  proc/nbgrp/npool/nimage =       8
     Reading input from /storage/home/hcoda1/3/ntian30/research/carbon/CxH_vib/Thiel_calc/ads_slab/H3N_perslab/out_0001/pw.inp
Warning: card &CELL ignored
Warning: card   CELL_DYNAMICS='IPI', ignored
Warning: card / ignored

     Current dimensions of program PWSCF are:
     Max number of different atomic species (ntypx) = 10
     Max number of k-points (npk) =  40000
     Max angular momentum in pseudopotentials (lmaxx) =  3
     Presently no symmetry can be used with electric field

     Message from routine cell_base_init:
     DEPRECATED: use true lattice parameter, not A to a.u. conversion factor

     IMPORTANT: XC functional enforced from input :
     Exchange-correlation= BEEF-VDW
                           (   1   4  43  14   2   0   0)
     Any further DFT definition will be discarded
     Please, verify this is what you really want

  @ DRIVER MODE: Connecting to
 qe_1139763_3255141.sched-torque.pace.gatech.eduvqsbffc8_scratch
  using UNIX socket
  @ DRIVER MODE: Message from server: STATUS
  @ DRIVER MODE: Message from server: INIT
  @ DRIVER MODE: Receiving replica           0          -1
  @ DRIVER MODE: Receiving encoded integer          25
  @ DRIVER MODE:  SCF:  T  FORCE:  T  STRESS:  F  VC:  F  ENSEMBLE:  F
  @ DRIVER MODE:  SCF:  T  FORCE:  T  STRESS:  F  VC:  F  ENSEMBLE:  F

     Using Slab Decomposition

     bravais-lattice index     =            0
     lattice parameter (alat)  =       1.8897  a.u.
     unit-cell volume          =    9988.4706 (a.u.)^3
     number of atoms/cell      =           57
     number of atomic types    =            4
     number of electrons       =       434.00
     number of Kohn-Sham states=          227
     kinetic-energy cutoff     =      29.3995  Ry
     charge density cutoff     =     293.9946  Ry
     scf convergence threshold =      7.3E-08
     mixing beta               =       0.0500
     number of iterations used =            8  plain     mixing
     Exchange-correlation= BEEF-VDW
                           (   1   4  43  14   2   0   0)

     celldm(1)=   1.889726  celldm(2)=   0.000000  celldm(3)=   0.000000
     celldm(4)=   0.000000  celldm(5)=   0.000000  celldm(6)=   0.000000

     crystal axes: (cart. coord. in units of alat)
               a(1) = (   6.579727   0.000000   0.000000 )
               a(2) = (  -0.001163   8.942395   0.000000 )
               a(3) = (   0.000000   0.000000  25.155947 )

     reciprocal axes: (cart. coord. in units 2 pi/alat)
               b(1) = (  0.151982  0.000020  0.000000 )
               b(2) = (  0.000000  0.111827  0.000000 )
               b(3) = (  0.000000  0.000000  0.039752 )

     PseudoPot. # 1 for O  read from file:
     /storage/coda1/p-amedford6/0/shared/rich_project_chbe-medford/medford-share/data/pseudos_module/espresso/nninc/pbe/van/O.UPF
     MD5 check sum: 78c19812648e8988a0fe644b0f25305e
     Pseudo is Ultrasoft, Zval =  6.0
     Generated by new atomic code, or converted to UPF format
     Using radial grid of  737 points,  4 beta functions with:
                l(1) =   0
                l(2) =   0
                l(3) =   1
                l(4) =   1
     Q(r) pseudized with  8 coefficients,  rinner =    0.800   0.800   0.800

     PseudoPot. # 2 for Ti read from file:
     /storage/coda1/p-amedford6/0/shared/rich_project_chbe-medford/medford-share/data/pseudos_module/espresso/nninc/pbe/van/Ti.UPF
     MD5 check sum: 8e4df49b7f0d34bbd5052bf3f5ea0213
     Pseudo is Ultrasoft, Zval = 12.0
     Generated by new atomic code, or converted to UPF format
     Using radial grid of  851 points,  6 beta functions with:
                l(1) =   0
                l(2) =   0
                l(3) =   1
                l(4) =   1
                l(5) =   2
                l(6) =   2
     Q(r) pseudized with  8 coefficients,  rinner =    1.000   1.000   1.000
                                                       1.000   1.000

     PseudoPot. # 3 for N  read from file:
     /storage/coda1/p-amedford6/0/shared/rich_project_chbe-medford/medford-share/data/pseudos_module/espresso/nninc/pbe/van/N.UPF
     MD5 check sum: 90d10febe142ad51ac9d5be1deb811c4
     Pseudo is Ultrasoft, Zval =  5.0
     Generated by new atomic code, or converted to UPF format
     Using radial grid of  729 points,  4 beta functions with:
                l(1) =   0
                l(2) =   0
                l(3) =   1
                l(4) =   1
     Q(r) pseudized with  8 coefficients,  rinner =    0.800   0.800   0.800

     PseudoPot. # 4 for H  read from file:
     /storage/coda1/p-amedford6/0/shared/rich_project_chbe-medford/medford-share/data/pseudos_module/espresso/nninc/pbe/van/H.UPF
     MD5 check sum: b5ee9d7bfd3a09ee7748110bda690ff7
     Pseudo is Ultrasoft, Zval =  1.0
     Generated by new atomic code, or converted to UPF format
     Using radial grid of  615 points,  1 beta functions with:
                l(1) =   0
     Q(r) pseudized with  8 coefficients,  rinner =    0.800

     atomic species   valence    mass     pseudopotential
        O1             6.00    15.99900     O ( 1.00)
        Ti1           12.00    47.86700     Ti( 1.00)
        N1             5.00    14.00700     N ( 1.00)
        H1             1.00     1.00800     H ( 1.00)

     No symmetry found

   Cartesian axes

     site n.     atom                  positions (alat units)
         1           O1  tau(   1) = (   0.0007354   0.0005023  10.5931620  )
         2           O1  tau(   2) = (   3.2892737   8.9266665  13.9077113  )
         3           O1  tau(   3) = (   0.0003737   0.0634608  17.2091987  )
         4           O1  tau(   4) = (   0.0006271   0.0005054   7.9858123  )
         5           O1  tau(   5) = (   3.2894549   8.9236348  11.1922400  )
         6           O1  tau(   6) = (   0.0007594   0.0424130  14.5914122  )
         7           O1  tau(   7) = (   1.9868534   1.4903216   9.2879459  )
         8           O1  tau(   8) = (   5.2335215   1.6100056  12.5826540  )
         9           O1  tau(   9) = (   2.0120305   1.5790738  16.0735584  )
        10           Ti1 tau(  10) = (   0.0007404   1.4906270   9.2895810  )
        11           Ti1 tau(  11) = (   3.2904007   1.3515224  12.5049090  )
        12           Ti1 tau(  12) = (   0.0008134   1.3014534  15.8121839  )
        13           O1  tau(  13) = (   4.5942328   1.4918067   9.2879030  )
        14           O1  tau(  14) = (   1.3469525   1.6100319  12.5826758  )
        15           O1  tau(  15) = (   4.5681566   1.5786403  16.0735304  )
        16           Ti1 tau(  16) = (   3.2902859   2.9801868   9.2893338  )
        17           Ti1 tau(  17) = (   0.0004417   2.8262804  12.4730395  )
        18           Ti1 tau(  18) = (   3.2905157   2.9388596  15.7158142  )
        19           O1  tau(  19) = (   0.0003479   2.9813005  10.5931620  )
        20           O1  tau(  20) = (   3.2902015   2.9695883  13.9046685  )
        21           O1  tau(  21) = (   0.0002396   2.9813036   7.9858123  )
        22           O1  tau(  22) = (   3.2902718   2.9641339  11.1914307  )
        23           O1  tau(  23) = (  -0.0000899   3.0294973  14.7210216  )
        24           O1  tau(  24) = (   1.9864658   4.4711199   9.2879459  )
        25           O1  tau(  25) = (   5.2357187   4.5858611  12.5822034  )
        26           O1  tau(  26) = (   2.0270018   4.4833747  16.1008177  )
        27           Ti1 tau(  27) = (   0.0003529   4.4714252   9.2895810  )
        28           Ti1 tau(  28) = (   3.2904530   4.3245040  12.5108242  )
        29           Ti1 tau(  29) = (   0.0003810   4.5948835  15.7280669  )
        30           O1  tau(  30) = (   4.5938453   4.4726049   9.2879030  )
        31           O1  tau(  31) = (   1.3445752   4.5857260  12.5820564  )
        32           O1  tau(  32) = (   4.5522270   4.4834529  16.1006533  )
        33           Ti1 tau(  33) = (   3.2898983   5.9609850   9.2893338  )
        34           Ti1 tau(  34) = (   0.0007043   5.8101956  12.4536477  )
        35           Ti1 tau(  35) = (   3.2895928   5.9233606  15.7233983  )
        36           O1  tau(  36) = (  -0.0000397   5.9620987  10.5931620  )
        37           O1  tau(  37) = (   3.2897410   5.9500339  13.9181164  )
        38           O1  tau(  38) = (  -0.0004871   5.9201338  17.2318970  )
        39           O1  tau(  39) = (  -0.0001480   5.9621018   7.9858123  )
        40           O1  tau(  40) = (   3.2899950   5.9414595  11.1912600  )
        41           O1  tau(  41) = (   0.0000049   5.9985156  14.6402937  )
        42           O1  tau(  42) = (   1.9860782   7.4519181   9.2879459  )
        43           O1  tau(  43) = (   5.2353497   7.5549275  12.5688660  )
        44           O1  tau(  44) = (   2.0314850   7.4951575  16.0543809  )
        45           Ti1 tau(  45) = (  -0.0000347   7.4522234   9.2895810  )
        46           Ti1 tau(  46) = (   3.2900928   7.3055020  12.5043323  )
        47           Ti1 tau(  47) = (  -0.0004111   7.4010535  16.2820301  )
        48           O1  tau(  48) = (   4.5934577   7.4534031   9.2879030  )
        49           O1  tau(  49) = (   1.3438456   7.5546912  12.5687420  )
        50           O1  tau(  50) = (   4.5473438   7.4951267  16.0540408  )
        51           Ti1 tau(  51) = (   3.2895107   8.9417832   9.2893338  )
        52           Ti1 tau(  52) = (   0.0000527   8.7739242  12.4740011  )
        53           Ti1 tau(  53) = (   3.2894619   8.8771818  15.7086625  )
        54           N1  tau(  54) = (   6.5692827   2.9851808  17.9254469  )
        55           H1  tau(  55) = (   6.5791554   2.0483488  18.3259764  )
        56           H1  tau(  56) = (   5.7637502   3.4703839  18.2861980  )
        57           H1  tau(  57) = (   0.8147632   3.4704782  18.2867735  )

     number of k points=    10  Fermi-Dirac smearing, width (Ry)=  0.0073
                       cart. coord. in units 2pi/alat
        k(    1) = (   0.0000000   0.0000000   0.0000000), wk =   0.1250000
        k(    2) = (   0.0000000   0.0279567   0.0000000), wk =   0.2500000
        k(    3) = (   0.0000000  -0.0559134   0.0000000), wk =   0.1250000
        k(    4) = (   0.0379955   0.0000049   0.0000000), wk =   0.2500000
        k(    5) = (   0.0379955   0.0279617   0.0000000), wk =   0.2500000
        k(    6) = (   0.0379955  -0.0559085   0.0000000), wk =   0.2500000
        k(    7) = (   0.0379955  -0.0279518   0.0000000), wk =   0.2500000
        k(    8) = (  -0.0759910  -0.0000099   0.0000000), wk =   0.1250000
        k(    9) = (  -0.0759910   0.0279468   0.0000000), wk =   0.2500000
        k(   10) = (  -0.0759910  -0.0559233   0.0000000), wk =   0.1250000

     Initial potential from superposition of free atoms

     starting charge  415.99912, renormalised to  434.00000

     negative rho (up, down):  3.931E-02 0.000E+00

     %%%%%%%%%%%%%%%%%%%%%%%%%%%%%%%%%%%%%%%%%%%%%%%%%%%%%%%%%%%%%%%%%%%%%%%%
     %                                                                      %
     % You are using vdW-DF, which was implemented by the Thonhauser group. %
     % Please cite the following two papers that made this development      %
     % possible and the two reviews that describe the various versions:     %
     %                                                                      %
     %   T. Thonhauser et al., PRL 115, 136402 (2015).                      %
     %   T. Thonhauser et al., PRB 76, 125112 (2007).                       %
     %   K. Berland et al., Rep. Prog. Phys. 78, 066501 (2015).             %
     %   D.C. Langreth et al., J. Phys.: Condens. Matter 21, 084203 (2009). %
     %                                                                      %
     %                                                                      %
     % If you are calculating the stress with vdW-DF, please also cite:     %
     %                                                                      %
     %   R. Sabatini et al., J. Phys.: Condens. Matter 24, 424209 (2012).   %
     %                                                                      %
     %%%%%%%%%%%%%%%%%%%%%%%%%%%%%%%%%%%%%%%%%%%%%%%%%%%%%%%%%%%%%%%%%%%%%%%%

     Adding external electric field

     Computed dipole along edir(3) :
        Dipole               -2.8168 Ry au,         -7.1597 Debye
        Dipole field         -0.0035 Ry au,

        Potential amp.        0.3285 Ry
        Total length         46.3494 bohr

     Starting wfcs are  327 atomic wfcs
  @ DRIVER MODE: Message from server: STATUS
  @ DRIVER MODE: Message from server: POSDATA
  @ DRIVER MODE: Reading and sharing cell
  @ DRIVER MODE: Reading and sharing positions
  @ DRIVER MODE: Received positions

     Self-consistent Calculation

     iteration #  1     ecut=    29.40 Ry     beta= 0.05
     Davidson diagonalization with overlap
     c_bands:  2 eigenvalues not converged
     c_bands:  2 eigenvalues not converged
     c_bands:  2 eigenvalues not converged
     c_bands:  2 eigenvalues not converged
     c_bands:  5 eigenvalues not converged
     c_bands:  2 eigenvalues not converged
     c_bands:  1 eigenvalues not converged
     c_bands:  1 eigenvalues not converged
     c_bands:  2 eigenvalues not converged
     ethr =  1.00E-05,  avg # of iterations = 20.0

[...]

     total energy              =   -3273.63615461 Ry
     estimated scf accuracy    <      14.14362966 Ry

     iteration #  2     ecut=    29.40 Ry     beta= 0.05
     Davidson diagonalization with overlap
     ethr =  3.26E-03,  avg # of iterations =  1.0

[...]

     iteration # 42     ecut=    29.40 Ry     beta= 0.05
     Davidson diagonalization with overlap
     c_bands:  1 eigenvalues not converged
     ethr =  1.08E-06,  avg # of iterations = 13.9

[...]

     total energy              =   -3272.09260009 Ry
     estimated scf accuracy    <       0.00000013 Ry

     iteration # 65     ecut=    29.40 Ry     beta= 0.05
     Davidson diagonalization with overlap
     ethr =  3.07E-11,  avg # of iterations =  7.9

     negative rho (up, down):  3.697E-02 0.000E+00

     Adding external electric field

     Computed dipole along edir(3) :
        Dipole                1.2569 Ry au,          3.1947 Debye
        Dipole field          0.0016 Ry au,

        Potential amp.       -0.1466 Ry
        Total length         46.3494 bohr

     End of self-consistent calculation

          k = 0.0000 0.0000 0.0000 ( 26871 PWs)   bands (ev):

   -58.0024 -58.0000 -57.9775 -57.9769 -57.9764 -57.8738 -57.8240 -57.7994
   -57.7980 -57.7759 -57.7555 -57.7333 -57.6258 -57.5613 -57.4319 -57.0011
   -56.9779 -56.9702 -34.4041 -34.3816 -34.3811 -34.3711 -34.3674 -34.3358
   -34.3178 -34.3149 -34.3024 -34.2711 -34.2439 -34.2302 -34.2189 -34.1952
   -34.1947 -34.1848 -34.1695 -34.1586 -34.1264 -34.1226 -34.0989 -34.0986
   -34.0933 -34.0863 -34.0786 -34.0477 -34.0326 -34.0301 -34.0233 -34.0033
   -34.0001 -33.9924 -33.9812 -33.9795 -33.9759 -33.9702 -33.9469 -33.9399
   -33.9187 -33.8649 -33.8329 -33.7731 -33.7098 -33.7069 -33.6124 -33.3176
   -33.3162 -33.3079 -33.3023 -33.2953 -33.2260 -33.1650 -33.1565 -33.0252
   -18.8518 -18.4287 -18.2689 -18.2497 -18.2287 -18.2026 -18.0942 -18.0886
   -17.8492 -17.8181 -17.7890 -17.7818 -17.7194 -17.6814 -17.6726 -17.6618
   -17.6336 -17.6289 -17.6203 -17.5730 -17.5278 -17.4842 -17.4598 -17.4392
   -17.4229 -17.4209 -17.3932 -17.3335 -17.3136 -17.2571 -17.1158 -16.9541
   -16.8492 -15.4669 -15.4110 -15.4068  -7.5968  -7.4224  -6.1789  -5.9199
    -5.9075  -5.8290  -5.4566  -5.4458  -5.3560  -5.3501  -5.3345  -5.2657
    -5.2539  -5.2443  -5.2255  -5.1956  -5.1341  -5.1141  -5.0821  -4.9479
    -4.9459  -4.9188  -4.9013  -4.8446  -4.8065  -4.8012  -4.7779  -4.7573
    -4.7275  -4.6740  -4.6587  -4.6217  -4.6143  -4.5055  -4.4411  -4.3119
    -4.2949  -4.2908  -4.2716  -4.2244  -4.1863  -4.1593  -4.1315  -4.0794
    -4.0472  -3.9893  -3.9562  -3.9139  -3.8127  -3.7464  -3.7227  -3.6624
    -3.5669  -3.5293  -3.4201  -3.3973  -3.3320  -3.3153  -3.2520  -3.2381
    -3.1671  -3.1547  -3.1133  -3.0929  -3.0359  -2.9848  -2.9672  -2.9292
    -2.8863  -2.7703  -2.7583  -2.7499  -2.7270  -2.6933  -2.6687  -2.6384
    -2.6285  -2.5888  -2.5350  -2.4871  -2.4607  -2.4183  -2.4089  -2.3580
    -2.3088  -2.2993  -2.2249  -2.2046  -2.1815  -2.1586  -2.0701  -2.0153
    -1.8562  -1.8266  -1.8211  -1.7853  -1.7406  -1.6905  -1.6433  -1.4726
    -1.2334  -1.0311  -0.7441  -0.7036  -0.7023  -0.4447  -0.4389  -0.3124
     0.9724   1.2304   1.2638   1.4465   1.4510   1.5402   1.5889   1.5891
     1.6548   1.6859   1.7419

[...]

          k = 0.0380-0.0280 0.0000 ( 26873 PWs)   bands (ev):

[...]

          k =-0.0760-0.0000 0.0000 ( 26902 PWs)   bands (ev):

[...]

          k =-0.0760-0.0559 0.0000 ( 26868 PWs)   bands (ev):

   -57.9990 -57.9940 -57.9935 -57.9786 -57.9682 -57.8736 -57.8163 -57.8143
   -57.7903 -57.7728 -57.7610 -57.7313 -57.6256 -57.5615 -57.4318 -56.9954
   -56.9888 -56.9650 -34.4748 -34.4454 -34.3870 -34.3784 -34.3341 -34.3330
   -34.3285 -34.3279 -34.2790 -34.2418 -34.2061 -34.1905 -34.1901 -34.1739
   -34.1657 -34.1432 -34.1430 -34.1355 -34.1320 -34.1235 -34.1189 -34.0855
   -34.0753 -34.0706 -34.0677 -34.0617 -34.0551 -34.0390 -34.0309 -34.0265
   -34.0204 -34.0123 -34.0118 -33.9942 -33.9894 -33.9746 -33.9621 -33.9466
   -33.9173 -33.8374 -33.8199 -33.7771 -33.7107 -33.7081 -33.6424 -33.4038
   -33.3184 -33.3126 -33.2899 -33.2084 -33.2004 -33.1392 -33.1258 -33.1182
   -18.5335 -18.5176 -18.2092 -18.1237 -18.1080 -18.0837 -18.0706 -18.0208
   -17.9395 -17.8817 -17.8771 -17.8188 -17.7800 -17.7699 -17.7337 -17.7267
   -17.7104 -17.6993 -17.6680 -17.6391 -17.6374 -17.5377 -17.4536 -17.4212
   -17.4073 -17.3721 -17.3595 -17.3516 -17.2968 -17.2359 -17.1498 -17.0635
   -16.7445 -15.4669 -15.4618 -15.3466  -7.6059  -7.4363  -5.7891  -5.7790
    -5.7685  -5.7030  -5.3812  -5.3028  -5.2712  -5.2566  -5.1723  -5.1658
    -5.1639  -5.1503  -5.1472  -5.1239  -5.0955  -5.0827  -5.0298  -5.0207
    -5.0178  -4.9543  -4.9140  -4.9050  -4.8860  -4.8602  -4.7456  -4.7384
    -4.6342  -4.6053  -4.5456  -4.5113  -4.4989  -4.4688  -4.3924  -4.3878
    -4.3514  -4.3166  -4.1616  -4.1525  -4.1374  -4.1317  -4.0598  -4.0005
    -3.9747  -3.9419  -3.7097  -3.6512  -3.6414  -3.6313  -3.6178  -3.6102
    -3.5912  -3.5540  -3.5206  -3.4844  -3.4618  -3.4411  -3.4386  -3.3449
    -3.3063  -3.2655  -3.1640  -3.1421  -3.1338  -3.1051  -3.1006  -3.0752
    -3.0699  -3.0503  -3.0333  -2.9547  -2.9195  -2.9012  -2.8495  -2.7814
    -2.7643  -2.7606  -2.5879  -2.5370  -2.5270  -2.5073  -2.4730  -2.3797
    -2.3780  -2.2421  -2.2155  -2.1718  -2.0999  -2.0703  -2.0214  -2.0027
    -1.9893  -1.9687  -1.7774  -1.7600  -1.6862  -1.6269  -1.5758  -1.5546
    -1.5448  -1.3288  -0.9168  -0.6344  -0.6158  -0.5968  -0.4451  -0.4424
     1.1476   1.2044   1.2187   1.3211   1.3249   1.3374   1.3938   1.4536
     1.4839   1.5636   1.7070

     the Fermi energy is     1.0778 ev

!    total energy              =   -3272.09262354 Ry
     estimated scf accuracy    <       0.00000004 Ry
     smearing contrib. (-TS)   =      -0.03207341 Ry
     internal energy E=F+TS    =   -3272.06055013 Ry

     The total energy is F=E-TS. E is the sum of the following terms:
     one-electron contribution =  -34296.39657182 Ry
     hartree contribution      =   17208.18916826 Ry
     xc contribution           =    -536.11537976 Ry
     ewald contribution        =   14352.26024575 Ry
     electric field correction =       0.00198744 Ry

     convergence has been achieved in  65 iterations

     Forces acting on atoms (cartesian axes, Ry/au):

     atom    1 type  1   force =     0.00003094    0.00588942    0.05805134
     atom    2 type  1   force =    -0.00002377    0.00195206   -0.00321798
     atom    3 type  1   force =     0.00007777   -0.00331369   -0.00030616
     atom    4 type  1   force =     0.00005167   -0.00049556    0.10640819
     atom    5 type  1   force =    -0.00002399    0.00000343    0.00971251
     atom    6 type  1   force =    -0.00000134   -0.00100324    0.00082369
     atom    7 type  1   force =     0.06848120   -0.00032278   -0.02943074
     atom    8 type  1   force =     0.00472519   -0.02818228    0.00237893
     atom    9 type  1   force =     0.00984114   -0.02071531    0.00059369
     atom   10 type  2   force =    -0.00007608   -0.00346432   -0.18019848
     atom   11 type  2   force =     0.00008240    0.01996484   -0.00724075
     atom   12 type  2   force =    -0.00027231    0.02102500   -0.00322778
     atom   13 type  1   force =    -0.06858015   -0.00077517   -0.02940761
     atom   14 type  1   force =    -0.00464844   -0.02829293    0.00239032
     atom   15 type  1   force =    -0.01021481   -0.02087538    0.00031835
     atom   16 type  2   force =     0.00012932   -0.00168921    0.06498903
     atom   17 type  2   force =    -0.00016454    0.03518353    0.00381276
     atom   18 type  2   force =     0.00020517    0.00994688   -0.00295193
     atom   19 type  1   force =     0.00001278    0.00479270    0.06364883
     atom   20 type  1   force =    -0.00001567    0.00174516   -0.00597861
     atom   21 type  1   force =     0.00005438    0.00136091    0.10698749
     atom   22 type  1   force =    -0.00002007   -0.00017887    0.00917297
     atom   23 type  1   force =     0.00005835   -0.00450333    0.00170751
     atom   24 type  1   force =     0.06775999   -0.00034288   -0.02934809
     atom   25 type  1   force =     0.00462029   -0.02913683    0.00294360
     atom   26 type  1   force =     0.00799713    0.00317914   -0.00402109
     atom   27 type  2   force =    -0.00008677   -0.00410312   -0.18532213
     atom   28 type  2   force =     0.00010083    0.02022437   -0.00747911
     atom   29 type  2   force =    -0.00016672   -0.00033720    0.01345107
     atom   30 type  1   force =    -0.06785513   -0.00080150   -0.02932587
     atom   31 type  1   force =    -0.00456018   -0.02921664    0.00296119
     atom   32 type  1   force =    -0.00816593    0.00333713   -0.00412527
     atom   33 type  2   force =     0.00011322   -0.00147845    0.06546227
     atom   34 type  2   force =    -0.00014617    0.03609164    0.00381017
     atom   35 type  2   force =     0.00006227   -0.00246929    0.00357531
     atom   36 type  1   force =     0.00003566    0.00368100    0.05587581
     atom   37 type  1   force =    -0.00002305   -0.00000525   -0.00176997
     atom   38 type  1   force =    -0.00001548   -0.00322904   -0.00048709
     atom   39 type  1   force =     0.00005206   -0.00022708    0.10721444
     atom   40 type  1   force =    -0.00002502    0.00004309    0.00942701
     atom   41 type  1   force =     0.00000179    0.00222301    0.00080124
     atom   42 type  1   force =     0.06797638   -0.00084985   -0.02928896
     atom   43 type  1   force =     0.00402439   -0.02908115    0.00272314
     atom   44 type  1   force =     0.01151211   -0.01066884    0.00420538
     atom   45 type  2   force =    -0.00008536    0.00395476   -0.18334465
     atom   46 type  2   force =     0.00007468    0.02027306   -0.00792212
     atom   47 type  2   force =     0.00000202    0.01000395   -0.01344097
     atom   48 type  1   force =    -0.06807778   -0.00129689   -0.02927073
     atom   49 type  1   force =    -0.00393266   -0.02917328    0.00272908
     atom   50 type  1   force =    -0.01153659   -0.01067406    0.00420347
     atom   51 type  2   force =     0.00011223   -0.00123934    0.06590835
     atom   52 type  2   force =    -0.00016545    0.03606800    0.00356056
     atom   53 type  2   force =     0.00005508    0.02505068    0.00684378
     atom   54 type  3   force =     0.02428666    0.00007593   -0.00030095
     atom   55 type  4   force =    -0.00223544    0.00024079   -0.00002692
     atom   56 type  4   force =    -0.01124585    0.00603984    0.00536442
     atom   57 type  4   force =    -0.01017234   -0.00420757   -0.00462190

     Total force =     0.454378     Total SCF correction =     0.000574
  @ DRIVER MODE: Message from server: STATUS
  @ DRIVER MODE: Message from server: GETFORCE
  @ DRIVER MODE: Returning v,forces,stress,ensemble

     Writing output data file ./calc.save/
  @ DRIVER MODE: Message from server: EXIT
  @ DRIVE MODE: Exiting

     General routines

     Parallel routines

   This run was terminated on:  12:29:51  18Oct2021

   JOB DONE.