     Program PWSCF v.6.7GPU starts on 20Sep2021 at 11:38:53

     R & G space division:  proc/nbgrp/npool/nimage =      10
     Reading input from /storage/home/hcoda1/3/ntian30/research/carbon/CxH_vib/CH3_calc/ads_slab/CH3O_a/out_0009/pw.inp
Warning: card &CELL ignored
Warning: card   CELL_DYNAMICS='IPI', ignored
Warning: card / ignored

     Current dimensions of program PWSCF are:
     Max number of different atomic species (ntypx) = 10
     Max number of k-points (npk) =  40000
     Max angular momentum in pseudopotentials (lmaxx) =  3
     Presently no symmetry can be used with electric field

     Message from routine cell_base_init:
     DEPRECATED: use true lattice parameter, not A to a.u. conversion factor

     IMPORTANT: XC functional enforced from input :
     Exchange-correlation= BEEF-VDW
                           (   1   4  43  14   2   0   0)
     Any further DFT definition will be discarded
     Please, verify this is what you really want

  @ DRIVER MODE: Connecting to
 qe_1139763_2907627.sched-torque.pace.gatech.eduvrlyc9d__scratch
  using UNIX socket
  @ DRIVER MODE: Message from server: STATUS
  @ DRIVER MODE: Message from server: INIT
  @ DRIVER MODE: Receiving replica           0          -1
  @ DRIVER MODE: Receiving encoded integer          25
  @ DRIVER MODE:  SCF:  T  FORCE:  T  STRESS:  F  VC:  F  ENSEMBLE:  F
  @ DRIVER MODE:  SCF:  T  FORCE:  T  STRESS:  F  VC:  F  ENSEMBLE:  F

     Using Slab Decomposition

     bravais-lattice index     =            0
     lattice parameter (alat)  =       1.8897  a.u.
     unit-cell volume          =    6658.9804 (a.u.)^3
     number of atoms/cell      =           52
     number of atomic types    =            4
     number of electrons       =       391.00
     number of Kohn-Sham states=          205
     kinetic-energy cutoff     =      29.3995  Ry
     charge density cutoff     =     293.9946  Ry
     scf convergence threshold =      7.3E-08
     mixing beta               =       0.0500
     number of iterations used =            8  plain     mixing
     Exchange-correlation= BEEF-VDW
                           (   1   4  43  14   2   0   0)

     celldm(1)=   1.889726  celldm(2)=   0.000000  celldm(3)=   0.000000
     celldm(4)=   0.000000  celldm(5)=   0.000000  celldm(6)=   0.000000

     crystal axes: (cart. coord. in units of alat)
               a(1) = (   6.579727   0.000000   0.000000 )
               a(2) = (  -0.000775   5.961596   0.000000 )
               a(3) = (   0.000000   0.000000  25.155947 )

     reciprocal axes: (cart. coord. in units 2 pi/alat)
               b(1) = (  0.151982  0.000020  0.000000 )
               b(2) = (  0.000000  0.167740  0.000000 )
               b(3) = (  0.000000  0.000000  0.039752 )

     PseudoPot. # 1 for Ti read from file:
     /storage/coda1/p-amedford6/0/shared/rich_project_chbe-medford/medford-share/data/pseudos_module/espresso/nninc/pbe/van/Ti.UPF
     MD5 check sum: 8e4df49b7f0d34bbd5052bf3f5ea0213
     Pseudo is Ultrasoft, Zval = 12.0
     Generated by new atomic code, or converted to UPF format
     Using radial grid of  851 points,  6 beta functions with:
                l(1) =   0
                l(2) =   0
                l(3) =   1
                l(4) =   1
                l(5) =   2
                l(6) =   2
     Q(r) pseudized with  8 coefficients,  rinner =    1.000   1.000   1.000
                                                       1.000   1.000

     PseudoPot. # 2 for O  read from file:
     /storage/coda1/p-amedford6/0/shared/rich_project_chbe-medford/medford-share/data/pseudos_module/espresso/nninc/pbe/van/O.UPF
     MD5 check sum: 78c19812648e8988a0fe644b0f25305e
     Pseudo is Ultrasoft, Zval =  6.0
     Generated by new atomic code, or converted to UPF format
     Using radial grid of  737 points,  4 beta functions with:
                l(1) =   0
                l(2) =   0
                l(3) =   1
                l(4) =   1
     Q(r) pseudized with  8 coefficients,  rinner =    0.800   0.800   0.800

     PseudoPot. # 3 for C  read from file:
     /storage/coda1/p-amedford6/0/shared/rich_project_chbe-medford/medford-share/data/pseudos_module/espresso/nninc/pbe/van/C.UPF
     MD5 check sum: 1a69bf6b8db32088f5b2163dbdb77a27
     Pseudo is Ultrasoft, Zval =  4.0
     Generated by new atomic code, or converted to UPF format
     Using radial grid of  721 points,  4 beta functions with:
                l(1) =   0
                l(2) =   0
                l(3) =   1
                l(4) =   1
     Q(r) pseudized with  8 coefficients,  rinner =    0.800   0.800   0.800

     PseudoPot. # 4 for H  read from file:
     /storage/coda1/p-amedford6/0/shared/rich_project_chbe-medford/medford-share/data/pseudos_module/espresso/nninc/pbe/van/H.UPF
     MD5 check sum: b5ee9d7bfd3a09ee7748110bda690ff7
     Pseudo is Ultrasoft, Zval =  1.0
     Generated by new atomic code, or converted to UPF format
     Using radial grid of  615 points,  1 beta functions with:
                l(1) =   0
     Q(r) pseudized with  8 coefficients,  rinner =    0.800

     atomic species   valence    mass     pseudopotential
        Ti1           12.00    47.86700     Ti( 1.00)
        O1             6.00    15.99900     O ( 1.00)
        C1             4.00    12.01100     C ( 1.00)
        H1             1.00     1.00800     H ( 1.00)

     No symmetry found

   Cartesian axes

     site n.     atom                  positions (alat units)
         1           Ti1 tau(   1) = (   0.0004258   2.9801865   6.0000000  )
         2           Ti1 tau(   2) = (   3.2906075   1.4906267   6.0002472  )
         3           O1  tau(   3) = (   0.0006271   0.0005054   7.9858123  )
         4           O1  tau(   4) = (   3.2906025   0.0005020   7.3038282  )
         5           O1  tau(   5) = (   4.5942328   1.4918067   9.2879030  )
         6           O1  tau(   6) = (   1.9868534   1.4903216   9.2879459  )
         7           Ti1 tau(   7) = (   3.3187032   3.0312427   9.1575206  )
         8           Ti1 tau(   8) = (   0.0282419   1.6147502   9.3704053  )
         9           O1  tau(   9) = (   3.3236385   0.0141534  11.3532293  )
        10           O1  tau(  10) = (   0.0104197   0.0125229  10.6127740  )
        11           O1  tau(  11) = (   1.3245732   1.5021988  12.6430083  )
        12           O1  tau(  12) = (   5.3244981   1.5061434  12.6562219  )
        13           Ti1 tau(  13) = (   0.0403031   3.0097444  12.8244759  )
        14           Ti1 tau(  14) = (   3.3296682   1.5108177  12.4986020  )
        15           O1  tau(  15) = (   0.0398480   0.0117783  14.7343716  )
        16           O1  tau(  16) = (   3.3300567   0.0146708  13.9469669  )
        17           O1  tau(  17) = (   4.5805658   1.5026465  16.1145873  )
        18           O1  tau(  18) = (   2.0880061   1.5021997  16.1152651  )
        19           Ti1 tau(  19) = (   3.3307167   2.9906167  15.7324548  )
        20           Ti1 tau(  20) = (   0.0579274   1.3843852  16.1188819  )
        21           O1  tau(  21) = (   3.2904802   0.0005063   4.7018136  )
        22           O1  tau(  22) = (   0.0436517   5.9586681  17.2572535  )
        23           O1  tau(  23) = (   1.3043587   1.4918075   6.0039043  )
        24           O1  tau(  24) = (   5.2767064   1.4903225   6.0039473  )
        25           Ti1 tau(  25) = (   0.0000382   5.9609847   6.0000000  )
        26           Ti1 tau(  26) = (   3.2902200   4.4714249   6.0002472  )
        27           O1  tau(  27) = (   0.0002396   2.9813036   7.9858123  )
        28           O1  tau(  28) = (   3.2902150   2.9813002   7.3038282  )
        29           O1  tau(  29) = (   4.5938453   4.4726049   9.2879030  )
        30           O1  tau(  30) = (   1.9864658   4.4711199   9.2879459  )
        31           Ti1 tau(  31) = (   3.3083866   0.0539517   9.1541167  )
        32           Ti1 tau(  32) = (   0.0315341   4.5377404   9.2709708  )
        33           O1  tau(  33) = (   3.3215087   2.9954721  11.3555336  )
        34           O1  tau(  34) = (   0.0112336   2.9957203  10.5730616  )
        35           O1  tau(  35) = (   1.3257220   4.4896437  12.6447561  )
        36           O1  tau(  36) = (   5.3225596   4.4851362  12.6583724  )
        37           Ti1 tau(  37) = (   0.0354833   0.0274604  12.5282598  )
        38           Ti1 tau(  38) = (   3.3297026   4.4921445  12.4963722  )
        39           O1  tau(  39) = (   0.0599690   3.0154325  14.7102929  )
        40           O1  tau(  40) = (   3.3251099   2.9889739  13.9402376  )
        41           O1  tau(  41) = (   4.5781535   4.4756942  16.0984728  )
        42           O1  tau(  42) = (   2.0867977   4.4764083  16.0997756  )
        43           Ti1 tau(  43) = (   3.3478802   0.0108728  15.7387323  )
        44           Ti1 tau(  44) = (   0.0598937   4.5429110  15.9843511  )
        45           O1  tau(  45) = (   3.2900926   2.9813045   4.7018136  )
        46           O1  tau(  46) = (   1.3039711   4.4726057   6.0039043  )
        47           O1  tau(  47) = (   5.2763189   4.4711207   6.0039473  )
        48           C1  tau(  48) = (   6.0696523   3.0631652  18.6664891  )
        49           O1  tau(  49) = (   0.0149881   2.9885468  17.3426271  )
        50           H1  tau(  50) = (   4.9903245   2.8753800  18.6581135  )
        51           H1  tau(  51) = (   6.5502243   2.3063723  19.2898855  )
        52           H1  tau(  52) = (   6.2508803   4.0560215  19.0798806  )

     number of k points=    10  Fermi-Dirac smearing, width (Ry)=  0.0073
                       cart. coord. in units 2pi/alat
        k(    1) = (   0.0000000   0.0000000   0.0000000), wk =   0.1250000
        k(    2) = (   0.0000000   0.0419351   0.0000000), wk =   0.2500000
        k(    3) = (   0.0000000  -0.0838702   0.0000000), wk =   0.1250000
        k(    4) = (   0.0379955   0.0000049   0.0000000), wk =   0.2500000
        k(    5) = (   0.0379955   0.0419400   0.0000000), wk =   0.2500000
        k(    6) = (   0.0379955  -0.0838652   0.0000000), wk =   0.2500000
        k(    7) = (   0.0379955  -0.0419301   0.0000000), wk =   0.2500000
        k(    8) = (  -0.0759910  -0.0000099   0.0000000), wk =   0.1250000
        k(    9) = (  -0.0759910   0.0419252   0.0000000), wk =   0.2500000
        k(   10) = (  -0.0759910  -0.0838800   0.0000000), wk =   0.1250000

     Initial potential from superposition of free atoms

     starting charge  374.99918, renormalised to  391.00000

     negative rho (up, down):  1.819E-02 0.000E+00

     %%%%%%%%%%%%%%%%%%%%%%%%%%%%%%%%%%%%%%%%%%%%%%%%%%%%%%%%%%%%%%%%%%%%%%%%
     %                                                                      %
     % You are using vdW-DF, which was implemented by the Thonhauser group. %
     % Please cite the following two papers that made this development      %
     % possible and the two reviews that describe the various versions:     %
     %                                                                      %
     %   T. Thonhauser et al., PRL 115, 136402 (2015).                      %
     %   T. Thonhauser et al., PRB 76, 125112 (2007).                       %
     %   K. Berland et al., Rep. Prog. Phys. 78, 066501 (2015).             %
     %   D.C. Langreth et al., J. Phys.: Condens. Matter 21, 084203 (2009). %
     %                                                                      %
     %                                                                      %
     % If you are calculating the stress with vdW-DF, please also cite:     %
     %                                                                      %
     %   R. Sabatini et al., J. Phys.: Condens. Matter 24, 424209 (2012).   %
     %                                                                      %
     %%%%%%%%%%%%%%%%%%%%%%%%%%%%%%%%%%%%%%%%%%%%%%%%%%%%%%%%%%%%%%%%%%%%%%%%

     Adding external electric field

     Computed dipole along edir(3) :
        Dipole               -5.5401 Ry au,        -14.0815 Debye
        Dipole field         -0.0105 Ry au,

        Potential amp.        0.9692 Ry
        Total length         46.3494 bohr

     Starting wfcs are  295 atomic wfcs
  @ DRIVER MODE: Message from server: STATUS
  @ DRIVER MODE: Message from server: POSDATA
  @ DRIVER MODE: Reading and sharing cell
  @ DRIVER MODE: Reading and sharing positions
  @ DRIVER MODE: Received positions

     Self-consistent Calculation

     iteration #  1     ecut=    29.40 Ry     beta= 0.05
     Davidson diagonalization with overlap
     c_bands:  3 eigenvalues not converged
     c_bands:  2 eigenvalues not converged
     c_bands:  3 eigenvalues not converged
     c_bands:  2 eigenvalues not converged
     c_bands:  3 eigenvalues not converged
     c_bands:  2 eigenvalues not converged
     c_bands:  1 eigenvalues not converged
     c_bands:  1 eigenvalues not converged
     c_bands:  2 eigenvalues not converged
     ethr =  1.00E-05,  avg # of iterations = 19.7

[...]

     total energy              =   -2791.63785460 Ry
     estimated scf accuracy    <    1532.15431959 Ry

     iteration #  2     ecut=    29.40 Ry     beta= 0.05
     Davidson diagonalization with overlap
     ethr =  1.00E-02,  avg # of iterations = 17.9

[...]

     iteration # 65     ecut=    29.40 Ry     beta= 0.05
     Davidson diagonalization with overlap
     c_bands:  2 eigenvalues not converged
     ethr =  6.63E-11,  avg # of iterations = 16.4

[...]

     total energy              =   -2931.50280227 Ry
     estimated scf accuracy    <       0.00000010 Ry

     iteration # 68     ecut=    29.40 Ry     beta= 0.05
     Davidson diagonalization with overlap
     ethr =  2.46E-11,  avg # of iterations = 12.2

     negative rho (up, down):  1.843E-02 0.000E+00

     Adding external electric field

     Computed dipole along edir(3) :
        Dipole                0.7539 Ry au,          1.9162 Debye
        Dipole field          0.0014 Ry au,

        Potential amp.       -0.1319 Ry
        Total length         46.3494 bohr

     End of self-consistent calculation

          k = 0.0000 0.0000 0.0000 ( 18029 PWs)   bands (ev):

   -55.9536 -55.9389 -55.9170 -55.9027 -55.8391 -55.8372 -55.8125 -55.7826
   -55.7784 -55.7277 -55.7123 -55.7122 -55.6783 -55.5953 -54.9669 -54.9328
   -32.5045 -32.4209 -32.3494 -32.2965 -32.2712 -32.2517 -32.2444 -32.2219
   -32.1908 -32.1781 -32.1579 -32.1525 -32.1492 -32.1195 -32.1143 -32.0937
   -32.0883 -32.0848 -32.0691 -32.0441 -32.0429 -32.0191 -32.0128 -31.9973
   -31.9948 -31.9939 -31.9653 -31.9648 -31.9528 -31.9430 -31.9363 -31.9309
   -31.9247 -31.9087 -31.8877 -31.8858 -31.8758 -31.8558 -31.8199 -31.8144
   -31.7919 -31.7838 -31.3768 -31.2796 -31.2572 -31.1935 -31.1074 -30.9962
   -17.6694 -16.6814 -16.3955 -16.2318 -16.0994 -16.0635 -15.9603 -15.7758
   -15.6369 -15.6194 -15.5557 -15.5167 -15.5011 -15.4751 -15.4714 -15.4582
   -15.4552 -15.4061 -15.3707 -15.3696 -15.3544 -15.3321 -15.2710 -15.2298
   -15.1476 -15.0944 -15.0699 -15.0140 -14.9529 -14.9337 -13.4676 -13.3494
    -9.5021  -4.3960  -4.1453  -4.0401  -3.8736  -3.8609  -3.8376  -3.8134
    -3.7526  -3.5020  -3.4869  -3.1675  -3.1085  -3.0842  -3.0702  -3.0641
    -2.8254  -2.8064  -2.7779  -2.7676  -2.7595  -2.7302  -2.7024  -2.6930
    -2.6689  -2.6529  -2.5548  -2.4765  -2.4690  -2.3609  -2.3156  -2.3046
    -2.2535  -2.2153  -2.2079  -2.1878  -2.1632  -2.1466  -2.1179  -2.1156
    -2.0189  -1.8891  -1.7842  -1.7548  -1.7124  -1.6533  -1.4469  -1.4014
    -1.3664  -1.3531  -1.2958  -1.2635  -1.2548  -1.1806  -1.1430  -1.1265
    -1.0195  -0.9586  -0.9326  -0.9067  -0.8438  -0.8083  -0.7588  -0.6892
    -0.6704  -0.6554  -0.4420  -0.4172  -0.4115  -0.4009  -0.2885  -0.2369
    -0.1811  -0.1697  -0.1574  -0.1260  -0.0549   0.0101   0.0207   0.0430
     0.0762   0.1028   0.1787   0.2069   0.2320   0.2562   0.2899   0.3767
     0.4228   0.5646   0.6937   0.7152   0.8164   0.9595   1.0574   1.1302
     1.2277   1.6470   1.7071   3.2320   3.2514   3.2960   3.3257   3.3841
     3.5053   3.6241   3.6600   3.6949   3.7170

[...]

          k = 0.0380-0.0419 0.0000 ( 17876 PWs)   bands (ev):

[...]

          k =-0.0760-0.0000 0.0000 ( 17886 PWs)   bands (ev):

[...]

          k =-0.0760-0.0839 0.0000 ( 17948 PWs)   bands (ev):

   -55.9420 -55.9284 -55.9210 -55.9203 -55.8359 -55.8325 -55.7959 -55.7951
   -55.7878 -55.7249 -55.7145 -55.6985 -55.6923 -55.5975 -54.9504 -54.9492
   -32.3086 -32.3042 -32.2497 -32.2445 -32.2336 -32.2299 -32.2123 -32.2067
   -32.2030 -32.1602 -32.1394 -32.1324 -32.1285 -32.0923 -32.0821 -32.0774
   -32.0687 -32.0652 -32.0631 -32.0598 -32.0505 -32.0376 -32.0332 -32.0265
   -32.0196 -32.0181 -32.0118 -31.9992 -31.9942 -31.9928 -31.9670 -31.9505
   -31.9483 -31.9447 -31.9343 -31.9218 -31.9132 -31.9079 -31.9021 -31.8902
   -31.8276 -31.7919 -31.2706 -31.2691 -31.1902 -31.1893 -31.1510 -31.1500
   -17.6319 -16.1221 -16.1060 -15.8720 -15.8666 -15.8619 -15.7924 -15.7078
   -15.6870 -15.6726 -15.6662 -15.6127 -15.5956 -15.5856 -15.5243 -15.4868
   -15.4608 -15.4527 -15.4493 -15.4006 -15.3966 -15.3434 -15.3254 -15.3105
   -15.2998 -15.2841 -15.2766 -15.1797 -15.1784 -15.1091 -13.4517 -13.4495
    -9.5028  -4.2653  -4.1137  -3.8720  -3.4123  -3.3943  -3.1132  -3.0809
    -3.0773  -2.9882  -2.9024  -2.8600  -2.8240  -2.7919  -2.7876  -2.7863
    -2.7653  -2.7360  -2.7324  -2.7119  -2.6909  -2.6806  -2.6268  -2.5909
    -2.5824  -2.5805  -2.5689  -2.5392  -2.5238  -2.5022  -2.4935  -2.4839
    -2.4632  -2.3655  -2.2359  -2.2033  -2.0911  -2.0832  -2.0463  -2.0330
    -2.0055  -1.9959  -1.9769  -1.8683  -1.8033  -1.6764  -1.6725  -1.6537
    -1.5958  -1.5276  -1.4547  -1.3873  -1.3649  -1.3498  -1.2525  -1.2401
    -1.1716  -1.1516  -1.0946  -1.0634  -1.0505  -0.9520  -0.9184  -0.9040
    -0.8902  -0.8158  -0.7974  -0.7809  -0.7484  -0.6876  -0.6765  -0.6075
    -0.5725  -0.5285  -0.4648  -0.4407  -0.3921  -0.3033  -0.1263  -0.0464
     0.0561   0.0986   0.1589   0.1719   0.2626   0.3073   0.3210   0.3288
     0.4171   0.4803   0.5098   0.5730   0.5863   0.6122   0.6740   1.4171
     1.4188   1.5096   1.5198   3.4399   3.4707   3.4848   3.5330   3.6921
     3.6972   3.7172   3.7226   3.7955   3.8577

     the Fermi energy is     3.2016 ev

!    total energy              =   -2931.50281998 Ry
     estimated scf accuracy    <       0.00000004 Ry
     smearing contrib. (-TS)   =      -0.02313255 Ry
     internal energy E=F+TS    =   -2931.47968743 Ry

     The total energy is F=E-TS. E is the sum of the following terms:
     one-electron contribution =  -24510.28121161 Ry
     hartree contribution      =   12340.15331676 Ry
     xc contribution           =    -482.05238455 Ry
     ewald contribution        =    9720.69951945 Ry
     electric field correction =       0.00107252 Ry

     convergence has been achieved in  68 iterations

     Forces acting on atoms (cartesian axes, Ry/au):

     atom    1 type  1   force =    -0.00013431   -0.00172103    0.10702194
     atom    2 type  1   force =    -0.00041047    0.00039465   -0.17995176
     atom    3 type  2   force =     0.00029729   -0.00714986   -0.03305584
     atom    4 type  2   force =     0.00067557    0.00052146    0.04596450
     atom    5 type  2   force =    -0.01813836    0.00044013    0.00392302
     atom    6 type  2   force =     0.02136268   -0.00104185    0.00544325
     atom    7 type  1   force =    -0.00015445   -0.00030159   -0.00015083
     atom    8 type  1   force =    -0.00008666   -0.00029519   -0.00175487
     atom    9 type  2   force =    -0.00030453   -0.00017755    0.00030934
     atom   10 type  2   force =    -0.00014396   -0.00052618    0.00015162
     atom   11 type  2   force =    -0.00034324    0.00013733    0.00061253
     atom   12 type  2   force =    -0.00018504    0.00021135    0.00022486
     atom   13 type  1   force =    -0.00018452   -0.00038101   -0.00101913
     atom   14 type  1   force =     0.00028731    0.00022120   -0.00047803
     atom   15 type  2   force =    -0.00014194   -0.00108799   -0.00132056
     atom   16 type  2   force =    -0.00039928   -0.00030345   -0.00087563
     atom   17 type  2   force =    -0.00174423    0.00025839   -0.00097248
     atom   18 type  2   force =     0.00054305    0.00008175   -0.00102613
     atom   19 type  1   force =    -0.00006850   -0.00046196    0.00013169
     atom   20 type  1   force =    -0.00076365   -0.00097387    0.00112217
     atom   21 type  2   force =    -0.00005707    0.00009521    0.10423510
     atom   22 type  2   force =     0.00012013   -0.00084976   -0.00084373
     atom   23 type  2   force =    -0.06896898    0.00066838   -0.02969521
     atom   24 type  2   force =     0.06867699    0.00114095   -0.02975251
     atom   25 type  1   force =    -0.00011779    0.00159425    0.11783399
     atom   26 type  1   force =    -0.00016308    0.00003215   -0.17999952
     atom   27 type  2   force =     0.00043647    0.00401659   -0.02694532
     atom   28 type  2   force =     0.00078179    0.00082734    0.04758515
     atom   29 type  2   force =    -0.01695831    0.00167037    0.00319504
     atom   30 type  2   force =     0.01944584    0.00119187    0.00454559
     atom   31 type  1   force =    -0.00025357    0.00053837   -0.00020381
     atom   32 type  1   force =    -0.00001254    0.00018819   -0.00095303
     atom   33 type  2   force =    -0.00030471   -0.00007135   -0.00007336
     atom   34 type  2   force =    -0.00012495    0.00070363    0.00049687
     atom   35 type  2   force =    -0.00030025   -0.00002689    0.00013579
     atom   36 type  2   force =    -0.00021523   -0.00004074   -0.00021902
     atom   37 type  1   force =    -0.00012350    0.00059307    0.00083394
     atom   38 type  1   force =     0.00020370   -0.00030519   -0.00048712
     atom   39 type  2   force =    -0.00026988   -0.00014152    0.00034354
     atom   40 type  2   force =    -0.00034402    0.00026402   -0.00035456
     atom   41 type  2   force =    -0.00034511   -0.00029584   -0.00018278
     atom   42 type  2   force =    -0.00008497   -0.00004218   -0.00037433
     atom   43 type  1   force =    -0.00012363    0.00065391    0.00054551
     atom   44 type  1   force =    -0.00074993    0.00112454    0.00114449
     atom   45 type  2   force =    -0.00006240    0.00006226    0.10427143
     atom   46 type  2   force =    -0.06851788   -0.00129630   -0.02972337
     atom   47 type  2   force =     0.06833093   -0.00085763   -0.02980090
     atom   48 type  3   force =     0.00004372   -0.00371179   -0.00071427
     atom   49 type  2   force =    -0.00124164    0.00494347    0.00147198
     atom   50 type  4   force =     0.00045867   -0.00009724    0.00008121
     atom   51 type  4   force =    -0.00016824   -0.00037434    0.00013962
     atom   52 type  4   force =     0.00104666   -0.00004257   -0.00083606

     Total force =     0.376982     Total SCF correction =     0.000390
  @ DRIVER MODE: Message from server: STATUS
  @ DRIVER MODE: Message from server: GETFORCE
  @ DRIVER MODE: Returning v,forces,stress,ensemble

     Writing output data file ./calc.save/
  @ DRIVER MODE: Message from server: EXIT
  @ DRIVE MODE: Exiting

     General routines

     Parallel routines

   This run was terminated on:  11:56:53  20Sep2021

   JOB DONE.