     Program PWSCF v.6.7GPU starts on 23Sep2021 at 10:29:12

     R & G space division:  proc/nbgrp/npool/nimage =      10
     Reading input from /storage/home/hcoda1/3/ntian30/research/carbon/CxH_vib/H2O_calc/ads_slab/CH3NNH3HO_a/out_0053/pw.inp
Warning: card &CELL ignored
Warning: card   CELL_DYNAMICS='IPI', ignored
Warning: card / ignored

     Current dimensions of program PWSCF are:
     Max number of different atomic species (ntypx) = 10
     Max number of k-points (npk) =  40000
     Max angular momentum in pseudopotentials (lmaxx) =  3
     Presently no symmetry can be used with electric field

     Message from routine cell_base_init:
     DEPRECATED: use true lattice parameter, not A to a.u. conversion factor

     IMPORTANT: XC functional enforced from input :
     Exchange-correlation= BEEF-VDW
                           (   1   4  43  14   2   0   0)
     Any further DFT definition will be discarded
     Please, verify this is what you really want

  @ DRIVER MODE: Connecting to
 qe_1139763_2937318.sched-torque.pace.gatech.educmosfcc9_scratch
  using UNIX socket
  @ DRIVER MODE: Message from server: STATUS
  @ DRIVER MODE: Message from server: INIT
  @ DRIVER MODE: Receiving replica           0          -1
  @ DRIVER MODE: Receiving encoded integer          25
  @ DRIVER MODE:  SCF:  T  FORCE:  T  STRESS:  F  VC:  F  ENSEMBLE:  F
  @ DRIVER MODE:  SCF:  T  FORCE:  T  STRESS:  F  VC:  F  ENSEMBLE:  F

     Using Slab Decomposition

     bravais-lattice index     =            0
     lattice parameter (alat)  =       1.8897  a.u.
     unit-cell volume          =    6658.9804 (a.u.)^3
     number of atoms/cell      =           58
     number of atomic types    =            5
     number of electrons       =       405.00
     number of Kohn-Sham states=          212
     kinetic-energy cutoff     =      29.3995  Ry
     charge density cutoff     =     293.9946  Ry
     scf convergence threshold =      7.3E-08
     mixing beta               =       0.0500
     number of iterations used =            8  plain     mixing
     Exchange-correlation= BEEF-VDW
                           (   1   4  43  14   2   0   0)

     celldm(1)=   1.889726  celldm(2)=   0.000000  celldm(3)=   0.000000
     celldm(4)=   0.000000  celldm(5)=   0.000000  celldm(6)=   0.000000

     crystal axes: (cart. coord. in units of alat)
               a(1) = (   6.579727   0.000000   0.000000 )
               a(2) = (  -0.000775   5.961596   0.000000 )
               a(3) = (   0.000000   0.000000  25.155947 )

     reciprocal axes: (cart. coord. in units 2 pi/alat)
               b(1) = (  0.151982  0.000020  0.000000 )
               b(2) = (  0.000000  0.167740  0.000000 )
               b(3) = (  0.000000  0.000000  0.039752 )

     PseudoPot. # 1 for Ti read from file:
     /storage/coda1/p-amedford6/0/shared/rich_project_chbe-medford/medford-share/data/pseudos_module/espresso/nninc/pbe/van/Ti.UPF
     MD5 check sum: 8e4df49b7f0d34bbd5052bf3f5ea0213
     Pseudo is Ultrasoft, Zval = 12.0
     Generated by new atomic code, or converted to UPF format
     Using radial grid of  851 points,  6 beta functions with:
                l(1) =   0
                l(2) =   0
                l(3) =   1
                l(4) =   1
                l(5) =   2
                l(6) =   2
     Q(r) pseudized with  8 coefficients,  rinner =    1.000   1.000   1.000
                                                       1.000   1.000

     PseudoPot. # 2 for O  read from file:
     /storage/coda1/p-amedford6/0/shared/rich_project_chbe-medford/medford-share/data/pseudos_module/espresso/nninc/pbe/van/O.UPF
     MD5 check sum: 78c19812648e8988a0fe644b0f25305e
     Pseudo is Ultrasoft, Zval =  6.0
     Generated by new atomic code, or converted to UPF format
     Using radial grid of  737 points,  4 beta functions with:
                l(1) =   0
                l(2) =   0
                l(3) =   1
                l(4) =   1
     Q(r) pseudized with  8 coefficients,  rinner =    0.800   0.800   0.800

     PseudoPot. # 3 for N  read from file:
     /storage/coda1/p-amedford6/0/shared/rich_project_chbe-medford/medford-share/data/pseudos_module/espresso/nninc/pbe/van/N.UPF
     MD5 check sum: 90d10febe142ad51ac9d5be1deb811c4
     Pseudo is Ultrasoft, Zval =  5.0
     Generated by new atomic code, or converted to UPF format
     Using radial grid of  729 points,  4 beta functions with:
                l(1) =   0
                l(2) =   0
                l(3) =   1
                l(4) =   1
     Q(r) pseudized with  8 coefficients,  rinner =    0.800   0.800   0.800

     PseudoPot. # 4 for C  read from file:
     /storage/coda1/p-amedford6/0/shared/rich_project_chbe-medford/medford-share/data/pseudos_module/espresso/nninc/pbe/van/C.UPF
     MD5 check sum: 1a69bf6b8db32088f5b2163dbdb77a27
     Pseudo is Ultrasoft, Zval =  4.0
     Generated by new atomic code, or converted to UPF format
     Using radial grid of  721 points,  4 beta functions with:
                l(1) =   0
                l(2) =   0
                l(3) =   1
                l(4) =   1
     Q(r) pseudized with  8 coefficients,  rinner =    0.800   0.800   0.800

     PseudoPot. # 5 for H  read from file:
     /storage/coda1/p-amedford6/0/shared/rich_project_chbe-medford/medford-share/data/pseudos_module/espresso/nninc/pbe/van/H.UPF
     MD5 check sum: b5ee9d7bfd3a09ee7748110bda690ff7
     Pseudo is Ultrasoft, Zval =  1.0
     Generated by new atomic code, or converted to UPF format
     Using radial grid of  615 points,  1 beta functions with:
                l(1) =   0
     Q(r) pseudized with  8 coefficients,  rinner =    0.800

     atomic species   valence    mass     pseudopotential
        Ti1           12.00    47.86700     Ti( 1.00)
        O1             6.00    15.99900     O ( 1.00)
        N1             5.00    14.00700     N ( 1.00)
        C1             4.00    12.01100     C ( 1.00)
        H1             1.00     1.00800     H ( 1.00)

     No symmetry found

   Cartesian axes

     site n.     atom                  positions (alat units)
         1           Ti1 tau(   1) = (   0.0004258   2.9801865   6.0000000  )
         2           Ti1 tau(   2) = (   3.2906075   1.4906267   6.0002472  )
         3           O1  tau(   3) = (   0.0006271   0.0005054   7.9858123  )
         4           O1  tau(   4) = (   3.2906025   0.0005020   7.3038282  )
         5           O1  tau(   5) = (   4.5942328   1.4918067   9.2879030  )
         6           O1  tau(   6) = (   1.9868534   1.4903216   9.2879459  )
         7           Ti1 tau(   7) = (   3.2907910   2.8959150   9.1758416  )
         8           Ti1 tau(   8) = (   0.0015273   1.4827037   9.2680791  )
         9           O1  tau(   9) = (   3.2949357   5.9297256  11.2770696  )
        10           O1  tau(  10) = (   0.0116148   5.9584955  10.6183126  )
        11           O1  tau(  11) = (   1.2901270   1.4659759  12.6218969  )
        12           O1  tau(  12) = (   5.3029181   1.4690452  12.6271982  )
        13           Ti1 tau(  13) = (   6.5637346   3.0486055  12.7052252  )
        14           Ti1 tau(  14) = (   3.3207578   1.2909511  12.6638180  )
        15           O1  tau(  15) = (   0.0081040   5.9567798  14.6379979  )
        16           O1  tau(  16) = (   3.2944190   0.0149942  13.8863584  )
        17           O1  tau(  17) = (   4.5334936   1.5584448  16.0391558  )
        18           O1  tau(  18) = (   2.0244848   1.5379376  16.0854781  )
        19           Ti1 tau(  19) = (   3.2579824   3.0118882  15.6538344  )
        20           Ti1 tau(  20) = (   6.4918182   1.5199401  15.8876453  )
        21           O1  tau(  21) = (   3.2904802   0.0005063   4.7018136  )
        22           O1  tau(  22) = (   6.5166677   0.0216046  17.1949088  )
        23           O1  tau(  23) = (   1.3043587   1.4918075   6.0039043  )
        24           O1  tau(  24) = (   5.2767064   1.4903225   6.0039473  )
        25           Ti1 tau(  25) = (   0.0000382   5.9609847   6.0000000  )
        26           Ti1 tau(  26) = (   3.2902200   4.4714249   6.0002472  )
        27           O1  tau(  27) = (   0.0002396   2.9813036   7.9858123  )
        28           O1  tau(  28) = (   3.2902150   2.9813002   7.3038282  )
        29           O1  tau(  29) = (   4.5938453   4.4726049   9.2879030  )
        30           O1  tau(  30) = (   1.9864658   4.4711199   9.2879459  )
        31           Ti1 tau(  31) = (   3.2891106   5.8743827   9.1763621  )
        32           Ti1 tau(  32) = (   0.0006254   4.4649316   9.2693709  )
        33           O1  tau(  33) = (   3.2959121   3.0085915  11.2438341  )
        34           O1  tau(  34) = (   0.0092240   2.9805883  10.6323155  )
        35           O1  tau(  35) = (   1.2849535   4.4488585  12.6204231  )
        36           O1  tau(  36) = (   5.2878833   4.4365118  12.6243745  )
        37           Ti1 tau(  37) = (   0.0500071   0.0677371  12.6535751  )
        38           Ti1 tau(  38) = (   3.3027700   4.3871210  12.4110406  )
        39           O1  tau(  39) = (   6.5685058   2.9535060  14.6525041  )
        40           O1  tau(  40) = (   3.2696111   2.9719761  13.8704823  )
        41           O1  tau(  41) = (   4.5209813   4.4409030  16.0696701  )
        42           O1  tau(  42) = (   2.0131998   4.4599944  16.0916020  )
        43           Ti1 tau(  43) = (   3.2138439   0.0230873  16.3295100  )
        44           Ti1 tau(  44) = (   6.5234412   4.6200706  16.0754176  )
        45           O1  tau(  45) = (   3.2900926   2.9813045   4.7018136  )
        46           O1  tau(  46) = (   1.3039711   4.4726057   6.0039043  )
        47           O1  tau(  47) = (   5.2763189   4.4711207   6.0039473  )
        48           N1  tau(  48) = (   0.0251376   2.9556585  17.3246074  )
        49           N1  tau(  49) = (   6.3772498   2.5461882  22.2688425  )
        50           C1  tau(  50) = (   0.2111848   2.8484408  18.7116211  )
        51           H1  tau(  51) = (   0.3920758   3.8074029  19.2116250  )
        52           H1  tau(  52) = (   5.9044209   2.3708277  19.1722604  )
        53           H1  tau(  53) = (   1.0233575   2.1342068  18.9364007  )
        54           H1  tau(  54) = (   6.0930523   3.2289774  22.9628454  )
        55           H1  tau(  55) = (   0.2277240   1.7755739  22.7685771  )
        56           H1  tau(  56) = (   0.5282093   2.9785696  21.7029995  )
        57           O1  tau(  57) = (   3.3838229   0.0530270  18.1522483  )
        58           H1  tau(  58) = (   4.2718821   5.8932998  18.5223319  )

     number of k points=    10  Fermi-Dirac smearing, width (Ry)=  0.0073
                       cart. coord. in units 2pi/alat
        k(    1) = (   0.0000000   0.0000000   0.0000000), wk =   0.1250000
        k(    2) = (   0.0000000   0.0419351   0.0000000), wk =   0.2500000
        k(    3) = (   0.0000000  -0.0838702   0.0000000), wk =   0.1250000
        k(    4) = (   0.0379955   0.0000049   0.0000000), wk =   0.2500000
        k(    5) = (   0.0379955   0.0419400   0.0000000), wk =   0.2500000
        k(    6) = (   0.0379955  -0.0838652   0.0000000), wk =   0.2500000
        k(    7) = (   0.0379955  -0.0419301   0.0000000), wk =   0.2500000
        k(    8) = (  -0.0759910  -0.0000099   0.0000000), wk =   0.1250000
        k(    9) = (  -0.0759910   0.0419252   0.0000000), wk =   0.2500000
        k(   10) = (  -0.0759910  -0.0838800   0.0000000), wk =   0.1250000

     Initial potential from superposition of free atoms

     starting charge  388.99913, renormalised to  405.00000

     negative rho (up, down):  7.830E-03 0.000E+00

     %%%%%%%%%%%%%%%%%%%%%%%%%%%%%%%%%%%%%%%%%%%%%%%%%%%%%%%%%%%%%%%%%%%%%%%%
     %                                                                      %
     % You are using vdW-DF, which was implemented by the Thonhauser group. %
     % Please cite the following two papers that made this development      %
     % possible and the two reviews that describe the various versions:     %
     %                                                                      %
     %   T. Thonhauser et al., PRL 115, 136402 (2015).                      %
     %   T. Thonhauser et al., PRB 76, 125112 (2007).                       %
     %   K. Berland et al., Rep. Prog. Phys. 78, 066501 (2015).             %
     %   D.C. Langreth et al., J. Phys.: Condens. Matter 21, 084203 (2009). %
     %                                                                      %
     %                                                                      %
     % If you are calculating the stress with vdW-DF, please also cite:     %
     %                                                                      %
     %   R. Sabatini et al., J. Phys.: Condens. Matter 24, 424209 (2012).   %
     %                                                                      %
     %%%%%%%%%%%%%%%%%%%%%%%%%%%%%%%%%%%%%%%%%%%%%%%%%%%%%%%%%%%%%%%%%%%%%%%%

     Adding external electric field

     Computed dipole along edir(3) :
        Dipole              -15.1926 Ry au,        -38.6156 Debye
        Dipole field         -0.0287 Ry au,

        Potential amp.        2.6577 Ry
        Total length         46.3494 bohr

     Starting wfcs are  307 atomic wfcs
  @ DRIVER MODE: Message from server: STATUS
  @ DRIVER MODE: Message from server: POSDATA
  @ DRIVER MODE: Reading and sharing cell
  @ DRIVER MODE: Reading and sharing positions
  @ DRIVER MODE: Received positions

     Self-consistent Calculation

     iteration #  1     ecut=    29.40 Ry     beta= 0.05
     Davidson diagonalization with overlap
     c_bands:  4 eigenvalues not converged
     c_bands:  1 eigenvalues not converged
     c_bands:  1 eigenvalues not converged
     c_bands:  2 eigenvalues not converged
     c_bands:  1 eigenvalues not converged
     c_bands:  2 eigenvalues not converged
     ethr =  1.00E-05,  avg # of iterations = 31.5

[...]

     total energy              =   -2295.08836848 Ry
     estimated scf accuracy    <    7743.70751989 Ry

     iteration #  2     ecut=    29.40 Ry     beta= 0.05
     Davidson diagonalization with overlap
     ethr =  1.00E-02,  avg # of iterations = 23.2

[...]

     iteration # 38     ecut=    29.40 Ry     beta= 0.05
     Davidson diagonalization with overlap
     c_bands:  1 eigenvalues not converged
     ethr =  2.37E-07,  avg # of iterations =  7.3

[...]

     total energy              =   -2976.42341399 Ry
     estimated scf accuracy    <       0.00000011 Ry

     iteration # 55     ecut=    29.40 Ry     beta= 0.05
     Davidson diagonalization with overlap
     ethr =  2.73E-11,  avg # of iterations =  4.7

     negative rho (up, down):  9.583E-03 0.000E+00

     Adding external electric field

     Computed dipole along edir(3) :
        Dipole                0.6311 Ry au,          1.6041 Debye
        Dipole field          0.0012 Ry au,

        Potential amp.       -0.1104 Ry
        Total length         46.3494 bohr

     End of self-consistent calculation

          k = 0.0000 0.0000 0.0000 ( 18029 PWs)   bands (ev):

   -56.5678 -56.5342 -55.6435 -55.6084 -55.4276 -55.3611 -55.2325 -55.1191
   -55.0852 -55.0373 -55.0054 -54.9708 -54.9130 -54.8192 -54.7479 -54.6156
   -32.9865 -32.8382 -32.8101 -32.7472 -32.6570 -32.6136 -32.1252 -31.9024
   -31.8637 -31.8422 -31.7877 -31.7798 -31.7546 -31.6609 -31.6406 -31.5960
   -31.5642 -31.5481 -31.5244 -31.5121 -31.5065 -31.4967 -31.4662 -31.4644
   -31.4416 -31.4228 -31.3575 -31.3231 -31.3006 -31.2946 -31.2428 -31.2348
   -31.2180 -31.1962 -31.1836 -31.1685 -31.1611 -31.1313 -31.1255 -31.0938
   -31.0495 -31.0050 -31.0041 -30.9829 -30.9500 -30.8898 -30.8531 -30.8026
   -16.6711 -16.1130 -16.0894 -15.8843 -15.7617 -15.7565 -15.7133 -15.6446
   -15.4753 -15.4067 -15.3781 -15.3170 -15.1729 -15.0569 -14.9597 -14.7801
   -14.7065 -14.7012 -14.6821 -14.6748 -14.6580 -14.6372 -14.5781 -14.5197
   -14.4773 -14.4122 -14.3687 -14.2229 -14.0221 -13.9970 -13.9208 -13.6165
   -13.5096 -13.5050  -7.7409  -4.2465  -4.0248  -3.9965  -3.7000  -3.5796
    -3.4070  -3.2545  -3.2047  -3.1459  -3.0865  -3.0772  -2.9295  -2.9278
    -2.9161  -2.9095  -2.8310  -2.7723  -2.7075  -2.6205  -2.6050  -2.5104
    -2.4637  -2.3044  -2.2784  -2.1775  -2.1053  -2.0999  -2.0337  -2.0108
    -1.9636  -1.9185  -1.9091  -1.8744  -1.8306  -1.7840  -1.7655  -1.6544
    -1.6466  -1.5818  -1.5751  -1.5525  -1.4391  -1.4190  -1.3492  -1.2040
    -1.1826  -1.1794  -1.1322  -1.1149  -1.0330  -0.9371  -0.8699  -0.8433
    -0.7871  -0.6987  -0.6520  -0.6303  -0.5579  -0.5383  -0.4642  -0.4205
    -0.4075  -0.3871  -0.3450  -0.2307  -0.1437  -0.1109  -0.0571  -0.0318
     0.0010   0.0280   0.0470   0.0957   0.1655   0.2513   0.2724   0.4110
     0.4632   0.4999   0.5755   0.6099   0.6162   0.7055   0.7369   0.7665
     0.8130   0.8877   0.9022   0.9031   0.9621   1.0461   1.1011   1.1633
     1.1732   1.2011   1.2098   1.2602   1.3488   1.3694   1.4385   1.4936
     1.8176   1.8799   2.4820   2.7266   2.8980   3.1749   3.3669   3.6704
     3.7126   3.7304   3.7305   4.0363

[...]

          k = 0.0380-0.0419 0.0000 ( 17876 PWs)   bands (ev):

[...]

          k =-0.0760-0.0000 0.0000 ( 17886 PWs)   bands (ev):

[...]

          k =-0.0760-0.0839 0.0000 ( 17948 PWs)   bands (ev):

   -56.5516 -56.5503 -55.6311 -55.6206 -55.4229 -55.3656 -55.2316 -55.1027
   -55.1015 -55.0324 -55.0061 -54.9754 -54.9113 -54.8177 -54.7495 -54.6169
   -32.8247 -32.8232 -32.8045 -32.8031 -32.7013 -32.7001 -31.9498 -31.9406
   -31.8255 -31.8203 -31.8144 -31.8126 -31.7223 -31.6795 -31.6542 -31.6411
   -31.5915 -31.5897 -31.5033 -31.4762 -31.4664 -31.4552 -31.4543 -31.3716
   -31.3521 -31.3228 -31.3213 -31.3035 -31.2965 -31.2867 -31.2830 -31.2825
   -31.2539 -31.2349 -31.2170 -31.2021 -31.1982 -31.1604 -31.1601 -31.1043
   -31.0930 -31.0525 -31.0088 -30.9973 -30.9612 -30.9547 -30.8551 -30.8380
   -16.0773 -16.0295 -16.0276 -15.9841 -15.9826 -15.7209 -15.7164 -15.4660
   -15.4366 -15.2574 -15.1533 -15.1292 -15.0858 -15.0441 -14.9731 -14.9189
   -14.8893 -14.8572 -14.8312 -14.7691 -14.7394 -14.6349 -14.6022 -14.5546
   -14.5183 -14.4565 -14.4154 -14.3664 -14.1787 -14.1352 -13.9201 -13.6141
   -13.6135 -13.5299  -7.7401  -4.0348  -3.9973  -3.6911  -3.1613  -3.1055
    -3.1011  -3.0687  -3.0614  -2.9766  -2.8549  -2.8518  -2.7567  -2.6497
    -2.6232  -2.6002  -2.5397  -2.5302  -2.4302  -2.3804  -2.3756  -2.3613
    -2.3249  -2.2953  -2.2888  -2.2290  -2.0905  -2.0744  -2.0253  -1.9712
    -1.8967  -1.8883  -1.8790  -1.8420  -1.8004  -1.7751  -1.7640  -1.7369
    -1.7321  -1.7277  -1.6182  -1.5132  -1.4660  -1.3724  -1.3682  -1.3593
    -1.3214  -1.2943  -1.2609  -1.2544  -1.2256  -1.1455  -1.1193  -1.0496
    -0.9358  -0.9179  -0.8761  -0.8278  -0.7241  -0.7058  -0.6161  -0.5797
    -0.5684  -0.5090  -0.4801  -0.4641  -0.4058  -0.3665  -0.2349  -0.1951
    -0.1835  -0.1666  -0.1442  -0.1079  -0.0467   0.0147   0.0464   0.0484
     0.1529   0.2527   0.3406   0.4098   0.4192   0.4423   0.5288   0.6342
     0.6754   0.7000   0.7484   0.8719   0.9897   1.0193   1.1284   1.1548
     1.1697   1.2611   1.2788   1.2839   1.3040   1.3132   1.3482   1.4148
     1.4756   1.7623   2.3150   3.3191   3.3222   3.3804   3.3860   3.6968
     3.6991   3.8103   3.8153   4.1422

     the Fermi energy is     2.3920 ev

!    total energy              =   -2976.42350092 Ry
     estimated scf accuracy    <       0.00000007 Ry
     smearing contrib. (-TS)   =      -0.01084047 Ry
     internal energy E=F+TS    =   -2976.41266045 Ry

     The total energy is F=E-TS. E is the sum of the following terms:
     one-electron contribution =  -22707.67055423 Ry
     hartree contribution      =   11450.17396119 Ry
     xc contribution           =    -495.33881911 Ry
     ewald contribution        =    8776.42200011 Ry
     electric field correction =       0.00075159 Ry

     convergence has been achieved in  55 iterations

     Forces acting on atoms (cartesian axes, Ry/au):

     atom    1 type  1   force =     0.00002748   -0.00053729    0.12632655
     atom    2 type  1   force =    -0.00009784    0.00041495   -0.15468348
     atom    3 type  2   force =     0.00002783    0.00002549   -0.06829003
     atom    4 type  2   force =     0.00005829   -0.00010921    0.01702786
     atom    5 type  2   force =    -0.00488488   -0.00242207   -0.01324058
     atom    6 type  2   force =     0.00656342   -0.00180152   -0.01375603
     atom    7 type  1   force =    -0.00029948   -0.00660741    0.05921940
     atom    8 type  1   force =     0.00038952    0.00686773    0.10029704
     atom    9 type  2   force =    -0.00002474    0.00066175    0.00130367
     atom   10 type  2   force =    -0.00261635   -0.00001021   -0.06339447
     atom   11 type  2   force =     0.00042498   -0.00068524   -0.00028202
     atom   12 type  2   force =    -0.00084265   -0.00112132   -0.00109450
     atom   13 type  1   force =    -0.00031391    0.00070262   -0.00137559
     atom   14 type  1   force =    -0.00032122   -0.00038765   -0.00024979
     atom   15 type  2   force =    -0.00066402   -0.00038759   -0.00057333
     atom   16 type  2   force =     0.00019718    0.00092589   -0.00030360
     atom   17 type  2   force =     0.00079298    0.00009273   -0.00054020
     atom   18 type  2   force =    -0.00023192   -0.00014734   -0.00001961
     atom   19 type  1   force =    -0.00019544   -0.00012017   -0.00092781
     atom   20 type  1   force =     0.00068692    0.00083632   -0.00045583
     atom   21 type  2   force =     0.00006028    0.00015653    0.09775712
     atom   22 type  2   force =     0.00041170   -0.00033538    0.00143727
     atom   23 type  2   force =    -0.08277470    0.00005425   -0.03316109
     atom   24 type  2   force =     0.08271731    0.00050128   -0.03323443
     atom   25 type  1   force =     0.00007314   -0.00035615    0.12646591
     atom   26 type  1   force =    -0.00011015   -0.00149583   -0.15486708
     atom   27 type  2   force =     0.00011298   -0.00046873   -0.06666785
     atom   28 type  2   force =     0.00004852    0.00167330    0.01196511
     atom   29 type  2   force =    -0.00343551    0.00422507   -0.01621281
     atom   30 type  2   force =     0.00506045    0.00456928   -0.01661684
     atom   31 type  1   force =    -0.00016062    0.00219213    0.04255532
     atom   32 type  1   force =     0.00043472   -0.00894366    0.10086703
     atom   33 type  2   force =    -0.00048533   -0.00012452   -0.00038690
     atom   34 type  2   force =    -0.00212775   -0.00026071   -0.07625831
     atom   35 type  2   force =    -0.00011261    0.00069850    0.00086405
     atom   36 type  2   force =    -0.00048463    0.00051375    0.00038885
     atom   37 type  1   force =     0.00044995    0.00061983   -0.00018369
     atom   38 type  1   force =    -0.00041902   -0.00068682   -0.00066551
     atom   39 type  2   force =     0.00044634   -0.00032383   -0.00040209
     atom   40 type  2   force =     0.00037329   -0.00062847   -0.00000183
     atom   41 type  2   force =     0.00026641    0.00047649   -0.00001962
     atom   42 type  2   force =    -0.00020632   -0.00018914    0.00013634
     atom   43 type  1   force =     0.00053266    0.00134916   -0.00093417
     atom   44 type  1   force =    -0.00025129   -0.00106127    0.00084084
     atom   45 type  2   force =     0.00009148   -0.00001612    0.09760558
     atom   46 type  2   force =    -0.08282037    0.00003848   -0.03320892
     atom   47 type  2   force =     0.08272661    0.00045467   -0.03321562
     atom   48 type  3   force =     0.00001315    0.00041060    0.00042685
     atom   49 type  3   force =     0.00521917    0.00282479   -0.00599210
     atom   50 type  4   force =     0.00074439    0.00034525    0.00058737
     atom   51 type  5   force =    -0.00000420   -0.00026822   -0.00057896
     atom   52 type  5   force =     0.00008646    0.00090857   -0.00056554
     atom   53 type  5   force =    -0.00017550    0.00032826    0.00039340
     atom   54 type  5   force =     0.00066105    0.00042982   -0.00058028
     atom   55 type  5   force =     0.00088902    0.00045229   -0.00033364
     atom   56 type  5   force =    -0.00625776   -0.00369199    0.00631782
     atom   57 type  2   force =    -0.00181101   -0.00056207    0.00035263
     atom   58 type  5   force =     0.00154158    0.00000013    0.00013814

     Total force =     0.420870     Total SCF correction =     0.000484
  @ DRIVER MODE: Message from server: STATUS
  @ DRIVER MODE: Message from server: GETFORCE
  @ DRIVER MODE: Returning v,forces,stress,ensemble

     Writing output data file ./calc.save/
  @ DRIVER MODE: Message from server: EXIT
  @ DRIVE MODE: Exiting

     General routines

     Parallel routines

   This run was terminated on:  10:44:28  23Sep2021

   JOB DONE.