     Program PWSCF v.6.7GPU starts on 18Oct2021 at 11:59: 3

     R & G space division:  proc/nbgrp/npool/nimage =       8
     Reading input from /storage/home/hcoda1/3/ntian30/research/carbon/CxH_vib/Thiel_calc/ads_slab/H2O_perslab/out_0001/pw.inp
Warning: card &CELL ignored
Warning: card   CELL_DYNAMICS='IPI', ignored
Warning: card / ignored

     Current dimensions of program PWSCF are:
     Max number of different atomic species (ntypx) = 10
     Max number of k-points (npk) =  40000
     Max angular momentum in pseudopotentials (lmaxx) =  3
     Presently no symmetry can be used with electric field

     Message from routine cell_base_init:
     DEPRECATED: use true lattice parameter, not A to a.u. conversion factor

     IMPORTANT: XC functional enforced from input :
     Exchange-correlation= BEEF-VDW
                           (   1   4  43  14   2   0   0)
     Any further DFT definition will be discarded
     Please, verify this is what you really want

  @ DRIVER MODE: Connecting to
 qe_1139763_3255129.sched-torque.pace.gatech.edu88pl40ph_scratch
  using UNIX socket
  @ DRIVER MODE: Message from server: STATUS
  @ DRIVER MODE: Message from server: INIT
  @ DRIVER MODE: Receiving replica           0          -1
  @ DRIVER MODE: Receiving encoded integer          25
  @ DRIVER MODE:  SCF:  T  FORCE:  T  STRESS:  F  VC:  F  ENSEMBLE:  F
  @ DRIVER MODE:  SCF:  T  FORCE:  T  STRESS:  F  VC:  F  ENSEMBLE:  F

     Using Slab Decomposition

     bravais-lattice index     =            0
     lattice parameter (alat)  =       1.8897  a.u.
     unit-cell volume          =    9988.4706 (a.u.)^3
     number of atoms/cell      =           56
     number of atomic types    =            3
     number of electrons       =       434.00
     number of Kohn-Sham states=          227
     kinetic-energy cutoff     =      29.3995  Ry
     charge density cutoff     =     293.9946  Ry
     scf convergence threshold =      7.3E-08
     mixing beta               =       0.0500
     number of iterations used =            8  plain     mixing
     Exchange-correlation= BEEF-VDW
                           (   1   4  43  14   2   0   0)

     celldm(1)=   1.889726  celldm(2)=   0.000000  celldm(3)=   0.000000
     celldm(4)=   0.000000  celldm(5)=   0.000000  celldm(6)=   0.000000

     crystal axes: (cart. coord. in units of alat)
               a(1) = (   6.579727   0.000000   0.000000 )
               a(2) = (  -0.001163   8.942395   0.000000 )
               a(3) = (   0.000000   0.000000  25.155947 )

     reciprocal axes: (cart. coord. in units 2 pi/alat)
               b(1) = (  0.151982  0.000020  0.000000 )
               b(2) = (  0.000000  0.111827  0.000000 )
               b(3) = (  0.000000  0.000000  0.039752 )

     PseudoPot. # 1 for O  read from file:
     /storage/coda1/p-amedford6/0/shared/rich_project_chbe-medford/medford-share/data/pseudos_module/espresso/nninc/pbe/van/O.UPF
     MD5 check sum: 78c19812648e8988a0fe644b0f25305e
     Pseudo is Ultrasoft, Zval =  6.0
     Generated by new atomic code, or converted to UPF format
     Using radial grid of  737 points,  4 beta functions with:
                l(1) =   0
                l(2) =   0
                l(3) =   1
                l(4) =   1
     Q(r) pseudized with  8 coefficients,  rinner =    0.800   0.800   0.800

     PseudoPot. # 2 for Ti read from file:
     /storage/coda1/p-amedford6/0/shared/rich_project_chbe-medford/medford-share/data/pseudos_module/espresso/nninc/pbe/van/Ti.UPF
     MD5 check sum: 8e4df49b7f0d34bbd5052bf3f5ea0213
     Pseudo is Ultrasoft, Zval = 12.0
     Generated by new atomic code, or converted to UPF format
     Using radial grid of  851 points,  6 beta functions with:
                l(1) =   0
                l(2) =   0
                l(3) =   1
                l(4) =   1
                l(5) =   2
                l(6) =   2
     Q(r) pseudized with  8 coefficients,  rinner =    1.000   1.000   1.000
                                                       1.000   1.000

     PseudoPot. # 3 for H  read from file:
     /storage/coda1/p-amedford6/0/shared/rich_project_chbe-medford/medford-share/data/pseudos_module/espresso/nninc/pbe/van/H.UPF
     MD5 check sum: b5ee9d7bfd3a09ee7748110bda690ff7
     Pseudo is Ultrasoft, Zval =  1.0
     Generated by new atomic code, or converted to UPF format
     Using radial grid of  615 points,  1 beta functions with:
                l(1) =   0
     Q(r) pseudized with  8 coefficients,  rinner =    0.800

     atomic species   valence    mass     pseudopotential
        O1             6.00    15.99900     O ( 1.00)
        Ti1           12.00    47.86700     Ti( 1.00)
        H1             1.00     1.00800     H ( 1.00)

     No symmetry found

   Cartesian axes

     site n.     atom                  positions (alat units)
         1           O1  tau(   1) = (   0.0007354   0.0005023  10.5931620  )
         2           O1  tau(   2) = (   3.2893612   8.9201916  13.9062151  )
         3           O1  tau(   3) = (   0.0002691   0.0790924  17.2227650  )
         4           O1  tau(   4) = (   0.0006271   0.0005054   7.9858123  )
         5           O1  tau(   5) = (   3.2896170   8.9270158  11.1935980  )
         6           O1  tau(   6) = (   0.0007608   0.0261718  14.5986889  )
         7           O1  tau(   7) = (   1.9868534   1.4903216   9.2879459  )
         8           O1  tau(   8) = (   5.2355617   1.6099344  12.5867606  )
         9           O1  tau(   9) = (   2.0124575   1.5675184  16.0571645  )
        10           Ti1 tau(  10) = (   0.0007404   1.4906270   9.2895810  )
        11           Ti1 tau(  11) = (   3.2907640   1.3491771  12.5100009  )
        12           Ti1 tau(  12) = (   0.0006031   1.2961793  15.7979744  )
        13           O1  tau(  13) = (   4.5942328   1.4918067   9.2879030  )
        14           O1  tau(  14) = (   1.3450460   1.6097215  12.5866593  )
        15           O1  tau(  15) = (   4.5676758   1.5673980  16.0573758  )
        16           Ti1 tau(  16) = (   3.2902859   2.9801868   9.2893338  )
        17           Ti1 tau(  17) = (   0.0004777   2.8281306  12.4679355  )
        18           Ti1 tau(  18) = (   3.2902893   2.9338596  15.7282337  )
        19           O1  tau(  19) = (   0.0003479   2.9813005  10.5931620  )
        20           O1  tau(  20) = (   3.2902216   2.9696935  13.9120052  )
        21           O1  tau(  21) = (   0.0002396   2.9813036   7.9858123  )
        22           O1  tau(  22) = (   3.2903426   2.9637443  11.1940942  )
        23           O1  tau(  23) = (   0.0000089   3.0257264  14.7503890  )
        24           O1  tau(  24) = (   1.9864658   4.4711199   9.2879459  )
        25           O1  tau(  25) = (   5.2380434   4.5829059  12.5871764  )
        26           O1  tau(  26) = (   2.0235919   4.4928291  16.0795284  )
        27           Ti1 tau(  27) = (   0.0003529   4.4714252   9.2895810  )
        28           Ti1 tau(  28) = (   3.2907575   4.3192581  12.5172651  )
        29           Ti1 tau(  29) = (   0.0001526   4.6228845  15.7176810  )
        30           O1  tau(  30) = (   4.5938453   4.4726049   9.2879030  )
        31           O1  tau(  31) = (   1.3423985   4.5827316  12.5869633  )
        32           O1  tau(  32) = (   4.5556179   4.4928061  16.0795667  )
        33           Ti1 tau(  33) = (   3.2898983   5.9609850   9.2893338  )
        34           Ti1 tau(  34) = (   0.0006865   5.8113799  12.4503846  )
        35           Ti1 tau(  35) = (   3.2896120   5.9162390  15.7228808  )
        36           O1  tau(  36) = (  -0.0000397   5.9620987  10.5931620  )
        37           O1  tau(  37) = (   3.2898440   5.9521707  13.9141460  )
        38           O1  tau(  38) = (  -0.0005676   5.9070897  17.2365434  )
        39           O1  tau(  39) = (  -0.0001480   5.9621018   7.9858123  )
        40           O1  tau(  40) = (   3.2901216   5.9393065  11.1928121  )
        41           O1  tau(  41) = (  -0.0000075   6.0145546  14.6353165  )
        42           O1  tau(  42) = (   1.9860782   7.4519181   9.2879459  )
        43           O1  tau(  43) = (   5.2378119   7.5541029  12.5659338  )
        44           O1  tau(  44) = (   2.0283766   7.4974489  16.0624789  )
        45           Ti1 tau(  45) = (  -0.0000347   7.4522234   9.2895810  )
        46           Ti1 tau(  46) = (   3.2905324   7.3023941  12.5037744  )
        47           Ti1 tau(  47) = (  -0.0004371   7.4148098  16.3042026  )
        48           O1  tau(  48) = (   4.5934577   7.4534031   9.2879030  )
        49           O1  tau(  49) = (   1.3417460   7.5537513  12.5656965  )
        50           O1  tau(  50) = (   4.5502908   7.4974792  16.0621795  )
        51           Ti1 tau(  51) = (   3.2895107   8.9417832   9.2893338  )
        52           Ti1 tau(  52) = (   0.0002358   8.7760030  12.4676047  )
        53           Ti1 tau(  53) = (   3.2893608   8.8775079  15.7094031  )
        54           O1  tau(  54) = (   6.5705834   2.9808021  17.9281668  )
        55           H1  tau(  55) = (   6.5781910   2.2037314  18.5062466  )
        56           H1  tau(  56) = (   6.5786456   3.7766572  18.4802172  )

     number of k points=    10  Fermi-Dirac smearing, width (Ry)=  0.0073
                       cart. coord. in units 2pi/alat
        k(    1) = (   0.0000000   0.0000000   0.0000000), wk =   0.1250000
        k(    2) = (   0.0000000   0.0279567   0.0000000), wk =   0.2500000
        k(    3) = (   0.0000000  -0.0559134   0.0000000), wk =   0.1250000
        k(    4) = (   0.0379955   0.0000049   0.0000000), wk =   0.2500000
        k(    5) = (   0.0379955   0.0279617   0.0000000), wk =   0.2500000
        k(    6) = (   0.0379955  -0.0559085   0.0000000), wk =   0.2500000
        k(    7) = (   0.0379955  -0.0279518   0.0000000), wk =   0.2500000
        k(    8) = (  -0.0759910  -0.0000099   0.0000000), wk =   0.1250000
        k(    9) = (  -0.0759910   0.0279468   0.0000000), wk =   0.2500000
        k(   10) = (  -0.0759910  -0.0559233   0.0000000), wk =   0.1250000

     Initial potential from superposition of free atoms

     starting charge  415.99913, renormalised to  434.00000

     negative rho (up, down):  3.976E-02 0.000E+00

     %%%%%%%%%%%%%%%%%%%%%%%%%%%%%%%%%%%%%%%%%%%%%%%%%%%%%%%%%%%%%%%%%%%%%%%%
     %                                                                      %
     % You are using vdW-DF, which was implemented by the Thonhauser group. %
     % Please cite the following two papers that made this development      %
     % possible and the two reviews that describe the various versions:     %
     %                                                                      %
     %   T. Thonhauser et al., PRL 115, 136402 (2015).                      %
     %   T. Thonhauser et al., PRB 76, 125112 (2007).                       %
     %   K. Berland et al., Rep. Prog. Phys. 78, 066501 (2015).             %
     %   D.C. Langreth et al., J. Phys.: Condens. Matter 21, 084203 (2009). %
     %                                                                      %
     %                                                                      %
     % If you are calculating the stress with vdW-DF, please also cite:     %
     %                                                                      %
     %   R. Sabatini et al., J. Phys.: Condens. Matter 24, 424209 (2012).   %
     %                                                                      %
     %%%%%%%%%%%%%%%%%%%%%%%%%%%%%%%%%%%%%%%%%%%%%%%%%%%%%%%%%%%%%%%%%%%%%%%%

     Adding external electric field

     Computed dipole along edir(3) :
        Dipole               -2.8181 Ry au,         -7.1630 Debye
        Dipole field         -0.0035 Ry au,

        Potential amp.        0.3287 Ry
        Total length         46.3494 bohr

     Starting wfcs are  326 atomic wfcs
  @ DRIVER MODE: Message from server: STATUS
  @ DRIVER MODE: Message from server: POSDATA
  @ DRIVER MODE: Reading and sharing cell
  @ DRIVER MODE: Reading and sharing positions
  @ DRIVER MODE: Received positions

     Self-consistent Calculation

     iteration #  1     ecut=    29.40 Ry     beta= 0.05
     Davidson diagonalization with overlap
     c_bands:  2 eigenvalues not converged
     c_bands:  2 eigenvalues not converged
     c_bands:  1 eigenvalues not converged
     c_bands:  2 eigenvalues not converged
     c_bands:  2 eigenvalues not converged
     c_bands:  5 eigenvalues not converged
     c_bands:  2 eigenvalues not converged
     c_bands:  1 eigenvalues not converged
     c_bands:  1 eigenvalues not converged
     c_bands:  2 eigenvalues not converged
     ethr =  1.00E-05,  avg # of iterations = 20.0

[...]

     total energy              =   -3284.59300350 Ry
     estimated scf accuracy    <      14.39898852 Ry

     iteration #  2     ecut=    29.40 Ry     beta= 0.05
     Davidson diagonalization with overlap
     ethr =  3.32E-03,  avg # of iterations =  1.0

[...]

     iteration # 39     ecut=    29.40 Ry     beta= 0.05
     Davidson diagonalization with overlap
     c_bands:  1 eigenvalues not converged
     ethr =  1.80E-07,  avg # of iterations = 15.0

[...]

     total energy              =   -3283.10410490 Ry
     estimated scf accuracy    <       0.00000011 Ry

     iteration # 62     ecut=    29.40 Ry     beta= 0.05
     Davidson diagonalization with overlap
     ethr =  2.10E-11,  avg # of iterations =  6.8

     negative rho (up, down):  3.723E-02 0.000E+00

     Adding external electric field

     Computed dipole along edir(3) :
        Dipole                1.2781 Ry au,          3.2487 Debye
        Dipole field          0.0016 Ry au,

        Potential amp.       -0.1491 Ry
        Total length         46.3494 bohr

     End of self-consistent calculation

          k = 0.0000 0.0000 0.0000 ( 26871 PWs)   bands (ev):

   -58.0032 -57.9911 -57.9778 -57.9772 -57.9680 -57.8973 -57.8253 -57.8020
   -57.7972 -57.7892 -57.7666 -57.7425 -57.6148 -57.5753 -57.5058 -57.0240
   -57.0007 -56.9939 -34.3892 -34.3842 -34.3838 -34.3623 -34.3558 -34.3348
   -34.3167 -34.3145 -34.3135 -34.2813 -34.2540 -34.2393 -34.2129 -34.1988
   -34.1956 -34.1865 -34.1706 -34.1521 -34.1275 -34.1209 -34.1128 -34.1000
   -34.0992 -34.0958 -34.0945 -34.0703 -34.0528 -34.0356 -34.0295 -34.0178
   -34.0107 -33.9985 -33.9980 -33.9852 -33.9790 -33.9782 -33.9669 -33.9418
   -33.9381 -33.8734 -33.8160 -33.7858 -33.7745 -33.7691 -33.6468 -33.3398
   -33.3387 -33.3324 -33.3235 -33.3172 -33.2499 -33.1886 -33.1811 -33.0493
   -21.2501 -18.8502 -18.4157 -18.2704 -18.2456 -18.2175 -18.2051 -18.0919
   -18.0887 -17.8261 -17.8065 -17.7923 -17.7840 -17.7129 -17.6855 -17.6832
   -17.6717 -17.6447 -17.6376 -17.6100 -17.6010 -17.5192 -17.5117 -17.4688
   -17.4661 -17.4331 -17.4309 -17.3841 -17.2948 -17.2940 -17.1261 -16.9756
   -16.9082 -15.4899 -15.4333 -15.4291  -9.2626  -6.1819  -6.0157  -5.9187
    -5.8300  -5.7150  -5.4531  -5.4401  -5.3643  -5.3543  -5.3305  -5.2696
    -5.2545  -5.2495  -5.2152  -5.2020  -5.1204  -5.1152  -5.0362  -4.9436
    -4.9393  -4.9360  -4.9099  -4.8662  -4.8304  -4.8118  -4.7889  -4.7657
    -4.7364  -4.6977  -4.6638  -4.6303  -4.6219  -4.4929  -4.3475  -4.3204
    -4.2992  -4.2976  -4.2752  -4.2334  -4.2051  -4.1349  -4.0803  -4.0674
    -4.0447  -3.9966  -3.9418  -3.9195  -3.7815  -3.7503  -3.7209  -3.6972
    -3.5924  -3.5608  -3.5142  -3.3984  -3.3360  -3.3281  -3.2953  -3.2772
    -3.2043  -3.1849  -3.1365  -3.0869  -3.0772  -2.9762  -2.9749  -2.9248
    -2.8760  -2.8018  -2.7686  -2.7626  -2.7510  -2.6946  -2.6862  -2.6590
    -2.6305  -2.6011  -2.5425  -2.5333  -2.4618  -2.4244  -2.4170  -2.3717
    -2.3710  -2.3151  -2.2418  -2.2052  -2.1844  -2.1820  -2.0811  -2.0258
    -1.8594  -1.8548  -1.8426  -1.8301  -1.7495  -1.7036  -1.6367  -1.4633
    -1.2400  -1.0629  -0.7730  -0.7280  -0.7264  -0.4644  -0.4590  -0.3304
     0.9759   1.2249   1.2716   1.4416   1.4433   1.5400   1.5757   1.5910
     1.6742   1.7032   1.7409

[...]

          k = 0.0380-0.0280 0.0000 ( 26873 PWs)   bands (ev):

[...]

          k =-0.0760-0.0000 0.0000 ( 26902 PWs)   bands (ev):

[...]

          k =-0.0760-0.0559 0.0000 ( 26868 PWs)   bands (ev):

   -57.9949 -57.9943 -57.9898 -57.9696 -57.9690 -57.8969 -57.8183 -57.8146
   -57.7910 -57.7869 -57.7711 -57.7408 -57.6144 -57.5760 -57.5056 -57.0181
   -57.0121 -56.9883 -34.4776 -34.4414 -34.3779 -34.3666 -34.3435 -34.3321
   -34.3275 -34.3259 -34.2844 -34.2474 -34.1973 -34.1931 -34.1925 -34.1708
   -34.1647 -34.1505 -34.1442 -34.1437 -34.1370 -34.1314 -34.1309 -34.0845
   -34.0828 -34.0805 -34.0761 -34.0677 -34.0638 -34.0506 -34.0436 -34.0353
   -34.0273 -34.0174 -34.0128 -34.0121 -34.0017 -33.9942 -33.9669 -33.9643
   -33.9403 -33.8236 -33.8213 -33.7917 -33.7742 -33.7676 -33.6828 -33.4278
   -33.3396 -33.3342 -33.3115 -33.2320 -33.2247 -33.1633 -33.1496 -33.1427
   -21.2499 -18.5296 -18.5069 -18.2002 -18.1423 -18.0980 -18.0878 -18.0760
   -18.0248 -17.9222 -17.8665 -17.8645 -17.8136 -17.7846 -17.7799 -17.7274
   -17.7259 -17.7145 -17.7023 -17.6720 -17.6443 -17.6427 -17.5675 -17.4675
   -17.4294 -17.4023 -17.3845 -17.3716 -17.3318 -17.2386 -17.1598 -17.1114
   -16.7922 -15.4894 -15.4845 -15.3690  -9.2659  -5.8326  -5.7861  -5.7682
    -5.7674  -5.6946  -5.3934  -5.2852  -5.2849  -5.2729  -5.1757  -5.1649
    -5.1617  -5.1462  -5.1422  -5.1190  -5.1088  -5.0778  -5.0622  -5.0257
    -5.0104  -4.9452  -4.9255  -4.9172  -4.9038  -4.8797  -4.7463  -4.7430
    -4.6407  -4.6155  -4.5274  -4.5185  -4.5005  -4.4818  -4.4324  -4.3848
    -4.3553  -4.3409  -4.1661  -4.1525  -4.1411  -4.0766  -4.0343  -3.9780
    -3.9738  -3.8793  -3.6771  -3.6536  -3.6515  -3.6451  -3.6298  -3.6281
    -3.5919  -3.5491  -3.5027  -3.4824  -3.4459  -3.4410  -3.4378  -3.3894
    -3.3450  -3.2462  -3.1903  -3.1886  -3.1669  -3.1142  -3.1093  -3.0936
    -3.0740  -3.0537  -3.0259  -2.9428  -2.9110  -2.8895  -2.8474  -2.8371
    -2.7827  -2.7710  -2.7053  -2.5676  -2.5419  -2.5328  -2.5290  -2.4933
    -2.4016  -2.2557  -2.2394  -2.2380  -2.0896  -2.0848  -2.0142  -2.0072
    -1.9762  -1.9591  -1.7874  -1.7772  -1.6930  -1.6458  -1.5951  -1.5772
    -1.5678  -1.3491  -0.9393  -0.6607  -0.6426  -0.6187  -0.4634  -0.4606
     1.1449   1.2149   1.2242   1.3200   1.3256   1.3308   1.3852   1.4539
     1.4990   1.5428   1.7021

     the Fermi energy is     1.0796 ev

!    total energy              =   -3283.10413818 Ry
     estimated scf accuracy    <       0.00000005 Ry
     smearing contrib. (-TS)   =      -0.03226160 Ry
     internal energy E=F+TS    =   -3283.07187659 Ry

     The total energy is F=E-TS. E is the sum of the following terms:
     one-electron contribution =  -34306.61675742 Ry
     hartree contribution      =   17213.52411565 Ry
     xc contribution           =    -537.35179560 Ry
     ewald contribution        =   14347.37050555 Ry
     electric field correction =       0.00205524 Ry

     convergence has been achieved in  62 iterations

     Forces acting on atoms (cartesian axes, Ry/au):

     atom    1 type  1   force =     0.00002680    0.00631260    0.05656009
     atom    2 type  1   force =    -0.00000569    0.00182773   -0.00347146
     atom    3 type  1   force =     0.00003580   -0.00383184   -0.00158699
     atom    4 type  1   force =     0.00005678   -0.00038558    0.10675343
     atom    5 type  1   force =    -0.00001231   -0.00065617    0.00907986
     atom    6 type  1   force =    -0.00001410   -0.00081650    0.00311965
     atom    7 type  1   force =     0.06773820   -0.00026838   -0.02937687
     atom    8 type  1   force =     0.00478785   -0.02830775    0.00276012
     atom    9 type  1   force =     0.01023665   -0.01994639    0.00037640
     atom   10 type  2   force =    -0.00006773   -0.00358037   -0.18211032
     atom   11 type  2   force =    -0.00007977    0.02094720   -0.00709847
     atom   12 type  2   force =    -0.00009242    0.01991106   -0.00373956
     atom   13 type  1   force =    -0.06782881   -0.00071493   -0.02936399
     atom   14 type  1   force =    -0.00477809   -0.02829063    0.00276324
     atom   15 type  1   force =    -0.01040337   -0.02009477    0.00013826
     atom   16 type  2   force =     0.00012922   -0.00159960    0.06617297
     atom   17 type  2   force =     0.00007777    0.03606482    0.00426979
     atom   18 type  2   force =     0.00014215    0.01081948   -0.00274988
     atom   19 type  1   force =     0.00000495    0.00419519    0.06378015
     atom   20 type  1   force =    -0.00000134    0.00139823   -0.00552218
     atom   21 type  1   force =     0.00005408    0.00123357    0.10736240
     atom   22 type  1   force =    -0.00000305   -0.00034867    0.00887765
     atom   23 type  1   force =     0.00001005   -0.00544921    0.00285380
     atom   24 type  1   force =     0.06711867   -0.00042931   -0.02926110
     atom   25 type  1   force =     0.00491683   -0.02900394    0.00284646
     atom   26 type  1   force =     0.00919311    0.00309577   -0.00381869
     atom   27 type  2   force =    -0.00007443   -0.00328408   -0.18660196
     atom   28 type  2   force =    -0.00006004    0.02033414   -0.00731130
     atom   29 type  2   force =    -0.00009681   -0.00161284    0.01308959
     atom   30 type  1   force =    -0.06720682   -0.00089171   -0.02924952
     atom   31 type  1   force =    -0.00492366   -0.02898027    0.00284946
     atom   32 type  1   force =    -0.00932434    0.00326809   -0.00400770
     atom   33 type  2   force =     0.00012340   -0.00176356    0.06630101
     atom   34 type  2   force =     0.00008354    0.03629027    0.00442255
     atom   35 type  2   force =     0.00004672   -0.00237489    0.00333587
     atom   36 type  1   force =     0.00002229    0.00318915    0.05470131
     atom   37 type  1   force =    -0.00000554    0.00044067   -0.00158511
     atom   38 type  1   force =     0.00002933   -0.00173495   -0.00081920
     atom   39 type  1   force =     0.00005456   -0.00027708    0.10747311
     atom   40 type  1   force =    -0.00000948   -0.00007257    0.00862760
     atom   41 type  1   force =    -0.00001159    0.00331411    0.00090853
     atom   42 type  1   force =     0.06734897   -0.00085153   -0.02899170
     atom   43 type  1   force =     0.00317824   -0.02859924    0.00232414
     atom   44 type  1   force =     0.01104614   -0.01051567    0.00424044
     atom   45 type  2   force =    -0.00009317    0.00336507   -0.18452658
     atom   46 type  2   force =    -0.00008338    0.02070702   -0.00745719
     atom   47 type  2   force =     0.00000614    0.00955498   -0.01312668
     atom   48 type  1   force =    -0.06743815   -0.00129817   -0.02898532
     atom   49 type  1   force =    -0.00317815   -0.02857122    0.00233030
     atom   50 type  1   force =    -0.01103298   -0.01053844    0.00424927
     atom   51 type  2   force =     0.00012585   -0.00089621    0.06683657
     atom   52 type  2   force =     0.00008031    0.03408809    0.00444902
     atom   53 type  2   force =     0.00002567    0.02443146    0.00627924
     atom   54 type  1   force =    -0.00002816    0.00041127   -0.00005579
     atom   55 type  3   force =     0.00007459   -0.00046360    0.00047209
     atom   56 type  3   force =     0.00007874    0.00125009    0.00021322

     Total force =     0.454557     Total SCF correction =     0.000454
  @ DRIVER MODE: Message from server: STATUS
  @ DRIVER MODE: Message from server: GETFORCE
  @ DRIVER MODE: Returning v,forces,stress,ensemble

     Writing output data file ./calc.save/
  @ DRIVER MODE: Message from server: EXIT
  @ DRIVE MODE: Exiting

     General routines

     Parallel routines

   This run was terminated on:  12:28: 7  18Oct2021

   JOB DONE.