     Program PWSCF v.6.7GPU starts on 18Oct2021 at 14:13:31

     R & G space division:  proc/nbgrp/npool/nimage =       8
     Reading input from /storage/home/hcoda1/3/ntian30/research/carbon/CxH_vib/Thiel_calc/ads_slab/NH2HNH_perslab/out_0006/pw.inp
Warning: card &CELL ignored
Warning: card   CELL_DYNAMICS='IPI', ignored
Warning: card / ignored

     Current dimensions of program PWSCF are:
     Max number of different atomic species (ntypx) = 10
     Max number of k-points (npk) =  40000
     Max angular momentum in pseudopotentials (lmaxx) =  3
     Presently no symmetry can be used with electric field

     Message from routine cell_base_init:
     DEPRECATED: use true lattice parameter, not A to a.u. conversion factor

     IMPORTANT: XC functional enforced from input :
     Exchange-correlation= BEEF-VDW
                           (   1   4  43  14   2   0   0)
     Any further DFT definition will be discarded
     Please, verify this is what you really want

  @ DRIVER MODE: Connecting to
 qe_1139763_3255135.sched-torque.pace.gatech.edutq7bgb8t_scratch
  using UNIX socket
  @ DRIVER MODE: Message from server: STATUS
  @ DRIVER MODE: Message from server: INIT
  @ DRIVER MODE: Receiving replica           0          -1
  @ DRIVER MODE: Receiving encoded integer          25
  @ DRIVER MODE:  SCF:  T  FORCE:  T  STRESS:  F  VC:  F  ENSEMBLE:  F
  @ DRIVER MODE:  SCF:  T  FORCE:  T  STRESS:  F  VC:  F  ENSEMBLE:  F

     Using Slab Decomposition

     bravais-lattice index     =            0
     lattice parameter (alat)  =       1.8897  a.u.
     unit-cell volume          =    9988.4706 (a.u.)^3
     number of atoms/cell      =           59
     number of atomic types    =            4
     number of electrons       =       440.00
     number of Kohn-Sham states=          230
     kinetic-energy cutoff     =      29.3995  Ry
     charge density cutoff     =     293.9946  Ry
     scf convergence threshold =      7.3E-08
     mixing beta               =       0.0500
     number of iterations used =            8  plain     mixing
     Exchange-correlation= BEEF-VDW
                           (   1   4  43  14   2   0   0)

     celldm(1)=   1.889726  celldm(2)=   0.000000  celldm(3)=   0.000000
     celldm(4)=   0.000000  celldm(5)=   0.000000  celldm(6)=   0.000000

     crystal axes: (cart. coord. in units of alat)
               a(1) = (   6.579727   0.000000   0.000000 )
               a(2) = (  -0.001163   8.942395   0.000000 )
               a(3) = (   0.000000   0.000000  25.155947 )

     reciprocal axes: (cart. coord. in units 2 pi/alat)
               b(1) = (  0.151982  0.000020  0.000000 )
               b(2) = (  0.000000  0.111827  0.000000 )
               b(3) = (  0.000000  0.000000  0.039752 )

     PseudoPot. # 1 for O  read from file:
     /storage/coda1/p-amedford6/0/shared/rich_project_chbe-medford/medford-share/data/pseudos_module/espresso/nninc/pbe/van/O.UPF
     MD5 check sum: 78c19812648e8988a0fe644b0f25305e
     Pseudo is Ultrasoft, Zval =  6.0
     Generated by new atomic code, or converted to UPF format
     Using radial grid of  737 points,  4 beta functions with:
                l(1) =   0
                l(2) =   0
                l(3) =   1
                l(4) =   1
     Q(r) pseudized with  8 coefficients,  rinner =    0.800   0.800   0.800

     PseudoPot. # 2 for Ti read from file:
     /storage/coda1/p-amedford6/0/shared/rich_project_chbe-medford/medford-share/data/pseudos_module/espresso/nninc/pbe/van/Ti.UPF
     MD5 check sum: 8e4df49b7f0d34bbd5052bf3f5ea0213
     Pseudo is Ultrasoft, Zval = 12.0
     Generated by new atomic code, or converted to UPF format
     Using radial grid of  851 points,  6 beta functions with:
                l(1) =   0
                l(2) =   0
                l(3) =   1
                l(4) =   1
                l(5) =   2
                l(6) =   2
     Q(r) pseudized with  8 coefficients,  rinner =    1.000   1.000   1.000
                                                       1.000   1.000

     PseudoPot. # 3 for H  read from file:
     /storage/coda1/p-amedford6/0/shared/rich_project_chbe-medford/medford-share/data/pseudos_module/espresso/nninc/pbe/van/H.UPF
     MD5 check sum: b5ee9d7bfd3a09ee7748110bda690ff7
     Pseudo is Ultrasoft, Zval =  1.0
     Generated by new atomic code, or converted to UPF format
     Using radial grid of  615 points,  1 beta functions with:
                l(1) =   0
     Q(r) pseudized with  8 coefficients,  rinner =    0.800

     PseudoPot. # 4 for N  read from file:
     /storage/coda1/p-amedford6/0/shared/rich_project_chbe-medford/medford-share/data/pseudos_module/espresso/nninc/pbe/van/N.UPF
     MD5 check sum: 90d10febe142ad51ac9d5be1deb811c4
     Pseudo is Ultrasoft, Zval =  5.0
     Generated by new atomic code, or converted to UPF format
     Using radial grid of  729 points,  4 beta functions with:
                l(1) =   0
                l(2) =   0
                l(3) =   1
                l(4) =   1
     Q(r) pseudized with  8 coefficients,  rinner =    0.800   0.800   0.800

     atomic species   valence    mass     pseudopotential
        O1             6.00    15.99900     O ( 1.00)
        Ti1           12.00    47.86700     Ti( 1.00)
        H1             1.00     1.00800     H ( 1.00)
        N1             5.00    14.00700     N ( 1.00)

     No symmetry found

   Cartesian axes

     site n.     atom                  positions (alat units)
         1           O1  tau(   1) = (   0.0007354   0.0005023  10.5931620  )
         2           O1  tau(   2) = (   3.2891522   8.9193323  13.7813865  )
         3           O1  tau(   3) = (  -0.0003195   8.9357148  17.1597790  )
         4           O1  tau(   4) = (   0.0006271   0.0005054   7.9858123  )
         5           O1  tau(   5) = (   3.2896276   8.9330874  11.1456747  )
         6           O1  tau(   6) = (   0.0000757   8.8957392  14.5326415  )
         7           O1  tau(   7) = (   1.9868534   1.4903216   9.2879459  )
         8           O1  tau(   8) = (   5.2085136   1.5567490  12.5272226  )
         9           O1  tau(   9) = (   2.0368910   1.4086519  15.9478609  )
        10           Ti1 tau(  10) = (   0.0007404   1.4906270   9.2895810  )
        11           Ti1 tau(  11) = (   3.2920048   1.2896434  12.4335303  )
        12           Ti1 tau(  12) = (   0.0003947   1.7483972  15.9485354  )
        13           O1  tau(  13) = (   4.5942328   1.4918067   9.2879030  )
        14           O1  tau(  14) = (   1.3734151   1.5562871  12.5269411  )
        15           O1  tau(  15) = (   4.5446063   1.4075665  15.9467422  )
        16           Ti1 tau(  16) = (   3.2902859   2.9801868   9.2893338  )
        17           Ti1 tau(  17) = (   0.0022843   2.7629733  12.5422407  )
        18           Ti1 tau(  18) = (   3.2887740   3.1097933  15.6402895  )
        19           O1  tau(  19) = (   0.0003479   2.9813005  10.5931620  )
        20           O1  tau(  20) = (   3.2903674   2.9527630  13.7969158  )
        21           O1  tau(  21) = (   0.0002396   2.9813036   7.9858123  )
        22           O1  tau(  22) = (   3.2906228   2.9775883  11.1663003  )
        23           O1  tau(  23) = (   0.0006598   2.9368866  14.5305733  )
        24           O1  tau(  24) = (   1.9864658   4.4711199   9.2879459  )
        25           O1  tau(  25) = (   5.2231876   4.5386380  12.5467233  )
        26           O1  tau(  26) = (   2.0248981   4.3679406  15.9930346  )
        27           Ti1 tau(  27) = (   0.0003529   4.4714252   9.2895810  )
        28           Ti1 tau(  28) = (   3.2918124   4.3135021  12.5344809  )
        29           Ti1 tau(  29) = (   6.5788423   4.6929592  16.0739603  )
        30           O1  tau(  30) = (   4.5938453   4.4726049   9.2879030  )
        31           O1  tau(  31) = (   1.3570704   4.5373869  12.5465102  )
        32           O1  tau(  32) = (   4.5538814   4.3671241  15.9936543  )
        33           Ti1 tau(  33) = (   3.2898983   5.9609850   9.2893338  )
        34           Ti1 tau(  34) = (   0.0013264   5.7428985  12.5110789  )
        35           Ti1 tau(  35) = (   3.2898306   6.0937744  16.2866611  )
        36           O1  tau(  36) = (  -0.0000397   5.9620987  10.5931620  )
        37           O1  tau(  37) = (   3.2897329   5.8964334  13.7986068  )
        38           O1  tau(  38) = (  -0.0007474   6.0119579  17.1634496  )
        39           O1  tau(  39) = (  -0.0001480   5.9621018   7.9858123  )
        40           O1  tau(  40) = (   3.2898370   5.9388437  11.1687384  )
        41           O1  tau(  41) = (  -0.0001539   5.9931028  14.5676369  )
        42           O1  tau(  42) = (   1.9860782   7.4519181   9.2879459  )
        43           O1  tau(  43) = (   5.2258842   7.5046952  12.5406166  )
        44           O1  tau(  44) = (   2.0242945   7.4351242  16.0034066  )
        45           Ti1 tau(  45) = (  -0.0000347   7.4522234   9.2895810  )
        46           Ti1 tau(  46) = (   3.2896699   7.1866417  12.6007890  )
        47           Ti1 tau(  47) = (   0.0000787   7.5542351  15.7482610  )
        48           O1  tau(  48) = (   4.5934577   7.4534031   9.2879030  )
        49           O1  tau(  49) = (   1.3527639   7.5038087  12.5404143  )
        50           O1  tau(  50) = (   4.5545665   7.4356877  16.0029592  )
        51           Ti1 tau(  51) = (   3.2895107   8.9417832   9.2893338  )
        52           Ti1 tau(  52) = (  -0.0005703   8.7121504  12.4856418  )
        53           Ti1 tau(  53) = (   3.2909615   0.1005107  15.6284087  )
        54           H1  tau(  54) = (   6.5785809   3.1351568  18.2788824  )
        55           H1  tau(  55) = (   6.5783155   8.7923607  18.1116139  )
        56           N1  tau(  56) = (  -0.0001347   2.9716693  17.2674093  )
        57           N1  tau(  57) = (   3.2897564   5.9921341  18.1800631  )
        58           H1  tau(  58) = (   3.2887465   5.1266479  18.7045293  )
        59           H1  tau(  59) = (   3.2892443   6.7858760  18.8071070  )

     number of k points=    10  Fermi-Dirac smearing, width (Ry)=  0.0073
                       cart. coord. in units 2pi/alat
        k(    1) = (   0.0000000   0.0000000   0.0000000), wk =   0.1250000
        k(    2) = (   0.0000000   0.0279567   0.0000000), wk =   0.2500000
        k(    3) = (   0.0000000  -0.0559134   0.0000000), wk =   0.1250000
        k(    4) = (   0.0379955   0.0000049   0.0000000), wk =   0.2500000
        k(    5) = (   0.0379955   0.0279617   0.0000000), wk =   0.2500000
        k(    6) = (   0.0379955  -0.0559085   0.0000000), wk =   0.2500000
        k(    7) = (   0.0379955  -0.0279518   0.0000000), wk =   0.2500000
        k(    8) = (  -0.0759910  -0.0000099   0.0000000), wk =   0.1250000
        k(    9) = (  -0.0759910   0.0279468   0.0000000), wk =   0.2500000
        k(   10) = (  -0.0759910  -0.0559233   0.0000000), wk =   0.1250000

     Initial potential from superposition of free atoms

     starting charge  421.99910, renormalised to  440.00000

     negative rho (up, down):  3.701E-02 0.000E+00

     %%%%%%%%%%%%%%%%%%%%%%%%%%%%%%%%%%%%%%%%%%%%%%%%%%%%%%%%%%%%%%%%%%%%%%%%
     %                                                                      %
     % You are using vdW-DF, which was implemented by the Thonhauser group. %
     % Please cite the following two papers that made this development      %
     % possible and the two reviews that describe the various versions:     %
     %                                                                      %
     %   T. Thonhauser et al., PRL 115, 136402 (2015).                      %
     %   T. Thonhauser et al., PRB 76, 125112 (2007).                       %
     %   K. Berland et al., Rep. Prog. Phys. 78, 066501 (2015).             %
     %   D.C. Langreth et al., J. Phys.: Condens. Matter 21, 084203 (2009). %
     %                                                                      %
     %                                                                      %
     % If you are calculating the stress with vdW-DF, please also cite:     %
     %                                                                      %
     %   R. Sabatini et al., J. Phys.: Condens. Matter 24, 424209 (2012).   %
     %                                                                      %
     %%%%%%%%%%%%%%%%%%%%%%%%%%%%%%%%%%%%%%%%%%%%%%%%%%%%%%%%%%%%%%%%%%%%%%%%

     Adding external electric field

     Computed dipole along edir(3) :
        Dipole               -3.9432 Ry au,        -10.0227 Debye
        Dipole field         -0.0050 Ry au,

        Potential amp.        0.4599 Ry
        Total length         46.3494 bohr

     Starting wfcs are  332 atomic wfcs
  @ DRIVER MODE: Message from server: STATUS
  @ DRIVER MODE: Message from server: POSDATA
  @ DRIVER MODE: Reading and sharing cell
  @ DRIVER MODE: Reading and sharing positions
  @ DRIVER MODE: Received positions

     Self-consistent Calculation

     iteration #  1     ecut=    29.40 Ry     beta= 0.05
     Davidson diagonalization with overlap
     c_bands:  1 eigenvalues not converged
     c_bands:  2 eigenvalues not converged
     c_bands:  4 eigenvalues not converged
     c_bands:  2 eigenvalues not converged
     c_bands:  2 eigenvalues not converged
     c_bands:  2 eigenvalues not converged
     c_bands:  4 eigenvalues not converged
     c_bands:  3 eigenvalues not converged
     c_bands:  2 eigenvalues not converged
     ethr =  1.00E-05,  avg # of iterations = 19.8

[...]

     total energy              =   -3294.67389612 Ry
     estimated scf accuracy    <      19.62429977 Ry

     iteration #  2     ecut=    29.40 Ry     beta= 0.05
     Davidson diagonalization with overlap
     ethr =  4.46E-03,  avg # of iterations =  1.0

[...]

     iteration # 30     ecut=    29.40 Ry     beta= 0.05
     Davidson diagonalization with overlap
     c_bands:  2 eigenvalues not converged
     c_bands:  1 eigenvalues not converged
     ethr =  8.12E-07,  avg # of iterations = 13.9

[...]

     total energy              =   -3293.29220971 Ry
     estimated scf accuracy    <       0.00000010 Ry

     iteration # 65     ecut=    29.40 Ry     beta= 0.05
     Davidson diagonalization with overlap
     ethr =  2.14E-11,  avg # of iterations =  5.1

     negative rho (up, down):  3.601E-02 0.000E+00

     Adding external electric field

     Computed dipole along edir(3) :
        Dipole                1.2951 Ry au,          3.2919 Debye
        Dipole field          0.0016 Ry au,

        Potential amp.       -0.1510 Ry
        Total length         46.3494 bohr

     End of self-consistent calculation

          k = 0.0000 0.0000 0.0000 ( 26871 PWs)   bands (ev):

   -58.2961 -58.2722 -58.2684 -58.2091 -58.1607 -57.7929 -57.7724 -57.7563
   -57.6213 -57.5912 -57.5708 -57.5123 -57.4879 -56.8984 -56.8767 -56.8509
   -56.8410 -56.8359 -34.6873 -34.6602 -34.6301 -34.6183 -34.6127 -34.6077
   -34.5449 -34.4815 -34.4713 -34.4088 -34.4046 -34.4017 -34.3880 -34.3578
   -34.3328 -34.1950 -34.1491 -34.1442 -34.1238 -34.0955 -34.0821 -34.0776
   -34.0568 -34.0200 -34.0079 -33.9622 -33.9183 -33.8736 -33.8589 -33.8499
   -33.8341 -33.8264 -33.7796 -33.7566 -33.7481 -33.7425 -33.6958 -33.6901
   -33.6770 -33.3600 -33.2214 -33.2113 -33.2015 -33.1871 -33.1803 -33.1737
   -33.1621 -33.1166 -33.0844 -33.0779 -33.0257 -33.0245 -33.0076 -32.8845
   -18.9119 -18.8259 -18.3707 -18.2952 -18.1735 -18.1184 -18.1121 -18.0467
   -17.9439 -17.7228 -17.6824 -17.6737 -17.6455 -17.5378 -17.5297 -17.5262
   -17.4922 -17.4853 -17.4729 -17.3850 -17.3261 -17.3136 -17.3078 -17.3076
   -17.1987 -17.1743 -17.1224 -17.0562 -17.0442 -16.9484 -16.7640 -16.4303
   -15.3525 -15.3118 -15.3021 -15.1564 -13.5490  -6.9779  -6.6263  -6.1781
    -5.9845  -5.7745  -5.6338  -5.5212  -5.4675  -5.3758  -5.3098  -5.2844
    -5.2675  -5.2229  -5.1860  -5.1669  -5.0640  -5.0541  -4.9731  -4.9186
    -4.8730  -4.8267  -4.7846  -4.7382  -4.7359  -4.6965  -4.6275  -4.6154
    -4.5816  -4.5348  -4.5058  -4.4976  -4.4423  -4.4138  -4.3929  -4.2730
    -4.2585  -4.1909  -4.1793  -4.1720  -4.0671  -4.0602  -4.0168  -3.9859
    -3.9801  -3.9603  -3.9100  -3.8297  -3.8020  -3.6431  -3.6202  -3.6109
    -3.5187  -3.3800  -3.3665  -3.3221  -3.2027  -3.1355  -3.1115  -3.0761
    -3.0561  -3.0387  -3.0157  -3.0040  -2.9705  -2.8760  -2.8751  -2.8139
    -2.8116  -2.7968  -2.7749  -2.7695  -2.7301  -2.6575  -2.5982  -2.5856
    -2.5645  -2.5468  -2.4603  -2.4458  -2.3551  -2.3398  -2.2837  -2.2414
    -2.2354  -2.1698  -2.0949  -2.0872  -2.0233  -1.9989  -1.8250  -1.7998
    -1.7223  -1.7168  -1.6503  -1.6234  -1.6007  -1.5483  -1.4237  -1.3927
    -1.2970  -1.1843  -1.0211  -0.7814  -0.5911  -0.5693  -0.5602  -0.5280
    -0.4334  -0.3814  -0.3654  -0.2703   0.9820   1.1280   1.2810   1.3027
     1.4964   1.6059   1.6186   1.6737   1.7525   1.8510

[...]

          k = 0.0380-0.0280 0.0000 ( 26873 PWs)   bands (ev):

[...]

          k =-0.0760-0.0000 0.0000 ( 26902 PWs)   bands (ev):

[...]

          k =-0.0760-0.0559 0.0000 ( 26868 PWs)   bands (ev):

   -58.2895 -58.2854 -58.2618 -58.2089 -58.1608 -57.7929 -57.7719 -57.7567
   -57.6197 -57.5946 -57.5690 -57.5122 -57.4880 -56.8985 -56.8738 -56.8568
   -56.8409 -56.8329 -34.7127 -34.7088 -34.6625 -34.6379 -34.6050 -34.4969
   -34.4821 -34.4479 -34.4447 -34.4322 -34.4257 -34.4059 -34.3839 -34.3803
   -34.3598 -34.2304 -34.1718 -34.1666 -34.1384 -34.1209 -34.0779 -34.0016
   -33.9979 -33.9977 -33.9636 -33.9268 -33.9199 -33.9058 -33.8978 -33.8741
   -33.8648 -33.8493 -33.7745 -33.7660 -33.7386 -33.7126 -33.7120 -33.6939
   -33.6882 -33.3356 -33.2631 -33.2223 -33.2175 -33.2071 -33.1840 -33.1758
   -33.1235 -33.0788 -33.0713 -33.0524 -33.0295 -32.9954 -32.9889 -32.9720
   -18.8903 -18.6208 -18.4734 -18.2373 -18.1372 -17.9734 -17.8906 -17.8778
   -17.8599 -17.8590 -17.7599 -17.7489 -17.6978 -17.6729 -17.6301 -17.6205
   -17.6082 -17.5711 -17.5650 -17.4515 -17.3610 -17.3518 -17.2566 -17.2416
   -17.2144 -17.1528 -17.1345 -17.0451 -17.0258 -16.9531 -16.7719 -16.4151
   -15.3635 -15.3518 -15.2414 -15.1571 -13.5460  -6.9501  -6.6274  -5.9487
    -5.7540  -5.7196  -5.6690  -5.3486  -5.3111  -5.2097  -5.2011  -5.1621
    -5.1368  -5.1222  -5.0927  -5.0812  -5.0061  -4.9692  -4.9602  -4.9564
    -4.9133  -4.8944  -4.8459  -4.8248  -4.7750  -4.7542  -4.7460  -4.7117
    -4.6678  -4.6493  -4.5746  -4.5695  -4.4956  -4.4565  -4.3179  -4.2339
    -4.2087  -4.1792  -4.0826  -4.0690  -4.0360  -3.9403  -3.9243  -3.9038
    -3.7760  -3.7413  -3.6319  -3.6159  -3.5668  -3.5438  -3.5160  -3.4882
    -3.4240  -3.3819  -3.3658  -3.3609  -3.3267  -3.2583  -3.2279  -3.2115
    -3.1798  -3.1619  -3.1515  -3.1408  -3.0745  -3.0579  -3.0282  -2.9887
    -2.9273  -2.9025  -2.8479  -2.8467  -2.7858  -2.7460  -2.6918  -2.6859
    -2.6137  -2.5915  -2.5854  -2.5775  -2.4767  -2.4510  -2.4431  -2.3018
    -2.1632  -2.1118  -2.0688  -1.9655  -1.9076  -1.9040  -1.8801  -1.8119
    -1.7872  -1.7039  -1.6492  -1.6258  -1.6185  -1.5928  -1.3741  -1.3440
    -1.3323  -1.2893  -1.2252  -1.1300  -0.8115  -0.5919  -0.5776  -0.4986
    -0.4757  -0.4226  -0.4012  -0.3868   1.0312   1.2061   1.2776   1.3708
     1.3716   1.4042   1.4538   1.6198   1.6534   1.7069

     the Fermi energy is     0.3890 ev

!    total energy              =   -3293.29223254 Ry
     estimated scf accuracy    <       0.00000004 Ry
     smearing contrib. (-TS)   =      -0.00047782 Ry
     internal energy E=F+TS    =   -3293.29175472 Ry

     The total energy is F=E-TS. E is the sum of the following terms:
     one-electron contribution =  -34638.40175902 Ry
     hartree contribution      =   17383.50784786 Ry
     xc contribution           =    -542.07857055 Ry
     ewald contribution        =   14503.67861672 Ry
     electric field correction =       0.00211027 Ry

     convergence has been achieved in  65 iterations

     Forces acting on atoms (cartesian axes, Ry/au):

     atom    1 type  1   force =     0.00000867    0.00244837    0.04673595
     atom    2 type  1   force =     0.00000794   -0.00342096   -0.00287547
     atom    3 type  1   force =    -0.00001003    0.00323976   -0.00095819
     atom    4 type  1   force =     0.00005120   -0.00098421    0.10170685
     atom    5 type  1   force =    -0.00000922   -0.00071127    0.00561158
     atom    6 type  1   force =    -0.00001337    0.00369110    0.00081614
     atom    7 type  1   force =     0.07818961    0.00086047   -0.03539829
     atom    8 type  1   force =     0.00834630   -0.02587848    0.00017882
     atom    9 type  1   force =     0.00850631    0.02068186    0.00128147
     atom   10 type  2   force =    -0.00006266    0.00867191   -0.15836923
     atom   11 type  2   force =    -0.00003712    0.02308689   -0.00230382
     atom   12 type  2   force =     0.00005319   -0.02576272   -0.00427739
     atom   13 type  1   force =    -0.07828291    0.00040372   -0.03538670
     atom   14 type  1   force =    -0.00839253   -0.02579164    0.00018653
     atom   15 type  1   force =    -0.00845829    0.02079095    0.00131383
     atom   16 type  2   force =     0.00012884    0.00086834    0.07318875
     atom   17 type  2   force =     0.00006119    0.03072264    0.00238050
     atom   18 type  2   force =    -0.00006091   -0.02690121    0.00068095
     atom   19 type  1   force =     0.00004053    0.00299807    0.05011776
     atom   20 type  1   force =    -0.00002138   -0.00126500   -0.00144450
     atom   21 type  1   force =     0.00005153   -0.00064588    0.10018257
     atom   22 type  1   force =    -0.00001630   -0.00179412    0.00543960
     atom   23 type  1   force =    -0.00002110    0.00239397    0.00384379
     atom   24 type  1   force =     0.07914004    0.00064785   -0.03605043
     atom   25 type  1   force =     0.00924873   -0.02948263    0.00062465
     atom   26 type  1   force =     0.00848895    0.02156632    0.00321713
     atom   27 type  2   force =    -0.00006837   -0.00813520   -0.15491917
     atom   28 type  2   force =    -0.00000788    0.02628646   -0.00223905
     atom   29 type  2   force =     0.00004314   -0.02430735   -0.00317498
     atom   30 type  1   force =    -0.07922962    0.00023844   -0.03604626
     atom   31 type  1   force =    -0.00925535   -0.02941316    0.00063034
     atom   32 type  1   force =    -0.00844424    0.02164310    0.00324455
     atom   33 type  2   force =     0.00013243   -0.00255741    0.07887475
     atom   34 type  2   force =     0.00004941    0.03585145    0.00273933
     atom   35 type  2   force =    -0.00006821   -0.02920946    0.00298217
     atom   36 type  1   force =     0.00004201    0.00307492    0.05239992
     atom   37 type  1   force =    -0.00000375   -0.00186881   -0.00283831
     atom   38 type  1   force =    -0.00002100    0.00206295    0.00079270
     atom   39 type  1   force =     0.00004717    0.00287433    0.10110907
     atom   40 type  1   force =    -0.00000945   -0.00169999    0.00618221
     atom   41 type  1   force =    -0.00002782    0.00300397    0.00388172
     atom   42 type  1   force =     0.07825050    0.00076336   -0.03487108
     atom   43 type  1   force =     0.00661669   -0.02304308   -0.00020787
     atom   44 type  1   force =     0.01115413    0.02211833   -0.00716257
     atom   45 type  2   force =    -0.00006140   -0.00551079   -0.16464130
     atom   46 type  2   force =    -0.00007768    0.01957419    0.00099970
     atom   47 type  2   force =     0.00002693   -0.01858469    0.00740199
     atom   48 type  1   force =    -0.07834666    0.00031391   -0.03485362
     atom   49 type  1   force =    -0.00665792   -0.02300961   -0.00020392
     atom   50 type  1   force =    -0.01112258    0.02210203   -0.00711763
     atom   51 type  2   force =     0.00012637   -0.00436969    0.06097448
     atom   52 type  2   force =     0.00012353    0.02964533    0.00358003
     atom   53 type  2   force =    -0.00007396   -0.02498678    0.00093740
     atom   54 type  3   force =     0.00000840   -0.00165474   -0.01573538
     atom   55 type  3   force =    -0.00001724   -0.00009862    0.00013656
     atom   56 type  4   force =    -0.00003741    0.00944871    0.01599960
     atom   57 type  4   force =    -0.00000656   -0.00046975    0.00053884
     atom   58 type  3   force =    -0.00000555   -0.00011875   -0.00005937
     atom   59 type  3   force =    -0.00001523   -0.00039768    0.00022232

     Total force =     0.437909     Total SCF correction =     0.000648
  @ DRIVER MODE: Message from server: STATUS
  @ DRIVER MODE: Message from server: GETFORCE
  @ DRIVER MODE: Returning v,forces,stress,ensemble

     Writing output data file ./calc.save/
  @ DRIVER MODE: Message from server: EXIT
  @ DRIVE MODE: Exiting

     General routines

     Parallel routines

   This run was terminated on:  14:46: 1  18Oct2021

   JOB DONE.