     Program PWSCF v.6.7GPU starts on 23Aug2021 at 19:54:41

     R & G space division:  proc/nbgrp/npool/nimage =       6
     Reading input from /storage/home/hcoda1/3/ntian30/research/carbon/CH_vib/ads_slab/CHN2H_a/out_0014/pw.inp
Warning: card &CELL ignored
Warning: card   CELL_DYNAMICS='IPI', ignored
Warning: card / ignored

     Current dimensions of program PWSCF are:
     Max number of different atomic species (ntypx) = 10
     Max number of k-points (npk) =  40000
     Max angular momentum in pseudopotentials (lmaxx) =  3
     Presently no symmetry can be used with electric field

     Message from routine cell_base_init:
     DEPRECATED: use true lattice parameter, not A to a.u. conversion factor

     IMPORTANT: XC functional enforced from input :
     Exchange-correlation= BEEF-VDW
                           (   1   4  43  14   2   0   0)
     Any further DFT definition will be discarded
     Please, verify this is what you really want

  @ DRIVER MODE: Connecting to
 qe_1139763_2632792.sched-torque.pace.gatech.eduuicu3_0h_scratch
  using UNIX socket
  @ DRIVER MODE: Message from server: STATUS
  @ DRIVER MODE: Message from server: INIT
  @ DRIVER MODE: Receiving replica           0          -1
  @ DRIVER MODE: Receiving encoded integer          25
  @ DRIVER MODE:  SCF:  T  FORCE:  T  STRESS:  F  VC:  F  ENSEMBLE:  F
  @ DRIVER MODE:  SCF:  T  FORCE:  T  STRESS:  F  VC:  F  ENSEMBLE:  F

     Using Slab Decomposition

     bravais-lattice index     =            0
     lattice parameter (alat)  =       1.8897  a.u.
     unit-cell volume          =    6658.9804 (a.u.)^3
     number of atoms/cell      =           52
     number of atomic types    =            5
     number of electrons       =       394.00
     number of Kohn-Sham states=          207
     kinetic-energy cutoff     =      29.3995  Ry
     charge density cutoff     =     293.9946  Ry
     scf convergence threshold =      7.3E-08
     mixing beta               =       0.0500
     number of iterations used =            8  plain     mixing
     Exchange-correlation= BEEF-VDW
                           (   1   4  43  14   2   0   0)

     celldm(1)=   1.889726  celldm(2)=   0.000000  celldm(3)=   0.000000
     celldm(4)=   0.000000  celldm(5)=   0.000000  celldm(6)=   0.000000

     crystal axes: (cart. coord. in units of alat)
               a(1) = (   6.579727   0.000000   0.000000 )
               a(2) = (  -0.000775   5.961596   0.000000 )
               a(3) = (   0.000000   0.000000  25.155947 )

     reciprocal axes: (cart. coord. in units 2 pi/alat)
               b(1) = (  0.151982  0.000020  0.000000 )
               b(2) = (  0.000000  0.167740  0.000000 )
               b(3) = (  0.000000  0.000000  0.039752 )

     PseudoPot. # 1 for Ti read from file:
     /storage/coda1/p-amedford6/0/shared/rich_project_chbe-medford/medford-share/data/pseudos_module/espresso/nninc/pbe/van/Ti.UPF
     MD5 check sum: 8e4df49b7f0d34bbd5052bf3f5ea0213
     Pseudo is Ultrasoft, Zval = 12.0
     Generated by new atomic code, or converted to UPF format
     Using radial grid of  851 points,  6 beta functions with:
                l(1) =   0
                l(2) =   0
                l(3) =   1
                l(4) =   1
                l(5) =   2
                l(6) =   2
     Q(r) pseudized with  8 coefficients,  rinner =    1.000   1.000   1.000
                                                       1.000   1.000

     PseudoPot. # 2 for O  read from file:
     /storage/coda1/p-amedford6/0/shared/rich_project_chbe-medford/medford-share/data/pseudos_module/espresso/nninc/pbe/van/O.UPF
     MD5 check sum: 78c19812648e8988a0fe644b0f25305e
     Pseudo is Ultrasoft, Zval =  6.0
     Generated by new atomic code, or converted to UPF format
     Using radial grid of  737 points,  4 beta functions with:
                l(1) =   0
                l(2) =   0
                l(3) =   1
                l(4) =   1
     Q(r) pseudized with  8 coefficients,  rinner =    0.800   0.800   0.800

     PseudoPot. # 3 for N  read from file:
     /storage/coda1/p-amedford6/0/shared/rich_project_chbe-medford/medford-share/data/pseudos_module/espresso/nninc/pbe/van/N.UPF
     MD5 check sum: 90d10febe142ad51ac9d5be1deb811c4
     Pseudo is Ultrasoft, Zval =  5.0
     Generated by new atomic code, or converted to UPF format
     Using radial grid of  729 points,  4 beta functions with:
                l(1) =   0
                l(2) =   0
                l(3) =   1
                l(4) =   1
     Q(r) pseudized with  8 coefficients,  rinner =    0.800   0.800   0.800

     PseudoPot. # 4 for C  read from file:
     /storage/coda1/p-amedford6/0/shared/rich_project_chbe-medford/medford-share/data/pseudos_module/espresso/nninc/pbe/van/C.UPF
     MD5 check sum: 1a69bf6b8db32088f5b2163dbdb77a27
     Pseudo is Ultrasoft, Zval =  4.0
     Generated by new atomic code, or converted to UPF format
     Using radial grid of  721 points,  4 beta functions with:
                l(1) =   0
                l(2) =   0
                l(3) =   1
                l(4) =   1
     Q(r) pseudized with  8 coefficients,  rinner =    0.800   0.800   0.800

     PseudoPot. # 5 for H  read from file:
     /storage/coda1/p-amedford6/0/shared/rich_project_chbe-medford/medford-share/data/pseudos_module/espresso/nninc/pbe/van/H.UPF
     MD5 check sum: b5ee9d7bfd3a09ee7748110bda690ff7
     Pseudo is Ultrasoft, Zval =  1.0
     Generated by new atomic code, or converted to UPF format
     Using radial grid of  615 points,  1 beta functions with:
                l(1) =   0
     Q(r) pseudized with  8 coefficients,  rinner =    0.800

     atomic species   valence    mass     pseudopotential
        Ti1           12.00    47.86700     Ti( 1.00)
        O1             6.00    15.99900     O ( 1.00)
        N1             5.00    14.00700     N ( 1.00)
        C1             4.00    12.01100     C ( 1.00)
        H1             1.00     1.00800     H ( 1.00)

     No symmetry found

   Cartesian axes

     site n.     atom                  positions (alat units)
         1           Ti1 tau(   1) = (   0.0004258   2.9801865   6.0000000  )
         2           Ti1 tau(   2) = (   3.2906075   1.4906267   6.0002472  )
         3           O1  tau(   3) = (   0.0006271   0.0005054   7.9858123  )
         4           O1  tau(   4) = (   3.2906025   0.0005020   7.3038282  )
         5           O1  tau(   5) = (   4.5942328   1.4918067   9.2879030  )
         6           O1  tau(   6) = (   1.9868534   1.4903216   9.2879459  )
         7           Ti1 tau(   7) = (   3.2907910   2.8959150   9.1758416  )
         8           Ti1 tau(   8) = (   0.0015273   1.4827037   9.2680791  )
         9           O1  tau(   9) = (   3.3079035   5.9465650  11.3667630  )
        10           O1  tau(  10) = (   0.0116148   5.9584955  10.6183126  )
        11           O1  tau(  11) = (   1.3159687   1.4802111  12.6598234  )
        12           O1  tau(  12) = (   5.3141237   1.4785834  12.6569702  )
        13           Ti1 tau(  13) = (   0.0356438   2.9569522  12.5500042  )
        14           Ti1 tau(  14) = (   3.3321116   1.4682926  12.5176941  )
        15           O1  tau(  15) = (   0.0287262   5.9365737  14.6848071  )
        16           O1  tau(  16) = (   3.3260766   5.9477468  13.9918032  )
        17           O1  tau(  17) = (   4.5788076   1.5006004  16.1778977  )
        18           O1  tau(  18) = (   2.0653823   1.4932191  16.1519216  )
        19           Ti1 tau(  19) = (   3.3252840   2.9629899  15.7366588  )
        20           Ti1 tau(  20) = (   0.0567170   1.3280226  15.9864722  )
        21           O1  tau(  21) = (   3.2904802   0.0005063   4.7018136  )
        22           O1  tau(  22) = (   0.0395201   5.9563027  17.2132275  )
        23           O1  tau(  23) = (   1.3043587   1.4918075   6.0039043  )
        24           O1  tau(  24) = (   5.2767064   1.4903225   6.0039473  )
        25           Ti1 tau(  25) = (   0.0000382   5.9609847   6.0000000  )
        26           Ti1 tau(  26) = (   3.2902200   4.4714249   6.0002472  )
        27           O1  tau(  27) = (   0.0002396   2.9813036   7.9858123  )
        28           O1  tau(  28) = (   3.2902150   2.9813002   7.3038282  )
        29           O1  tau(  29) = (   4.5938453   4.4726049   9.2879030  )
        30           O1  tau(  30) = (   1.9864658   4.4711199   9.2879459  )
        31           Ti1 tau(  31) = (   3.2891106   5.8743827   9.1763621  )
        32           Ti1 tau(  32) = (   0.0006254   4.4649316   9.2693709  )
        33           O1  tau(  33) = (   3.3109971   2.9638951  11.3609806  )
        34           O1  tau(  34) = (   0.0092240   2.9805883  10.6323155  )
        35           O1  tau(  35) = (   1.3172493   4.4579999  12.6547637  )
        36           O1  tau(  36) = (   5.3123203   4.4599931  12.6537913  )
        37           Ti1 tau(  37) = (   0.0349292   5.9384232  12.5038109  )
        38           Ti1 tau(  38) = (   3.3308216   4.4462378  12.5132791  )
        39           O1  tau(  39) = (   0.0262156   2.9786664  14.8481040  )
        40           O1  tau(  40) = (   3.3240488   2.9673873  13.9486158  )
        41           O1  tau(  41) = (   4.5778164   4.4375445  16.1741249  )
        42           O1  tau(  42) = (   2.0647505   4.4412733  16.1578575  )
        43           Ti1 tau(  43) = (   3.3314326   5.9455663  15.7867969  )
        44           Ti1 tau(  44) = (   0.0345939   4.5236910  15.9072353  )
        45           O1  tau(  45) = (   3.2900926   2.9813045   4.7018136  )
        46           O1  tau(  46) = (   1.3039711   4.4726057   6.0039043  )
        47           O1  tau(  47) = (   5.2763189   4.4711207   6.0039473  )
        48           N1  tau(  48) = (   0.8843530   3.1395628  18.6524426  )
        49           C1  tau(  49) = (   1.8908588   3.1194352  19.2834450  )
        50           H1  tau(  50) = (   2.4345030   3.8971110  19.8100181  )
        51           N1  tau(  51) = (   6.5588057   2.9807634  17.7841789  )
        52           H1  tau(  52) = (   5.6432114   2.8891999  18.2270943  )

     number of k points=    10  Fermi-Dirac smearing, width (Ry)=  0.0073
                       cart. coord. in units 2pi/alat
        k(    1) = (   0.0000000   0.0000000   0.0000000), wk =   0.1250000
        k(    2) = (   0.0000000   0.0419351   0.0000000), wk =   0.2500000
        k(    3) = (   0.0000000  -0.0838702   0.0000000), wk =   0.1250000
        k(    4) = (   0.0379955   0.0000049   0.0000000), wk =   0.2500000
        k(    5) = (   0.0379955   0.0419400   0.0000000), wk =   0.2500000
        k(    6) = (   0.0379955  -0.0838652   0.0000000), wk =   0.2500000
        k(    7) = (   0.0379955  -0.0419301   0.0000000), wk =   0.2500000
        k(    8) = (  -0.0759910  -0.0000099   0.0000000), wk =   0.1250000
        k(    9) = (  -0.0759910   0.0419252   0.0000000), wk =   0.2500000
        k(   10) = (  -0.0759910  -0.0838800   0.0000000), wk =   0.1250000

     Initial potential from superposition of free atoms

     starting charge  377.99917, renormalised to  394.00000

     negative rho (up, down):  1.652E-02 0.000E+00

     %%%%%%%%%%%%%%%%%%%%%%%%%%%%%%%%%%%%%%%%%%%%%%%%%%%%%%%%%%%%%%%%%%%%%%%%
     %                                                                      %
     % You are using vdW-DF, which was implemented by the Thonhauser group. %
     % Please cite the following two papers that made this development      %
     % possible and the two reviews that describe the various versions:     %
     %                                                                      %
     %   T. Thonhauser et al., PRL 115, 136402 (2015).                      %
     %   T. Thonhauser et al., PRB 76, 125112 (2007).                       %
     %   K. Berland et al., Rep. Prog. Phys. 78, 066501 (2015).             %
     %   D.C. Langreth et al., J. Phys.: Condens. Matter 21, 084203 (2009). %
     %                                                                      %
     %                                                                      %
     % If you are calculating the stress with vdW-DF, please also cite:     %
     %                                                                      %
     %   R. Sabatini et al., J. Phys.: Condens. Matter 24, 424209 (2012).   %
     %                                                                      %
     %%%%%%%%%%%%%%%%%%%%%%%%%%%%%%%%%%%%%%%%%%%%%%%%%%%%%%%%%%%%%%%%%%%%%%%%

     Adding external electric field

     Computed dipole along edir(3) :
        Dipole               -8.4995 Ry au,        -21.6035 Debye
        Dipole field         -0.0160 Ry au,

        Potential amp.        1.4869 Ry
        Total length         46.3494 bohr

     Starting wfcs are  298 atomic wfcs
  @ DRIVER MODE: Message from server: STATUS
  @ DRIVER MODE: Message from server: POSDATA
  @ DRIVER MODE: Reading and sharing cell
  @ DRIVER MODE: Reading and sharing positions
  @ DRIVER MODE: Received positions

     Self-consistent Calculation

     iteration #  1     ecut=    29.40 Ry     beta= 0.05
     Davidson diagonalization with overlap
     c_bands:  1 eigenvalues not converged
     c_bands:  1 eigenvalues not converged
     c_bands:  2 eigenvalues not converged
     c_bands:  2 eigenvalues not converged
     c_bands:  2 eigenvalues not converged
     c_bands:  1 eigenvalues not converged
     ethr =  1.00E-05,  avg # of iterations = 19.0

[...]

     total energy              =   -2624.27833083 Ry
     estimated scf accuracy    <    3488.42677778 Ry

[...]

     iteration #  3     ecut=    29.40 Ry     beta= 0.05
     Davidson diagonalization with overlap
     ethr =  1.00E-02,  avg # of iterations = 15.1

[...]

     iteration # 94     ecut=    29.40 Ry     beta= 0.05
     Davidson diagonalization with overlap
     c_bands:  1 eigenvalues not converged
     c_bands:  1 eigenvalues not converged
     ethr =  1.50E-10,  avg # of iterations = 15.7

[...]

     total energy              =   -2937.80855950 Ry
     estimated scf accuracy    <       0.00000008 Ry

     iteration # 99     ecut=    29.40 Ry     beta= 0.05
     Davidson diagonalization with overlap
     ethr =  1.98E-11,  avg # of iterations =  2.0

     negative rho (up, down):  1.627E-02 0.000E+00

     Adding external electric field

     Computed dipole along edir(3) :
        Dipole                1.2936 Ry au,          3.2881 Debye
        Dipole field          0.0024 Ry au,

        Potential amp.       -0.2263 Ry
        Total length         46.3494 bohr

     End of self-consistent calculation

          k = 0.0000 0.0000 0.0000 ( 18029 PWs)   bands (ev):

   -55.4331 -55.3971 -55.3967 -55.3626 -55.3267 -55.3108 -55.2677 -55.2458
   -55.2421 -55.2311 -55.2234 -55.2112 -55.1900 -55.1642 -54.4150 -54.3810
   -32.0021 -31.8873 -31.8275 -31.7966 -31.7526 -31.7449 -31.7351 -31.7262
   -31.6864 -31.6799 -31.6422 -31.6413 -31.6342 -31.6068 -31.5875 -31.5692
   -31.5652 -31.5589 -31.5501 -31.5445 -31.5103 -31.5088 -31.4996 -31.4909
   -31.4761 -31.4538 -31.4480 -31.4472 -31.4417 -31.4375 -31.4344 -31.4201
   -31.4123 -31.4060 -31.4001 -31.3950 -31.3745 -31.3604 -31.3588 -31.3527
   -31.3320 -31.2712 -30.8239 -30.7310 -30.7088 -30.6404 -30.5537 -30.4427
   -20.2351 -16.2478 -15.9755 -15.8320 -15.7083 -15.6234 -15.4967 -15.4586
   -15.3448 -15.3383 -15.2252 -15.1497 -15.0828 -15.0808 -15.0638 -15.0358
   -14.9854 -14.9682 -14.9657 -14.9234 -14.9212 -14.8793 -14.8597 -14.8257
   -14.8079 -14.7889 -14.7723 -14.6491 -14.5796 -14.5209 -14.1606 -12.9175
   -12.8003  -8.8104  -7.1431  -5.4331  -4.7258  -3.5928  -3.4329  -3.3462
    -3.3296  -3.3279  -3.1611  -3.0334  -2.8058  -2.7695  -2.6944  -2.6400
    -2.6220  -2.6003  -2.4226  -2.3981  -2.3386  -2.3116  -2.2737  -2.2434
    -2.2184  -2.2000  -2.1911  -2.1725  -2.1593  -1.9980  -1.8994  -1.8690
    -1.8332  -1.8189  -1.7592  -1.7263  -1.7206  -1.7184  -1.7094  -1.6662
    -1.6475  -1.5987  -1.4976  -1.4688  -1.4441  -1.3171  -1.2988  -1.1516
    -1.0657  -0.9812  -0.9738  -0.9069  -0.9024  -0.8685  -0.8170  -0.7930
    -0.7684  -0.6350  -0.5651  -0.5083  -0.4924  -0.4477  -0.4023  -0.3665
    -0.2735  -0.2087  -0.2011  -0.1891  -0.0244  -0.0103   0.0369   0.0862
     0.1107   0.1597   0.1848   0.2542   0.2880   0.3337   0.3639   0.4607
     0.5004   0.5208   0.5345   0.5540   0.5664   0.6265   0.6936   0.7122
     0.7604   0.8165   0.9283   1.1252   1.1881   1.2007   1.5174   1.5513
     1.6077   1.7929   2.1826   2.2303   3.6670   3.7385   3.8023   3.8174
     3.8259   3.9027   4.0793   4.1502   4.1660   4.1725   4.1837

[...]

          k = 0.0380-0.0419 0.0000 ( 17876 PWs)   bands (ev):

[...]

          k =-0.0760-0.0000 0.0000 ( 17886 PWs)   bands (ev):

[...]

          k =-0.0760-0.0839 0.0000 ( 17948 PWs)   bands (ev):

   -55.4162 -55.4137 -55.3797 -55.3795 -55.3234 -55.3023 -55.2762 -55.2377
   -55.2343 -55.2294 -55.2270 -55.2071 -55.2067 -55.1684 -54.3980 -54.3978
   -31.8071 -31.8042 -31.7460 -31.7258 -31.7024 -31.7024 -31.6908 -31.6718
   -31.6717 -31.6437 -31.6343 -31.6289 -31.6258 -31.5855 -31.5634 -31.5603
   -31.5601 -31.5523 -31.5519 -31.5413 -31.5286 -31.5193 -31.5088 -31.5051
   -31.5009 -31.4993 -31.4989 -31.4946 -31.4705 -31.4628 -31.4625 -31.4597
   -31.4431 -31.4408 -31.4403 -31.4314 -31.4298 -31.4252 -31.3872 -31.3868
   -31.3823 -31.3626 -30.7216 -30.7214 -30.6366 -30.6363 -30.5971 -30.5970
   -20.2338 -15.7036 -15.6831 -15.6241 -15.4181 -15.4163 -15.4034 -15.3894
   -15.3727 -15.2310 -15.2121 -15.1958 -15.1778 -15.1354 -15.1322 -15.1171
   -15.1072 -15.0065 -15.0044 -15.0023 -15.0009 -14.9384 -14.9304 -14.9167
   -14.8822 -14.8790 -14.8500 -14.7800 -14.7771 -14.6451 -14.4813 -12.9019
   -12.9017  -8.7956  -7.1628  -5.4315  -4.7094  -2.9584  -2.8881  -2.8451
    -2.6353  -2.6126  -2.5979  -2.5152  -2.4659  -2.4038  -2.3963  -2.3904
    -2.3306  -2.2956  -2.2820  -2.2636  -2.2555  -2.2387  -2.2166  -2.2059
    -2.1602  -2.1482  -2.1386  -2.1044  -2.0906  -2.0721  -2.0489  -2.0320
    -2.0137  -2.0082  -1.9888  -1.8282  -1.7770  -1.7306  -1.6804  -1.6703
    -1.6249  -1.6173  -1.5234  -1.4888  -1.4601  -1.4329  -1.4241  -1.2333
    -1.2176  -1.1645  -1.1600  -1.1366  -0.9812  -0.9606  -0.9453  -0.9275
    -0.8821  -0.8001  -0.7935  -0.7556  -0.6490  -0.6184  -0.6121  -0.5615
    -0.4411  -0.4181  -0.3959  -0.3900  -0.3842  -0.2913  -0.2740  -0.2657
    -0.2330  -0.1993  -0.1486  -0.1422  -0.0896   0.0930   0.1373   0.2029
     0.2822   0.4509   0.4898   0.5169   0.5585   0.6196   0.6928   0.7087
     0.7736   0.8675   0.8823   0.9114   0.9844   1.0375   1.0454   1.0696
     1.9657   1.9665   2.0502   2.0503   3.8378   3.8484   3.9109   3.9481
     3.9968   4.0848   4.1859   4.2015   4.2457   4.2468   4.3293

     the Fermi energy is     3.7209 ev

!    total energy              =   -2937.80856152 Ry
     estimated scf accuracy    <       0.00000006 Ry
     smearing contrib. (-TS)   =      -0.03814434 Ry
     internal energy E=F+TS    =   -2937.77041719 Ry

     The total energy is F=E-TS. E is the sum of the following terms:
     one-electron contribution =  -24092.27879147 Ry
     hartree contribution      =   12136.22441453 Ry
     xc contribution           =    -484.38154838 Ry
     ewald contribution        =    9502.66235005 Ry
     electric field correction =       0.00315808 Ry

     convergence has been achieved in  99 iterations

     Forces acting on atoms (cartesian axes, Ry/au):

     atom    1 type  1   force =     0.00006316   -0.00012147    0.09406620
     atom    2 type  1   force =    -0.00016622   -0.00022135   -0.17762857
     atom    3 type  2   force =     0.00011069   -0.00020790   -0.02136194
     atom    4 type  2   force =     0.00002463   -0.00184005    0.05757274
     atom    5 type  2   force =    -0.01068626   -0.00139213    0.00632671
     atom    6 type  2   force =     0.01275186   -0.00074508    0.00661006
     atom    7 type  1   force =     0.00011491    0.00196335   -0.01405319
     atom    8 type  1   force =    -0.00047043    0.00583764    0.00396354
     atom    9 type  2   force =     0.00036151    0.00022939   -0.00009577
     atom   10 type  2   force =    -0.00024028    0.00021668   -0.00512807
     atom   11 type  2   force =     0.00005335   -0.00015614   -0.00045558
     atom   12 type  2   force =    -0.00029540    0.00000708    0.00007722
     atom   13 type  1   force =    -0.00025228    0.00001167   -0.00030667
     atom   14 type  1   force =    -0.00008827    0.00014739   -0.00018268
     atom   15 type  2   force =    -0.00048767   -0.00039240   -0.00015846
     atom   16 type  2   force =    -0.00018385    0.00019126    0.00004540
     atom   17 type  2   force =     0.00002822   -0.00017152   -0.00009378
     atom   18 type  2   force =    -0.00045908   -0.00010713   -0.00043583
     atom   19 type  1   force =    -0.00019522    0.00012872   -0.00033652
     atom   20 type  1   force =    -0.00034043   -0.00009205    0.00057055
     atom   21 type  2   force =     0.00001704    0.00002250    0.10383497
     atom   22 type  2   force =     0.00002346    0.00008157   -0.00001197
     atom   23 type  2   force =    -0.07065536   -0.00007510   -0.02702626
     atom   24 type  2   force =     0.07054617    0.00036809   -0.02708133
     atom   25 type  1   force =     0.00001017   -0.00007720    0.09369345
     atom   26 type  1   force =    -0.00013743   -0.00016329   -0.17769355
     atom   27 type  2   force =     0.00013366   -0.00023636   -0.02036418
     atom   28 type  2   force =     0.00006782   -0.00155353    0.05704354
     atom   29 type  2   force =    -0.01102844   -0.00053579    0.00635174
     atom   30 type  2   force =     0.01294827   -0.00027072    0.00664628
     atom   31 type  1   force =     0.00029883    0.00519955   -0.01483605
     atom   32 type  1   force =    -0.00040186   -0.00658178    0.00412559
     atom   33 type  2   force =     0.00015805    0.00008094   -0.00032909
     atom   34 type  2   force =     0.00036022   -0.00102211   -0.00203382
     atom   35 type  2   force =    -0.00030689    0.00015289   -0.00022195
     atom   36 type  2   force =    -0.00004416    0.00000282    0.00010849
     atom   37 type  1   force =    -0.00007263    0.00023794   -0.00015850
     atom   38 type  1   force =     0.00006092    0.00025601    0.00019505
     atom   39 type  2   force =    -0.00006993    0.00019502    0.00011815
     atom   40 type  2   force =    -0.00029775    0.00009484   -0.00020928
     atom   41 type  2   force =    -0.00018443   -0.00008667    0.00012985
     atom   42 type  2   force =    -0.00026838    0.00013344   -0.00014743
     atom   43 type  1   force =    -0.00015169    0.00012641   -0.00018242
     atom   44 type  1   force =    -0.00004329   -0.00036869   -0.00017134
     atom   45 type  2   force =     0.00001406   -0.00000314    0.10384550
     atom   46 type  2   force =    -0.07067499   -0.00004064   -0.02704241
     atom   47 type  2   force =     0.07055402    0.00039803   -0.02707707
     atom   48 type  3   force =     0.00215803    0.00041281    0.00157911
     atom   49 type  4   force =     0.00166286    0.00430664    0.00222320
     atom   50 type  5   force =    -0.00393069   -0.00442502   -0.00357499
     atom   51 type  3   force =    -0.00018963   -0.00039629   -0.00082387
     atom   52 type  5   force =    -0.00019899    0.00048087    0.00009527

     Total force =     0.366128     Total SCF correction =     0.000713
  @ DRIVER MODE: Message from server: STATUS
  @ DRIVER MODE: Message from server: GETFORCE
  @ DRIVER MODE: Returning v,forces,stress,ensemble

     Writing output data file ./calc.save/
  @ DRIVER MODE: Message from server: EXIT
  @ DRIVE MODE: Exiting

     General routines

     Parallel routines

   This run was terminated on:  20:38:41  23Aug2021

   JOB DONE.