     Program PWSCF v.6.7GPU starts on 24Aug2021 at 13:52:12

     R & G space division:  proc/nbgrp/npool/nimage =      72
     Reading input from /storage/home/hcoda1/3/ntian30/research/carbon/CH2_vib/ads_slab/CH2NH_a/out_0012/pw.inp
Warning: card &CELL ignored
Warning: card   CELL_DYNAMICS='IPI', ignored
Warning: card / ignored

     Current dimensions of program PWSCF are:
     Max number of different atomic species (ntypx) = 10
     Max number of k-points (npk) =  40000
     Max angular momentum in pseudopotentials (lmaxx) =  3
     Presently no symmetry can be used with electric field

     Message from routine cell_base_init:
     DEPRECATED: use true lattice parameter, not A to a.u. conversion factor

     IMPORTANT: XC functional enforced from input :
     Exchange-correlation= BEEF-VDW
                           (   1   4  43  14   2   0   0)
     Any further DFT definition will be discarded
     Please, verify this is what you really want

  @ DRIVER MODE: Connecting to
 qe_1139763_2641438.sched-torque.pace.gatech.eduzcp83orv_scratch
  using UNIX socket
  @ DRIVER MODE: Message from server: STATUS
  @ DRIVER MODE: Message from server: INIT
  @ DRIVER MODE: Receiving replica           0          -1
  @ DRIVER MODE: Receiving encoded integer          25
  @ DRIVER MODE:  SCF:  T  FORCE:  T  STRESS:  F  VC:  F  ENSEMBLE:  F
  @ DRIVER MODE:  SCF:  T  FORCE:  T  STRESS:  F  VC:  F  ENSEMBLE:  F

     Using Slab Decomposition

     bravais-lattice index     =            0
     lattice parameter (alat)  =       1.8897  a.u.
     unit-cell volume          =    6658.9804 (a.u.)^3
     number of atoms/cell      =           52
     number of atomic types    =            5
     number of electrons       =       390.00
     number of Kohn-Sham states=          205
     kinetic-energy cutoff     =      29.3995  Ry
     charge density cutoff     =     293.9946  Ry
     scf convergence threshold =      7.3E-08
     mixing beta               =       0.0500
     number of iterations used =            8  plain     mixing
     Exchange-correlation= BEEF-VDW
                           (   1   4  43  14   2   0   0)

     celldm(1)=   1.889726  celldm(2)=   0.000000  celldm(3)=   0.000000
     celldm(4)=   0.000000  celldm(5)=   0.000000  celldm(6)=   0.000000

     crystal axes: (cart. coord. in units of alat)
               a(1) = (   6.579727   0.000000   0.000000 )
               a(2) = (  -0.000775   5.961596   0.000000 )
               a(3) = (   0.000000   0.000000  25.155947 )

     reciprocal axes: (cart. coord. in units 2 pi/alat)
               b(1) = (  0.151982  0.000020  0.000000 )
               b(2) = (  0.000000  0.167740  0.000000 )
               b(3) = (  0.000000  0.000000  0.039752 )

     PseudoPot. # 1 for Ti read from file:
     /storage/coda1/p-amedford6/0/shared/rich_project_chbe-medford/medford-share/data/pseudos_module/espresso/nninc/pbe/van/Ti.UPF
     MD5 check sum: 8e4df49b7f0d34bbd5052bf3f5ea0213
     Pseudo is Ultrasoft, Zval = 12.0
     Generated by new atomic code, or converted to UPF format
     Using radial grid of  851 points,  6 beta functions with:
                l(1) =   0
                l(2) =   0
                l(3) =   1
                l(4) =   1
                l(5) =   2
                l(6) =   2
     Q(r) pseudized with  8 coefficients,  rinner =    1.000   1.000   1.000
                                                       1.000   1.000

     PseudoPot. # 2 for O  read from file:
     /storage/coda1/p-amedford6/0/shared/rich_project_chbe-medford/medford-share/data/pseudos_module/espresso/nninc/pbe/van/O.UPF
     MD5 check sum: 78c19812648e8988a0fe644b0f25305e
     Pseudo is Ultrasoft, Zval =  6.0
     Generated by new atomic code, or converted to UPF format
     Using radial grid of  737 points,  4 beta functions with:
                l(1) =   0
                l(2) =   0
                l(3) =   1
                l(4) =   1
     Q(r) pseudized with  8 coefficients,  rinner =    0.800   0.800   0.800

     PseudoPot. # 3 for N  read from file:
     /storage/coda1/p-amedford6/0/shared/rich_project_chbe-medford/medford-share/data/pseudos_module/espresso/nninc/pbe/van/N.UPF
     MD5 check sum: 90d10febe142ad51ac9d5be1deb811c4
     Pseudo is Ultrasoft, Zval =  5.0
     Generated by new atomic code, or converted to UPF format
     Using radial grid of  729 points,  4 beta functions with:
                l(1) =   0
                l(2) =   0
                l(3) =   1
                l(4) =   1
     Q(r) pseudized with  8 coefficients,  rinner =    0.800   0.800   0.800

     PseudoPot. # 4 for C  read from file:
     /storage/coda1/p-amedford6/0/shared/rich_project_chbe-medford/medford-share/data/pseudos_module/espresso/nninc/pbe/van/C.UPF
     MD5 check sum: 1a69bf6b8db32088f5b2163dbdb77a27
     Pseudo is Ultrasoft, Zval =  4.0
     Generated by new atomic code, or converted to UPF format
     Using radial grid of  721 points,  4 beta functions with:
                l(1) =   0
                l(2) =   0
                l(3) =   1
                l(4) =   1
     Q(r) pseudized with  8 coefficients,  rinner =    0.800   0.800   0.800

     PseudoPot. # 5 for H  read from file:
     /storage/coda1/p-amedford6/0/shared/rich_project_chbe-medford/medford-share/data/pseudos_module/espresso/nninc/pbe/van/H.UPF
     MD5 check sum: b5ee9d7bfd3a09ee7748110bda690ff7
     Pseudo is Ultrasoft, Zval =  1.0
     Generated by new atomic code, or converted to UPF format
     Using radial grid of  615 points,  1 beta functions with:
                l(1) =   0
     Q(r) pseudized with  8 coefficients,  rinner =    0.800

     atomic species   valence    mass     pseudopotential
        Ti1           12.00    47.86700     Ti( 1.00)
        O1             6.00    15.99900     O ( 1.00)
        N1             5.00    14.00700     N ( 1.00)
        C1             4.00    12.01100     C ( 1.00)
        H1             1.00     1.00800     H ( 1.00)

     No symmetry found

   Cartesian axes

     site n.     atom                  positions (alat units)
         1           Ti1 tau(   1) = (   0.0004258   2.9801865   6.0000000  )
         2           Ti1 tau(   2) = (   3.2906075   1.4906267   6.0002472  )
         3           O1  tau(   3) = (   0.0006271   0.0005054   7.9858123  )
         4           O1  tau(   4) = (   3.2906025   0.0005020   7.3038282  )
         5           O1  tau(   5) = (   4.5942328   1.4918067   9.2879030  )
         6           O1  tau(   6) = (   1.9868534   1.4903216   9.2879459  )
         7           Ti1 tau(   7) = (   3.2907910   2.8959150   9.1758416  )
         8           Ti1 tau(   8) = (   0.0015273   1.4827037   9.2680791  )
         9           O1  tau(   9) = (   3.2859541   5.9290403  11.3715426  )
        10           O1  tau(  10) = (   0.0116148   5.9584955  10.6183126  )
        11           O1  tau(  11) = (   1.2917987   1.4688796  12.6526629  )
        12           O1  tau(  12) = (   5.2888266   1.4686376  12.6403033  )
        13           Ti1 tau(  13) = (   0.0074927   2.9495069  12.5376589  )
        14           Ti1 tau(  14) = (   3.2957121   1.4606513  12.5174744  )
        15           O1  tau(  15) = (   6.5702453   0.0264740  14.6787910  )
        16           O1  tau(  16) = (   3.3001739   5.9406727  13.9930656  )
        17           O1  tau(  17) = (   4.5367710   1.4643441  16.2106543  )
        18           O1  tau(  18) = (   2.0349547   1.4576396  16.1973481  )
        19           Ti1 tau(  19) = (   3.2821410   2.9383233  15.7467721  )
        20           Ti1 tau(  20) = (   6.5624771   1.3975196  16.0657228  )
        21           O1  tau(  21) = (   3.2904802   0.0005063   4.7018136  )
        22           O1  tau(  22) = (   0.0049924   5.8117904  17.2112648  )
        23           O1  tau(  23) = (   1.3043587   1.4918075   6.0039043  )
        24           O1  tau(  24) = (   5.2767064   1.4903225   6.0039473  )
        25           Ti1 tau(  25) = (   0.0000382   5.9609847   6.0000000  )
        26           Ti1 tau(  26) = (   3.2902200   4.4714249   6.0002472  )
        27           O1  tau(  27) = (   0.0002396   2.9813036   7.9858123  )
        28           O1  tau(  28) = (   3.2902150   2.9813002   7.3038282  )
        29           O1  tau(  29) = (   4.5938453   4.4726049   9.2879030  )
        30           O1  tau(  30) = (   1.9864658   4.4711199   9.2879459  )
        31           Ti1 tau(  31) = (   3.2891106   5.8743827   9.1763621  )
        32           Ti1 tau(  32) = (   0.0006254   4.4649316   9.2693709  )
        33           O1  tau(  33) = (   3.2878059   2.9597088  11.3652031  )
        34           O1  tau(  34) = (   0.0092240   2.9805883  10.6323155  )
        35           O1  tau(  35) = (   1.2887225   4.4431869  12.6829221  )
        36           O1  tau(  36) = (   5.2901277   4.4428847  12.6690855  )
        37           Ti1 tau(  37) = (   0.0035388   5.9380168  12.5099366  )
        38           Ti1 tau(  38) = (   3.2962120   4.4389810  12.5267566  )
        39           O1  tau(  39) = (   6.5655450   2.9014274  14.9049457  )
        40           O1  tau(  40) = (   3.2937888   2.9365130  13.9572806  )
        41           O1  tau(  41) = (   4.5374039   4.4072578  16.1608974  )
        42           O1  tau(  42) = (   2.0345115   4.4188705  16.1151926  )
        43           Ti1 tau(  43) = (   3.2925710   5.9161036  15.7896908  )
        44           Ti1 tau(  44) = (   0.0121651   4.6006060  15.8502786  )
        45           O1  tau(  45) = (   3.2900926   2.9813045   4.7018136  )
        46           O1  tau(  46) = (   1.3039711   4.4726057   6.0039043  )
        47           O1  tau(  47) = (   5.2763189   4.4711207   6.0039473  )
        48           N1  tau(  48) = (   6.5581919   2.6818180  17.9522317  )
        49           C1  tau(  49) = (   0.8403426   2.5546117  18.9065076  )
        50           H1  tau(  50) = (   0.6793733   2.9585088  19.8916666  )
        51           H1  tau(  51) = (   1.7584391   2.0155774  18.6961775  )
        52           H1  tau(  52) = (   5.7198555   3.1867788  18.2393814  )

     number of k points=    10  Fermi-Dirac smearing, width (Ry)=  0.0073
                       cart. coord. in units 2pi/alat
        k(    1) = (   0.0000000   0.0000000   0.0000000), wk =   0.1250000
        k(    2) = (   0.0000000   0.0419351   0.0000000), wk =   0.2500000
        k(    3) = (   0.0000000  -0.0838702   0.0000000), wk =   0.1250000
        k(    4) = (   0.0379955   0.0000049   0.0000000), wk =   0.2500000
        k(    5) = (   0.0379955   0.0419400   0.0000000), wk =   0.2500000
        k(    6) = (   0.0379955  -0.0838652   0.0000000), wk =   0.2500000
        k(    7) = (   0.0379955  -0.0419301   0.0000000), wk =   0.2500000
        k(    8) = (  -0.0759910  -0.0000099   0.0000000), wk =   0.1250000
        k(    9) = (  -0.0759910   0.0419252   0.0000000), wk =   0.2500000
        k(   10) = (  -0.0759910  -0.0838800   0.0000000), wk =   0.1250000

     Initial potential from superposition of free atoms

     starting charge  373.99917, renormalised to  390.00000

     negative rho (up, down):  1.698E-02 0.000E+00

     %%%%%%%%%%%%%%%%%%%%%%%%%%%%%%%%%%%%%%%%%%%%%%%%%%%%%%%%%%%%%%%%%%%%%%%%
     %                                                                      %
     % You are using vdW-DF, which was implemented by the Thonhauser group. %
     % Please cite the following two papers that made this development      %
     % possible and the two reviews that describe the various versions:     %
     %                                                                      %
     %   T. Thonhauser et al., PRL 115, 136402 (2015).                      %
     %   T. Thonhauser et al., PRB 76, 125112 (2007).                       %
     %   K. Berland et al., Rep. Prog. Phys. 78, 066501 (2015).             %
     %   D.C. Langreth et al., J. Phys.: Condens. Matter 21, 084203 (2009). %
     %                                                                      %
     %                                                                      %
     % If you are calculating the stress with vdW-DF, please also cite:     %
     %                                                                      %
     %   R. Sabatini et al., J. Phys.: Condens. Matter 24, 424209 (2012).   %
     %                                                                      %
     %%%%%%%%%%%%%%%%%%%%%%%%%%%%%%%%%%%%%%%%%%%%%%%%%%%%%%%%%%%%%%%%%%%%%%%%

     Adding external electric field

     Computed dipole along edir(3) :
        Dipole               -6.0512 Ry au,        -15.3807 Debye
        Dipole field         -0.0114 Ry au,

        Potential amp.        1.0586 Ry
        Total length         46.3494 bohr

     Starting wfcs are  295 atomic wfcs
  @ DRIVER MODE: Message from server: STATUS
  @ DRIVER MODE: Message from server: POSDATA
  @ DRIVER MODE: Reading and sharing cell
  @ DRIVER MODE: Reading and sharing positions
  @ DRIVER MODE: Received positions

     Self-consistent Calculation

     iteration #  1     ecut=    29.40 Ry     beta= 0.05
     Davidson diagonalization with overlap
     c_bands:  1 eigenvalues not converged
     c_bands:  1 eigenvalues not converged
     ethr =  1.00E-05,  avg # of iterations = 16.8

[...]

     total energy              =   -2758.76581441 Ry
     estimated scf accuracy    <    1760.62312961 Ry

     iteration #  2     ecut=    29.40 Ry     beta= 0.05
     Davidson diagonalization with overlap
     ethr =  1.00E-02,  avg # of iterations = 18.5

[...]

     iteration # 48     ecut=    29.40 Ry     beta= 0.05
     Davidson diagonalization with overlap
     c_bands:  1 eigenvalues not converged
     c_bands:  1 eigenvalues not converged
     c_bands:  1 eigenvalues not converged
     c_bands:  1 eigenvalues not converged
     ethr =  3.10E-07,  avg # of iterations = 16.9

[...]

     total energy              =   -2919.11565301 Ry
     estimated scf accuracy    <       0.00000010 Ry

     iteration # 73     ecut=    29.40 Ry     beta= 0.05
     Davidson diagonalization with overlap
     ethr =  2.11E-11,  avg # of iterations =  9.6

     negative rho (up, down):  1.720E-02 0.000E+00

     Adding external electric field

     Computed dipole along edir(3) :
        Dipole                1.2536 Ry au,          3.1863 Debye
        Dipole field          0.0024 Ry au,

        Potential amp.       -0.2193 Ry
        Total length         46.3494 bohr

     End of self-consistent calculation

          k = 0.0000 0.0000 0.0000 ( 18029 PWs)   bands (ev):

   -55.5531 -55.5164 -55.5144 -55.4803 -55.4449 -55.4281 -55.3906 -55.3682
   -55.3678 -55.3431 -55.3333 -55.3161 -55.3097 -55.1322 -54.5352 -54.5011
   -32.1197 -32.0053 -31.9156 -31.8739 -31.8675 -31.8570 -31.8469 -31.8390
   -31.8041 -31.7923 -31.7612 -31.7593 -31.7588 -31.7240 -31.7064 -31.6883
   -31.6823 -31.6747 -31.6688 -31.6649 -31.6268 -31.6233 -31.6083 -31.5980
   -31.5714 -31.5698 -31.5656 -31.5598 -31.5552 -31.5481 -31.5390 -31.5308
   -31.5212 -31.5172 -31.5167 -31.4889 -31.4821 -31.4716 -31.4710 -31.4529
   -31.3562 -31.2732 -30.9443 -30.8509 -30.8288 -30.7606 -30.6739 -30.5630
   -16.4701 -16.3426 -16.0805 -15.8999 -15.8006 -15.7414 -15.6048 -15.5271
   -15.4510 -15.3489 -15.2584 -15.1916 -15.1737 -15.1516 -15.1479 -15.0896
   -15.0862 -15.0570 -15.0445 -15.0428 -14.9878 -14.9812 -14.9495 -14.9372
   -14.9265 -14.8495 -14.7696 -14.7012 -14.6410 -14.2063 -13.0380 -12.9207
    -9.3015  -6.2550  -4.6315  -3.7069  -3.5539  -3.4590  -3.4486  -3.4226
    -3.2782  -3.1395  -2.9322  -2.8505  -2.8063  -2.7565  -2.7295  -2.7112
    -2.6085  -2.5268  -2.4482  -2.4053  -2.3793  -2.3624  -2.3555  -2.3314
    -2.3171  -2.2860  -2.2436  -2.1936  -2.0984  -2.0126  -1.9687  -1.9369
    -1.8799  -1.8660  -1.8414  -1.8362  -1.8298  -1.8050  -1.7679  -1.7559
    -1.7117  -1.5668  -1.5586  -1.4411  -1.4042  -1.2900  -1.1918  -1.1869
    -1.0998  -1.0966  -1.0286  -0.9698  -0.9412  -0.9358  -0.8852  -0.8329
    -0.7470  -0.6524  -0.5907  -0.5486  -0.5140  -0.4848  -0.4154  -0.3283
    -0.3222  -0.3124  -0.2051  -0.1294  -0.1084  -0.0530  -0.0231   0.0198
     0.0357   0.1470   0.1906   0.2303   0.2504   0.3295   0.3495   0.4046
     0.4103   0.4450   0.4551   0.5232   0.5675   0.5868   0.6415   0.6560
     0.8150   1.0662   1.0753   1.1269   1.3963   1.4269   1.4872   1.6722
     2.0626   2.1104   3.5469   3.6194   3.6844   3.6972   3.7401   3.7838
     3.9477   4.0316   4.0481   4.0522   4.0839

[...]

          k = 0.0380-0.0419 0.0000 ( 17876 PWs)   bands (ev):

[...]

          k =-0.0760-0.0000 0.0000 ( 17886 PWs)   bands (ev):

[...]

          k =-0.0760-0.0839 0.0000 ( 17948 PWs)   bands (ev):

   -55.5386 -55.5308 -55.4974 -55.4972 -55.4408 -55.4169 -55.4018 -55.3721
   -55.3516 -55.3489 -55.3269 -55.3262 -55.3144 -55.1338 -54.5181 -54.5181
   -31.9262 -31.9209 -31.8363 -31.8205 -31.8204 -31.8120 -31.7897 -31.7894
   -31.7621 -31.7588 -31.7523 -31.7504 -31.7451 -31.7067 -31.6853 -31.6819
   -31.6779 -31.6736 -31.6697 -31.6649 -31.6602 -31.6408 -31.6270 -31.6265
   -31.6168 -31.6167 -31.6140 -31.5971 -31.5845 -31.5814 -31.5705 -31.5650
   -31.5621 -31.5583 -31.5516 -31.5512 -31.5144 -31.5062 -31.5052 -31.4890
   -31.3608 -31.3546 -30.8415 -30.8414 -30.7568 -30.7567 -30.7172 -30.7172
   -16.4382 -15.7864 -15.7500 -15.7370 -15.5338 -15.5251 -15.5171 -15.4990
   -15.3382 -15.3226 -15.2965 -15.2822 -15.2509 -15.2469 -15.2138 -15.1808
   -15.1314 -15.1269 -15.1187 -15.1163 -15.0569 -15.0527 -15.0324 -15.0038
   -15.0018 -14.9957 -14.9009 -14.8989 -14.7220 -14.5251 -13.0222 -13.0222
    -9.3058  -6.2513  -4.6125  -3.0616  -3.0003  -2.9389  -2.7429  -2.7395
    -2.7089  -2.6255  -2.5560  -2.5330  -2.5185  -2.4868  -2.4702  -2.4393
    -2.3945  -2.3835  -2.3739  -2.3637  -2.3457  -2.3303  -2.3044  -2.2692
    -2.2604  -2.2265  -2.2122  -2.1900  -2.1886  -2.1517  -2.1289  -2.1130
    -2.1023  -2.0312  -1.9370  -1.8876  -1.7991  -1.7676  -1.7464  -1.7404
    -1.6581  -1.6311  -1.6034  -1.5628  -1.5496  -1.5130  -1.3125  -1.2845
    -1.2738  -1.2595  -1.2352  -1.0871  -1.0763  -1.0269  -0.9960  -0.9433
    -0.8892  -0.8552  -0.8377  -0.7577  -0.7275  -0.6823  -0.6441  -0.5210
    -0.5165  -0.5102  -0.5091  -0.4881  -0.4042  -0.3921  -0.3494  -0.3163
    -0.2753  -0.2611  -0.1949  -0.0136   0.0050   0.0709   0.1766   0.2748
     0.3676   0.4452   0.4672   0.5170   0.5607   0.5780   0.6582   0.7500
     0.7619   0.8347   0.8780   0.9172   0.9214   0.9271   1.8451   1.8457
     1.9303   1.9305   3.6697   3.7959   3.8161   3.8527   3.8716   4.0221
     4.0666   4.1056   4.1261   4.1284   4.2107

     the Fermi energy is     3.6022 ev

!    total energy              =   -2919.11566616 Ry
     estimated scf accuracy    <       0.00000003 Ry
     smearing contrib. (-TS)   =      -0.03730155 Ry
     internal energy E=F+TS    =   -2919.07836461 Ry

     The total energy is F=E-TS. E is the sum of the following terms:
     one-electron contribution =  -24305.18665701 Ry
     hartree contribution      =   12239.94490445 Ry
     xc contribution           =    -480.00917867 Ry
     ewald contribution        =    9626.16960096 Ry
     electric field correction =       0.00296565 Ry

     convergence has been achieved in  73 iterations

     Forces acting on atoms (cartesian axes, Ry/au):

     atom    1 type  1   force =     0.00005380   -0.00015037    0.09377980
     atom    2 type  1   force =    -0.00018090   -0.00018457   -0.17777745
     atom    3 type  2   force =     0.00002670   -0.00021827   -0.02114029
     atom    4 type  2   force =    -0.00001606   -0.00198892    0.05776454
     atom    5 type  2   force =    -0.01107948   -0.00165019    0.00749205
     atom    6 type  2   force =     0.01244143   -0.00098334    0.00637426
     atom    7 type  1   force =    -0.00048053    0.00246502   -0.01334824
     atom    8 type  1   force =     0.00030047    0.00293408    0.00276106
     atom    9 type  2   force =     0.00007408   -0.00008373    0.00011629
     atom   10 type  2   force =    -0.00176302   -0.00226942   -0.00369544
     atom   11 type  2   force =     0.00017427    0.00059273   -0.00030976
     atom   12 type  2   force =     0.00043551    0.00052757   -0.00012821
     atom   13 type  1   force =    -0.00072488   -0.00095475   -0.00014624
     atom   14 type  1   force =     0.00082715    0.00026843   -0.00043086
     atom   15 type  2   force =     0.00025456    0.00024943   -0.00024218
     atom   16 type  2   force =    -0.00008288    0.00034925   -0.00072696
     atom   17 type  2   force =    -0.00015431    0.00004364    0.00006448
     atom   18 type  2   force =     0.00075453   -0.00006407    0.00005216
     atom   19 type  1   force =     0.00021352   -0.00089261    0.00074425
     atom   20 type  1   force =     0.00004209    0.00090945    0.00156361
     atom   21 type  2   force =     0.00004472   -0.00002286    0.10382163
     atom   22 type  2   force =     0.00002492   -0.00072782   -0.00038812
     atom   23 type  2   force =    -0.07058573   -0.00014712   -0.02706561
     atom   24 type  2   force =     0.07046461    0.00031913   -0.02711028
     atom   25 type  1   force =     0.00008614   -0.00018459    0.09357031
     atom   26 type  1   force =    -0.00009130   -0.00027026   -0.17781051
     atom   27 type  2   force =     0.00008350   -0.00045412   -0.02017093
     atom   28 type  2   force =     0.00002628   -0.00169280    0.05725299
     atom   29 type  2   force =    -0.01117054   -0.00114945    0.00695240
     atom   30 type  2   force =     0.01242081   -0.00080746    0.00581583
     atom   31 type  1   force =    -0.00039033    0.00468024   -0.01442881
     atom   32 type  1   force =     0.00037140   -0.00361868    0.00247493
     atom   33 type  2   force =    -0.00000523    0.00058118    0.00038022
     atom   34 type  2   force =    -0.00117677   -0.00059493   -0.00108320
     atom   35 type  2   force =     0.00040229    0.00026325    0.00018159
     atom   36 type  2   force =     0.00012907    0.00033480    0.00015083
     atom   37 type  1   force =    -0.00053391    0.00131385    0.00022896
     atom   38 type  1   force =     0.00086923    0.00008176   -0.00079933
     atom   39 type  2   force =     0.00011118    0.00044101    0.00002072
     atom   40 type  2   force =     0.00017808    0.00019578   -0.00062150
     atom   41 type  2   force =     0.00001052    0.00015387   -0.00090481
     atom   42 type  2   force =     0.00015306    0.00012770   -0.00094387
     atom   43 type  1   force =     0.00000005    0.00099583    0.00036960
     atom   44 type  1   force =    -0.00011157    0.00014300    0.00008265
     atom   45 type  2   force =     0.00004563   -0.00004029    0.10379242
     atom   46 type  2   force =    -0.07060228   -0.00006713   -0.02705979
     atom   47 type  2   force =     0.07047562    0.00035065   -0.02708981
     atom   48 type  3   force =     0.00746990   -0.00139519    0.01040100
     atom   49 type  4   force =    -0.00583895   -0.00417146   -0.02546303
     atom   50 type  5   force =    -0.00200848    0.00505180    0.01051768
     atom   51 type  5   force =    -0.00185617    0.00131866    0.00311011
     atom   52 type  5   force =    -0.00011180    0.00009232   -0.00095114

     Total force =     0.367271     Total SCF correction =     0.000496
  @ DRIVER MODE: Message from server: STATUS
  @ DRIVER MODE: Message from server: GETFORCE
  @ DRIVER MODE: Returning v,forces,stress,ensemble

     Writing output data file ./calc.save/
  @ DRIVER MODE: Message from server: EXIT
  @ DRIVE MODE: Exiting

     General routines

     Parallel routines

   This run was terminated on:  14:14:21  24Aug2021

   JOB DONE.