     Program PWSCF v.6.7GPU starts on 15Sep2021 at 23:46: 3

     R & G space division:  proc/nbgrp/npool/nimage =      10
     Reading input from /storage/home/hcoda1/3/ntian30/research/carbon/CxH_vib/H2O_calc/ads_slab/CH3NNH3H2O_a/out_0023/pw.inp
Warning: card &CELL ignored
Warning: card   CELL_DYNAMICS='IPI', ignored
Warning: card / ignored

     Current dimensions of program PWSCF are:
     Max number of different atomic species (ntypx) = 10
     Max number of k-points (npk) =  40000
     Max angular momentum in pseudopotentials (lmaxx) =  3
     Presently no symmetry can be used with electric field

     Message from routine cell_base_init:
     DEPRECATED: use true lattice parameter, not A to a.u. conversion factor

     IMPORTANT: XC functional enforced from input :
     Exchange-correlation= BEEF-VDW
                           (   1   4  43  14   2   0   0)
     Any further DFT definition will be discarded
     Please, verify this is what you really want

  @ DRIVER MODE: Connecting to
 qe_1139763_2852621.sched-torque.pace.gatech.edu_7uxqjy4_scratch
  using UNIX socket
  @ DRIVER MODE: Message from server: STATUS
  @ DRIVER MODE: Message from server: INIT
  @ DRIVER MODE: Receiving replica           0          -1
  @ DRIVER MODE: Receiving encoded integer          25
  @ DRIVER MODE:  SCF:  T  FORCE:  T  STRESS:  F  VC:  F  ENSEMBLE:  F
  @ DRIVER MODE:  SCF:  T  FORCE:  T  STRESS:  F  VC:  F  ENSEMBLE:  F

     Using Slab Decomposition

     bravais-lattice index     =            0
     lattice parameter (alat)  =       1.8897  a.u.
     unit-cell volume          =    6658.9804 (a.u.)^3
     number of atoms/cell      =           59
     number of atomic types    =            5
     number of electrons       =       406.00
     number of Kohn-Sham states=          213
     kinetic-energy cutoff     =      29.3995  Ry
     charge density cutoff     =     293.9946  Ry
     scf convergence threshold =      7.3E-08
     mixing beta               =       0.0500
     number of iterations used =            8  plain     mixing
     Exchange-correlation= BEEF-VDW
                           (   1   4  43  14   2   0   0)

     celldm(1)=   1.889726  celldm(2)=   0.000000  celldm(3)=   0.000000
     celldm(4)=   0.000000  celldm(5)=   0.000000  celldm(6)=   0.000000

     crystal axes: (cart. coord. in units of alat)
               a(1) = (   6.579727   0.000000   0.000000 )
               a(2) = (  -0.000775   5.961596   0.000000 )
               a(3) = (   0.000000   0.000000  25.155947 )

     reciprocal axes: (cart. coord. in units 2 pi/alat)
               b(1) = (  0.151982  0.000020  0.000000 )
               b(2) = (  0.000000  0.167740  0.000000 )
               b(3) = (  0.000000  0.000000  0.039752 )

     PseudoPot. # 1 for Ti read from file:
     /storage/coda1/p-amedford6/0/shared/rich_project_chbe-medford/medford-share/data/pseudos_module/espresso/nninc/pbe/van/Ti.UPF
     MD5 check sum: 8e4df49b7f0d34bbd5052bf3f5ea0213
     Pseudo is Ultrasoft, Zval = 12.0
     Generated by new atomic code, or converted to UPF format
     Using radial grid of  851 points,  6 beta functions with:
                l(1) =   0
                l(2) =   0
                l(3) =   1
                l(4) =   1
                l(5) =   2
                l(6) =   2
     Q(r) pseudized with  8 coefficients,  rinner =    1.000   1.000   1.000
                                                       1.000   1.000

     PseudoPot. # 2 for O  read from file:
     /storage/coda1/p-amedford6/0/shared/rich_project_chbe-medford/medford-share/data/pseudos_module/espresso/nninc/pbe/van/O.UPF
     MD5 check sum: 78c19812648e8988a0fe644b0f25305e
     Pseudo is Ultrasoft, Zval =  6.0
     Generated by new atomic code, or converted to UPF format
     Using radial grid of  737 points,  4 beta functions with:
                l(1) =   0
                l(2) =   0
                l(3) =   1
                l(4) =   1
     Q(r) pseudized with  8 coefficients,  rinner =    0.800   0.800   0.800

     PseudoPot. # 3 for N  read from file:
     /storage/coda1/p-amedford6/0/shared/rich_project_chbe-medford/medford-share/data/pseudos_module/espresso/nninc/pbe/van/N.UPF
     MD5 check sum: 90d10febe142ad51ac9d5be1deb811c4
     Pseudo is Ultrasoft, Zval =  5.0
     Generated by new atomic code, or converted to UPF format
     Using radial grid of  729 points,  4 beta functions with:
                l(1) =   0
                l(2) =   0
                l(3) =   1
                l(4) =   1
     Q(r) pseudized with  8 coefficients,  rinner =    0.800   0.800   0.800

     PseudoPot. # 4 for C  read from file:
     /storage/coda1/p-amedford6/0/shared/rich_project_chbe-medford/medford-share/data/pseudos_module/espresso/nninc/pbe/van/C.UPF
     MD5 check sum: 1a69bf6b8db32088f5b2163dbdb77a27
     Pseudo is Ultrasoft, Zval =  4.0
     Generated by new atomic code, or converted to UPF format
     Using radial grid of  721 points,  4 beta functions with:
                l(1) =   0
                l(2) =   0
                l(3) =   1
                l(4) =   1
     Q(r) pseudized with  8 coefficients,  rinner =    0.800   0.800   0.800

     PseudoPot. # 5 for H  read from file:
     /storage/coda1/p-amedford6/0/shared/rich_project_chbe-medford/medford-share/data/pseudos_module/espresso/nninc/pbe/van/H.UPF
     MD5 check sum: b5ee9d7bfd3a09ee7748110bda690ff7
     Pseudo is Ultrasoft, Zval =  1.0
     Generated by new atomic code, or converted to UPF format
     Using radial grid of  615 points,  1 beta functions with:
                l(1) =   0
     Q(r) pseudized with  8 coefficients,  rinner =    0.800

     atomic species   valence    mass     pseudopotential
        Ti1           12.00    47.86700     Ti( 1.00)
        O1             6.00    15.99900     O ( 1.00)
        N1             5.00    14.00700     N ( 1.00)
        C1             4.00    12.01100     C ( 1.00)
        H1             1.00     1.00800     H ( 1.00)

     No symmetry found

   Cartesian axes

     site n.     atom                  positions (alat units)
         1           Ti1 tau(   1) = (   0.0004258   2.9801865   6.0000000  )
         2           Ti1 tau(   2) = (   3.2906075   1.4906267   6.0002472  )
         3           O1  tau(   3) = (   0.0006271   0.0005054   7.9858123  )
         4           O1  tau(   4) = (   3.2906025   0.0005020   7.3038282  )
         5           O1  tau(   5) = (   4.5942328   1.4918067   9.2879030  )
         6           O1  tau(   6) = (   1.9868534   1.4903216   9.2879459  )
         7           Ti1 tau(   7) = (   3.2907910   2.8959150   9.1758416  )
         8           Ti1 tau(   8) = (   0.0015273   1.4827037   9.2680791  )
         9           O1  tau(   9) = (   3.2954490   0.0159868  11.2922163  )
        10           O1  tau(  10) = (   0.0116148   5.9584955  10.6183126  )
        11           O1  tau(  11) = (   1.3242731   1.5050266  12.6143764  )
        12           O1  tau(  12) = (   5.3073597   1.5103589  12.6267567  )
        13           Ti1 tau(  13) = (   6.4831477   3.0011104  12.7364612  )
        14           Ti1 tau(  14) = (   3.1751638   1.4975352  12.4748964  )
        15           O1  tau(  15) = (   0.0212859   5.9607631  14.5987152  )
        16           O1  tau(  16) = (   3.3058086   0.0238703  13.8910224  )
        17           O1  tau(  17) = (   4.5539421   1.5574750  15.9960573  )
        18           O1  tau(  18) = (   2.0731809   1.5597727  15.9888445  )
        19           Ti1 tau(  19) = (   3.3176354   3.0289328  15.6523405  )
        20           Ti1 tau(  20) = (   0.0198791   1.6227889  16.0606591  )
        21           O1  tau(  21) = (   3.2904802   0.0005063   4.7018136  )
        22           O1  tau(  22) = (   0.0290054   0.0533443  17.2129705  )
        23           O1  tau(  23) = (   1.3043587   1.4918075   6.0039043  )
        24           O1  tau(  24) = (   5.2767064   1.4903225   6.0039473  )
        25           Ti1 tau(  25) = (   0.0000382   5.9609847   6.0000000  )
        26           Ti1 tau(  26) = (   3.2902200   4.4714249   6.0002472  )
        27           O1  tau(  27) = (   0.0002396   2.9813036   7.9858123  )
        28           O1  tau(  28) = (   3.2902150   2.9813002   7.3038282  )
        29           O1  tau(  29) = (   4.5938453   4.4726049   9.2879030  )
        30           O1  tau(  30) = (   1.9864658   4.4711199   9.2879459  )
        31           Ti1 tau(  31) = (   3.2891106   5.8743827   9.1763621  )
        32           Ti1 tau(  32) = (   0.0006254   4.4649316   9.2693709  )
        33           O1  tau(  33) = (   3.2918316   2.9938763  11.2915017  )
        34           O1  tau(  34) = (   0.0092240   2.9805883  10.6323155  )
        35           O1  tau(  35) = (   1.3226278   4.4784642  12.6110361  )
        36           O1  tau(  36) = (   5.3078083   4.4770455  12.6250823  )
        37           Ti1 tau(  37) = (   6.5141033   0.0190828  12.7620745  )
        38           Ti1 tau(  38) = (   3.1722404   4.4939287  12.4712879  )
        39           O1  tau(  39) = (   0.0035410   2.9850241  14.6487316  )
        40           O1  tau(  40) = (   3.3118331   3.0109266  13.8519036  )
        41           O1  tau(  41) = (   4.5522870   4.5059159  16.0259181  )
        42           O1  tau(  42) = (   2.0778134   4.5048723  16.0185459  )
        43           Ti1 tau(  43) = (   3.3116469   0.0596163  15.7453941  )
        44           Ti1 tau(  44) = (   0.0183239   4.5967015  16.1059876  )
        45           O1  tau(  45) = (   3.2900926   2.9813045   4.7018136  )
        46           O1  tau(  46) = (   1.3039711   4.4726057   6.0039043  )
        47           O1  tau(  47) = (   5.2763189   4.4711207   6.0039473  )
        48           N1  tau(  48) = (   0.0600715   3.0265251  17.3188267  )
        49           N1  tau(  49) = (   6.2826239   2.5295367  22.6224490  )
        50           C1  tau(  50) = (   0.2859397   3.0149959  18.7399364  )
        51           H1  tau(  51) = (   0.1411154   4.0060466  19.1794648  )
        52           H1  tau(  52) = (   6.1913215   2.3105648  19.2421896  )
        53           H1  tau(  53) = (   1.3125146   2.6868920  18.9691123  )
        54           H1  tau(  54) = (   6.1000088   3.2491606  23.3142794  )
        55           H1  tau(  55) = (   0.1456284   1.7586669  23.1118534  )
        56           H1  tau(  56) = (   0.3974265   2.9048463  21.9856970  )
        57           O1  tau(  57) = (   3.2908421   0.1144680  18.1630233  )
        58           H1  tau(  58) = (   4.0679411   5.5688996  18.4486002  )
        59           H1  tau(  59) = (   2.5060966   5.5711546  18.4327789  )

     number of k points=    10  Fermi-Dirac smearing, width (Ry)=  0.0073
                       cart. coord. in units 2pi/alat
        k(    1) = (   0.0000000   0.0000000   0.0000000), wk =   0.1250000
        k(    2) = (   0.0000000   0.0419351   0.0000000), wk =   0.2500000
        k(    3) = (   0.0000000  -0.0838702   0.0000000), wk =   0.1250000
        k(    4) = (   0.0379955   0.0000049   0.0000000), wk =   0.2500000
        k(    5) = (   0.0379955   0.0419400   0.0000000), wk =   0.2500000
        k(    6) = (   0.0379955  -0.0838652   0.0000000), wk =   0.2500000
        k(    7) = (   0.0379955  -0.0419301   0.0000000), wk =   0.2500000
        k(    8) = (  -0.0759910  -0.0000099   0.0000000), wk =   0.1250000
        k(    9) = (  -0.0759910   0.0419252   0.0000000), wk =   0.2500000
        k(   10) = (  -0.0759910  -0.0838800   0.0000000), wk =   0.1250000

     Initial potential from superposition of free atoms

     starting charge  389.99912, renormalised to  406.00000

     negative rho (up, down):  6.917E-03 0.000E+00

     %%%%%%%%%%%%%%%%%%%%%%%%%%%%%%%%%%%%%%%%%%%%%%%%%%%%%%%%%%%%%%%%%%%%%%%%
     %                                                                      %
     % You are using vdW-DF, which was implemented by the Thonhauser group. %
     % Please cite the following two papers that made this development      %
     % possible and the two reviews that describe the various versions:     %
     %                                                                      %
     %   T. Thonhauser et al., PRL 115, 136402 (2015).                      %
     %   T. Thonhauser et al., PRB 76, 125112 (2007).                       %
     %   K. Berland et al., Rep. Prog. Phys. 78, 066501 (2015).             %
     %   D.C. Langreth et al., J. Phys.: Condens. Matter 21, 084203 (2009). %
     %                                                                      %
     %                                                                      %
     % If you are calculating the stress with vdW-DF, please also cite:     %
     %                                                                      %
     %   R. Sabatini et al., J. Phys.: Condens. Matter 24, 424209 (2012).   %
     %                                                                      %
     %%%%%%%%%%%%%%%%%%%%%%%%%%%%%%%%%%%%%%%%%%%%%%%%%%%%%%%%%%%%%%%%%%%%%%%%

     Adding external electric field

     Computed dipole along edir(3) :
        Dipole              -16.2328 Ry au,        -41.2597 Debye
        Dipole field         -0.0306 Ry au,

        Potential amp.        2.8397 Ry
        Total length         46.3494 bohr

     Starting wfcs are  308 atomic wfcs
  @ DRIVER MODE: Message from server: STATUS
  @ DRIVER MODE: Message from server: POSDATA
  @ DRIVER MODE: Reading and sharing cell
  @ DRIVER MODE: Reading and sharing positions
  @ DRIVER MODE: Received positions

     Self-consistent Calculation

     iteration #  1     ecut=    29.40 Ry     beta= 0.05
     Davidson diagonalization with overlap
     c_bands:  2 eigenvalues not converged
     c_bands:  3 eigenvalues not converged
     c_bands:  5 eigenvalues not converged
     c_bands:  3 eigenvalues not converged
     c_bands:  4 eigenvalues not converged
     c_bands:  3 eigenvalues not converged
     c_bands:  1 eigenvalues not converged
     c_bands:  5 eigenvalues not converged
     c_bands:  3 eigenvalues not converged
     ethr =  1.00E-05,  avg # of iterations = 20.6

[...]

     total energy              =   -2253.46965783 Ry
     estimated scf accuracy    <    8262.84581183 Ry

     iteration #  2     ecut=    29.40 Ry     beta= 0.05
     Davidson diagonalization with overlap
     ethr =  1.00E-02,  avg # of iterations = 28.3

[...]

     iteration # 46     ecut=    29.40 Ry     beta= 0.05
     Davidson diagonalization with overlap
     c_bands:  1 eigenvalues not converged
     ethr =  5.99E-06,  avg # of iterations = 11.1

[...]

     total energy              =   -2977.74435286 Ry
     estimated scf accuracy    <       0.00000011 Ry

     iteration # 72     ecut=    29.40 Ry     beta= 0.05
     Davidson diagonalization with overlap
     ethr =  2.56E-11,  avg # of iterations =  4.8

     negative rho (up, down):  8.784E-03 0.000E+00

     Adding external electric field

     Computed dipole along edir(3) :
        Dipole                0.7660 Ry au,          1.9470 Debye
        Dipole field          0.0014 Ry au,

        Potential amp.       -0.1340 Ry
        Total length         46.3494 bohr

     End of self-consistent calculation

          k = 0.0000 0.0000 0.0000 ( 18029 PWs)   bands (ev):

   -56.2608 -56.2272 -55.3781 -55.3441 -55.3359 -55.3009 -55.1530 -55.1177
   -55.0313 -54.9107 -54.8923 -54.8911 -54.8768 -54.8057 -54.3898 -54.3395
   -32.6876 -32.5352 -32.5070 -32.4372 -32.3462 -32.3137 -31.8458 -31.8181
   -31.6884 -31.6439 -31.5950 -31.5771 -31.5470 -31.5379 -31.5088 -31.5038
   -31.4853 -31.4789 -31.4569 -31.4423 -31.4290 -31.3797 -31.3694 -31.3307
   -31.3183 -31.3016 -31.2931 -31.2792 -31.2555 -31.2547 -31.2502 -31.2260
   -31.1312 -31.1207 -31.0809 -31.0702 -31.0430 -31.0375 -31.0286 -31.0099
   -30.9793 -30.9267 -30.9044 -30.6334 -30.6114 -30.5797 -30.5587 -30.4498
   -18.4473 -16.4166 -15.9506 -15.7073 -15.6175 -15.5344 -15.4955 -15.4515
   -15.2998 -15.2320 -15.2093 -15.2091 -15.1384 -14.9903 -14.9430 -14.8450
   -14.7515 -14.6166 -14.5997 -14.5661 -14.5487 -14.5156 -14.5086 -14.4569
   -14.2933 -14.2577 -14.2096 -14.1468 -14.0612 -14.0413 -13.8368 -13.4090
   -13.2993 -12.6481  -7.4508  -6.2377  -4.1075  -4.0869  -3.9840  -3.4502
    -3.1811  -3.1532  -3.0248  -3.0201  -2.9748  -2.8445  -2.8314  -2.7565
    -2.7295  -2.7014  -2.6160  -2.5850  -2.5346  -2.4446  -2.4318  -2.4119
    -2.3958  -2.3829  -2.2613  -2.2200  -2.1677  -2.0640  -1.9559  -1.9130
    -1.8859  -1.8418  -1.8039  -1.7565  -1.7447  -1.7299  -1.7229  -1.6121
    -1.4974  -1.4650  -1.4499  -1.4036  -1.3857  -1.3766  -1.3548  -1.2693
    -1.1606  -1.0661  -0.9992  -0.9873  -0.9194  -0.9114  -0.8518  -0.7369
    -0.6758  -0.6712  -0.6552  -0.5515  -0.5247  -0.4536  -0.3910  -0.3328
    -0.2781  -0.2155  -0.1651  -0.1424  -0.1298  -0.0308   0.0409   0.0641
     0.1153   0.1246   0.1332   0.1545   0.2505   0.2868   0.3601   0.4051
     0.4413   0.4852   0.5681   0.6187   0.6864   0.7362   0.7592   0.8207
     0.8743   0.9296   1.0250   1.0720   1.0794   1.0877   1.1110   1.1711
     1.1849   1.2610   1.3440   1.3595   1.4316   1.5003   1.6611   1.7002
     1.9509   2.0214   2.6482   3.0163   3.1775   3.4727   3.6626   3.7999
     3.9955   4.0059   4.0130   4.2390   4.2626

[...]

          k = 0.0380-0.0419 0.0000 ( 17876 PWs)   bands (ev):

[...]

          k =-0.0760-0.0000 0.0000 ( 17886 PWs)   bands (ev):

[...]

          k =-0.0760-0.0839 0.0000 ( 17948 PWs)   bands (ev):

   -56.2442 -56.2437 -55.3631 -55.3587 -55.3233 -55.3136 -55.1365 -55.1341
   -55.0291 -54.8938 -54.8936 -54.8932 -54.8887 -54.8093 -54.3829 -54.3464
   -32.5211 -32.5207 -32.5046 -32.5043 -32.3904 -32.3900 -31.6695 -31.6636
   -31.6539 -31.6464 -31.5700 -31.5550 -31.5531 -31.5488 -31.5425 -31.5409
   -31.5352 -31.5266 -31.4945 -31.4780 -31.3820 -31.3799 -31.3462 -31.3405
   -31.3216 -31.2854 -31.2470 -31.2391 -31.2389 -31.2385 -31.2138 -31.1920
   -31.1488 -31.1185 -31.1183 -31.1148 -31.0922 -31.0794 -31.0793 -31.0645
   -31.0475 -31.0120 -30.7653 -30.7021 -30.6092 -30.5848 -30.5665 -30.5200
   -18.4464 -15.7672 -15.7653 -15.7301 -15.7294 -15.4624 -15.4591 -15.3658
   -15.3605 -15.2261 -15.1092 -15.0074 -14.9946 -14.9592 -14.9321 -14.8202
   -14.7994 -14.7902 -14.7801 -14.6687 -14.6486 -14.6033 -14.5919 -14.5757
   -14.5655 -14.2715 -14.2583 -14.1554 -14.1316 -14.0406 -13.9901 -13.4029
   -13.4029 -12.6667  -7.4445  -6.2302  -4.1174  -4.0886  -2.8641  -2.8566
    -2.8223  -2.8021  -2.8015  -2.7687  -2.6371  -2.5980  -2.5955  -2.5945
    -2.5140  -2.4457  -2.4377  -2.3657  -2.3334  -2.3141  -2.2562  -2.2434
    -2.1800  -2.1536  -2.1454  -2.1283  -2.1052  -2.1040  -2.0080  -1.9454
    -1.8936  -1.8901  -1.8230  -1.8049  -1.7408  -1.7195  -1.7081  -1.6767
    -1.6350  -1.6124  -1.5806  -1.5463  -1.5050  -1.4461  -1.2793  -1.2702
    -1.2609  -1.2394  -1.1143  -1.1078  -1.0760  -1.0459  -1.0402  -0.9666
    -0.9168  -0.8815  -0.8246  -0.7405  -0.7181  -0.6164  -0.5652  -0.5190
    -0.4630  -0.3570  -0.3393  -0.3288  -0.3193  -0.2893  -0.2228  -0.1940
    -0.1780  -0.0574  -0.0379   0.0152   0.0364   0.0925   0.1191   0.1831
     0.2105   0.2822   0.2939   0.3330   0.4061   0.4880   0.5215   0.5707
     0.5753   0.8514   0.9253   1.0550   1.0629   1.1229   1.1815   1.2532
     1.3128   1.3449   1.3718   1.4953   1.4996   1.5089   1.5094   1.5807
     1.5858   1.9286   2.5254   3.5922   3.5924   3.6590   3.6597   3.9804
     3.9866   4.0936   4.1039   4.2646   4.2797

     the Fermi energy is     2.8442 ev

!    total energy              =   -2977.74437856 Ry
     estimated scf accuracy    <       0.00000005 Ry
     smearing contrib. (-TS)   =      -0.00445696 Ry
     internal energy E=F+TS    =   -2977.73992159 Ry

     The total energy is F=E-TS. E is the sum of the following terms:
     one-electron contribution =  -22876.44603994 Ry
     hartree contribution      =   11535.94507915 Ry
     xc contribution           =    -496.32987386 Ry
     ewald contribution        =    8859.08980572 Ry
     electric field correction =       0.00110733 Ry

     convergence has been achieved in  72 iterations

     Forces acting on atoms (cartesian axes, Ry/au):

     atom    1 type  1   force =    -0.00004254   -0.00046212    0.12450837
     atom    2 type  1   force =    -0.00008049   -0.00048579   -0.15980550
     atom    3 type  2   force =     0.00019148   -0.00024463   -0.06788895
     atom    4 type  2   force =    -0.00000613   -0.00011663    0.02624057
     atom    5 type  2   force =    -0.01448507    0.00181997   -0.00989622
     atom    6 type  2   force =     0.01626590    0.00224401   -0.01024320
     atom    7 type  1   force =     0.00072034   -0.00387139    0.02888559
     atom    8 type  1   force =    -0.00034894   -0.00439698    0.10953049
     atom    9 type  2   force =     0.00024113   -0.00029446   -0.00051102
     atom   10 type  2   force =    -0.00231344    0.00256519   -0.07333832
     atom   11 type  2   force =    -0.00002178   -0.00033520    0.00000333
     atom   12 type  2   force =    -0.00016689   -0.00082493    0.00002524
     atom   13 type  1   force =     0.00106442   -0.00040247    0.00012204
     atom   14 type  1   force =    -0.00064561    0.00064862   -0.00011481
     atom   15 type  2   force =    -0.00028524   -0.00041779   -0.00078751
     atom   16 type  2   force =    -0.00001359   -0.00011395    0.00069234
     atom   17 type  2   force =     0.00014741   -0.00091848   -0.00020311
     atom   18 type  2   force =     0.00050564   -0.00052727    0.00013515
     atom   19 type  1   force =    -0.00113933   -0.00010647   -0.00099204
     atom   20 type  1   force =     0.00079121   -0.00005939   -0.00049247
     atom   21 type  2   force =     0.00004668   -0.00003769    0.09940621
     atom   22 type  2   force =     0.00003299   -0.00027119   -0.00026857
     atom   23 type  2   force =    -0.07966748   -0.00005737   -0.03249546
     atom   24 type  2   force =     0.07951142    0.00038011   -0.03254429
     atom   25 type  1   force =    -0.00001105   -0.00057192    0.12415665
     atom   26 type  1   force =    -0.00008344   -0.00062417   -0.15995205
     atom   27 type  2   force =     0.00029991   -0.00036377   -0.06694326
     atom   28 type  2   force =    -0.00001944    0.00015177    0.02515835
     atom   29 type  2   force =    -0.01510696    0.00192726   -0.00983280
     atom   30 type  2   force =     0.01678458    0.00242742   -0.01014799
     atom   31 type  1   force =     0.00074445   -0.00075698    0.02406255
     atom   32 type  1   force =    -0.00027575    0.00204860    0.11015465
     atom   33 type  2   force =     0.00008075    0.00029574    0.00058672
     atom   34 type  2   force =    -0.00193618    0.00200052   -0.07164983
     atom   35 type  2   force =    -0.00001520    0.00034218   -0.00001017
     atom   36 type  2   force =    -0.00054727    0.00061083   -0.00005303
     atom   37 type  1   force =     0.00119300    0.00042525    0.00031672
     atom   38 type  1   force =    -0.00054574   -0.00088332   -0.00022907
     atom   39 type  2   force =    -0.00027779   -0.00013701    0.00089074
     atom   40 type  2   force =     0.00018132   -0.00012578    0.00025040
     atom   41 type  2   force =     0.00102789    0.00016338    0.00017016
     atom   42 type  2   force =    -0.00048655   -0.00022317    0.00054835
     atom   43 type  1   force =    -0.00159234    0.00002425   -0.00036378
     atom   44 type  1   force =     0.00091710   -0.00029918   -0.00047642
     atom   45 type  2   force =     0.00002263   -0.00004690    0.09938568
     atom   46 type  2   force =    -0.07968178    0.00000358   -0.03250929
     atom   47 type  2   force =     0.07953404    0.00043777   -0.03253597
     atom   48 type  3   force =    -0.00083234   -0.00171064   -0.00160062
     atom   49 type  3   force =    -0.00033725   -0.00048554    0.00131620
     atom   50 type  4   force =     0.00024851   -0.00301951   -0.00263436
     atom   51 type  5   force =    -0.00065823    0.00379523    0.00380285
     atom   52 type  5   force =    -0.00015716   -0.00012343    0.00095283
     atom   53 type  5   force =     0.00053138    0.00001117    0.00031383
     atom   54 type  5   force =     0.00006713   -0.00024190   -0.00060217
     atom   55 type  5   force =     0.00002884    0.00032376   -0.00029891
     atom   56 type  5   force =     0.00028090    0.00036002   -0.00182318
     atom   57 type  2   force =     0.00158978   -0.00049211   -0.00034571
     atom   58 type  5   force =    -0.00048732    0.00090704    0.00001719
     atom   59 type  5   force =    -0.00078254    0.00013586   -0.00004309

     Total force =     0.423547     Total SCF correction =     0.000528
  @ DRIVER MODE: Message from server: STATUS
  @ DRIVER MODE: Message from server: GETFORCE
  @ DRIVER MODE: Returning v,forces,stress,ensemble

     Writing output data file ./calc.save/
  @ DRIVER MODE: Message from server: EXIT
  @ DRIVE MODE: Exiting

     General routines

     Parallel routines

   This run was terminated on:   0: 6: 4  16Sep2021

   JOB DONE.