     Program PWSCF v.6.7GPU starts on 16Jul2021 at  6:52:59

     R & G space division:  proc/nbgrp/npool/nimage =      16
     Reading input from /storage/home/hcoda1/3/ntian30/research/carbon/15Jul_vib/ads_slab/CH3NH_b/out_0029/pw.inp
Warning: card &CELL ignored
Warning: card   CELL_DYNAMICS='IPI', ignored
Warning: card / ignored

     Current dimensions of program PWSCF are:
     Max number of different atomic species (ntypx) = 10
     Max number of k-points (npk) =  40000
     Max angular momentum in pseudopotentials (lmaxx) =  3
     Presently no symmetry can be used with electric field

     Message from routine cell_base_init:
     DEPRECATED: use true lattice parameter, not A to a.u. conversion factor

     IMPORTANT: XC functional enforced from input :
     Exchange-correlation= BEEF-VDW
                           (   1   4  43  14   2   0   0)
     Any further DFT definition will be discarded
     Please, verify this is what you really want

  @ DRIVER MODE: Connecting to
 qe_1139763_2351649.sched-torque.pace.gatech.edut2pvkzv9_scratch
  using UNIX socket
  @ DRIVER MODE: Message from server: STATUS
  @ DRIVER MODE: Message from server: INIT
  @ DRIVER MODE: Receiving replica           0          -1
  @ DRIVER MODE: Receiving encoded integer          25
  @ DRIVER MODE:  SCF:  T  FORCE:  T  STRESS:  F  VC:  F  ENSEMBLE:  F
  @ DRIVER MODE:  SCF:  T  FORCE:  T  STRESS:  F  VC:  F  ENSEMBLE:  F

     Using Slab Decomposition

     bravais-lattice index     =            0
     lattice parameter (alat)  =       1.8897  a.u.
     unit-cell volume          =    6658.9804 (a.u.)^3
     number of atoms/cell      =           53
     number of atomic types    =            5
     number of electrons       =       391.00
     number of Kohn-Sham states=          205
     kinetic-energy cutoff     =      29.3995  Ry
     charge density cutoff     =     293.9946  Ry
     scf convergence threshold =      7.3E-08
     mixing beta               =       0.0500
     number of iterations used =            8  plain     mixing
     Exchange-correlation= BEEF-VDW
                           (   1   4  43  14   2   0   0)

     celldm(1)=   1.889726  celldm(2)=   0.000000  celldm(3)=   0.000000
     celldm(4)=   0.000000  celldm(5)=   0.000000  celldm(6)=   0.000000

     crystal axes: (cart. coord. in units of alat)
               a(1) = (   6.579727   0.000000   0.000000 )
               a(2) = (  -0.000775   5.961596   0.000000 )
               a(3) = (   0.000000   0.000000  25.155947 )

     reciprocal axes: (cart. coord. in units 2 pi/alat)
               b(1) = (  0.151982  0.000020  0.000000 )
               b(2) = (  0.000000  0.167740  0.000000 )
               b(3) = (  0.000000  0.000000  0.039752 )

     PseudoPot. # 1 for Ti read from file:
     /storage/coda1/p-amedford6/0/shared/rich_project_chbe-medford/medford-share/data/pseudos_module/espresso/nninc/pbe/van/Ti.UPF
     MD5 check sum: 8e4df49b7f0d34bbd5052bf3f5ea0213
     Pseudo is Ultrasoft, Zval = 12.0
     Generated by new atomic code, or converted to UPF format
     Using radial grid of  851 points,  6 beta functions with:
                l(1) =   0
                l(2) =   0
                l(3) =   1
                l(4) =   1
                l(5) =   2
                l(6) =   2
     Q(r) pseudized with  8 coefficients,  rinner =    1.000   1.000   1.000
                                                       1.000   1.000

     PseudoPot. # 2 for O  read from file:
     /storage/coda1/p-amedford6/0/shared/rich_project_chbe-medford/medford-share/data/pseudos_module/espresso/nninc/pbe/van/O.UPF
     MD5 check sum: 78c19812648e8988a0fe644b0f25305e
     Pseudo is Ultrasoft, Zval =  6.0
     Generated by new atomic code, or converted to UPF format
     Using radial grid of  737 points,  4 beta functions with:
                l(1) =   0
                l(2) =   0
                l(3) =   1
                l(4) =   1
     Q(r) pseudized with  8 coefficients,  rinner =    0.800   0.800   0.800

     PseudoPot. # 3 for H  read from file:
     /storage/coda1/p-amedford6/0/shared/rich_project_chbe-medford/medford-share/data/pseudos_module/espresso/nninc/pbe/van/H.UPF
     MD5 check sum: b5ee9d7bfd3a09ee7748110bda690ff7
     Pseudo is Ultrasoft, Zval =  1.0
     Generated by new atomic code, or converted to UPF format
     Using radial grid of  615 points,  1 beta functions with:
                l(1) =   0
     Q(r) pseudized with  8 coefficients,  rinner =    0.800

     PseudoPot. # 4 for N  read from file:
     /storage/coda1/p-amedford6/0/shared/rich_project_chbe-medford/medford-share/data/pseudos_module/espresso/nninc/pbe/van/N.UPF
     MD5 check sum: 90d10febe142ad51ac9d5be1deb811c4
     Pseudo is Ultrasoft, Zval =  5.0
     Generated by new atomic code, or converted to UPF format
     Using radial grid of  729 points,  4 beta functions with:
                l(1) =   0
                l(2) =   0
                l(3) =   1
                l(4) =   1
     Q(r) pseudized with  8 coefficients,  rinner =    0.800   0.800   0.800

     PseudoPot. # 5 for C  read from file:
     /storage/coda1/p-amedford6/0/shared/rich_project_chbe-medford/medford-share/data/pseudos_module/espresso/nninc/pbe/van/C.UPF
     MD5 check sum: 1a69bf6b8db32088f5b2163dbdb77a27
     Pseudo is Ultrasoft, Zval =  4.0
     Generated by new atomic code, or converted to UPF format
     Using radial grid of  721 points,  4 beta functions with:
                l(1) =   0
                l(2) =   0
                l(3) =   1
                l(4) =   1
     Q(r) pseudized with  8 coefficients,  rinner =    0.800   0.800   0.800

     atomic species   valence    mass     pseudopotential
        Ti1           12.00    47.86700     Ti( 1.00)
        O1             6.00    15.99900     O ( 1.00)
        H1             1.00     1.00800     H ( 1.00)
        N1             5.00    14.00700     N ( 1.00)
        C1             4.00    12.01100     C ( 1.00)

     Starting magnetic structure
     atomic species   magnetization
        Ti1          0.000
        O1           0.000
        H1           0.000
        N1           0.000
        C1           0.025

     No symmetry found

   Cartesian axes

     site n.     atom                  positions (alat units)
         1           Ti1 tau(   1) = (   0.0004258   2.9801865   6.0000000  )
         2           Ti1 tau(   2) = (   3.2906075   1.4906267   6.0002472  )
         3           O1  tau(   3) = (   0.0006271   0.0005054   7.9858123  )
         4           O1  tau(   4) = (   3.2906025   0.0005020   7.3038282  )
         5           O1  tau(   5) = (   4.5942328   1.4918067   9.2879030  )
         6           O1  tau(   6) = (   1.9868534   1.4903216   9.2879459  )
         7           Ti1 tau(   7) = (   3.2907910   2.8959150   9.1758416  )
         8           Ti1 tau(   8) = (   0.0015273   1.4827037   9.2680791  )
         9           O1  tau(   9) = (   3.2906183   5.9580730  11.3246990  )
        10           O1  tau(  10) = (   0.0116148   5.9584955  10.6183126  )
        11           O1  tau(  11) = (   1.3160896   1.4863360  12.6200149  )
        12           O1  tau(  12) = (   5.2947061   1.4800608  12.6053981  )
        13           Ti1 tau(  13) = (   6.5224157   2.9421717  12.6196007  )
        14           Ti1 tau(  14) = (   3.2076970   1.4879367  12.4696142  )
        15           O1  tau(  15) = (   6.5517659   0.0158556  14.6493665  )
        16           O1  tau(  16) = (   3.3109316   0.0069331  13.9179417  )
        17           O1  tau(  17) = (   4.5083530   1.5297238  16.0872293  )
        18           O1  tau(  18) = (   2.0274073   1.5273405  16.0409094  )
        19           Ti1 tau(  19) = (   3.2920608   3.0081397  15.6838061  )
        20           Ti1 tau(  20) = (   0.0536170   1.5416865  15.8648894  )
        21           O1  tau(  21) = (   3.2904802   0.0005063   4.7018136  )
        22           O1  tau(  22) = (   0.0122827   0.0301012  17.2134340  )
        23           O1  tau(  23) = (   1.3043587   1.4918075   6.0039043  )
        24           O1  tau(  24) = (   5.2767064   1.4903225   6.0039473  )
        25           Ti1 tau(  25) = (   0.0000382   5.9609847   6.0000000  )
        26           Ti1 tau(  26) = (   3.2902200   4.4714249   6.0002472  )
        27           O1  tau(  27) = (   0.0002396   2.9813036   7.9858123  )
        28           O1  tau(  28) = (   3.2902150   2.9813002   7.3038282  )
        29           O1  tau(  29) = (   4.5938453   4.4726049   9.2879030  )
        30           O1  tau(  30) = (   1.9864658   4.4711199   9.2879459  )
        31           Ti1 tau(  31) = (   3.2891106   5.8743827   9.1763621  )
        32           Ti1 tau(  32) = (   0.0006254   4.4649316   9.2693709  )
        33           O1  tau(  33) = (   3.2866862   2.9837957  11.3234553  )
        34           O1  tau(  34) = (   0.0092240   2.9805883  10.6323155  )
        35           O1  tau(  35) = (   1.3095649   4.4762946  12.6335636  )
        36           O1  tau(  36) = (   5.2963019   4.4650584  12.6194355  )
        37           Ti1 tau(  37) = (   6.5192018   5.9199268  12.5733442  )
        38           Ti1 tau(  38) = (   3.2055211   4.4685508  12.4747853  )
        39           O1  tau(  39) = (   6.5624772   2.9349094  14.6472044  )
        40           O1  tau(  40) = (   3.3065106   2.9879112  13.8942307  )
        41           O1  tau(  41) = (   4.5199725   4.4841037  16.0899424  )
        42           O1  tau(  42) = (   2.0389375   4.4882992  16.0664246  )
        43           Ti1 tau(  43) = (   3.3279474   0.0221627  15.7114356  )
        44           Ti1 tau(  44) = (   0.0314192   4.6578676  16.1055029  )
        45           O1  tau(  45) = (   3.2900926   2.9813045   4.7018136  )
        46           O1  tau(  46) = (   1.3039711   4.4726057   6.0039043  )
        47           O1  tau(  47) = (   5.2763189   4.4711207   6.0039473  )
        48           H1  tau(  48) = (   5.5751926   2.9245997  17.7795037  )
        49           N1  tau(  49) = (   6.5345126   2.9709300  17.4463781  )
        50           C1  tau(  50) = (   0.8205834   2.9192471  18.6315588  )
        51           H1  tau(  51) = (   0.6379014   3.7726647  19.2931901  )
        52           H1  tau(  52) = (   0.6616828   1.9903841  19.1781566  )
        53           H1  tau(  53) = (   1.8691752   2.9530840  18.3388921  )

     number of k points=    10  Fermi-Dirac smearing, width (Ry)=  0.0073
                       cart. coord. in units 2pi/alat
        k(    1) = (   0.0000000   0.0000000   0.0000000), wk =   0.0625000
        k(    2) = (   0.0000000   0.0419351   0.0000000), wk =   0.1250000
        k(    3) = (   0.0000000  -0.0838702   0.0000000), wk =   0.0625000
        k(    4) = (   0.0379955   0.0000049   0.0000000), wk =   0.1250000
        k(    5) = (   0.0379955   0.0419400   0.0000000), wk =   0.1250000
        k(    6) = (   0.0379955  -0.0838652   0.0000000), wk =   0.1250000
        k(    7) = (   0.0379955  -0.0419301   0.0000000), wk =   0.1250000
        k(    8) = (  -0.0759910  -0.0000099   0.0000000), wk =   0.0625000
[...]

     Initial potential from superposition of free atoms

     starting charge  374.99916, renormalised to  391.00000

     negative rho (up, down):  8.894E-03 8.901E-03

     %%%%%%%%%%%%%%%%%%%%%%%%%%%%%%%%%%%%%%%%%%%%%%%%%%%%%%%%%%%%%%%%%%%%%%%%
     %                                                                      %
     % You are using vdW-DF, which was implemented by the Thonhauser group. %
     % Please cite the following two papers that made this development      %
     % possible and the two reviews that describe the various versions:     %
     %                                                                      %
     %   T. Thonhauser et al., PRL 115, 136402 (2015).                      %
     %   T. Thonhauser et al., PRB 76, 125112 (2007).                       %
     %   K. Berland et al., Rep. Prog. Phys. 78, 066501 (2015).             %
     %   D.C. Langreth et al., J. Phys.: Condens. Matter 21, 084203 (2009). %
     %                                                                      %
     %                                                                      %
     % If you are calculating the stress with vdW-DF, please also cite:     %
     %                                                                      %
     %   R. Sabatini et al., J. Phys.: Condens. Matter 24, 424209 (2012).   %
     %                                                                      %
     %%%%%%%%%%%%%%%%%%%%%%%%%%%%%%%%%%%%%%%%%%%%%%%%%%%%%%%%%%%%%%%%%%%%%%%%

     Adding external electric field

     Computed dipole along edir(3) :
        Dipole               -5.8154 Ry au,        -14.7814 Debye
        Dipole field         -0.0110 Ry au,

        Potential amp.        1.0173 Ry
        Total length         46.3494 bohr

[...]

     Starting wfcs are  296 atomic wfcs
  @ DRIVER MODE: Message from server: STATUS
  @ DRIVER MODE: Message from server: POSDATA
  @ DRIVER MODE: Reading and sharing cell
  @ DRIVER MODE: Reading and sharing positions
  @ DRIVER MODE: Received positions

     Self-consistent Calculation

     iteration #  1     ecut=    29.40 Ry     beta= 0.05
     Davidson diagonalization with overlap
     c_bands:  3 eigenvalues not converged
     c_bands:  1 eigenvalues not converged
     c_bands:  1 eigenvalues not converged
     c_bands:  2 eigenvalues not converged
     c_bands:  4 eigenvalues not converged
     c_bands:  2 eigenvalues not converged
     c_bands:  1 eigenvalues not converged
     c_bands:  1 eigenvalues not converged
     c_bands:  2 eigenvalues not converged
     c_bands:  3 eigenvalues not converged
     c_bands:  1 eigenvalues not converged
     c_bands:  1 eigenvalues not converged
     c_bands:  3 eigenvalues not converged
     c_bands:  4 eigenvalues not converged
     c_bands:  3 eigenvalues not converged
     c_bands:  1 eigenvalues not converged
     c_bands:  1 eigenvalues not converged
     c_bands:  2 eigenvalues not converged
     ethr =  1.00E-05,  avg # of iterations = 19.6

[...]

     total energy              =   -2770.81592297 Ry
     estimated scf accuracy    <    1639.80919728 Ry

     total magnetization       =     0.01 Bohr mag/cell
     absolute magnetization    =     0.03 Bohr mag/cell

[...]

     iteration #  3     ecut=    29.40 Ry     beta= 0.05
     Davidson diagonalization with overlap
     ethr =  1.00E-02,  avg # of iterations = 15.2

[...]

     iteration # 44     ecut=    29.40 Ry     beta= 0.05
     Davidson diagonalization with overlap
     c_bands:  1 eigenvalues not converged
     c_bands:  1 eigenvalues not converged
     ethr =  6.79E-08,  avg # of iterations = 16.1

[...]

     total energy              =   -2920.42459905 Ry
     estimated scf accuracy    <       0.00000009 Ry

[...]

     iteration # 70     ecut=    29.40 Ry     beta= 0.05
     Davidson diagonalization with overlap
     ethr =  2.38E-11,  avg # of iterations = 11.9

     negative rho (up, down):  9.098E-03 9.098E-03

[...]

     Adding external electric field

     Computed dipole along edir(3) :
        Dipole                0.6856 Ry au,          1.7427 Debye
        Dipole field          0.0013 Ry au,

        Potential amp.       -0.1199 Ry
        Total length         46.3494 bohr

     Magnetic moment per site  (integrated on atomic sphere of radius R)
     atom   1 (R=0.715)  charge=  7.8451  magn=  0.0004
     atom   2 (R=0.715)  charge=  7.8287  magn=  0.0003
     atom   3 (R=0.715)  charge=  4.8552  magn= -0.0000
     atom   4 (R=0.715)  charge=  4.8904  magn= -0.0001
     atom   5 (R=0.715)  charge=  4.8608  magn= -0.0000
     atom   6 (R=0.715)  charge=  4.8616  magn=  0.0000
     atom   7 (R=0.715)  charge=  7.8276  magn=  0.0000
     atom   8 (R=0.715)  charge=  7.8194  magn=  0.0001
     atom   9 (R=0.715)  charge=  4.8766  magn=  0.0000
     atom  10 (R=0.715)  charge=  4.8485  magn=  0.0000
     atom  11 (R=0.715)  charge=  4.8624  magn=  0.0000
     atom  12 (R=0.715)  charge=  4.8618  magn=  0.0000
     atom  13 (R=0.715)  charge=  7.8170  magn=  0.0000
     atom  14 (R=0.715)  charge=  7.8304  magn= -0.0000
     atom  15 (R=0.715)  charge=  4.8497  magn=  0.0000
     atom  16 (R=0.715)  charge=  4.8722  magn=  0.0000
     atom  17 (R=0.715)  charge=  4.8476  magn=  0.0000
     atom  18 (R=0.715)  charge=  4.8546  magn=  0.0000
     atom  19 (R=0.715)  charge=  7.8557  magn= -0.0000
     atom  20 (R=0.715)  charge=  7.8308  magn= -0.0000
     atom  21 (R=0.715)  charge=  4.7478  magn= -0.0006
     atom  22 (R=0.715)  charge=  4.8259  magn= -0.0000
     atom  23 (R=0.715)  charge=  4.8532  magn= -0.0001
     atom  24 (R=0.715)  charge=  4.8532  magn= -0.0001
     atom  25 (R=0.715)  charge=  7.8452  magn=  0.0004
     atom  26 (R=0.715)  charge=  7.8288  magn=  0.0003
     atom  27 (R=0.715)  charge=  4.8545  magn= -0.0000
     atom  28 (R=0.715)  charge=  4.8906  magn= -0.0001
     atom  29 (R=0.715)  charge=  4.8616  magn=  0.0000
     atom  30 (R=0.715)  charge=  4.8623  magn=  0.0000
     atom  31 (R=0.715)  charge=  7.8277  magn=  0.0000
     atom  32 (R=0.715)  charge=  7.8194  magn=  0.0001
     atom  33 (R=0.715)  charge=  4.8755  magn=  0.0000
     atom  34 (R=0.715)  charge=  4.8372  magn=  0.0000
     atom  35 (R=0.715)  charge=  4.8621  magn=  0.0000
     atom  36 (R=0.715)  charge=  4.8623  magn= -0.0000
     atom  37 (R=0.715)  charge=  7.8196  magn=  0.0000
     atom  38 (R=0.715)  charge=  7.8303  magn= -0.0000
     atom  39 (R=0.715)  charge=  4.8446  magn=  0.0000
     atom  40 (R=0.715)  charge=  4.8784  magn=  0.0000
     atom  41 (R=0.715)  charge=  4.8510  magn=  0.0000
     atom  42 (R=0.715)  charge=  4.8519  magn=  0.0000
     atom  43 (R=0.715)  charge=  7.8536  magn= -0.0000
     atom  44 (R=0.715)  charge=  7.8554  magn=  0.0000
     atom  45 (R=0.715)  charge=  4.7479  magn= -0.0005
     atom  46 (R=0.715)  charge=  4.8532  magn= -0.0001
     atom  47 (R=0.715)  charge=  4.8532  magn= -0.0001
     atom  48 (R=0.419)  charge=  0.4545  magn=  0.0000
     atom  49 (R=0.419)  charge=  1.3289  magn= -0.0000
     atom  50 (R=0.449)  charge=  0.8468  magn=  0.0000
     atom  51 (R=0.419)  charge=  0.4419  magn= -0.0000
     atom  52 (R=0.419)  charge=  0.4442  magn= -0.0000
     atom  53 (R=0.419)  charge=  0.4478  magn= -0.0000

     End of self-consistent calculation

 ------ SPIN UP ------------

          k = 0.0000 0.0000 0.0000 ( 18029 PWs)   bands (ev):

   -55.9950 -55.9870 -55.9609 -55.9509 -55.9017 -55.8372 -55.8370 -55.8026
   -55.7983 -55.7644 -55.7587 -55.7251 -55.5384 -55.2709 -54.9674 -54.9334
   -32.5458 -32.4760 -32.3489 -32.3386 -32.3144 -32.2978 -32.2879 -32.2496
   -32.2358 -32.2348 -32.2107 -32.2034 -32.1696 -32.1470 -32.1389 -32.1330
   -32.1293 -32.0979 -32.0766 -32.0520 -32.0474 -32.0399 -32.0246 -31.9975
   -31.9904 -31.9898 -31.9845 -31.9766 -31.9618 -31.9563 -31.9526 -31.9425
   -31.9349 -31.9280 -31.9118 -31.9055 -31.8711 -31.8077 -31.7093 -31.5457
   -31.5408 -31.4657 -31.3741 -31.2863 -31.2639 -31.1908 -31.1043 -30.9933
   -16.7548 -16.4714 -16.2920 -16.1488 -16.1168 -16.0313 -15.8303 -15.7035
   -15.6915 -15.5878 -15.5548 -15.5283 -15.5219 -15.4955 -15.4903 -15.4294
   -15.4274 -15.4138 -15.4045 -15.3475 -15.3230 -15.2698 -15.1904 -15.1573
   -15.1520 -15.1241 -15.0423 -15.0373 -14.5843 -14.1779 -13.4683 -13.3519
    -8.9362  -4.3575  -4.1259  -3.9515  -3.9121  -3.8966  -3.8468  -3.5926
    -3.5777  -3.3502  -3.2271  -3.1953  -3.1771  -3.1683  -3.1478  -3.1369
    -2.8905  -2.8245  -2.8086  -2.7871  -2.7788  -2.7728  -2.7607  -2.7599
    -2.7203  -2.6578  -2.5324  -2.4974  -2.4189  -2.3817  -2.3517  -2.3037
    -2.2599  -2.2531  -2.2419  -2.2231  -2.2104  -2.1866  -2.1701  -2.0362
    -1.9704  -1.8351  -1.8003  -1.7811  -1.5947  -1.5364  -1.4715  -1.4326
    -1.4195  -1.4123  -1.3805  -1.2989  -1.2074  -1.1512  -1.1409  -1.0847
    -1.0073  -0.9959  -0.8881  -0.8826  -0.8546  -0.7653  -0.7548  -0.7436
    -0.7252  -0.6564  -0.5566  -0.4789  -0.4341  -0.4039  -0.3732  -0.3037
    -0.2736  -0.1713  -0.1556  -0.1076  -0.1024  -0.0608  -0.0155  -0.0062
     0.0026   0.0105   0.0358   0.1782   0.2892   0.3440   0.3845   0.3904
     0.5448   0.5720   0.6695   0.7578   0.9829   1.0559   1.1486   1.2486
     1.3226   1.6269   1.6722   3.1486   3.2275   3.2813   3.2903   3.3928
     3.3984   3.5981   3.6083   3.6211   3.6887

[...]

          k =-0.0760-0.0000 0.0000 ( 17886 PWs)   bands (ev):

[...]

 ------ SPIN DOWN ----------

[...]

          k = 0.0380-0.0419 0.0000 ( 17876 PWs)   bands (ev):

[...]

          k =-0.0760-0.0839 0.0000 ( 17948 PWs)   bands (ev):

   -55.9775 -55.9767 -55.9702 -55.9676 -55.8967 -55.8422 -55.8205 -55.8190
   -55.7818 -55.7800 -55.7424 -55.7413 -55.5374 -55.2718 -54.9493 -54.9492
   -32.3508 -32.3472 -32.2910 -32.2904 -32.2803 -32.2729 -32.2721 -32.2594
   -32.1975 -32.1964 -32.1914 -32.1870 -32.1637 -32.1326 -32.1177 -32.1135
   -32.1005 -32.0982 -32.0966 -32.0959 -32.0929 -32.0820 -32.0797 -32.0481
   -32.0401 -32.0390 -32.0093 -31.9982 -31.9788 -31.9784 -31.9749 -31.9739
   -31.9572 -31.9565 -31.9548 -31.9518 -31.8766 -31.8101 -31.7048 -31.6102
   -31.5427 -31.4903 -31.2755 -31.2755 -31.1858 -31.1857 -31.1465 -31.1465
   -16.2085 -16.1734 -15.9367 -15.9254 -15.9187 -15.9031 -15.7573 -15.7104
   -15.6988 -15.6917 -15.6689 -15.6458 -15.5882 -15.5593 -15.5304 -15.5217
   -15.5156 -15.5135 -15.4517 -15.4466 -15.4235 -15.4166 -15.3030 -15.2992
   -15.2897 -15.2137 -15.1592 -15.0194 -14.7460 -14.2014 -13.4557 -13.4554
    -8.9410  -4.3692  -3.5026  -3.4625  -3.3041  -3.2474  -3.1774  -3.1608
    -3.1369  -3.0682  -2.9042  -2.8873  -2.8760  -2.8608  -2.8186  -2.8123
    -2.8019  -2.7895  -2.7826  -2.7636  -2.7303  -2.6976  -2.6591  -2.6516
    -2.6430  -2.6180  -2.6069  -2.5854  -2.5736  -2.5426  -2.5337  -2.5160
    -2.4865  -2.2248  -2.2050  -2.1941  -2.1229  -2.1163  -2.0828  -2.0649
    -2.0551  -2.0419  -1.9849  -1.8811  -1.7242  -1.6926  -1.6822  -1.6675
    -1.5840  -1.5750  -1.4216  -1.4006  -1.3801  -1.3429  -1.2888  -1.2664
    -1.2259  -1.1673  -1.1498  -1.0860  -1.0695  -1.0102  -0.9546  -0.9528
    -0.9317  -0.8563  -0.7748  -0.7593  -0.7461  -0.7070  -0.6970  -0.6100
    -0.5863  -0.4931  -0.4788  -0.4203  -0.3962  -0.2950  -0.1343  -0.0103
     0.0434   0.0693   0.1269   0.2254   0.2698   0.2815   0.3256   0.3318
     0.3936   0.4336   0.5471   0.5530   0.6278   0.7191   1.2601   1.4191
     1.4198   1.4903   1.4906   3.4121   3.4173   3.4646   3.4939   3.6492
     3.6538   3.6759   3.6770   3.8017   3.8181

     the Fermi energy is     3.1420 ev

!    total energy              =   -2920.42461436 Ry
     estimated scf accuracy    <       0.00000007 Ry
     smearing contrib. (-TS)   =      -0.02203375 Ry
     internal energy E=F+TS    =   -2920.40258060 Ry

     The total energy is F=E-TS. E is the sum of the following terms:
     one-electron contribution =  -24702.26421257 Ry
     hartree contribution      =   12435.74721473 Ry
     xc contribution           =    -480.87587235 Ry
     ewald contribution        =    9826.98940247 Ry
     electric field correction =       0.00088711 Ry

     total magnetization       =     0.00 Bohr mag/cell
     absolute magnetization    =     0.01 Bohr mag/cell

     convergence has been achieved in  70 iterations

     Forces acting on atoms (cartesian axes, Ry/au):

     atom    1 type  1   force =     0.00010977   -0.00026282    0.09689223
     atom    2 type  1   force =     0.00001819   -0.00055848   -0.17508545
     atom    3 type  2   force =     0.00013506   -0.00007794   -0.02543764
     atom    4 type  2   force =    -0.00000614   -0.00137184    0.05231648
     atom    5 type  2   force =    -0.01237868   -0.00012893    0.00301954
     atom    6 type  2   force =     0.01379606    0.00023685    0.00238281
     atom    7 type  1   force =     0.00059895    0.00032949   -0.01267006
     atom    8 type  1   force =     0.00047165    0.00594201    0.03106131
     atom    9 type  2   force =    -0.00033545    0.00024031    0.00043383
     atom   10 type  2   force =    -0.00269647    0.00069482   -0.01625486
     atom   11 type  2   force =    -0.00040359    0.00012609    0.00016504
     atom   12 type  2   force =     0.00014706    0.00013747    0.00019168
     atom   13 type  1   force =    -0.00013788    0.00022129    0.00024690
     atom   14 type  1   force =    -0.00002283   -0.00021029   -0.00013772
     atom   15 type  2   force =     0.00020591    0.00012142    0.00032171
     atom   16 type  2   force =    -0.00006655    0.00027551    0.00023557
     atom   17 type  2   force =    -0.00010482   -0.00022629   -0.00023701
     atom   18 type  2   force =     0.00035441   -0.00011750    0.00024510
     atom   19 type  1   force =    -0.00003758    0.00022848   -0.00004407
     atom   20 type  1   force =    -0.00006359    0.00006639   -0.00037727
     atom   21 type  2   force =     0.00006619   -0.00005649    0.10311309
     atom   22 type  2   force =    -0.00010072    0.00004063    0.00033109
     atom   23 type  2   force =    -0.07162362   -0.00015579   -0.02783918
     atom   24 type  2   force =     0.07154898    0.00032762   -0.02790024
     atom   25 type  1   force =     0.00011563   -0.00024218    0.09667778
     atom   26 type  1   force =     0.00012252   -0.00031690   -0.17525590
     atom   27 type  2   force =     0.00013489   -0.00023170   -0.02451910
     atom   28 type  2   force =     0.00002713   -0.00113109    0.05223331
     atom   29 type  2   force =    -0.01249999    0.00015211    0.00267606
     atom   30 type  2   force =     0.01380669    0.00069731    0.00202074
     atom   31 type  1   force =     0.00050109    0.00288897   -0.01338429
     atom   32 type  1   force =     0.00030292   -0.00821342    0.03147548
     atom   33 type  2   force =    -0.00005922   -0.00006331   -0.00007676
     atom   34 type  2   force =    -0.00184012    0.00055869   -0.02457667
     atom   35 type  2   force =    -0.00013436    0.00010399    0.00004452
     atom   36 type  2   force =    -0.00023643    0.00020631    0.00011800
     atom   37 type  1   force =    -0.00007846    0.00027733    0.00024348
     atom   38 type  1   force =    -0.00022962   -0.00003621   -0.00015181
     atom   39 type  2   force =     0.00006757    0.00020593   -0.00017800
     atom   40 type  2   force =    -0.00017113    0.00027135   -0.00014633
     atom   41 type  2   force =    -0.00000132    0.00008870    0.00022409
     atom   42 type  2   force =    -0.00007456    0.00000103    0.00038581
     atom   43 type  1   force =    -0.00018576   -0.00020183    0.00047261
     atom   44 type  1   force =     0.00030122   -0.00037883    0.00013471
     atom   45 type  2   force =     0.00004962   -0.00006474    0.10311550
     atom   46 type  2   force =    -0.07163358   -0.00008958   -0.02783480
     atom   47 type  2   force =     0.07156621    0.00033202   -0.02791045
     atom   48 type  3   force =    -0.00048690    0.00015788    0.00002554
     atom   49 type  4   force =     0.00022192    0.00038148   -0.00132537
     atom   50 type  5   force =     0.00228114    0.00415657   -0.00395837
     atom   51 type  3   force =    -0.00068434   -0.00178986    0.00001874
     atom   52 type  3   force =    -0.00036078   -0.00368741    0.00438457
     atom   53 type  3   force =    -0.00029628    0.00014537    0.00009405

     Total force =     0.368485     Total SCF correction =     0.000685
  @ DRIVER MODE: Message from server: STATUS
  @ DRIVER MODE: Message from server: GETFORCE
  @ DRIVER MODE: Returning v,forces,stress,ensemble

     Writing output data file ./calc.save/
  @ DRIVER MODE: Message from server: EXIT
  @ DRIVE MODE: Exiting

     General routines

     Parallel routines

   This run was terminated on:   7:24:29  16Jul2021

   JOB DONE.