     Program PWSCF v.6.7GPU starts on 23Sep2021 at  4: 6:19

     R & G space division:  proc/nbgrp/npool/nimage =       8
     Reading input from /storage/home/hcoda1/3/ntian30/research/carbon/CxH_vib/H2O_calc/ads_slab/CH2OHHO_a/out_0017/pw.inp
Warning: card &CELL ignored
Warning: card   CELL_DYNAMICS='IPI', ignored
Warning: card / ignored

     Current dimensions of program PWSCF are:
     Max number of different atomic species (ntypx) = 10
     Max number of k-points (npk) =  40000
     Max angular momentum in pseudopotentials (lmaxx) =  3
     Presently no symmetry can be used with electric field

     Message from routine cell_base_init:
     DEPRECATED: use true lattice parameter, not A to a.u. conversion factor

     IMPORTANT: XC functional enforced from input :
     Exchange-correlation= BEEF-VDW
                           (   1   4  43  14   2   0   0)
     Any further DFT definition will be discarded
     Please, verify this is what you really want

  @ DRIVER MODE: Connecting to
 qe_1139763_2941013.sched-torque.pace.gatech.eduo2ocboz5_scratch
  using UNIX socket
  @ DRIVER MODE: Message from server: STATUS
  @ DRIVER MODE: Message from server: INIT
  @ DRIVER MODE: Receiving replica           0          -1
  @ DRIVER MODE: Receiving encoded integer          25
  @ DRIVER MODE:  SCF:  T  FORCE:  T  STRESS:  F  VC:  F  ENSEMBLE:  F
  @ DRIVER MODE:  SCF:  T  FORCE:  T  STRESS:  F  VC:  F  ENSEMBLE:  F

     Using Slab Decomposition

     bravais-lattice index     =            0
     lattice parameter (alat)  =       1.8897  a.u.
     unit-cell volume          =    6658.9804 (a.u.)^3
     number of atoms/cell      =           54
     number of atomic types    =            4
     number of electrons       =       398.00
     number of Kohn-Sham states=          209
     kinetic-energy cutoff     =      29.3995  Ry
     charge density cutoff     =     293.9946  Ry
     scf convergence threshold =      7.3E-08
     mixing beta               =       0.0500
     number of iterations used =            8  plain     mixing
     Exchange-correlation= BEEF-VDW
                           (   1   4  43  14   2   0   0)

     celldm(1)=   1.889726  celldm(2)=   0.000000  celldm(3)=   0.000000
     celldm(4)=   0.000000  celldm(5)=   0.000000  celldm(6)=   0.000000

     crystal axes: (cart. coord. in units of alat)
               a(1) = (   6.579727   0.000000   0.000000 )
               a(2) = (  -0.000775   5.961596   0.000000 )
               a(3) = (   0.000000   0.000000  25.155947 )

     reciprocal axes: (cart. coord. in units 2 pi/alat)
               b(1) = (  0.151982  0.000020  0.000000 )
               b(2) = (  0.000000  0.167740  0.000000 )
               b(3) = (  0.000000  0.000000  0.039752 )

     PseudoPot. # 1 for Ti read from file:
     /storage/coda1/p-amedford6/0/shared/rich_project_chbe-medford/medford-share/data/pseudos_module/espresso/nninc/pbe/van/Ti.UPF
     MD5 check sum: 8e4df49b7f0d34bbd5052bf3f5ea0213
     Pseudo is Ultrasoft, Zval = 12.0
     Generated by new atomic code, or converted to UPF format
     Using radial grid of  851 points,  6 beta functions with:
                l(1) =   0
                l(2) =   0
                l(3) =   1
                l(4) =   1
                l(5) =   2
                l(6) =   2
     Q(r) pseudized with  8 coefficients,  rinner =    1.000   1.000   1.000
                                                       1.000   1.000

     PseudoPot. # 2 for O  read from file:
     /storage/coda1/p-amedford6/0/shared/rich_project_chbe-medford/medford-share/data/pseudos_module/espresso/nninc/pbe/van/O.UPF
     MD5 check sum: 78c19812648e8988a0fe644b0f25305e
     Pseudo is Ultrasoft, Zval =  6.0
     Generated by new atomic code, or converted to UPF format
     Using radial grid of  737 points,  4 beta functions with:
                l(1) =   0
                l(2) =   0
                l(3) =   1
                l(4) =   1
     Q(r) pseudized with  8 coefficients,  rinner =    0.800   0.800   0.800

     PseudoPot. # 3 for C  read from file:
     /storage/coda1/p-amedford6/0/shared/rich_project_chbe-medford/medford-share/data/pseudos_module/espresso/nninc/pbe/van/C.UPF
     MD5 check sum: 1a69bf6b8db32088f5b2163dbdb77a27
     Pseudo is Ultrasoft, Zval =  4.0
     Generated by new atomic code, or converted to UPF format
     Using radial grid of  721 points,  4 beta functions with:
                l(1) =   0
                l(2) =   0
                l(3) =   1
                l(4) =   1
     Q(r) pseudized with  8 coefficients,  rinner =    0.800   0.800   0.800

     PseudoPot. # 4 for H  read from file:
     /storage/coda1/p-amedford6/0/shared/rich_project_chbe-medford/medford-share/data/pseudos_module/espresso/nninc/pbe/van/H.UPF
     MD5 check sum: b5ee9d7bfd3a09ee7748110bda690ff7
     Pseudo is Ultrasoft, Zval =  1.0
     Generated by new atomic code, or converted to UPF format
     Using radial grid of  615 points,  1 beta functions with:
                l(1) =   0
     Q(r) pseudized with  8 coefficients,  rinner =    0.800

     atomic species   valence    mass     pseudopotential
        Ti1           12.00    47.86700     Ti( 1.00)
        O1             6.00    15.99900     O ( 1.00)
        C1             4.00    12.01100     C ( 1.00)
        H1             1.00     1.00800     H ( 1.00)

     No symmetry found

   Cartesian axes

     site n.     atom                  positions (alat units)
         1           Ti1 tau(   1) = (   0.0004258   2.9801865   6.0000000  )
         2           Ti1 tau(   2) = (   3.2906075   1.4906267   6.0002472  )
         3           O1  tau(   3) = (   0.0006271   0.0005054   7.9858123  )
         4           O1  tau(   4) = (   3.2906025   0.0005020   7.3038282  )
         5           O1  tau(   5) = (   4.5942328   1.4918067   9.2879030  )
         6           O1  tau(   6) = (   1.9868534   1.4903216   9.2879459  )
         7           Ti1 tau(   7) = (   3.2053781   3.0281819   9.2289109  )
         8           Ti1 tau(   8) = (   6.4789090   1.5422439   9.3246958  )
         9           O1  tau(   9) = (   3.3131828   0.0076525  11.3143355  )
        10           O1  tau(  10) = (   0.0036331   0.0073455  10.5537702  )
        11           O1  tau(  11) = (   1.2849538   1.5262321  12.5678262  )
        12           O1  tau(  12) = (   5.3289628   1.4687457  12.6164477  )
        13           Ti1 tau(  13) = (   0.0494698   3.0469090  12.7547230  )
        14           Ti1 tau(  14) = (   3.2845375   1.6334081  12.5308488  )
        15           O1  tau(  15) = (   0.1943872   0.0117586  14.6058021  )
        16           O1  tau(  16) = (   3.1943342   5.9422946  13.9142442  )
        17           O1  tau(  17) = (   4.6623408   1.4089460  15.7678261  )
        18           O1  tau(  18) = (   2.0428328   1.6351894  16.0888801  )
        19           Ti1 tau(  19) = (   3.4388860   2.9458104  15.8736401  )
        20           Ti1 tau(  20) = (   0.1295272   1.3814375  15.8666627  )
        21           O1  tau(  21) = (   3.2904802   0.0005063   4.7018136  )
        22           O1  tau(  22) = (   0.0846747   0.0144810  17.1090220  )
        23           O1  tau(  23) = (   1.3043587   1.4918075   6.0039043  )
        24           O1  tau(  24) = (   5.2767064   1.4903225   6.0039473  )
        25           Ti1 tau(  25) = (   0.0000382   5.9609847   6.0000000  )
        26           Ti1 tau(  26) = (   3.2902200   4.4714249   6.0002472  )
        27           O1  tau(  27) = (   0.0002396   2.9813036   7.9858123  )
        28           O1  tau(  28) = (   3.2902150   2.9813002   7.3038282  )
        29           O1  tau(  29) = (   4.5938453   4.4726049   9.2879030  )
        30           O1  tau(  30) = (   1.9864658   4.4711199   9.2879459  )
        31           Ti1 tau(  31) = (   3.2224821   0.0470802   9.2230333  )
        32           Ti1 tau(  32) = (   6.4759698   4.4664252   9.3127940  )
        33           O1  tau(  33) = (   3.3094535   2.9663607  11.2852029  )
        34           O1  tau(  34) = (   6.5591786   2.9896559  10.5312464  )
        35           O1  tau(  35) = (   1.2916819   4.4480478  12.5709280  )
        36           O1  tau(  36) = (   5.3369627   4.5124161  12.6303246  )
        37           Ti1 tau(  37) = (   6.5569224   0.0640291  12.4639877  )
        38           Ti1 tau(  38) = (   3.2972653   4.6387695  12.6472152  )
        39           O1  tau(  39) = (   0.0654804   2.9943531  14.6628162  )
        40           O1  tau(  40) = (   3.3673531   2.9793459  13.8791815  )
        41           O1  tau(  41) = (   4.6654837   4.5585741  15.7845026  )
        42           O1  tau(  42) = (   2.0434307   4.3527116  16.0649513  )
        43           Ti1 tau(  43) = (   3.4443475   5.9291804  16.0141943  )
        44           Ti1 tau(  44) = (   0.1552736   4.5966999  15.8683145  )
        45           O1  tau(  45) = (   3.2900926   2.9813045   4.7018136  )
        46           O1  tau(  46) = (   1.3039711   4.4726057   6.0039043  )
        47           O1  tau(  47) = (   5.2763189   4.4711207   6.0039473  )
        48           C1  tau(  48) = (   4.6056898   2.9812133  17.8228851  )
        49           O1  tau(  49) = (   6.0966523   2.9907575  17.4046881  )
        50           H1  tau(  50) = (   0.0599730   2.9907033  18.2008262  )
        51           H1  tau(  51) = (   4.4920754   2.0732530  18.4117920  )
        52           H1  tau(  52) = (   4.4771298   3.8877196  18.4106030  )
        53           O1  tau(  53) = (   3.3127961   5.9530928  17.8757943  )
        54           H1  tau(  54) = (   2.4287022   0.1083392  18.2542858  )

     number of k points=    10  Fermi-Dirac smearing, width (Ry)=  0.0073
                       cart. coord. in units 2pi/alat
        k(    1) = (   0.0000000   0.0000000   0.0000000), wk =   0.1250000
        k(    2) = (   0.0000000   0.0419351   0.0000000), wk =   0.2500000
        k(    3) = (   0.0000000  -0.0838702   0.0000000), wk =   0.1250000
        k(    4) = (   0.0379955   0.0000049   0.0000000), wk =   0.2500000
        k(    5) = (   0.0379955   0.0419400   0.0000000), wk =   0.2500000
        k(    6) = (   0.0379955  -0.0838652   0.0000000), wk =   0.2500000
        k(    7) = (   0.0379955  -0.0419301   0.0000000), wk =   0.2500000
        k(    8) = (  -0.0759910  -0.0000099   0.0000000), wk =   0.1250000
        k(    9) = (  -0.0759910   0.0419252   0.0000000), wk =   0.2500000
        k(   10) = (  -0.0759910  -0.0838800   0.0000000), wk =   0.1250000

     Initial potential from superposition of free atoms

     starting charge  381.99917, renormalised to  398.00000

     negative rho (up, down):  1.911E-02 0.000E+00

     %%%%%%%%%%%%%%%%%%%%%%%%%%%%%%%%%%%%%%%%%%%%%%%%%%%%%%%%%%%%%%%%%%%%%%%%
     %                                                                      %
     % You are using vdW-DF, which was implemented by the Thonhauser group. %
     % Please cite the following two papers that made this development      %
     % possible and the two reviews that describe the various versions:     %
     %                                                                      %
     %   T. Thonhauser et al., PRL 115, 136402 (2015).                      %
     %   T. Thonhauser et al., PRB 76, 125112 (2007).                       %
     %   K. Berland et al., Rep. Prog. Phys. 78, 066501 (2015).             %
     %   D.C. Langreth et al., J. Phys.: Condens. Matter 21, 084203 (2009). %
     %                                                                      %
     %                                                                      %
     % If you are calculating the stress with vdW-DF, please also cite:     %
     %                                                                      %
     %   R. Sabatini et al., J. Phys.: Condens. Matter 24, 424209 (2012).   %
     %                                                                      %
     %%%%%%%%%%%%%%%%%%%%%%%%%%%%%%%%%%%%%%%%%%%%%%%%%%%%%%%%%%%%%%%%%%%%%%%%

     Adding external electric field

     Computed dipole along edir(3) :
        Dipole               -7.9384 Ry au,        -20.1774 Debye
        Dipole field         -0.0150 Ry au,

        Potential amp.        1.3887 Ry
        Total length         46.3494 bohr

     Starting wfcs are  300 atomic wfcs
  @ DRIVER MODE: Message from server: STATUS
  @ DRIVER MODE: Message from server: POSDATA
  @ DRIVER MODE: Reading and sharing cell
  @ DRIVER MODE: Reading and sharing positions
  @ DRIVER MODE: Received positions

     Self-consistent Calculation

     iteration #  1     ecut=    29.40 Ry     beta= 0.05
     Davidson diagonalization with overlap
     c_bands:  1 eigenvalues not converged
     c_bands:  2 eigenvalues not converged
     c_bands:  2 eigenvalues not converged
     c_bands:  1 eigenvalues not converged
     c_bands:  1 eigenvalues not converged
     c_bands:  1 eigenvalues not converged
     ethr =  1.00E-05,  avg # of iterations = 18.8

[...]

     total energy              =   -2649.63041724 Ry
     estimated scf accuracy    <    3498.99227629 Ry

[...]

     iteration #  3     ecut=    29.40 Ry     beta= 0.05
     Davidson diagonalization with overlap
     ethr =  1.00E-02,  avg # of iterations = 13.5

[...]

     iteration # 47     ecut=    29.40 Ry     beta= 0.05
     Davidson diagonalization with overlap
     c_bands:  2 eigenvalues not converged
     ethr =  2.07E-07,  avg # of iterations =  6.6

[...]

     total energy              =   -2964.91869964 Ry
     estimated scf accuracy    <       0.00000025 Ry

     iteration # 72     ecut=    29.40 Ry     beta= 0.05
     Davidson diagonalization with overlap
     ethr =  5.14E-11,  avg # of iterations =  5.0

     negative rho (up, down):  1.876E-02 0.000E+00

     Adding external electric field

     Computed dipole along edir(3) :
        Dipole                0.6414 Ry au,          1.6302 Debye
        Dipole field          0.0012 Ry au,

        Potential amp.       -0.1122 Ry
        Total length         46.3494 bohr

     End of self-consistent calculation

          k = 0.0000 0.0000 0.0000 ( 18029 PWs)   bands (ev):

   -56.4329 -56.3681 -55.7994 -55.7974 -55.7514 -55.7469 -55.7437 -55.7028
   -55.6962 -55.6487 -55.4600 -55.4456 -55.3818 -55.3642 -54.9584 -54.9245
   -32.8353 -32.7085 -32.6317 -32.6039 -32.5020 -32.4600 -32.4129 -32.3240
   -32.2167 -32.1851 -32.1066 -32.0634 -32.0429 -32.0066 -32.0051 -31.9969
   -31.9777 -31.9632 -31.9582 -31.9465 -31.9417 -31.9379 -31.9254 -31.9082
   -31.8954 -31.8931 -31.8752 -31.8654 -31.8537 -31.8354 -31.8258 -31.8009
   -31.7612 -31.7059 -31.6635 -31.6492 -31.6243 -31.5949 -31.5920 -31.5620
   -31.5511 -31.4225 -31.3511 -31.3055 -31.2809 -31.1669 -31.0808 -30.9719
   -19.3700 -16.5906 -16.4393 -16.3089 -16.1722 -15.9583 -15.9293 -15.8262
   -15.7254 -15.6836 -15.6031 -15.5740 -15.4361 -15.3864 -15.3580 -15.3366
   -15.3173 -15.2978 -15.2836 -15.2456 -15.2302 -15.1964 -15.1428 -15.0772
   -15.0559 -15.0037 -14.9721 -14.9554 -14.8713 -14.8069 -14.7261 -13.4658
   -13.3600  -9.1863  -6.2117  -4.0887  -3.9832  -3.9329  -3.8832  -3.7869
    -3.7214  -3.6874  -3.6232  -3.3083  -3.1766  -3.0825  -3.0284  -3.0048
    -2.9296  -2.9283  -2.9143  -2.7963  -2.7372  -2.7113  -2.6496  -2.6326
    -2.5895  -2.5545  -2.5504  -2.5356  -2.4937  -2.4535  -2.4137  -2.3942
    -2.3485  -2.2655  -2.2473  -2.1701  -2.1355  -2.1139  -2.0267  -1.9618
    -1.9520  -1.9147  -1.8914  -1.7839  -1.6078  -1.5210  -1.4636  -1.4093
    -1.3879  -1.3202  -1.3110  -1.2529  -1.1956  -1.1710  -1.1670  -1.0507
    -0.9983  -0.9657  -0.9195  -0.8851  -0.8205  -0.7735  -0.7574  -0.7272
    -0.7135  -0.6059  -0.5183  -0.4995  -0.4705  -0.4375  -0.3164  -0.2706
    -0.2377  -0.2100  -0.1934  -0.1521  -0.1078  -0.0398   0.0050   0.0608
     0.0995   0.1705   0.1808   0.2192   0.2542   0.2904   0.3540   0.3692
     0.4729   0.5019   0.5581   0.5949   0.7396   0.7684   0.9281   0.9897
     1.0520   1.1466   1.2729   1.3348   1.5824   1.6218   1.7796   2.8822
     3.0451   3.3128   3.3576   3.4928   3.5630   3.6209   3.7626   3.7898
     3.8456

[...]

          k = 0.0380-0.0419 0.0000 ( 17876 PWs)   bands (ev):

[...]

          k =-0.0760-0.0000 0.0000 ( 17886 PWs)   bands (ev):

[...]

          k =-0.0760-0.0839 0.0000 ( 17948 PWs)   bands (ev):

   -56.4282 -56.3726 -55.7916 -55.7910 -55.7589 -55.7500 -55.7396 -55.7100
   -55.6890 -55.6559 -55.4568 -55.4408 -55.3865 -55.3672 -54.9416 -54.9412
   -32.7055 -32.6742 -32.6337 -32.6285 -32.5754 -32.5277 -32.3352 -32.1631
   -32.1089 -32.0754 -32.0550 -32.0371 -32.0366 -32.0236 -32.0166 -32.0147
   -31.9993 -31.9835 -31.9778 -31.9585 -31.9572 -31.9545 -31.9514 -31.9388
   -31.9256 -31.9056 -31.8944 -31.8858 -31.8693 -31.8402 -31.7882 -31.7693
   -31.7587 -31.7245 -31.7174 -31.6839 -31.6641 -31.6509 -31.6360 -31.6041
   -31.5982 -31.4235 -31.2941 -31.2939 -31.1649 -31.1644 -31.1241 -31.1238
   -19.3626 -16.2414 -16.1303 -15.9421 -15.9064 -15.8302 -15.8285 -15.7791
   -15.7392 -15.6424 -15.5873 -15.5688 -15.4964 -15.4726 -15.4553 -15.4294
   -15.3791 -15.3541 -15.3303 -15.3193 -15.2753 -15.2512 -15.2476 -15.2004
   -15.1473 -15.1214 -15.1033 -15.0518 -14.9958 -14.9370 -14.8841 -13.4673
   -13.4615  -9.1942  -6.1938  -4.0912  -3.6751  -3.6311  -3.3400  -3.1572
    -2.9779  -2.9662  -2.9525  -2.9447  -2.8757  -2.8690  -2.8203  -2.7801
    -2.7245  -2.7043  -2.6771  -2.6718  -2.6656  -2.6243  -2.6136  -2.5875
    -2.5607  -2.5554  -2.5124  -2.5052  -2.4854  -2.4383  -2.4243  -2.3915
    -2.3618  -2.3353  -2.2830  -2.2261  -2.2069  -2.1936  -2.0662  -1.9974
    -1.9929  -1.9171  -1.9030  -1.8743  -1.8350  -1.7591  -1.6969  -1.6580
    -1.5262  -1.5063  -1.4504  -1.4127  -1.3383  -1.3269  -1.2432  -1.2139
    -1.1707  -1.1406  -1.1086  -1.0872  -1.0668  -1.0632  -0.9397  -0.9078
    -0.8537  -0.8406  -0.8081  -0.7752  -0.7514  -0.6953  -0.6268  -0.6182
    -0.5694  -0.5223  -0.4550  -0.4166  -0.3359  -0.2786  -0.2388  -0.1718
    -0.0656   0.0555   0.0941   0.1990   0.2960   0.3036   0.3696   0.4190
     0.4460   0.4909   0.5760   0.5871   0.6541   0.6655   0.6991   0.7563
     0.8054   0.8764   1.4225   1.4384   1.4600   1.4628   1.7172   3.4258
     3.4526   3.4726   3.5153   3.6613   3.7549   3.7815   3.8478   3.8933
     3.9184

     the Fermi energy is     2.4043 ev

!    total energy              =   -2964.91871234 Ry
     estimated scf accuracy    <       0.00000005 Ry
     smearing contrib. (-TS)   =      -0.00043579 Ry
     internal energy E=F+TS    =   -2964.91827655 Ry

     The total energy is F=E-TS. E is the sum of the following terms:
     one-electron contribution =  -24901.26045526 Ry
     hartree contribution      =   12540.98055246 Ry
     xc contribution           =    -490.07592883 Ry
     ewald contribution        =    9885.43677883 Ry
     electric field correction =       0.00077626 Ry

     convergence has been achieved in  72 iterations

     Forces acting on atoms (cartesian axes, Ry/au):

     atom    1 type  1   force =     0.00009861   -0.00023114    0.12244431
     atom    2 type  1   force =     0.00010437    0.00183515   -0.15178333
     atom    3 type  2   force =    -0.00068134   -0.00092097   -0.05776495
     atom    4 type  2   force =    -0.00119486    0.00052104    0.04764117
     atom    5 type  2   force =    -0.01071961   -0.00519230   -0.00143620
     atom    6 type  2   force =     0.01358952    0.00025606   -0.00014295
     atom    7 type  1   force =    -0.00026729    0.00014378    0.00008254
     atom    8 type  1   force =     0.00039748   -0.00012719   -0.00036808
     atom    9 type  2   force =     0.00001215   -0.00023314    0.00040547
     atom   10 type  2   force =    -0.00012329   -0.00005618    0.00012805
     atom   11 type  2   force =    -0.00045210   -0.00027111    0.00026522
     atom   12 type  2   force =     0.00016604    0.00008094   -0.00000795
     atom   13 type  1   force =     0.00040377   -0.00010920    0.00000944
     atom   14 type  1   force =    -0.00010596   -0.00029602    0.00000200
     atom   15 type  2   force =    -0.00029080   -0.00016821   -0.00026073
     atom   16 type  2   force =     0.00017685    0.00008586   -0.00009568
     atom   17 type  2   force =    -0.00020648   -0.00009628   -0.00000409
     atom   18 type  2   force =    -0.00006774   -0.00018082    0.00011708
     atom   19 type  1   force =    -0.00027632    0.00000578   -0.00016016
     atom   20 type  1   force =    -0.00025035    0.00009362   -0.00061003
     atom   21 type  2   force =     0.00026758    0.00012852    0.09728867
     atom   22 type  2   force =    -0.00031845   -0.00032552   -0.00026795
     atom   23 type  2   force =    -0.08311691    0.00238586   -0.03357255
     atom   24 type  2   force =     0.08316506    0.00267456   -0.03363774
     atom   25 type  1   force =     0.00042501    0.00037986    0.13901739
     atom   26 type  1   force =     0.00005337   -0.00119212   -0.15160819
     atom   27 type  2   force =    -0.00069663    0.00143546   -0.05290604
     atom   28 type  2   force =    -0.00117887    0.00017475    0.04595407
     atom   29 type  2   force =    -0.01132835    0.00058692   -0.00073332
     atom   30 type  2   force =     0.01405624    0.00412801    0.00077274
     atom   31 type  1   force =    -0.00049594   -0.00017124    0.00015871
     atom   32 type  1   force =     0.00035067   -0.00005213   -0.00014342
     atom   33 type  2   force =    -0.00024502    0.00011760    0.00008873
     atom   34 type  2   force =     0.00013430    0.00008578    0.00012784
     atom   35 type  2   force =    -0.00019357    0.00054868    0.00034541
     atom   36 type  2   force =     0.00021875   -0.00000621   -0.00017084
     atom   37 type  1   force =    -0.00062975    0.00028596    0.00026262
     atom   38 type  1   force =    -0.00032888   -0.00038702   -0.00017719
     atom   39 type  2   force =     0.00007636   -0.00010679    0.00022680
     atom   40 type  2   force =    -0.00028866   -0.00009218    0.00033282
     atom   41 type  2   force =    -0.00010896   -0.00042909   -0.00002093
     atom   42 type  2   force =    -0.00039460   -0.00024614    0.00031249
     atom   43 type  1   force =    -0.00006869   -0.00003348   -0.00022720
     atom   44 type  1   force =    -0.00024954   -0.00004402   -0.00009886
     atom   45 type  2   force =     0.00023331    0.00013326    0.09736327
     atom   46 type  2   force =    -0.08303744   -0.00265055   -0.03358822
     atom   47 type  2   force =     0.08307096   -0.00230514   -0.03369259
     atom   48 type  3   force =     0.00017531   -0.00003643    0.00036748
     atom   49 type  2   force =    -0.00847070    0.00001799   -0.01428029
     atom   50 type  4   force =     0.00862312    0.00005716    0.01382845
     atom   51 type  4   force =     0.00015997   -0.00015000    0.00024744
     atom   52 type  4   force =    -0.00015612    0.00000651   -0.00012664
     atom   53 type  2   force =    -0.00068110    0.00056419    0.00067600
     atom   54 type  4   force =     0.00066553   -0.00062267   -0.00058012

     Total force =     0.378426     Total SCF correction =     0.000298
  @ DRIVER MODE: Message from server: STATUS
  @ DRIVER MODE: Message from server: GETFORCE
  @ DRIVER MODE: Returning v,forces,stress,ensemble

     Writing output data file ./calc.save/
  @ DRIVER MODE: Message from server: EXIT
  @ DRIVE MODE: Exiting

     General routines

     Parallel routines

   This run was terminated on:   4:30:33  23Sep2021

   JOB DONE.