     Program PWSCF v.6.7GPU starts on 23Sep2021 at 13:21:33

     R & G space division:  proc/nbgrp/npool/nimage =       8
     Reading input from /storage/home/hcoda1/3/ntian30/research/carbon/CxH_vib/H2O_calc/ads_slab/CH3N2HHO_a/out_0038/pw.inp
Warning: card &CELL ignored
Warning: card   CELL_DYNAMICS='IPI', ignored
Warning: card / ignored

     Current dimensions of program PWSCF are:
     Max number of different atomic species (ntypx) = 10
     Max number of k-points (npk) =  40000
     Max angular momentum in pseudopotentials (lmaxx) =  3
     Presently no symmetry can be used with electric field

     Message from routine cell_base_init:
     DEPRECATED: use true lattice parameter, not A to a.u. conversion factor

     IMPORTANT: XC functional enforced from input :
     Exchange-correlation= BEEF-VDW
                           (   1   4  43  14   2   0   0)
     Any further DFT definition will be discarded
     Please, verify this is what you really want

  @ DRIVER MODE: Connecting to
 qe_1139763_2941009.sched-torque.pace.gatech.eduam12184c_scratch
  using UNIX socket
  @ DRIVER MODE: Message from server: STATUS
  @ DRIVER MODE: Message from server: INIT
  @ DRIVER MODE: Receiving replica           0          -1
  @ DRIVER MODE: Receiving encoded integer          25
  @ DRIVER MODE:  SCF:  T  FORCE:  T  STRESS:  F  VC:  F  ENSEMBLE:  F
  @ DRIVER MODE:  SCF:  T  FORCE:  T  STRESS:  F  VC:  F  ENSEMBLE:  F

     Using Slab Decomposition

     bravais-lattice index     =            0
     lattice parameter (alat)  =       1.8897  a.u.
     unit-cell volume          =    6658.9804 (a.u.)^3
     number of atoms/cell      =           56
     number of atomic types    =            5
     number of electrons       =       403.00
     number of Kohn-Sham states=          211
     kinetic-energy cutoff     =      29.3995  Ry
     charge density cutoff     =     293.9946  Ry
     scf convergence threshold =      7.3E-08
     mixing beta               =       0.0500
     number of iterations used =            8  plain     mixing
     Exchange-correlation= BEEF-VDW
                           (   1   4  43  14   2   0   0)

     celldm(1)=   1.889726  celldm(2)=   0.000000  celldm(3)=   0.000000
     celldm(4)=   0.000000  celldm(5)=   0.000000  celldm(6)=   0.000000

     crystal axes: (cart. coord. in units of alat)
               a(1) = (   6.579727   0.000000   0.000000 )
               a(2) = (  -0.000775   5.961596   0.000000 )
               a(3) = (   0.000000   0.000000  25.155947 )

     reciprocal axes: (cart. coord. in units 2 pi/alat)
               b(1) = (  0.151982  0.000020  0.000000 )
               b(2) = (  0.000000  0.167740  0.000000 )
               b(3) = (  0.000000  0.000000  0.039752 )

     PseudoPot. # 1 for Ti read from file:
     /storage/coda1/p-amedford6/0/shared/rich_project_chbe-medford/medford-share/data/pseudos_module/espresso/nninc/pbe/van/Ti.UPF
     MD5 check sum: 8e4df49b7f0d34bbd5052bf3f5ea0213
     Pseudo is Ultrasoft, Zval = 12.0
     Generated by new atomic code, or converted to UPF format
     Using radial grid of  851 points,  6 beta functions with:
                l(1) =   0
                l(2) =   0
                l(3) =   1
                l(4) =   1
                l(5) =   2
                l(6) =   2
     Q(r) pseudized with  8 coefficients,  rinner =    1.000   1.000   1.000
                                                       1.000   1.000

     PseudoPot. # 2 for O  read from file:
     /storage/coda1/p-amedford6/0/shared/rich_project_chbe-medford/medford-share/data/pseudos_module/espresso/nninc/pbe/van/O.UPF
     MD5 check sum: 78c19812648e8988a0fe644b0f25305e
     Pseudo is Ultrasoft, Zval =  6.0
     Generated by new atomic code, or converted to UPF format
     Using radial grid of  737 points,  4 beta functions with:
                l(1) =   0
                l(2) =   0
                l(3) =   1
                l(4) =   1
     Q(r) pseudized with  8 coefficients,  rinner =    0.800   0.800   0.800

     PseudoPot. # 3 for N  read from file:
     /storage/coda1/p-amedford6/0/shared/rich_project_chbe-medford/medford-share/data/pseudos_module/espresso/nninc/pbe/van/N.UPF
     MD5 check sum: 90d10febe142ad51ac9d5be1deb811c4
     Pseudo is Ultrasoft, Zval =  5.0
     Generated by new atomic code, or converted to UPF format
     Using radial grid of  729 points,  4 beta functions with:
                l(1) =   0
                l(2) =   0
                l(3) =   1
                l(4) =   1
     Q(r) pseudized with  8 coefficients,  rinner =    0.800   0.800   0.800

     PseudoPot. # 4 for C  read from file:
     /storage/coda1/p-amedford6/0/shared/rich_project_chbe-medford/medford-share/data/pseudos_module/espresso/nninc/pbe/van/C.UPF
     MD5 check sum: 1a69bf6b8db32088f5b2163dbdb77a27
     Pseudo is Ultrasoft, Zval =  4.0
     Generated by new atomic code, or converted to UPF format
     Using radial grid of  721 points,  4 beta functions with:
                l(1) =   0
                l(2) =   0
                l(3) =   1
                l(4) =   1
     Q(r) pseudized with  8 coefficients,  rinner =    0.800   0.800   0.800

     PseudoPot. # 5 for H  read from file:
     /storage/coda1/p-amedford6/0/shared/rich_project_chbe-medford/medford-share/data/pseudos_module/espresso/nninc/pbe/van/H.UPF
     MD5 check sum: b5ee9d7bfd3a09ee7748110bda690ff7
     Pseudo is Ultrasoft, Zval =  1.0
     Generated by new atomic code, or converted to UPF format
     Using radial grid of  615 points,  1 beta functions with:
                l(1) =   0
     Q(r) pseudized with  8 coefficients,  rinner =    0.800

     atomic species   valence    mass     pseudopotential
        Ti1           12.00    47.86700     Ti( 1.00)
        O1             6.00    15.99900     O ( 1.00)
        N1             5.00    14.00700     N ( 1.00)
        C1             4.00    12.01100     C ( 1.00)
        H1             1.00     1.00800     H ( 1.00)

     No symmetry found

   Cartesian axes

     site n.     atom                  positions (alat units)
         1           Ti1 tau(   1) = (   0.0004258   2.9801865   6.0000000  )
         2           Ti1 tau(   2) = (   3.2906075   1.4906267   6.0002472  )
         3           O1  tau(   3) = (   0.0006271   0.0005054   7.9858123  )
         4           O1  tau(   4) = (   3.2906025   0.0005020   7.3038282  )
         5           O1  tau(   5) = (   4.5942328   1.4918067   9.2879030  )
         6           O1  tau(   6) = (   1.9868534   1.4903216   9.2879459  )
         7           Ti1 tau(   7) = (   3.2907910   2.8959150   9.1758416  )
         8           Ti1 tau(   8) = (   0.0015273   1.4827037   9.2680791  )
         9           O1  tau(   9) = (   3.2827749   5.9542966  11.3123607  )
        10           O1  tau(  10) = (   0.0116148   5.9584955  10.6183126  )
        11           O1  tau(  11) = (   1.2790800   1.4852124  12.6463597  )
        12           O1  tau(  12) = (   5.2943908   1.4901875  12.6352807  )
        13           Ti1 tau(  13) = (   6.5507123   3.1127926  12.6266869  )
        14           Ti1 tau(  14) = (   3.2873181   1.3120036  12.6863921  )
        15           O1  tau(  15) = (   6.5656690   0.0172326  14.6855350  )
        16           O1  tau(  16) = (   3.2842416   0.0515509  13.9244022  )
        17           O1  tau(  17) = (   4.5437539   1.5966601  16.0680646  )
        18           O1  tau(  18) = (   2.0303991   1.5956099  16.0781401  )
        19           Ti1 tau(  19) = (   3.2961159   3.0594788  15.6697774  )
        20           Ti1 tau(  20) = (   6.5318457   1.5630605  15.7780207  )
        21           O1  tau(  21) = (   3.2904802   0.0005063   4.7018136  )
        22           O1  tau(  22) = (   6.5726385   0.0820865  17.2550913  )
        23           O1  tau(  23) = (   1.3043587   1.4918075   6.0039043  )
        24           O1  tau(  24) = (   5.2767064   1.4903225   6.0039473  )
        25           Ti1 tau(  25) = (   0.0000382   5.9609847   6.0000000  )
        26           Ti1 tau(  26) = (   3.2902200   4.4714249   6.0002472  )
        27           O1  tau(  27) = (   0.0002396   2.9813036   7.9858123  )
        28           O1  tau(  28) = (   3.2902150   2.9813002   7.3038282  )
        29           O1  tau(  29) = (   4.5938453   4.4726049   9.2879030  )
        30           O1  tau(  30) = (   1.9864658   4.4711199   9.2879459  )
        31           Ti1 tau(  31) = (   3.2891106   5.8743827   9.1763621  )
        32           Ti1 tau(  32) = (   0.0006254   4.4649316   9.2693709  )
        33           O1  tau(  33) = (   3.2807365   3.0201584  11.2787527  )
        34           O1  tau(  34) = (   0.0092240   2.9805883  10.6323155  )
        35           O1  tau(  35) = (   1.2751182   4.4744369  12.6357194  )
        36           O1  tau(  36) = (   5.2842299   4.4734050  12.6250694  )
        37           Ti1 tau(  37) = (   0.0094520   0.1224552  12.5707632  )
        38           Ti1 tau(  38) = (   3.2670701   4.4034752  12.4162930  )
        39           O1  tau(  39) = (   6.5622168   3.0106679  14.6773207  )
        40           O1  tau(  40) = (   3.2891587   3.0115246  13.8909557  )
        41           O1  tau(  41) = (   4.5321968   4.4927823  16.1577793  )
        42           O1  tau(  42) = (   2.0250423   4.4919485  16.1304878  )
        43           Ti1 tau(  43) = (   3.2250977   0.0853664  16.3312049  )
        44           Ti1 tau(  44) = (   6.5532039   4.7053171  16.1332850  )
        45           O1  tau(  45) = (   3.2900926   2.9813045   4.7018136  )
        46           O1  tau(  46) = (   1.3039711   4.4726057   6.0039043  )
        47           O1  tau(  47) = (   5.2763189   4.4711207   6.0039473  )
        48           N1  tau(  48) = (   0.0650423   2.5931692  18.6004617  )
        49           N1  tau(  49) = (   0.0051179   2.9528117  17.3995676  )
        50           C1  tau(  50) = (   0.1360749   3.5155665  19.7334966  )
        51           H1  tau(  51) = (   6.1082608   4.3937080  19.5213757  )
        52           H1  tau(  52) = (   6.3628389   3.0028702  20.6266755  )
        53           H1  tau(  53) = (   1.1699357   3.8405576  19.8861820  )
        54           H1  tau(  54) = (   0.1160244   1.5775976  18.7788705  )
        55           O1  tau(  55) = (   3.2396048   0.1449850  18.2004881  )
        56           H1  tau(  56) = (   3.4111690   5.2654565  18.6466900  )

     number of k points=    10  Fermi-Dirac smearing, width (Ry)=  0.0073
                       cart. coord. in units 2pi/alat
        k(    1) = (   0.0000000   0.0000000   0.0000000), wk =   0.1250000
        k(    2) = (   0.0000000   0.0419351   0.0000000), wk =   0.2500000
        k(    3) = (   0.0000000  -0.0838702   0.0000000), wk =   0.1250000
        k(    4) = (   0.0379955   0.0000049   0.0000000), wk =   0.2500000
        k(    5) = (   0.0379955   0.0419400   0.0000000), wk =   0.2500000
        k(    6) = (   0.0379955  -0.0838652   0.0000000), wk =   0.2500000
        k(    7) = (   0.0379955  -0.0419301   0.0000000), wk =   0.2500000
        k(    8) = (  -0.0759910  -0.0000099   0.0000000), wk =   0.1250000
        k(    9) = (  -0.0759910   0.0419252   0.0000000), wk =   0.2500000
        k(   10) = (  -0.0759910  -0.0838800   0.0000000), wk =   0.1250000

     Initial potential from superposition of free atoms

     starting charge  386.99914, renormalised to  403.00000

     negative rho (up, down):  1.429E-02 0.000E+00

     %%%%%%%%%%%%%%%%%%%%%%%%%%%%%%%%%%%%%%%%%%%%%%%%%%%%%%%%%%%%%%%%%%%%%%%%
     %                                                                      %
     % You are using vdW-DF, which was implemented by the Thonhauser group. %
     % Please cite the following two papers that made this development      %
     % possible and the two reviews that describe the various versions:     %
     %                                                                      %
     %   T. Thonhauser et al., PRL 115, 136402 (2015).                      %
     %   T. Thonhauser et al., PRB 76, 125112 (2007).                       %
     %   K. Berland et al., Rep. Prog. Phys. 78, 066501 (2015).             %
     %   D.C. Langreth et al., J. Phys.: Condens. Matter 21, 084203 (2009). %
     %                                                                      %
     %                                                                      %
     % If you are calculating the stress with vdW-DF, please also cite:     %
     %                                                                      %
     %   R. Sabatini et al., J. Phys.: Condens. Matter 24, 424209 (2012).   %
     %                                                                      %
     %%%%%%%%%%%%%%%%%%%%%%%%%%%%%%%%%%%%%%%%%%%%%%%%%%%%%%%%%%%%%%%%%%%%%%%%

     Adding external electric field

     Computed dipole along edir(3) :
        Dipole              -12.7219 Ry au,        -32.3358 Debye
        Dipole field         -0.0240 Ry au,

        Potential amp.        2.2255 Ry
        Total length         46.3494 bohr

     Starting wfcs are  305 atomic wfcs
  @ DRIVER MODE: Message from server: STATUS
  @ DRIVER MODE: Message from server: POSDATA
  @ DRIVER MODE: Reading and sharing cell
  @ DRIVER MODE: Reading and sharing positions
  @ DRIVER MODE: Received positions

     Self-consistent Calculation

     iteration #  1     ecut=    29.40 Ry     beta= 0.05
     Davidson diagonalization with overlap
     c_bands:  5 eigenvalues not converged
     c_bands:  4 eigenvalues not converged
     c_bands:  3 eigenvalues not converged
     c_bands:  4 eigenvalues not converged
     c_bands:  5 eigenvalues not converged
     c_bands:  4 eigenvalues not converged
     c_bands:  1 eigenvalues not converged
     c_bands:  4 eigenvalues not converged
     ethr =  1.00E-05,  avg # of iterations = 25.4

[...]

     total energy              =   -2361.22558282 Ry
     estimated scf accuracy    <    6936.00221287 Ry

     iteration #  2     ecut=    29.40 Ry     beta= 0.05
     Davidson diagonalization with overlap
     ethr =  1.00E-02,  avg # of iterations = 23.9

[...]

     iteration # 39     ecut=    29.40 Ry     beta= 0.05
     Davidson diagonalization with overlap
     c_bands:  1 eigenvalues not converged
     c_bands:  1 eigenvalues not converged
     c_bands:  1 eigenvalues not converged
     ethr =  2.61E-07,  avg # of iterations = 10.8

[...]

     total energy              =   -2973.99526928 Ry
     estimated scf accuracy    <       0.00000013 Ry

     iteration # 63     ecut=    29.40 Ry     beta= 0.05
     Davidson diagonalization with overlap
     ethr =  1.97E-11,  avg # of iterations =  6.6

     negative rho (up, down):  1.502E-02 0.000E+00

     Adding external electric field

     Computed dipole along edir(3) :
        Dipole                1.1943 Ry au,          3.0355 Debye
        Dipole field          0.0023 Ry au,

        Potential amp.       -0.2089 Ry
        Total length         46.3494 bohr

     End of self-consistent calculation

          k = 0.0000 0.0000 0.0000 ( 18029 PWs)   bands (ev):

   -55.7009 -55.6670 -55.3865 -55.3526 -55.2776 -55.1697 -55.1146 -55.0368
   -54.9907 -54.9584 -54.8302 -54.7364 -54.6955 -54.6247 -54.5279 -54.4939
   -32.1608 -31.9952 -31.9713 -31.8621 -31.8560 -31.7843 -31.7627 -31.6519
   -31.6068 -31.6048 -31.5937 -31.5399 -31.5374 -31.5182 -31.4972 -31.4923
   -31.4885 -31.3953 -31.3869 -31.3708 -31.3353 -31.3163 -31.3058 -31.2949
   -31.2750 -31.2713 -31.2377 -31.2000 -31.1763 -31.1749 -31.1652 -31.1474
   -31.0972 -31.0302 -30.9917 -30.9525 -30.9505 -30.9272 -30.9206 -30.9064
   -30.8958 -30.8576 -30.8384 -30.8348 -30.8342 -30.7455 -30.6603 -30.5484
   -19.0746 -16.2303 -16.0572 -15.7659 -15.5949 -15.3879 -15.3592 -15.2641
   -15.1614 -15.1443 -15.0408 -14.9757 -14.8909 -14.8218 -14.8022 -14.7539
   -14.7240 -14.6959 -14.6812 -14.6718 -14.6332 -14.6017 -14.5847 -14.5090
   -14.4641 -14.4457 -14.4183 -14.3531 -14.2573 -13.9912 -13.9285 -13.0256
   -12.9122 -12.5776  -9.3416  -6.2096  -4.7721  -4.7209  -3.7776  -3.5363
    -3.4413  -3.3308  -3.1223  -3.0728  -2.8942  -2.7739  -2.7534  -2.5332
    -2.5055  -2.3938  -2.3786  -2.3326  -2.3257  -2.2917  -2.2251  -2.1968
    -2.1250  -2.0647  -2.0377  -2.0040  -1.9512  -1.8959  -1.8907  -1.8769
    -1.8197  -1.7518  -1.7235  -1.7145  -1.6705  -1.6069  -1.5982  -1.5818
    -1.5627  -1.5414  -1.3983  -1.2920  -1.2311  -1.1924  -1.1430  -1.0863
    -1.0339  -1.0202  -0.9199  -0.8402  -0.7986  -0.6813  -0.6534  -0.6131
    -0.5286  -0.5041  -0.4615  -0.4422  -0.4011  -0.3940  -0.2891  -0.2716
    -0.2374  -0.1947  -0.0757  -0.0276  -0.0196   0.0620   0.1210   0.2012
     0.2427   0.2582   0.2830   0.3688   0.3965   0.4140   0.4220   0.4945
     0.5135   0.5621   0.6156   0.6984   0.7109   0.7508   0.7850   0.7980
     0.9278   0.9362   1.0258   1.0498   1.0608   1.1251   1.2194   1.2791
     1.3910   1.4047   1.4974   1.4974   1.5180   1.7165   1.8909   2.0495
     2.0898   3.5005   3.6197   3.6817   3.7197   3.9303   3.9419   4.2048
     4.2799   4.2832   4.3734

[...]

          k = 0.0380-0.0419 0.0000 ( 17876 PWs)   bands (ev):

[...]

          k =-0.0760-0.0000 0.0000 ( 17886 PWs)   bands (ev):

[...]

          k =-0.0760-0.0839 0.0000 ( 17948 PWs)   bands (ev):

   -55.6841 -55.6837 -55.3721 -55.3668 -55.2769 -55.1639 -55.1204 -55.0290
   -54.9983 -54.9589 -54.8282 -54.7341 -54.6974 -54.6268 -54.5114 -54.5103
   -31.9811 -31.9807 -31.9764 -31.9762 -31.8077 -31.8071 -31.6903 -31.6848
   -31.5702 -31.5662 -31.5648 -31.5585 -31.5538 -31.4931 -31.4829 -31.4679
   -31.4349 -31.3858 -31.3841 -31.3615 -31.3464 -31.3463 -31.3344 -31.3343
   -31.2579 -31.2440 -31.2375 -31.2334 -31.2057 -31.1945 -31.1651 -31.1560
   -31.0893 -31.0399 -31.0354 -30.9921 -30.9589 -30.9540 -30.9531 -30.9114
   -30.8732 -30.8475 -30.8467 -30.8377 -30.7418 -30.7405 -30.7034 -30.7026
   -19.0713 -16.2232 -15.4720 -15.4617 -15.3177 -15.3083 -15.2304 -15.1411
   -15.1229 -15.0940 -15.0453 -15.0231 -14.9418 -14.8855 -14.8659 -14.8406
   -14.8217 -14.8076 -14.7498 -14.7467 -14.7313 -14.7176 -14.6516 -14.6132
   -14.5830 -14.5765 -14.4684 -14.3887 -14.3046 -14.1553 -14.0650 -13.0151
   -13.0146 -12.5780  -9.3482  -6.2024  -4.7622  -4.7213  -3.7709  -3.4129
    -2.6505  -2.6073  -2.5163  -2.4381  -2.4325  -2.3842  -2.3836  -2.3020
    -2.2494  -2.1914  -2.1673  -2.1590  -2.1586  -2.1274  -2.1183  -2.0640
    -2.0591  -2.0415  -2.0386  -1.9822  -1.9573  -1.9429  -1.8911  -1.8359
    -1.7852  -1.7485  -1.7266  -1.6861  -1.6677  -1.6647  -1.5797  -1.5658
    -1.5379  -1.5103  -1.4655  -1.4351  -1.3798  -1.3581  -1.3017  -1.1743
    -1.1027  -1.0174  -0.9118  -0.8905  -0.8577  -0.8240  -0.8118  -0.7893
    -0.7563  -0.6408  -0.6307  -0.5811  -0.5491  -0.5211  -0.5037  -0.4757
    -0.4531  -0.3520  -0.3099  -0.2806  -0.2404  -0.2065  -0.1783  -0.1451
    -0.0937  -0.0543  -0.0443  -0.0131   0.0208   0.0352   0.1883   0.2678
     0.4008   0.4293   0.5191   0.5657   0.5978   0.6270   0.6560   0.7745
     0.8220   0.8446   0.8812   0.9028   1.0015   1.0984   1.1185   1.1868
     1.2212   1.3263   1.3572   1.4450   1.4963   1.8794   1.8872   1.9080
     1.9085   3.3782   4.0456   4.0484   4.0601   4.0733   4.2386   4.2414
     4.3421   4.3662   4.5036

     the Fermi energy is     3.4570 ev

!    total energy              =   -2973.99530540 Ry
     estimated scf accuracy    <       0.00000002 Ry
     smearing contrib. (-TS)   =      -0.01689323 Ry
     internal energy E=F+TS    =   -2973.97841218 Ry

     The total energy is F=E-TS. E is the sum of the following terms:
     one-electron contribution =  -23437.85227539 Ry
     hartree contribution      =   11816.37738907 Ry
     xc contribution           =    -493.95558448 Ry
     ewald contribution        =    9141.44936702 Ry
     electric field correction =       0.00269161 Ry

     convergence has been achieved in  63 iterations

     Forces acting on atoms (cartesian axes, Ry/au):

     atom    1 type  1   force =     0.00012059   -0.00023561    0.10271455
     atom    2 type  1   force =    -0.00011934    0.00008790   -0.16806571
     atom    3 type  2   force =    -0.00000801    0.00045749   -0.03239768
     atom    4 type  2   force =     0.00002813   -0.00097449    0.04010406
     atom    5 type  2   force =    -0.00543250   -0.00191287   -0.00433123
     atom    6 type  2   force =     0.00666676   -0.00135783   -0.00593191
     atom    7 type  1   force =    -0.00053735   -0.00530456    0.03003155
     atom    8 type  1   force =     0.00069590    0.00860865    0.04849271
     atom    9 type  2   force =     0.00012439   -0.00131159   -0.00106556
     atom   10 type  2   force =    -0.00253625    0.00301351   -0.03416169
     atom   11 type  2   force =    -0.00038474   -0.00008877   -0.00024061
     atom   12 type  2   force =     0.00048385   -0.00037026   -0.00012206
     atom   13 type  1   force =     0.00022626   -0.00161811    0.00019412
     atom   14 type  1   force =     0.00017141   -0.00076774    0.00069820
     atom   15 type  2   force =     0.00008760    0.00004771   -0.00028493
     atom   16 type  2   force =    -0.00013184    0.00004908    0.00171437
     atom   17 type  2   force =    -0.00101377   -0.00056100    0.00038807
     atom   18 type  2   force =     0.00069269   -0.00111963    0.00052539
     atom   19 type  1   force =     0.00064079   -0.00097005   -0.00070730
     atom   20 type  1   force =    -0.00073754   -0.00040781   -0.00020731
     atom   21 type  2   force =     0.00004610    0.00012203    0.10114520
     atom   22 type  2   force =     0.00000953    0.00049288    0.00028854
     atom   23 type  2   force =    -0.07542873   -0.00012161   -0.02930873
     atom   24 type  2   force =     0.07534127    0.00030016   -0.02932750
     atom   25 type  1   force =     0.00014242   -0.00022722    0.10283162
     atom   26 type  1   force =    -0.00004007   -0.00129985   -0.16847389
     atom   27 type  2   force =     0.00011963    0.00017483   -0.03116881
     atom   28 type  2   force =    -0.00000977    0.00072178    0.03582297
     atom   29 type  2   force =    -0.00426091    0.00378810   -0.00626202
     atom   30 type  2   force =     0.00528570    0.00442491   -0.00778774
     atom   31 type  1   force =    -0.00054356    0.00495937    0.01592691
     atom   32 type  1   force =     0.00076825   -0.01041589    0.04918499
     atom   33 type  2   force =     0.00002767   -0.00090268   -0.00137752
     atom   34 type  2   force =    -0.00240558    0.00222486   -0.04432945
     atom   35 type  2   force =     0.00054879    0.00020009   -0.00014493
     atom   36 type  2   force =    -0.00017665    0.00022951   -0.00007455
     atom   37 type  1   force =     0.00026576    0.00037549   -0.00045553
     atom   38 type  1   force =     0.00041911    0.00139590    0.00105073
     atom   39 type  2   force =     0.00036726    0.00044890    0.00008463
     atom   40 type  2   force =     0.00005871    0.00015358    0.00048330
     atom   41 type  2   force =    -0.00098617   -0.00021010    0.00006896
     atom   42 type  2   force =     0.00040528    0.00022004    0.00035892
     atom   43 type  1   force =     0.00031968    0.00025613   -0.00148058
     atom   44 type  1   force =    -0.00078734   -0.00014300   -0.00090611
     atom   45 type  2   force =     0.00007151   -0.00002081    0.10094899
     atom   46 type  2   force =    -0.07548723   -0.00004973   -0.02932715
     atom   47 type  2   force =     0.07539802    0.00038372   -0.02932316
     atom   48 type  3   force =     0.00035397   -0.00054901    0.00094089
     atom   49 type  3   force =     0.00004337   -0.00072113   -0.00119192
     atom   50 type  4   force =     0.00106998    0.00129296    0.00049628
     atom   51 type  5   force =     0.00014797   -0.00081033   -0.00137098
     atom   52 type  5   force =    -0.00020140   -0.00055220   -0.00046783
     atom   53 type  5   force =    -0.00007928   -0.00053689   -0.00099036
     atom   54 type  5   force =    -0.00071243   -0.00008598   -0.00155497
     atom   55 type  2   force =    -0.00038251    0.00036781   -0.00098109
     atom   56 type  5   force =     0.00125460   -0.00115065   -0.00067514

     Total force =     0.372777     Total SCF correction =     0.000415
  @ DRIVER MODE: Message from server: STATUS
  @ DRIVER MODE: Message from server: GETFORCE
  @ DRIVER MODE: Returning v,forces,stress,ensemble

     Writing output data file ./calc.save/
  @ DRIVER MODE: Message from server: EXIT
  @ DRIVE MODE: Exiting

     General routines

     Parallel routines

   This run was terminated on:  13:43:11  23Sep2021

   JOB DONE.