     Program PWSCF v.6.7GPU starts on 22Sep2021 at 18: 7:22

     R & G space division:  proc/nbgrp/npool/nimage =      10
     Reading input from /storage/home/hcoda1/3/ntian30/research/carbon/CxH_vib/H2O_calc/ads_slab/CH2NHNHH2O_b/out_0007/pw.inp
Warning: card &CELL ignored
Warning: card   CELL_DYNAMICS='IPI', ignored
Warning: card / ignored

     Current dimensions of program PWSCF are:
     Max number of different atomic species (ntypx) = 10
     Max number of k-points (npk) =  40000
     Max angular momentum in pseudopotentials (lmaxx) =  3
     Presently no symmetry can be used with electric field

     Message from routine cell_base_init:
     DEPRECATED: use true lattice parameter, not A to a.u. conversion factor

     IMPORTANT: XC functional enforced from input :
     Exchange-correlation= BEEF-VDW
                           (   1   4  43  14   2   0   0)
     Any further DFT definition will be discarded
     Please, verify this is what you really want

  @ DRIVER MODE: Connecting to
 qe_1139763_2937310.sched-torque.pace.gatech.eduj8yu4_4e_scratch
  using UNIX socket
  @ DRIVER MODE: Message from server: STATUS
  @ DRIVER MODE: Message from server: INIT
  @ DRIVER MODE: Receiving replica           0          -1
  @ DRIVER MODE: Receiving encoded integer          25
  @ DRIVER MODE:  SCF:  T  FORCE:  T  STRESS:  F  VC:  F  ENSEMBLE:  F
  @ DRIVER MODE:  SCF:  T  FORCE:  T  STRESS:  F  VC:  F  ENSEMBLE:  F

     Using Slab Decomposition

     bravais-lattice index     =            0
     lattice parameter (alat)  =       1.8897  a.u.
     unit-cell volume          =    6658.9804 (a.u.)^3
     number of atoms/cell      =           57
     number of atomic types    =            5
     number of electrons       =       404.00
     number of Kohn-Sham states=          212
     kinetic-energy cutoff     =      29.3995  Ry
     charge density cutoff     =     293.9946  Ry
     scf convergence threshold =      7.3E-08
     mixing beta               =       0.0500
     number of iterations used =            8  plain     mixing
     Exchange-correlation= BEEF-VDW
                           (   1   4  43  14   2   0   0)

     celldm(1)=   1.889726  celldm(2)=   0.000000  celldm(3)=   0.000000
     celldm(4)=   0.000000  celldm(5)=   0.000000  celldm(6)=   0.000000

     crystal axes: (cart. coord. in units of alat)
               a(1) = (   6.579727   0.000000   0.000000 )
               a(2) = (  -0.000775   5.961596   0.000000 )
               a(3) = (   0.000000   0.000000  25.155947 )

     reciprocal axes: (cart. coord. in units 2 pi/alat)
               b(1) = (  0.151982  0.000020  0.000000 )
               b(2) = (  0.000000  0.167740  0.000000 )
               b(3) = (  0.000000  0.000000  0.039752 )

     PseudoPot. # 1 for Ti read from file:
     /storage/coda1/p-amedford6/0/shared/rich_project_chbe-medford/medford-share/data/pseudos_module/espresso/nninc/pbe/van/Ti.UPF
     MD5 check sum: 8e4df49b7f0d34bbd5052bf3f5ea0213
     Pseudo is Ultrasoft, Zval = 12.0
     Generated by new atomic code, or converted to UPF format
     Using radial grid of  851 points,  6 beta functions with:
                l(1) =   0
                l(2) =   0
                l(3) =   1
                l(4) =   1
                l(5) =   2
                l(6) =   2
     Q(r) pseudized with  8 coefficients,  rinner =    1.000   1.000   1.000
                                                       1.000   1.000

     PseudoPot. # 2 for O  read from file:
     /storage/coda1/p-amedford6/0/shared/rich_project_chbe-medford/medford-share/data/pseudos_module/espresso/nninc/pbe/van/O.UPF
     MD5 check sum: 78c19812648e8988a0fe644b0f25305e
     Pseudo is Ultrasoft, Zval =  6.0
     Generated by new atomic code, or converted to UPF format
     Using radial grid of  737 points,  4 beta functions with:
                l(1) =   0
                l(2) =   0
                l(3) =   1
                l(4) =   1
     Q(r) pseudized with  8 coefficients,  rinner =    0.800   0.800   0.800

     PseudoPot. # 3 for N  read from file:
     /storage/coda1/p-amedford6/0/shared/rich_project_chbe-medford/medford-share/data/pseudos_module/espresso/nninc/pbe/van/N.UPF
     MD5 check sum: 90d10febe142ad51ac9d5be1deb811c4
     Pseudo is Ultrasoft, Zval =  5.0
     Generated by new atomic code, or converted to UPF format
     Using radial grid of  729 points,  4 beta functions with:
                l(1) =   0
                l(2) =   0
                l(3) =   1
                l(4) =   1
     Q(r) pseudized with  8 coefficients,  rinner =    0.800   0.800   0.800

     PseudoPot. # 4 for C  read from file:
     /storage/coda1/p-amedford6/0/shared/rich_project_chbe-medford/medford-share/data/pseudos_module/espresso/nninc/pbe/van/C.UPF
     MD5 check sum: 1a69bf6b8db32088f5b2163dbdb77a27
     Pseudo is Ultrasoft, Zval =  4.0
     Generated by new atomic code, or converted to UPF format
     Using radial grid of  721 points,  4 beta functions with:
                l(1) =   0
                l(2) =   0
                l(3) =   1
                l(4) =   1
     Q(r) pseudized with  8 coefficients,  rinner =    0.800   0.800   0.800

     PseudoPot. # 5 for H  read from file:
     /storage/coda1/p-amedford6/0/shared/rich_project_chbe-medford/medford-share/data/pseudos_module/espresso/nninc/pbe/van/H.UPF
     MD5 check sum: b5ee9d7bfd3a09ee7748110bda690ff7
     Pseudo is Ultrasoft, Zval =  1.0
     Generated by new atomic code, or converted to UPF format
     Using radial grid of  615 points,  1 beta functions with:
                l(1) =   0
     Q(r) pseudized with  8 coefficients,  rinner =    0.800

     atomic species   valence    mass     pseudopotential
        Ti1           12.00    47.86700     Ti( 1.00)
        O1             6.00    15.99900     O ( 1.00)
        N1             5.00    14.00700     N ( 1.00)
        C1             4.00    12.01100     C ( 1.00)
        H1             1.00     1.00800     H ( 1.00)

     No symmetry found

   Cartesian axes

     site n.     atom                  positions (alat units)
         1           Ti1 tau(   1) = (   0.0004258   2.9801865   6.0000000  )
         2           Ti1 tau(   2) = (   3.2906075   1.4906267   6.0002472  )
         3           O1  tau(   3) = (   0.0006271   0.0005054   7.9858123  )
         4           O1  tau(   4) = (   3.2906025   0.0005020   7.3038282  )
         5           O1  tau(   5) = (   4.5942328   1.4918067   9.2879030  )
         6           O1  tau(   6) = (   1.9868534   1.4903216   9.2879459  )
         7           Ti1 tau(   7) = (   3.2907910   2.8959150   9.1758416  )
         8           Ti1 tau(   8) = (   0.0015273   1.4827037   9.2680791  )
         9           O1  tau(   9) = (   3.2740695   5.9399032  11.3612631  )
        10           O1  tau(  10) = (   0.0116148   5.9584955  10.6183126  )
        11           O1  tau(  11) = (   1.2665466   1.4659349  12.6457467  )
        12           O1  tau(  12) = (   5.2636777   1.4644475  12.6520517  )
        13           Ti1 tau(  13) = (   0.0254019   2.9535957  12.5508080  )
        14           Ti1 tau(  14) = (   3.3235577   1.4585364  12.5144190  )
        15           O1  tau(  15) = (   0.0066209   5.9388471  14.7046414  )
        16           O1  tau(  16) = (   3.2471877   5.9405099  14.0100224  )
        17           O1  tau(  17) = (   4.5302733   1.5208160  16.0462967  )
        18           O1  tau(  18) = (   1.9955500   1.4995475  16.2009832  )
        19           Ti1 tau(  19) = (   3.2567830   2.9699832  15.6929747  )
        20           Ti1 tau(  20) = (   6.4949666   1.4732860  15.8443191  )
        21           O1  tau(  21) = (   3.2904802   0.0005063   4.7018136  )
        22           O1  tau(  22) = (   6.4419287   5.8812218  17.2824568  )
        23           O1  tau(  23) = (   1.3043587   1.4918075   6.0039043  )
        24           O1  tau(  24) = (   5.2767064   1.4903225   6.0039473  )
        25           Ti1 tau(  25) = (   0.0000382   5.9609847   6.0000000  )
        26           Ti1 tau(  26) = (   3.2902200   4.4714249   6.0002472  )
        27           O1  tau(  27) = (   0.0002396   2.9813036   7.9858123  )
        28           O1  tau(  28) = (   3.2902150   2.9813002   7.3038282  )
        29           O1  tau(  29) = (   4.5938453   4.4726049   9.2879030  )
        30           O1  tau(  30) = (   1.9864658   4.4711199   9.2879459  )
        31           Ti1 tau(  31) = (   3.2891106   5.8743827   9.1763621  )
        32           Ti1 tau(  32) = (   0.0006254   4.4649316   9.2693709  )
        33           O1  tau(  33) = (   3.2800166   2.9600013  11.3546200  )
        34           O1  tau(  34) = (   0.0092240   2.9805883  10.6323155  )
        35           O1  tau(  35) = (   1.2663080   4.4508225  12.6496728  )
        36           O1  tau(  36) = (   5.2650692   4.4524444  12.6537221  )
        37           Ti1 tau(  37) = (   0.0180281   5.9297397  12.5120547  )
        38           Ti1 tau(  38) = (   3.3242103   4.4456960  12.5094407  )
        39           O1  tau(  39) = (   0.0028395   2.9305241  14.7702868  )
        40           O1  tau(  40) = (   3.2369197   2.9632653  13.9133312  )
        41           O1  tau(  41) = (   4.5259019   4.3784886  16.1008109  )
        42           O1  tau(  42) = (   2.0017919   4.4285960  16.1845674  )
        43           Ti1 tau(  43) = (   3.2453488   5.9423767  15.8283900  )
        44           Ti1 tau(  44) = (   6.5728488   4.6138345  16.0446011  )
        45           O1  tau(  45) = (   3.2900926   2.9813045   4.7018136  )
        46           O1  tau(  46) = (   1.3039711   4.4726057   6.0039043  )
        47           O1  tau(  47) = (   5.2763189   4.4711207   6.0039473  )
        48           N1  tau(  48) = (   0.9567011   2.5879941  18.4848429  )
        49           N1  tau(  49) = (   6.5085693   2.8362889  17.6364570  )
        50           C1  tau(  50) = (   1.0658718   2.8740630  19.7563100  )
        51           H1  tau(  51) = (   1.9437682   2.5238050  20.2723566  )
        52           H1  tau(  52) = (   0.2809834   3.4210577  20.2544045  )
        53           H1  tau(  53) = (   1.7014144   2.0656717  17.9989220  )
        54           H1  tau(  54) = (   5.6742842   3.0275795  18.1730567  )
        55           O1  tau(  55) = (   3.7618585   0.1297276  18.3074903  )
        56           H1  tau(  56) = (   4.7330396   0.0541995  18.1289380  )
        57           H1  tau(  57) = (   3.4892521   5.2388606  18.6788193  )

     number of k points=    10  Fermi-Dirac smearing, width (Ry)=  0.0073
                       cart. coord. in units 2pi/alat
        k(    1) = (   0.0000000   0.0000000   0.0000000), wk =   0.1250000
        k(    2) = (   0.0000000   0.0419351   0.0000000), wk =   0.2500000
        k(    3) = (   0.0000000  -0.0838702   0.0000000), wk =   0.1250000
        k(    4) = (   0.0379955   0.0000049   0.0000000), wk =   0.2500000
        k(    5) = (   0.0379955   0.0419400   0.0000000), wk =   0.2500000
        k(    6) = (   0.0379955  -0.0838652   0.0000000), wk =   0.2500000
        k(    7) = (   0.0379955  -0.0419301   0.0000000), wk =   0.2500000
        k(    8) = (  -0.0759910  -0.0000099   0.0000000), wk =   0.1250000
        k(    9) = (  -0.0759910   0.0419252   0.0000000), wk =   0.2500000
        k(   10) = (  -0.0759910  -0.0838800   0.0000000), wk =   0.1250000

     Initial potential from superposition of free atoms

     starting charge  387.99913, renormalised to  404.00000

     negative rho (up, down):  1.394E-02 0.000E+00

     %%%%%%%%%%%%%%%%%%%%%%%%%%%%%%%%%%%%%%%%%%%%%%%%%%%%%%%%%%%%%%%%%%%%%%%%
     %                                                                      %
     % You are using vdW-DF, which was implemented by the Thonhauser group. %
     % Please cite the following two papers that made this development      %
     % possible and the two reviews that describe the various versions:     %
     %                                                                      %
     %   T. Thonhauser et al., PRL 115, 136402 (2015).                      %
     %   T. Thonhauser et al., PRB 76, 125112 (2007).                       %
     %   K. Berland et al., Rep. Prog. Phys. 78, 066501 (2015).             %
     %   D.C. Langreth et al., J. Phys.: Condens. Matter 21, 084203 (2009). %
     %                                                                      %
     %                                                                      %
     % If you are calculating the stress with vdW-DF, please also cite:     %
     %                                                                      %
     %   R. Sabatini et al., J. Phys.: Condens. Matter 24, 424209 (2012).   %
     %                                                                      %
     %%%%%%%%%%%%%%%%%%%%%%%%%%%%%%%%%%%%%%%%%%%%%%%%%%%%%%%%%%%%%%%%%%%%%%%%

     Adding external electric field

     Computed dipole along edir(3) :
        Dipole              -14.1772 Ry au,        -36.0349 Debye
        Dipole field         -0.0268 Ry au,

        Potential amp.        2.4801 Ry
        Total length         46.3494 bohr

     Starting wfcs are  306 atomic wfcs
  @ DRIVER MODE: Message from server: STATUS
  @ DRIVER MODE: Message from server: POSDATA
  @ DRIVER MODE: Reading and sharing cell
  @ DRIVER MODE: Reading and sharing positions
  @ DRIVER MODE: Received positions

     Self-consistent Calculation

     iteration #  1     ecut=    29.40 Ry     beta= 0.05
     Davidson diagonalization with overlap
     c_bands:  4 eigenvalues not converged
     c_bands:  5 eigenvalues not converged
     c_bands:  2 eigenvalues not converged
     c_bands:  2 eigenvalues not converged
     c_bands:  1 eigenvalues not converged
     c_bands:  1 eigenvalues not converged
     c_bands:  4 eigenvalues not converged
     c_bands:  1 eigenvalues not converged
     c_bands:  1 eigenvalues not converged
     ethr =  1.00E-05,  avg # of iterations = 28.7

[...]

     total energy              =   -2249.26437995 Ry
     estimated scf accuracy    <    8255.66825564 Ry

     iteration #  2     ecut=    29.40 Ry     beta= 0.05
     Davidson diagonalization with overlap
     ethr =  1.00E-02,  avg # of iterations = 27.4

[...]

     iteration # 97     ecut=    29.40 Ry     beta= 0.05
     Davidson diagonalization with overlap
     c_bands:  1 eigenvalues not converged
     ethr =  2.23E-11,  avg # of iterations = 14.8

[...]

     total energy              =   -2975.20145291 Ry
     estimated scf accuracy    <       0.00000008 Ry

     iteration # 98     ecut=    29.40 Ry     beta= 0.05
     Davidson diagonalization with overlap
     ethr =  2.10E-11,  avg # of iterations =  2.9

     negative rho (up, down):  1.354E-02 0.000E+00

     Adding external electric field

     Computed dipole along edir(3) :
        Dipole                1.4200 Ry au,          3.6094 Debye
        Dipole field          0.0027 Ry au,

        Potential amp.       -0.2484 Ry
        Total length         46.3494 bohr

     End of self-consistent calculation

          k = 0.0000 0.0000 0.0000 ( 18029 PWs)   bands (ev):

   -55.1466 -55.1181 -55.1100 -55.0840 -55.0816 -55.0324 -54.9906 -54.9579
   -54.9429 -54.9269 -54.9226 -54.9186 -54.9098 -54.8350 -54.1308 -54.0968
   -31.7096 -31.6078 -31.5256 -31.4825 -31.4603 -31.4572 -31.4471 -31.4449
   -31.4079 -31.3878 -31.3659 -31.3625 -31.3460 -31.3241 -31.3073 -31.2935
   -31.2877 -31.2708 -31.2681 -31.2590 -31.2294 -31.2165 -31.2125 -31.1876
   -31.1796 -31.1750 -31.1656 -31.1595 -31.1582 -31.1511 -31.1394 -31.1374
   -31.1156 -31.1071 -31.1032 -31.0927 -31.0863 -31.0741 -31.0716 -31.0520
   -31.0510 -31.0155 -30.5393 -30.4472 -30.4250 -30.3559 -30.2692 -30.1582
   -19.1872 -18.5892 -15.9631 -15.6981 -15.5667 -15.4015 -15.3382 -15.1669
   -15.0852 -15.0208 -14.9354 -14.8755 -14.8622 -14.8552 -14.7645 -14.7459
   -14.6927 -14.6812 -14.6743 -14.6435 -14.6354 -14.5776 -14.5732 -14.5672
   -14.5340 -14.5212 -14.4914 -14.3735 -14.2930 -14.2362 -14.0220 -13.6649
   -12.6332 -12.5161 -10.0203  -6.8167  -6.4781  -6.3629  -4.0369  -3.8948
    -3.3147  -3.1722  -3.1535  -3.0708  -3.0472  -2.9241  -2.8680  -2.7073
    -2.6000  -2.5017  -2.4119  -2.3423  -2.3343  -2.3062  -2.1898  -2.1266
    -2.0811  -2.0365  -2.0178  -2.0061  -1.9579  -1.9219  -1.9195  -1.8523
    -1.8496  -1.7136  -1.6199  -1.6149  -1.5805  -1.5648  -1.4757  -1.4522
    -1.4430  -1.4376  -1.4311  -1.4237  -1.3893  -1.3443  -1.3184  -1.2353
    -1.1826  -1.1385  -1.0079  -0.9051  -0.8322  -0.7761  -0.6876  -0.6843
    -0.6168  -0.5501  -0.5356  -0.5350  -0.4746  -0.3528  -0.3062  -0.2555
    -0.2353  -0.2099  -0.1210  -0.1036  -0.0338   0.0392   0.0669   0.0771
     0.0987   0.2729   0.2803   0.3093   0.3278   0.4174   0.4696   0.5118
     0.5184   0.5409   0.6074   0.6450   0.7364   0.7840   0.7947   0.8155
     0.8370   0.8771   0.9540   0.9640   1.0040   1.0274   1.1696   1.2060
     1.2630   1.4740   1.4757   1.8048   1.8449   1.8919   2.0781   2.4663
     2.5137   3.9531   4.0428   4.0820   4.0838   4.1025   4.1882   4.3180
     4.4341   4.4446   4.4569   4.4787

[...]

          k = 0.0380-0.0419 0.0000 ( 17876 PWs)   bands (ev):

[...]

          k =-0.0760-0.0000 0.0000 ( 17886 PWs)   bands (ev):

[...]

          k =-0.0760-0.0839 0.0000 ( 17948 PWs)   bands (ev):

   -55.1319 -55.1245 -55.1011 -55.1008 -55.0797 -55.0234 -54.9996 -54.9430
   -54.9366 -54.9283 -54.9271 -54.9262 -54.9155 -54.8383 -54.1138 -54.1136
   -31.5180 -31.5097 -31.4245 -31.4231 -31.4228 -31.4075 -31.3935 -31.3932
   -31.3688 -31.3652 -31.3618 -31.3551 -31.3441 -31.3136 -31.2839 -31.2770
   -31.2765 -31.2760 -31.2715 -31.2658 -31.2588 -31.2408 -31.2266 -31.2240
   -31.2209 -31.2205 -31.2201 -31.1989 -31.1762 -31.1676 -31.1648 -31.1568
   -31.1508 -31.1484 -31.1464 -31.1444 -31.1423 -31.1136 -31.1077 -31.1060
   -31.0891 -31.0592 -30.4377 -30.4376 -30.3520 -30.3518 -30.3126 -30.3125
   -19.1845 -18.5888 -15.4573 -15.2995 -15.2870 -15.1352 -15.1215 -15.1131
   -15.0878 -15.0125 -14.9935 -14.9297 -14.9173 -14.8733 -14.8476 -14.8343
   -14.8232 -14.7304 -14.7230 -14.7167 -14.7009 -14.6504 -14.6383 -14.6212
   -14.5979 -14.5938 -14.5570 -14.4925 -14.4893 -14.4557 -14.2224 -13.6761
   -12.6177 -12.6175 -10.0231  -6.8103  -6.4813  -6.3549  -4.0151  -3.8778
    -2.9346  -2.7226  -2.5328  -2.5093  -2.4684  -2.3688  -2.3278  -2.2872
    -2.1901  -2.1413  -2.1259  -2.1037  -2.0894  -2.0307  -2.0250  -2.0231
    -1.9877  -1.9796  -1.9649  -1.9403  -1.9172  -1.8827  -1.8696  -1.8595
    -1.8467  -1.8075  -1.7875  -1.7591  -1.7462  -1.7170  -1.7005  -1.6302
    -1.5271  -1.4972  -1.4441  -1.3508  -1.3332  -1.3274  -1.2422  -1.2089
    -1.1962  -1.1809  -1.1666  -1.1046  -0.9691  -0.8816  -0.8715  -0.8190
    -0.7538  -0.7199  -0.6775  -0.6495  -0.6213  -0.5661  -0.5184  -0.4929
    -0.4210  -0.3676  -0.3617  -0.3295  -0.1830  -0.1592  -0.1117  -0.1099
    -0.0949  -0.0858   0.0031   0.0198   0.0643   0.0839   0.1238   0.1423
     0.2152   0.2322   0.3514   0.4220   0.4838   0.5894   0.7313   0.7440
     0.8157   0.8776   0.9158   0.9810   1.0390   1.0740   1.1549   1.1644
     1.1843   1.2818   1.3312   1.3377   1.3547   2.2505   2.2521   2.3336
     2.3338   4.1159   4.1365   4.2280   4.2408   4.2930   4.3768   4.4654
     4.4920   4.5266   4.5309   4.6088

     the Fermi energy is     4.0012 ev

!    total energy              =   -2975.20145409 Ry
     estimated scf accuracy    <       0.00000002 Ry
     smearing contrib. (-TS)   =      -0.03821044 Ry
     internal energy E=F+TS    =   -2975.16324365 Ry

     The total energy is F=E-TS. E is the sum of the following terms:
     one-electron contribution =  -23646.18027257 Ry
     hartree contribution      =   11921.25844578 Ry
     xc contribution           =    -494.97319174 Ry
     ewald contribution        =    9244.72796945 Ry
     electric field correction =       0.00380543 Ry

     convergence has been achieved in  98 iterations

     Forces acting on atoms (cartesian axes, Ry/au):

     atom    1 type  1   force =     0.00013534   -0.00013368    0.09417332
     atom    2 type  1   force =    -0.00023402   -0.00025803   -0.17731070
     atom    3 type  2   force =     0.00001587   -0.00025865   -0.02169965
     atom    4 type  2   force =    -0.00004470   -0.00184680    0.05696256
     atom    5 type  2   force =    -0.01106398   -0.00172083    0.00686027
     atom    6 type  2   force =     0.01215071   -0.00091248    0.00492710
     atom    7 type  1   force =    -0.00122221    0.00156064   -0.01219246
     atom    8 type  1   force =     0.00072472    0.00497878    0.00605287
     atom    9 type  2   force =     0.00026373    0.00050847    0.00030778
     atom   10 type  2   force =    -0.00307442   -0.00066486   -0.00508482
     atom   11 type  2   force =     0.00081060    0.00021189   -0.00026467
     atom   12 type  2   force =    -0.00007319    0.00051670   -0.00001708
     atom   13 type  1   force =    -0.00019695    0.00010414   -0.00000623
     atom   14 type  1   force =    -0.00000791    0.00011919   -0.00007383
     atom   15 type  2   force =    -0.00014920    0.00010351    0.00007600
     atom   16 type  2   force =     0.00039815    0.00034548   -0.00016596
     atom   17 type  2   force =    -0.00022224   -0.00026574    0.00000690
     atom   18 type  2   force =     0.00004990   -0.00015661    0.00010343
     atom   19 type  1   force =     0.00042305    0.00031005    0.00003018
     atom   20 type  1   force =    -0.00035736    0.00073556    0.00072018
     atom   21 type  2   force =     0.00004955    0.00002673    0.10369697
     atom   22 type  2   force =     0.00063916   -0.00015260   -0.00039774
     atom   23 type  2   force =    -0.07084092   -0.00008864   -0.02718678
     atom   24 type  2   force =     0.07067482    0.00039677   -0.02722373
     atom   25 type  1   force =    -0.00006153   -0.00027555    0.09391305
     atom   26 type  1   force =    -0.00030508   -0.00035327   -0.17748009
     atom   27 type  2   force =     0.00000652   -0.00022989   -0.02074880
     atom   28 type  2   force =     0.00003469   -0.00148600    0.05599026
     atom   29 type  2   force =    -0.01133733   -0.00053044    0.00690049
     atom   30 type  2   force =     0.01229629   -0.00025127    0.00491598
     atom   31 type  1   force =    -0.00121656    0.00504666   -0.01497398
     atom   32 type  1   force =     0.00092627   -0.00604293    0.00587934
     atom   33 type  2   force =     0.00035290   -0.00013395    0.00010505
     atom   34 type  2   force =    -0.00260658   -0.00151309   -0.00578361
     atom   35 type  2   force =     0.00036266    0.00030183   -0.00032435
     atom   36 type  2   force =     0.00043894    0.00040319   -0.00008910
     atom   37 type  1   force =    -0.00016906   -0.00016165   -0.00008783
     atom   38 type  1   force =     0.00003515    0.00032622    0.00047571
     atom   39 type  2   force =     0.00017417    0.00080151   -0.00093418
     atom   40 type  2   force =     0.00003044   -0.00007910   -0.00001302
     atom   41 type  2   force =     0.00058589    0.00055387    0.00034046
     atom   42 type  2   force =    -0.00087698    0.00014765   -0.00006019
     atom   43 type  1   force =     0.00055258   -0.00070043    0.00016767
     atom   44 type  1   force =    -0.00009889   -0.00033592    0.00025129
     atom   45 type  2   force =     0.00001871   -0.00002031    0.10369639
     atom   46 type  2   force =    -0.07083387   -0.00000590   -0.02720247
     atom   47 type  2   force =     0.07066487    0.00040106   -0.02720025
     atom   48 type  3   force =    -0.00833073    0.00195016   -0.00340123
     atom   49 type  3   force =     0.02106296   -0.00391336   -0.00368408
     atom   50 type  4   force =     0.00001919   -0.00011633   -0.00047387
     atom   51 type  5   force =     0.00002428   -0.00000878    0.00029215
     atom   52 type  5   force =     0.00038869   -0.00064918   -0.00008548
     atom   53 type  5   force =    -0.00177179    0.00089400   -0.00033436
     atom   54 type  5   force =    -0.00980125    0.00247800    0.00747375
     atom   55 type  2   force =     0.00006725    0.00018878    0.00003457
     atom   56 type  5   force =     0.00073822   -0.00016220   -0.00053101
     atom   57 type  5   force =    -0.00021951    0.00001762    0.00067785

     Total force =     0.366672     Total SCF correction =     0.000407
  @ DRIVER MODE: Message from server: STATUS
  @ DRIVER MODE: Message from server: GETFORCE
  @ DRIVER MODE: Returning v,forces,stress,ensemble

     Writing output data file ./calc.save/
  @ DRIVER MODE: Message from server: EXIT
  @ DRIVE MODE: Exiting

     General routines

     Parallel routines

   This run was terminated on:  18:34:29  22Sep2021

   JOB DONE.