     Program PWSCF v.6.7GPU starts on  9Sep2021 at  4:13:29

     R & G space division:  proc/nbgrp/npool/nimage =      10
     Reading input from /storage/home/hcoda1/3/ntian30/research/carbon/CxH_vib/CH3_calc/ads_slab/CH3NHNH_a/out_0020/pw.inp
Warning: card &CELL ignored
Warning: card   CELL_DYNAMICS='IPI', ignored
Warning: card / ignored

     Current dimensions of program PWSCF are:
     Max number of different atomic species (ntypx) = 10
     Max number of k-points (npk) =  40000
     Max angular momentum in pseudopotentials (lmaxx) =  3
     Presently no symmetry can be used with electric field

     Message from routine cell_base_init:
     DEPRECATED: use true lattice parameter, not A to a.u. conversion factor

     IMPORTANT: XC functional enforced from input :
     Exchange-correlation= BEEF-VDW
                           (   1   4  43  14   2   0   0)
     Any further DFT definition will be discarded
     Please, verify this is what you really want

  @ DRIVER MODE: Connecting to
 qe_1139763_2767401.sched-torque.pace.gatech.edux2g1twmc_scratch
  using UNIX socket
  @ DRIVER MODE: Message from server: STATUS
  @ DRIVER MODE: Message from server: INIT
  @ DRIVER MODE: Receiving replica           0          -1
  @ DRIVER MODE: Receiving encoded integer          25
  @ DRIVER MODE:  SCF:  T  FORCE:  T  STRESS:  F  VC:  F  ENSEMBLE:  F
  @ DRIVER MODE:  SCF:  T  FORCE:  T  STRESS:  F  VC:  F  ENSEMBLE:  F

     Using Slab Decomposition

     bravais-lattice index     =            0
     lattice parameter (alat)  =       1.8897  a.u.
     unit-cell volume          =    6658.9804 (a.u.)^3
     number of atoms/cell      =           55
     number of atomic types    =            5
     number of electrons       =       397.00
     number of Kohn-Sham states=          208
     kinetic-energy cutoff     =      29.3995  Ry
     charge density cutoff     =     293.9946  Ry
     scf convergence threshold =      7.3E-08
     mixing beta               =       0.0500
     number of iterations used =            8  plain     mixing
     Exchange-correlation= BEEF-VDW
                           (   1   4  43  14   2   0   0)

     celldm(1)=   1.889726  celldm(2)=   0.000000  celldm(3)=   0.000000
     celldm(4)=   0.000000  celldm(5)=   0.000000  celldm(6)=   0.000000

     crystal axes: (cart. coord. in units of alat)
               a(1) = (   6.579727   0.000000   0.000000 )
               a(2) = (  -0.000775   5.961596   0.000000 )
               a(3) = (   0.000000   0.000000  25.155947 )

     reciprocal axes: (cart. coord. in units 2 pi/alat)
               b(1) = (  0.151982  0.000020  0.000000 )
               b(2) = (  0.000000  0.167740  0.000000 )
               b(3) = (  0.000000  0.000000  0.039752 )

     PseudoPot. # 1 for Ti read from file:
     /storage/coda1/p-amedford6/0/shared/rich_project_chbe-medford/medford-share/data/pseudos_module/espresso/nninc/pbe/van/Ti.UPF
     MD5 check sum: 8e4df49b7f0d34bbd5052bf3f5ea0213
     Pseudo is Ultrasoft, Zval = 12.0
     Generated by new atomic code, or converted to UPF format
     Using radial grid of  851 points,  6 beta functions with:
                l(1) =   0
                l(2) =   0
                l(3) =   1
                l(4) =   1
                l(5) =   2
                l(6) =   2
     Q(r) pseudized with  8 coefficients,  rinner =    1.000   1.000   1.000
                                                       1.000   1.000

     PseudoPot. # 2 for O  read from file:
     /storage/coda1/p-amedford6/0/shared/rich_project_chbe-medford/medford-share/data/pseudos_module/espresso/nninc/pbe/van/O.UPF
     MD5 check sum: 78c19812648e8988a0fe644b0f25305e
     Pseudo is Ultrasoft, Zval =  6.0
     Generated by new atomic code, or converted to UPF format
     Using radial grid of  737 points,  4 beta functions with:
                l(1) =   0
                l(2) =   0
                l(3) =   1
                l(4) =   1
     Q(r) pseudized with  8 coefficients,  rinner =    0.800   0.800   0.800

     PseudoPot. # 3 for N  read from file:
     /storage/coda1/p-amedford6/0/shared/rich_project_chbe-medford/medford-share/data/pseudos_module/espresso/nninc/pbe/van/N.UPF
     MD5 check sum: 90d10febe142ad51ac9d5be1deb811c4
     Pseudo is Ultrasoft, Zval =  5.0
     Generated by new atomic code, or converted to UPF format
     Using radial grid of  729 points,  4 beta functions with:
                l(1) =   0
                l(2) =   0
                l(3) =   1
                l(4) =   1
     Q(r) pseudized with  8 coefficients,  rinner =    0.800   0.800   0.800

     PseudoPot. # 4 for C  read from file:
     /storage/coda1/p-amedford6/0/shared/rich_project_chbe-medford/medford-share/data/pseudos_module/espresso/nninc/pbe/van/C.UPF
     MD5 check sum: 1a69bf6b8db32088f5b2163dbdb77a27
     Pseudo is Ultrasoft, Zval =  4.0
     Generated by new atomic code, or converted to UPF format
     Using radial grid of  721 points,  4 beta functions with:
                l(1) =   0
                l(2) =   0
                l(3) =   1
                l(4) =   1
     Q(r) pseudized with  8 coefficients,  rinner =    0.800   0.800   0.800

     PseudoPot. # 5 for H  read from file:
     /storage/coda1/p-amedford6/0/shared/rich_project_chbe-medford/medford-share/data/pseudos_module/espresso/nninc/pbe/van/H.UPF
     MD5 check sum: b5ee9d7bfd3a09ee7748110bda690ff7
     Pseudo is Ultrasoft, Zval =  1.0
     Generated by new atomic code, or converted to UPF format
     Using radial grid of  615 points,  1 beta functions with:
                l(1) =   0
     Q(r) pseudized with  8 coefficients,  rinner =    0.800

     atomic species   valence    mass     pseudopotential
        Ti1           12.00    47.86700     Ti( 1.00)
        O1             6.00    15.99900     O ( 1.00)
        N1             5.00    14.00700     N ( 1.00)
        C1             4.00    12.01100     C ( 1.00)
        H1             1.00     1.00800     H ( 1.00)

     No symmetry found

   Cartesian axes

     site n.     atom                  positions (alat units)
         1           Ti1 tau(   1) = (   0.0004258   2.9801865   6.0000000  )
         2           Ti1 tau(   2) = (   3.2906075   1.4906267   6.0002472  )
         3           O1  tau(   3) = (   0.0006271   0.0005054   7.9858123  )
         4           O1  tau(   4) = (   3.2906025   0.0005020   7.3038282  )
         5           O1  tau(   5) = (   4.5942328   1.4918067   9.2879030  )
         6           O1  tau(   6) = (   1.9868534   1.4903216   9.2879459  )
         7           Ti1 tau(   7) = (   3.2907910   2.8959150   9.1758416  )
         8           Ti1 tau(   8) = (   0.0015273   1.4827037   9.2680791  )
         9           O1  tau(   9) = (   3.2830128   5.9597860  11.3344455  )
        10           O1  tau(  10) = (   0.0116148   5.9584955  10.6183126  )
        11           O1  tau(  11) = (   1.2885291   1.4855062  12.6376555  )
        12           O1  tau(  12) = (   5.2724004   1.4911608  12.5936499  )
        13           Ti1 tau(  13) = (   0.0410009   3.0319447  12.6084003  )
        14           Ti1 tau(  14) = (   3.3739341   1.4916561  12.4823474  )
        15           O1  tau(  15) = (   6.4862162   0.0153916  14.6455093  )
        16           O1  tau(  16) = (   3.3439542   5.9611638  13.9051029  )
        17           O1  tau(  17) = (   4.4933269   1.5483200  16.1231154  )
        18           O1  tau(  18) = (   1.9964937   1.4536654  15.9127221  )
        19           Ti1 tau(  19) = (   3.1412959   3.0017366  15.7441667  )
        20           Ti1 tau(  20) = (   6.4823597   1.5369342  15.8006069  )
        21           O1  tau(  21) = (   3.2904802   0.0005063   4.7018136  )
        22           O1  tau(  22) = (   6.5709111   0.0522475  17.2082838  )
        23           O1  tau(  23) = (   1.3043587   1.4918075   6.0039043  )
        24           O1  tau(  24) = (   5.2767064   1.4903225   6.0039473  )
        25           Ti1 tau(  25) = (   0.0000382   5.9609847   6.0000000  )
        26           Ti1 tau(  26) = (   3.2902200   4.4714249   6.0002472  )
        27           O1  tau(  27) = (   0.0002396   2.9813036   7.9858123  )
        28           O1  tau(  28) = (   3.2902150   2.9813002   7.3038282  )
        29           O1  tau(  29) = (   4.5938453   4.4726049   9.2879030  )
        30           O1  tau(  30) = (   1.9864658   4.4711199   9.2879459  )
        31           Ti1 tau(  31) = (   3.2891106   5.8743827   9.1763621  )
        32           Ti1 tau(  32) = (   0.0006254   4.4649316   9.2693709  )
        33           O1  tau(  33) = (   3.2833609   2.9822938  11.3349093  )
        34           O1  tau(  34) = (   0.0092240   2.9805883  10.6323155  )
        35           O1  tau(  35) = (   1.2838611   4.4860338  12.6468719  )
        36           O1  tau(  36) = (   5.2760156   4.4607002  12.6015494  )
        37           Ti1 tau(  37) = (   0.0673138   0.0440259  12.5461749  )
        38           Ti1 tau(  38) = (   3.3712377   4.4654930  12.4933830  )
        39           O1  tau(  39) = (   6.5217465   2.9589972  14.6412948  )
        40           O1  tau(  40) = (   3.2809526   2.9956502  13.9333893  )
        41           O1  tau(  41) = (   4.4911989   4.4583117  16.1637052  )
        42           O1  tau(  42) = (   1.9937212   4.5427850  15.9740970  )
        43           Ti1 tau(  43) = (   3.2955853   0.0167752  15.6963065  )
        44           Ti1 tau(  44) = (   6.5082246   4.6715011  16.1069148  )
        45           O1  tau(  45) = (   3.2900926   2.9813045   4.7018136  )
        46           O1  tau(  46) = (   1.3039711   4.4726057   6.0039043  )
        47           O1  tau(  47) = (   5.2763189   4.4711207   6.0039473  )
        48           N1  tau(  48) = (   1.3945086   2.8365607  18.1849301  )
        49           N1  tau(  49) = (   0.1777896   2.9650562  17.4211889  )
        50           C1  tau(  50) = (   1.4118813   3.7128676  19.3556819  )
        51           H1  tau(  51) = (   0.5271711   3.5996102  19.9880000  )
        52           H1  tau(  52) = (   2.2935099   3.4681107  19.9517681  )
        53           H1  tau(  53) = (   1.4703795   4.7520035  19.0319817  )
        54           H1  tau(  54) = (   1.4579882   1.8621926  18.4823179  )
        55           H1  tau(  55) = (   5.9558665   2.8747675  18.0551794  )

     number of k points=    10  Fermi-Dirac smearing, width (Ry)=  0.0073
                       cart. coord. in units 2pi/alat
        k(    1) = (   0.0000000   0.0000000   0.0000000), wk =   0.1250000
        k(    2) = (   0.0000000   0.0419351   0.0000000), wk =   0.2500000
        k(    3) = (   0.0000000  -0.0838702   0.0000000), wk =   0.1250000
        k(    4) = (   0.0379955   0.0000049   0.0000000), wk =   0.2500000
        k(    5) = (   0.0379955   0.0419400   0.0000000), wk =   0.2500000
        k(    6) = (   0.0379955  -0.0838652   0.0000000), wk =   0.2500000
        k(    7) = (   0.0379955  -0.0419301   0.0000000), wk =   0.2500000
        k(    8) = (  -0.0759910  -0.0000099   0.0000000), wk =   0.1250000
        k(    9) = (  -0.0759910   0.0419252   0.0000000), wk =   0.2500000
        k(   10) = (  -0.0759910  -0.0838800   0.0000000), wk =   0.1250000

     Initial potential from superposition of free atoms

     starting charge  380.99914, renormalised to  397.00000

     negative rho (up, down):  1.541E-02 0.000E+00

     %%%%%%%%%%%%%%%%%%%%%%%%%%%%%%%%%%%%%%%%%%%%%%%%%%%%%%%%%%%%%%%%%%%%%%%%
     %                                                                      %
     % You are using vdW-DF, which was implemented by the Thonhauser group. %
     % Please cite the following two papers that made this development      %
     % possible and the two reviews that describe the various versions:     %
     %                                                                      %
     %   T. Thonhauser et al., PRL 115, 136402 (2015).                      %
     %   T. Thonhauser et al., PRB 76, 125112 (2007).                       %
     %   K. Berland et al., Rep. Prog. Phys. 78, 066501 (2015).             %
     %   D.C. Langreth et al., J. Phys.: Condens. Matter 21, 084203 (2009). %
     %                                                                      %
     %                                                                      %
     % If you are calculating the stress with vdW-DF, please also cite:     %
     %                                                                      %
     %   R. Sabatini et al., J. Phys.: Condens. Matter 24, 424209 (2012).   %
     %                                                                      %
     %%%%%%%%%%%%%%%%%%%%%%%%%%%%%%%%%%%%%%%%%%%%%%%%%%%%%%%%%%%%%%%%%%%%%%%%

     Adding external electric field

     Computed dipole along edir(3) :
        Dipole               -9.6180 Ry au,        -24.4465 Debye
        Dipole field         -0.0182 Ry au,

        Potential amp.        1.6825 Ry
        Total length         46.3494 bohr

     Starting wfcs are  301 atomic wfcs
  @ DRIVER MODE: Message from server: STATUS
  @ DRIVER MODE: Message from server: POSDATA
  @ DRIVER MODE: Reading and sharing cell
  @ DRIVER MODE: Reading and sharing positions
  @ DRIVER MODE: Received positions

     Self-consistent Calculation

     iteration #  1     ecut=    29.40 Ry     beta= 0.05
     Davidson diagonalization with overlap
     c_bands:  1 eigenvalues not converged
     c_bands:  1 eigenvalues not converged
     c_bands:  1 eigenvalues not converged
     c_bands:  1 eigenvalues not converged
     c_bands:  1 eigenvalues not converged
     c_bands:  1 eigenvalues not converged
     c_bands:  2 eigenvalues not converged
     ethr =  1.00E-05,  avg # of iterations = 18.8

[...]

     total energy              =   -2533.52917633 Ry
     estimated scf accuracy    <    4539.70971236 Ry

     iteration #  2     ecut=    29.40 Ry     beta= 0.05
     Davidson diagonalization with overlap
     ethr =  1.00E-02,  avg # of iterations = 24.5

[...]

     iteration # 45     ecut=    29.40 Ry     beta= 0.05
     Davidson diagonalization with overlap
     c_bands:  1 eigenvalues not converged
     ethr =  1.38E-09,  avg # of iterations = 10.9

[...]

     total energy              =   -2941.66147843 Ry
     estimated scf accuracy    <       0.00000018 Ry

     iteration # 55     ecut=    29.40 Ry     beta= 0.05
     Davidson diagonalization with overlap
     ethr =  3.73E-11,  avg # of iterations =  8.9

     negative rho (up, down):  1.608E-02 0.000E+00

     Adding external electric field

     Computed dipole along edir(3) :
        Dipole                0.9450 Ry au,          2.4020 Debye
        Dipole field          0.0018 Ry au,

        Potential amp.       -0.1653 Ry
        Total length         46.3494 bohr

     End of self-consistent calculation

          k = 0.0000 0.0000 0.0000 ( 18029 PWs)   bands (ev):

   -55.6857 -55.6685 -55.6516 -55.6318 -55.5913 -55.5371 -55.5299 -55.5000
   -55.4938 -55.4660 -55.4639 -55.4298 -55.2573 -55.0333 -54.6659 -54.6319
   -32.2194 -32.1689 -32.0416 -32.0314 -31.9983 -31.9836 -31.9785 -31.9542
   -31.9296 -31.8976 -31.8953 -31.8890 -31.8460 -31.8380 -31.8239 -31.8221
   -31.8055 -31.7908 -31.7816 -31.7464 -31.7429 -31.7355 -31.7201 -31.7165
   -31.6936 -31.6891 -31.6863 -31.6788 -31.6645 -31.6623 -31.6548 -31.6454
   -31.6400 -31.6305 -31.6169 -31.6075 -31.5760 -31.5075 -31.4637 -31.2995
   -31.2901 -31.2358 -31.0732 -30.9847 -30.9622 -30.8899 -30.8034 -30.6923
   -16.7716 -16.4161 -16.1614 -15.9320 -15.8410 -15.8105 -15.6581 -15.5265
   -15.4171 -15.3354 -15.2504 -15.2314 -15.2243 -15.2134 -15.1874 -15.1816
   -15.1344 -15.1298 -15.1104 -15.0975 -15.0474 -15.0308 -15.0273 -14.9326
   -14.8686 -14.8334 -14.8187 -14.7839 -14.7465 -14.3327 -13.1686 -13.0521
   -11.8109  -8.9924  -5.4309  -4.3737  -3.8493  -3.7879  -3.6435  -3.5932
    -3.5328  -3.4955  -3.3165  -3.2137  -2.9411  -2.8842  -2.8545  -2.8453
    -2.7910  -2.7601  -2.6004  -2.5742  -2.5033  -2.4939  -2.4791  -2.4501
    -2.4413  -2.4346  -2.3959  -2.3746  -2.3466  -2.2421  -2.1023  -2.0929
    -2.0701  -2.0371  -1.9996  -1.9509  -1.9344  -1.9142  -1.8958  -1.8832
    -1.8705  -1.7357  -1.7007  -1.5844  -1.4948  -1.4483  -1.3681  -1.2977
    -1.2683  -1.1568  -1.1171  -1.1049  -1.0904  -1.0798  -0.9800  -0.8743
    -0.8570  -0.8192  -0.7640  -0.7083  -0.6377  -0.5928  -0.5418  -0.4896
    -0.4654  -0.4501  -0.4473  -0.4122  -0.3207  -0.1793  -0.1274  -0.0930
    -0.0708   0.0059   0.0410   0.0971   0.1215   0.1449   0.1808   0.2338
     0.2774   0.2838   0.2973   0.3118   0.3165   0.4909   0.5404   0.5822
     0.6154   0.6615   0.8227   0.8448   0.9664   1.0408   1.2031   1.2816
     1.3561   1.4344   1.5479   1.6224   1.9273   1.9731   3.4451   3.5326
     3.5774   3.5913   3.6865   3.7284   3.8979   3.9286   3.9430   4.0031

[...]

          k = 0.0380-0.0419 0.0000 ( 17876 PWs)   bands (ev):

[...]

          k =-0.0760-0.0000 0.0000 ( 17886 PWs)   bands (ev):

[...]

          k =-0.0760-0.0839 0.0000 ( 17948 PWs)   bands (ev):

   -55.6689 -55.6683 -55.6537 -55.6463 -55.5852 -55.5430 -55.5173 -55.5065
   -55.4834 -55.4820 -55.4498 -55.4440 -55.2561 -55.0343 -54.6489 -54.6488
   -32.0285 -32.0188 -31.9844 -31.9840 -31.9642 -31.9634 -31.9432 -31.9367
   -31.8838 -31.8832 -31.8729 -31.8678 -31.8509 -31.8330 -31.8082 -31.8035
   -31.7991 -31.7956 -31.7890 -31.7889 -31.7879 -31.7873 -31.7834 -31.7439
   -31.7353 -31.7238 -31.7157 -31.7045 -31.6838 -31.6829 -31.6808 -31.6741
   -31.6641 -31.6601 -31.6569 -31.6544 -31.6133 -31.5100 -31.4604 -31.3617
   -31.2922 -31.2618 -30.9750 -30.9749 -30.8860 -30.8858 -30.8467 -30.8467
   -16.7454 -15.8633 -15.8022 -15.6444 -15.6092 -15.5896 -15.5546 -15.4939
   -15.4107 -15.3837 -15.3791 -15.3319 -15.3062 -15.2734 -15.2353 -15.2208
   -15.2137 -15.1948 -15.1825 -15.1487 -15.1392 -15.1276 -15.1204 -15.0448
   -15.0073 -15.0029 -14.9974 -14.8937 -14.7673 -14.5006 -13.1540 -13.1538
   -11.8172  -9.0066  -5.4451  -4.3614  -3.7758  -3.1560  -3.0690  -2.8943
    -2.8387  -2.8099  -2.7942  -2.6281  -2.6183  -2.6022  -2.5573  -2.5347
    -2.5255  -2.5162  -2.5074  -2.4863  -2.4737  -2.4388  -2.4290  -2.3936
    -2.3798  -2.3616  -2.3448  -2.3278  -2.3081  -2.2939  -2.2771  -2.2367
    -2.2168  -2.2064  -2.1858  -2.1420  -1.9312  -1.8810  -1.8352  -1.8313
    -1.8207  -1.8011  -1.7465  -1.7416  -1.7075  -1.6564  -1.5776  -1.4329
    -1.3874  -1.3710  -1.2779  -1.2564  -1.2037  -1.1315  -1.0858  -1.0689
    -1.0339  -0.9698  -0.9335  -0.8961  -0.8296  -0.8051  -0.7993  -0.7057
    -0.6847  -0.6486  -0.6420  -0.5633  -0.5127  -0.4498  -0.4344  -0.4180
    -0.3864  -0.3529  -0.3348  -0.2671  -0.1749  -0.1738  -0.1509  -0.0417
     0.0489   0.2773   0.3401   0.3770   0.4220   0.5155   0.5840   0.6086
     0.6245   0.6462   0.6656   0.7137   0.8408   0.8509   0.8851   0.9980
     1.1017   1.6385   1.7196   1.7204   1.7929   1.7930   3.7468   3.7651
     3.7857   3.8321   3.9512   3.9583   3.9803   3.9824   4.1060   4.1180

     the Fermi energy is     3.4468 ev

!    total energy              =   -2941.66154517 Ry
     estimated scf accuracy    <       0.00000007 Ry
     smearing contrib. (-TS)   =      -0.02151259 Ry
     internal energy E=F+TS    =   -2941.64003258 Ry

     The total energy is F=E-TS. E is the sum of the following terms:
     one-electron contribution =  -24276.11931074 Ry
     hartree contribution      =   12228.52585370 Ry
     xc contribution           =    -486.87900681 Ry
     ewald contribution        =    9592.83074588 Ry
     electric field correction =       0.00168538 Ry

     convergence has been achieved in  55 iterations

     Forces acting on atoms (cartesian axes, Ry/au):

     atom    1 type  1   force =     0.00017727   -0.00011861    0.09638488
     atom    2 type  1   force =    -0.00021072   -0.00063072   -0.17548734
     atom    3 type  2   force =    -0.00004249   -0.00003597   -0.02419989
     atom    4 type  2   force =     0.00005016   -0.00143873    0.05288946
     atom    5 type  2   force =    -0.01181748   -0.00049323    0.00395406
     atom    6 type  2   force =     0.01312757    0.00023544    0.00229389
     atom    7 type  1   force =    -0.00140421    0.00080661   -0.01148021
     atom    8 type  1   force =     0.00053761    0.00919557    0.02521732
     atom    9 type  2   force =    -0.00010731    0.00017407    0.00039470
     atom   10 type  2   force =    -0.00086616    0.00148379   -0.01580667
     atom   11 type  2   force =    -0.00019645   -0.00049751    0.00038553
     atom   12 type  2   force =    -0.00013250   -0.00026112    0.00002274
     atom   13 type  1   force =     0.00055690   -0.00091533    0.00005974
     atom   14 type  1   force =    -0.00007618   -0.00040435    0.00025070
     atom   15 type  2   force =     0.00018081    0.00004549   -0.00030256
     atom   16 type  2   force =     0.00006742    0.00024881    0.00003940
     atom   17 type  2   force =    -0.00051898    0.00034566    0.00048603
     atom   18 type  2   force =     0.00010706    0.00010159    0.00027562
     atom   19 type  1   force =     0.00008600   -0.00056153    0.00026054
     atom   20 type  1   force =     0.00015127    0.00035994    0.00059878
     atom   21 type  2   force =     0.00007318   -0.00008149    0.10318834
     atom   22 type  2   force =    -0.00043687   -0.00025123    0.00025525
     atom   23 type  2   force =    -0.07149538   -0.00018591   -0.02769663
     atom   24 type  2   force =     0.07141822    0.00024623   -0.02769588
     atom   25 type  1   force =     0.00003145   -0.00026964    0.09584682
     atom   26 type  1   force =    -0.00014809   -0.00022797   -0.17566458
     atom   27 type  2   force =     0.00009199   -0.00012619   -0.02330022
     atom   28 type  2   force =     0.00007860   -0.00129705    0.05331510
     atom   29 type  2   force =    -0.01194536   -0.00005841    0.00375396
     atom   30 type  2   force =     0.01319447    0.00043088    0.00213213
     atom   31 type  1   force =    -0.00141844    0.00345220   -0.01080913
     atom   32 type  1   force =     0.00064671   -0.01009398    0.02562635
     atom   33 type  2   force =    -0.00038769    0.00005034    0.00005346
     atom   34 type  2   force =     0.00074552    0.00090143   -0.02308464
     atom   35 type  2   force =    -0.00011167    0.00029773   -0.00002993
     atom   36 type  2   force =    -0.00022359    0.00059647   -0.00029715
     atom   37 type  1   force =    -0.00082080   -0.00101591   -0.00014334
     atom   38 type  1   force =    -0.00002087   -0.00010268   -0.00001479
     atom   39 type  2   force =    -0.00035461    0.00003389    0.00056548
     atom   40 type  2   force =     0.00048877    0.00024737    0.00025451
     atom   41 type  2   force =     0.00004612    0.00050991    0.00027211
     atom   42 type  2   force =     0.00008075    0.00029063   -0.00019371
     atom   43 type  1   force =     0.00019709    0.00008777   -0.00019569
     atom   44 type  1   force =    -0.00026646   -0.00063120    0.00000105
     atom   45 type  2   force =     0.00006625   -0.00008674    0.10321133
     atom   46 type  2   force =    -0.07150187   -0.00016586   -0.02769673
     atom   47 type  2   force =     0.07142656    0.00030888   -0.02770740
     atom   48 type  3   force =    -0.00061799   -0.00036770   -0.00023583
     atom   49 type  3   force =     0.00025404   -0.00018415    0.00043332
     atom   50 type  4   force =     0.00837639    0.00106301   -0.00286722
     atom   51 type  5   force =    -0.00717664   -0.00062672    0.00387590
     atom   52 type  5   force =     0.00046828    0.00088337   -0.00119845
     atom   53 type  5   force =    -0.00014830   -0.00165755    0.00051517
     atom   54 type  5   force =     0.00000697    0.00065827   -0.00045535
     atom   55 type  5   force =    -0.00028631   -0.00026786   -0.00025035

     Total force =     0.367508     Total SCF correction =     0.000766
  @ DRIVER MODE: Message from server: STATUS
  @ DRIVER MODE: Message from server: GETFORCE
  @ DRIVER MODE: Returning v,forces,stress,ensemble

     Writing output data file ./calc.save/
  @ DRIVER MODE: Message from server: EXIT
  @ DRIVE MODE: Exiting

     General routines

     Parallel routines

   This run was terminated on:   4:29:37   9Sep2021

   JOB DONE.