     Program PWSCF v.6.7GPU starts on 23Sep2021 at  8:20:58

     R & G space division:  proc/nbgrp/npool/nimage =       8
     Reading input from /storage/home/hcoda1/3/ntian30/research/carbon/CxH_vib/H2O_calc/ads_slab/CH3N2HO_c/out_0025/pw.inp
Warning: card &CELL ignored
Warning: card   CELL_DYNAMICS='IPI', ignored
Warning: card / ignored

     Current dimensions of program PWSCF are:
     Max number of different atomic species (ntypx) = 10
     Max number of k-points (npk) =  40000
     Max angular momentum in pseudopotentials (lmaxx) =  3
     Presently no symmetry can be used with electric field

     Message from routine cell_base_init:
     DEPRECATED: use true lattice parameter, not A to a.u. conversion factor

     IMPORTANT: XC functional enforced from input :
     Exchange-correlation= BEEF-VDW
                           (   1   4  43  14   2   0   0)
     Any further DFT definition will be discarded
     Please, verify this is what you really want

  @ DRIVER MODE: Connecting to
 qe_1139763_2941007.sched-torque.pace.gatech.eduu5uelg98_scratch
  using UNIX socket
  @ DRIVER MODE: Message from server: STATUS
  @ DRIVER MODE: Message from server: INIT
  @ DRIVER MODE: Receiving replica           0          -1
  @ DRIVER MODE: Receiving encoded integer          25
  @ DRIVER MODE:  SCF:  T  FORCE:  T  STRESS:  F  VC:  F  ENSEMBLE:  F
  @ DRIVER MODE:  SCF:  T  FORCE:  T  STRESS:  F  VC:  F  ENSEMBLE:  F

     Using Slab Decomposition

     bravais-lattice index     =            0
     lattice parameter (alat)  =       1.8897  a.u.
     unit-cell volume          =    6658.9804 (a.u.)^3
     number of atoms/cell      =           55
     number of atomic types    =            5
     number of electrons       =       402.00
     number of Kohn-Sham states=          211
     kinetic-energy cutoff     =      29.3995  Ry
     charge density cutoff     =     293.9946  Ry
     scf convergence threshold =      7.3E-08
     mixing beta               =       0.0500
     number of iterations used =            8  plain     mixing
     Exchange-correlation= BEEF-VDW
                           (   1   4  43  14   2   0   0)

     celldm(1)=   1.889726  celldm(2)=   0.000000  celldm(3)=   0.000000
     celldm(4)=   0.000000  celldm(5)=   0.000000  celldm(6)=   0.000000

     crystal axes: (cart. coord. in units of alat)
               a(1) = (   6.579727   0.000000   0.000000 )
               a(2) = (  -0.000775   5.961596   0.000000 )
               a(3) = (   0.000000   0.000000  25.155947 )

     reciprocal axes: (cart. coord. in units 2 pi/alat)
               b(1) = (  0.151982  0.000020  0.000000 )
               b(2) = (  0.000000  0.167740  0.000000 )
               b(3) = (  0.000000  0.000000  0.039752 )

     PseudoPot. # 1 for Ti read from file:
     /storage/coda1/p-amedford6/0/shared/rich_project_chbe-medford/medford-share/data/pseudos_module/espresso/nninc/pbe/van/Ti.UPF
     MD5 check sum: 8e4df49b7f0d34bbd5052bf3f5ea0213
     Pseudo is Ultrasoft, Zval = 12.0
     Generated by new atomic code, or converted to UPF format
     Using radial grid of  851 points,  6 beta functions with:
                l(1) =   0
                l(2) =   0
                l(3) =   1
                l(4) =   1
                l(5) =   2
                l(6) =   2
     Q(r) pseudized with  8 coefficients,  rinner =    1.000   1.000   1.000
                                                       1.000   1.000

     PseudoPot. # 2 for O  read from file:
     /storage/coda1/p-amedford6/0/shared/rich_project_chbe-medford/medford-share/data/pseudos_module/espresso/nninc/pbe/van/O.UPF
     MD5 check sum: 78c19812648e8988a0fe644b0f25305e
     Pseudo is Ultrasoft, Zval =  6.0
     Generated by new atomic code, or converted to UPF format
     Using radial grid of  737 points,  4 beta functions with:
                l(1) =   0
                l(2) =   0
                l(3) =   1
                l(4) =   1
     Q(r) pseudized with  8 coefficients,  rinner =    0.800   0.800   0.800

     PseudoPot. # 3 for N  read from file:
     /storage/coda1/p-amedford6/0/shared/rich_project_chbe-medford/medford-share/data/pseudos_module/espresso/nninc/pbe/van/N.UPF
     MD5 check sum: 90d10febe142ad51ac9d5be1deb811c4
     Pseudo is Ultrasoft, Zval =  5.0
     Generated by new atomic code, or converted to UPF format
     Using radial grid of  729 points,  4 beta functions with:
                l(1) =   0
                l(2) =   0
                l(3) =   1
                l(4) =   1
     Q(r) pseudized with  8 coefficients,  rinner =    0.800   0.800   0.800

     PseudoPot. # 4 for C  read from file:
     /storage/coda1/p-amedford6/0/shared/rich_project_chbe-medford/medford-share/data/pseudos_module/espresso/nninc/pbe/van/C.UPF
     MD5 check sum: 1a69bf6b8db32088f5b2163dbdb77a27
     Pseudo is Ultrasoft, Zval =  4.0
     Generated by new atomic code, or converted to UPF format
     Using radial grid of  721 points,  4 beta functions with:
                l(1) =   0
                l(2) =   0
                l(3) =   1
                l(4) =   1
     Q(r) pseudized with  8 coefficients,  rinner =    0.800   0.800   0.800

     PseudoPot. # 5 for H  read from file:
     /storage/coda1/p-amedford6/0/shared/rich_project_chbe-medford/medford-share/data/pseudos_module/espresso/nninc/pbe/van/H.UPF
     MD5 check sum: b5ee9d7bfd3a09ee7748110bda690ff7
     Pseudo is Ultrasoft, Zval =  1.0
     Generated by new atomic code, or converted to UPF format
     Using radial grid of  615 points,  1 beta functions with:
                l(1) =   0
     Q(r) pseudized with  8 coefficients,  rinner =    0.800

     atomic species   valence    mass     pseudopotential
        Ti1           12.00    47.86700     Ti( 1.00)
        O1             6.00    15.99900     O ( 1.00)
        N1             5.00    14.00700     N ( 1.00)
        C1             4.00    12.01100     C ( 1.00)
        H1             1.00     1.00800     H ( 1.00)

     No symmetry found

   Cartesian axes

     site n.     atom                  positions (alat units)
         1           Ti1 tau(   1) = (   0.0004258   2.9801865   6.0000000  )
         2           Ti1 tau(   2) = (   3.2906075   1.4906267   6.0002472  )
         3           O1  tau(   3) = (   0.0006271   0.0005054   7.9858123  )
         4           O1  tau(   4) = (   3.2906025   0.0005020   7.3038282  )
         5           O1  tau(   5) = (   4.5942328   1.4918067   9.2879030  )
         6           O1  tau(   6) = (   1.9868534   1.4903216   9.2879459  )
         7           Ti1 tau(   7) = (   3.2907910   2.8959150   9.1758416  )
         8           Ti1 tau(   8) = (   0.0015273   1.4827037   9.2680791  )
         9           O1  tau(   9) = (   3.2989311   0.0219330  11.3020621  )
        10           O1  tau(  10) = (   0.0116148   5.9584955  10.6183126  )
        11           O1  tau(  11) = (   1.3029919   1.4976758  12.6257209  )
        12           O1  tau(  12) = (   5.3026591   1.4951023  12.6306759  )
        13           Ti1 tau(  13) = (   0.0286689   2.8598525  12.6759356  )
        14           Ti1 tau(  14) = (   3.3054201   1.5706400  12.4108957  )
        15           O1  tau(  15) = (   0.0066217   5.9386728  14.6456674  )
        16           O1  tau(  16) = (   3.2936494   5.9217248  13.9190535  )
        17           O1  tau(  17) = (   4.5783085   1.5227378  16.0725395  )
        18           O1  tau(  18) = (   2.0661487   1.5008106  16.0935948  )
        19           Ti1 tau(  19) = (   3.3004316   2.9577776  15.6622982  )
        20           Ti1 tau(  20) = (   6.5114840   1.4532315  15.8500040  )
        21           O1  tau(  21) = (   3.2904802   0.0005063   4.7018136  )
        22           O1  tau(  22) = (   0.0101108   5.9483577  17.1703567  )
        23           O1  tau(  23) = (   1.3043587   1.4918075   6.0039043  )
        24           O1  tau(  24) = (   5.2767064   1.4903225   6.0039473  )
        25           Ti1 tau(  25) = (   0.0000382   5.9609847   6.0000000  )
        26           Ti1 tau(  26) = (   3.2902200   4.4714249   6.0002472  )
        27           O1  tau(  27) = (   0.0002396   2.9813036   7.9858123  )
        28           O1  tau(  28) = (   3.2902150   2.9813002   7.3038282  )
        29           O1  tau(  29) = (   4.5938453   4.4726049   9.2879030  )
        30           O1  tau(  30) = (   1.9864658   4.4711199   9.2879459  )
        31           Ti1 tau(  31) = (   3.2891106   5.8743827   9.1763621  )
        32           Ti1 tau(  32) = (   0.0006254   4.4649316   9.2693709  )
        33           O1  tau(  33) = (   3.2985377   2.9527140  11.2683515  )
        34           O1  tau(  34) = (   0.0092240   2.9805883  10.6323155  )
        35           O1  tau(  35) = (   1.2869011   4.4751273  12.6337776  )
        36           O1  tau(  36) = (   5.3033013   4.4751711  12.6363117  )
        37           Ti1 tau(  37) = (   6.5677423   5.8343599  12.5653580  )
        38           Ti1 tau(  38) = (   3.2861748   4.6640272  12.6826305  )
        39           O1  tau(  39) = (   0.0268303   2.9326313  14.6927244  )
        40           O1  tau(  40) = (   3.2973518   2.9805258  13.8830516  )
        41           O1  tau(  41) = (   4.5656241   4.3944478  16.1024780  )
        42           O1  tau(  42) = (   2.0389263   4.3990843  16.1000718  )
        43           Ti1 tau(  43) = (   3.2183859   5.9292641  16.3327267  )
        44           Ti1 tau(  44) = (   6.5399727   4.6159235  16.0325440  )
        45           O1  tau(  45) = (   3.2900926   2.9813045   4.7018136  )
        46           O1  tau(  46) = (   1.3039711   4.4726057   6.0039043  )
        47           O1  tau(  47) = (   5.2763189   4.4711207   6.0039473  )
        48           N1  tau(  48) = (   0.1383159   2.7169024  18.7005470  )
        49           N1  tau(  49) = (   0.0454196   2.8879789  17.5111406  )
        50           C1  tau(  50) = (   0.1807782   3.8735959  19.6428767  )
        51           H1  tau(  51) = (   6.4938760   4.8136915  19.1652781  )
        52           H1  tau(  52) = (   6.0845921   3.6282151  20.4682347  )
        53           H1  tau(  53) = (   1.2016282   3.9139503  20.0277151  )
        54           O1  tau(  54) = (   3.2907091   5.9158944  18.1602194  )
        55           H1  tau(  55) = (   3.1351319   0.7410148  18.7017648  )

     number of k points=    10  Fermi-Dirac smearing, width (Ry)=  0.0073
                       cart. coord. in units 2pi/alat
        k(    1) = (   0.0000000   0.0000000   0.0000000), wk =   0.1250000
        k(    2) = (   0.0000000   0.0419351   0.0000000), wk =   0.2500000
        k(    3) = (   0.0000000  -0.0838702   0.0000000), wk =   0.1250000
        k(    4) = (   0.0379955   0.0000049   0.0000000), wk =   0.2500000
        k(    5) = (   0.0379955   0.0419400   0.0000000), wk =   0.2500000
        k(    6) = (   0.0379955  -0.0838652   0.0000000), wk =   0.2500000
        k(    7) = (   0.0379955  -0.0419301   0.0000000), wk =   0.2500000
        k(    8) = (  -0.0759910  -0.0000099   0.0000000), wk =   0.1250000
        k(    9) = (  -0.0759910   0.0419252   0.0000000), wk =   0.2500000
        k(   10) = (  -0.0759910  -0.0838800   0.0000000), wk =   0.1250000

     Initial potential from superposition of free atoms

     starting charge  385.99915, renormalised to  402.00000

     negative rho (up, down):  1.430E-02 0.000E+00

     %%%%%%%%%%%%%%%%%%%%%%%%%%%%%%%%%%%%%%%%%%%%%%%%%%%%%%%%%%%%%%%%%%%%%%%%
     %                                                                      %
     % You are using vdW-DF, which was implemented by the Thonhauser group. %
     % Please cite the following two papers that made this development      %
     % possible and the two reviews that describe the various versions:     %
     %                                                                      %
     %   T. Thonhauser et al., PRL 115, 136402 (2015).                      %
     %   T. Thonhauser et al., PRB 76, 125112 (2007).                       %
     %   K. Berland et al., Rep. Prog. Phys. 78, 066501 (2015).             %
     %   D.C. Langreth et al., J. Phys.: Condens. Matter 21, 084203 (2009). %
     %                                                                      %
     %                                                                      %
     % If you are calculating the stress with vdW-DF, please also cite:     %
     %                                                                      %
     %   R. Sabatini et al., J. Phys.: Condens. Matter 24, 424209 (2012).   %
     %                                                                      %
     %%%%%%%%%%%%%%%%%%%%%%%%%%%%%%%%%%%%%%%%%%%%%%%%%%%%%%%%%%%%%%%%%%%%%%%%

     Adding external electric field

     Computed dipole along edir(3) :
        Dipole              -12.0462 Ry au,        -30.6184 Debye
        Dipole field         -0.0227 Ry au,

        Potential amp.        2.1073 Ry
        Total length         46.3494 bohr

     Starting wfcs are  304 atomic wfcs
  @ DRIVER MODE: Message from server: STATUS
  @ DRIVER MODE: Message from server: POSDATA
  @ DRIVER MODE: Reading and sharing cell
  @ DRIVER MODE: Reading and sharing positions
  @ DRIVER MODE: Received positions

     Self-consistent Calculation

     iteration #  1     ecut=    29.40 Ry     beta= 0.05
     Davidson diagonalization with overlap
     c_bands:  5 eigenvalues not converged
     c_bands:  3 eigenvalues not converged
     c_bands:  5 eigenvalues not converged
     c_bands:  3 eigenvalues not converged
     c_bands:  3 eigenvalues not converged
     c_bands:  2 eigenvalues not converged
     c_bands:  5 eigenvalues not converged
     c_bands:  5 eigenvalues not converged
     ethr =  1.00E-05,  avg # of iterations = 21.5

[...]

     total energy              =   -2397.71557124 Ry
     estimated scf accuracy    <    6480.67121139 Ry

     iteration #  2     ecut=    29.40 Ry     beta= 0.05
     Davidson diagonalization with overlap
     ethr =  1.00E-02,  avg # of iterations = 22.5

[...]

     iteration # 50     ecut=    29.40 Ry     beta= 0.05
     Davidson diagonalization with overlap
     c_bands:  1 eigenvalues not converged
     ethr =  1.94E-06,  avg # of iterations =  6.2

[...]

     total energy              =   -2972.75301219 Ry
     estimated scf accuracy    <       0.00000010 Ry

     iteration # 80     ecut=    29.40 Ry     beta= 0.05
     Davidson diagonalization with overlap
     ethr =  2.58E-11,  avg # of iterations =  5.3

     negative rho (up, down):  1.492E-02 0.000E+00

     Adding external electric field

     Computed dipole along edir(3) :
        Dipole                0.6518 Ry au,          1.6568 Debye
        Dipole field          0.0012 Ry au,

        Potential amp.       -0.1140 Ry
        Total length         46.3494 bohr

     End of self-consistent calculation

          k = 0.0000 0.0000 0.0000 ( 18029 PWs)   bands (ev):

   -56.2029 -56.1691 -55.7888 -55.7552 -55.5841 -55.5485 -55.4986 -55.3496
   -55.3154 -55.3139 -55.1696 -55.1559 -55.0292 -55.0055 -54.9742 -54.9403
   -32.6533 -32.4953 -32.4684 -32.3614 -32.2775 -32.2688 -32.2684 -32.0326
   -32.0076 -31.9880 -31.9360 -31.9307 -31.9271 -31.8958 -31.8472 -31.8211
   -31.7934 -31.7709 -31.7692 -31.7267 -31.7115 -31.6988 -31.6858 -31.6565
   -31.6388 -31.6258 -31.5554 -31.5343 -31.5258 -31.5219 -31.4999 -31.4662
   -31.4359 -31.4032 -31.3708 -31.3643 -31.3589 -31.3074 -31.2860 -31.2838
   -31.2584 -31.2413 -31.2412 -31.2376 -31.2167 -31.1895 -31.1050 -30.9930
   -18.8082 -16.4963 -16.4429 -16.1617 -15.9549 -15.7800 -15.6960 -15.6838
   -15.6342 -15.5132 -15.5015 -15.3895 -15.3020 -15.2263 -15.1991 -15.1963
   -15.1024 -15.0584 -15.0156 -14.9910 -14.9791 -14.9714 -14.9398 -14.8323
   -14.8246 -14.7962 -14.6981 -14.6868 -14.5829 -14.2869 -14.2710 -13.4722
   -13.3600 -11.4310  -6.8860  -4.3513  -4.1588  -4.0058  -3.9829  -3.9236
    -3.7098  -3.4973  -3.4118  -3.2494  -3.1954  -3.1163  -2.9187  -2.9090
    -2.8544  -2.7837  -2.7087  -2.6497  -2.6031  -2.5862  -2.4914  -2.4532
    -2.4326  -2.4295  -2.3964  -2.3805  -2.2555  -2.2530  -2.2226  -2.1726
    -2.1133  -2.0987  -2.0315  -2.0231  -2.0059  -1.9582  -1.9229  -1.8760
    -1.7980  -1.7896  -1.6518  -1.6303  -1.6225  -1.5431  -1.5166  -1.5079
    -1.4577  -1.2970  -1.2261  -1.1788  -1.1750  -1.0373  -1.0232  -0.9861
    -0.9053  -0.8699  -0.7810  -0.7702  -0.7602  -0.7513  -0.6679  -0.6320
    -0.6162  -0.5903  -0.4077  -0.3791  -0.3170  -0.2650  -0.1655  -0.1217
    -0.1150  -0.1062  -0.0668  -0.0107   0.0108   0.0256   0.1243   0.1490
     0.2033   0.2717   0.3067   0.3791   0.3992   0.4015   0.4130   0.4681
     0.5601   0.6524   0.6952   0.7107   0.7792   0.7934   0.9302   0.9437
     1.0499   1.0915   1.1000   1.1609   1.2810   1.5639   1.5982   1.6375
     2.7564   3.0236   3.1509   3.3077   3.4554   3.5517   3.8436   3.8893
     3.9279   3.9519   4.0111

[...]

          k = 0.0380-0.0419 0.0000 ( 17876 PWs)   bands (ev):

[...]

          k =-0.0760-0.0000 0.0000 ( 17886 PWs)   bands (ev):

[...]

          k =-0.0760-0.0839 0.0000 ( 17948 PWs)   bands (ev):

   -56.1860 -56.1858 -55.7727 -55.7711 -55.5834 -55.5419 -55.5052 -55.3369
   -55.3265 -55.3159 -55.1676 -55.1540 -55.0311 -55.0073 -54.9573 -54.9571
   -32.4809 -32.4807 -32.4694 -32.4692 -32.3135 -32.3130 -32.0930 -32.0894
   -31.9668 -31.9640 -31.9614 -31.9605 -31.8710 -31.8478 -31.8222 -31.8213
   -31.7839 -31.7640 -31.7634 -31.7300 -31.7218 -31.6921 -31.6707 -31.6591
   -31.6058 -31.5991 -31.5757 -31.5592 -31.5433 -31.5430 -31.5273 -31.5069
   -31.4281 -31.4077 -31.3739 -31.3701 -31.3568 -31.3020 -31.2967 -31.2966
   -31.2907 -31.2505 -31.2467 -31.2417 -31.1858 -31.1853 -31.1476 -31.1472
   -18.8054 -16.4339 -15.9050 -15.8959 -15.7695 -15.7644 -15.5901 -15.5763
   -15.5762 -15.4924 -15.4532 -15.4300 -15.2874 -15.2739 -15.2136 -15.1884
   -15.1716 -15.1488 -15.1390 -15.1062 -15.0959 -15.0435 -14.9867 -14.9796
   -14.9206 -14.9130 -14.7556 -14.6935 -14.6475 -14.4998 -14.4061 -13.4633
   -13.4627 -11.4289  -6.8999  -4.2919  -4.1804  -3.9694  -3.9179  -3.0703
    -3.0217  -2.9191  -2.8819  -2.8009  -2.7885  -2.6777  -2.6611  -2.6147
    -2.5984  -2.5899  -2.5448  -2.4985  -2.4886  -2.4662  -2.4400  -2.4247
    -2.4124  -2.3747  -2.3250  -2.3086  -2.3032  -2.2779  -2.1756  -2.1454
    -2.1335  -2.1251  -2.0978  -2.0736  -2.0311  -1.9590  -1.9267  -1.8884
    -1.8765  -1.8067  -1.7450  -1.6957  -1.6719  -1.6114  -1.5559  -1.5309
    -1.4519  -1.4061  -1.2922  -1.2795  -1.2615  -1.1987  -1.1760  -1.1216
    -1.1020  -1.0401  -0.9906  -0.9674  -0.9629  -0.9489  -0.8815  -0.8204
    -0.7102  -0.6646  -0.6487  -0.6144  -0.6098  -0.5808  -0.5464  -0.5095
    -0.4093  -0.3956  -0.3835  -0.3316  -0.3220  -0.2478  -0.1721  -0.0566
     0.0642   0.1411   0.1510   0.1710   0.2105   0.2926   0.3707   0.4114
     0.4568   0.5167   0.5594   0.5989   0.6645   0.8064   0.8581   0.8802
     0.9646   1.0017   1.0724   1.1597   1.4382   1.4490   1.4535   1.4543
     2.8084   3.5726   3.5751   3.6044   3.6153   3.7296   3.8102   3.8279
     3.9526   4.0103   4.0674

     the Fermi energy is     2.9598 ev

!    total energy              =   -2972.75301981 Ry
     estimated scf accuracy    <       0.00000006 Ry
     smearing contrib. (-TS)   =      -0.01284054 Ry
     internal energy E=F+TS    =   -2972.74017928 Ry

     The total energy is F=E-TS. E is the sum of the following terms:
     one-electron contribution =  -23538.53390437 Ry
     hartree contribution      =   11862.87515492 Ry
     xc contribution           =    -493.06598140 Ry
     ewald contribution        =    9195.98374979 Ry
     electric field correction =       0.00080179 Ry

     convergence has been achieved in  80 iterations

     Forces acting on atoms (cartesian axes, Ry/au):

     atom    1 type  1   force =     0.00008154   -0.00036472    0.10679437
     atom    2 type  1   force =    -0.00012847    0.00016353   -0.16546308
     atom    3 type  2   force =     0.00006810   -0.00044777   -0.03889693
     atom    4 type  2   force =     0.00000207    0.00016201    0.03536513
     atom    5 type  2   force =    -0.00263233   -0.00317854   -0.00913202
     atom    6 type  2   force =     0.00445160   -0.00251393   -0.00941732
     atom    7 type  1   force =    -0.00001135    0.00132997    0.03449009
     atom    8 type  1   force =     0.00023711    0.01555707    0.06079933
     atom    9 type  2   force =    -0.00018123   -0.00045800    0.00006782
     atom   10 type  2   force =    -0.00255706    0.00087991   -0.04253927
     atom   11 type  2   force =    -0.00099678    0.00035683    0.00039010
     atom   12 type  2   force =     0.00049014    0.00025470    0.00028673
     atom   13 type  1   force =     0.00045286    0.00066934   -0.00043023
     atom   14 type  1   force =     0.00025956   -0.00016117    0.00040266
     atom   15 type  2   force =     0.00022732    0.00064407    0.00008350
     atom   16 type  2   force =    -0.00009522   -0.00038478   -0.00076917
     atom   17 type  2   force =    -0.00014890    0.00021463    0.00007345
     atom   18 type  2   force =     0.00017188   -0.00002044   -0.00014394
     atom   19 type  1   force =     0.00020473   -0.00094912    0.00010458
     atom   20 type  1   force =     0.00016823    0.00019095   -0.00039323
     atom   21 type  2   force =     0.00003225    0.00013409    0.10039827
     atom   22 type  2   force =     0.00015165    0.00068390   -0.00000738
     atom   23 type  2   force =    -0.07679458   -0.00000538   -0.03009770
     atom   24 type  2   force =     0.07666285    0.00046541   -0.03014289
     atom   25 type  1   force =    -0.00008455   -0.00045542    0.10717721
     atom   26 type  1   force =    -0.00020997   -0.00131305   -0.16551530
     atom   27 type  2   force =     0.00010036   -0.00031863   -0.03718908
     atom   28 type  2   force =     0.00004541   -0.00000464    0.03053104
     atom   29 type  2   force =    -0.00566997    0.00366008   -0.00700174
     atom   30 type  2   force =     0.00730459    0.00400896   -0.00727476
     atom   31 type  1   force =    -0.00011281   -0.00229440    0.02267860
     atom   32 type  1   force =     0.00032875   -0.01776285    0.06127056
     atom   33 type  2   force =    -0.00017126    0.00020590   -0.00016228
     atom   34 type  2   force =    -0.00143616    0.00001482   -0.05425945
     atom   35 type  2   force =    -0.00001520   -0.00017366   -0.00020669
     atom   36 type  2   force =    -0.00030570    0.00005435   -0.00005482
     atom   37 type  1   force =     0.00013020   -0.00005772    0.00055135
     atom   38 type  1   force =     0.00033856    0.00001038    0.00010301
     atom   39 type  2   force =    -0.00011948    0.00029153   -0.00034457
     atom   40 type  2   force =     0.00000905    0.00030589    0.00049108
     atom   41 type  2   force =    -0.00024694    0.00021247   -0.00010649
     atom   42 type  2   force =     0.00022342   -0.00000668   -0.00001574
     atom   43 type  1   force =     0.00021481    0.00047743    0.00035290
     atom   44 type  1   force =     0.00032195    0.00017729   -0.00038599
     atom   45 type  2   force =     0.00003393    0.00013386    0.10024104
     atom   46 type  2   force =    -0.07677076    0.00003406   -0.03008679
     atom   47 type  2   force =     0.07662886    0.00047116   -0.03010617
     atom   48 type  3   force =     0.00044434    0.00071703   -0.00138621
     atom   49 type  3   force =     0.00031034   -0.00046248   -0.00040364
     atom   50 type  4   force =    -0.00522218   -0.00131871    0.00437017
     atom   51 type  5   force =     0.00003390   -0.00051028   -0.00089587
     atom   52 type  5   force =     0.00551474    0.00111001   -0.00512384
     atom   53 type  5   force =    -0.00047325   -0.00015971    0.00037965
     atom   54 type  2   force =     0.00016907   -0.00017656    0.00169229
     atom   55 type  5   force =    -0.00143005   -0.00009300   -0.00114234

     Total force =     0.380895     Total SCF correction =     0.000496
  @ DRIVER MODE: Message from server: STATUS
  @ DRIVER MODE: Message from server: GETFORCE
  @ DRIVER MODE: Returning v,forces,stress,ensemble

     Writing output data file ./calc.save/
  @ DRIVER MODE: Message from server: EXIT
  @ DRIVE MODE: Exiting

     General routines

     Parallel routines

   This run was terminated on:   8:47: 0  23Sep2021

   JOB DONE.