     Program PWSCF v.6.7GPU starts on 24Aug2021 at  2:12: 9

     R & G space division:  proc/nbgrp/npool/nimage =       6
     Reading input from /storage/home/hcoda1/3/ntian30/research/carbon/CH2_vib/ads_slab/CH2N2H_a/out_0026/pw.inp
Warning: card &CELL ignored
Warning: card   CELL_DYNAMICS='IPI', ignored
Warning: card / ignored

     Current dimensions of program PWSCF are:
     Max number of different atomic species (ntypx) = 10
     Max number of k-points (npk) =  40000
     Max angular momentum in pseudopotentials (lmaxx) =  3
     Presently no symmetry can be used with electric field

     Message from routine cell_base_init:
     DEPRECATED: use true lattice parameter, not A to a.u. conversion factor

     IMPORTANT: XC functional enforced from input :
     Exchange-correlation= BEEF-VDW
                           (   1   4  43  14   2   0   0)
     Any further DFT definition will be discarded
     Please, verify this is what you really want

  @ DRIVER MODE: Connecting to
 qe_1139763_2632802.sched-torque.pace.gatech.edum4487f_e_scratch
  using UNIX socket
  @ DRIVER MODE: Message from server: STATUS
  @ DRIVER MODE: Message from server: INIT
  @ DRIVER MODE: Receiving replica           0          -1
  @ DRIVER MODE: Receiving encoded integer          25
  @ DRIVER MODE:  SCF:  T  FORCE:  T  STRESS:  F  VC:  F  ENSEMBLE:  F
  @ DRIVER MODE:  SCF:  T  FORCE:  T  STRESS:  F  VC:  F  ENSEMBLE:  F

     Using Slab Decomposition

     bravais-lattice index     =            0
     lattice parameter (alat)  =       1.8897  a.u.
     unit-cell volume          =    6658.9804 (a.u.)^3
     number of atoms/cell      =           53
     number of atomic types    =            5
     number of electrons       =       395.00
     number of Kohn-Sham states=          207
     kinetic-energy cutoff     =      29.3995  Ry
     charge density cutoff     =     293.9946  Ry
     scf convergence threshold =      7.3E-08
     mixing beta               =       0.0500
     number of iterations used =            8  plain     mixing
     Exchange-correlation= BEEF-VDW
                           (   1   4  43  14   2   0   0)

     celldm(1)=   1.889726  celldm(2)=   0.000000  celldm(3)=   0.000000
     celldm(4)=   0.000000  celldm(5)=   0.000000  celldm(6)=   0.000000

     crystal axes: (cart. coord. in units of alat)
               a(1) = (   6.579727   0.000000   0.000000 )
               a(2) = (  -0.000775   5.961596   0.000000 )
               a(3) = (   0.000000   0.000000  25.155947 )

     reciprocal axes: (cart. coord. in units 2 pi/alat)
               b(1) = (  0.151982  0.000020  0.000000 )
               b(2) = (  0.000000  0.167740  0.000000 )
               b(3) = (  0.000000  0.000000  0.039752 )

     PseudoPot. # 1 for Ti read from file:
     /storage/coda1/p-amedford6/0/shared/rich_project_chbe-medford/medford-share/data/pseudos_module/espresso/nninc/pbe/van/Ti.UPF
     MD5 check sum: 8e4df49b7f0d34bbd5052bf3f5ea0213
     Pseudo is Ultrasoft, Zval = 12.0
     Generated by new atomic code, or converted to UPF format
     Using radial grid of  851 points,  6 beta functions with:
                l(1) =   0
                l(2) =   0
                l(3) =   1
                l(4) =   1
                l(5) =   2
                l(6) =   2
     Q(r) pseudized with  8 coefficients,  rinner =    1.000   1.000   1.000
                                                       1.000   1.000

     PseudoPot. # 2 for O  read from file:
     /storage/coda1/p-amedford6/0/shared/rich_project_chbe-medford/medford-share/data/pseudos_module/espresso/nninc/pbe/van/O.UPF
     MD5 check sum: 78c19812648e8988a0fe644b0f25305e
     Pseudo is Ultrasoft, Zval =  6.0
     Generated by new atomic code, or converted to UPF format
     Using radial grid of  737 points,  4 beta functions with:
                l(1) =   0
                l(2) =   0
                l(3) =   1
                l(4) =   1
     Q(r) pseudized with  8 coefficients,  rinner =    0.800   0.800   0.800

     PseudoPot. # 3 for N  read from file:
     /storage/coda1/p-amedford6/0/shared/rich_project_chbe-medford/medford-share/data/pseudos_module/espresso/nninc/pbe/van/N.UPF
     MD5 check sum: 90d10febe142ad51ac9d5be1deb811c4
     Pseudo is Ultrasoft, Zval =  5.0
     Generated by new atomic code, or converted to UPF format
     Using radial grid of  729 points,  4 beta functions with:
                l(1) =   0
                l(2) =   0
                l(3) =   1
                l(4) =   1
     Q(r) pseudized with  8 coefficients,  rinner =    0.800   0.800   0.800

     PseudoPot. # 4 for C  read from file:
     /storage/coda1/p-amedford6/0/shared/rich_project_chbe-medford/medford-share/data/pseudos_module/espresso/nninc/pbe/van/C.UPF
     MD5 check sum: 1a69bf6b8db32088f5b2163dbdb77a27
     Pseudo is Ultrasoft, Zval =  4.0
     Generated by new atomic code, or converted to UPF format
     Using radial grid of  721 points,  4 beta functions with:
                l(1) =   0
                l(2) =   0
                l(3) =   1
                l(4) =   1
     Q(r) pseudized with  8 coefficients,  rinner =    0.800   0.800   0.800

     PseudoPot. # 5 for H  read from file:
     /storage/coda1/p-amedford6/0/shared/rich_project_chbe-medford/medford-share/data/pseudos_module/espresso/nninc/pbe/van/H.UPF
     MD5 check sum: b5ee9d7bfd3a09ee7748110bda690ff7
     Pseudo is Ultrasoft, Zval =  1.0
     Generated by new atomic code, or converted to UPF format
     Using radial grid of  615 points,  1 beta functions with:
                l(1) =   0
     Q(r) pseudized with  8 coefficients,  rinner =    0.800

     atomic species   valence    mass     pseudopotential
        Ti1           12.00    47.86700     Ti( 1.00)
        O1             6.00    15.99900     O ( 1.00)
        N1             5.00    14.00700     N ( 1.00)
        C1             4.00    12.01100     C ( 1.00)
        H1             1.00     1.00800     H ( 1.00)

     No symmetry found

   Cartesian axes

     site n.     atom                  positions (alat units)
         1           Ti1 tau(   1) = (   0.0004258   2.9801865   6.0000000  )
         2           Ti1 tau(   2) = (   3.2906075   1.4906267   6.0002472  )
         3           O1  tau(   3) = (   0.0006271   0.0005054   7.9858123  )
         4           O1  tau(   4) = (   3.2906025   0.0005020   7.3038282  )
         5           O1  tau(   5) = (   4.5942328   1.4918067   9.2879030  )
         6           O1  tau(   6) = (   1.9868534   1.4903216   9.2879459  )
         7           Ti1 tau(   7) = (   3.2907910   2.8959150   9.1758416  )
         8           Ti1 tau(   8) = (   0.0015273   1.4827037   9.2680791  )
         9           O1  tau(   9) = (   3.3007851   0.0027079  11.3193151  )
        10           O1  tau(  10) = (   0.0116148   5.9584955  10.6183126  )
        11           O1  tau(  11) = (   1.3147357   1.5019762  12.6210215  )
        12           O1  tau(  12) = (   5.3120411   1.4917641  12.6342566  )
        13           Ti1 tau(  13) = (   6.5359925   2.9538565  12.6086018  )
        14           Ti1 tau(  14) = (   3.2189980   1.4905645  12.4770757  )
        15           O1  tau(  15) = (   0.0426301   5.9606301  14.6312846  )
        16           O1  tau(  16) = (   3.3149351   0.0098317  13.8848037  )
        17           O1  tau(  17) = (   4.5523768   1.5206755  16.0744300  )
        18           O1  tau(  18) = (   2.0715852   1.4807026  15.9918588  )
        19           Ti1 tau(  19) = (   3.2935730   2.9941335  15.6827836  )
        20           Ti1 tau(  20) = (   0.0200723   1.3023755  15.9747514  )
        21           O1  tau(  21) = (   3.2904802   0.0005063   4.7018136  )
        22           O1  tau(  22) = (   6.5179923   0.0002674  17.1556216  )
        23           O1  tau(  23) = (   1.3043587   1.4918075   6.0039043  )
        24           O1  tau(  24) = (   5.2767064   1.4903225   6.0039473  )
        25           Ti1 tau(  25) = (   0.0000382   5.9609847   6.0000000  )
        26           Ti1 tau(  26) = (   3.2902200   4.4714249   6.0002472  )
        27           O1  tau(  27) = (   0.0002396   2.9813036   7.9858123  )
        28           O1  tau(  28) = (   3.2902150   2.9813002   7.3038282  )
        29           O1  tau(  29) = (   4.5938453   4.4726049   9.2879030  )
        30           O1  tau(  30) = (   1.9864658   4.4711199   9.2879459  )
        31           Ti1 tau(  31) = (   3.2891106   5.8743827   9.1763621  )
        32           Ti1 tau(  32) = (   0.0006254   4.4649316   9.2693709  )
        33           O1  tau(  33) = (   3.3053585   2.9833221  11.3185053  )
        34           O1  tau(  34) = (   0.0092240   2.9805883  10.6323155  )
        35           O1  tau(  35) = (   1.3157767   4.4721532  12.6203727  )
        36           O1  tau(  36) = (   5.3104355   4.4689601  12.6331991  )
        37           Ti1 tau(  37) = (   6.5385524   5.9338372  12.5465384  )
        38           Ti1 tau(  38) = (   3.2200853   4.4710709  12.4725482  )
        39           O1  tau(  39) = (   0.0068575   2.9964749  14.7765288  )
        40           O1  tau(  40) = (   3.3021705   2.9848394  13.8818356  )
        41           O1  tau(  41) = (   4.5334443   4.4765196  15.9883447  )
        42           O1  tau(  42) = (   2.0816803   4.4801587  16.0471567  )
        43           Ti1 tau(  43) = (   3.3155128   0.0116264  15.6901768  )
        44           Ti1 tau(  44) = (   6.5575601   4.4671909  15.9479714  )
        45           O1  tau(  45) = (   3.2900926   2.9813045   4.7018136  )
        46           O1  tau(  46) = (   1.3039711   4.4726057   6.0039043  )
        47           O1  tau(  47) = (   5.2763189   4.4711207   6.0039473  )
        48           N1  tau(  48) = (   0.4270260   2.3853988  17.9668900  )
        49           C1  tau(  49) = (   0.9469377   1.9340014  19.0583692  )
        50           H1  tau(  50) = (   1.0789317   2.5769861  19.9249762  )
        51           H1  tau(  51) = (   1.2326487   0.8959138  19.0941702  )
        52           N1  tau(  52) = (   0.0125679   3.6232397  17.7996529  )
        53           H1  tau(  53) = (   0.1020252   4.2324666  18.6151602  )

     number of k points=    10  Fermi-Dirac smearing, width (Ry)=  0.0073
                       cart. coord. in units 2pi/alat
        k(    1) = (   0.0000000   0.0000000   0.0000000), wk =   0.1250000
        k(    2) = (   0.0000000   0.0419351   0.0000000), wk =   0.2500000
        k(    3) = (   0.0000000  -0.0838702   0.0000000), wk =   0.1250000
        k(    4) = (   0.0379955   0.0000049   0.0000000), wk =   0.2500000
        k(    5) = (   0.0379955   0.0419400   0.0000000), wk =   0.2500000
        k(    6) = (   0.0379955  -0.0838652   0.0000000), wk =   0.2500000
        k(    7) = (   0.0379955  -0.0419301   0.0000000), wk =   0.2500000
        k(    8) = (  -0.0759910  -0.0000099   0.0000000), wk =   0.1250000
        k(    9) = (  -0.0759910   0.0419252   0.0000000), wk =   0.2500000
        k(   10) = (  -0.0759910  -0.0838800   0.0000000), wk =   0.1250000

     Initial potential from superposition of free atoms

     starting charge  378.99916, renormalised to  395.00000

     negative rho (up, down):  1.649E-02 0.000E+00

     %%%%%%%%%%%%%%%%%%%%%%%%%%%%%%%%%%%%%%%%%%%%%%%%%%%%%%%%%%%%%%%%%%%%%%%%
     %                                                                      %
     % You are using vdW-DF, which was implemented by the Thonhauser group. %
     % Please cite the following two papers that made this development      %
     % possible and the two reviews that describe the various versions:     %
     %                                                                      %
     %   T. Thonhauser et al., PRL 115, 136402 (2015).                      %
     %   T. Thonhauser et al., PRB 76, 125112 (2007).                       %
     %   K. Berland et al., Rep. Prog. Phys. 78, 066501 (2015).             %
     %   D.C. Langreth et al., J. Phys.: Condens. Matter 21, 084203 (2009). %
     %                                                                      %
     %                                                                      %
     % If you are calculating the stress with vdW-DF, please also cite:     %
     %                                                                      %
     %   R. Sabatini et al., J. Phys.: Condens. Matter 24, 424209 (2012).   %
     %                                                                      %
     %%%%%%%%%%%%%%%%%%%%%%%%%%%%%%%%%%%%%%%%%%%%%%%%%%%%%%%%%%%%%%%%%%%%%%%%

     Adding external electric field

     Computed dipole along edir(3) :
        Dipole               -8.3970 Ry au,        -21.3430 Debye
        Dipole field         -0.0158 Ry au,

        Potential amp.        1.4689 Ry
        Total length         46.3494 bohr

     Starting wfcs are  299 atomic wfcs
  @ DRIVER MODE: Message from server: STATUS
  @ DRIVER MODE: Message from server: POSDATA
  @ DRIVER MODE: Reading and sharing cell
  @ DRIVER MODE: Reading and sharing positions
  @ DRIVER MODE: Received positions

     Self-consistent Calculation

     iteration #  1     ecut=    29.40 Ry     beta= 0.05
     Davidson diagonalization with overlap
     c_bands:  2 eigenvalues not converged
     c_bands:  1 eigenvalues not converged
     c_bands:  2 eigenvalues not converged
     c_bands:  3 eigenvalues not converged
     c_bands:  3 eigenvalues not converged
     c_bands:  2 eigenvalues not converged
     c_bands:  1 eigenvalues not converged
     ethr =  1.00E-05,  avg # of iterations = 19.3

[...]

     total energy              =   -2613.93930447 Ry
     estimated scf accuracy    <    3601.29495820 Ry

[...]

     iteration #  3     ecut=    29.40 Ry     beta= 0.05
     Davidson diagonalization with overlap
     ethr =  1.00E-02,  avg # of iterations = 14.0

[...]

     iteration # 37     ecut=    29.40 Ry     beta= 0.05
     Davidson diagonalization with overlap
     c_bands:  2 eigenvalues not converged
     ethr =  4.81E-07,  avg # of iterations = 15.6

[...]

     total energy              =   -2939.13537153 Ry
     estimated scf accuracy    <       0.00000011 Ry

     iteration # 76     ecut=    29.40 Ry     beta= 0.05
     Davidson diagonalization with overlap
     ethr =  2.80E-11,  avg # of iterations =  5.8

     negative rho (up, down):  1.681E-02 0.000E+00

     Adding external electric field

     Computed dipole along edir(3) :
        Dipole                0.7883 Ry au,          2.0037 Debye
        Dipole field          0.0015 Ry au,

        Potential amp.       -0.1379 Ry
        Total length         46.3494 bohr

     End of self-consistent calculation

          k = 0.0000 0.0000 0.0000 ( 18029 PWs)   bands (ev):

   -55.8525 -55.8514 -55.8185 -55.8154 -55.7458 -55.7027 -55.6649 -55.6632
   -55.6299 -55.6292 -55.6245 -55.5908 -55.1896 -55.1437 -54.8281 -54.7940
   -32.4055 -32.3355 -32.2415 -32.1631 -32.1492 -32.1448 -32.1308 -32.1163
   -32.0956 -32.0824 -32.0295 -32.0116 -32.0050 -32.0032 -31.9931 -31.9896
   -31.9574 -31.9455 -31.9395 -31.9369 -31.9099 -31.9074 -31.8917 -31.8896
   -31.8587 -31.8545 -31.8523 -31.8512 -31.8260 -31.8110 -31.8034 -31.7932
   -31.7812 -31.7790 -31.7714 -31.7379 -31.7313 -31.4546 -31.4160 -31.3897
   -31.3363 -31.3021 -31.2349 -31.1473 -31.1248 -31.0520 -30.9655 -30.8541
   -17.9498 -16.6117 -16.3316 -16.0764 -16.0011 -15.9971 -15.8635 -15.7006
   -15.5879 -15.5210 -15.4406 -15.4109 -15.3889 -15.3535 -15.3471 -15.3093
   -15.3003 -15.2751 -15.2715 -15.2091 -15.2059 -15.1983 -15.1886 -15.1044
   -15.0467 -14.9952 -14.9876 -14.9141 -14.8803 -14.3525 -13.3300 -13.2136
   -12.1618  -7.8894  -5.3731  -4.5434  -3.9885  -3.8291  -3.7595  -3.7250
    -3.6483  -3.4887  -3.4099  -3.1299  -3.0811  -3.0236  -3.0141  -2.9776
    -2.9392  -2.7824  -2.7042  -2.6771  -2.6613  -2.6389  -2.6238  -2.6117
    -2.5970  -2.5764  -2.4965  -2.4144  -2.3704  -2.2939  -2.2799  -2.2454
    -2.1647  -2.1644  -2.1241  -2.1039  -2.0858  -2.0696  -2.0611  -2.0458
    -1.9050  -1.8499  -1.8347  -1.6537  -1.6353  -1.5881  -1.4624  -1.4554
    -1.3386  -1.3233  -1.2830  -1.2453  -1.1734  -1.1509  -1.0396  -0.9980
    -0.9367  -0.8890  -0.8751  -0.7985  -0.7337  -0.6958  -0.6826  -0.6171
    -0.6103  -0.5973  -0.4634  -0.3868  -0.3328  -0.2766  -0.2542  -0.1986
    -0.1588  -0.1158  -0.0278  -0.0011   0.0105   0.0682   0.0903   0.1159
     0.1275   0.1472   0.1757   0.2319   0.3500   0.3818   0.4579   0.4720
     0.5317   0.6667   0.8048   0.8720   0.9244   1.0204   1.1252   1.1947
     1.2680   1.3871   1.7649   1.8103   2.1456   3.2672   3.3692   3.4020
     3.4130   3.5161   3.6650   3.7264   3.7415   3.7829   3.8166

[...]

          k = 0.0380-0.0419 0.0000 ( 17876 PWs)   bands (ev):

[...]

          k =-0.0760-0.0000 0.0000 ( 17886 PWs)   bands (ev):

[...]

          k =-0.0760-0.0839 0.0000 ( 17948 PWs)   bands (ev):

   -55.8357 -55.8352 -55.8339 -55.8327 -55.7372 -55.7113 -55.6482 -55.6465
   -55.6464 -55.6455 -55.6083 -55.6071 -55.1817 -55.1515 -54.8111 -54.8109
   -32.2077 -32.2061 -32.1509 -32.1506 -32.1303 -32.1300 -32.0962 -32.0933
   -32.0842 -32.0676 -32.0018 -31.9992 -31.9937 -31.9919 -31.9699 -31.9623
   -31.9555 -31.9549 -31.9497 -31.9485 -31.9466 -31.9349 -31.9291 -31.9225
   -31.9104 -31.9054 -31.8605 -31.8501 -31.8484 -31.8476 -31.8393 -31.8385
   -31.8253 -31.8246 -31.8241 -31.8228 -31.6839 -31.4498 -31.4156 -31.4105
   -31.3936 -31.3373 -31.1376 -31.1375 -31.0477 -31.0476 -31.0088 -31.0087
   -17.9367 -16.0268 -16.0241 -15.8163 -15.7774 -15.7583 -15.7524 -15.6626
   -15.5769 -15.5434 -15.5404 -15.4542 -15.4273 -15.4113 -15.3951 -15.3896
   -15.3808 -15.3510 -15.3160 -15.3085 -15.2944 -15.2887 -15.2767 -15.2199
   -15.1686 -15.1644 -15.1419 -15.0697 -14.8310 -14.6926 -13.3155 -13.3153
   -12.1226  -7.8303  -5.4181  -4.6038  -3.3214  -3.3119  -3.0657  -3.0244
    -3.0213  -3.0005  -2.9507  -2.7895  -2.7770  -2.7575  -2.7500  -2.7051
    -2.6816  -2.6613  -2.6417  -2.6364  -2.6077  -2.5814  -2.5664  -2.5292
    -2.5224  -2.5135  -2.4820  -2.4710  -2.4244  -2.4193  -2.3986  -2.3712
    -2.3622  -2.3272  -2.1830  -2.1072  -2.0792  -1.9941  -1.9872  -1.9477
    -1.9252  -1.9034  -1.8973  -1.8682  -1.8307  -1.6944  -1.6119  -1.5501
    -1.5414  -1.4570  -1.4294  -1.3677  -1.2780  -1.2523  -1.2316  -1.1600
    -1.0842  -1.0459  -0.9951  -0.9815  -0.9143  -0.9052  -0.8475  -0.8109
    -0.8089  -0.7313  -0.6995  -0.6545  -0.6179  -0.6011  -0.5782  -0.5520
    -0.5357  -0.5136  -0.4387  -0.3527  -0.3010  -0.2410  -0.1473  -0.0198
     0.1023   0.2150   0.2370   0.2817   0.3334   0.3676   0.4615   0.4653
     0.5277   0.5519   0.5931   0.6709   0.6823   0.7067   0.8178   0.8489
     1.5592   1.5596   1.6302   1.6304   2.0863   3.5901   3.6189   3.6381
     3.6698   3.7993   3.8053   3.8158   3.8165   3.9518   3.9578

     the Fermi energy is     3.2771 ev

!    total energy              =   -2939.13538012 Ry
     estimated scf accuracy    <       0.00000004 Ry
     smearing contrib. (-TS)   =      -0.02098955 Ry
     internal energy E=F+TS    =   -2939.11439057 Ry

     The total energy is F=E-TS. E is the sum of the following terms:
     one-electron contribution =  -24492.48735862 Ry
     hartree contribution      =   12334.20139417 Ry
     xc contribution           =    -485.37530295 Ry
     ewald contribution        =    9704.54570404 Ry
     electric field correction =       0.00117280 Ry

     convergence has been achieved in  76 iterations

     Forces acting on atoms (cartesian axes, Ry/au):

     atom    1 type  1   force =     0.00007779   -0.00023882    0.09632714
     atom    2 type  1   force =     0.00006952   -0.00056747   -0.17516648
     atom    3 type  2   force =     0.00014981   -0.00013007   -0.02409750
     atom    4 type  2   force =    -0.00000268   -0.00124681    0.05222310
     atom    5 type  2   force =    -0.01056070   -0.00047496    0.00251023
     atom    6 type  2   force =     0.01237886    0.00022438    0.00288455
     atom    7 type  1   force =     0.00100179    0.00026181   -0.01174516
     atom    8 type  1   force =    -0.00013348    0.00775218    0.02263859
     atom    9 type  2   force =    -0.00019527   -0.00015419   -0.00027819
     atom   10 type  2   force =    -0.00262222    0.00115356   -0.01267027
     atom   11 type  2   force =     0.00006717   -0.00012276    0.00005371
     atom   12 type  2   force =     0.00009297    0.00018512   -0.00039060
     atom   13 type  1   force =     0.00043955   -0.00035329    0.00022132
     atom   14 type  1   force =     0.00015802    0.00032531   -0.00015627
     atom   15 type  2   force =    -0.00024274    0.00019782    0.00004289
     atom   16 type  2   force =     0.00012277   -0.00020903    0.00035603
     atom   17 type  2   force =     0.00056484    0.00004736    0.00044508
     atom   18 type  2   force =     0.00068050   -0.00015670    0.00029527
     atom   19 type  1   force =    -0.00137693    0.00003897    0.00018231
     atom   20 type  1   force =     0.00029371   -0.00049274   -0.00067741
     atom   21 type  2   force =     0.00004872    0.00000572    0.10310337
     atom   22 type  2   force =     0.00004461   -0.00033154    0.00001466
     atom   23 type  2   force =    -0.07162022   -0.00015106   -0.02765000
     atom   24 type  2   force =     0.07155866    0.00034851   -0.02771125
     atom   25 type  1   force =     0.00015557   -0.00023249    0.09585198
     atom   26 type  1   force =     0.00009708   -0.00040999   -0.17542707
     atom   27 type  2   force =     0.00017666   -0.00021407   -0.02292733
     atom   28 type  2   force =     0.00006374   -0.00101515    0.05218330
     atom   29 type  2   force =    -0.01086055    0.00048164    0.00243272
     atom   30 type  2   force =     0.01255564    0.00064145    0.00277998
     atom   31 type  1   force =     0.00086578    0.00347622   -0.01292945
     atom   32 type  1   force =     0.00002676   -0.00925180    0.02305797
     atom   33 type  2   force =    -0.00048289    0.00013605    0.00022277
     atom   34 type  2   force =    -0.00302576    0.00022829   -0.01289092
     atom   35 type  2   force =     0.00009035    0.00008961   -0.00008464
     atom   36 type  2   force =     0.00009597    0.00033665   -0.00039619
     atom   37 type  1   force =     0.00034147    0.00036821    0.00006482
     atom   38 type  1   force =     0.00002142   -0.00044711    0.00015069
     atom   39 type  2   force =     0.00013294    0.00039739    0.00054316
     atom   40 type  2   force =     0.00035868    0.00012724   -0.00038943
     atom   41 type  2   force =     0.00072874   -0.00015251    0.00063850
     atom   42 type  2   force =     0.00143249    0.00018121    0.00017586
     atom   43 type  1   force =    -0.00175228   -0.00044100   -0.00034992
     atom   44 type  1   force =     0.00102503   -0.00038250   -0.00032742
     atom   45 type  2   force =     0.00006132   -0.00003773    0.10308163
     atom   46 type  2   force =    -0.07164336   -0.00007172   -0.02766492
     atom   47 type  2   force =     0.07158627    0.00032460   -0.02773312
     atom   48 type  3   force =     0.00223094   -0.00356921    0.00055508
     atom   49 type  4   force =    -0.00075474   -0.00154981    0.00053580
     atom   50 type  5   force =    -0.00075304    0.00076803    0.00045519
     atom   51 type  5   force =     0.00009226   -0.00061704    0.00038754
     atom   52 type  3   force =    -0.00476782    0.00454386   -0.00483412
     atom   53 type  5   force =     0.00090631    0.00038033    0.00208242

     Total force =     0.365852     Total SCF correction =     0.000764
  @ DRIVER MODE: Message from server: STATUS
  @ DRIVER MODE: Message from server: GETFORCE
  @ DRIVER MODE: Returning v,forces,stress,ensemble

     Writing output data file ./calc.save/
  @ DRIVER MODE: Message from server: EXIT
  @ DRIVE MODE: Exiting

     General routines

     Parallel routines

   This run was terminated on:   2:44:29  24Aug2021

   JOB DONE.