     Program PWSCF v.6.7GPU starts on  3Aug2021 at 23:52: 5

     R & G space division:  proc/nbgrp/npool/nimage =      16
     Reading input from /storage/home/hcoda1/3/ntian30/research/carbon/02Aug_vib_paired/ads_slab/CH3NH3NH3_a/out_0028/pw.inp
Warning: card &CELL ignored
Warning: card   CELL_DYNAMICS='IPI', ignored
Warning: card / ignored

     Current dimensions of program PWSCF are:
     Max number of different atomic species (ntypx) = 10
     Max number of k-points (npk) =  40000
     Max angular momentum in pseudopotentials (lmaxx) =  3
     Presently no symmetry can be used with electric field

     Message from routine cell_base_init:
     DEPRECATED: use true lattice parameter, not A to a.u. conversion factor

     IMPORTANT: XC functional enforced from input :
     Exchange-correlation= BEEF-VDW
                           (   1   4  43  14   2   0   0)
     Any further DFT definition will be discarded
     Please, verify this is what you really want

  @ DRIVER MODE: Connecting to
 qe_1139763_2492108.sched-torque.pace.gatech.eduo1xbemdj_scratch
  using UNIX socket
  @ DRIVER MODE: Message from server: STATUS
  @ DRIVER MODE: Message from server: INIT
  @ DRIVER MODE: Receiving replica           0          -1
  @ DRIVER MODE: Receiving encoded integer          25
  @ DRIVER MODE:  SCF:  T  FORCE:  T  STRESS:  F  VC:  F  ENSEMBLE:  F
  @ DRIVER MODE:  SCF:  T  FORCE:  T  STRESS:  F  VC:  F  ENSEMBLE:  F

     Using Slab Decomposition

     bravais-lattice index     =            0
     lattice parameter (alat)  =       1.8897  a.u.
     unit-cell volume          =    6658.9804 (a.u.)^3
     number of atoms/cell      =           59
     number of atomic types    =            5
     number of electrons       =       401.00
     number of Kohn-Sham states=          210
     kinetic-energy cutoff     =      29.3995  Ry
     charge density cutoff     =     293.9946  Ry
     scf convergence threshold =      7.3E-08
     mixing beta               =       0.0500
     number of iterations used =            8  plain     mixing
     Exchange-correlation= BEEF-VDW
                           (   1   4  43  14   2   0   0)

     celldm(1)=   1.889726  celldm(2)=   0.000000  celldm(3)=   0.000000
     celldm(4)=   0.000000  celldm(5)=   0.000000  celldm(6)=   0.000000

     crystal axes: (cart. coord. in units of alat)
               a(1) = (   6.579727   0.000000   0.000000 )
               a(2) = (  -0.000775   5.961596   0.000000 )
               a(3) = (   0.000000   0.000000  25.155947 )

     reciprocal axes: (cart. coord. in units 2 pi/alat)
               b(1) = (  0.151982  0.000020  0.000000 )
               b(2) = (  0.000000  0.167740  0.000000 )
               b(3) = (  0.000000  0.000000  0.039752 )

     PseudoPot. # 1 for Ti read from file:
     /storage/coda1/p-amedford6/0/shared/rich_project_chbe-medford/medford-share/data/pseudos_module/espresso/nninc/pbe/van/Ti.UPF
     MD5 check sum: 8e4df49b7f0d34bbd5052bf3f5ea0213
     Pseudo is Ultrasoft, Zval = 12.0
     Generated by new atomic code, or converted to UPF format
     Using radial grid of  851 points,  6 beta functions with:
                l(1) =   0
                l(2) =   0
                l(3) =   1
                l(4) =   1
                l(5) =   2
                l(6) =   2
     Q(r) pseudized with  8 coefficients,  rinner =    1.000   1.000   1.000
                                                       1.000   1.000

     PseudoPot. # 2 for O  read from file:
     /storage/coda1/p-amedford6/0/shared/rich_project_chbe-medford/medford-share/data/pseudos_module/espresso/nninc/pbe/van/O.UPF
     MD5 check sum: 78c19812648e8988a0fe644b0f25305e
     Pseudo is Ultrasoft, Zval =  6.0
     Generated by new atomic code, or converted to UPF format
     Using radial grid of  737 points,  4 beta functions with:
                l(1) =   0
                l(2) =   0
                l(3) =   1
                l(4) =   1
     Q(r) pseudized with  8 coefficients,  rinner =    0.800   0.800   0.800

     PseudoPot. # 3 for C  read from file:
     /storage/coda1/p-amedford6/0/shared/rich_project_chbe-medford/medford-share/data/pseudos_module/espresso/nninc/pbe/van/C.UPF
     MD5 check sum: 1a69bf6b8db32088f5b2163dbdb77a27
     Pseudo is Ultrasoft, Zval =  4.0
     Generated by new atomic code, or converted to UPF format
     Using radial grid of  721 points,  4 beta functions with:
                l(1) =   0
                l(2) =   0
                l(3) =   1
                l(4) =   1
     Q(r) pseudized with  8 coefficients,  rinner =    0.800   0.800   0.800

     PseudoPot. # 4 for H  read from file:
     /storage/coda1/p-amedford6/0/shared/rich_project_chbe-medford/medford-share/data/pseudos_module/espresso/nninc/pbe/van/H.UPF
     MD5 check sum: b5ee9d7bfd3a09ee7748110bda690ff7
     Pseudo is Ultrasoft, Zval =  1.0
     Generated by new atomic code, or converted to UPF format
     Using radial grid of  615 points,  1 beta functions with:
                l(1) =   0
     Q(r) pseudized with  8 coefficients,  rinner =    0.800

     PseudoPot. # 5 for N  read from file:
     /storage/coda1/p-amedford6/0/shared/rich_project_chbe-medford/medford-share/data/pseudos_module/espresso/nninc/pbe/van/N.UPF
     MD5 check sum: 90d10febe142ad51ac9d5be1deb811c4
     Pseudo is Ultrasoft, Zval =  5.0
     Generated by new atomic code, or converted to UPF format
     Using radial grid of  729 points,  4 beta functions with:
                l(1) =   0
                l(2) =   0
                l(3) =   1
                l(4) =   1
     Q(r) pseudized with  8 coefficients,  rinner =    0.800   0.800   0.800

     atomic species   valence    mass     pseudopotential
        Ti1           12.00    47.86700     Ti( 1.00)
        O1             6.00    15.99900     O ( 1.00)
        C1             4.00    12.01100     C ( 1.00)
        H1             1.00     1.00800     H ( 1.00)
        N1             5.00    14.00700     N ( 1.00)

     No symmetry found

   Cartesian axes

     site n.     atom                  positions (alat units)
         1           Ti1 tau(   1) = (   0.0004258   2.9801865   6.0000000  )
         2           Ti1 tau(   2) = (   3.2906075   1.4906267   6.0002472  )
         3           O1  tau(   3) = (   0.0006271   0.0005054   7.9858123  )
         4           O1  tau(   4) = (   3.2906025   0.0005020   7.3038282  )
         5           O1  tau(   5) = (   4.5942328   1.4918067   9.2879030  )
         6           O1  tau(   6) = (   1.9868534   1.4903216   9.2879459  )
         7           Ti1 tau(   7) = (   3.2907910   2.8959150   9.1758416  )
         8           Ti1 tau(   8) = (   0.0015273   1.4827037   9.2680791  )
         9           O1  tau(   9) = (   3.3006472   5.9526327  11.3326431  )
        10           O1  tau(  10) = (   0.0116148   5.9584955  10.6183126  )
        11           O1  tau(  11) = (   1.2986171   1.4856602  12.6180737  )
        12           O1  tau(  12) = (   5.2832837   1.4869688  12.6136912  )
        13           Ti1 tau(  13) = (   0.0716907   2.9700601  12.6329626  )
        14           Ti1 tau(  14) = (   3.3921379   1.4824266  12.4783935  )
        15           O1  tau(  15) = (   0.0098915   0.0277142  14.6273811  )
        16           O1  tau(  16) = (   3.2980527   0.0034327  13.9214941  )
        17           O1  tau(  17) = (   4.5491770   1.5035522  16.0668258  )
        18           O1  tau(  18) = (   2.0540802   1.5011373  16.0688643  )
        19           Ti1 tau(  19) = (   3.2973159   2.9845483  15.7023000  )
        20           Ti1 tau(  20) = (   6.5754392   1.4353193  15.8239573  )
        21           O1  tau(  21) = (   3.2904802   0.0005063   4.7018136  )
        22           O1  tau(  22) = (   0.0048264   5.9571524  17.1588256  )
        23           O1  tau(  23) = (   1.3043587   1.4918075   6.0039043  )
        24           O1  tau(  24) = (   5.2767064   1.4903225   6.0039473  )
        25           Ti1 tau(  25) = (   0.0000382   5.9609847   6.0000000  )
        26           Ti1 tau(  26) = (   3.2902200   4.4714249   6.0002472  )
        27           O1  tau(  27) = (   0.0002396   2.9813036   7.9858123  )
        28           O1  tau(  28) = (   3.2902150   2.9813002   7.3038282  )
        29           O1  tau(  29) = (   4.5938453   4.4726049   9.2879030  )
        30           O1  tau(  30) = (   1.9864658   4.4711199   9.2879459  )
        31           Ti1 tau(  31) = (   3.2891106   5.8743827   9.1763621  )
        32           Ti1 tau(  32) = (   0.0006254   4.4649316   9.2693709  )
        33           O1  tau(  33) = (   3.3024910   2.9811918  11.3312481  )
        34           O1  tau(  34) = (   0.0092240   2.9805883  10.6323155  )
        35           O1  tau(  35) = (   1.2967186   4.4682081  12.6345707  )
        36           O1  tau(  36) = (   5.2888097   4.4704914  12.6297389  )
        37           Ti1 tau(  37) = (   0.0778612   5.9457776  12.5489457  )
        38           Ti1 tau(  38) = (   3.3928769   4.4622707  12.4864817  )
        39           O1  tau(  39) = (   0.0140712   2.9461142  14.6842920  )
        40           O1  tau(  40) = (   3.2991745   2.9776924  13.9065265  )
        41           O1  tau(  41) = (   4.5418516   4.4678888  16.0645815  )
        42           O1  tau(  42) = (   2.0574864   4.4691885  16.0636024  )
        43           Ti1 tau(  43) = (   3.2861726   0.0051191  15.7195692  )
        44           Ti1 tau(  44) = (   6.5761434   4.5285208  16.1368719  )
        45           O1  tau(  45) = (   3.2900926   2.9813045   4.7018136  )
        46           O1  tau(  46) = (   1.3039711   4.4726057   6.0039043  )
        47           O1  tau(  47) = (   5.2763189   4.4711207   6.0039473  )
        48           C1  tau(  48) = (   0.0175971   3.0427671  17.7901079  )
        49           H1  tau(  49) = (   5.6823727   3.3959267  18.2745233  )
        50           H1  tau(  50) = (   0.1100020   1.9921885  18.0671921  )
        51           H1  tau(  51) = (   0.8707680   3.5346006  18.2680029  )
        52           N1  tau(  52) = (   6.1495222   1.5591847  21.8098380  )
        53           H1  tau(  53) = (   6.1793786   2.4848735  21.3946126  )
        54           H1  tau(  54) = (   6.2462200   0.9013766  21.0428083  )
        55           H1  tau(  55) = (   5.2088654   1.4280024  22.1828036  )
        56           N1  tau(  56) = (   2.8510371   0.9663425  23.1735989  )
        57           H1  tau(  57) = (   2.8683653   5.9129692  23.1556095  )
        58           H1  tau(  58) = (   1.9074079   1.2374795  22.9038124  )
        59           H1  tau(  59) = (   2.9640119   1.2328864  24.1466208  )

     number of k points=    10  Fermi-Dirac smearing, width (Ry)=  0.0073
                       cart. coord. in units 2pi/alat
        k(    1) = (   0.0000000   0.0000000   0.0000000), wk =   0.1250000
        k(    2) = (   0.0000000   0.0419351   0.0000000), wk =   0.2500000
        k(    3) = (   0.0000000  -0.0838702   0.0000000), wk =   0.1250000
        k(    4) = (   0.0379955   0.0000049   0.0000000), wk =   0.2500000
        k(    5) = (   0.0379955   0.0419400   0.0000000), wk =   0.2500000
        k(    6) = (   0.0379955  -0.0838652   0.0000000), wk =   0.2500000
        k(    7) = (   0.0379955  -0.0419301   0.0000000), wk =   0.2500000
        k(    8) = (  -0.0759910  -0.0000099   0.0000000), wk =   0.1250000
        k(    9) = (  -0.0759910   0.0419252   0.0000000), wk =   0.2500000
        k(   10) = (  -0.0759910  -0.0838800   0.0000000), wk =   0.1250000

     Initial potential from superposition of free atoms

     starting charge  384.99911, renormalised to  401.00000

     negative rho (up, down):  4.921E-03 0.000E+00

     %%%%%%%%%%%%%%%%%%%%%%%%%%%%%%%%%%%%%%%%%%%%%%%%%%%%%%%%%%%%%%%%%%%%%%%%
     %                                                                      %
     % You are using vdW-DF, which was implemented by the Thonhauser group. %
     % Please cite the following two papers that made this development      %
     % possible and the two reviews that describe the various versions:     %
     %                                                                      %
     %   T. Thonhauser et al., PRL 115, 136402 (2015).                      %
     %   T. Thonhauser et al., PRB 76, 125112 (2007).                       %
     %   K. Berland et al., Rep. Prog. Phys. 78, 066501 (2015).             %
     %   D.C. Langreth et al., J. Phys.: Condens. Matter 21, 084203 (2009). %
     %                                                                      %
     %                                                                      %
     % If you are calculating the stress with vdW-DF, please also cite:     %
     %                                                                      %
     %   R. Sabatini et al., J. Phys.: Condens. Matter 24, 424209 (2012).   %
     %                                                                      %
     %%%%%%%%%%%%%%%%%%%%%%%%%%%%%%%%%%%%%%%%%%%%%%%%%%%%%%%%%%%%%%%%%%%%%%%%

     Adding external electric field

     Computed dipole along edir(3) :
        Dipole              -16.7053 Ry au,        -42.4606 Debye
        Dipole field         -0.0315 Ry au,

        Potential amp.        2.9223 Ry
        Total length         46.3494 bohr

     Starting wfcs are  305 atomic wfcs
  @ DRIVER MODE: Message from server: STATUS
  @ DRIVER MODE: Message from server: POSDATA
  @ DRIVER MODE: Reading and sharing cell
  @ DRIVER MODE: Reading and sharing positions
  @ DRIVER MODE: Received positions

     Self-consistent Calculation

     iteration #  1     ecut=    29.40 Ry     beta= 0.05
     Davidson diagonalization with overlap
     c_bands:  2 eigenvalues not converged
     c_bands:  3 eigenvalues not converged
     c_bands:  1 eigenvalues not converged
     c_bands:  4 eigenvalues not converged
     c_bands:  4 eigenvalues not converged
     c_bands:  2 eigenvalues not converged
     c_bands:  3 eigenvalues not converged
     c_bands:  3 eigenvalues not converged
     c_bands:  4 eigenvalues not converged
     ethr =  1.00E-05,  avg # of iterations = 19.8

[...]

     total energy              =   -2364.26833517 Ry
     estimated scf accuracy    <    6692.62896019 Ry

     iteration #  2     ecut=    29.40 Ry     beta= 0.05
     Davidson diagonalization with overlap
     ethr =  1.00E-02,  avg # of iterations = 22.3

[...]

     iteration # 59     ecut=    29.40 Ry     beta= 0.05
     Davidson diagonalization with overlap
     c_bands:  1 eigenvalues not converged
     ethr =  4.10E-08,  avg # of iterations = 12.1

[...]

     total energy              =   -2946.58249016 Ry
     estimated scf accuracy    <       0.00000010 Ry

     iteration # 76     ecut=    29.40 Ry     beta= 0.05
     Davidson diagonalization with overlap
     ethr =  2.49E-11,  avg # of iterations =  9.2

     negative rho (up, down):  6.996E-03 0.000E+00

     Adding external electric field

     Computed dipole along edir(3) :
        Dipole                0.3144 Ry au,          0.7991 Debye
        Dipole field          0.0006 Ry au,

        Potential amp.       -0.0550 Ry
        Total length         46.3494 bohr

     End of self-consistent calculation

          k = 0.0000 0.0000 0.0000 ( 18029 PWs)   bands (ev):

   -55.9977 -55.9878 -55.9636 -55.9507 -55.8782 -55.8537 -55.8328 -55.8147
   -55.8049 -55.7714 -55.7708 -55.7377 -55.6121 -55.3902 -54.9784 -54.9444
   -32.5416 -32.4802 -32.3527 -32.3326 -32.3042 -32.3018 -32.2904 -32.2618
   -32.2398 -32.2165 -32.2095 -32.1949 -32.1675 -32.1498 -32.1408 -32.1268
   -32.1105 -32.1020 -32.0871 -32.0586 -32.0550 -32.0547 -32.0268 -32.0076
   -32.0070 -32.0023 -31.9930 -31.9889 -31.9756 -31.9737 -31.9651 -31.9456
   -31.9433 -31.9369 -31.9242 -31.9105 -31.8833 -31.8654 -31.8279 -31.6670
   -31.6407 -31.5280 -31.3856 -31.2968 -31.2744 -31.2022 -31.1157 -31.0048
   -16.7428 -16.4734 -16.2470 -16.1510 -16.1239 -16.0047 -15.8394 -15.7173
   -15.6692 -15.5690 -15.5595 -15.5346 -15.5021 -15.4780 -15.4773 -15.4431
   -15.4402 -15.4209 -15.4093 -15.3594 -15.3362 -15.3245 -15.2092 -15.1755
   -15.1331 -15.1120 -15.0544 -15.0417 -14.6191 -13.4815 -13.3652 -13.0341
   -12.9259  -9.1027  -4.1160  -3.9592  -3.9048  -3.8599  -3.8292  -3.6122
    -3.5462  -3.2485  -3.1844  -3.1697  -3.1524  -3.1200  -3.1126  -3.0985
    -3.0305  -2.9868  -2.9016  -2.8361  -2.8269  -2.8092  -2.8062  -2.7768
    -2.7672  -2.7551  -2.7144  -2.6887  -2.6627  -2.6124  -2.5577  -2.4955
    -2.4121  -2.3941  -2.3124  -2.2901  -2.2839  -2.2410  -2.2266  -2.2186
    -2.1997  -2.1746  -2.1616  -1.9781  -1.9396  -1.8368  -1.7807  -1.7786
    -1.6073  -1.5073  -1.4655  -1.4545  -1.4253  -1.3915  -1.3848  -1.2987
    -1.1817  -1.1506  -1.1176  -1.0456  -1.0020  -0.9702  -0.8727  -0.8453
    -0.7623  -0.7599  -0.7377  -0.6497  -0.5961  -0.4825  -0.4346  -0.4245
    -0.3866  -0.3575  -0.2882  -0.2739  -0.2171  -0.1447  -0.1239  -0.0611
    -0.0306  -0.0165  -0.0053   0.0115   0.0379   0.0683   0.1723   0.2027
     0.2821   0.3498   0.4452   0.5427   0.6486   0.6574   0.7588   0.9680
     1.0418   1.1399   1.1983   1.2358   1.6150   1.6609   1.7479   2.1886
     3.1394   3.2234   3.2709   3.2817   3.3727   3.3891   3.5896   3.6139
     3.6349   3.6873

[...]

          k = 0.0380-0.0419 0.0000 ( 17876 PWs)   bands (ev):

[...]

          k =-0.0760-0.0000 0.0000 ( 17886 PWs)   bands (ev):

[...]

          k =-0.0760-0.0839 0.0000 ( 17948 PWs)   bands (ev):

   -55.9811 -55.9800 -55.9737 -55.9646 -55.8703 -55.8434 -55.8407 -55.8249
   -55.7889 -55.7863 -55.7559 -55.7534 -55.6109 -55.3912 -54.9614 -54.9613
   -32.3493 -32.3406 -32.2958 -32.2951 -32.2762 -32.2753 -32.2593 -32.2503
   -32.2039 -32.1922 -32.1860 -32.1833 -32.1454 -32.1295 -32.1278 -32.1186
   -32.1080 -32.1005 -32.1005 -32.0994 -32.0940 -32.0912 -32.0703 -32.0602
   -32.0413 -32.0383 -32.0289 -32.0118 -31.9889 -31.9880 -31.9865 -31.9849
   -31.9702 -31.9688 -31.9656 -31.9615 -31.9329 -31.8565 -31.8311 -31.6807
   -31.6689 -31.5724 -31.2871 -31.2871 -31.1984 -31.1983 -31.1590 -31.1589
   -16.1756 -16.1562 -15.9484 -15.9117 -15.9088 -15.8996 -15.7878 -15.7027
   -15.6928 -15.6921 -15.6096 -15.5975 -15.5813 -15.5371 -15.5329 -15.5235
   -15.5139 -15.5019 -15.4588 -15.4539 -15.4348 -15.4273 -15.3455 -15.3153
   -15.3115 -15.2730 -15.1409 -15.0095 -14.8608 -13.4671 -13.4668 -12.9919
   -12.9677  -9.1192  -3.4676  -3.4421  -3.1918  -3.1556  -3.1463  -3.1170
    -3.0822  -3.0627  -2.9814  -2.9436  -2.9217  -2.8955  -2.8807  -2.8760
    -2.8397  -2.8274  -2.8175  -2.8056  -2.7874  -2.7532  -2.7442  -2.7119
    -2.7009  -2.6808  -2.6676  -2.6521  -2.6274  -2.6148  -2.6085  -2.5772
    -2.5630  -2.5462  -2.5256  -2.5026  -2.4196  -2.2304  -2.2006  -2.1361
    -2.1269  -2.0965  -2.0849  -2.0613  -2.0469  -2.0285  -1.9816  -1.8288
    -1.7267  -1.7006  -1.6728  -1.5976  -1.5767  -1.5289  -1.4149  -1.3802
    -1.3528  -1.3270  -1.2769  -1.2259  -1.2085  -1.1854  -1.1165  -1.1029
    -1.0252  -0.9818  -0.9592  -0.9548  -0.8900  -0.8471  -0.7651  -0.7598
    -0.7157  -0.6801  -0.6327  -0.5925  -0.5878  -0.5007  -0.4751  -0.3585
    -0.3038  -0.0440   0.0056   0.0568   0.0831   0.1419   0.1923   0.2071
     0.3162   0.3205   0.3569   0.4006   0.4414   0.5288   0.5480   0.5829
     0.7290   1.3026   1.4063   1.4069   1.4803   1.4807   1.9537   1.9675
     3.4242   3.4396   3.4700   3.5024   3.6440   3.6477   3.6691   3.6709
     3.7969   3.8126

     the Fermi energy is     3.1370 ev

!    total energy              =   -2946.58250208 Ry
     estimated scf accuracy    <       0.00000006 Ry
     smearing contrib. (-TS)   =      -0.02179207 Ry
     internal energy E=F+TS    =   -2946.56071000 Ry

     The total energy is F=E-TS. E is the sum of the following terms:
     one-electron contribution =  -22199.62057032 Ry
     hartree contribution      =   11188.80772109 Ry
     xc contribution           =    -489.84602038 Ry
     ewald contribution        =    8554.09797310 Ry
     electric field correction =       0.00018652 Ry

     convergence has been achieved in  76 iterations

     Forces acting on atoms (cartesian axes, Ry/au):

     atom    1 type  1   force =     0.00012608   -0.00025622    0.09668384
     atom    2 type  1   force =    -0.00013922   -0.00054900   -0.17512833
     atom    3 type  2   force =    -0.00000252   -0.00003013   -0.02501517
     atom    4 type  2   force =     0.00007553   -0.00144307    0.05271447
     atom    5 type  2   force =    -0.01211023   -0.00083289    0.00340135
     atom    6 type  2   force =     0.01402173   -0.00015085    0.00291002
     atom    7 type  1   force =    -0.00081969    0.00068163   -0.01134889
     atom    8 type  1   force =     0.00025991    0.01148988    0.02859612
     atom    9 type  2   force =    -0.00010181    0.00008612   -0.00000179
     atom   10 type  2   force =    -0.00085014    0.00076986   -0.01660997
     atom   11 type  2   force =    -0.00030401    0.00010551    0.00002798
     atom   12 type  2   force =    -0.00002016    0.00021483    0.00005085
     atom   13 type  1   force =    -0.00011479   -0.00019953    0.00010202
     atom   14 type  1   force =    -0.00021553    0.00000999   -0.00004747
     atom   15 type  2   force =    -0.00003268    0.00005365   -0.00009306
     atom   16 type  2   force =    -0.00012268   -0.00004187    0.00001380
     atom   17 type  2   force =    -0.00003143   -0.00016311   -0.00002498
     atom   18 type  2   force =    -0.00019928   -0.00017987   -0.00002783
     atom   19 type  1   force =     0.00000933   -0.00020688    0.00013373
     atom   20 type  1   force =     0.00010123   -0.00039617   -0.00005162
     atom   21 type  2   force =     0.00006408    0.00000971    0.10295686
     atom   22 type  2   force =    -0.00010804   -0.00008662   -0.00043421
     atom   23 type  2   force =    -0.07138458   -0.00010263   -0.02771960
     atom   24 type  2   force =     0.07134387    0.00030327   -0.02775275
     atom   25 type  1   force =     0.00000963   -0.00030371    0.09646326
     atom   26 type  1   force =    -0.00017899   -0.00027412   -0.17530552
     atom   27 type  2   force =     0.00009216   -0.00019752   -0.02391726
     atom   28 type  2   force =     0.00011379   -0.00119932    0.05275302
     atom   29 type  2   force =    -0.01214134    0.00045797    0.00288545
     atom   30 type  2   force =     0.01397268    0.00080168    0.00243029
     atom   31 type  1   force =    -0.00076390    0.00310371   -0.01226755
     atom   32 type  1   force =     0.00027590   -0.01311718    0.02917435
     atom   33 type  2   force =    -0.00009857   -0.00003004    0.00005631
     atom   34 type  2   force =    -0.00028760    0.00077456   -0.02205930
     atom   35 type  2   force =    -0.00015713    0.00007712   -0.00004370
     atom   36 type  2   force =    -0.00011683    0.00019826   -0.00003207
     atom   37 type  1   force =    -0.00000915   -0.00031605   -0.00017221
     atom   38 type  1   force =     0.00002894   -0.00000060   -0.00000322
     atom   39 type  2   force =    -0.00008084    0.00013538    0.00026800
     atom   40 type  2   force =    -0.00013367   -0.00001197   -0.00008275
     atom   41 type  2   force =     0.00000142   -0.00021001    0.00000462
     atom   42 type  2   force =    -0.00019755   -0.00021459    0.00017626
     atom   43 type  1   force =     0.00031163   -0.00016085   -0.00017312
     atom   44 type  1   force =     0.00017710   -0.00023361    0.00018380
     atom   45 type  2   force =     0.00006370   -0.00007053    0.10294966
     atom   46 type  2   force =    -0.07139874   -0.00008937   -0.02772853
     atom   47 type  2   force =     0.07135562    0.00036862   -0.02773848
     atom   48 type  3   force =    -0.00018408    0.00038145    0.00005884
     atom   49 type  4   force =    -0.00006502    0.00041399    0.00021165
     atom   50 type  4   force =    -0.00008406    0.00014257    0.00005487
     atom   51 type  4   force =     0.00007446    0.00029017    0.00038169
     atom   52 type  5   force =    -0.00187204   -0.00272487    0.00180810
     atom   53 type  4   force =    -0.00130974    0.00038342    0.00008095
     atom   54 type  4   force =     0.00059293   -0.00029058   -0.00175443
     atom   55 type  4   force =     0.00233609    0.00278566   -0.00098201
     atom   56 type  5   force =     0.00074164    0.00030724   -0.00063710
     atom   57 type  4   force =     0.00000901   -0.00034433    0.00035087
     atom   58 type  4   force =    -0.00050401   -0.00003723   -0.00061101
     atom   59 type  4   force =    -0.00001839    0.00011903   -0.00011910

     Total force =     0.367774     Total SCF correction =     0.000614
  @ DRIVER MODE: Message from server: STATUS
  @ DRIVER MODE: Message from server: GETFORCE
  @ DRIVER MODE: Returning v,forces,stress,ensemble

     Writing output data file ./calc.save/
  @ DRIVER MODE: Message from server: EXIT
  @ DRIVE MODE: Exiting

     General routines

     Parallel routines

   This run was terminated on:   0:11:59   4Aug2021

   JOB DONE.