     Program PWSCF v.6.7GPU starts on 24Aug2021 at 13:35:32

     R & G space division:  proc/nbgrp/npool/nimage =      72
     Reading input from /storage/home/hcoda1/3/ntian30/research/carbon/CH2_vib/ads_slab/CH2NH_a/out_0011/pw.inp
Warning: card &CELL ignored
Warning: card   CELL_DYNAMICS='IPI', ignored
Warning: card / ignored

     Current dimensions of program PWSCF are:
     Max number of different atomic species (ntypx) = 10
     Max number of k-points (npk) =  40000
     Max angular momentum in pseudopotentials (lmaxx) =  3
     Presently no symmetry can be used with electric field

     Message from routine cell_base_init:
     DEPRECATED: use true lattice parameter, not A to a.u. conversion factor

     IMPORTANT: XC functional enforced from input :
     Exchange-correlation= BEEF-VDW
                           (   1   4  43  14   2   0   0)
     Any further DFT definition will be discarded
     Please, verify this is what you really want

  @ DRIVER MODE: Connecting to
 qe_1139763_2641438.sched-torque.pace.gatech.edumz0qaekl_scratch
  using UNIX socket
  @ DRIVER MODE: Message from server: STATUS
  @ DRIVER MODE: Message from server: INIT
  @ DRIVER MODE: Receiving replica           0          -1
  @ DRIVER MODE: Receiving encoded integer          25
  @ DRIVER MODE:  SCF:  T  FORCE:  T  STRESS:  F  VC:  F  ENSEMBLE:  F
  @ DRIVER MODE:  SCF:  T  FORCE:  T  STRESS:  F  VC:  F  ENSEMBLE:  F

     Using Slab Decomposition

     bravais-lattice index     =            0
     lattice parameter (alat)  =       1.8897  a.u.
     unit-cell volume          =    6658.9804 (a.u.)^3
     number of atoms/cell      =           52
     number of atomic types    =            5
     number of electrons       =       390.00
     number of Kohn-Sham states=          205
     kinetic-energy cutoff     =      29.3995  Ry
     charge density cutoff     =     293.9946  Ry
     scf convergence threshold =      7.3E-08
     mixing beta               =       0.0500
     number of iterations used =            8  plain     mixing
     Exchange-correlation= BEEF-VDW
                           (   1   4  43  14   2   0   0)

     celldm(1)=   1.889726  celldm(2)=   0.000000  celldm(3)=   0.000000
     celldm(4)=   0.000000  celldm(5)=   0.000000  celldm(6)=   0.000000

     crystal axes: (cart. coord. in units of alat)
               a(1) = (   6.579727   0.000000   0.000000 )
               a(2) = (  -0.000775   5.961596   0.000000 )
               a(3) = (   0.000000   0.000000  25.155947 )

     reciprocal axes: (cart. coord. in units 2 pi/alat)
               b(1) = (  0.151982  0.000020  0.000000 )
               b(2) = (  0.000000  0.167740  0.000000 )
               b(3) = (  0.000000  0.000000  0.039752 )

     PseudoPot. # 1 for Ti read from file:
     /storage/coda1/p-amedford6/0/shared/rich_project_chbe-medford/medford-share/data/pseudos_module/espresso/nninc/pbe/van/Ti.UPF
     MD5 check sum: 8e4df49b7f0d34bbd5052bf3f5ea0213
     Pseudo is Ultrasoft, Zval = 12.0
     Generated by new atomic code, or converted to UPF format
     Using radial grid of  851 points,  6 beta functions with:
                l(1) =   0
                l(2) =   0
                l(3) =   1
                l(4) =   1
                l(5) =   2
                l(6) =   2
     Q(r) pseudized with  8 coefficients,  rinner =    1.000   1.000   1.000
                                                       1.000   1.000

     PseudoPot. # 2 for O  read from file:
     /storage/coda1/p-amedford6/0/shared/rich_project_chbe-medford/medford-share/data/pseudos_module/espresso/nninc/pbe/van/O.UPF
     MD5 check sum: 78c19812648e8988a0fe644b0f25305e
     Pseudo is Ultrasoft, Zval =  6.0
     Generated by new atomic code, or converted to UPF format
     Using radial grid of  737 points,  4 beta functions with:
                l(1) =   0
                l(2) =   0
                l(3) =   1
                l(4) =   1
     Q(r) pseudized with  8 coefficients,  rinner =    0.800   0.800   0.800

     PseudoPot. # 3 for N  read from file:
     /storage/coda1/p-amedford6/0/shared/rich_project_chbe-medford/medford-share/data/pseudos_module/espresso/nninc/pbe/van/N.UPF
     MD5 check sum: 90d10febe142ad51ac9d5be1deb811c4
     Pseudo is Ultrasoft, Zval =  5.0
     Generated by new atomic code, or converted to UPF format
     Using radial grid of  729 points,  4 beta functions with:
                l(1) =   0
                l(2) =   0
                l(3) =   1
                l(4) =   1
     Q(r) pseudized with  8 coefficients,  rinner =    0.800   0.800   0.800

     PseudoPot. # 4 for C  read from file:
     /storage/coda1/p-amedford6/0/shared/rich_project_chbe-medford/medford-share/data/pseudos_module/espresso/nninc/pbe/van/C.UPF
     MD5 check sum: 1a69bf6b8db32088f5b2163dbdb77a27
     Pseudo is Ultrasoft, Zval =  4.0
     Generated by new atomic code, or converted to UPF format
     Using radial grid of  721 points,  4 beta functions with:
                l(1) =   0
                l(2) =   0
                l(3) =   1
                l(4) =   1
     Q(r) pseudized with  8 coefficients,  rinner =    0.800   0.800   0.800

     PseudoPot. # 5 for H  read from file:
     /storage/coda1/p-amedford6/0/shared/rich_project_chbe-medford/medford-share/data/pseudos_module/espresso/nninc/pbe/van/H.UPF
     MD5 check sum: b5ee9d7bfd3a09ee7748110bda690ff7
     Pseudo is Ultrasoft, Zval =  1.0
     Generated by new atomic code, or converted to UPF format
     Using radial grid of  615 points,  1 beta functions with:
                l(1) =   0
     Q(r) pseudized with  8 coefficients,  rinner =    0.800

     atomic species   valence    mass     pseudopotential
        Ti1           12.00    47.86700     Ti( 1.00)
        O1             6.00    15.99900     O ( 1.00)
        N1             5.00    14.00700     N ( 1.00)
        C1             4.00    12.01100     C ( 1.00)
        H1             1.00     1.00800     H ( 1.00)

     No symmetry found

   Cartesian axes

     site n.     atom                  positions (alat units)
         1           Ti1 tau(   1) = (   0.0004258   2.9801865   6.0000000  )
         2           Ti1 tau(   2) = (   3.2906075   1.4906267   6.0002472  )
         3           O1  tau(   3) = (   0.0006271   0.0005054   7.9858123  )
         4           O1  tau(   4) = (   3.2906025   0.0005020   7.3038282  )
         5           O1  tau(   5) = (   4.5942328   1.4918067   9.2879030  )
         6           O1  tau(   6) = (   1.9868534   1.4903216   9.2879459  )
         7           Ti1 tau(   7) = (   3.2907910   2.8959150   9.1758416  )
         8           Ti1 tau(   8) = (   0.0015273   1.4827037   9.2680791  )
         9           O1  tau(   9) = (   3.2859541   5.9290403  11.3715426  )
        10           O1  tau(  10) = (   0.0116148   5.9584955  10.6183126  )
        11           O1  tau(  11) = (   1.2917987   1.4688796  12.6526629  )
        12           O1  tau(  12) = (   5.2888266   1.4686376  12.6403033  )
        13           Ti1 tau(  13) = (   0.0074927   2.9495069  12.5376589  )
        14           Ti1 tau(  14) = (   3.2957121   1.4606513  12.5174744  )
        15           O1  tau(  15) = (   6.5702453   0.0264740  14.6787910  )
        16           O1  tau(  16) = (   3.3001739   5.9406727  13.9930656  )
        17           O1  tau(  17) = (   4.5367710   1.4643441  16.2106543  )
        18           O1  tau(  18) = (   2.0349547   1.4576396  16.1973481  )
        19           Ti1 tau(  19) = (   3.2821410   2.9383233  15.7467721  )
        20           Ti1 tau(  20) = (   6.5624771   1.3975196  16.0657228  )
        21           O1  tau(  21) = (   3.2904802   0.0005063   4.7018136  )
        22           O1  tau(  22) = (   0.0049924   5.8117904  17.2112648  )
        23           O1  tau(  23) = (   1.3043587   1.4918075   6.0039043  )
        24           O1  tau(  24) = (   5.2767064   1.4903225   6.0039473  )
        25           Ti1 tau(  25) = (   0.0000382   5.9609847   6.0000000  )
        26           Ti1 tau(  26) = (   3.2902200   4.4714249   6.0002472  )
        27           O1  tau(  27) = (   0.0002396   2.9813036   7.9858123  )
        28           O1  tau(  28) = (   3.2902150   2.9813002   7.3038282  )
        29           O1  tau(  29) = (   4.5938453   4.4726049   9.2879030  )
        30           O1  tau(  30) = (   1.9864658   4.4711199   9.2879459  )
        31           Ti1 tau(  31) = (   3.2891106   5.8743827   9.1763621  )
        32           Ti1 tau(  32) = (   0.0006254   4.4649316   9.2693709  )
        33           O1  tau(  33) = (   3.2878059   2.9597088  11.3652031  )
        34           O1  tau(  34) = (   0.0092240   2.9805883  10.6323155  )
        35           O1  tau(  35) = (   1.2887225   4.4431869  12.6829221  )
        36           O1  tau(  36) = (   5.2901277   4.4428847  12.6690855  )
        37           Ti1 tau(  37) = (   0.0035388   5.9380168  12.5099366  )
        38           Ti1 tau(  38) = (   3.2962120   4.4389810  12.5267566  )
        39           O1  tau(  39) = (   6.5655450   2.9014274  14.9049457  )
        40           O1  tau(  40) = (   3.2937888   2.9365130  13.9572806  )
        41           O1  tau(  41) = (   4.5374039   4.4072578  16.1608974  )
        42           O1  tau(  42) = (   2.0345115   4.4188705  16.1151926  )
        43           Ti1 tau(  43) = (   3.2925710   5.9161036  15.7896908  )
        44           Ti1 tau(  44) = (   0.0121651   4.6006060  15.8502786  )
        45           O1  tau(  45) = (   3.2900926   2.9813045   4.7018136  )
        46           O1  tau(  46) = (   1.3039711   4.4726057   6.0039043  )
        47           O1  tau(  47) = (   5.2763189   4.4711207   6.0039473  )
        48           N1  tau(  48) = (   6.5581919   2.6818180  17.9522317  )
        49           C1  tau(  49) = (   0.8403426   2.5546117  18.8865076  )
        50           H1  tau(  50) = (   0.6793733   2.9585088  19.8916666  )
        51           H1  tau(  51) = (   1.7584391   2.0155774  18.6961775  )
        52           H1  tau(  52) = (   5.7198555   3.1867788  18.2393814  )

     number of k points=    10  Fermi-Dirac smearing, width (Ry)=  0.0073
                       cart. coord. in units 2pi/alat
        k(    1) = (   0.0000000   0.0000000   0.0000000), wk =   0.1250000
        k(    2) = (   0.0000000   0.0419351   0.0000000), wk =   0.2500000
        k(    3) = (   0.0000000  -0.0838702   0.0000000), wk =   0.1250000
        k(    4) = (   0.0379955   0.0000049   0.0000000), wk =   0.2500000
        k(    5) = (   0.0379955   0.0419400   0.0000000), wk =   0.2500000
        k(    6) = (   0.0379955  -0.0838652   0.0000000), wk =   0.2500000
        k(    7) = (   0.0379955  -0.0419301   0.0000000), wk =   0.2500000
        k(    8) = (  -0.0759910  -0.0000099   0.0000000), wk =   0.1250000
        k(    9) = (  -0.0759910   0.0419252   0.0000000), wk =   0.2500000
        k(   10) = (  -0.0759910  -0.0838800   0.0000000), wk =   0.1250000

     Initial potential from superposition of free atoms

     starting charge  373.99917, renormalised to  390.00000

     negative rho (up, down):  1.700E-02 0.000E+00

     %%%%%%%%%%%%%%%%%%%%%%%%%%%%%%%%%%%%%%%%%%%%%%%%%%%%%%%%%%%%%%%%%%%%%%%%
     %                                                                      %
     % You are using vdW-DF, which was implemented by the Thonhauser group. %
     % Please cite the following two papers that made this development      %
     % possible and the two reviews that describe the various versions:     %
     %                                                                      %
     %   T. Thonhauser et al., PRL 115, 136402 (2015).                      %
     %   T. Thonhauser et al., PRB 76, 125112 (2007).                       %
     %   K. Berland et al., Rep. Prog. Phys. 78, 066501 (2015).             %
     %   D.C. Langreth et al., J. Phys.: Condens. Matter 21, 084203 (2009). %
     %                                                                      %
     %                                                                      %
     % If you are calculating the stress with vdW-DF, please also cite:     %
     %                                                                      %
     %   R. Sabatini et al., J. Phys.: Condens. Matter 24, 424209 (2012).   %
     %                                                                      %
     %%%%%%%%%%%%%%%%%%%%%%%%%%%%%%%%%%%%%%%%%%%%%%%%%%%%%%%%%%%%%%%%%%%%%%%%

     Adding external electric field

     Computed dipole along edir(3) :
        Dipole               -6.0448 Ry au,        -15.3643 Debye
        Dipole field         -0.0114 Ry au,

        Potential amp.        1.0574 Ry
        Total length         46.3494 bohr

     Starting wfcs are  295 atomic wfcs
  @ DRIVER MODE: Message from server: STATUS
  @ DRIVER MODE: Message from server: POSDATA
  @ DRIVER MODE: Reading and sharing cell
  @ DRIVER MODE: Reading and sharing positions
  @ DRIVER MODE: Received positions

     Self-consistent Calculation

     iteration #  1     ecut=    29.40 Ry     beta= 0.05
     Davidson diagonalization with overlap
     c_bands:  1 eigenvalues not converged
     c_bands:  1 eigenvalues not converged
     ethr =  1.00E-05,  avg # of iterations = 16.8

[...]

     total energy              =   -2758.77225793 Ry
     estimated scf accuracy    <    1760.33422108 Ry

     iteration #  2     ecut=    29.40 Ry     beta= 0.05
     Davidson diagonalization with overlap
     ethr =  1.00E-02,  avg # of iterations = 18.4

[...]

     iteration # 49     ecut=    29.40 Ry     beta= 0.05
     Davidson diagonalization with overlap
     c_bands:  1 eigenvalues not converged
     ethr =  2.45E-08,  avg # of iterations = 14.9

[...]

     total energy              =   -2919.11564101 Ry
     estimated scf accuracy    <       0.00000008 Ry

     iteration # 64     ecut=    29.40 Ry     beta= 0.05
     Davidson diagonalization with overlap
     ethr =  2.03E-11,  avg # of iterations = 12.0

     negative rho (up, down):  1.722E-02 0.000E+00

     Adding external electric field

     Computed dipole along edir(3) :
        Dipole                1.2700 Ry au,          3.2281 Debye
        Dipole field          0.0024 Ry au,

        Potential amp.       -0.2222 Ry
        Total length         46.3494 bohr

     End of self-consistent calculation

          k = 0.0000 0.0000 0.0000 ( 18029 PWs)   bands (ev):

   -55.5383 -55.5016 -55.5002 -55.4660 -55.4309 -55.4138 -55.3763 -55.3536
   -55.3535 -55.3284 -55.3190 -55.3088 -55.2950 -55.1278 -54.5210 -54.4869
   -32.1050 -31.9911 -31.9014 -31.8600 -31.8536 -31.8428 -31.8357 -31.8303
   -31.7898 -31.7786 -31.7466 -31.7451 -31.7448 -31.7092 -31.6916 -31.6737
   -31.6692 -31.6608 -31.6545 -31.6506 -31.6126 -31.6093 -31.5939 -31.5837
   -31.5572 -31.5566 -31.5555 -31.5454 -31.5406 -31.5363 -31.5250 -31.5167
   -31.5087 -31.5068 -31.5024 -31.4752 -31.4678 -31.4659 -31.4570 -31.4382
   -31.3509 -31.2690 -30.9300 -30.8368 -30.8146 -30.7464 -30.6597 -30.5488
   -16.6313 -16.3372 -16.0696 -15.8964 -15.7889 -15.7276 -15.5915 -15.5171
   -15.4380 -15.3350 -15.2447 -15.1782 -15.1641 -15.1449 -15.1384 -15.0754
   -15.0717 -15.0520 -15.0304 -15.0289 -14.9751 -14.9669 -14.9352 -14.9232
   -14.9121 -14.8433 -14.7561 -14.6869 -14.6265 -14.2067 -13.0238 -12.9066
    -9.3136  -6.2858  -4.7433  -3.6932  -3.5398  -3.4462  -3.4342  -3.4164
    -3.2643  -3.1271  -2.9230  -2.8427  -2.7947  -2.7461  -2.7167  -2.6995
    -2.6355  -2.5134  -2.4423  -2.3962  -2.3743  -2.3611  -2.3450  -2.3174
    -2.3076  -2.2721  -2.2360  -2.2019  -2.0887  -1.9994  -1.9615  -1.9232
    -1.8672  -1.8583  -1.8295  -1.8223  -1.8156  -1.7968  -1.7570  -1.7491
    -1.6990  -1.5636  -1.5465  -1.4293  -1.3916  -1.2800  -1.1774  -1.1727
    -1.0863  -1.0833  -1.0142  -0.9647  -0.9322  -0.9214  -0.8709  -0.8261
    -0.7336  -0.6418  -0.5803  -0.5386  -0.5033  -0.4747  -0.4091  -0.3144
    -0.3100  -0.2988  -0.2010  -0.1189  -0.0953  -0.0448  -0.0104   0.0330
     0.0494   0.1589   0.2008   0.2442   0.2604   0.3389   0.3625   0.4184
     0.4233   0.4587   0.4668   0.5307   0.5810   0.6007   0.6457   0.6691
     0.8267   1.0804   1.0859   1.1295   1.4105   1.4406   1.5014   1.6864
     2.0768   2.1246   3.5612   3.6336   3.6988   3.7115   3.7516   3.7980
     3.9685   4.0459   4.0623   4.0667   4.0980

[...]

          k = 0.0380-0.0419 0.0000 ( 17876 PWs)   bands (ev):

[...]

          k =-0.0760-0.0000 0.0000 ( 17886 PWs)   bands (ev):

[...]

          k =-0.0760-0.0839 0.0000 ( 17948 PWs)   bands (ev):

   -55.5237 -55.5160 -55.4831 -55.4829 -55.4269 -55.4027 -55.3874 -55.3574
   -55.3374 -55.3346 -55.3121 -55.3117 -55.3071 -55.1294 -54.5039 -54.5039
   -31.9114 -31.9063 -31.8229 -31.8064 -31.8061 -31.7979 -31.7753 -31.7750
   -31.7556 -31.7451 -31.7379 -31.7361 -31.7309 -31.6930 -31.6710 -31.6676
   -31.6635 -31.6591 -31.6555 -31.6505 -31.6461 -31.6271 -31.6128 -31.6120
   -31.6026 -31.6025 -31.5997 -31.5826 -31.5702 -31.5671 -31.5575 -31.5507
   -31.5490 -31.5479 -31.5372 -31.5365 -31.5080 -31.4917 -31.4913 -31.4835
   -31.3559 -31.3504 -30.8273 -30.8273 -30.7426 -30.7425 -30.7031 -30.7031
   -16.6129 -15.7734 -15.7419 -15.7239 -15.5195 -15.5116 -15.5040 -15.4863
   -15.3264 -15.3144 -15.2874 -15.2695 -15.2372 -15.2343 -15.2069 -15.1742
   -15.1178 -15.1135 -15.1051 -15.1029 -15.0425 -15.0383 -15.0180 -14.9894
   -14.9874 -14.9813 -14.8865 -14.8846 -14.7166 -14.5279 -13.0081 -13.0081
    -9.3180  -6.2810  -4.7267  -3.0482  -2.9870  -2.9274  -2.7296  -2.7261
    -2.6949  -2.6145  -2.5598  -2.5430  -2.5052  -2.4880  -2.4774  -2.4260
    -2.3828  -2.3738  -2.3611  -2.3569  -2.3374  -2.3231  -2.2930  -2.2550
    -2.2461  -2.2187  -2.2050  -2.1781  -2.1754  -2.1399  -2.1152  -2.1023
    -2.0897  -2.0357  -1.9284  -1.8740  -1.7900  -1.7679  -1.7321  -1.7261
    -1.6437  -1.6178  -1.5908  -1.5505  -1.5384  -1.5070  -1.3018  -1.2701
    -1.2619  -1.2485  -1.2260  -1.0737  -1.0658  -1.0148  -0.9833  -0.9410
    -0.8800  -0.8424  -0.8304  -0.7468  -0.7149  -0.6718  -0.6315  -0.5088
    -0.5049  -0.4972  -0.4950  -0.4798  -0.3909  -0.3792  -0.3359  -0.3022
    -0.2612  -0.2469  -0.1829  -0.0004   0.0147   0.0809   0.1892   0.2795
     0.3755   0.4562   0.4745   0.5267   0.5688   0.5915   0.6697   0.7641
     0.7760   0.8395   0.8887   0.9315   0.9358   0.9403   1.8593   1.8599
     1.9444   1.9447   3.6848   3.8082   3.8291   3.8684   3.8858   4.0335
     4.0808   4.1173   4.1405   4.1428   4.2219

     the Fermi energy is     3.6166 ev

!    total energy              =   -2919.11566955 Ry
     estimated scf accuracy    <       0.00000007 Ry
     smearing contrib. (-TS)   =      -0.03733747 Ry
     internal energy E=F+TS    =   -2919.07833207 Ry

     The total energy is F=E-TS. E is the sum of the following terms:
     one-electron contribution =  -24309.32996212 Ry
     hartree contribution      =   12242.12223283 Ry
     xc contribution           =    -480.02156991 Ry
     ewald contribution        =    9628.14792315 Ry
     electric field correction =       0.00304398 Ry

     convergence has been achieved in  64 iterations

     Forces acting on atoms (cartesian axes, Ry/au):

     atom    1 type  1   force =     0.00004685   -0.00015763    0.09379183
     atom    2 type  1   force =    -0.00018054   -0.00018988   -0.17775680
     atom    3 type  2   force =     0.00002638   -0.00022231   -0.02113514
     atom    4 type  2   force =    -0.00001635   -0.00198837    0.05776714
     atom    5 type  2   force =    -0.01108228   -0.00164641    0.00750548
     atom    6 type  2   force =     0.01244551   -0.00097915    0.00638868
     atom    7 type  1   force =    -0.00048058    0.00245974   -0.01335073
     atom    8 type  1   force =     0.00030086    0.00291143    0.00274486
     atom    9 type  2   force =     0.00007618   -0.00007606    0.00014539
     atom   10 type  2   force =    -0.00176544   -0.00228076   -0.00364101
     atom   11 type  2   force =     0.00015161    0.00060356   -0.00025258
     atom   12 type  2   force =     0.00046091    0.00054172   -0.00007054
     atom   13 type  1   force =    -0.00072093   -0.00094415   -0.00046141
     atom   14 type  1   force =     0.00082637    0.00027483   -0.00056329
     atom   15 type  2   force =     0.00026468    0.00011812    0.00014109
     atom   16 type  2   force =    -0.00008077    0.00033897   -0.00054427
     atom   17 type  2   force =     0.00019703    0.00016916    0.00051391
     atom   18 type  2   force =     0.00033417    0.00008043    0.00032852
     atom   19 type  1   force =     0.00028017   -0.00102464   -0.00000046
     atom   20 type  1   force =    -0.00024188    0.00018446   -0.00075336
     atom   21 type  2   force =     0.00004380   -0.00002365    0.10377919
     atom   22 type  2   force =     0.00001738   -0.00060340    0.00047436
     atom   23 type  2   force =    -0.07057080   -0.00014997   -0.02705111
     atom   24 type  2   force =     0.07045081    0.00031353   -0.02709520
     atom   25 type  1   force =     0.00008520   -0.00017702    0.09361001
     atom   26 type  1   force =    -0.00009830   -0.00027043   -0.17780005
     atom   27 type  2   force =     0.00008291   -0.00044923   -0.02015306
     atom   28 type  2   force =     0.00002563   -0.00169145    0.05725729
     atom   29 type  2   force =    -0.01116640   -0.00114827    0.00696628
     atom   30 type  2   force =     0.01241936   -0.00080576    0.00582837
     atom   31 type  1   force =    -0.00039465    0.00468091   -0.01442935
     atom   32 type  1   force =     0.00037225   -0.00359611    0.00245580
     atom   33 type  2   force =    -0.00000351    0.00057194    0.00040609
     atom   34 type  2   force =    -0.00117638   -0.00058462   -0.00101210
     atom   35 type  2   force =     0.00037932    0.00024598    0.00023806
     atom   36 type  2   force =     0.00015676    0.00031895    0.00020805
     atom   37 type  1   force =    -0.00053423    0.00132046   -0.00004082
     atom   38 type  1   force =     0.00087259    0.00006552   -0.00091573
     atom   39 type  2   force =     0.00014868    0.00048119    0.00055929
     atom   40 type  2   force =     0.00017833    0.00020446   -0.00046329
     atom   41 type  2   force =     0.00043883    0.00002461   -0.00051799
     atom   42 type  2   force =    -0.00032313   -0.00002597   -0.00054044
     atom   43 type  1   force =     0.00000957    0.00111660   -0.00012382
     atom   44 type  1   force =    -0.00018965    0.00045351   -0.00137024
     atom   45 type  2   force =     0.00004429   -0.00003976    0.10374648
     atom   46 type  2   force =    -0.07059123   -0.00006431   -0.02704570
     atom   47 type  2   force =     0.07046664    0.00035320   -0.02707601
     atom   48 type  3   force =    -0.00952855    0.00038465   -0.01316504
     atom   49 type  4   force =     0.00403550    0.00437558    0.02496461
     atom   50 type  5   force =     0.00144811   -0.00217468   -0.00928319
     atom   51 type  5   force =     0.00159349   -0.00119998   -0.00231647
     atom   52 type  5   force =     0.00046546   -0.00007954   -0.00089159

     Total force =     0.367235     Total SCF correction =     0.000798
  @ DRIVER MODE: Message from server: STATUS
  @ DRIVER MODE: Message from server: GETFORCE
  @ DRIVER MODE: Returning v,forces,stress,ensemble

     Writing output data file ./calc.save/
  @ DRIVER MODE: Message from server: EXIT
  @ DRIVE MODE: Exiting

     General routines

     Parallel routines

   This run was terminated on:  13:52:10  24Aug2021

   JOB DONE.