     Program PWSCF v.6.7GPU starts on 16Sep2021 at 12: 1:57

     R & G space division:  proc/nbgrp/npool/nimage =      10
     Reading input from /storage/home/hcoda1/3/ntian30/research/carbon/CxH_vib/H2O_calc/ads_slab/CH3NNH3H2O_a/out_0058/pw.inp
Warning: card &CELL ignored
Warning: card   CELL_DYNAMICS='IPI', ignored
Warning: card / ignored

     Current dimensions of program PWSCF are:
     Max number of different atomic species (ntypx) = 10
     Max number of k-points (npk) =  40000
     Max angular momentum in pseudopotentials (lmaxx) =  3
     Presently no symmetry can be used with electric field

     Message from routine cell_base_init:
     DEPRECATED: use true lattice parameter, not A to a.u. conversion factor

     IMPORTANT: XC functional enforced from input :
     Exchange-correlation= BEEF-VDW
                           (   1   4  43  14   2   0   0)
     Any further DFT definition will be discarded
     Please, verify this is what you really want

  @ DRIVER MODE: Connecting to
 qe_1139763_2852621.sched-torque.pace.gatech.edumtjargui_scratch
  using UNIX socket
  @ DRIVER MODE: Message from server: STATUS
  @ DRIVER MODE: Message from server: INIT
  @ DRIVER MODE: Receiving replica           0          -1
  @ DRIVER MODE: Receiving encoded integer          25
  @ DRIVER MODE:  SCF:  T  FORCE:  T  STRESS:  F  VC:  F  ENSEMBLE:  F
  @ DRIVER MODE:  SCF:  T  FORCE:  T  STRESS:  F  VC:  F  ENSEMBLE:  F

     Using Slab Decomposition

     bravais-lattice index     =            0
     lattice parameter (alat)  =       1.8897  a.u.
     unit-cell volume          =    6658.9804 (a.u.)^3
     number of atoms/cell      =           59
     number of atomic types    =            5
     number of electrons       =       406.00
     number of Kohn-Sham states=          213
     kinetic-energy cutoff     =      29.3995  Ry
     charge density cutoff     =     293.9946  Ry
     scf convergence threshold =      7.3E-08
     mixing beta               =       0.0500
     number of iterations used =            8  plain     mixing
     Exchange-correlation= BEEF-VDW
                           (   1   4  43  14   2   0   0)

     celldm(1)=   1.889726  celldm(2)=   0.000000  celldm(3)=   0.000000
     celldm(4)=   0.000000  celldm(5)=   0.000000  celldm(6)=   0.000000

     crystal axes: (cart. coord. in units of alat)
               a(1) = (   6.579727   0.000000   0.000000 )
               a(2) = (  -0.000775   5.961596   0.000000 )
               a(3) = (   0.000000   0.000000  25.155947 )

     reciprocal axes: (cart. coord. in units 2 pi/alat)
               b(1) = (  0.151982  0.000020  0.000000 )
               b(2) = (  0.000000  0.167740  0.000000 )
               b(3) = (  0.000000  0.000000  0.039752 )

     PseudoPot. # 1 for Ti read from file:
     /storage/coda1/p-amedford6/0/shared/rich_project_chbe-medford/medford-share/data/pseudos_module/espresso/nninc/pbe/van/Ti.UPF
     MD5 check sum: 8e4df49b7f0d34bbd5052bf3f5ea0213
     Pseudo is Ultrasoft, Zval = 12.0
     Generated by new atomic code, or converted to UPF format
     Using radial grid of  851 points,  6 beta functions with:
                l(1) =   0
                l(2) =   0
                l(3) =   1
                l(4) =   1
                l(5) =   2
                l(6) =   2
     Q(r) pseudized with  8 coefficients,  rinner =    1.000   1.000   1.000
                                                       1.000   1.000

     PseudoPot. # 2 for O  read from file:
     /storage/coda1/p-amedford6/0/shared/rich_project_chbe-medford/medford-share/data/pseudos_module/espresso/nninc/pbe/van/O.UPF
     MD5 check sum: 78c19812648e8988a0fe644b0f25305e
     Pseudo is Ultrasoft, Zval =  6.0
     Generated by new atomic code, or converted to UPF format
     Using radial grid of  737 points,  4 beta functions with:
                l(1) =   0
                l(2) =   0
                l(3) =   1
                l(4) =   1
     Q(r) pseudized with  8 coefficients,  rinner =    0.800   0.800   0.800

     PseudoPot. # 3 for N  read from file:
     /storage/coda1/p-amedford6/0/shared/rich_project_chbe-medford/medford-share/data/pseudos_module/espresso/nninc/pbe/van/N.UPF
     MD5 check sum: 90d10febe142ad51ac9d5be1deb811c4
     Pseudo is Ultrasoft, Zval =  5.0
     Generated by new atomic code, or converted to UPF format
     Using radial grid of  729 points,  4 beta functions with:
                l(1) =   0
                l(2) =   0
                l(3) =   1
                l(4) =   1
     Q(r) pseudized with  8 coefficients,  rinner =    0.800   0.800   0.800

     PseudoPot. # 4 for C  read from file:
     /storage/coda1/p-amedford6/0/shared/rich_project_chbe-medford/medford-share/data/pseudos_module/espresso/nninc/pbe/van/C.UPF
     MD5 check sum: 1a69bf6b8db32088f5b2163dbdb77a27
     Pseudo is Ultrasoft, Zval =  4.0
     Generated by new atomic code, or converted to UPF format
     Using radial grid of  721 points,  4 beta functions with:
                l(1) =   0
                l(2) =   0
                l(3) =   1
                l(4) =   1
     Q(r) pseudized with  8 coefficients,  rinner =    0.800   0.800   0.800

     PseudoPot. # 5 for H  read from file:
     /storage/coda1/p-amedford6/0/shared/rich_project_chbe-medford/medford-share/data/pseudos_module/espresso/nninc/pbe/van/H.UPF
     MD5 check sum: b5ee9d7bfd3a09ee7748110bda690ff7
     Pseudo is Ultrasoft, Zval =  1.0
     Generated by new atomic code, or converted to UPF format
     Using radial grid of  615 points,  1 beta functions with:
                l(1) =   0
     Q(r) pseudized with  8 coefficients,  rinner =    0.800

     atomic species   valence    mass     pseudopotential
        Ti1           12.00    47.86700     Ti( 1.00)
        O1             6.00    15.99900     O ( 1.00)
        N1             5.00    14.00700     N ( 1.00)
        C1             4.00    12.01100     C ( 1.00)
        H1             1.00     1.00800     H ( 1.00)

     No symmetry found

   Cartesian axes

     site n.     atom                  positions (alat units)
         1           Ti1 tau(   1) = (   0.0004258   2.9801865   6.0000000  )
         2           Ti1 tau(   2) = (   3.2906075   1.4906267   6.0002472  )
         3           O1  tau(   3) = (   0.0006271   0.0005054   7.9858123  )
         4           O1  tau(   4) = (   3.2906025   0.0005020   7.3038282  )
         5           O1  tau(   5) = (   4.5942328   1.4918067   9.2879030  )
         6           O1  tau(   6) = (   1.9868534   1.4903216   9.2879459  )
         7           Ti1 tau(   7) = (   3.2907910   2.8959150   9.1758416  )
         8           Ti1 tau(   8) = (   0.0015273   1.4827037   9.2680791  )
         9           O1  tau(   9) = (   3.2954490   0.0159868  11.2922163  )
        10           O1  tau(  10) = (   0.0116148   5.9584955  10.6183126  )
        11           O1  tau(  11) = (   1.3242731   1.5050266  12.6143764  )
        12           O1  tau(  12) = (   5.3073597   1.5103589  12.6267567  )
        13           Ti1 tau(  13) = (   6.4831477   3.0011104  12.7364612  )
        14           Ti1 tau(  14) = (   3.1751638   1.4975352  12.4748964  )
        15           O1  tau(  15) = (   0.0212859   5.9607631  14.5987152  )
        16           O1  tau(  16) = (   3.3058086   0.0238703  13.8910224  )
        17           O1  tau(  17) = (   4.5539421   1.5574750  15.9960573  )
        18           O1  tau(  18) = (   2.0731809   1.5597727  15.9888445  )
        19           Ti1 tau(  19) = (   3.3176354   3.0289328  15.6523405  )
        20           Ti1 tau(  20) = (   0.0198791   1.6227889  16.0606591  )
        21           O1  tau(  21) = (   3.2904802   0.0005063   4.7018136  )
        22           O1  tau(  22) = (   0.0290054   0.0533443  17.2129705  )
        23           O1  tau(  23) = (   1.3043587   1.4918075   6.0039043  )
        24           O1  tau(  24) = (   5.2767064   1.4903225   6.0039473  )
        25           Ti1 tau(  25) = (   0.0000382   5.9609847   6.0000000  )
        26           Ti1 tau(  26) = (   3.2902200   4.4714249   6.0002472  )
        27           O1  tau(  27) = (   0.0002396   2.9813036   7.9858123  )
        28           O1  tau(  28) = (   3.2902150   2.9813002   7.3038282  )
        29           O1  tau(  29) = (   4.5938453   4.4726049   9.2879030  )
        30           O1  tau(  30) = (   1.9864658   4.4711199   9.2879459  )
        31           Ti1 tau(  31) = (   3.2891106   5.8743827   9.1763621  )
        32           Ti1 tau(  32) = (   0.0006254   4.4649316   9.2693709  )
        33           O1  tau(  33) = (   3.2918316   2.9938763  11.2915017  )
        34           O1  tau(  34) = (   0.0092240   2.9805883  10.6323155  )
        35           O1  tau(  35) = (   1.3226278   4.4784642  12.6110361  )
        36           O1  tau(  36) = (   5.3078083   4.4770455  12.6250823  )
        37           Ti1 tau(  37) = (   6.5141033   0.0190828  12.7620745  )
        38           Ti1 tau(  38) = (   3.1722404   4.4939287  12.4712879  )
        39           O1  tau(  39) = (   0.0035410   2.9850241  14.6487316  )
        40           O1  tau(  40) = (   3.3118331   3.0109266  13.8519036  )
        41           O1  tau(  41) = (   4.5522870   4.5059159  16.0259181  )
        42           O1  tau(  42) = (   2.0778134   4.5048723  16.0185459  )
        43           Ti1 tau(  43) = (   3.3116469   0.0596163  15.7453941  )
        44           Ti1 tau(  44) = (   0.0183239   4.5967015  16.1059876  )
        45           O1  tau(  45) = (   3.2900926   2.9813045   4.7018136  )
        46           O1  tau(  46) = (   1.3039711   4.4726057   6.0039043  )
        47           O1  tau(  47) = (   5.2763189   4.4711207   6.0039473  )
        48           N1  tau(  48) = (   0.0600715   3.0265251  17.3188267  )
        49           N1  tau(  49) = (   6.2826239   2.5295367  22.6224490  )
        50           C1  tau(  50) = (   0.2859397   3.0149959  18.7399364  )
        51           H1  tau(  51) = (   0.1411154   4.0060466  19.1894648  )
        52           H1  tau(  52) = (   6.1913215   2.3105648  19.2421896  )
        53           H1  tau(  53) = (   1.3125146   2.6868920  18.9691123  )
        54           H1  tau(  54) = (   6.1000088   3.2491606  23.3142794  )
        55           H1  tau(  55) = (   0.1456284   1.7586669  23.1118534  )
        56           H1  tau(  56) = (   0.3974265   2.9048463  21.9856970  )
        57           O1  tau(  57) = (   3.2908421   0.1244680  18.1630233  )
        58           H1  tau(  58) = (   4.0679411   5.5688996  18.4486002  )
        59           H1  tau(  59) = (   2.5060966   5.5711546  18.4327789  )

     number of k points=    10  Fermi-Dirac smearing, width (Ry)=  0.0073
                       cart. coord. in units 2pi/alat
        k(    1) = (   0.0000000   0.0000000   0.0000000), wk =   0.1250000
        k(    2) = (   0.0000000   0.0419351   0.0000000), wk =   0.2500000
        k(    3) = (   0.0000000  -0.0838702   0.0000000), wk =   0.1250000
        k(    4) = (   0.0379955   0.0000049   0.0000000), wk =   0.2500000
        k(    5) = (   0.0379955   0.0419400   0.0000000), wk =   0.2500000
        k(    6) = (   0.0379955  -0.0838652   0.0000000), wk =   0.2500000
        k(    7) = (   0.0379955  -0.0419301   0.0000000), wk =   0.2500000
        k(    8) = (  -0.0759910  -0.0000099   0.0000000), wk =   0.1250000
        k(    9) = (  -0.0759910   0.0419252   0.0000000), wk =   0.2500000
        k(   10) = (  -0.0759910  -0.0838800   0.0000000), wk =   0.1250000

     Initial potential from superposition of free atoms

     starting charge  389.99912, renormalised to  406.00000

     negative rho (up, down):  6.917E-03 0.000E+00

     %%%%%%%%%%%%%%%%%%%%%%%%%%%%%%%%%%%%%%%%%%%%%%%%%%%%%%%%%%%%%%%%%%%%%%%%
     %                                                                      %
     % You are using vdW-DF, which was implemented by the Thonhauser group. %
     % Please cite the following two papers that made this development      %
     % possible and the two reviews that describe the various versions:     %
     %                                                                      %
     %   T. Thonhauser et al., PRL 115, 136402 (2015).                      %
     %   T. Thonhauser et al., PRB 76, 125112 (2007).                       %
     %   K. Berland et al., Rep. Prog. Phys. 78, 066501 (2015).             %
     %   D.C. Langreth et al., J. Phys.: Condens. Matter 21, 084203 (2009). %
     %                                                                      %
     %                                                                      %
     % If you are calculating the stress with vdW-DF, please also cite:     %
     %                                                                      %
     %   R. Sabatini et al., J. Phys.: Condens. Matter 24, 424209 (2012).   %
     %                                                                      %
     %%%%%%%%%%%%%%%%%%%%%%%%%%%%%%%%%%%%%%%%%%%%%%%%%%%%%%%%%%%%%%%%%%%%%%%%

     Adding external electric field

     Computed dipole along edir(3) :
        Dipole              -16.2336 Ry au,        -41.2616 Debye
        Dipole field         -0.0306 Ry au,

        Potential amp.        2.8398 Ry
        Total length         46.3494 bohr

     Starting wfcs are  308 atomic wfcs
  @ DRIVER MODE: Message from server: STATUS
  @ DRIVER MODE: Message from server: POSDATA
  @ DRIVER MODE: Reading and sharing cell
  @ DRIVER MODE: Reading and sharing positions
  @ DRIVER MODE: Received positions

     Self-consistent Calculation

     iteration #  1     ecut=    29.40 Ry     beta= 0.05
     Davidson diagonalization with overlap
     c_bands:  2 eigenvalues not converged
     c_bands:  2 eigenvalues not converged
     c_bands:  5 eigenvalues not converged
     c_bands:  3 eigenvalues not converged
     c_bands:  3 eigenvalues not converged
     c_bands:  3 eigenvalues not converged
     c_bands:  1 eigenvalues not converged
     c_bands:  3 eigenvalues not converged
     ethr =  1.00E-05,  avg # of iterations = 21.1

[...]

     total energy              =   -2252.60071302 Ry
     estimated scf accuracy    <    8272.28460105 Ry

     iteration #  2     ecut=    29.40 Ry     beta= 0.05
     Davidson diagonalization with overlap
     ethr =  1.00E-02,  avg # of iterations = 24.7

[...]

     iteration # 57     ecut=    29.40 Ry     beta= 0.05
     Davidson diagonalization with overlap
     c_bands:  1 eigenvalues not converged
     ethr =  4.44E-07,  avg # of iterations =  9.5

[...]

     total energy              =   -2977.74424329 Ry
     estimated scf accuracy    <       0.00000008 Ry

     iteration # 83     ecut=    29.40 Ry     beta= 0.05
     Davidson diagonalization with overlap
     ethr =  1.97E-11,  avg # of iterations =  5.8

     negative rho (up, down):  8.780E-03 0.000E+00

     Adding external electric field

     Computed dipole along edir(3) :
        Dipole                0.7635 Ry au,          1.9407 Debye
        Dipole field          0.0014 Ry au,

        Potential amp.       -0.1336 Ry
        Total length         46.3494 bohr

     End of self-consistent calculation

          k = 0.0000 0.0000 0.0000 ( 18029 PWs)   bands (ev):

   -56.2624 -56.2288 -55.3799 -55.3459 -55.3376 -55.3027 -55.1549 -55.1197
   -55.0330 -54.9124 -54.8942 -54.8930 -54.8785 -54.8077 -54.3913 -54.3416
   -32.6892 -32.5365 -32.5084 -32.4387 -32.3477 -32.3153 -31.8476 -31.8198
   -31.6903 -31.6456 -31.5968 -31.5789 -31.5488 -31.5396 -31.5106 -31.5056
   -31.4870 -31.4807 -31.4587 -31.4440 -31.4309 -31.3816 -31.3713 -31.3326
   -31.3202 -31.3034 -31.2947 -31.2812 -31.2574 -31.2563 -31.2519 -31.2277
   -31.1330 -31.1224 -31.0828 -31.0720 -31.0448 -31.0393 -31.0305 -31.0119
   -30.9812 -30.9284 -30.9059 -30.6349 -30.6128 -30.5815 -30.5607 -30.4519
   -18.4020 -16.4182 -15.9522 -15.7089 -15.6191 -15.5360 -15.4971 -15.4531
   -15.3014 -15.2336 -15.2109 -15.2106 -15.1400 -14.9919 -14.9446 -14.8466
   -14.7532 -14.6181 -14.6013 -14.5678 -14.5505 -14.5172 -14.5099 -14.4588
   -14.2952 -14.2593 -14.2112 -14.1487 -14.0629 -14.0381 -13.8373 -13.4107
   -13.3010 -12.6439  -7.4497  -6.1464  -4.1042  -4.0837  -3.9856  -3.4519
    -3.1829  -3.1549  -3.0267  -3.0220  -2.9773  -2.8398  -2.8316  -2.7549
    -2.7312  -2.6998  -2.6177  -2.5838  -2.5360  -2.4466  -2.4332  -2.4136
    -2.3999  -2.3845  -2.2630  -2.2209  -2.1701  -2.0656  -1.9575  -1.9146
    -1.8874  -1.8435  -1.8056  -1.7583  -1.7472  -1.7313  -1.7245  -1.6116
    -1.4989  -1.4659  -1.4514  -1.4052  -1.3877  -1.3783  -1.3570  -1.2712
    -1.1618  -1.0689  -1.0013  -0.9897  -0.9209  -0.9130  -0.8539  -0.7372
    -0.6771  -0.6724  -0.6567  -0.5532  -0.5264  -0.4553  -0.3927  -0.3344
    -0.2798  -0.2168  -0.1669  -0.1440  -0.1313  -0.0323   0.0393   0.0625
     0.1138   0.1232   0.1335   0.1530   0.2503   0.2852   0.3585   0.4028
     0.4396   0.4828   0.5670   0.6172   0.6848   0.7345   0.7576   0.8187
     0.8728   0.9281   1.0232   1.0744   1.0781   1.0866   1.1094   1.1696
     1.1834   1.2592   1.3426   1.3579   1.4304   1.4986   1.6594   1.6986
     1.9486   2.0197   2.6464   3.0144   3.1758   3.4710   3.6608   3.7981
     3.9937   4.0041   4.0113   4.2607   4.2719

[...]

          k = 0.0380-0.0419 0.0000 ( 17876 PWs)   bands (ev):

[...]

          k =-0.0760-0.0000 0.0000 ( 17886 PWs)   bands (ev):

[...]

          k =-0.0760-0.0839 0.0000 ( 17948 PWs)   bands (ev):

   -56.2457 -56.2453 -55.3649 -55.3605 -55.3250 -55.3154 -55.1384 -55.1361
   -55.0307 -54.8955 -54.8953 -54.8951 -54.8906 -54.8113 -54.3842 -54.3486
   -32.5224 -32.5221 -32.5061 -32.5060 -32.3918 -32.3915 -31.6713 -31.6654
   -31.6556 -31.6482 -31.5718 -31.5568 -31.5549 -31.5506 -31.5443 -31.5427
   -31.5369 -31.5283 -31.4964 -31.4799 -31.3839 -31.3818 -31.3482 -31.3424
   -31.3233 -31.2870 -31.2489 -31.2408 -31.2407 -31.2402 -31.2157 -31.1939
   -31.1507 -31.1203 -31.1201 -31.1167 -31.0941 -31.0811 -31.0810 -31.0664
   -31.0494 -31.0140 -30.7666 -30.7039 -30.6106 -30.5862 -30.5686 -30.5224
   -18.4011 -15.7688 -15.7668 -15.7317 -15.7310 -15.4640 -15.4607 -15.3674
   -15.3622 -15.2279 -15.1107 -15.0091 -14.9963 -14.9608 -14.9337 -14.8219
   -14.8010 -14.7918 -14.7817 -14.6706 -14.6503 -14.6044 -14.5936 -14.5778
   -14.5673 -14.2732 -14.2601 -14.1570 -14.1333 -14.0373 -13.9904 -13.4046
   -13.4045 -12.6625  -7.4434  -6.1386  -4.1142  -4.0854  -2.8677  -2.8582
    -2.8318  -2.8037  -2.8028  -2.7432  -2.6388  -2.5987  -2.5969  -2.5955
    -2.5180  -2.4474  -2.4394  -2.3679  -2.3350  -2.3158  -2.2594  -2.2468
    -2.1817  -2.1553  -2.1471  -2.1304  -2.1068  -2.1056  -2.0098  -1.9472
    -1.8953  -1.8917  -1.8245  -1.8063  -1.7422  -1.7213  -1.7095  -1.6772
    -1.6366  -1.6144  -1.5809  -1.5481  -1.5073  -1.4477  -1.2808  -1.2718
    -1.2624  -1.2412  -1.1167  -1.1105  -1.0777  -1.0475  -1.0419  -0.9683
    -0.9188  -0.8831  -0.8272  -0.7422  -0.7197  -0.6177  -0.5669  -0.5207
    -0.4635  -0.3584  -0.3408  -0.3295  -0.3210  -0.2904  -0.2244  -0.1945
    -0.1791  -0.0591  -0.0395   0.0137   0.0345   0.0925   0.1173   0.1800
     0.2088   0.2805   0.2922   0.3311   0.4052   0.4865   0.5210   0.5690
     0.5737   0.8498   0.9237   1.0540   1.0654   1.1214   1.1802   1.2513
     1.3111   1.3436   1.3701   1.4936   1.4979   1.5072   1.5078   1.5790
     1.5841   1.9265   2.5237   3.5905   3.5907   3.6573   3.6579   3.9786
     3.9848   4.0918   4.1020   4.2628   4.2780

     the Fermi energy is     2.8425 ev

!    total energy              =   -2977.74429170 Ry
     estimated scf accuracy    <       0.00000006 Ry
     smearing contrib. (-TS)   =      -0.00445723 Ry
     internal energy E=F+TS    =   -2977.73983447 Ry

     The total energy is F=E-TS. E is the sum of the following terms:
     one-electron contribution =  -22875.83251193 Ry
     hartree contribution      =   11535.62539289 Ry
     xc contribution           =    -496.31694168 Ry
     ewald contribution        =    8858.78312611 Ry
     electric field correction =       0.00110013 Ry

     convergence has been achieved in  83 iterations

     Forces acting on atoms (cartesian axes, Ry/au):

     atom    1 type  1   force =    -0.00004136   -0.00046359    0.12450947
     atom    2 type  1   force =    -0.00008000   -0.00047795   -0.15980970
     atom    3 type  2   force =     0.00019327   -0.00024489   -0.06790486
     atom    4 type  2   force =    -0.00000822   -0.00011457    0.02622581
     atom    5 type  2   force =    -0.01448133    0.00181930   -0.00989916
     atom    6 type  2   force =     0.01626196    0.00224424   -0.01024726
     atom    7 type  1   force =     0.00072247   -0.00387895    0.02887810
     atom    8 type  1   force =    -0.00034734   -0.00439209    0.10952541
     atom    9 type  2   force =     0.00023755   -0.00029135   -0.00051817
     atom   10 type  2   force =    -0.00231205    0.00256674   -0.07333141
     atom   11 type  2   force =    -0.00002461   -0.00033644   -0.00000504
     atom   12 type  2   force =    -0.00016164   -0.00082949    0.00001909
     atom   13 type  1   force =     0.00107444   -0.00040911    0.00012292
     atom   14 type  1   force =    -0.00065185    0.00063621   -0.00011583
     atom   15 type  2   force =    -0.00028729   -0.00040076   -0.00074345
     atom   16 type  2   force =    -0.00001484   -0.00011018    0.00066069
     atom   17 type  2   force =     0.00020971   -0.00082816   -0.00034316
     atom   18 type  2   force =     0.00044591   -0.00043188   -0.00002018
     atom   19 type  1   force =    -0.00114372   -0.00029119   -0.00100893
     atom   20 type  1   force =     0.00081949   -0.00018399   -0.00041613
     atom   21 type  2   force =     0.00004682   -0.00003728    0.09942423
     atom   22 type  2   force =     0.00002234   -0.00026521   -0.00048527
     atom   23 type  2   force =    -0.07966649   -0.00005327   -0.03248536
     atom   24 type  2   force =     0.07951248    0.00038013   -0.03253633
     atom   25 type  1   force =    -0.00001602   -0.00057071    0.12418007
     atom   26 type  1   force =    -0.00008756   -0.00062772   -0.15995783
     atom   27 type  2   force =     0.00029999   -0.00036562   -0.06696060
     atom   28 type  2   force =    -0.00001888    0.00015042    0.02514111
     atom   29 type  2   force =    -0.01510498    0.00192987   -0.00983899
     atom   30 type  2   force =     0.01678104    0.00242974   -0.01015310
     atom   31 type  1   force =     0.00074518   -0.00075985    0.02405055
     atom   32 type  1   force =    -0.00027415    0.00204423    0.11014733
     atom   33 type  2   force =     0.00007576    0.00029545    0.00058255
     atom   34 type  2   force =    -0.00193367    0.00200060   -0.07164627
     atom   35 type  2   force =    -0.00001832    0.00034499   -0.00001487
     atom   36 type  2   force =    -0.00054081    0.00061449   -0.00005731
     atom   37 type  1   force =     0.00119425    0.00042962    0.00029958
     atom   38 type  1   force =    -0.00055049   -0.00088470   -0.00024496
     atom   39 type  2   force =    -0.00027514   -0.00012000    0.00088368
     atom   40 type  2   force =     0.00018177   -0.00011753    0.00026840
     atom   41 type  2   force =     0.00093472    0.00024419    0.00036666
     atom   42 type  2   force =    -0.00039495   -0.00014100    0.00075268
     atom   43 type  1   force =    -0.00158974    0.00027524   -0.00042702
     atom   44 type  1   force =     0.00092911   -0.00008750   -0.00032451
     atom   45 type  2   force =     0.00002118   -0.00004454    0.09937630
     atom   46 type  2   force =    -0.07968090    0.00000080   -0.03249965
     atom   47 type  2   force =     0.07953569    0.00043296   -0.03252827
     atom   48 type  3   force =    -0.00088841   -0.00074435   -0.00044352
     atom   49 type  3   force =    -0.00035059   -0.00048951    0.00131415
     atom   50 type  4   force =    -0.00024172   -0.00009443    0.00007794
     atom   51 type  5   force =    -0.00021427    0.00038198    0.00027534
     atom   52 type  5   force =    -0.00005775   -0.00053997    0.00072889
     atom   53 type  5   force =     0.00050080   -0.00015690    0.00020314
     atom   54 type  5   force =     0.00006449   -0.00023465   -0.00059526
     atom   55 type  5   force =     0.00003076    0.00031458   -0.00029496
     atom   56 type  5   force =     0.00028822    0.00036063   -0.00181941
     atom   57 type  2   force =     0.00150108   -0.01291668    0.00599020
     atom   58 type  5   force =    -0.00659863    0.00691142   -0.00319134
     atom   59 type  5   force =     0.00542721    0.00612815   -0.00313618

     Total force =     0.423943     Total SCF correction =     0.000441
  @ DRIVER MODE: Message from server: STATUS
  @ DRIVER MODE: Message from server: GETFORCE
  @ DRIVER MODE: Returning v,forces,stress,ensemble

     Writing output data file ./calc.save/
  @ DRIVER MODE: Message from server: EXIT
  @ DRIVE MODE: Exiting

     General routines

     Parallel routines

   This run was terminated on:  12:24:39  16Sep2021

   JOB DONE.