     Program PWSCF v.6.7GPU starts on 27Sep2021 at  6: 7: 7

     R & G space division:  proc/nbgrp/npool/nimage =       8
     Reading input from /storage/home/hcoda1/3/ntian30/research/carbon/CxH_vib/CH_calc/ads_slab/CHONNHH_a/out_0032/pw.inp
Warning: card &CELL ignored
Warning: card   CELL_DYNAMICS='IPI', ignored
Warning: card / ignored

     Current dimensions of program PWSCF are:
     Max number of different atomic species (ntypx) = 10
     Max number of k-points (npk) =  40000
     Max angular momentum in pseudopotentials (lmaxx) =  3
     Presently no symmetry can be used with electric field

     Message from routine cell_base_init:
     DEPRECATED: use true lattice parameter, not A to a.u. conversion factor

     IMPORTANT: XC functional enforced from input :
     Exchange-correlation= BEEF-VDW
                           (   1   4  43  14   2   0   0)
     Any further DFT definition will be discarded
     Please, verify this is what you really want

  @ DRIVER MODE: Connecting to
 qe_1139763_2985878.sched-torque.pace.gatech.edumlirlvsq_scratch
  using UNIX socket
  @ DRIVER MODE: Message from server: STATUS
  @ DRIVER MODE: Message from server: INIT
  @ DRIVER MODE: Receiving replica           0          -1
  @ DRIVER MODE: Receiving encoded integer          25
  @ DRIVER MODE:  SCF:  T  FORCE:  T  STRESS:  F  VC:  F  ENSEMBLE:  F
  @ DRIVER MODE:  SCF:  T  FORCE:  T  STRESS:  F  VC:  F  ENSEMBLE:  F

     Using Slab Decomposition

     bravais-lattice index     =            0
     lattice parameter (alat)  =       1.8897  a.u.
     unit-cell volume          =    6658.9804 (a.u.)^3
     number of atoms/cell      =           54
     number of atomic types    =            5
     number of electrons       =       401.00
     number of Kohn-Sham states=          210
     kinetic-energy cutoff     =      29.3995  Ry
     charge density cutoff     =     293.9946  Ry
     scf convergence threshold =      7.3E-08
     mixing beta               =       0.0500
     number of iterations used =            8  plain     mixing
     Exchange-correlation= BEEF-VDW
                           (   1   4  43  14   2   0   0)

     celldm(1)=   1.889726  celldm(2)=   0.000000  celldm(3)=   0.000000
     celldm(4)=   0.000000  celldm(5)=   0.000000  celldm(6)=   0.000000

     crystal axes: (cart. coord. in units of alat)
               a(1) = (   6.579727   0.000000   0.000000 )
               a(2) = (  -0.000775   5.961596   0.000000 )
               a(3) = (   0.000000   0.000000  25.155947 )

     reciprocal axes: (cart. coord. in units 2 pi/alat)
               b(1) = (  0.151982  0.000020  0.000000 )
               b(2) = (  0.000000  0.167740  0.000000 )
               b(3) = (  0.000000  0.000000  0.039752 )

     PseudoPot. # 1 for O  read from file:
     /storage/coda1/p-amedford6/0/shared/rich_project_chbe-medford/medford-share/data/pseudos_module/espresso/nninc/pbe/van/O.UPF
     MD5 check sum: 78c19812648e8988a0fe644b0f25305e
     Pseudo is Ultrasoft, Zval =  6.0
     Generated by new atomic code, or converted to UPF format
     Using radial grid of  737 points,  4 beta functions with:
                l(1) =   0
                l(2) =   0
                l(3) =   1
                l(4) =   1
     Q(r) pseudized with  8 coefficients,  rinner =    0.800   0.800   0.800

     PseudoPot. # 2 for Ti read from file:
     /storage/coda1/p-amedford6/0/shared/rich_project_chbe-medford/medford-share/data/pseudos_module/espresso/nninc/pbe/van/Ti.UPF
     MD5 check sum: 8e4df49b7f0d34bbd5052bf3f5ea0213
     Pseudo is Ultrasoft, Zval = 12.0
     Generated by new atomic code, or converted to UPF format
     Using radial grid of  851 points,  6 beta functions with:
                l(1) =   0
                l(2) =   0
                l(3) =   1
                l(4) =   1
                l(5) =   2
                l(6) =   2
     Q(r) pseudized with  8 coefficients,  rinner =    1.000   1.000   1.000
                                                       1.000   1.000

     PseudoPot. # 3 for N  read from file:
     /storage/coda1/p-amedford6/0/shared/rich_project_chbe-medford/medford-share/data/pseudos_module/espresso/nninc/pbe/van/N.UPF
     MD5 check sum: 90d10febe142ad51ac9d5be1deb811c4
     Pseudo is Ultrasoft, Zval =  5.0
     Generated by new atomic code, or converted to UPF format
     Using radial grid of  729 points,  4 beta functions with:
                l(1) =   0
                l(2) =   0
                l(3) =   1
                l(4) =   1
     Q(r) pseudized with  8 coefficients,  rinner =    0.800   0.800   0.800

     PseudoPot. # 4 for H  read from file:
     /storage/coda1/p-amedford6/0/shared/rich_project_chbe-medford/medford-share/data/pseudos_module/espresso/nninc/pbe/van/H.UPF
     MD5 check sum: b5ee9d7bfd3a09ee7748110bda690ff7
     Pseudo is Ultrasoft, Zval =  1.0
     Generated by new atomic code, or converted to UPF format
     Using radial grid of  615 points,  1 beta functions with:
                l(1) =   0
     Q(r) pseudized with  8 coefficients,  rinner =    0.800

     PseudoPot. # 5 for C  read from file:
     /storage/coda1/p-amedford6/0/shared/rich_project_chbe-medford/medford-share/data/pseudos_module/espresso/nninc/pbe/van/C.UPF
     MD5 check sum: 1a69bf6b8db32088f5b2163dbdb77a27
     Pseudo is Ultrasoft, Zval =  4.0
     Generated by new atomic code, or converted to UPF format
     Using radial grid of  721 points,  4 beta functions with:
                l(1) =   0
                l(2) =   0
                l(3) =   1
                l(4) =   1
     Q(r) pseudized with  8 coefficients,  rinner =    0.800   0.800   0.800

     atomic species   valence    mass     pseudopotential
        O1             6.00    15.99900     O ( 1.00)
        Ti1           12.00    47.86700     Ti( 1.00)
        N1             5.00    14.00700     N ( 1.00)
        H1             1.00     1.00800     H ( 1.00)
        C1             4.00    12.01100     C ( 1.00)

     No symmetry found

   Cartesian axes

     site n.     atom                  positions (alat units)
         1           O1  tau(   1) = (   3.2904802   0.0005063   4.7018136  )
         2           O1  tau(   2) = (   3.2900926   2.9813045   4.7018136  )
         3           Ti1 tau(   3) = (   0.0004258   2.9801865   6.0000000  )
         4           Ti1 tau(   4) = (   0.0000382   5.9609847   6.0000000  )
         5           Ti1 tau(   5) = (   3.2906075   1.4906267   6.0002472  )
         6           Ti1 tau(   6) = (   3.2902200   4.4714249   6.0002472  )
         7           O1  tau(   7) = (   1.3043587   1.4918075   6.0039043  )
         8           O1  tau(   8) = (   1.3039711   4.4726057   6.0039043  )
         9           O1  tau(   9) = (   5.2767064   1.4903225   6.0039473  )
        10           O1  tau(  10) = (   5.2763189   4.4711207   6.0039473  )
        11           O1  tau(  11) = (   3.2906025   0.0005020   7.3038282  )
        12           O1  tau(  12) = (   3.2902150   2.9813002   7.3038282  )
        13           O1  tau(  13) = (   0.0006271   0.0005054   7.9858123  )
        14           O1  tau(  14) = (   0.0002396   2.9813036   7.9858123  )
        15           Ti1 tau(  15) = (   3.2907910   2.8959150   9.1758416  )
        16           Ti1 tau(  16) = (   3.2891106   5.8743827   9.1763621  )
        17           Ti1 tau(  17) = (   0.0015273   1.4827037   9.2680791  )
        18           Ti1 tau(  18) = (   0.0006254   4.4649316   9.2693709  )
        19           O1  tau(  19) = (   4.5942328   1.4918067   9.2879030  )
        20           O1  tau(  20) = (   4.5938453   4.4726049   9.2879030  )
        21           O1  tau(  21) = (   1.9868534   1.4903216   9.2879459  )
        22           O1  tau(  22) = (   1.9864658   4.4711199   9.2879459  )
        23           O1  tau(  23) = (   0.0116148   5.9584955  10.6183126  )
        24           O1  tau(  24) = (   0.0092240   2.9805883  10.6323155  )
        25           O1  tau(  25) = (   3.2871924   0.0092975  11.3134720  )
        26           O1  tau(  26) = (   3.2854473   2.9899114  11.3140924  )
        27           Ti1 tau(  27) = (   3.1645864   1.5001695  12.4631195  )
        28           Ti1 tau(  28) = (   3.1630299   4.4806833  12.4603605  )
        29           Ti1 tau(  29) = (   6.4825016   0.0268845  12.6761456  )
        30           O1  tau(  30) = (   5.2927839   4.4803479  12.6175172  )
        31           O1  tau(  31) = (   5.2917030   1.4958386  12.6158568  )
        32           O1  tau(  32) = (   1.3125566   4.4752595  12.6102184  )
        33           O1  tau(  33) = (   1.3147444   1.4884423  12.6074978  )
        34           Ti1 tau(  34) = (   6.4947133   3.0086745  12.6771613  )
        35           O1  tau(  35) = (   3.2927928   3.0034821  13.8909844  )
        36           O1  tau(  36) = (   3.2984538   0.0179784  13.8891953  )
        37           O1  tau(  37) = (   6.5782462   5.9542408  14.6113871  )
        38           O1  tau(  38) = (   0.0063130   2.9565225  14.5996091  )
        39           Ti1 tau(  39) = (   3.2946075   3.0248150  15.6873259  )
        40           Ti1 tau(  40) = (   3.3096140   0.0407809  15.6830396  )
        41           Ti1 tau(  41) = (   0.0052144   1.6347595  16.0230390  )
        42           O1  tau(  42) = (   2.0681981   1.5365669  16.0503333  )
        43           O1  tau(  43) = (   4.5323643   4.5197138  16.0585785  )
        44           O1  tau(  44) = (   2.0637162   4.5219542  16.0519313  )
        45           O1  tau(  45) = (   4.5361195   1.5375365  16.0414673  )
        46           Ti1 tau(  46) = (   0.0121038   4.6470822  16.0779317  )
        47           O1  tau(  47) = (   0.0166110   0.0790660  17.1873875  )
        48           N1  tau(  48) = (   3.1258632   2.7928715  18.8711073  )
        49           H1  tau(  49) = (   5.2135379   2.8994874  18.6379610  )
        50           N1  tau(  50) = (   1.8800116   2.5028027  19.3023652  )
        51           H1  tau(  51) = (   1.1979237   2.7808332  18.5810318  )
        52           C1  tau(  52) = (   4.2825308   2.7641870  19.1985473  )
        53           H1  tau(  53) = (   1.8050530   1.5048916  19.5010168  )
        54           O1  tau(  54) = (   0.0080391   3.0388675  17.2016835  )

     number of k points=    10  Fermi-Dirac smearing, width (Ry)=  0.0073
                       cart. coord. in units 2pi/alat
        k(    1) = (   0.0000000   0.0000000   0.0000000), wk =   0.1250000
        k(    2) = (   0.0000000   0.0419351   0.0000000), wk =   0.2500000
        k(    3) = (   0.0000000  -0.0838702   0.0000000), wk =   0.1250000
        k(    4) = (   0.0379955   0.0000049   0.0000000), wk =   0.2500000
        k(    5) = (   0.0379955   0.0419400   0.0000000), wk =   0.2500000
        k(    6) = (   0.0379955  -0.0838652   0.0000000), wk =   0.2500000
        k(    7) = (   0.0379955  -0.0419301   0.0000000), wk =   0.2500000
        k(    8) = (  -0.0759910  -0.0000099   0.0000000), wk =   0.1250000
        k(    9) = (  -0.0759910   0.0419252   0.0000000), wk =   0.2500000
        k(   10) = (  -0.0759910  -0.0838800   0.0000000), wk =   0.1250000

     Initial potential from superposition of free atoms

     starting charge  384.99916, renormalised to  401.00000

     negative rho (up, down):  1.609E-02 0.000E+00

     %%%%%%%%%%%%%%%%%%%%%%%%%%%%%%%%%%%%%%%%%%%%%%%%%%%%%%%%%%%%%%%%%%%%%%%%
     %                                                                      %
     % You are using vdW-DF, which was implemented by the Thonhauser group. %
     % Please cite the following two papers that made this development      %
     % possible and the two reviews that describe the various versions:     %
     %                                                                      %
     %   T. Thonhauser et al., PRL 115, 136402 (2015).                      %
     %   T. Thonhauser et al., PRB 76, 125112 (2007).                       %
     %   K. Berland et al., Rep. Prog. Phys. 78, 066501 (2015).             %
     %   D.C. Langreth et al., J. Phys.: Condens. Matter 21, 084203 (2009). %
     %                                                                      %
     %                                                                      %
     % If you are calculating the stress with vdW-DF, please also cite:     %
     %                                                                      %
     %   R. Sabatini et al., J. Phys.: Condens. Matter 24, 424209 (2012).   %
     %                                                                      %
     %%%%%%%%%%%%%%%%%%%%%%%%%%%%%%%%%%%%%%%%%%%%%%%%%%%%%%%%%%%%%%%%%%%%%%%%

     Adding external electric field

     Computed dipole along edir(3) :
        Dipole              -11.7434 Ry au,        -29.8489 Debye
        Dipole field         -0.0222 Ry au,

        Potential amp.        2.0543 Ry
        Total length         46.3494 bohr

     Starting wfcs are  303 atomic wfcs
  @ DRIVER MODE: Message from server: STATUS
  @ DRIVER MODE: Message from server: POSDATA
  @ DRIVER MODE: Reading and sharing cell
  @ DRIVER MODE: Reading and sharing positions
  @ DRIVER MODE: Received positions

     Self-consistent Calculation

     iteration #  1     ecut=    29.40 Ry     beta= 0.05
     Davidson diagonalization with overlap
     c_bands:  5 eigenvalues not converged
     c_bands:  1 eigenvalues not converged
     c_bands:  2 eigenvalues not converged
     c_bands:  4 eigenvalues not converged
     c_bands:  3 eigenvalues not converged
     c_bands:  1 eigenvalues not converged
     c_bands:  5 eigenvalues not converged
     ethr =  1.00E-05,  avg # of iterations = 22.9

[...]

     total energy              =   -2427.36685437 Ry
     estimated scf accuracy    <    6122.15456003 Ry

     iteration #  2     ecut=    29.40 Ry     beta= 0.05
     Davidson diagonalization with overlap
     ethr =  1.00E-02,  avg # of iterations = 23.8

[...]

     iteration # 66     ecut=    29.40 Ry     beta= 0.05
     Davidson diagonalization with overlap
     c_bands:  1 eigenvalues not converged
     ethr =  5.65E-08,  avg # of iterations =  9.5

[...]

     total energy              =   -2971.44235420 Ry
     estimated scf accuracy    <       0.00000010 Ry

     iteration # 84     ecut=    29.40 Ry     beta= 0.05
     Davidson diagonalization with overlap
     ethr =  2.55E-11,  avg # of iterations =  6.3

     negative rho (up, down):  1.475E-02 0.000E+00

     Adding external electric field

     Computed dipole along edir(3) :
        Dipole                0.6316 Ry au,          1.6055 Debye
        Dipole field          0.0012 Ry au,

        Potential amp.       -0.1105 Ry
        Total length         46.3494 bohr

     End of self-consistent calculation

          k = 0.0000 0.0000 0.0000 ( 18029 PWs)   bands (ev):

   -55.9327 -55.8987 -55.7376 -55.7017 -55.6228 -55.6210 -55.5873 -55.5859
   -55.5689 -55.5352 -55.5121 -55.4764 -55.2696 -55.1666 -54.8392 -54.8052
   -32.3989 -32.2874 -32.2267 -32.2021 -32.0882 -32.0846 -32.0838 -32.0565
   -32.0562 -32.0232 -32.0216 -31.9942 -31.9658 -31.9537 -31.9478 -31.9254
   -31.9040 -31.8856 -31.8732 -31.8591 -31.8366 -31.7985 -31.7948 -31.7720
   -31.7621 -31.7545 -31.7500 -31.7444 -31.7394 -31.7228 -31.7205 -31.6916
   -31.6908 -31.6795 -31.6681 -31.6315 -31.6308 -31.5091 -31.5020 -31.4077
   -31.3913 -31.3142 -31.2435 -31.1622 -31.1393 -31.0604 -30.9743 -30.8634
   -19.1876 -16.4796 -16.2886 -16.0344 -15.9371 -15.8215 -15.7447 -15.6089
   -15.5095 -15.4269 -15.4228 -15.3327 -15.3073 -15.3044 -15.2537 -15.2117
   -15.2066 -15.1962 -15.1712 -15.1677 -15.1374 -15.0929 -15.0210 -14.8991
   -14.8918 -14.8416 -14.8171 -14.7463 -14.6898 -14.6333 -14.5076 -14.3932
   -13.3413 -13.2263  -8.5686  -6.6768  -5.7401  -4.0343  -3.8618  -3.7892
    -3.6787  -3.6091  -3.5847  -3.3112  -3.3068  -2.9832  -2.9281  -2.9185
    -2.8944  -2.8553  -2.6800  -2.6438  -2.6282  -2.5826  -2.5715  -2.5651
    -2.5629  -2.5238  -2.4696  -2.4683  -2.3752  -2.3620  -2.3137  -2.2105
    -2.2101  -2.1908  -2.1228  -2.0967  -2.0458  -2.0015  -1.9821  -1.9767
    -1.9424  -1.9191  -1.7889  -1.7315  -1.6764  -1.5851  -1.5203  -1.4569
    -1.4359  -1.2994  -1.1845  -1.1778  -1.1431  -1.1032  -1.0878  -1.0611
    -0.9383  -0.8749  -0.8595  -0.8064  -0.7482  -0.6913  -0.6843  -0.6310
    -0.5988  -0.5847  -0.5624  -0.5388  -0.4752  -0.3026  -0.2232  -0.1309
    -0.1209  -0.0763  -0.0629  -0.0479   0.0082   0.0313   0.0455   0.1052
     0.1212   0.1743   0.2000   0.2140   0.2242   0.3039   0.3947   0.4188
     0.5276   0.5382   0.5981   0.6158   0.7895   0.8444   0.8612   0.9064
     1.0222   1.0857   1.1287   1.1820   1.3853   1.4913   1.7489   1.7923
     3.2656   3.2678   3.3542   3.4816   3.5954   3.6483   3.6971   3.7053
     3.8787   3.9377

[...]

          k = 0.0380-0.0419 0.0000 ( 17876 PWs)   bands (ev):

[...]

          k =-0.0760-0.0000 0.0000 ( 17886 PWs)   bands (ev):

[...]

          k =-0.0760-0.0839 0.0000 ( 17948 PWs)   bands (ev):

   -55.9156 -55.9156 -55.7207 -55.7184 -55.6107 -55.6050 -55.6030 -55.5979
   -55.5527 -55.5516 -55.4987 -55.4897 -55.2664 -55.1697 -54.8222 -54.8220
   -32.2148 -32.2148 -32.2117 -32.2116 -32.0923 -32.0905 -32.0391 -32.0390
   -32.0089 -32.0056 -31.9402 -31.9381 -31.9328 -31.9312 -31.9113 -31.9075
   -31.8926 -31.8892 -31.8874 -31.8821 -31.8254 -31.8169 -31.8120 -31.8010
   -31.7942 -31.7921 -31.7885 -31.7881 -31.7848 -31.7833 -31.7658 -31.7650
   -31.7356 -31.7265 -31.6557 -31.6479 -31.5752 -31.5228 -31.5036 -31.4536
   -31.4106 -31.4015 -31.1521 -31.1520 -31.0568 -31.0566 -31.0174 -31.0174
   -19.1854 -15.9130 -15.9078 -15.7347 -15.7280 -15.6734 -15.6715 -15.5373
   -15.5364 -15.4337 -15.4312 -15.3748 -15.3720 -15.3580 -15.3470 -15.2865
   -15.2699 -15.2673 -15.2599 -15.2197 -15.2172 -15.2120 -15.2102 -15.1201
   -15.1134 -14.9376 -14.8329 -14.7930 -14.6919 -14.6448 -14.5916 -14.5454
   -13.3285 -13.3284  -8.5180  -6.6459  -5.8877  -4.0255  -3.2131  -3.2047
    -2.9210  -2.9192  -2.8761  -2.8704  -2.6664  -2.6656  -2.6432  -2.6352
    -2.6004  -2.5893  -2.5661  -2.5624  -2.5085  -2.4847  -2.4714  -2.4688
    -2.4660  -2.4561  -2.4459  -2.4363  -2.4088  -2.3994  -2.3952  -2.3899
    -2.3514  -2.2866  -2.2722  -2.1777  -2.1599  -1.9426  -1.9421  -1.9186
    -1.9143  -1.8980  -1.8849  -1.8588  -1.8494  -1.6993  -1.6549  -1.4889
    -1.4858  -1.4188  -1.4030  -1.3502  -1.3161  -1.2513  -1.2285  -1.1310
    -1.1189  -1.0484  -1.0400  -0.9825  -0.9391  -0.9312  -0.9206  -0.8279
    -0.8256  -0.8055  -0.7659  -0.6993  -0.6884  -0.6163  -0.6105  -0.5603
    -0.5588  -0.4917  -0.4845  -0.3158  -0.3124  -0.2207  -0.1938  -0.0978
    -0.0819   0.1208   0.2084   0.2345   0.2616   0.2669   0.4538   0.4672
     0.4842   0.4899   0.5170   0.5537   0.6773   0.6979   0.7638   0.7775
     0.8126   0.8189   1.0465   1.0628   1.5545   1.5548   1.6104   1.6106
     3.3895   3.6684   3.6842   3.7697   3.7703   3.7892   3.7899   3.8187
     3.8234   4.0584

     the Fermi energy is     3.2295 ev

!    total energy              =   -2971.44236005 Ry
     estimated scf accuracy    <       0.00000006 Ry
     smearing contrib. (-TS)   =      -0.01958046 Ry
     internal energy E=F+TS    =   -2971.42277959 Ry

     The total energy is F=E-TS. E is the sum of the following terms:
     one-electron contribution =  -23899.98285433 Ry
     hartree contribution      =   12042.12190114 Ry
     xc contribution           =    -492.30631604 Ry
     ewald contribution        =    9378.74373671 Ry
     electric field correction =       0.00075292 Ry

     convergence has been achieved in  84 iterations

     Forces acting on atoms (cartesian axes, Ry/au):

     atom    1 type  1   force =     0.00003308   -0.00007907    0.10234925
     atom    2 type  1   force =     0.00004238   -0.00006835    0.10237332
     atom    3 type  2   force =     0.00001341   -0.00024234    0.10287990
     atom    4 type  2   force =     0.00007931   -0.00019414    0.10230139
     atom    5 type  2   force =    -0.00009101   -0.00056829   -0.17191837
     atom    6 type  2   force =    -0.00009307   -0.00033785   -0.17209005
     atom    7 type  1   force =    -0.07286814   -0.00013298   -0.02896223
     atom    8 type  1   force =    -0.07287857   -0.00008471   -0.02896714
     atom    9 type  1   force =     0.07273992    0.00030464   -0.02904505
     atom   10 type  1   force =     0.07276253    0.00033289   -0.02905873
     atom   11 type  1   force =    -0.00003954   -0.00106352    0.04702805
     atom   12 type  1   force =    -0.00001423   -0.00087312    0.04698755
     atom   13 type  1   force =     0.00020362    0.00004833   -0.03513595
     atom   14 type  1   force =     0.00023517   -0.00007730   -0.03434095
     atom   15 type  2   force =     0.00066141   -0.00145772   -0.00639922
     atom   16 type  2   force =     0.00063220    0.00161734   -0.00651993
     atom   17 type  2   force =     0.00001938   -0.00076600    0.06351590
     atom   18 type  2   force =    -0.00004648   -0.00153715    0.06389984
     atom   19 type  1   force =    -0.01510415    0.00120262   -0.00076717
     atom   20 type  1   force =    -0.01543832    0.00065251   -0.00080483
     atom   21 type  1   force =     0.01663653    0.00174628   -0.00154557
     atom   22 type  1   force =     0.01685897    0.00105403   -0.00155999
     atom   23 type  1   force =    -0.00339176    0.00175134   -0.03965009
     atom   24 type  1   force =    -0.00233732    0.00099721   -0.04613218
     atom   25 type  1   force =     0.00003997   -0.00007281    0.00014289
     atom   26 type  1   force =     0.00030479   -0.00004160    0.00006127
     atom   27 type  2   force =    -0.00005364   -0.00009462    0.00000907
     atom   28 type  2   force =     0.00019391   -0.00002153    0.00038553
     atom   29 type  2   force =     0.00064620   -0.00029377    0.00054391
     atom   30 type  1   force =    -0.00039032   -0.00010441    0.00029546
     atom   31 type  1   force =    -0.00023547    0.00009076   -0.00019701
     atom   32 type  1   force =     0.00043278   -0.00013453    0.00016368
     atom   33 type  1   force =     0.00036863    0.00008161    0.00008916
     atom   34 type  2   force =    -0.00007382   -0.00017681    0.00053656
     atom   35 type  1   force =     0.00007457   -0.00025665   -0.00023078
     atom   36 type  1   force =    -0.00003914    0.00011763   -0.00027899
     atom   37 type  1   force =     0.00012420   -0.00021998   -0.00005344
     atom   38 type  1   force =    -0.00017296   -0.00032286   -0.00000749
     atom   39 type  2   force =    -0.00003165   -0.00035886   -0.00007559
     atom   40 type  2   force =    -0.00027744   -0.00002479    0.00045073
     atom   41 type  2   force =    -0.00024703    0.00017269    0.00018380
     atom   42 type  1   force =     0.00004664    0.00004277   -0.00015148
     atom   43 type  1   force =    -0.00014387   -0.00004966   -0.00053924
     atom   44 type  1   force =     0.00038258   -0.00042524    0.00021000
     atom   45 type  1   force =    -0.00011546   -0.00011961   -0.00035880
     atom   46 type  2   force =    -0.00014227   -0.00072119    0.00010408
     atom   47 type  1   force =     0.00013496   -0.00010466   -0.00003449
     atom   48 type  3   force =     0.00089740    0.00173964    0.00086641
     atom   49 type  4   force =     0.00065953    0.00059164   -0.00038355
     atom   50 type  3   force =     0.00351213   -0.00099516   -0.00045009
     atom   51 type  4   force =    -0.00132790   -0.00087974    0.00017229
     atom   52 type  5   force =    -0.00064842   -0.00027998   -0.00047193
     atom   53 type  4   force =    -0.00206495    0.00013517    0.00079032
     atom   54 type  1   force =    -0.00046926    0.00050189   -0.00021002

     Total force =     0.381560     Total SCF correction =     0.000942
  @ DRIVER MODE: Message from server: STATUS
  @ DRIVER MODE: Message from server: GETFORCE
  @ DRIVER MODE: Returning v,forces,stress,ensemble

     Writing output data file ./calc.save/
  @ DRIVER MODE: Message from server: EXIT
  @ DRIVE MODE: Exiting

     General routines

     Parallel routines

   This run was terminated on:   6:33:50  27Sep2021

   JOB DONE.