     Program PWSCF v.6.7GPU starts on 22Sep2021 at 22:33:21

     R & G space division:  proc/nbgrp/npool/nimage =      10
     Reading input from /storage/home/hcoda1/3/ntian30/research/carbon/CxH_vib/H2O_calc/ads_slab/CHNHNHHO_b/out_0020/pw.inp
Warning: card &CELL ignored
Warning: card   CELL_DYNAMICS='IPI', ignored
Warning: card / ignored

     Current dimensions of program PWSCF are:
     Max number of different atomic species (ntypx) = 10
     Max number of k-points (npk) =  40000
     Max angular momentum in pseudopotentials (lmaxx) =  3
     Presently no symmetry can be used with electric field

     Message from routine cell_base_init:
     DEPRECATED: use true lattice parameter, not A to a.u. conversion factor

     IMPORTANT: XC functional enforced from input :
     Exchange-correlation= BEEF-VDW
                           (   1   4  43  14   2   0   0)
     Any further DFT definition will be discarded
     Please, verify this is what you really want

  @ DRIVER MODE: Connecting to
 qe_1139763_2937316.sched-torque.pace.gatech.eduzxt8zl92_scratch
  using UNIX socket
  @ DRIVER MODE: Message from server: STATUS
  @ DRIVER MODE: Message from server: INIT
  @ DRIVER MODE: Receiving replica           0          -1
  @ DRIVER MODE: Receiving encoded integer          25
  @ DRIVER MODE:  SCF:  T  FORCE:  T  STRESS:  F  VC:  F  ENSEMBLE:  F
  @ DRIVER MODE:  SCF:  T  FORCE:  T  STRESS:  F  VC:  F  ENSEMBLE:  F

     Using Slab Decomposition

     bravais-lattice index     =            0
     lattice parameter (alat)  =       1.8897  a.u.
     unit-cell volume          =    6658.9804 (a.u.)^3
     number of atoms/cell      =           55
     number of atomic types    =            5
     number of electrons       =       402.00
     number of Kohn-Sham states=          211
     kinetic-energy cutoff     =      29.3995  Ry
     charge density cutoff     =     293.9946  Ry
     scf convergence threshold =      7.3E-08
     mixing beta               =       0.0500
     number of iterations used =            8  plain     mixing
     Exchange-correlation= BEEF-VDW
                           (   1   4  43  14   2   0   0)

     celldm(1)=   1.889726  celldm(2)=   0.000000  celldm(3)=   0.000000
     celldm(4)=   0.000000  celldm(5)=   0.000000  celldm(6)=   0.000000

     crystal axes: (cart. coord. in units of alat)
               a(1) = (   6.579727   0.000000   0.000000 )
               a(2) = (  -0.000775   5.961596   0.000000 )
               a(3) = (   0.000000   0.000000  25.155947 )

     reciprocal axes: (cart. coord. in units 2 pi/alat)
               b(1) = (  0.151982  0.000020  0.000000 )
               b(2) = (  0.000000  0.167740  0.000000 )
               b(3) = (  0.000000  0.000000  0.039752 )

     PseudoPot. # 1 for Ti read from file:
     /storage/coda1/p-amedford6/0/shared/rich_project_chbe-medford/medford-share/data/pseudos_module/espresso/nninc/pbe/van/Ti.UPF
     MD5 check sum: 8e4df49b7f0d34bbd5052bf3f5ea0213
     Pseudo is Ultrasoft, Zval = 12.0
     Generated by new atomic code, or converted to UPF format
     Using radial grid of  851 points,  6 beta functions with:
                l(1) =   0
                l(2) =   0
                l(3) =   1
                l(4) =   1
                l(5) =   2
                l(6) =   2
     Q(r) pseudized with  8 coefficients,  rinner =    1.000   1.000   1.000
                                                       1.000   1.000

     PseudoPot. # 2 for O  read from file:
     /storage/coda1/p-amedford6/0/shared/rich_project_chbe-medford/medford-share/data/pseudos_module/espresso/nninc/pbe/van/O.UPF
     MD5 check sum: 78c19812648e8988a0fe644b0f25305e
     Pseudo is Ultrasoft, Zval =  6.0
     Generated by new atomic code, or converted to UPF format
     Using radial grid of  737 points,  4 beta functions with:
                l(1) =   0
                l(2) =   0
                l(3) =   1
                l(4) =   1
     Q(r) pseudized with  8 coefficients,  rinner =    0.800   0.800   0.800

     PseudoPot. # 3 for N  read from file:
     /storage/coda1/p-amedford6/0/shared/rich_project_chbe-medford/medford-share/data/pseudos_module/espresso/nninc/pbe/van/N.UPF
     MD5 check sum: 90d10febe142ad51ac9d5be1deb811c4
     Pseudo is Ultrasoft, Zval =  5.0
     Generated by new atomic code, or converted to UPF format
     Using radial grid of  729 points,  4 beta functions with:
                l(1) =   0
                l(2) =   0
                l(3) =   1
                l(4) =   1
     Q(r) pseudized with  8 coefficients,  rinner =    0.800   0.800   0.800

     PseudoPot. # 4 for C  read from file:
     /storage/coda1/p-amedford6/0/shared/rich_project_chbe-medford/medford-share/data/pseudos_module/espresso/nninc/pbe/van/C.UPF
     MD5 check sum: 1a69bf6b8db32088f5b2163dbdb77a27
     Pseudo is Ultrasoft, Zval =  4.0
     Generated by new atomic code, or converted to UPF format
     Using radial grid of  721 points,  4 beta functions with:
                l(1) =   0
                l(2) =   0
                l(3) =   1
                l(4) =   1
     Q(r) pseudized with  8 coefficients,  rinner =    0.800   0.800   0.800

     PseudoPot. # 5 for H  read from file:
     /storage/coda1/p-amedford6/0/shared/rich_project_chbe-medford/medford-share/data/pseudos_module/espresso/nninc/pbe/van/H.UPF
     MD5 check sum: b5ee9d7bfd3a09ee7748110bda690ff7
     Pseudo is Ultrasoft, Zval =  1.0
     Generated by new atomic code, or converted to UPF format
     Using radial grid of  615 points,  1 beta functions with:
                l(1) =   0
     Q(r) pseudized with  8 coefficients,  rinner =    0.800

     atomic species   valence    mass     pseudopotential
        Ti1           12.00    47.86700     Ti( 1.00)
        O1             6.00    15.99900     O ( 1.00)
        N1             5.00    14.00700     N ( 1.00)
        C1             4.00    12.01100     C ( 1.00)
        H1             1.00     1.00800     H ( 1.00)

     No symmetry found

   Cartesian axes

     site n.     atom                  positions (alat units)
         1           Ti1 tau(   1) = (   0.0004258   2.9801865   6.0000000  )
         2           Ti1 tau(   2) = (   3.2906075   1.4906267   6.0002472  )
         3           O1  tau(   3) = (   0.0006271   0.0005054   7.9858123  )
         4           O1  tau(   4) = (   3.2906025   0.0005020   7.3038282  )
         5           O1  tau(   5) = (   4.5942328   1.4918067   9.2879030  )
         6           O1  tau(   6) = (   1.9868534   1.4903216   9.2879459  )
         7           Ti1 tau(   7) = (   3.2907910   2.8959150   9.1758416  )
         8           Ti1 tau(   8) = (   0.0015273   1.4827037   9.2680791  )
         9           O1  tau(   9) = (   3.2644249   0.0086278  11.2869930  )
        10           O1  tau(  10) = (   0.0116148   5.9584955  10.6183126  )
        11           O1  tau(  11) = (   1.2700591   1.4733127  12.6309263  )
        12           O1  tau(  12) = (   5.2751843   1.4954020  12.5848179  )
        13           Ti1 tau(  13) = (   6.5455424   3.1153876  12.7101385  )
        14           Ti1 tau(  14) = (   3.2833704   1.6184148  12.4736748  )
        15           O1  tau(  15) = (   6.4599305   0.0050319  14.6091115  )
        16           O1  tau(  16) = (   3.3300269   5.9263713  13.9180617  )
        17           O1  tau(  17) = (   4.5165145   1.5716339  16.0125648  )
        18           O1  tau(  18) = (   1.9127028   1.4417528  15.8564018  )
        19           Ti1 tau(  19) = (   3.2288969   3.0847727  15.7886749  )
        20           Ti1 tau(  20) = (   6.4478006   1.4606891  15.8161894  )
        21           O1  tau(  21) = (   3.2904802   0.0005063   4.7018136  )
        22           O1  tau(  22) = (   6.4882405   0.0114324  17.1415363  )
        23           O1  tau(  23) = (   1.3043587   1.4918075   6.0039043  )
        24           O1  tau(  24) = (   5.2767064   1.4903225   6.0039473  )
        25           Ti1 tau(  25) = (   0.0000382   5.9609847   6.0000000  )
        26           Ti1 tau(  26) = (   3.2902200   4.4714249   6.0002472  )
        27           O1  tau(  27) = (   0.0002396   2.9813036   7.9858123  )
        28           O1  tau(  28) = (   3.2902150   2.9813002   7.3038282  )
        29           O1  tau(  29) = (   4.5938453   4.4726049   9.2879030  )
        30           O1  tau(  30) = (   1.9864658   4.4711199   9.2879459  )
        31           Ti1 tau(  31) = (   3.2891106   5.8743827   9.1763621  )
        32           Ti1 tau(  32) = (   0.0006254   4.4649316   9.2693709  )
        33           O1  tau(  33) = (   3.2692249   2.9538419  11.2423542  )
        34           O1  tau(  34) = (   0.0092240   2.9805883  10.6323155  )
        35           O1  tau(  35) = (   1.2565178   4.4877289  12.6449601  )
        36           O1  tau(  36) = (   5.2732762   4.4628510  12.5929129  )
        37           Ti1 tau(  37) = (   6.5734634   0.1294159  12.5697125  )
        38           Ti1 tau(  38) = (   3.2704022   4.6437612  12.6513646  )
        39           O1  tau(  39) = (   6.5063912   2.9643141  14.6466205  )
        40           O1  tau(  40) = (   3.2471416   2.9787476  13.8564769  )
        41           O1  tau(  41) = (   4.5405411   4.3625105  16.0593999  )
        42           O1  tau(  42) = (   1.9254132   4.5167653  15.8604027  )
        43           Ti1 tau(  43) = (   3.1528194   0.1083906  16.0566338  )
        44           Ti1 tau(  44) = (   6.5270785   4.6226534  15.9816197  )
        45           O1  tau(  45) = (   3.2900926   2.9813045   4.7018136  )
        46           O1  tau(  46) = (   1.3039711   4.4726057   6.0039043  )
        47           O1  tau(  47) = (   5.2763189   4.4711207   6.0039473  )
        48           N1  tau(  48) = (   1.2829970   2.9130689  18.3045482  )
        49           N1  tau(  49) = (   0.1654257   2.9641015  17.4510142  )
        50           C1  tau(  50) = (   2.5260228   2.9473648  17.9488278  )
        51           H1  tau(  51) = (   3.1719500   2.8785295  18.8336233  )
        52           H1  tau(  52) = (   1.0209804   2.8219014  19.2831343  )
        53           H1  tau(  53) = (   5.9303595   2.9248499  18.0583253  )
        54           O1  tau(  54) = (   3.2854906   0.0173217  17.9285145  )
        55           H1  tau(  55) = (   4.1908827   5.7946650  18.2246816  )

     number of k points=    10  Fermi-Dirac smearing, width (Ry)=  0.0073
                       cart. coord. in units 2pi/alat
        k(    1) = (   0.0000000   0.0000000   0.0000000), wk =   0.1250000
        k(    2) = (   0.0000000   0.0419351   0.0000000), wk =   0.2500000
        k(    3) = (   0.0000000  -0.0838702   0.0000000), wk =   0.1250000
        k(    4) = (   0.0379955   0.0000049   0.0000000), wk =   0.2500000
        k(    5) = (   0.0379955   0.0419400   0.0000000), wk =   0.2500000
        k(    6) = (   0.0379955  -0.0838652   0.0000000), wk =   0.2500000
        k(    7) = (   0.0379955  -0.0419301   0.0000000), wk =   0.2500000
        k(    8) = (  -0.0759910  -0.0000099   0.0000000), wk =   0.1250000
        k(    9) = (  -0.0759910   0.0419252   0.0000000), wk =   0.2500000
        k(   10) = (  -0.0759910  -0.0838800   0.0000000), wk =   0.1250000

     Initial potential from superposition of free atoms

     starting charge  385.99915, renormalised to  402.00000

     negative rho (up, down):  1.797E-02 0.000E+00

     %%%%%%%%%%%%%%%%%%%%%%%%%%%%%%%%%%%%%%%%%%%%%%%%%%%%%%%%%%%%%%%%%%%%%%%%
     %                                                                      %
     % You are using vdW-DF, which was implemented by the Thonhauser group. %
     % Please cite the following two papers that made this development      %
     % possible and the two reviews that describe the various versions:     %
     %                                                                      %
     %   T. Thonhauser et al., PRL 115, 136402 (2015).                      %
     %   T. Thonhauser et al., PRB 76, 125112 (2007).                       %
     %   K. Berland et al., Rep. Prog. Phys. 78, 066501 (2015).             %
     %   D.C. Langreth et al., J. Phys.: Condens. Matter 21, 084203 (2009). %
     %                                                                      %
     %                                                                      %
     % If you are calculating the stress with vdW-DF, please also cite:     %
     %                                                                      %
     %   R. Sabatini et al., J. Phys.: Condens. Matter 24, 424209 (2012).   %
     %                                                                      %
     %%%%%%%%%%%%%%%%%%%%%%%%%%%%%%%%%%%%%%%%%%%%%%%%%%%%%%%%%%%%%%%%%%%%%%%%

     Adding external electric field

     Computed dipole along edir(3) :
        Dipole              -10.6951 Ry au,        -27.1842 Debye
        Dipole field         -0.0202 Ry au,

        Potential amp.        1.8709 Ry
        Total length         46.3494 bohr

     Starting wfcs are  304 atomic wfcs
  @ DRIVER MODE: Message from server: STATUS
  @ DRIVER MODE: Message from server: POSDATA
  @ DRIVER MODE: Reading and sharing cell
  @ DRIVER MODE: Reading and sharing positions
  @ DRIVER MODE: Received positions

     Self-consistent Calculation

     iteration #  1     ecut=    29.40 Ry     beta= 0.05
     Davidson diagonalization with overlap
     c_bands:  2 eigenvalues not converged
     c_bands:  4 eigenvalues not converged
     c_bands:  4 eigenvalues not converged
     c_bands:  3 eigenvalues not converged
     c_bands:  3 eigenvalues not converged
     c_bands:  3 eigenvalues not converged
     c_bands:  2 eigenvalues not converged
     c_bands:  4 eigenvalues not converged
     c_bands:  4 eigenvalues not converged
     ethr =  1.00E-05,  avg # of iterations = 21.7

[...]

     total energy              =   -2414.97084491 Ry
     estimated scf accuracy    <    6220.04453989 Ry

     iteration #  2     ecut=    29.40 Ry     beta= 0.05
     Davidson diagonalization with overlap
     ethr =  1.00E-02,  avg # of iterations = 24.3

[...]

     iteration # 41     ecut=    29.40 Ry     beta= 0.05
     Davidson diagonalization with overlap
     c_bands:  1 eigenvalues not converged
     ethr =  2.08E-05,  avg # of iterations = 10.6

[...]

     total energy              =   -2972.68740606 Ry
     estimated scf accuracy    <       0.00000008 Ry

     iteration # 76     ecut=    29.40 Ry     beta= 0.05
     Davidson diagonalization with overlap
     ethr =  1.97E-11,  avg # of iterations =  4.7

     negative rho (up, down):  1.822E-02 0.000E+00

     Adding external electric field

     Computed dipole along edir(3) :
        Dipole                0.6937 Ry au,          1.7632 Debye
        Dipole field          0.0013 Ry au,

        Potential amp.       -0.1214 Ry
        Total length         46.3494 bohr

     End of self-consistent calculation

          k = 0.0000 0.0000 0.0000 ( 18029 PWs)   bands (ev):

   -56.6065 -56.5730 -55.7183 -55.6846 -55.4148 -55.3709 -55.1429 -55.1090
   -54.9724 -54.9631 -54.9330 -54.8934 -54.8130 -54.7849 -54.7822 -54.7096
   -33.0247 -32.8788 -32.8508 -32.7847 -32.6945 -32.6518 -32.2069 -31.9409
   -31.9028 -31.9015 -31.8652 -31.8537 -31.8287 -31.6438 -31.6344 -31.6068
   -31.5720 -31.5274 -31.5143 -31.4912 -31.4679 -31.4667 -31.4488 -31.3792
   -31.3455 -31.2874 -31.2759 -31.2662 -31.2330 -31.2285 -31.1780 -31.1651
   -31.1545 -31.1137 -31.1082 -31.0949 -31.0689 -31.0621 -31.0605 -31.0242
   -31.0083 -31.0055 -30.9981 -30.9866 -30.9428 -30.9208 -30.9169 -30.9023
   -18.0663 -16.7068 -16.1531 -15.9191 -15.7965 -15.7793 -15.7695 -15.7533
   -15.5612 -15.5100 -15.4070 -15.3289 -15.3064 -15.0726 -15.0479 -14.9753
   -14.8437 -14.8089 -14.7254 -14.6989 -14.6897 -14.6090 -14.5950 -14.5088
   -14.4587 -14.4414 -14.3542 -14.2454 -14.1918 -14.0806 -14.0370 -13.6406
   -13.5342 -12.9589  -8.2614  -6.7652  -4.2807  -3.8388  -3.6184  -3.4604
    -3.2996  -3.2671  -3.1175  -3.0868  -3.0454  -3.0117  -2.9530  -2.9368
    -2.8641  -2.8442  -2.7427  -2.7088  -2.6584  -2.6396  -2.4089  -2.3509
    -2.3145  -2.3131  -2.2091  -2.1334  -2.1109  -2.1060  -2.0372  -1.9672
    -1.9090  -1.8630  -1.8452  -1.8244  -1.8000  -1.7010  -1.6154  -1.6029
    -1.5970  -1.5538  -1.4426  -1.4147  -1.3926  -1.3314  -1.2668  -1.2032
    -1.1738  -1.1510  -1.0521  -1.0409  -0.9388  -0.9108  -0.8753  -0.8200
    -0.7415  -0.7155  -0.5953  -0.5848  -0.4774  -0.4696  -0.4430  -0.4372
    -0.3373  -0.2564  -0.2035  -0.1518  -0.1273  -0.1058  -0.0473  -0.0407
    -0.0037   0.0318   0.1077   0.2000   0.2629   0.2981   0.3412   0.4962
     0.5380   0.5679   0.5821   0.6705   0.7141   0.7360   0.7695   0.8472
     0.8750   0.8779   0.9765   1.0146   1.0551   1.0785   1.1378   1.1743
     1.2031   1.3805   1.4126   1.4329   1.4544   1.5300   1.7659   1.7993
     1.9348   2.6882   2.8614   3.1309   3.2873   3.6535   3.6739   3.6922
     3.6933   3.9714   4.1415

[...]

          k = 0.0380-0.0419 0.0000 ( 17876 PWs)   bands (ev):

[...]

          k =-0.0760-0.0000 0.0000 ( 17886 PWs)   bands (ev):

[...]

          k =-0.0760-0.0839 0.0000 ( 17948 PWs)   bands (ev):

   -56.5899 -56.5894 -55.7031 -55.6997 -55.4067 -55.3788 -55.1259 -55.1258
   -54.9706 -54.9587 -54.9313 -54.8977 -54.8103 -54.7852 -54.7851 -54.7122
   -32.8648 -32.8644 -32.8424 -32.8415 -32.7382 -32.7382 -32.0297 -32.0255
   -31.9005 -31.8926 -31.8769 -31.8760 -31.7196 -31.6981 -31.6316 -31.6236
   -31.6054 -31.6003 -31.4798 -31.4798 -31.3862 -31.3450 -31.3446 -31.3065
   -31.3060 -31.2912 -31.2711 -31.2460 -31.2231 -31.2084 -31.1956 -31.1889
   -31.1728 -31.1464 -31.1444 -31.1329 -31.1191 -31.1003 -31.0789 -31.0621
   -31.0498 -31.0400 -31.0264 -31.0145 -31.0098 -30.9612 -30.9219 -30.9096
   -18.0613 -16.0715 -16.0685 -16.0168 -16.0161 -15.7690 -15.7616 -15.7028
   -15.4584 -15.4530 -15.2659 -15.1528 -15.1309 -15.0726 -15.0686 -14.9369
   -14.9168 -14.8985 -14.8107 -14.7606 -14.7274 -14.7056 -14.6417 -14.5720
   -14.4613 -14.4435 -14.4293 -14.3935 -14.3378 -14.2452 -14.2063 -13.6390
   -13.6381 -12.9796  -8.2534  -6.6833  -3.9914  -3.2955  -3.1351  -3.1341
    -3.1335  -3.1122  -2.9102  -2.8937  -2.8845  -2.7142  -2.6206  -2.6149
    -2.6117  -2.4740  -2.4419  -2.4310  -2.4167  -2.3999  -2.3275  -2.3131
    -2.3092  -2.2740  -2.2518  -2.0976  -2.0896  -2.0401  -1.9719  -1.9624
    -1.9401  -1.9066  -1.8419  -1.8039  -1.7992  -1.7816  -1.7640  -1.7439
    -1.6989  -1.6477  -1.4467  -1.4002  -1.3832  -1.3634  -1.3193  -1.3097
    -1.2907  -1.2324  -1.1951  -1.1855  -1.1608  -1.1331  -1.0595  -1.0405
    -0.9951  -0.8626  -0.8145  -0.7870  -0.7511  -0.6574  -0.6180  -0.5899
    -0.5568  -0.4696  -0.4128  -0.3797  -0.3019  -0.2642  -0.2191  -0.1931
    -0.1697  -0.1244  -0.1049   0.0027   0.0584   0.0901   0.1130   0.1983
     0.3278   0.3438   0.3976   0.4465   0.5389   0.5776   0.6557   0.6979
     0.7800   0.8581   0.9287   1.0790   1.1154   1.1708   1.2375   1.2547
     1.2564   1.2853   1.2966   1.3397   1.3613   1.4452   1.5208   1.6844
     1.6980   3.2830   3.2844   3.3420   3.3456   3.6509   3.6571   3.7599
     3.7669   4.0778   4.1280

     the Fermi energy is     2.3657 ev

!    total energy              =   -2972.68742851 Ry
     estimated scf accuracy    <       0.00000003 Ry
     smearing contrib. (-TS)   =      -0.00152687 Ry
     internal energy E=F+TS    =   -2972.68590164 Ry

     The total energy is F=E-TS. E is the sum of the following terms:
     one-electron contribution =  -24519.51260178 Ry
     hartree contribution      =   12356.04485055 Ry
     xc contribution           =    -493.18772620 Ry
     ewald contribution        =    9683.96866765 Ry
     electric field correction =       0.00090814 Ry

     convergence has been achieved in  76 iterations

     Forces acting on atoms (cartesian axes, Ry/au):

     atom    1 type  1   force =     0.00015947   -0.00061017    0.12520141
     atom    2 type  1   force =     0.00002515    0.00003264   -0.15411312
     atom    3 type  2   force =    -0.00002994   -0.00028217   -0.06548438
     atom    4 type  2   force =    -0.00011443    0.00074137    0.01449704
     atom    5 type  2   force =     0.00022768   -0.00325743   -0.01520425
     atom    6 type  2   force =     0.00028286   -0.00242081   -0.01816835
     atom    7 type  1   force =    -0.00129817   -0.00082359    0.06315446
     atom    8 type  1   force =     0.00165164    0.01846987    0.09183577
     atom    9 type  2   force =     0.00018097   -0.00020164   -0.00007246
     atom   10 type  2   force =    -0.00307576    0.00126036   -0.06783791
     atom   11 type  2   force =    -0.00036552   -0.00021276   -0.00021721
     atom   12 type  2   force =    -0.00028152    0.00042646    0.00015490
     atom   13 type  1   force =     0.00102726    0.00024866   -0.00007861
     atom   14 type  1   force =    -0.00050969    0.00062043   -0.00060063
     atom   15 type  2   force =    -0.00004506    0.00063673    0.00017868
     atom   16 type  2   force =     0.00007820    0.00019571   -0.00018707
     atom   17 type  2   force =    -0.00028416    0.00020280   -0.00012149
     atom   18 type  2   force =     0.00082807   -0.00065845    0.00003119
     atom   19 type  1   force =    -0.00043147   -0.00035441   -0.00024061
     atom   20 type  1   force =     0.00065035   -0.00039620   -0.00029446
     atom   21 type  2   force =     0.00008190    0.00004949    0.09750911
     atom   22 type  2   force =    -0.00022218    0.00023531    0.00044331
     atom   23 type  2   force =    -0.08325735    0.00001183   -0.03309989
     atom   24 type  2   force =     0.08316895    0.00045447   -0.03311961
     atom   25 type  1   force =     0.00015125   -0.00036749    0.12543269
     atom   26 type  1   force =    -0.00002027   -0.00122603   -0.15379037
     atom   27 type  2   force =    -0.00002179   -0.00014935   -0.06356992
     atom   28 type  2   force =     0.00000210    0.00070858    0.01025107
     atom   29 type  2   force =    -0.00228428    0.00250977   -0.01349769
     atom   30 type  2   force =     0.00266892    0.00282665   -0.01638045
     atom   31 type  1   force =    -0.00126682   -0.00143203    0.06108776
     atom   32 type  1   force =     0.00158032   -0.01942747    0.09388642
     atom   33 type  2   force =     0.00026073   -0.00000065   -0.00019201
     atom   34 type  2   force =    -0.00076023    0.00124576   -0.07927398
     atom   35 type  2   force =     0.00028242   -0.00002863    0.00009257
     atom   36 type  2   force =    -0.00052664    0.00016001    0.00040684
     atom   37 type  1   force =     0.00094600    0.00012435    0.00031948
     atom   38 type  1   force =    -0.00055495   -0.00028363   -0.00008332
     atom   39 type  2   force =     0.00033964    0.00012709   -0.00000316
     atom   40 type  2   force =    -0.00016673    0.00010477    0.00039608
     atom   41 type  2   force =    -0.00020154   -0.00004499   -0.00037668
     atom   42 type  2   force =     0.00048767   -0.00020846    0.00025460
     atom   43 type  1   force =    -0.00100849   -0.00040242   -0.00057034
     atom   44 type  1   force =     0.00031352    0.00089112   -0.00029523
     atom   45 type  2   force =     0.00007303    0.00005833    0.09736746
     atom   46 type  2   force =    -0.08319981   -0.00003606   -0.03308405
     atom   47 type  2   force =     0.08314571    0.00037860   -0.03309044
     atom   48 type  3   force =     0.00168487   -0.00023780    0.00146701
     atom   49 type  3   force =     0.00056005   -0.00009376    0.00022581
     atom   50 type  4   force =     0.00472706   -0.00055511    0.00374952
     atom   51 type  5   force =    -0.00592792    0.00015812   -0.00519450
     atom   52 type  5   force =     0.00014853   -0.00013883   -0.00049889
     atom   53 type  5   force =    -0.00022333   -0.00025733    0.00035862
     atom   54 type  2   force =     0.00007341    0.00045297    0.00055251
     atom   55 type  5   force =     0.00027031    0.00077543   -0.00011320

     Total force =     0.419862     Total SCF correction =     0.000689
  @ DRIVER MODE: Message from server: STATUS
  @ DRIVER MODE: Message from server: GETFORCE
  @ DRIVER MODE: Returning v,forces,stress,ensemble

     Writing output data file ./calc.save/
  @ DRIVER MODE: Message from server: EXIT
  @ DRIVE MODE: Exiting

     General routines

     Parallel routines

   This run was terminated on:  22:54:33  22Sep2021

   JOB DONE.