     Program PWSCF v.6.7GPU starts on  2Aug2021 at 13:48:53

     R & G space division:  proc/nbgrp/npool/nimage =      16
     Reading input from /storage/home/hcoda1/3/ntian30/research/carbon/02Aug_vib_paired/ads_slab/CH3NH_a/out_0007/pw.inp
Warning: card &CELL ignored
Warning: card   CELL_DYNAMICS='IPI', ignored
Warning: card / ignored

     Current dimensions of program PWSCF are:
     Max number of different atomic species (ntypx) = 10
     Max number of k-points (npk) =  40000
     Max angular momentum in pseudopotentials (lmaxx) =  3
     Presently no symmetry can be used with electric field

     Message from routine cell_base_init:
     DEPRECATED: use true lattice parameter, not A to a.u. conversion factor

     IMPORTANT: XC functional enforced from input :
     Exchange-correlation= BEEF-VDW
                           (   1   4  43  14   2   0   0)
     Any further DFT definition will be discarded
     Please, verify this is what you really want

  @ DRIVER MODE: Connecting to
 qe_1139763_2482540.sched-torque.pace.gatech.edudv72cy89_scratch
  using UNIX socket
  @ DRIVER MODE: Message from server: STATUS
  @ DRIVER MODE: Message from server: INIT
  @ DRIVER MODE: Receiving replica           0          -1
  @ DRIVER MODE: Receiving encoded integer          25
  @ DRIVER MODE:  SCF:  T  FORCE:  T  STRESS:  F  VC:  F  ENSEMBLE:  F
  @ DRIVER MODE:  SCF:  T  FORCE:  T  STRESS:  F  VC:  F  ENSEMBLE:  F

     Using Slab Decomposition

     bravais-lattice index     =            0
     lattice parameter (alat)  =       1.8897  a.u.
     unit-cell volume          =    6658.9804 (a.u.)^3
     number of atoms/cell      =           53
     number of atomic types    =            5
     number of electrons       =       391.00
     number of Kohn-Sham states=          205
     kinetic-energy cutoff     =      29.3995  Ry
     charge density cutoff     =     293.9946  Ry
     scf convergence threshold =      7.3E-08
     mixing beta               =       0.0500
     number of iterations used =            8  plain     mixing
     Exchange-correlation= BEEF-VDW
                           (   1   4  43  14   2   0   0)

     celldm(1)=   1.889726  celldm(2)=   0.000000  celldm(3)=   0.000000
     celldm(4)=   0.000000  celldm(5)=   0.000000  celldm(6)=   0.000000

     crystal axes: (cart. coord. in units of alat)
               a(1) = (   6.579727   0.000000   0.000000 )
               a(2) = (  -0.000775   5.961596   0.000000 )
               a(3) = (   0.000000   0.000000  25.155947 )

     reciprocal axes: (cart. coord. in units 2 pi/alat)
               b(1) = (  0.151982  0.000020  0.000000 )
               b(2) = (  0.000000  0.167740  0.000000 )
               b(3) = (  0.000000  0.000000  0.039752 )

     PseudoPot. # 1 for Ti read from file:
     /storage/coda1/p-amedford6/0/shared/rich_project_chbe-medford/medford-share/data/pseudos_module/espresso/nninc/pbe/van/Ti.UPF
     MD5 check sum: 8e4df49b7f0d34bbd5052bf3f5ea0213
     Pseudo is Ultrasoft, Zval = 12.0
     Generated by new atomic code, or converted to UPF format
     Using radial grid of  851 points,  6 beta functions with:
                l(1) =   0
                l(2) =   0
                l(3) =   1
                l(4) =   1
                l(5) =   2
                l(6) =   2
     Q(r) pseudized with  8 coefficients,  rinner =    1.000   1.000   1.000
                                                       1.000   1.000

     PseudoPot. # 2 for O  read from file:
     /storage/coda1/p-amedford6/0/shared/rich_project_chbe-medford/medford-share/data/pseudos_module/espresso/nninc/pbe/van/O.UPF
     MD5 check sum: 78c19812648e8988a0fe644b0f25305e
     Pseudo is Ultrasoft, Zval =  6.0
     Generated by new atomic code, or converted to UPF format
     Using radial grid of  737 points,  4 beta functions with:
                l(1) =   0
                l(2) =   0
                l(3) =   1
                l(4) =   1
     Q(r) pseudized with  8 coefficients,  rinner =    0.800   0.800   0.800

     PseudoPot. # 3 for H  read from file:
     /storage/coda1/p-amedford6/0/shared/rich_project_chbe-medford/medford-share/data/pseudos_module/espresso/nninc/pbe/van/H.UPF
     MD5 check sum: b5ee9d7bfd3a09ee7748110bda690ff7
     Pseudo is Ultrasoft, Zval =  1.0
     Generated by new atomic code, or converted to UPF format
     Using radial grid of  615 points,  1 beta functions with:
                l(1) =   0
     Q(r) pseudized with  8 coefficients,  rinner =    0.800

     PseudoPot. # 4 for N  read from file:
     /storage/coda1/p-amedford6/0/shared/rich_project_chbe-medford/medford-share/data/pseudos_module/espresso/nninc/pbe/van/N.UPF
     MD5 check sum: 90d10febe142ad51ac9d5be1deb811c4
     Pseudo is Ultrasoft, Zval =  5.0
     Generated by new atomic code, or converted to UPF format
     Using radial grid of  729 points,  4 beta functions with:
                l(1) =   0
                l(2) =   0
                l(3) =   1
                l(4) =   1
     Q(r) pseudized with  8 coefficients,  rinner =    0.800   0.800   0.800

     PseudoPot. # 5 for C  read from file:
     /storage/coda1/p-amedford6/0/shared/rich_project_chbe-medford/medford-share/data/pseudos_module/espresso/nninc/pbe/van/C.UPF
     MD5 check sum: 1a69bf6b8db32088f5b2163dbdb77a27
     Pseudo is Ultrasoft, Zval =  4.0
     Generated by new atomic code, or converted to UPF format
     Using radial grid of  721 points,  4 beta functions with:
                l(1) =   0
                l(2) =   0
                l(3) =   1
                l(4) =   1
     Q(r) pseudized with  8 coefficients,  rinner =    0.800   0.800   0.800

     atomic species   valence    mass     pseudopotential
        Ti1           12.00    47.86700     Ti( 1.00)
        O1             6.00    15.99900     O ( 1.00)
        H1             1.00     1.00800     H ( 1.00)
        N1             5.00    14.00700     N ( 1.00)
        C1             4.00    12.01100     C ( 1.00)

     No symmetry found

   Cartesian axes

     site n.     atom                  positions (alat units)
         1           Ti1 tau(   1) = (   0.0004258   2.9801865   6.0000000  )
         2           Ti1 tau(   2) = (   3.2906075   1.4906267   6.0002472  )
         3           O1  tau(   3) = (   0.0006271   0.0005054   7.9858123  )
         4           O1  tau(   4) = (   3.2906025   0.0005020   7.3038282  )
         5           O1  tau(   5) = (   4.5942328   1.4918067   9.2879030  )
         6           O1  tau(   6) = (   1.9868534   1.4903216   9.2879459  )
         7           Ti1 tau(   7) = (   3.2907910   2.8959150   9.1758416  )
         8           Ti1 tau(   8) = (   0.0015273   1.4827037   9.2680791  )
         9           O1  tau(   9) = (   3.2884659   0.0075485  11.3235732  )
        10           O1  tau(  10) = (   0.0116148   5.9584955  10.6183126  )
        11           O1  tau(  11) = (   1.3171120   1.5008813  12.6157184  )
        12           O1  tau(  12) = (   5.2946386   1.4924346  12.6071097  )
        13           Ti1 tau(  13) = (   6.5241923   2.9548932  12.6217359  )
        14           Ti1 tau(  14) = (   3.2094326   1.4975571  12.4685497  )
        15           O1  tau(  15) = (   6.5712017   0.0435206  14.6415704  )
        16           O1  tau(  16) = (   3.3105969   0.0188825  13.9167609  )
        17           O1  tau(  17) = (   4.5276945   1.5520673  16.0775932  )
        18           O1  tau(  18) = (   2.0451199   1.5488911  16.0433559  )
        19           Ti1 tau(  19) = (   3.3056363   3.0248959  15.6834923  )
        20           Ti1 tau(  20) = (   0.0598299   1.5678558  15.8702049  )
        21           O1  tau(  21) = (   3.2904802   0.0005063   4.7018136  )
        22           O1  tau(  22) = (   0.0261329   0.0581799  17.1997403  )
        23           O1  tau(  23) = (   1.3043587   1.4918075   6.0039043  )
        24           O1  tau(  24) = (   5.2767064   1.4903225   6.0039473  )
        25           Ti1 tau(  25) = (   0.0000382   5.9609847   6.0000000  )
        26           Ti1 tau(  26) = (   3.2902200   4.4714249   6.0002472  )
        27           O1  tau(  27) = (   0.0002396   2.9813036   7.9858123  )
        28           O1  tau(  28) = (   3.2902150   2.9813002   7.3038282  )
        29           O1  tau(  29) = (   4.5938453   4.4726049   9.2879030  )
        30           O1  tau(  30) = (   1.9864658   4.4711199   9.2879459  )
        31           Ti1 tau(  31) = (   3.2891106   5.8743827   9.1763621  )
        32           Ti1 tau(  32) = (   0.0006254   4.4649316   9.2693709  )
        33           O1  tau(  33) = (   3.2900467   2.9919642  11.3219399  )
        34           O1  tau(  34) = (   0.0092240   2.9805883  10.6323155  )
        35           O1  tau(  35) = (   1.3109590   4.4888342  12.6262493  )
        36           O1  tau(  36) = (   5.2962169   4.4808628  12.6191006  )
        37           Ti1 tau(  37) = (   6.5213093   5.9327278  12.5667326  )
        38           Ti1 tau(  38) = (   3.2063601   4.4772876  12.4706241  )
        39           O1  tau(  39) = (   6.5765807   2.9606619  14.6437028  )
        40           O1  tau(  40) = (   3.3047873   3.0036736  13.8926904  )
        41           O1  tau(  41) = (   4.5386289   4.5058657  16.0833063  )
        42           O1  tau(  42) = (   2.0584685   4.5123608  16.0729366  )
        43           Ti1 tau(  43) = (   3.3398093   0.0384087  15.7085799  )
        44           Ti1 tau(  44) = (   0.0478225   4.6849499  16.0879628  )
        45           O1  tau(  45) = (   3.2900926   2.9813045   4.7018136  )
        46           O1  tau(  46) = (   1.3039711   4.4726057   6.0039043  )
        47           O1  tau(  47) = (   5.2763189   4.4711207   6.0039473  )
        48           H1  tau(  48) = (   5.6109407   2.9912845  17.7881963  )
        49           N1  tau(  49) = (   6.5552763   3.0051276  17.4431066  )
        50           C1  tau(  50) = (   0.8863280   2.9891452  18.6126320  )
        51           H1  tau(  51) = (   1.3596840   3.9617220  18.7724638  )
        52           H1  tau(  52) = (   0.3315535   2.7344040  19.5171108  )
        53           H1  tau(  53) = (   1.6705027   2.2407838  18.4910999  )

     number of k points=    10  Fermi-Dirac smearing, width (Ry)=  0.0073
                       cart. coord. in units 2pi/alat
        k(    1) = (   0.0000000   0.0000000   0.0000000), wk =   0.1250000
        k(    2) = (   0.0000000   0.0419351   0.0000000), wk =   0.2500000
        k(    3) = (   0.0000000  -0.0838702   0.0000000), wk =   0.1250000
        k(    4) = (   0.0379955   0.0000049   0.0000000), wk =   0.2500000
        k(    5) = (   0.0379955   0.0419400   0.0000000), wk =   0.2500000
        k(    6) = (   0.0379955  -0.0838652   0.0000000), wk =   0.2500000
        k(    7) = (   0.0379955  -0.0419301   0.0000000), wk =   0.2500000
        k(    8) = (  -0.0759910  -0.0000099   0.0000000), wk =   0.1250000
        k(    9) = (  -0.0759910   0.0419252   0.0000000), wk =   0.2500000
        k(   10) = (  -0.0759910  -0.0838800   0.0000000), wk =   0.1250000

     Initial potential from superposition of free atoms

     starting charge  374.99916, renormalised to  391.00000

     negative rho (up, down):  1.779E-02 0.000E+00

     %%%%%%%%%%%%%%%%%%%%%%%%%%%%%%%%%%%%%%%%%%%%%%%%%%%%%%%%%%%%%%%%%%%%%%%%
     %                                                                      %
     % You are using vdW-DF, which was implemented by the Thonhauser group. %
     % Please cite the following two papers that made this development      %
     % possible and the two reviews that describe the various versions:     %
     %                                                                      %
     %   T. Thonhauser et al., PRL 115, 136402 (2015).                      %
     %   T. Thonhauser et al., PRB 76, 125112 (2007).                       %
     %   K. Berland et al., Rep. Prog. Phys. 78, 066501 (2015).             %
     %   D.C. Langreth et al., J. Phys.: Condens. Matter 21, 084203 (2009). %
     %                                                                      %
     %                                                                      %
     % If you are calculating the stress with vdW-DF, please also cite:     %
     %                                                                      %
     %   R. Sabatini et al., J. Phys.: Condens. Matter 24, 424209 (2012).   %
     %                                                                      %
     %%%%%%%%%%%%%%%%%%%%%%%%%%%%%%%%%%%%%%%%%%%%%%%%%%%%%%%%%%%%%%%%%%%%%%%%

     Adding external electric field

     Computed dipole along edir(3) :
        Dipole               -5.8084 Ry au,        -14.7635 Debye
        Dipole field         -0.0110 Ry au,

        Potential amp.        1.0161 Ry
        Total length         46.3494 bohr

     Starting wfcs are  296 atomic wfcs
  @ DRIVER MODE: Message from server: STATUS
  @ DRIVER MODE: Message from server: POSDATA
  @ DRIVER MODE: Reading and sharing cell
  @ DRIVER MODE: Reading and sharing positions
  @ DRIVER MODE: Received positions

     Self-consistent Calculation

     iteration #  1     ecut=    29.40 Ry     beta= 0.05
     Davidson diagonalization with overlap
     c_bands:  3 eigenvalues not converged
     c_bands:  1 eigenvalues not converged
     c_bands:  1 eigenvalues not converged
     c_bands:  2 eigenvalues not converged
     c_bands:  4 eigenvalues not converged
     c_bands:  2 eigenvalues not converged
     c_bands:  1 eigenvalues not converged
     c_bands:  1 eigenvalues not converged
     c_bands:  2 eigenvalues not converged
     ethr =  1.00E-05,  avg # of iterations = 19.5

[...]

     total energy              =   -2770.94203951 Ry
     estimated scf accuracy    <    1638.30074305 Ry

     iteration #  2     ecut=    29.40 Ry     beta= 0.05
     Davidson diagonalization with overlap
     ethr =  1.00E-02,  avg # of iterations = 18.4

[...]

     iteration # 59     ecut=    29.40 Ry     beta= 0.05
     Davidson diagonalization with overlap
     c_bands:  1 eigenvalues not converged
     ethr =  2.37E-11,  avg # of iterations = 13.1

[...]

     total energy              =   -2920.41970496 Ry
     estimated scf accuracy    <       0.00000009 Ry

     iteration # 61     ecut=    29.40 Ry     beta= 0.05
     Davidson diagonalization with overlap
     ethr =  2.35E-11,  avg # of iterations =  9.4

     negative rho (up, down):  1.825E-02 0.000E+00

     Adding external electric field

     Computed dipole along edir(3) :
        Dipole                0.6958 Ry au,          1.7685 Debye
        Dipole field          0.0013 Ry au,

        Potential amp.       -0.1217 Ry
        Total length         46.3494 bohr

     End of self-consistent calculation

          k = 0.0000 0.0000 0.0000 ( 18029 PWs)   bands (ev):

   -55.9809 -55.9725 -55.9468 -55.9364 -55.8841 -55.8234 -55.8189 -55.7860
   -55.7843 -55.7521 -55.7456 -55.7119 -55.5547 -55.2737 -54.9534 -54.9194
   -32.5325 -32.4624 -32.3332 -32.3202 -32.2996 -32.2852 -32.2741 -32.2367
   -32.2225 -32.2197 -32.1955 -32.1885 -32.1558 -32.1330 -32.1242 -32.1171
   -32.1155 -32.0843 -32.0642 -32.0380 -32.0301 -32.0260 -32.0101 -31.9885
   -31.9790 -31.9773 -31.9724 -31.9622 -31.9490 -31.9418 -31.9396 -31.9343
   -31.9225 -31.9163 -31.8989 -31.8929 -31.8583 -31.8194 -31.7238 -31.5482
   -31.5417 -31.4705 -31.3603 -31.2726 -31.2501 -31.1771 -31.0906 -30.9795
   -16.7418 -16.4584 -16.2792 -16.1361 -16.1030 -16.0179 -15.8174 -15.6923
   -15.6793 -15.5762 -15.5385 -15.5153 -15.5082 -15.4800 -15.4777 -15.4187
   -15.4158 -15.4032 -15.3908 -15.3348 -15.3109 -15.2709 -15.1770 -15.1528
   -15.1374 -15.1107 -15.0300 -15.0226 -14.5824 -14.0906 -13.4557 -13.3394
    -8.9649  -4.3652  -4.1126  -3.9356  -3.8959  -3.8833  -3.8350  -3.5830
    -3.5669  -3.3035  -3.1894  -3.1739  -3.1667  -3.1500  -3.1368  -3.1168
    -2.8801  -2.8095  -2.7959  -2.7740  -2.7665  -2.7633  -2.7512  -2.7471
    -2.7047  -2.6453  -2.5291  -2.5144  -2.4081  -2.3608  -2.3389  -2.2904
    -2.2469  -2.2402  -2.2285  -2.2110  -2.1974  -2.1771  -2.1592  -2.0246
    -1.9616  -1.8323  -1.7855  -1.7796  -1.5816  -1.5384  -1.4469  -1.4241
    -1.4077  -1.4000  -1.3677  -1.2876  -1.1958  -1.1389  -1.1258  -1.0724
    -0.9956  -0.9845  -0.8738  -0.8691  -0.8009  -0.7500  -0.7401  -0.7308
    -0.6860  -0.6277  -0.5403  -0.4654  -0.4160  -0.3958  -0.3680  -0.2887
    -0.2586  -0.1627  -0.1432  -0.0973  -0.0936  -0.0445  -0.0026   0.0073
     0.0138   0.0285   0.0462   0.1949   0.3019   0.3589   0.3927   0.4019
     0.5584   0.5939   0.6825   0.7698   0.9955   1.0687   1.1622   1.2615
     1.3174   1.6395   1.6848   3.1621   3.2411   3.2942   3.3026   3.4042
     3.4066   3.6119   3.6244   3.6349   3.7030

[...]

          k = 0.0380-0.0419 0.0000 ( 17876 PWs)   bands (ev):

[...]

          k =-0.0760-0.0000 0.0000 ( 17886 PWs)   bands (ev):

[...]

          k =-0.0760-0.0839 0.0000 ( 17948 PWs)   bands (ev):

   -55.9642 -55.9633 -55.9553 -55.9534 -55.8787 -55.8287 -55.8037 -55.7995
   -55.7698 -55.7679 -55.7295 -55.7282 -55.5537 -55.2746 -54.9364 -54.9362
   -32.3368 -32.3340 -32.2780 -32.2773 -32.2651 -32.2599 -32.2590 -32.2447
   -32.1825 -32.1814 -32.1749 -32.1711 -32.1478 -32.1195 -32.1012 -32.0970
   -32.0865 -32.0837 -32.0828 -32.0827 -32.0809 -32.0694 -32.0669 -32.0349
   -32.0242 -32.0184 -31.9940 -31.9846 -31.9666 -31.9661 -31.9623 -31.9612
   -31.9444 -31.9438 -31.9413 -31.9395 -31.8873 -31.8222 -31.7190 -31.6113
   -31.5438 -31.4959 -31.2629 -31.2628 -31.1732 -31.1730 -31.1339 -31.1339
   -16.1937 -16.1603 -15.9249 -15.9153 -15.9064 -15.8902 -15.7457 -15.6939
   -15.6850 -15.6785 -15.6542 -15.6304 -15.5790 -15.5489 -15.5150 -15.5084
   -15.5017 -15.4964 -15.4402 -15.4337 -15.4114 -15.4040 -15.2904 -15.2863
   -15.2848 -15.2087 -15.1442 -15.0107 -14.7527 -14.1114 -13.4413 -13.4412
    -8.9686  -4.3755  -3.4883  -3.4501  -3.2670  -3.1887  -3.1646  -3.1516
    -3.1303  -3.0507  -2.8912  -2.8767  -2.8581  -2.8453  -2.8051  -2.8000
    -2.7882  -2.7744  -2.7672  -2.7495  -2.7155  -2.6754  -2.6467  -2.6398
    -2.6307  -2.6058  -2.5937  -2.5671  -2.5616  -2.5290  -2.5204  -2.5015
    -2.4779  -2.2141  -2.1967  -2.1804  -2.1114  -2.1045  -2.0698  -2.0612
    -2.0423  -2.0289  -1.9771  -1.8752  -1.7127  -1.6798  -1.6712  -1.6521
    -1.5864  -1.5652  -1.4154  -1.3883  -1.3705  -1.3317  -1.2821  -1.2532
    -1.2150  -1.1756  -1.1378  -1.0778  -1.0701  -0.9906  -0.9404  -0.9398
    -0.9133  -0.8429  -0.7635  -0.7468  -0.7352  -0.6943  -0.6816  -0.5988
    -0.5761  -0.4778  -0.4649  -0.3979  -0.3644  -0.2974  -0.0958   0.0044
     0.0630   0.0872   0.1400   0.2373   0.2914   0.3060   0.3387   0.3437
     0.4033   0.4441   0.5586   0.5661   0.6346   0.7382   1.2662   1.4330
     1.4336   1.5047   1.5047   3.4241   3.4299   3.4792   3.5099   3.6616
     3.6660   3.6889   3.6900   3.8111   3.8287

     the Fermi energy is     3.1552 ev

!    total energy              =   -2920.41974203 Ry
     estimated scf accuracy    <       0.00000006 Ry
     smearing contrib. (-TS)   =      -0.02203124 Ry
     internal energy E=F+TS    =   -2920.39771079 Ry

     The total energy is F=E-TS. E is the sum of the following terms:
     one-electron contribution =  -24727.65751058 Ry
     hartree contribution      =   12448.50081986 Ry
     xc contribution           =    -480.87796315 Ry
     ewald contribution        =    9839.63602949 Ry
     electric field correction =       0.00091359 Ry

     convergence has been achieved in  61 iterations

     Forces acting on atoms (cartesian axes, Ry/au):

     atom    1 type  1   force =     0.00011222   -0.00017460    0.09685174
     atom    2 type  1   force =     0.00005430   -0.00047356   -0.17506597
     atom    3 type  2   force =     0.00012761    0.00000898   -0.02534274
     atom    4 type  2   force =    -0.00003657   -0.00128114    0.05236525
     atom    5 type  2   force =    -0.01223064   -0.00001086    0.00298533
     atom    6 type  2   force =     0.01366910    0.00058758    0.00231896
     atom    7 type  1   force =     0.00056333    0.00034276   -0.01302740
     atom    8 type  1   force =     0.00045173    0.00731660    0.03073602
     atom    9 type  2   force =     0.00055734    0.00003595   -0.00021176
     atom   10 type  2   force =    -0.00268282    0.00211029   -0.01738838
     atom   11 type  2   force =    -0.00014863    0.00006188   -0.00002815
     atom   12 type  2   force =     0.00047024    0.00034254    0.00017887
     atom   13 type  1   force =    -0.00009699   -0.00054115   -0.00013524
     atom   14 type  1   force =    -0.00042423    0.00002946    0.00080553
     atom   15 type  2   force =    -0.00024970   -0.00075250    0.00083239
     atom   16 type  2   force =     0.00024354    0.00062895   -0.00049113
     atom   17 type  2   force =     0.00036100   -0.00007969    0.00045776
     atom   18 type  2   force =    -0.00036321    0.00008195    0.00017521
     atom   19 type  1   force =     0.00024325    0.00046351   -0.00030649
     atom   20 type  1   force =    -0.00046967   -0.00050967    0.00015486
     atom   21 type  2   force =     0.00006205   -0.00002718    0.10313878
     atom   22 type  2   force =     0.00021766   -0.00082331    0.00101368
     atom   23 type  2   force =    -0.07165789   -0.00015604   -0.02782550
     atom   24 type  2   force =     0.07155119    0.00034117   -0.02788122
     atom   25 type  1   force =     0.00007984   -0.00013726    0.09658244
     atom   26 type  1   force =     0.00009934   -0.00019507   -0.17519358
     atom   27 type  2   force =     0.00011836   -0.00011444   -0.02440032
     atom   28 type  2   force =     0.00004410   -0.00104043    0.05228348
     atom   29 type  2   force =    -0.01242992    0.00063583    0.00277879
     atom   30 type  2   force =     0.01373854    0.00098184    0.00212284
     atom   31 type  1   force =     0.00046593    0.00315823   -0.01358357
     atom   32 type  1   force =     0.00032134   -0.00952315    0.03109787
     atom   33 type  2   force =    -0.00007344    0.00031021   -0.00060383
     atom   34 type  2   force =    -0.00205768    0.00182167   -0.02539547
     atom   35 type  2   force =    -0.00019382   -0.00028249    0.00038158
     atom   36 type  2   force =     0.00026021   -0.00078329    0.00039624
     atom   37 type  1   force =     0.00002972    0.00026283    0.00102213
     atom   38 type  1   force =    -0.00019977    0.00038490    0.00076707
     atom   39 type  2   force =     0.00009578   -0.00018630   -0.00071093
     atom   40 type  2   force =     0.00041192    0.00007336    0.00057785
     atom   41 type  2   force =    -0.00000047   -0.00007896   -0.00021564
     atom   42 type  2   force =    -0.00079889   -0.00059662   -0.00020188
     atom   43 type  1   force =    -0.00055083   -0.00020739    0.00038685
     atom   44 type  1   force =    -0.00057579   -0.00086355    0.00062317
     atom   45 type  2   force =     0.00004043   -0.00005018    0.10314861
     atom   46 type  2   force =    -0.07164946   -0.00006898   -0.02782198
     atom   47 type  2   force =     0.07156843    0.00035148   -0.02789454
     atom   48 type  3   force =    -0.01416298   -0.00074422    0.00567709
     atom   49 type  4   force =     0.02046197    0.00019330   -0.00212812
     atom   50 type  5   force =    -0.00391031   -0.00048949   -0.00211513
     atom   51 type  3   force =    -0.00133300    0.00025348   -0.00038578
     atom   52 type  3   force =     0.00040190   -0.00055199   -0.00026701
     atom   53 type  3   force =    -0.00052565   -0.00003524   -0.00123863

     Total force =     0.369389     Total SCF correction =     0.000785
  @ DRIVER MODE: Message from server: STATUS
  @ DRIVER MODE: Message from server: GETFORCE
  @ DRIVER MODE: Returning v,forces,stress,ensemble

     Writing output data file ./calc.save/
  @ DRIVER MODE: Message from server: EXIT
  @ DRIVE MODE: Exiting

     General routines

     Parallel routines

   This run was terminated on:  14: 3:26   2Aug2021

   JOB DONE.