     Program PWSCF v.6.7GPU starts on 23Sep2021 at 16:20:48

     R & G space division:  proc/nbgrp/npool/nimage =       8
     Reading input from /storage/home/hcoda1/3/ntian30/research/carbon/CxH_vib/H2O_calc/ads_slab/CH2NNHHHO_a/out_0013/pw.inp
Warning: card &CELL ignored
Warning: card   CELL_DYNAMICS='IPI', ignored
Warning: card / ignored

     Current dimensions of program PWSCF are:
     Max number of different atomic species (ntypx) = 10
     Max number of k-points (npk) =  40000
     Max angular momentum in pseudopotentials (lmaxx) =  3
     Presently no symmetry can be used with electric field

     Message from routine cell_base_init:
     DEPRECATED: use true lattice parameter, not A to a.u. conversion factor

     IMPORTANT: XC functional enforced from input :
     Exchange-correlation= BEEF-VDW
                           (   1   4  43  14   2   0   0)
     Any further DFT definition will be discarded
     Please, verify this is what you really want

  @ DRIVER MODE: Connecting to
 qe_1139763_2947314.sched-torque.pace.gatech.edudmuqp2ho_scratch
  using UNIX socket
  @ DRIVER MODE: Message from server: STATUS
  @ DRIVER MODE: Message from server: INIT
  @ DRIVER MODE: Receiving replica           0          -1
  @ DRIVER MODE: Receiving encoded integer          25
  @ DRIVER MODE:  SCF:  T  FORCE:  T  STRESS:  F  VC:  F  ENSEMBLE:  F
  @ DRIVER MODE:  SCF:  T  FORCE:  T  STRESS:  F  VC:  F  ENSEMBLE:  F

     Using Slab Decomposition

     bravais-lattice index     =            0
     lattice parameter (alat)  =       1.8897  a.u.
     unit-cell volume          =    6658.9804 (a.u.)^3
     number of atoms/cell      =           56
     number of atomic types    =            5
     number of electrons       =       403.00
     number of Kohn-Sham states=          211
     kinetic-energy cutoff     =      29.3995  Ry
     charge density cutoff     =     293.9946  Ry
     scf convergence threshold =      7.3E-08
     mixing beta               =       0.0500
     number of iterations used =            8  plain     mixing
     Exchange-correlation= BEEF-VDW
                           (   1   4  43  14   2   0   0)

     celldm(1)=   1.889726  celldm(2)=   0.000000  celldm(3)=   0.000000
     celldm(4)=   0.000000  celldm(5)=   0.000000  celldm(6)=   0.000000

     crystal axes: (cart. coord. in units of alat)
               a(1) = (   6.579727   0.000000   0.000000 )
               a(2) = (  -0.000775   5.961596   0.000000 )
               a(3) = (   0.000000   0.000000  25.155947 )

     reciprocal axes: (cart. coord. in units 2 pi/alat)
               b(1) = (  0.151982  0.000020  0.000000 )
               b(2) = (  0.000000  0.167740  0.000000 )
               b(3) = (  0.000000  0.000000  0.039752 )

     PseudoPot. # 1 for Ti read from file:
     /storage/coda1/p-amedford6/0/shared/rich_project_chbe-medford/medford-share/data/pseudos_module/espresso/nninc/pbe/van/Ti.UPF
     MD5 check sum: 8e4df49b7f0d34bbd5052bf3f5ea0213
     Pseudo is Ultrasoft, Zval = 12.0
     Generated by new atomic code, or converted to UPF format
     Using radial grid of  851 points,  6 beta functions with:
                l(1) =   0
                l(2) =   0
                l(3) =   1
                l(4) =   1
                l(5) =   2
                l(6) =   2
     Q(r) pseudized with  8 coefficients,  rinner =    1.000   1.000   1.000
                                                       1.000   1.000

     PseudoPot. # 2 for O  read from file:
     /storage/coda1/p-amedford6/0/shared/rich_project_chbe-medford/medford-share/data/pseudos_module/espresso/nninc/pbe/van/O.UPF
     MD5 check sum: 78c19812648e8988a0fe644b0f25305e
     Pseudo is Ultrasoft, Zval =  6.0
     Generated by new atomic code, or converted to UPF format
     Using radial grid of  737 points,  4 beta functions with:
                l(1) =   0
                l(2) =   0
                l(3) =   1
                l(4) =   1
     Q(r) pseudized with  8 coefficients,  rinner =    0.800   0.800   0.800

     PseudoPot. # 3 for N  read from file:
     /storage/coda1/p-amedford6/0/shared/rich_project_chbe-medford/medford-share/data/pseudos_module/espresso/nninc/pbe/van/N.UPF
     MD5 check sum: 90d10febe142ad51ac9d5be1deb811c4
     Pseudo is Ultrasoft, Zval =  5.0
     Generated by new atomic code, or converted to UPF format
     Using radial grid of  729 points,  4 beta functions with:
                l(1) =   0
                l(2) =   0
                l(3) =   1
                l(4) =   1
     Q(r) pseudized with  8 coefficients,  rinner =    0.800   0.800   0.800

     PseudoPot. # 4 for C  read from file:
     /storage/coda1/p-amedford6/0/shared/rich_project_chbe-medford/medford-share/data/pseudos_module/espresso/nninc/pbe/van/C.UPF
     MD5 check sum: 1a69bf6b8db32088f5b2163dbdb77a27
     Pseudo is Ultrasoft, Zval =  4.0
     Generated by new atomic code, or converted to UPF format
     Using radial grid of  721 points,  4 beta functions with:
                l(1) =   0
                l(2) =   0
                l(3) =   1
                l(4) =   1
     Q(r) pseudized with  8 coefficients,  rinner =    0.800   0.800   0.800

     PseudoPot. # 5 for H  read from file:
     /storage/coda1/p-amedford6/0/shared/rich_project_chbe-medford/medford-share/data/pseudos_module/espresso/nninc/pbe/van/H.UPF
     MD5 check sum: b5ee9d7bfd3a09ee7748110bda690ff7
     Pseudo is Ultrasoft, Zval =  1.0
     Generated by new atomic code, or converted to UPF format
     Using radial grid of  615 points,  1 beta functions with:
                l(1) =   0
     Q(r) pseudized with  8 coefficients,  rinner =    0.800

     atomic species   valence    mass     pseudopotential
        Ti1           12.00    47.86700     Ti( 1.00)
        O1             6.00    15.99900     O ( 1.00)
        N1             5.00    14.00700     N ( 1.00)
        C1             4.00    12.01100     C ( 1.00)
        H1             1.00     1.00800     H ( 1.00)

     No symmetry found

   Cartesian axes

     site n.     atom                  positions (alat units)
         1           Ti1 tau(   1) = (   0.0004258   2.9801865   6.0000000  )
         2           Ti1 tau(   2) = (   3.2906075   1.4906267   6.0002472  )
         3           O1  tau(   3) = (   0.0006271   0.0005054   7.9858123  )
         4           O1  tau(   4) = (   3.2906025   0.0005020   7.3038282  )
         5           O1  tau(   5) = (   4.5942328   1.4918067   9.2879030  )
         6           O1  tau(   6) = (   1.9868534   1.4903216   9.2879459  )
         7           Ti1 tau(   7) = (   3.2907910   2.8959150   9.1758416  )
         8           Ti1 tau(   8) = (   0.0015273   1.4827037   9.2680791  )
         9           O1  tau(   9) = (   3.2834828   5.9254549  11.3560997  )
        10           O1  tau(  10) = (   0.0116148   5.9584955  10.6183126  )
        11           O1  tau(  11) = (   1.2632982   1.4794151  12.6467768  )
        12           O1  tau(  12) = (   5.2979234   1.4912170  12.6376735  )
        13           Ti1 tau(  13) = (   6.5593102   2.9584919  12.5255918  )
        14           Ti1 tau(  14) = (   3.2941082   1.2876829  12.7086691  )
        15           O1  tau(  15) = (   6.5459232   0.0848410  14.6672212  )
        16           O1  tau(  16) = (   3.2899079   0.0686032  13.9983899  )
        17           O1  tau(  17) = (   4.5347701   1.5447734  16.1667714  )
        18           O1  tau(  18) = (   1.9898569   1.5359154  16.1924900  )
        19           Ti1 tau(  19) = (   3.2532585   2.9792413  15.6887139  )
        20           Ti1 tau(  20) = (   6.5162390   1.4193964  16.0443711  )
        21           O1  tau(  21) = (   3.2904802   0.0005063   4.7018136  )
        22           O1  tau(  22) = (   6.5314393   5.8470953  17.1670503  )
        23           O1  tau(  23) = (   1.3043587   1.4918075   6.0039043  )
        24           O1  tau(  24) = (   5.2767064   1.4903225   6.0039473  )
        25           Ti1 tau(  25) = (   0.0000382   5.9609847   6.0000000  )
        26           Ti1 tau(  26) = (   3.2902200   4.4714249   6.0002472  )
        27           O1  tau(  27) = (   0.0002396   2.9813036   7.9858123  )
        28           O1  tau(  28) = (   3.2902150   2.9813002   7.3038282  )
        29           O1  tau(  29) = (   4.5938453   4.4726049   9.2879030  )
        30           O1  tau(  30) = (   1.9864658   4.4711199   9.2879459  )
        31           Ti1 tau(  31) = (   3.2891106   5.8743827   9.1763621  )
        32           Ti1 tau(  32) = (   0.0006254   4.4649316   9.2693709  )
        33           O1  tau(  33) = (   3.2801501   3.0037454  11.3162440  )
        34           O1  tau(  34) = (   0.0092240   2.9805883  10.6323155  )
        35           O1  tau(  35) = (   1.2628463   4.4620516  12.6871769  )
        36           O1  tau(  36) = (   5.2965349   4.4479299  12.6783795  )
        37           Ti1 tau(  37) = (   0.0245004   5.9521619  12.5031165  )
        38           Ti1 tau(  38) = (   3.2934334   4.3725749  12.4478892  )
        39           O1  tau(  39) = (   0.0012172   2.9324930  14.9038371  )
        40           O1  tau(  40) = (   3.2612729   2.9642313  13.9201381  )
        41           O1  tau(  41) = (   4.5459169   4.3864222  16.0774642  )
        42           O1  tau(  42) = (   2.0085495   4.4473877  16.1057765  )
        43           Ti1 tau(  43) = (   3.2275989   5.9528725  16.3079466  )
        44           Ti1 tau(  44) = (   6.5418721   4.6299905  15.7990834  )
        45           O1  tau(  45) = (   3.2900926   2.9813045   4.7018136  )
        46           O1  tau(  46) = (   1.3039711   4.4726057   6.0039043  )
        47           O1  tau(  47) = (   5.2763189   4.4711207   6.0039473  )
        48           N1  tau(  48) = (   6.5153795   2.7269917  18.1720481  )
        49           C1  tau(  49) = (   0.9714328   2.6352729  18.9176740  )
        50           H1  tau(  50) = (   0.9513011   2.9697384  19.9541300  )
        51           H1  tau(  51) = (   1.8619620   2.1844435  18.5121220  )
        52           N1  tau(  52) = (   5.3313596   3.1722530  18.7397816  )
        53           H1  tau(  53) = (   5.4931776   3.7097374  19.5894643  )
        54           H1  tau(  54) = (   4.8256156   3.7472006  18.0707398  )
        55           O1  tau(  55) = (   3.3867674   5.8992794  18.1610867  )
        56           H1  tau(  56) = (   4.0349165   0.5560778  18.5374839  )

     number of k points=    10  Fermi-Dirac smearing, width (Ry)=  0.0073
                       cart. coord. in units 2pi/alat
        k(    1) = (   0.0000000   0.0000000   0.0000000), wk =   0.1250000
        k(    2) = (   0.0000000   0.0419351   0.0000000), wk =   0.2500000
        k(    3) = (   0.0000000  -0.0838702   0.0000000), wk =   0.1250000
        k(    4) = (   0.0379955   0.0000049   0.0000000), wk =   0.2500000
        k(    5) = (   0.0379955   0.0419400   0.0000000), wk =   0.2500000
        k(    6) = (   0.0379955  -0.0838652   0.0000000), wk =   0.2500000
        k(    7) = (   0.0379955  -0.0419301   0.0000000), wk =   0.2500000
        k(    8) = (  -0.0759910  -0.0000099   0.0000000), wk =   0.1250000
        k(    9) = (  -0.0759910   0.0419252   0.0000000), wk =   0.2500000
        k(   10) = (  -0.0759910  -0.0838800   0.0000000), wk =   0.1250000

     Initial potential from superposition of free atoms

     starting charge  386.99914, renormalised to  403.00000

     negative rho (up, down):  1.547E-02 0.000E+00

     %%%%%%%%%%%%%%%%%%%%%%%%%%%%%%%%%%%%%%%%%%%%%%%%%%%%%%%%%%%%%%%%%%%%%%%%
     %                                                                      %
     % You are using vdW-DF, which was implemented by the Thonhauser group. %
     % Please cite the following two papers that made this development      %
     % possible and the two reviews that describe the various versions:     %
     %                                                                      %
     %   T. Thonhauser et al., PRL 115, 136402 (2015).                      %
     %   T. Thonhauser et al., PRB 76, 125112 (2007).                       %
     %   K. Berland et al., Rep. Prog. Phys. 78, 066501 (2015).             %
     %   D.C. Langreth et al., J. Phys.: Condens. Matter 21, 084203 (2009). %
     %                                                                      %
     %                                                                      %
     % If you are calculating the stress with vdW-DF, please also cite:     %
     %                                                                      %
     %   R. Sabatini et al., J. Phys.: Condens. Matter 24, 424209 (2012).   %
     %                                                                      %
     %%%%%%%%%%%%%%%%%%%%%%%%%%%%%%%%%%%%%%%%%%%%%%%%%%%%%%%%%%%%%%%%%%%%%%%%

     Adding external electric field

     Computed dipole along edir(3) :
        Dipole              -13.0228 Ry au,        -33.1008 Debye
        Dipole field         -0.0246 Ry au,

        Potential amp.        2.2781 Ry
        Total length         46.3494 bohr

     Starting wfcs are  305 atomic wfcs
  @ DRIVER MODE: Message from server: STATUS
  @ DRIVER MODE: Message from server: POSDATA
  @ DRIVER MODE: Reading and sharing cell
  @ DRIVER MODE: Reading and sharing positions
  @ DRIVER MODE: Received positions

     Self-consistent Calculation

     iteration #  1     ecut=    29.40 Ry     beta= 0.05
     Davidson diagonalization with overlap
     c_bands:  4 eigenvalues not converged
     c_bands:  5 eigenvalues not converged
     c_bands:  3 eigenvalues not converged
     c_bands:  1 eigenvalues not converged
     c_bands:  1 eigenvalues not converged
     c_bands:  5 eigenvalues not converged
     c_bands:  2 eigenvalues not converged
     c_bands:  3 eigenvalues not converged
     ethr =  1.00E-05,  avg # of iterations = 28.8

[...]

     total energy              =   -2311.54645879 Ry
     estimated scf accuracy    <    7504.67963041 Ry

     iteration #  2     ecut=    29.40 Ry     beta= 0.05
     Davidson diagonalization with overlap
     ethr =  1.00E-02,  avg # of iterations = 24.7

[...]

     iteration # 40     ecut=    29.40 Ry     beta= 0.05
     Davidson diagonalization with overlap
     c_bands:  1 eigenvalues not converged
     ethr =  2.93E-07,  avg # of iterations = 10.3

[...]

     total energy              =   -2974.00153479 Ry
     estimated scf accuracy    <       0.00000009 Ry

     iteration # 61     ecut=    29.40 Ry     beta= 0.05
     Davidson diagonalization with overlap
     ethr =  2.12E-11,  avg # of iterations =  2.4

     negative rho (up, down):  1.591E-02 0.000E+00

     Adding external electric field

     Computed dipole along edir(3) :
        Dipole                1.0875 Ry au,          2.7642 Debye
        Dipole field          0.0021 Ry au,

        Potential amp.       -0.1902 Ry
        Total length         46.3494 bohr

     End of self-consistent calculation

          k = 0.0000 0.0000 0.0000 ( 18029 PWs)   bands (ev):

   -55.5965 -55.5308 -55.4967 -55.3796 -55.3735 -55.3573 -55.3433 -55.3310
   -55.3235 -55.2956 -55.2480 -55.1477 -55.1321 -55.0555 -54.4991 -54.4651
   -32.0152 -31.9335 -31.8974 -31.8649 -31.8602 -31.8257 -31.8217 -31.8079
   -31.7805 -31.7766 -31.7577 -31.6832 -31.6567 -31.6488 -31.6371 -31.6335
   -31.6216 -31.6116 -31.5882 -31.5880 -31.5814 -31.5538 -31.5433 -31.5382
   -31.5204 -31.5158 -31.5115 -31.4969 -31.4877 -31.4850 -31.4767 -31.4678
   -31.4676 -31.4443 -31.4218 -31.4033 -31.3445 -31.3366 -31.3038 -31.2936
   -31.2742 -31.2618 -30.9047 -30.8193 -30.7968 -30.7224 -30.6360 -30.5241
   -18.3833 -16.4395 -16.1674 -16.0003 -15.7878 -15.7076 -15.6690 -15.4759
   -15.3835 -15.3222 -15.0930 -15.0701 -15.0652 -15.0397 -15.0293 -15.0139
   -14.9967 -14.9574 -14.9488 -14.9401 -14.9164 -14.9018 -14.8698 -14.8177
   -14.7752 -14.7589 -14.6644 -14.5956 -14.5489 -14.3143 -14.2156 -13.5013
   -12.9971 -12.8809  -8.5574  -6.2710  -5.8402  -4.0475  -3.8552  -3.5292
    -3.4340  -3.4124  -3.3520  -3.2885  -3.0471  -2.9787  -2.8857  -2.8366
    -2.7616  -2.6467  -2.5980  -2.5272  -2.4559  -2.4466  -2.3993  -2.3703
    -2.3089  -2.2953  -2.2596  -2.2531  -2.1821  -2.1623  -2.0618  -2.0492
    -2.0346  -1.9000  -1.8869  -1.8443  -1.8364  -1.8363  -1.7975  -1.7789
    -1.7631  -1.7466  -1.6414  -1.6027  -1.5822  -1.5104  -1.4779  -1.1623
    -1.1299  -1.0855  -1.0673  -1.0160  -0.9643  -0.9411  -0.9188  -0.8541
    -0.8158  -0.7663  -0.7331  -0.7006  -0.6191  -0.5831  -0.5412  -0.4577
    -0.3837  -0.3090  -0.3039  -0.2593  -0.2313  -0.2052  -0.1066  -0.0814
    -0.0680   0.0310   0.0519   0.1268   0.1671   0.2105   0.2491   0.2968
     0.3619   0.3792   0.4045   0.4407   0.4480   0.5036   0.5239   0.5826
     0.6356   0.6506   0.7487   0.8064   0.8209   0.8395   0.9475   1.0254
     1.1454   1.1537   1.2544   1.4798   1.5279   1.5718   1.7211   2.0940
     2.1391   3.5559   3.7046   3.7212   3.7653   3.8124   3.8967   4.0426
     4.1054   4.2437   4.2472

[...]

          k = 0.0380-0.0419 0.0000 ( 17876 PWs)   bands (ev):

[...]

          k =-0.0760-0.0000 0.0000 ( 17886 PWs)   bands (ev):

[...]

          k =-0.0760-0.0839 0.0000 ( 17948 PWs)   bands (ev):

   -55.5957 -55.5140 -55.5134 -55.3723 -55.3662 -55.3565 -55.3404 -55.3399
   -55.3316 -55.2886 -55.2551 -55.1447 -55.1333 -55.0585 -54.4824 -54.4816
   -31.8791 -31.8306 -31.8303 -31.8280 -31.8169 -31.8074 -31.8069 -31.8005
   -31.7328 -31.6853 -31.6765 -31.6662 -31.6613 -31.6339 -31.6337 -31.6320
   -31.6298 -31.6154 -31.6130 -31.5980 -31.5857 -31.5763 -31.5666 -31.5560
   -31.5472 -31.5434 -31.5342 -31.5339 -31.5183 -31.5131 -31.5103 -31.5067
   -31.5062 -31.4782 -31.4742 -31.4156 -31.3967 -31.3731 -31.3470 -31.3403
   -31.3104 -31.2658 -30.8098 -30.8092 -30.7182 -30.7170 -30.6796 -30.6789
   -18.3803 -16.4240 -15.7482 -15.6230 -15.4978 -15.4935 -15.3728 -15.2954
   -15.2777 -15.2489 -15.2371 -15.2029 -15.1854 -15.1498 -15.1178 -15.0872
   -15.0471 -15.0263 -15.0128 -14.9736 -14.9627 -14.9456 -14.9360 -14.9130
   -14.8715 -14.8364 -14.8255 -14.6812 -14.6269 -14.5799 -14.4408 -13.5102
   -12.9829 -12.9826  -8.5340  -6.2372  -5.8592  -3.9956  -3.9358  -2.9870
    -2.9202  -2.8181  -2.7140  -2.6187  -2.5648  -2.5293  -2.4918  -2.4472
    -2.4249  -2.3751  -2.3340  -2.3139  -2.3053  -2.2727  -2.2638  -2.2486
    -2.2288  -2.2139  -2.1987  -2.1885  -2.1604  -2.1431  -2.1422  -2.1084
    -2.0972  -2.0697  -2.0616  -2.0089  -1.9114  -1.8828  -1.7895  -1.6892
    -1.6813  -1.6685  -1.6445  -1.6069  -1.5958  -1.5701  -1.5335  -1.4731
    -1.4647  -1.3009  -1.2481  -1.2179  -1.1438  -1.0880  -1.0573  -1.0298
    -0.9866  -0.9617  -0.8882  -0.8587  -0.7619  -0.7078  -0.6814  -0.6219
    -0.5457  -0.4814  -0.4726  -0.4667  -0.4396  -0.4168  -0.3911  -0.3614
    -0.3361  -0.2658  -0.2282  -0.2094  -0.1996  -0.1442  -0.0983   0.0044
     0.1308   0.2396   0.2562   0.2869   0.3256   0.4763   0.5202   0.5818
     0.6291   0.6603   0.6907   0.7839   0.7952   0.8785   0.9038   0.9409
     0.9861   1.0111   1.0434   1.0729   1.0818   1.8913   1.8986   1.9594
     1.9597   3.7741   4.0521   4.0772   4.0853   4.1036   4.1235   4.1384
     4.1580   4.2283   4.2340

     the Fermi energy is     3.5914 ev

!    total energy              =   -2974.00158281 Ry
     estimated scf accuracy    <       0.00000005 Ry
     smearing contrib. (-TS)   =      -0.01962488 Ry
     internal energy E=F+TS    =   -2973.98195793 Ry

     The total energy is F=E-TS. E is the sum of the following terms:
     one-electron contribution =  -23472.03032465 Ry
     hartree contribution      =   11831.42980964 Ry
     xc contribution           =    -494.06502526 Ry
     ewald contribution        =    9160.68135048 Ry
     electric field correction =       0.00223186 Ry

     convergence has been achieved in  61 iterations

     Forces acting on atoms (cartesian axes, Ry/au):

     atom    1 type  1   force =     0.00012537   -0.00018461    0.09457041
     atom    2 type  1   force =    -0.00003251    0.00034703   -0.17510966
     atom    3 type  2   force =    -0.00002443   -0.00002700   -0.02134912
     atom    4 type  2   force =     0.00001671   -0.00189456    0.05323316
     atom    5 type  2   force =    -0.00694902   -0.00239465    0.00356651
     atom    6 type  2   force =     0.00806086   -0.00193005    0.00204587
     atom    7 type  1   force =    -0.00070314   -0.00277212    0.01004598
     atom    8 type  1   force =     0.00061021    0.00275813    0.00502090
     atom    9 type  2   force =     0.00003327   -0.00047177    0.00023051
     atom   10 type  2   force =    -0.00253900   -0.00140655   -0.01080739
     atom   11 type  2   force =     0.00128249   -0.00017691    0.00055021
     atom   12 type  2   force =    -0.00081266   -0.00022459    0.00065710
     atom   13 type  1   force =    -0.00094474   -0.00096171    0.00046867
     atom   14 type  1   force =     0.00031933    0.00034208    0.00007747
     atom   15 type  2   force =     0.00011996    0.00026498   -0.00040027
     atom   16 type  2   force =    -0.00046060    0.00020532    0.00008293
     atom   17 type  2   force =    -0.00019272    0.00028246    0.00014585
     atom   18 type  2   force =     0.00097341   -0.00015747   -0.00026380
     atom   19 type  1   force =     0.00121225    0.00064658    0.00002754
     atom   20 type  1   force =    -0.00077489    0.00008361   -0.00001016
     atom   21 type  2   force =     0.00006506    0.00009748    0.10309473
     atom   22 type  2   force =     0.00059098    0.00074270    0.00052684
     atom   23 type  2   force =    -0.07213612   -0.00014075   -0.02735415
     atom   24 type  2   force =     0.07202379    0.00029174   -0.02735469
     atom   25 type  1   force =     0.00001867   -0.00013964    0.09406747
     atom   26 type  1   force =    -0.00015900   -0.00108817   -0.17521164
     atom   27 type  2   force =     0.00012282   -0.00024862   -0.02013445
     atom   28 type  2   force =    -0.00000214   -0.00026979    0.04930798
     atom   29 type  2   force =    -0.00564340    0.00192553    0.00158663
     atom   30 type  2   force =     0.00667124    0.00249561   -0.00001260
     atom   31 type  1   force =    -0.00072226    0.00677916   -0.00107254
     atom   32 type  1   force =     0.00050315   -0.00385207    0.00433047
     atom   33 type  2   force =     0.00016257   -0.00010221   -0.00081276
     atom   34 type  2   force =    -0.00187379    0.00170016   -0.01049559
     atom   35 type  2   force =     0.00117432    0.00029266   -0.00017531
     atom   36 type  2   force =    -0.00056549    0.00043008   -0.00026336
     atom   37 type  1   force =    -0.00065065    0.00045517   -0.00025431
     atom   38 type  1   force =     0.00055630    0.00013700    0.00012904
     atom   39 type  2   force =     0.00033273   -0.00039249    0.00041192
     atom   40 type  2   force =     0.00020520    0.00013882   -0.00035315
     atom   41 type  2   force =     0.00003199   -0.00011945   -0.00105540
     atom   42 type  2   force =     0.00037387   -0.00034433    0.00038275
     atom   43 type  1   force =     0.00014831   -0.00076411    0.00041196
     atom   44 type  1   force =    -0.00048351   -0.00015858    0.00014427
     atom   45 type  2   force =     0.00007504   -0.00006819    0.10287725
     atom   46 type  2   force =    -0.07217630   -0.00002517   -0.02735529
     atom   47 type  2   force =     0.07209543    0.00040946   -0.02739082
     atom   48 type  3   force =     0.00032440   -0.00006765   -0.00144690
     atom   49 type  4   force =    -0.00198583    0.00003875    0.00042907
     atom   50 type  5   force =     0.00191496   -0.00078209   -0.00010990
     atom   51 type  5   force =    -0.00007095    0.00031360    0.00076361
     atom   52 type  3   force =    -0.00037964   -0.00062338    0.00009114
     atom   53 type  5   force =     0.00005966   -0.00005997    0.00023260
     atom   54 type  5   force =    -0.00007505    0.00026551   -0.00058798
     atom   55 type  2   force =    -0.00021023    0.00090834    0.00007012
     atom   56 type  5   force =     0.00036370   -0.00050331   -0.00019970

     Total force =     0.361964     Total SCF correction =     0.000637
  @ DRIVER MODE: Message from server: STATUS
  @ DRIVER MODE: Message from server: GETFORCE
  @ DRIVER MODE: Returning v,forces,stress,ensemble

     Writing output data file ./calc.save/
  @ DRIVER MODE: Message from server: EXIT
  @ DRIVE MODE: Exiting

     General routines

     Parallel routines

   This run was terminated on:  16:43:45  23Sep2021

   JOB DONE.