     Program PWSCF v.6.7GPU starts on 10Sep2021 at 11:49:30

     R & G space division:  proc/nbgrp/npool/nimage =      10
     Reading input from /storage/home/hcoda1/3/ntian30/research/carbon/CxH_vib/CH_calc/ads_slab/CHNHNH_a/out_0004/pw.inp
Warning: card &CELL ignored
Warning: card   CELL_DYNAMICS='IPI', ignored
Warning: card / ignored

     Current dimensions of program PWSCF are:
     Max number of different atomic species (ntypx) = 10
     Max number of k-points (npk) =  40000
     Max angular momentum in pseudopotentials (lmaxx) =  3
     Presently no symmetry can be used with electric field

     Message from routine cell_base_init:
     DEPRECATED: use true lattice parameter, not A to a.u. conversion factor

     IMPORTANT: XC functional enforced from input :
     Exchange-correlation= BEEF-VDW
                           (   1   4  43  14   2   0   0)
     Any further DFT definition will be discarded
     Please, verify this is what you really want

  @ DRIVER MODE: Connecting to
 qe_1139763_2787518.sched-torque.pace.gatech.eduf6dol6sd_scratch
  using UNIX socket
  @ DRIVER MODE: Message from server: STATUS
  @ DRIVER MODE: Message from server: INIT
  @ DRIVER MODE: Receiving replica           0          -1
  @ DRIVER MODE: Receiving encoded integer          25
  @ DRIVER MODE:  SCF:  T  FORCE:  T  STRESS:  F  VC:  F  ENSEMBLE:  F
  @ DRIVER MODE:  SCF:  T  FORCE:  T  STRESS:  F  VC:  F  ENSEMBLE:  F

     Using Slab Decomposition

     bravais-lattice index     =            0
     lattice parameter (alat)  =       1.8897  a.u.
     unit-cell volume          =    6658.9804 (a.u.)^3
     number of atoms/cell      =           53
     number of atomic types    =            5
     number of electrons       =       395.00
     number of Kohn-Sham states=          207
     kinetic-energy cutoff     =      29.3995  Ry
     charge density cutoff     =     293.9946  Ry
     scf convergence threshold =      7.3E-08
     mixing beta               =       0.0500
     number of iterations used =            8  plain     mixing
     Exchange-correlation= BEEF-VDW
                           (   1   4  43  14   2   0   0)

     celldm(1)=   1.889726  celldm(2)=   0.000000  celldm(3)=   0.000000
     celldm(4)=   0.000000  celldm(5)=   0.000000  celldm(6)=   0.000000

     crystal axes: (cart. coord. in units of alat)
               a(1) = (   6.579727   0.000000   0.000000 )
               a(2) = (  -0.000775   5.961596   0.000000 )
               a(3) = (   0.000000   0.000000  25.155947 )

     reciprocal axes: (cart. coord. in units 2 pi/alat)
               b(1) = (  0.151982  0.000020  0.000000 )
               b(2) = (  0.000000  0.167740  0.000000 )
               b(3) = (  0.000000  0.000000  0.039752 )

     PseudoPot. # 1 for Ti read from file:
     /storage/coda1/p-amedford6/0/shared/rich_project_chbe-medford/medford-share/data/pseudos_module/espresso/nninc/pbe/van/Ti.UPF
     MD5 check sum: 8e4df49b7f0d34bbd5052bf3f5ea0213
     Pseudo is Ultrasoft, Zval = 12.0
     Generated by new atomic code, or converted to UPF format
     Using radial grid of  851 points,  6 beta functions with:
                l(1) =   0
                l(2) =   0
                l(3) =   1
                l(4) =   1
                l(5) =   2
                l(6) =   2
     Q(r) pseudized with  8 coefficients,  rinner =    1.000   1.000   1.000
                                                       1.000   1.000

     PseudoPot. # 2 for O  read from file:
     /storage/coda1/p-amedford6/0/shared/rich_project_chbe-medford/medford-share/data/pseudos_module/espresso/nninc/pbe/van/O.UPF
     MD5 check sum: 78c19812648e8988a0fe644b0f25305e
     Pseudo is Ultrasoft, Zval =  6.0
     Generated by new atomic code, or converted to UPF format
     Using radial grid of  737 points,  4 beta functions with:
                l(1) =   0
                l(2) =   0
                l(3) =   1
                l(4) =   1
     Q(r) pseudized with  8 coefficients,  rinner =    0.800   0.800   0.800

     PseudoPot. # 3 for N  read from file:
     /storage/coda1/p-amedford6/0/shared/rich_project_chbe-medford/medford-share/data/pseudos_module/espresso/nninc/pbe/van/N.UPF
     MD5 check sum: 90d10febe142ad51ac9d5be1deb811c4
     Pseudo is Ultrasoft, Zval =  5.0
     Generated by new atomic code, or converted to UPF format
     Using radial grid of  729 points,  4 beta functions with:
                l(1) =   0
                l(2) =   0
                l(3) =   1
                l(4) =   1
     Q(r) pseudized with  8 coefficients,  rinner =    0.800   0.800   0.800

     PseudoPot. # 4 for C  read from file:
     /storage/coda1/p-amedford6/0/shared/rich_project_chbe-medford/medford-share/data/pseudos_module/espresso/nninc/pbe/van/C.UPF
     MD5 check sum: 1a69bf6b8db32088f5b2163dbdb77a27
     Pseudo is Ultrasoft, Zval =  4.0
     Generated by new atomic code, or converted to UPF format
     Using radial grid of  721 points,  4 beta functions with:
                l(1) =   0
                l(2) =   0
                l(3) =   1
                l(4) =   1
     Q(r) pseudized with  8 coefficients,  rinner =    0.800   0.800   0.800

     PseudoPot. # 5 for H  read from file:
     /storage/coda1/p-amedford6/0/shared/rich_project_chbe-medford/medford-share/data/pseudos_module/espresso/nninc/pbe/van/H.UPF
     MD5 check sum: b5ee9d7bfd3a09ee7748110bda690ff7
     Pseudo is Ultrasoft, Zval =  1.0
     Generated by new atomic code, or converted to UPF format
     Using radial grid of  615 points,  1 beta functions with:
                l(1) =   0
     Q(r) pseudized with  8 coefficients,  rinner =    0.800

     atomic species   valence    mass     pseudopotential
        Ti1           12.00    47.86700     Ti( 1.00)
        O1             6.00    15.99900     O ( 1.00)
        N1             5.00    14.00700     N ( 1.00)
        C1             4.00    12.01100     C ( 1.00)
        H1             1.00     1.00800     H ( 1.00)

     No symmetry found

   Cartesian axes

     site n.     atom                  positions (alat units)
         1           Ti1 tau(   1) = (   0.0004258   2.9801865   6.0000000  )
         2           Ti1 tau(   2) = (   3.2906075   1.4906267   6.0002472  )
         3           O1  tau(   3) = (   0.0006271   0.0005054   7.9858123  )
         4           O1  tau(   4) = (   3.2906025   0.0005020   7.3038282  )
         5           O1  tau(   5) = (   4.5942328   1.4918067   9.2879030  )
         6           O1  tau(   6) = (   1.9868534   1.4903216   9.2879459  )
         7           Ti1 tau(   7) = (   3.2907910   2.8959150   9.1758416  )
         8           Ti1 tau(   8) = (   0.0015273   1.4827037   9.2680791  )
         9           O1  tau(   9) = (   3.2974950   5.9468587  11.3331085  )
        10           O1  tau(  10) = (   0.0116148   5.9584955  10.6183126  )
        11           O1  tau(  11) = (   1.3019594   1.4757037  12.6170356  )
        12           O1  tau(  12) = (   5.2841045   1.4688878  12.6073194  )
        13           Ti1 tau(  13) = (   0.0658538   3.0089988  12.6217963  )
        14           Ti1 tau(  14) = (   3.3903573   1.4765488  12.4775701  )
        15           O1  tau(  15) = (   6.5762050   0.0002902  14.6414759  )
        16           O1  tau(  16) = (   3.3078303   5.9588356  13.9306596  )
        17           O1  tau(  17) = (   4.5399328   1.5113171  16.0740780  )
        18           O1  tau(  18) = (   2.0525891   1.5105181  16.0861438  )
        19           Ti1 tau(  19) = (   3.3041007   2.9930787  15.6963055  )
        20           Ti1 tau(  20) = (   0.0280933   1.5113244  15.8467906  )
        21           O1  tau(  21) = (   3.2904802   0.0005063   4.7018136  )
        22           O1  tau(  22) = (   0.0368235   0.0128086  17.1990618  )
        23           O1  tau(  23) = (   1.3043587   1.4918075   6.0039043  )
        24           O1  tau(  24) = (   5.2767064   1.4903225   6.0039473  )
        25           Ti1 tau(  25) = (   0.0000382   5.9609847   6.0000000  )
        26           Ti1 tau(  26) = (   3.2902200   4.4714249   6.0002472  )
        27           O1  tau(  27) = (   0.0002396   2.9813036   7.9858123  )
        28           O1  tau(  28) = (   3.2902150   2.9813002   7.3038282  )
        29           O1  tau(  29) = (   4.5938453   4.4726049   9.2879030  )
        30           O1  tau(  30) = (   1.9864658   4.4711199   9.2879459  )
        31           Ti1 tau(  31) = (   3.2891106   5.8743827   9.1763621  )
        32           Ti1 tau(  32) = (   0.0006254   4.4649316   9.2693709  )
        33           O1  tau(  33) = (   3.3000731   2.9737533  11.3293525  )
        34           O1  tau(  34) = (   0.0092240   2.9805883  10.6323155  )
        35           O1  tau(  35) = (   1.3001503   4.4664650  12.6348062  )
        36           O1  tau(  36) = (   5.2875254   4.4541756  12.6228532  )
        37           Ti1 tau(  37) = (   0.0765437   0.0243871  12.5594496  )
        38           Ti1 tau(  38) = (   3.3883988   4.4566399  12.4818539  )
        39           O1  tau(  39) = (   0.0169469   2.9261715  14.6451004  )
        40           O1  tau(  40) = (   3.3035743   2.9719493  13.9037931  )
        41           O1  tau(  41) = (   4.5445893   4.4635849  16.0933648  )
        42           O1  tau(  42) = (   2.0554864   4.4706235  16.0676963  )
        43           Ti1 tau(  43) = (   3.3300396   0.0018144  15.7250798  )
        44           Ti1 tau(  44) = (   0.0441581   4.6348571  16.0952712  )
        45           O1  tau(  45) = (   3.2900926   2.9813045   4.7018136  )
        46           O1  tau(  46) = (   1.3039711   4.4726057   6.0039043  )
        47           O1  tau(  47) = (   5.2763189   4.4711207   6.0039473  )
        48           N1  tau(  48) = (   1.0252718   2.8201955  18.5330041  )
        49           N1  tau(  49) = (   6.5702222   2.9467621  17.4444712  )
        50           C1  tau(  50) = (   1.2122298   3.5280882  19.5702009  )
        51           H1  tau(  51) = (   0.5037382   4.3646449  19.6222421  )
        52           H1  tau(  52) = (   1.5845460   1.9874866  18.3412699  )
        53           H1  tau(  53) = (   5.6894004   2.9582294  17.9538253  )

     number of k points=    10  Fermi-Dirac smearing, width (Ry)=  0.0073
                       cart. coord. in units 2pi/alat
        k(    1) = (   0.0000000   0.0000000   0.0000000), wk =   0.1250000
        k(    2) = (   0.0000000   0.0419351   0.0000000), wk =   0.2500000
        k(    3) = (   0.0000000  -0.0838702   0.0000000), wk =   0.1250000
        k(    4) = (   0.0379955   0.0000049   0.0000000), wk =   0.2500000
        k(    5) = (   0.0379955   0.0419400   0.0000000), wk =   0.2500000
        k(    6) = (   0.0379955  -0.0838652   0.0000000), wk =   0.2500000
        k(    7) = (   0.0379955  -0.0419301   0.0000000), wk =   0.2500000
        k(    8) = (  -0.0759910  -0.0000099   0.0000000), wk =   0.1250000
        k(    9) = (  -0.0759910   0.0419252   0.0000000), wk =   0.2500000
        k(   10) = (  -0.0759910  -0.0838800   0.0000000), wk =   0.1250000

     Initial potential from superposition of free atoms

     starting charge  378.99916, renormalised to  395.00000

     negative rho (up, down):  1.643E-02 0.000E+00

     %%%%%%%%%%%%%%%%%%%%%%%%%%%%%%%%%%%%%%%%%%%%%%%%%%%%%%%%%%%%%%%%%%%%%%%%
     %                                                                      %
     % You are using vdW-DF, which was implemented by the Thonhauser group. %
     % Please cite the following two papers that made this development      %
     % possible and the two reviews that describe the various versions:     %
     %                                                                      %
     %   T. Thonhauser et al., PRL 115, 136402 (2015).                      %
     %   T. Thonhauser et al., PRB 76, 125112 (2007).                       %
     %   K. Berland et al., Rep. Prog. Phys. 78, 066501 (2015).             %
     %   D.C. Langreth et al., J. Phys.: Condens. Matter 21, 084203 (2009). %
     %                                                                      %
     %                                                                      %
     % If you are calculating the stress with vdW-DF, please also cite:     %
     %                                                                      %
     %   R. Sabatini et al., J. Phys.: Condens. Matter 24, 424209 (2012).   %
     %                                                                      %
     %%%%%%%%%%%%%%%%%%%%%%%%%%%%%%%%%%%%%%%%%%%%%%%%%%%%%%%%%%%%%%%%%%%%%%%%

     Adding external electric field

     Computed dipole along edir(3) :
        Dipole               -8.5017 Ry au,        -21.6093 Debye
        Dipole field         -0.0160 Ry au,

        Potential amp.        1.4872 Ry
        Total length         46.3494 bohr

     Starting wfcs are  299 atomic wfcs
  @ DRIVER MODE: Message from server: STATUS
  @ DRIVER MODE: Message from server: POSDATA
  @ DRIVER MODE: Reading and sharing cell
  @ DRIVER MODE: Reading and sharing positions
  @ DRIVER MODE: Received positions

     Self-consistent Calculation

     iteration #  1     ecut=    29.40 Ry     beta= 0.05
     Davidson diagonalization with overlap
     c_bands:  1 eigenvalues not converged
     c_bands:  1 eigenvalues not converged
     c_bands:  2 eigenvalues not converged
     c_bands:  3 eigenvalues not converged
     c_bands:  3 eigenvalues not converged
     c_bands:  1 eigenvalues not converged
     c_bands:  1 eigenvalues not converged
     ethr =  1.00E-05,  avg # of iterations = 19.2

[...]

     total energy              =   -2621.19368342 Ry
     estimated scf accuracy    <    3530.32981319 Ry

[...]

     iteration #  3     ecut=    29.40 Ry     beta= 0.05
     Davidson diagonalization with overlap
     ethr =  1.00E-02,  avg # of iterations = 15.4

[...]

     iteration # 39     ecut=    29.40 Ry     beta= 0.05
     Davidson diagonalization with overlap
     c_bands:  1 eigenvalues not converged
     ethr =  5.03E-08,  avg # of iterations = 12.0

[...]

     total energy              =   -2939.04786473 Ry
     estimated scf accuracy    <       0.00000021 Ry

     iteration # 58     ecut=    29.40 Ry     beta= 0.05
     Davidson diagonalization with overlap
     ethr =  3.36E-11,  avg # of iterations = 10.5

     negative rho (up, down):  1.571E-02 0.000E+00

     Adding external electric field

     Computed dipole along edir(3) :
        Dipole                0.0401 Ry au,          0.1020 Debye
        Dipole field          0.0001 Ry au,

        Potential amp.       -0.0070 Ry
        Total length         46.3494 bohr

     End of self-consistent calculation

          k = 0.0000 0.0000 0.0000 ( 18029 PWs)   bands (ev):

   -56.2412 -56.2354 -56.2071 -56.1994 -56.1498 -56.0784 -56.0777 -56.0495
   -56.0422 -56.0155 -56.0136 -55.9799 -55.7887 -55.5214 -55.2180 -55.1840
   -32.7918 -32.7232 -32.5913 -32.5791 -32.5595 -32.5482 -32.5343 -32.5042
   -32.4836 -32.4821 -32.4563 -32.4444 -32.4166 -32.3933 -32.3879 -32.3767
   -32.3765 -32.3451 -32.3301 -32.2983 -32.2907 -32.2881 -32.2640 -32.2444
   -32.2400 -32.2369 -32.2367 -32.2239 -32.2164 -32.2004 -32.1942 -32.1923
   -32.1885 -32.1799 -32.1665 -32.1563 -32.1257 -32.0408 -31.9781 -31.8001
   -31.7835 -31.7229 -31.6251 -31.5368 -31.5144 -31.4418 -31.3553 -31.2443
   -17.3188 -16.9904 -16.7179 -16.5092 -16.3970 -16.3650 -16.2653 -16.0823
   -15.9586 -15.9281 -15.8285 -15.8010 -15.7773 -15.7661 -15.7443 -15.7340
   -15.6871 -15.6829 -15.6703 -15.6550 -15.6020 -15.5768 -15.5476 -15.4387
   -15.4322 -15.3991 -15.3734 -15.2971 -15.2907 -14.8295 -13.7206 -13.6042
   -12.7888  -8.6220  -5.3340  -4.3656  -4.2211  -4.1933  -4.1464  -4.0944
    -3.8770  -3.8124  -3.7526  -3.5769  -3.4692  -3.4282  -3.4157  -3.3997
    -3.3703  -3.1440  -3.1181  -3.0550  -3.0313  -3.0256  -3.0147  -3.0051
    -2.9836  -2.9669  -2.8942  -2.7896  -2.7166  -2.6683  -2.6202  -2.6124
    -2.5530  -2.5086  -2.5020  -2.4848  -2.4800  -2.4724  -2.4340  -2.4252
    -2.2891  -2.2284  -2.0949  -2.0586  -2.0385  -1.8900  -1.8482  -1.7530
    -1.6871  -1.6697  -1.6602  -1.6316  -1.5464  -1.5262  -1.4044  -1.3816
    -1.3414  -1.2690  -1.2567  -1.2353  -1.1329  -1.1175  -1.0123  -1.0050
    -0.9984  -0.9813  -0.9239  -0.7356  -0.7149  -0.6822  -0.6627  -0.6307
    -0.5535  -0.5230  -0.4323  -0.4195  -0.3610  -0.3423  -0.3166  -0.2668
    -0.2607  -0.2488  -0.2449  -0.2290  -0.0534   0.0079   0.0651   0.1160
     0.1310   0.2885   0.3383   0.4163   0.5019   0.7294   0.8039   0.8411
     0.8924   0.9960   1.3752   1.4207   2.4342   2.8995   2.9797   3.0296
     3.0398   3.1342   3.1405   3.3478   3.3693   3.3753   3.4390

[...]

          k = 0.0380-0.0419 0.0000 ( 17876 PWs)   bands (ev):

[...]

          k =-0.0760-0.0000 0.0000 ( 17886 PWs)   bands (ev):

[...]

          k =-0.0760-0.0839 0.0000 ( 17948 PWs)   bands (ev):

   -56.2244 -56.2237 -56.2181 -56.2164 -56.1453 -56.0828 -56.0643 -56.0555
   -56.0334 -56.0311 -55.9971 -55.9966 -55.7876 -55.5223 -55.2010 -55.2009
   -32.5968 -32.5940 -32.5388 -32.5383 -32.5278 -32.5200 -32.5192 -32.5008
   -32.4432 -32.4418 -32.4362 -32.4331 -32.4080 -32.3728 -32.3620 -32.3577
   -32.3505 -32.3466 -32.3445 -32.3439 -32.3431 -32.3363 -32.3341 -32.2861
   -32.2850 -32.2743 -32.2563 -32.2459 -32.2319 -32.2315 -32.2289 -32.2286
   -32.2120 -32.2112 -32.2036 -32.2012 -32.1321 -32.0432 -31.9733 -31.8569
   -31.7922 -31.7480 -31.5271 -31.5270 -31.4379 -31.4378 -31.3986 -31.3985
   -17.3020 -16.4410 -16.4094 -16.1832 -16.1729 -16.1582 -16.1549 -16.0174
   -15.9499 -15.9468 -15.9400 -15.9081 -15.8800 -15.8422 -15.7975 -15.7756
   -15.7750 -15.7632 -15.7566 -15.7034 -15.6982 -15.6765 -15.6696 -15.5675
   -15.5567 -15.5533 -15.4994 -15.4110 -15.2818 -15.0036 -13.7061 -13.7059
   -12.7995  -8.6276  -5.3314  -3.8701  -3.7318  -3.6948  -3.5130  -3.4104
    -3.4087  -3.3978  -3.3247  -3.1569  -3.1427  -3.1196  -3.0959  -3.0689
    -3.0686  -3.0538  -3.0482  -3.0295  -3.0056  -2.9701  -2.9313  -2.9274
    -2.9059  -2.8960  -2.8701  -2.8562  -2.8267  -2.8145  -2.7988  -2.7806
    -2.7623  -2.7465  -2.5930  -2.4733  -2.4399  -2.3776  -2.3693  -2.3496
    -2.3152  -2.3045  -2.2915  -2.2295  -2.1282  -1.9920  -1.9448  -1.9386
    -1.9062  -1.8262  -1.8141  -1.6686  -1.6547  -1.6264  -1.5880  -1.5346
    -1.5179  -1.4671  -1.4056  -1.3919  -1.3603  -1.3317  -1.2541  -1.2041
    -1.2015  -1.1848  -1.1238  -1.0361  -1.0278  -1.0110  -1.0032  -0.9536
    -0.8760  -0.8618  -0.8306  -0.7455  -0.7280  -0.6302  -0.5467  -0.3500
    -0.2617  -0.2146  -0.1687  -0.1352  -0.0320   0.0138   0.0296   0.0660
     0.0790   0.1259   0.1855   0.2913   0.2982   0.3596   0.4690   0.8062
     1.1675   1.1684   1.2404   1.2407   2.3922   3.1595   3.1678   3.2234
     3.2457   3.3963   3.4020   3.4266   3.4278   3.5488   3.5870

     the Fermi energy is     2.8941 ev

!    total energy              =   -2939.04791545 Ry
     estimated scf accuracy    <       0.00000004 Ry
     smearing contrib. (-TS)   =      -0.02294378 Ry
     internal energy E=F+TS    =   -2939.02497167 Ry

     The total energy is F=E-TS. E is the sum of the following terms:
     one-electron contribution =  -24314.88544810 Ry
     hartree contribution      =   12241.27164550 Ry
     xc contribution           =    -485.12856083 Ry
     ewald contribution        =    9619.71738871 Ry
     electric field correction =       0.00000304 Ry

     convergence has been achieved in  58 iterations

     Forces acting on atoms (cartesian axes, Ry/au):

     atom    1 type  1   force =     0.00025194   -0.00024325    0.09665431
     atom    2 type  1   force =    -0.00018302   -0.00053894   -0.17529149
     atom    3 type  2   force =    -0.00000470   -0.00008010   -0.02502907
     atom    4 type  2   force =     0.00005782   -0.00154468    0.05297767
     atom    5 type  2   force =    -0.01218785   -0.00104013    0.00344911
     atom    6 type  2   force =     0.01406521   -0.00028217    0.00274148
     atom    7 type  1   force =    -0.00095852    0.00050503   -0.01192363
     atom    8 type  1   force =     0.00044201    0.00875259    0.02926017
     atom    9 type  2   force =     0.00051247    0.00030667   -0.00015913
     atom   10 type  2   force =    -0.00090711   -0.00020383   -0.01710867
     atom   11 type  2   force =     0.00034864    0.00017002    0.00035389
     atom   12 type  2   force =    -0.00106282    0.00082357    0.00048348
     atom   13 type  1   force =     0.00146291    0.00081007   -0.00001431
     atom   14 type  1   force =    -0.00123701    0.00035540   -0.00026184
     atom   15 type  2   force =    -0.00065534    0.00085207    0.00047261
     atom   16 type  2   force =     0.00031795   -0.00035767   -0.00019847
     atom   17 type  2   force =     0.00068771    0.00022393   -0.00013682
     atom   18 type  2   force =    -0.00068963    0.00008026   -0.00030005
     atom   19 type  1   force =    -0.00007139   -0.00047747    0.00002038
     atom   20 type  1   force =     0.00011640   -0.00010582    0.00053645
     atom   21 type  2   force =     0.00007855   -0.00005996    0.10320701
     atom   22 type  2   force =     0.00001589    0.00156158    0.00035749
     atom   23 type  2   force =    -0.07148775   -0.00015800   -0.02777720
     atom   24 type  2   force =     0.07143454    0.00026104   -0.02777807
     atom   25 type  1   force =     0.00008871   -0.00022052    0.09649745
     atom   26 type  1   force =    -0.00013016   -0.00032949   -0.17547424
     atom   27 type  2   force =     0.00006402   -0.00023441   -0.02405855
     atom   28 type  2   force =     0.00011689   -0.00128157    0.05275013
     atom   29 type  2   force =    -0.01229657    0.00002383    0.00301470
     atom   30 type  2   force =     0.01406557    0.00040353    0.00238377
     atom   31 type  1   force =    -0.00093927    0.00317667   -0.01287144
     atom   32 type  1   force =     0.00028918   -0.01002156    0.02995328
     atom   33 type  2   force =     0.00025779   -0.00013766    0.00048868
     atom   34 type  2   force =    -0.00003228    0.00000253   -0.02438760
     atom   35 type  2   force =    -0.00035144    0.00022003   -0.00028157
     atom   36 type  2   force =    -0.00113894    0.00054002   -0.00006800
     atom   37 type  1   force =     0.00124375   -0.00091811    0.00048750
     atom   38 type  1   force =    -0.00091878   -0.00056144   -0.00003876
     atom   39 type  2   force =    -0.00019730   -0.00061256    0.00058472
     atom   40 type  2   force =     0.00008554    0.00054106    0.00011912
     atom   41 type  2   force =    -0.00126522   -0.00003960   -0.00034758
     atom   42 type  2   force =     0.00167164   -0.00022899   -0.00027531
     atom   43 type  1   force =    -0.00053205    0.00026393   -0.00040261
     atom   44 type  1   force =    -0.00019080    0.00001612    0.00005065
     atom   45 type  2   force =     0.00005441   -0.00008344    0.10320266
     atom   46 type  2   force =    -0.07151215   -0.00015594   -0.02776199
     atom   47 type  2   force =     0.07148369    0.00034218   -0.02779934
     atom   48 type  3   force =     0.00781413   -0.02220107   -0.01109100
     atom   49 type  3   force =    -0.00180085    0.00197795   -0.00060812
     atom   50 type  4   force =     0.00012978    0.01003720    0.00835497
     atom   51 type  5   force =     0.00006326    0.00160390    0.00105493
     atom   52 type  5   force =    -0.00557099    0.00887341    0.00141524
     atom   53 type  5   force =    -0.00089847   -0.00060626    0.00057301

     Total force =     0.369683     Total SCF correction =     0.000534
  @ DRIVER MODE: Message from server: STATUS
  @ DRIVER MODE: Message from server: GETFORCE
  @ DRIVER MODE: Returning v,forces,stress,ensemble

     Writing output data file ./calc.save/
  @ DRIVER MODE: Message from server: EXIT
  @ DRIVE MODE: Exiting

     General routines

     Parallel routines

   This run was terminated on:  12: 5:16  10Sep2021

   JOB DONE.