     Program PWSCF v.6.7GPU starts on  4Aug2021 at  6:26:45

     R & G space division:  proc/nbgrp/npool/nimage =      16
     Reading input from /storage/home/hcoda1/3/ntian30/research/carbon/02Aug_vib_paired/ads_slab/CH3NH3NH3_a/out_0050/pw.inp
Warning: card &CELL ignored
Warning: card   CELL_DYNAMICS='IPI', ignored
Warning: card / ignored

     Current dimensions of program PWSCF are:
     Max number of different atomic species (ntypx) = 10
     Max number of k-points (npk) =  40000
     Max angular momentum in pseudopotentials (lmaxx) =  3
     Presently no symmetry can be used with electric field

     Message from routine cell_base_init:
     DEPRECATED: use true lattice parameter, not A to a.u. conversion factor

     IMPORTANT: XC functional enforced from input :
     Exchange-correlation= BEEF-VDW
                           (   1   4  43  14   2   0   0)
     Any further DFT definition will be discarded
     Please, verify this is what you really want

  @ DRIVER MODE: Connecting to
 qe_1139763_2492108.sched-torque.pace.gatech.eduihh3ax52_scratch
  using UNIX socket
  @ DRIVER MODE: Message from server: STATUS
  @ DRIVER MODE: Message from server: INIT
  @ DRIVER MODE: Receiving replica           0          -1
  @ DRIVER MODE: Receiving encoded integer          25
  @ DRIVER MODE:  SCF:  T  FORCE:  T  STRESS:  F  VC:  F  ENSEMBLE:  F
  @ DRIVER MODE:  SCF:  T  FORCE:  T  STRESS:  F  VC:  F  ENSEMBLE:  F

     Using Slab Decomposition

     bravais-lattice index     =            0
     lattice parameter (alat)  =       1.8897  a.u.
     unit-cell volume          =    6658.9804 (a.u.)^3
     number of atoms/cell      =           59
     number of atomic types    =            5
     number of electrons       =       401.00
     number of Kohn-Sham states=          210
     kinetic-energy cutoff     =      29.3995  Ry
     charge density cutoff     =     293.9946  Ry
     scf convergence threshold =      7.3E-08
     mixing beta               =       0.0500
     number of iterations used =            8  plain     mixing
     Exchange-correlation= BEEF-VDW
                           (   1   4  43  14   2   0   0)

     celldm(1)=   1.889726  celldm(2)=   0.000000  celldm(3)=   0.000000
     celldm(4)=   0.000000  celldm(5)=   0.000000  celldm(6)=   0.000000

     crystal axes: (cart. coord. in units of alat)
               a(1) = (   6.579727   0.000000   0.000000 )
               a(2) = (  -0.000775   5.961596   0.000000 )
               a(3) = (   0.000000   0.000000  25.155947 )

     reciprocal axes: (cart. coord. in units 2 pi/alat)
               b(1) = (  0.151982  0.000020  0.000000 )
               b(2) = (  0.000000  0.167740  0.000000 )
               b(3) = (  0.000000  0.000000  0.039752 )

     PseudoPot. # 1 for Ti read from file:
     /storage/coda1/p-amedford6/0/shared/rich_project_chbe-medford/medford-share/data/pseudos_module/espresso/nninc/pbe/van/Ti.UPF
     MD5 check sum: 8e4df49b7f0d34bbd5052bf3f5ea0213
     Pseudo is Ultrasoft, Zval = 12.0
     Generated by new atomic code, or converted to UPF format
     Using radial grid of  851 points,  6 beta functions with:
                l(1) =   0
                l(2) =   0
                l(3) =   1
                l(4) =   1
                l(5) =   2
                l(6) =   2
     Q(r) pseudized with  8 coefficients,  rinner =    1.000   1.000   1.000
                                                       1.000   1.000

     PseudoPot. # 2 for O  read from file:
     /storage/coda1/p-amedford6/0/shared/rich_project_chbe-medford/medford-share/data/pseudos_module/espresso/nninc/pbe/van/O.UPF
     MD5 check sum: 78c19812648e8988a0fe644b0f25305e
     Pseudo is Ultrasoft, Zval =  6.0
     Generated by new atomic code, or converted to UPF format
     Using radial grid of  737 points,  4 beta functions with:
                l(1) =   0
                l(2) =   0
                l(3) =   1
                l(4) =   1
     Q(r) pseudized with  8 coefficients,  rinner =    0.800   0.800   0.800

     PseudoPot. # 3 for C  read from file:
     /storage/coda1/p-amedford6/0/shared/rich_project_chbe-medford/medford-share/data/pseudos_module/espresso/nninc/pbe/van/C.UPF
     MD5 check sum: 1a69bf6b8db32088f5b2163dbdb77a27
     Pseudo is Ultrasoft, Zval =  4.0
     Generated by new atomic code, or converted to UPF format
     Using radial grid of  721 points,  4 beta functions with:
                l(1) =   0
                l(2) =   0
                l(3) =   1
                l(4) =   1
     Q(r) pseudized with  8 coefficients,  rinner =    0.800   0.800   0.800

     PseudoPot. # 4 for H  read from file:
     /storage/coda1/p-amedford6/0/shared/rich_project_chbe-medford/medford-share/data/pseudos_module/espresso/nninc/pbe/van/H.UPF
     MD5 check sum: b5ee9d7bfd3a09ee7748110bda690ff7
     Pseudo is Ultrasoft, Zval =  1.0
     Generated by new atomic code, or converted to UPF format
     Using radial grid of  615 points,  1 beta functions with:
                l(1) =   0
     Q(r) pseudized with  8 coefficients,  rinner =    0.800

     PseudoPot. # 5 for N  read from file:
     /storage/coda1/p-amedford6/0/shared/rich_project_chbe-medford/medford-share/data/pseudos_module/espresso/nninc/pbe/van/N.UPF
     MD5 check sum: 90d10febe142ad51ac9d5be1deb811c4
     Pseudo is Ultrasoft, Zval =  5.0
     Generated by new atomic code, or converted to UPF format
     Using radial grid of  729 points,  4 beta functions with:
                l(1) =   0
                l(2) =   0
                l(3) =   1
                l(4) =   1
     Q(r) pseudized with  8 coefficients,  rinner =    0.800   0.800   0.800

     atomic species   valence    mass     pseudopotential
        Ti1           12.00    47.86700     Ti( 1.00)
        O1             6.00    15.99900     O ( 1.00)
        C1             4.00    12.01100     C ( 1.00)
        H1             1.00     1.00800     H ( 1.00)
        N1             5.00    14.00700     N ( 1.00)

     No symmetry found

   Cartesian axes

     site n.     atom                  positions (alat units)
         1           Ti1 tau(   1) = (   0.0004258   2.9801865   6.0000000  )
         2           Ti1 tau(   2) = (   3.2906075   1.4906267   6.0002472  )
         3           O1  tau(   3) = (   0.0006271   0.0005054   7.9858123  )
         4           O1  tau(   4) = (   3.2906025   0.0005020   7.3038282  )
         5           O1  tau(   5) = (   4.5942328   1.4918067   9.2879030  )
         6           O1  tau(   6) = (   1.9868534   1.4903216   9.2879459  )
         7           Ti1 tau(   7) = (   3.2907910   2.8959150   9.1758416  )
         8           Ti1 tau(   8) = (   0.0015273   1.4827037   9.2680791  )
         9           O1  tau(   9) = (   3.3006472   5.9526327  11.3326431  )
        10           O1  tau(  10) = (   0.0116148   5.9584955  10.6183126  )
        11           O1  tau(  11) = (   1.2986171   1.4856602  12.6180737  )
        12           O1  tau(  12) = (   5.2832837   1.4869688  12.6136912  )
        13           Ti1 tau(  13) = (   0.0716907   2.9700601  12.6329626  )
        14           Ti1 tau(  14) = (   3.3921379   1.4824266  12.4783935  )
        15           O1  tau(  15) = (   0.0098915   0.0277142  14.6273811  )
        16           O1  tau(  16) = (   3.2980527   0.0034327  13.9214941  )
        17           O1  tau(  17) = (   4.5491770   1.5035522  16.0668258  )
        18           O1  tau(  18) = (   2.0540802   1.5011373  16.0688643  )
        19           Ti1 tau(  19) = (   3.2973159   2.9845483  15.7023000  )
        20           Ti1 tau(  20) = (   6.5754392   1.4353193  15.8239573  )
        21           O1  tau(  21) = (   3.2904802   0.0005063   4.7018136  )
        22           O1  tau(  22) = (   0.0048264   5.9571524  17.1588256  )
        23           O1  tau(  23) = (   1.3043587   1.4918075   6.0039043  )
        24           O1  tau(  24) = (   5.2767064   1.4903225   6.0039473  )
        25           Ti1 tau(  25) = (   0.0000382   5.9609847   6.0000000  )
        26           Ti1 tau(  26) = (   3.2902200   4.4714249   6.0002472  )
        27           O1  tau(  27) = (   0.0002396   2.9813036   7.9858123  )
        28           O1  tau(  28) = (   3.2902150   2.9813002   7.3038282  )
        29           O1  tau(  29) = (   4.5938453   4.4726049   9.2879030  )
        30           O1  tau(  30) = (   1.9864658   4.4711199   9.2879459  )
        31           Ti1 tau(  31) = (   3.2891106   5.8743827   9.1763621  )
        32           Ti1 tau(  32) = (   0.0006254   4.4649316   9.2693709  )
        33           O1  tau(  33) = (   3.3024910   2.9811918  11.3312481  )
        34           O1  tau(  34) = (   0.0092240   2.9805883  10.6323155  )
        35           O1  tau(  35) = (   1.2967186   4.4682081  12.6345707  )
        36           O1  tau(  36) = (   5.2888097   4.4704914  12.6297389  )
        37           Ti1 tau(  37) = (   0.0778612   5.9457776  12.5489457  )
        38           Ti1 tau(  38) = (   3.3928769   4.4622707  12.4864817  )
        39           O1  tau(  39) = (   0.0140712   2.9461142  14.6842920  )
        40           O1  tau(  40) = (   3.2991745   2.9776924  13.9065265  )
        41           O1  tau(  41) = (   4.5418516   4.4678888  16.0645815  )
        42           O1  tau(  42) = (   2.0574864   4.4691885  16.0636024  )
        43           Ti1 tau(  43) = (   3.2861726   0.0051191  15.7195692  )
        44           Ti1 tau(  44) = (   6.5761434   4.5285208  16.1368719  )
        45           O1  tau(  45) = (   3.2900926   2.9813045   4.7018136  )
        46           O1  tau(  46) = (   1.3039711   4.4726057   6.0039043  )
        47           O1  tau(  47) = (   5.2763189   4.4711207   6.0039473  )
        48           C1  tau(  48) = (   0.0175971   3.0427671  17.7901079  )
        49           H1  tau(  49) = (   5.6823727   3.3959267  18.2745233  )
        50           H1  tau(  50) = (   0.1100020   1.9921885  18.0671921  )
        51           H1  tau(  51) = (   0.8707680   3.5346006  18.2680029  )
        52           N1  tau(  52) = (   6.1495222   1.5591847  21.8098380  )
        53           H1  tau(  53) = (   6.1793786   2.4848735  21.3946126  )
        54           H1  tau(  54) = (   6.2462200   0.9013766  21.0428083  )
        55           H1  tau(  55) = (   5.2088654   1.4380024  22.1828036  )
        56           N1  tau(  56) = (   2.8510371   0.9663425  23.1735989  )
        57           H1  tau(  57) = (   2.8683653   5.9129692  23.1556095  )
        58           H1  tau(  58) = (   1.9074079   1.2374795  22.9038124  )
        59           H1  tau(  59) = (   2.9540119   1.2328864  24.1466208  )

     number of k points=    10  Fermi-Dirac smearing, width (Ry)=  0.0073
                       cart. coord. in units 2pi/alat
        k(    1) = (   0.0000000   0.0000000   0.0000000), wk =   0.1250000
        k(    2) = (   0.0000000   0.0419351   0.0000000), wk =   0.2500000
        k(    3) = (   0.0000000  -0.0838702   0.0000000), wk =   0.1250000
        k(    4) = (   0.0379955   0.0000049   0.0000000), wk =   0.2500000
        k(    5) = (   0.0379955   0.0419400   0.0000000), wk =   0.2500000
        k(    6) = (   0.0379955  -0.0838652   0.0000000), wk =   0.2500000
        k(    7) = (   0.0379955  -0.0419301   0.0000000), wk =   0.2500000
        k(    8) = (  -0.0759910  -0.0000099   0.0000000), wk =   0.1250000
        k(    9) = (  -0.0759910   0.0419252   0.0000000), wk =   0.2500000
        k(   10) = (  -0.0759910  -0.0838800   0.0000000), wk =   0.1250000

     Initial potential from superposition of free atoms

     starting charge  384.99911, renormalised to  401.00000

     negative rho (up, down):  4.922E-03 0.000E+00

     %%%%%%%%%%%%%%%%%%%%%%%%%%%%%%%%%%%%%%%%%%%%%%%%%%%%%%%%%%%%%%%%%%%%%%%%
     %                                                                      %
     % You are using vdW-DF, which was implemented by the Thonhauser group. %
     % Please cite the following two papers that made this development      %
     % possible and the two reviews that describe the various versions:     %
     %                                                                      %
     %   T. Thonhauser et al., PRL 115, 136402 (2015).                      %
     %   T. Thonhauser et al., PRB 76, 125112 (2007).                       %
     %   K. Berland et al., Rep. Prog. Phys. 78, 066501 (2015).             %
     %   D.C. Langreth et al., J. Phys.: Condens. Matter 21, 084203 (2009). %
     %                                                                      %
     %                                                                      %
     % If you are calculating the stress with vdW-DF, please also cite:     %
     %                                                                      %
     %   R. Sabatini et al., J. Phys.: Condens. Matter 24, 424209 (2012).   %
     %                                                                      %
     %%%%%%%%%%%%%%%%%%%%%%%%%%%%%%%%%%%%%%%%%%%%%%%%%%%%%%%%%%%%%%%%%%%%%%%%

     Adding external electric field

     Computed dipole along edir(3) :
        Dipole              -16.7053 Ry au,        -42.4606 Debye
        Dipole field         -0.0315 Ry au,

        Potential amp.        2.9223 Ry
        Total length         46.3494 bohr

     Starting wfcs are  305 atomic wfcs
  @ DRIVER MODE: Message from server: STATUS
  @ DRIVER MODE: Message from server: POSDATA
  @ DRIVER MODE: Reading and sharing cell
  @ DRIVER MODE: Reading and sharing positions
  @ DRIVER MODE: Received positions

     Self-consistent Calculation

     iteration #  1     ecut=    29.40 Ry     beta= 0.05
     Davidson diagonalization with overlap
     c_bands:  2 eigenvalues not converged
     c_bands:  3 eigenvalues not converged
     c_bands:  1 eigenvalues not converged
     c_bands:  4 eigenvalues not converged
     c_bands:  4 eigenvalues not converged
     c_bands:  2 eigenvalues not converged
     c_bands:  3 eigenvalues not converged
     c_bands:  3 eigenvalues not converged
     c_bands:  4 eigenvalues not converged
     ethr =  1.00E-05,  avg # of iterations = 19.8

[...]

     total energy              =   -2364.26055911 Ry
     estimated scf accuracy    <    6692.63471935 Ry

     iteration #  2     ecut=    29.40 Ry     beta= 0.05
     Davidson diagonalization with overlap
     ethr =  1.00E-02,  avg # of iterations = 22.3

[...]

     iteration # 52     ecut=    29.40 Ry     beta= 0.05
     Davidson diagonalization with overlap
     c_bands:  1 eigenvalues not converged
     ethr =  1.05E-07,  avg # of iterations = 13.5

[...]

     total energy              =   -2946.58249214 Ry
     estimated scf accuracy    <       0.00000015 Ry

     iteration # 70     ecut=    29.40 Ry     beta= 0.05
     Davidson diagonalization with overlap
     ethr =  2.55E-11,  avg # of iterations =  6.7

     negative rho (up, down):  7.004E-03 0.000E+00

     Adding external electric field

     Computed dipole along edir(3) :
        Dipole                0.3135 Ry au,          0.7967 Debye
        Dipole field          0.0006 Ry au,

        Potential amp.       -0.0548 Ry
        Total length         46.3494 bohr

     End of self-consistent calculation

          k = 0.0000 0.0000 0.0000 ( 18029 PWs)   bands (ev):

   -55.9982 -55.9882 -55.9641 -55.9511 -55.8787 -55.8542 -55.8334 -55.8151
   -55.8053 -55.7715 -55.7712 -55.7377 -55.6128 -55.3909 -54.9787 -54.9446
   -32.5420 -32.4807 -32.3531 -32.3332 -32.3046 -32.3022 -32.2909 -32.2619
   -32.2403 -32.2169 -32.2099 -32.1954 -32.1679 -32.1503 -32.1412 -32.1272
   -32.1110 -32.1026 -32.0872 -32.0590 -32.0554 -32.0553 -32.0275 -32.0080
   -32.0075 -32.0023 -31.9933 -31.9894 -31.9762 -31.9737 -31.9656 -31.9457
   -31.9438 -31.9373 -31.9243 -31.9109 -31.8834 -31.8661 -31.8286 -31.6677
   -31.6414 -31.5287 -31.3858 -31.2971 -31.2747 -31.2024 -31.1159 -31.0050
   -16.7432 -16.4739 -16.2475 -16.1514 -16.1243 -16.0051 -15.8399 -15.7179
   -15.6696 -15.5693 -15.5599 -15.5351 -15.5023 -15.4786 -15.4779 -15.4436
   -15.4404 -15.4214 -15.4098 -15.3595 -15.3365 -15.3250 -15.2098 -15.1760
   -15.1336 -15.1125 -15.0547 -15.0423 -14.6199 -13.4818 -13.3655 -13.0408
   -12.9336  -9.1024  -4.1164  -3.9596  -3.9053  -3.8603  -3.8297  -3.6127
    -3.5466  -3.2490  -3.1848  -3.1701  -3.1528  -3.1204  -3.1152  -3.0869
    -3.0382  -2.9873  -2.9020  -2.8331  -2.8236  -2.8095  -2.8066  -2.7771
    -2.7675  -2.7553  -2.7147  -2.6892  -2.6631  -2.6130  -2.5580  -2.4959
    -2.4125  -2.3945  -2.3128  -2.2904  -2.2844  -2.2413  -2.2270  -2.2191
    -2.2001  -2.1750  -2.1619  -1.9785  -1.9399  -1.8372  -1.7811  -1.7790
    -1.6075  -1.5077  -1.4660  -1.4550  -1.4256  -1.3919  -1.3852  -1.2990
    -1.1822  -1.1510  -1.1181  -1.0461  -1.0024  -0.9706  -0.8731  -0.8457
    -0.7626  -0.7604  -0.7382  -0.6503  -0.5966  -0.4830  -0.4351  -0.4250
    -0.3871  -0.3579  -0.2885  -0.2743  -0.2175  -0.1451  -0.1243  -0.0615
    -0.0310  -0.0170  -0.0058   0.0110   0.0375   0.0679   0.1718   0.2022
     0.2817   0.3495   0.4447   0.5423   0.6480   0.6571   0.7584   0.9677
     1.0415   1.1396   1.1982   1.2355   1.6148   1.6606   1.7428   2.1823
     3.1389   3.2229   3.2705   3.2812   3.3724   3.3887   3.5891   3.6135
     3.6345   3.6867

[...]

          k = 0.0380-0.0419 0.0000 ( 17876 PWs)   bands (ev):

[...]

          k =-0.0760-0.0000 0.0000 ( 17886 PWs)   bands (ev):

[...]

          k =-0.0760-0.0839 0.0000 ( 17948 PWs)   bands (ev):

   -55.9817 -55.9806 -55.9741 -55.9650 -55.8707 -55.8440 -55.8412 -55.8253
   -55.7893 -55.7867 -55.7559 -55.7534 -55.6117 -55.3919 -54.9616 -54.9615
   -32.3496 -32.3410 -32.2964 -32.2956 -32.2768 -32.2758 -32.2597 -32.2508
   -32.2043 -32.1926 -32.1864 -32.1837 -32.1459 -32.1300 -32.1283 -32.1190
   -32.1085 -32.1011 -32.1009 -32.0999 -32.0941 -32.0913 -32.0707 -32.0608
   -32.0416 -32.0388 -32.0293 -32.0123 -31.9891 -31.9882 -31.9867 -31.9849
   -31.9702 -31.9688 -31.9660 -31.9620 -31.9336 -31.8573 -31.8318 -31.6813
   -31.6695 -31.5730 -31.2874 -31.2873 -31.1986 -31.1985 -31.1592 -31.1592
   -16.1760 -16.1566 -15.9490 -15.9122 -15.9092 -15.9000 -15.7883 -15.7032
   -15.6932 -15.6925 -15.6102 -15.5980 -15.5818 -15.5375 -15.5334 -15.5240
   -15.5144 -15.5025 -15.4591 -15.4542 -15.4353 -15.4278 -15.3459 -15.3155
   -15.3117 -15.2735 -15.1414 -15.0100 -14.8618 -13.4674 -13.4671 -12.9975
   -12.9766  -9.1189  -3.4681  -3.4425  -3.1922  -3.1560  -3.1467  -3.1133
    -3.0827  -3.0677  -2.9871  -2.9284  -2.9222  -2.8960  -2.8812  -2.8765
    -2.8401  -2.8278  -2.8180  -2.8060  -2.7878  -2.7536  -2.7446  -2.7122
    -2.7014  -2.6813  -2.6679  -2.6524  -2.6278  -2.6151  -2.6088  -2.5777
    -2.5634  -2.5466  -2.5260  -2.5031  -2.4201  -2.2309  -2.2011  -2.1363
    -2.1272  -2.0968  -2.0853  -2.0617  -2.0474  -2.0290  -1.9821  -1.8292
    -1.7271  -1.7009  -1.6731  -1.5980  -1.5771  -1.5294  -1.4153  -1.3806
    -1.3532  -1.3274  -1.2773  -1.2263  -1.2089  -1.1860  -1.1169  -1.1033
    -1.0257  -0.9823  -0.9596  -0.9553  -0.8905  -0.8475  -0.7655  -0.7602
    -0.7162  -0.6805  -0.6331  -0.5929  -0.5882  -0.5011  -0.4755  -0.3589
    -0.3042  -0.0445   0.0051   0.0564   0.0828   0.1414   0.1919   0.2067
     0.3157   0.3200   0.3565   0.4002   0.4408   0.5286   0.5478   0.5826
     0.7287   1.3025   1.4060   1.4066   1.4800   1.4804   1.9507   1.9588
     3.4238   3.4391   3.4695   3.5019   3.6434   3.6472   3.6687   3.6706
     3.8008   3.8120

     the Fermi energy is     3.1366 ev

!    total energy              =   -2946.58251622 Ry
     estimated scf accuracy    <       0.00000006 Ry
     smearing contrib. (-TS)   =      -0.02179029 Ry
     internal energy E=F+TS    =   -2946.56072594 Ry

     The total energy is F=E-TS. E is the sum of the following terms:
     one-electron contribution =  -22199.64614185 Ry
     hartree contribution      =   11188.82270753 Ry
     xc contribution           =    -489.84845895 Ry
     ewald contribution        =    8554.11098191 Ry
     electric field correction =       0.00018542 Ry

     convergence has been achieved in  70 iterations

     Forces acting on atoms (cartesian axes, Ry/au):

     atom    1 type  1   force =     0.00012363   -0.00025914    0.09667369
     atom    2 type  1   force =    -0.00013914   -0.00054673   -0.17510793
     atom    3 type  2   force =    -0.00000214   -0.00002711   -0.02501022
     atom    4 type  2   force =     0.00007460   -0.00144168    0.05270259
     atom    5 type  2   force =    -0.01210643   -0.00083523    0.00339331
     atom    6 type  2   force =     0.01401714   -0.00015238    0.00290192
     atom    7 type  1   force =    -0.00082326    0.00068879   -0.01135808
     atom    8 type  1   force =     0.00025830    0.01148737    0.02860221
     atom    9 type  2   force =    -0.00010148    0.00008857   -0.00001864
     atom   10 type  2   force =    -0.00085033    0.00077227   -0.01662068
     atom   11 type  2   force =    -0.00031486    0.00010033    0.00002826
     atom   12 type  2   force =    -0.00000182    0.00020851    0.00004781
     atom   13 type  1   force =    -0.00012280   -0.00020079    0.00009521
     atom   14 type  1   force =    -0.00021726    0.00000483   -0.00004414
     atom   15 type  2   force =    -0.00003171    0.00005483   -0.00010604
     atom   16 type  2   force =    -0.00012288   -0.00004048    0.00002527
     atom   17 type  2   force =    -0.00003224   -0.00015906   -0.00000906
     atom   18 type  2   force =    -0.00019785   -0.00017679   -0.00001305
     atom   19 type  1   force =     0.00000802   -0.00020652    0.00014944
     atom   20 type  1   force =     0.00009967   -0.00037225   -0.00005920
     atom   21 type  2   force =     0.00006259    0.00000967    0.10295437
     atom   22 type  2   force =    -0.00010772   -0.00007082   -0.00036148
     atom   23 type  2   force =    -0.07140199   -0.00010157   -0.02773065
     atom   24 type  2   force =     0.07136025    0.00030498   -0.02776463
     atom   25 type  1   force =     0.00001257   -0.00030788    0.09645096
     atom   26 type  1   force =    -0.00018176   -0.00027497   -0.17528781
     atom   27 type  2   force =     0.00009318   -0.00020075   -0.02391720
     atom   28 type  2   force =     0.00011405   -0.00119988    0.05274035
     atom   29 type  2   force =    -0.01213918    0.00045489    0.00287625
     atom   30 type  2   force =     0.01397049    0.00079997    0.00242167
     atom   31 type  1   force =    -0.00076530    0.00311234   -0.01227425
     atom   32 type  1   force =     0.00027317   -0.01311690    0.02917753
     atom   33 type  2   force =    -0.00009537   -0.00003181    0.00003935
     atom   34 type  2   force =    -0.00028844    0.00077117   -0.02206792
     atom   35 type  2   force =    -0.00016700    0.00008285   -0.00004324
     atom   36 type  2   force =    -0.00009865    0.00020338   -0.00003390
     atom   37 type  1   force =    -0.00002225   -0.00031392   -0.00017337
     atom   38 type  1   force =     0.00002733    0.00000335    0.00000168
     atom   39 type  2   force =    -0.00008124    0.00013148    0.00028277
     atom   40 type  2   force =    -0.00013372   -0.00001324   -0.00006590
     atom   41 type  2   force =     0.00000311   -0.00021261    0.00001646
     atom   42 type  2   force =    -0.00019786   -0.00021959    0.00018637
     atom   43 type  1   force =     0.00030982   -0.00016073   -0.00017192
     atom   44 type  1   force =     0.00018250   -0.00026865    0.00019428
     atom   45 type  2   force =     0.00006183   -0.00007026    0.10294954
     atom   46 type  2   force =    -0.07141633   -0.00009137   -0.02774096
     atom   47 type  2   force =     0.07137343    0.00036744   -0.02774974
     atom   48 type  3   force =    -0.00018421    0.00037998    0.00003905
     atom   49 type  4   force =    -0.00008062    0.00041981    0.00021447
     atom   50 type  4   force =    -0.00008287    0.00012735    0.00005628
     atom   51 type  4   force =     0.00008825    0.00029737    0.00038470
     atom   52 type  5   force =    -0.00057057   -0.00030412    0.00146627
     atom   53 type  4   force =     0.00008233    0.00055638   -0.00048288
     atom   54 type  4   force =    -0.00041933   -0.00041078   -0.00134236
     atom   55 type  4   force =     0.00064946    0.00024852   -0.00045211
     atom   56 type  5   force =    -0.00054276    0.00089402   -0.00152652
     atom   57 type  4   force =    -0.00001895   -0.00037501    0.00041984
     atom   58 type  4   force =    -0.00069608   -0.00051395   -0.00199850
     atom   59 type  4   force =     0.00151068    0.00010652    0.00204048

     Total force =     0.367743     Total SCF correction =     0.000534
  @ DRIVER MODE: Message from server: STATUS
  @ DRIVER MODE: Message from server: GETFORCE
  @ DRIVER MODE: Returning v,forces,stress,ensemble

     Writing output data file ./calc.save/
  @ DRIVER MODE: Message from server: EXIT
  @ DRIVE MODE: Exiting

     General routines

     Parallel routines

   This run was terminated on:   6:43: 6   4Aug2021

   JOB DONE.