     Program PWSCF v.6.7GPU starts on 16Sep2021 at 10:46:10

     R & G space division:  proc/nbgrp/npool/nimage =      10
     Reading input from /storage/home/hcoda1/3/ntian30/research/carbon/CxH_vib/H2O_calc/ads_slab/CH3N2HH2O_a/out_0059/pw.inp
Warning: card &CELL ignored
Warning: card   CELL_DYNAMICS='IPI', ignored
Warning: card / ignored

     Current dimensions of program PWSCF are:
     Max number of different atomic species (ntypx) = 10
     Max number of k-points (npk) =  40000
     Max angular momentum in pseudopotentials (lmaxx) =  3
     Presently no symmetry can be used with electric field

     Message from routine cell_base_init:
     DEPRECATED: use true lattice parameter, not A to a.u. conversion factor

     IMPORTANT: XC functional enforced from input :
     Exchange-correlation= BEEF-VDW
                           (   1   4  43  14   2   0   0)
     Any further DFT definition will be discarded
     Please, verify this is what you really want

  @ DRIVER MODE: Connecting to
 qe_1139763_2852617.sched-torque.pace.gatech.educo7wl4n9_scratch
  using UNIX socket
  @ DRIVER MODE: Message from server: STATUS
  @ DRIVER MODE: Message from server: INIT
  @ DRIVER MODE: Receiving replica           0          -1
  @ DRIVER MODE: Receiving encoded integer          25
  @ DRIVER MODE:  SCF:  T  FORCE:  T  STRESS:  F  VC:  F  ENSEMBLE:  F
  @ DRIVER MODE:  SCF:  T  FORCE:  T  STRESS:  F  VC:  F  ENSEMBLE:  F

     Using Slab Decomposition

     bravais-lattice index     =            0
     lattice parameter (alat)  =       1.8897  a.u.
     unit-cell volume          =    6658.9804 (a.u.)^3
     number of atoms/cell      =           57
     number of atomic types    =            5
     number of electrons       =       404.00
     number of Kohn-Sham states=          212
     kinetic-energy cutoff     =      29.3995  Ry
     charge density cutoff     =     293.9946  Ry
     scf convergence threshold =      7.3E-08
     mixing beta               =       0.0500
     number of iterations used =            8  plain     mixing
     Exchange-correlation= BEEF-VDW
                           (   1   4  43  14   2   0   0)

     celldm(1)=   1.889726  celldm(2)=   0.000000  celldm(3)=   0.000000
     celldm(4)=   0.000000  celldm(5)=   0.000000  celldm(6)=   0.000000

     crystal axes: (cart. coord. in units of alat)
               a(1) = (   6.579727   0.000000   0.000000 )
               a(2) = (  -0.000775   5.961596   0.000000 )
               a(3) = (   0.000000   0.000000  25.155947 )

     reciprocal axes: (cart. coord. in units 2 pi/alat)
               b(1) = (  0.151982  0.000020  0.000000 )
               b(2) = (  0.000000  0.167740  0.000000 )
               b(3) = (  0.000000  0.000000  0.039752 )

     PseudoPot. # 1 for Ti read from file:
     /storage/coda1/p-amedford6/0/shared/rich_project_chbe-medford/medford-share/data/pseudos_module/espresso/nninc/pbe/van/Ti.UPF
     MD5 check sum: 8e4df49b7f0d34bbd5052bf3f5ea0213
     Pseudo is Ultrasoft, Zval = 12.0
     Generated by new atomic code, or converted to UPF format
     Using radial grid of  851 points,  6 beta functions with:
                l(1) =   0
                l(2) =   0
                l(3) =   1
                l(4) =   1
                l(5) =   2
                l(6) =   2
     Q(r) pseudized with  8 coefficients,  rinner =    1.000   1.000   1.000
                                                       1.000   1.000

     PseudoPot. # 2 for O  read from file:
     /storage/coda1/p-amedford6/0/shared/rich_project_chbe-medford/medford-share/data/pseudos_module/espresso/nninc/pbe/van/O.UPF
     MD5 check sum: 78c19812648e8988a0fe644b0f25305e
     Pseudo is Ultrasoft, Zval =  6.0
     Generated by new atomic code, or converted to UPF format
     Using radial grid of  737 points,  4 beta functions with:
                l(1) =   0
                l(2) =   0
                l(3) =   1
                l(4) =   1
     Q(r) pseudized with  8 coefficients,  rinner =    0.800   0.800   0.800

     PseudoPot. # 3 for N  read from file:
     /storage/coda1/p-amedford6/0/shared/rich_project_chbe-medford/medford-share/data/pseudos_module/espresso/nninc/pbe/van/N.UPF
     MD5 check sum: 90d10febe142ad51ac9d5be1deb811c4
     Pseudo is Ultrasoft, Zval =  5.0
     Generated by new atomic code, or converted to UPF format
     Using radial grid of  729 points,  4 beta functions with:
                l(1) =   0
                l(2) =   0
                l(3) =   1
                l(4) =   1
     Q(r) pseudized with  8 coefficients,  rinner =    0.800   0.800   0.800

     PseudoPot. # 4 for C  read from file:
     /storage/coda1/p-amedford6/0/shared/rich_project_chbe-medford/medford-share/data/pseudos_module/espresso/nninc/pbe/van/C.UPF
     MD5 check sum: 1a69bf6b8db32088f5b2163dbdb77a27
     Pseudo is Ultrasoft, Zval =  4.0
     Generated by new atomic code, or converted to UPF format
     Using radial grid of  721 points,  4 beta functions with:
                l(1) =   0
                l(2) =   0
                l(3) =   1
                l(4) =   1
     Q(r) pseudized with  8 coefficients,  rinner =    0.800   0.800   0.800

     PseudoPot. # 5 for H  read from file:
     /storage/coda1/p-amedford6/0/shared/rich_project_chbe-medford/medford-share/data/pseudos_module/espresso/nninc/pbe/van/H.UPF
     MD5 check sum: b5ee9d7bfd3a09ee7748110bda690ff7
     Pseudo is Ultrasoft, Zval =  1.0
     Generated by new atomic code, or converted to UPF format
     Using radial grid of  615 points,  1 beta functions with:
                l(1) =   0
     Q(r) pseudized with  8 coefficients,  rinner =    0.800

     atomic species   valence    mass     pseudopotential
        Ti1           12.00    47.86700     Ti( 1.00)
        O1             6.00    15.99900     O ( 1.00)
        N1             5.00    14.00700     N ( 1.00)
        C1             4.00    12.01100     C ( 1.00)
        H1             1.00     1.00800     H ( 1.00)

     No symmetry found

   Cartesian axes

     site n.     atom                  positions (alat units)
         1           Ti1 tau(   1) = (   0.0004258   2.9801865   6.0000000  )
         2           Ti1 tau(   2) = (   3.2906075   1.4906267   6.0002472  )
         3           O1  tau(   3) = (   0.0006271   0.0005054   7.9858123  )
         4           O1  tau(   4) = (   3.2906025   0.0005020   7.3038282  )
         5           O1  tau(   5) = (   4.5942328   1.4918067   9.2879030  )
         6           O1  tau(   6) = (   1.9868534   1.4903216   9.2879459  )
         7           Ti1 tau(   7) = (   3.2907910   2.8959150   9.1758416  )
         8           Ti1 tau(   8) = (   0.0015273   1.4827037   9.2680791  )
         9           O1  tau(   9) = (   3.2846840   0.0164488  11.3171736  )
        10           O1  tau(  10) = (   0.0116148   5.9584955  10.6183126  )
        11           O1  tau(  11) = (   1.2780696   1.4966870  12.6228330  )
        12           O1  tau(  12) = (   5.2671132   1.5021727  12.6038655  )
        13           Ti1 tau(  13) = (   0.0814623   2.9703834  12.6092300  )
        14           Ti1 tau(  14) = (   3.3984034   1.5042134  12.4754612  )
        15           O1  tau(  15) = (   6.5611900   5.9602394  14.6246442  )
        16           O1  tau(  16) = (   3.2847170   0.0117735  13.9091713  )
        17           O1  tau(  17) = (   4.5127615   1.5439160  15.9886145  )
        18           O1  tau(  18) = (   2.0245574   1.5486524  15.9865356  )
        19           Ti1 tau(  19) = (   3.2678410   3.0292036  15.6627315  )
        20           Ti1 tau(  20) = (   6.5437773   1.5790868  15.8036792  )
        21           O1  tau(  21) = (   3.2904802   0.0005063   4.7018136  )
        22           O1  tau(  22) = (   6.5616667   0.0409992  17.2467836  )
        23           O1  tau(  23) = (   1.3043587   1.4918075   6.0039043  )
        24           O1  tau(  24) = (   5.2767064   1.4903225   6.0039473  )
        25           Ti1 tau(  25) = (   0.0000382   5.9609847   6.0000000  )
        26           Ti1 tau(  26) = (   3.2902200   4.4714249   6.0002472  )
        27           O1  tau(  27) = (   0.0002396   2.9813036   7.9858123  )
        28           O1  tau(  28) = (   3.2902150   2.9813002   7.3038282  )
        29           O1  tau(  29) = (   4.5938453   4.4726049   9.2879030  )
        30           O1  tau(  30) = (   1.9864658   4.4711199   9.2879459  )
        31           Ti1 tau(  31) = (   3.2891106   5.8743827   9.1763621  )
        32           Ti1 tau(  32) = (   0.0006254   4.4649316   9.2693709  )
        33           O1  tau(  33) = (   3.2886753   2.9955121  11.3174028  )
        34           O1  tau(  34) = (   0.0092240   2.9805883  10.6323155  )
        35           O1  tau(  35) = (   1.2771457   4.4765085  12.6200386  )
        36           O1  tau(  36) = (   5.2716127   4.4859779  12.5990880  )
        37           Ti1 tau(  37) = (   0.0719143   5.9417653  12.6408960  )
        38           Ti1 tau(  38) = (   3.4009286   4.4967646  12.4819834  )
        39           O1  tau(  39) = (   6.5633752   2.9851081  14.6229342  )
        40           O1  tau(  40) = (   3.2806164   3.0132077  13.8636590  )
        41           O1  tau(  41) = (   4.5054435   4.4842064  16.0752605  )
        42           O1  tau(  42) = (   2.0287922   4.4846499  16.0567397  )
        43           Ti1 tau(  43) = (   3.2585180   0.0608266  15.7494983  )
        44           Ti1 tau(  44) = (   6.5556145   4.6328118  16.1363011  )
        45           O1  tau(  45) = (   3.2900926   2.9813045   4.7018136  )
        46           O1  tau(  46) = (   1.3039711   4.4726057   6.0039043  )
        47           O1  tau(  47) = (   5.2763189   4.4711207   6.0039473  )
        48           N1  tau(  48) = (   6.4582227   2.6263240  18.5734135  )
        49           N1  tau(  49) = (   6.5493832   2.9496485  17.3103279  )
        50           C1  tau(  50) = (   0.1600853   3.5596473  19.6455425  )
        51           H1  tau(  51) = (   6.1911903   4.4878083  19.4849519  )
        52           H1  tau(  52) = (   6.4401482   3.1080517  20.5902855  )
        53           H1  tau(  53) = (   1.2308410   3.8049764  19.6956042  )
        54           H1  tau(  54) = (   6.5044843   1.6253530  18.7706356  )
        55           O1  tau(  55) = (   3.2415852   0.0755412  18.2049893  )
        56           H1  tau(  56) = (   4.0109045   5.4607113  18.3409029  )
        57           H1  tau(  57) = (   2.4534619   5.4803556  18.3140773  )

     number of k points=    10  Fermi-Dirac smearing, width (Ry)=  0.0073
                       cart. coord. in units 2pi/alat
        k(    1) = (   0.0000000   0.0000000   0.0000000), wk =   0.1250000
        k(    2) = (   0.0000000   0.0419351   0.0000000), wk =   0.2500000
        k(    3) = (   0.0000000  -0.0838702   0.0000000), wk =   0.1250000
        k(    4) = (   0.0379955   0.0000049   0.0000000), wk =   0.2500000
        k(    5) = (   0.0379955   0.0419400   0.0000000), wk =   0.2500000
        k(    6) = (   0.0379955  -0.0838652   0.0000000), wk =   0.2500000
        k(    7) = (   0.0379955  -0.0419301   0.0000000), wk =   0.2500000
        k(    8) = (  -0.0759910  -0.0000099   0.0000000), wk =   0.1250000
        k(    9) = (  -0.0759910   0.0419252   0.0000000), wk =   0.2500000
        k(   10) = (  -0.0759910  -0.0838800   0.0000000), wk =   0.1250000

     Initial potential from superposition of free atoms

     starting charge  387.99913, renormalised to  404.00000

     negative rho (up, down):  1.445E-02 0.000E+00

     %%%%%%%%%%%%%%%%%%%%%%%%%%%%%%%%%%%%%%%%%%%%%%%%%%%%%%%%%%%%%%%%%%%%%%%%
     %                                                                      %
     % You are using vdW-DF, which was implemented by the Thonhauser group. %
     % Please cite the following two papers that made this development      %
     % possible and the two reviews that describe the various versions:     %
     %                                                                      %
     %   T. Thonhauser et al., PRL 115, 136402 (2015).                      %
     %   T. Thonhauser et al., PRB 76, 125112 (2007).                       %
     %   K. Berland et al., Rep. Prog. Phys. 78, 066501 (2015).             %
     %   D.C. Langreth et al., J. Phys.: Condens. Matter 21, 084203 (2009). %
     %                                                                      %
     %                                                                      %
     % If you are calculating the stress with vdW-DF, please also cite:     %
     %                                                                      %
     %   R. Sabatini et al., J. Phys.: Condens. Matter 24, 424209 (2012).   %
     %                                                                      %
     %%%%%%%%%%%%%%%%%%%%%%%%%%%%%%%%%%%%%%%%%%%%%%%%%%%%%%%%%%%%%%%%%%%%%%%%

     Adding external electric field

     Computed dipole along edir(3) :
        Dipole              -13.5661 Ry au,        -34.4815 Debye
        Dipole field         -0.0256 Ry au,

        Potential amp.        2.3732 Ry
        Total length         46.3494 bohr

     Starting wfcs are  306 atomic wfcs
  @ DRIVER MODE: Message from server: STATUS
  @ DRIVER MODE: Message from server: POSDATA
  @ DRIVER MODE: Reading and sharing cell
  @ DRIVER MODE: Reading and sharing positions
  @ DRIVER MODE: Received positions

     Self-consistent Calculation

     iteration #  1     ecut=    29.40 Ry     beta= 0.05
     Davidson diagonalization with overlap
     c_bands:  4 eigenvalues not converged
     c_bands:  4 eigenvalues not converged
     c_bands:  4 eigenvalues not converged
     c_bands:  4 eigenvalues not converged
     c_bands:  3 eigenvalues not converged
     c_bands:  3 eigenvalues not converged
     ethr =  1.00E-05,  avg # of iterations = 25.3

[...]

     total energy              =   -2339.27298497 Ry
     estimated scf accuracy    <    7249.28049310 Ry

     iteration #  2     ecut=    29.40 Ry     beta= 0.05
     Davidson diagonalization with overlap
     ethr =  1.00E-02,  avg # of iterations = 23.9

[...]

     iteration # 34     ecut=    29.40 Ry     beta= 0.05
     Davidson diagonalization with overlap
     c_bands:  1 eigenvalues not converged
     ethr =  3.25E-06,  avg # of iterations =  3.5

[...]

     total energy              =   -2975.23046723 Ry
     estimated scf accuracy    <       0.00000016 Ry

     iteration # 59     ecut=    29.40 Ry     beta= 0.05
     Davidson diagonalization with overlap
     ethr =  4.08E-11,  avg # of iterations =  7.5

     negative rho (up, down):  1.507E-02 0.000E+00

     Adding external electric field

     Computed dipole along edir(3) :
        Dipole                1.1578 Ry au,          2.9429 Debye
        Dipole field          0.0022 Ry au,

        Potential amp.       -0.2025 Ry
        Total length         46.3494 bohr

     End of self-consistent calculation

          k = 0.0000 0.0000 0.0000 ( 18029 PWs)   bands (ev):

   -55.5071 -55.4731 -55.3344 -55.2979 -55.2639 -55.2302 -55.2038 -55.2006
   -55.1892 -55.1662 -55.1548 -55.0164 -54.5546 -54.4375 -54.4035 -54.3909
   -31.9801 -31.8697 -31.8013 -31.7863 -31.7229 -31.7139 -31.6783 -31.6603
   -31.6234 -31.6064 -31.6025 -31.5756 -31.5659 -31.5214 -31.5136 -31.5026
   -31.4836 -31.4819 -31.4575 -31.4398 -31.4272 -31.4184 -31.4154 -31.3980
   -31.3940 -31.3863 -31.3767 -31.3695 -31.3672 -31.3650 -31.3430 -31.3315
   -31.3190 -31.3016 -31.2085 -31.1813 -31.0485 -30.8425 -30.7788 -30.7646
   -30.7594 -30.7367 -30.7260 -30.6596 -30.6014 -30.5734 -30.5704 -30.4622
   -18.7932 -17.7501 -16.0756 -15.8836 -15.6113 -15.4884 -15.4607 -15.2769
   -15.2005 -15.1491 -15.0169 -14.9698 -14.9404 -14.9102 -14.8978 -14.8405
   -14.8132 -14.7862 -14.7575 -14.7521 -14.7325 -14.7104 -14.6702 -14.6118
   -14.5865 -14.5253 -14.4750 -14.4535 -14.3612 -14.3554 -13.9307 -12.9391
   -12.8236 -11.9016  -8.8052  -6.5685  -5.6082  -4.3233  -4.0881  -3.4602
    -3.3847  -3.3257  -3.2095  -3.1293  -2.9914  -2.9492  -2.8820  -2.7742
    -2.6066  -2.5486  -2.5216  -2.4937  -2.4094  -2.2758  -2.2644  -2.2165
    -2.1886  -2.1681  -2.1534  -2.1374  -2.0425  -2.0035  -1.9661  -1.8559
    -1.8195  -1.7972  -1.7802  -1.7719  -1.7550  -1.6905  -1.6590  -1.6404
    -1.6299  -1.5929  -1.5589  -1.5482  -1.4180  -1.3998  -1.2822  -1.1533
    -1.1307  -1.0728  -1.0486  -0.8897  -0.8832  -0.8621  -0.8209  -0.8134
    -0.7416  -0.6687  -0.6270  -0.5520  -0.4333  -0.4241  -0.3894  -0.2434
    -0.2395  -0.2165  -0.1784  -0.1671  -0.1163  -0.1068  -0.0605  -0.0003
     0.0947   0.1654   0.2710   0.2739   0.3266   0.3662   0.3787   0.4367
     0.4531   0.5028   0.5146   0.5223   0.5743   0.6091   0.6218   0.6791
     0.7308   0.8479   0.9174   0.9425   0.9889   1.1110   1.1862   1.2336
     1.2389   1.4070   1.5299   1.5595   1.5848   1.7850   1.8167   2.1516
     2.1954   3.6669   3.6838   3.7735   3.8326   3.9466   4.0182   4.1067
     4.1858   4.2558   4.3482   4.3770

[...]

          k = 0.0380-0.0419 0.0000 ( 17876 PWs)   bands (ev):

[...]

          k =-0.0760-0.0000 0.0000 ( 17886 PWs)   bands (ev):

[...]

          k =-0.0760-0.0839 0.0000 ( 17948 PWs)   bands (ev):

   -55.4902 -55.4898 -55.3199 -55.3122 -55.2471 -55.2468 -55.1989 -55.1923
   -55.1777 -55.1753 -55.1688 -55.0179 -54.5530 -54.4205 -54.4204 -54.3923
   -31.7957 -31.7956 -31.7866 -31.7865 -31.6828 -31.6656 -31.6112 -31.6106
   -31.5720 -31.5674 -31.5639 -31.5591 -31.5564 -31.5508 -31.5183 -31.5132
   -31.4915 -31.4826 -31.4800 -31.4730 -31.4402 -31.4380 -31.4299 -31.4273
   -31.4166 -31.4145 -31.4034 -31.4008 -31.3967 -31.3907 -31.3904 -31.3848
   -31.3574 -31.3331 -31.3184 -31.2162 -30.9580 -30.8024 -30.7677 -30.7495
   -30.7494 -30.7474 -30.6556 -30.6555 -30.6200 -30.6165 -30.6165 -30.6014
   -18.7922 -17.7442 -15.4990 -15.4327 -15.3621 -15.3581 -15.2534 -15.2005
   -15.1057 -15.0948 -15.0878 -15.0846 -14.9842 -14.9808 -14.9151 -14.9061
   -14.8670 -14.8599 -14.8561 -14.8396 -14.8249 -14.8194 -14.8052 -14.7585
   -14.7406 -14.7348 -14.5712 -14.5462 -14.4306 -14.4123 -14.0549 -12.9257
   -12.9255 -11.9029  -8.8156  -6.5524  -5.6001  -4.2729  -4.1084  -2.9302
    -2.9087  -2.7903  -2.6628  -2.5302  -2.5179  -2.4971  -2.4606  -2.2942
    -2.2815  -2.2662  -2.2566  -2.2151  -2.2038  -2.1848  -2.1706  -2.1166
    -2.0994  -2.0806  -2.0760  -2.0649  -2.0586  -2.0488  -2.0397  -2.0314
    -2.0080  -1.9611  -1.9395  -1.8583  -1.7723  -1.7622  -1.6857  -1.5561
    -1.5494  -1.5377  -1.5362  -1.5237  -1.5143  -1.4727  -1.4375  -1.3825
    -1.2720  -1.1543  -1.1035  -1.0852  -1.0307  -1.0116  -0.9230  -0.8426
    -0.8076  -0.7893  -0.7039  -0.6551  -0.5765  -0.5610  -0.5239  -0.4732
    -0.4492  -0.4352  -0.4193  -0.4110  -0.3479  -0.3041  -0.2365  -0.2224
    -0.1665  -0.1352  -0.1065  -0.0839  -0.0430   0.0503   0.0580   0.0860
     0.1134   0.1283   0.2026   0.3536   0.3940   0.6332   0.6423   0.7139
     0.8424   0.8651   0.8722   0.9486   0.9620   0.9987   1.0206   1.1410
     1.1639   1.1881   1.3167   1.3520   1.4440   1.9547   1.9555   2.0144
     2.0149   3.5299   4.1311   4.1412   4.1583   4.1717   4.1971   4.2037
     4.2464   4.2593   4.3924   4.4136

     the Fermi energy is     3.6429 ev

!    total energy              =   -2975.23052129 Ry
     estimated scf accuracy    <       0.00000006 Ry
     smearing contrib. (-TS)   =      -0.02108374 Ry
     internal energy E=F+TS    =   -2975.20943755 Ry

     The total energy is F=E-TS. E is the sum of the following terms:
     one-electron contribution =  -23879.11278155 Ry
     hartree contribution      =   12036.94756751 Ry
     xc contribution           =    -494.92865435 Ry
     ewald contribution        =    9361.88190096 Ry
     electric field correction =       0.00252988 Ry

     convergence has been achieved in  59 iterations

     Forces acting on atoms (cartesian axes, Ry/au):

     atom    1 type  1   force =     0.00016910   -0.00023316    0.09948920
     atom    2 type  1   force =    -0.00014109   -0.00038849   -0.17308112
     atom    3 type  2   force =    -0.00006760   -0.00000368   -0.02911895
     atom    4 type  2   force =     0.00003910   -0.00102695    0.04892595
     atom    5 type  2   force =    -0.01225436    0.00099608    0.00049540
     atom    6 type  2   force =     0.01356106    0.00186885   -0.00109871
     atom    7 type  1   force =    -0.00136134   -0.00052350   -0.00300069
     atom    8 type  1   force =     0.00094708   -0.00609134    0.04542354
     atom    9 type  2   force =     0.00000056   -0.00023316   -0.00000225
     atom   10 type  2   force =    -0.00155746    0.00261682   -0.03094324
     atom   11 type  2   force =    -0.00019445   -0.00045054    0.00004292
     atom   12 type  2   force =     0.00009208   -0.00023679    0.00014757
     atom   13 type  1   force =    -0.00019210   -0.00054438   -0.00036871
     atom   14 type  1   force =     0.00032512   -0.00017941    0.00020210
     atom   15 type  2   force =     0.00000748   -0.00013329   -0.00027655
     atom   16 type  2   force =    -0.00021979    0.00004027    0.00014192
     atom   17 type  2   force =     0.00016820   -0.00023176    0.00008268
     atom   18 type  2   force =    -0.00005184   -0.00037851    0.00002614
     atom   19 type  1   force =     0.00018444   -0.00027189    0.00030944
     atom   20 type  1   force =    -0.00005807   -0.00052501    0.00022916
     atom   21 type  2   force =     0.00008473   -0.00000804    0.10256983
     atom   22 type  2   force =     0.00014407   -0.00024482   -0.00008257
     atom   23 type  2   force =    -0.07247941   -0.00009095   -0.02846522
     atom   24 type  2   force =     0.07244354    0.00034489   -0.02844613
     atom   25 type  1   force =     0.00009515   -0.00027233    0.09898952
     atom   26 type  1   force =    -0.00005973   -0.00040759   -0.17324387
     atom   27 type  2   force =    -0.00003165    0.00000464   -0.02842433
     atom   28 type  2   force =     0.00009403   -0.00076030    0.04809175
     atom   29 type  2   force =    -0.01262276    0.00063434    0.00053300
     atom   30 type  2   force =     0.01385719    0.00096218   -0.00103506
     atom   31 type  1   force =    -0.00146916    0.00227052   -0.00571378
     atom   32 type  1   force =     0.00112500    0.00383258    0.04594225
     atom   33 type  2   force =    -0.00006171   -0.00026486   -0.00008647
     atom   34 type  2   force =    -0.00096727    0.00134261   -0.03379495
     atom   35 type  2   force =    -0.00030408    0.00004306   -0.00024371
     atom   36 type  2   force =     0.00049533    0.00010011   -0.00003517
     atom   37 type  1   force =    -0.00031858    0.00007912    0.00022138
     atom   38 type  1   force =     0.00020702   -0.00029086    0.00000935
     atom   39 type  2   force =     0.00003958   -0.00051472    0.00038893
     atom   40 type  2   force =    -0.00005596    0.00017598   -0.00023045
     atom   41 type  2   force =    -0.00017064   -0.00026586    0.00003155
     atom   42 type  2   force =     0.00020506   -0.00008684    0.00009555
     atom   43 type  1   force =     0.00036079    0.00022961   -0.00037216
     atom   44 type  1   force =    -0.00012603   -0.00023628   -0.00004587
     atom   45 type  2   force =     0.00009275   -0.00001173    0.10256550
     atom   46 type  2   force =    -0.07250362   -0.00000670   -0.02845515
     atom   47 type  2   force =     0.07245868    0.00037889   -0.02845076
     atom   48 type  3   force =    -0.00035527   -0.00039193   -0.00040381
     atom   49 type  3   force =     0.00013456   -0.00060308   -0.00015028
     atom   50 type  4   force =     0.00025612   -0.00034387    0.00013462
     atom   51 type  5   force =     0.00016919   -0.00013473    0.00021187
     atom   52 type  5   force =    -0.00012156    0.00024094    0.00021043
     atom   53 type  5   force =     0.00001531   -0.00007853    0.00012434
     atom   54 type  5   force =     0.00031990    0.00009964    0.00018911
     atom   55 type  2   force =     0.00237341    0.00208721   -0.00084643
     atom   56 type  5   force =    -0.00046814   -0.00051721   -0.00025834
     atom   57 type  5   force =    -0.00225198   -0.00136524    0.00084970

     Total force =     0.372060     Total SCF correction =     0.000735
  @ DRIVER MODE: Message from server: STATUS
  @ DRIVER MODE: Message from server: GETFORCE
  @ DRIVER MODE: Returning v,forces,stress,ensemble

     Writing output data file ./calc.save/
  @ DRIVER MODE: Message from server: EXIT
  @ DRIVE MODE: Exiting

     General routines

     Parallel routines

   This run was terminated on:  11: 2:36  16Sep2021

   JOB DONE.