     Program PWSCF v.6.7GPU starts on 15Sep2021 at 19:47:12

     R & G space division:  proc/nbgrp/npool/nimage =      10
     Reading input from /storage/home/hcoda1/3/ntian30/research/carbon/CxH_vib/H2O_calc/ads_slab/CH3NH2NHH2O_c/out_0012/pw.inp
Warning: card &CELL ignored
Warning: card   CELL_DYNAMICS='IPI', ignored
Warning: card / ignored

     Current dimensions of program PWSCF are:
     Max number of different atomic species (ntypx) = 10
     Max number of k-points (npk) =  40000
     Max angular momentum in pseudopotentials (lmaxx) =  3
     Presently no symmetry can be used with electric field

     Message from routine cell_base_init:
     DEPRECATED: use true lattice parameter, not A to a.u. conversion factor

     IMPORTANT: XC functional enforced from input :
     Exchange-correlation= BEEF-VDW
                           (   1   4  43  14   2   0   0)
     Any further DFT definition will be discarded
     Please, verify this is what you really want

  @ DRIVER MODE: Connecting to
 qe_1139763_2852614.sched-torque.pace.gatech.eduiqguvoue_scratch
  using UNIX socket
  @ DRIVER MODE: Message from server: STATUS
  @ DRIVER MODE: Message from server: INIT
  @ DRIVER MODE: Receiving replica           0          -1
  @ DRIVER MODE: Receiving encoded integer          25
  @ DRIVER MODE:  SCF:  T  FORCE:  T  STRESS:  F  VC:  F  ENSEMBLE:  F
  @ DRIVER MODE:  SCF:  T  FORCE:  T  STRESS:  F  VC:  F  ENSEMBLE:  F

     Using Slab Decomposition

     bravais-lattice index     =            0
     lattice parameter (alat)  =       1.8897  a.u.
     unit-cell volume          =    6658.9804 (a.u.)^3
     number of atoms/cell      =           59
     number of atomic types    =            5
     number of electrons       =       406.00
     number of Kohn-Sham states=          213
     kinetic-energy cutoff     =      29.3995  Ry
     charge density cutoff     =     293.9946  Ry
     scf convergence threshold =      7.3E-08
     mixing beta               =       0.0500
     number of iterations used =            8  plain     mixing
     Exchange-correlation= BEEF-VDW
                           (   1   4  43  14   2   0   0)

     celldm(1)=   1.889726  celldm(2)=   0.000000  celldm(3)=   0.000000
     celldm(4)=   0.000000  celldm(5)=   0.000000  celldm(6)=   0.000000

     crystal axes: (cart. coord. in units of alat)
               a(1) = (   6.579727   0.000000   0.000000 )
               a(2) = (  -0.000775   5.961596   0.000000 )
               a(3) = (   0.000000   0.000000  25.155947 )

     reciprocal axes: (cart. coord. in units 2 pi/alat)
               b(1) = (  0.151982  0.000020  0.000000 )
               b(2) = (  0.000000  0.167740  0.000000 )
               b(3) = (  0.000000  0.000000  0.039752 )

     PseudoPot. # 1 for Ti read from file:
     /storage/coda1/p-amedford6/0/shared/rich_project_chbe-medford/medford-share/data/pseudos_module/espresso/nninc/pbe/van/Ti.UPF
     MD5 check sum: 8e4df49b7f0d34bbd5052bf3f5ea0213
     Pseudo is Ultrasoft, Zval = 12.0
     Generated by new atomic code, or converted to UPF format
     Using radial grid of  851 points,  6 beta functions with:
                l(1) =   0
                l(2) =   0
                l(3) =   1
                l(4) =   1
                l(5) =   2
                l(6) =   2
     Q(r) pseudized with  8 coefficients,  rinner =    1.000   1.000   1.000
                                                       1.000   1.000

     PseudoPot. # 2 for O  read from file:
     /storage/coda1/p-amedford6/0/shared/rich_project_chbe-medford/medford-share/data/pseudos_module/espresso/nninc/pbe/van/O.UPF
     MD5 check sum: 78c19812648e8988a0fe644b0f25305e
     Pseudo is Ultrasoft, Zval =  6.0
     Generated by new atomic code, or converted to UPF format
     Using radial grid of  737 points,  4 beta functions with:
                l(1) =   0
                l(2) =   0
                l(3) =   1
                l(4) =   1
     Q(r) pseudized with  8 coefficients,  rinner =    0.800   0.800   0.800

     PseudoPot. # 3 for N  read from file:
     /storage/coda1/p-amedford6/0/shared/rich_project_chbe-medford/medford-share/data/pseudos_module/espresso/nninc/pbe/van/N.UPF
     MD5 check sum: 90d10febe142ad51ac9d5be1deb811c4
     Pseudo is Ultrasoft, Zval =  5.0
     Generated by new atomic code, or converted to UPF format
     Using radial grid of  729 points,  4 beta functions with:
                l(1) =   0
                l(2) =   0
                l(3) =   1
                l(4) =   1
     Q(r) pseudized with  8 coefficients,  rinner =    0.800   0.800   0.800

     PseudoPot. # 4 for C  read from file:
     /storage/coda1/p-amedford6/0/shared/rich_project_chbe-medford/medford-share/data/pseudos_module/espresso/nninc/pbe/van/C.UPF
     MD5 check sum: 1a69bf6b8db32088f5b2163dbdb77a27
     Pseudo is Ultrasoft, Zval =  4.0
     Generated by new atomic code, or converted to UPF format
     Using radial grid of  721 points,  4 beta functions with:
                l(1) =   0
                l(2) =   0
                l(3) =   1
                l(4) =   1
     Q(r) pseudized with  8 coefficients,  rinner =    0.800   0.800   0.800

     PseudoPot. # 5 for H  read from file:
     /storage/coda1/p-amedford6/0/shared/rich_project_chbe-medford/medford-share/data/pseudos_module/espresso/nninc/pbe/van/H.UPF
     MD5 check sum: b5ee9d7bfd3a09ee7748110bda690ff7
     Pseudo is Ultrasoft, Zval =  1.0
     Generated by new atomic code, or converted to UPF format
     Using radial grid of  615 points,  1 beta functions with:
                l(1) =   0
     Q(r) pseudized with  8 coefficients,  rinner =    0.800

     atomic species   valence    mass     pseudopotential
        Ti1           12.00    47.86700     Ti( 1.00)
        O1             6.00    15.99900     O ( 1.00)
        N1             5.00    14.00700     N ( 1.00)
        C1             4.00    12.01100     C ( 1.00)
        H1             1.00     1.00800     H ( 1.00)

     No symmetry found

   Cartesian axes

     site n.     atom                  positions (alat units)
         1           Ti1 tau(   1) = (   0.0004258   2.9801865   6.0000000  )
         2           Ti1 tau(   2) = (   3.2906075   1.4906267   6.0002472  )
         3           O1  tau(   3) = (   0.0006271   0.0005054   7.9858123  )
         4           O1  tau(   4) = (   3.2906025   0.0005020   7.3038282  )
         5           O1  tau(   5) = (   4.5942328   1.4918067   9.2879030  )
         6           O1  tau(   6) = (   1.9868534   1.4903216   9.2879459  )
         7           Ti1 tau(   7) = (   3.2907910   2.8959150   9.1758416  )
         8           Ti1 tau(   8) = (   0.0015273   1.4827037   9.2680791  )
         9           O1  tau(   9) = (   3.2795193   0.0050042  11.3600746  )
        10           O1  tau(  10) = (   0.0116148   5.9584955  10.6183126  )
        11           O1  tau(  11) = (   1.2764768   1.4833402  12.6625751  )
        12           O1  tau(  12) = (   5.2691860   1.4824858  12.6730715  )
        13           Ti1 tau(  13) = (   6.5785005   2.9712200  12.5432933  )
        14           Ti1 tau(  14) = (   3.2815129   1.4861921  12.5133659  )
        15           O1  tau(  15) = (   0.0084525   5.9333602  14.7514412  )
        16           O1  tau(  16) = (   3.2474592   5.9449689  14.0025778  )
        17           O1  tau(  17) = (   4.5272503   1.5270814  16.0535473  )
        18           O1  tau(  18) = (   2.0088677   1.5398698  16.1918835  )
        19           Ti1 tau(  19) = (   3.2695027   3.0127370  15.7044713  )
        20           Ti1 tau(  20) = (   6.4897317   1.5391078  15.7731133  )
        21           O1  tau(  21) = (   3.2904802   0.0005063   4.7018136  )
        22           O1  tau(  22) = (   6.4943121   0.0104379  17.3746616  )
        23           O1  tau(  23) = (   1.3043587   1.4918075   6.0039043  )
        24           O1  tau(  24) = (   5.2767064   1.4903225   6.0039473  )
        25           Ti1 tau(  25) = (   0.0000382   5.9609847   6.0000000  )
        26           Ti1 tau(  26) = (   3.2902200   4.4714249   6.0002472  )
        27           O1  tau(  27) = (   0.0002396   2.9813036   7.9858123  )
        28           O1  tau(  28) = (   3.2902150   2.9813002   7.3038282  )
        29           O1  tau(  29) = (   4.5938453   4.4726049   9.2879030  )
        30           O1  tau(  30) = (   1.9864658   4.4711199   9.2879459  )
        31           Ti1 tau(  31) = (   3.2891106   5.8743827   9.1763621  )
        32           Ti1 tau(  32) = (   0.0006254   4.4649316   9.2693709  )
        33           O1  tau(  33) = (   3.2806081   2.9711243  11.3509633  )
        34           O1  tau(  34) = (   0.0092240   2.9805883  10.6323155  )
        35           O1  tau(  35) = (   1.2760424   4.4718827  12.6381679  )
        36           O1  tau(  36) = (   5.2690016   4.4731519  12.6446470  )
        37           Ti1 tau(  37) = (   6.5708669   5.9382087  12.5160675  )
        38           Ti1 tau(  38) = (   3.2845625   4.4656782  12.4980923  )
        39           O1  tau(  39) = (   6.5779858   3.0049062  14.7590937  )
        40           O1  tau(  40) = (   3.2501146   3.0001303  13.9242794  )
        41           O1  tau(  41) = (   4.5300198   4.4412671  16.1793791  )
        42           O1  tau(  42) = (   2.0030354   4.4482434  16.2507355  )
        43           Ti1 tau(  43) = (   3.2558399   0.0045369  15.7947069  )
        44           Ti1 tau(  44) = (   0.0024851   4.6597080  16.1671864  )
        45           O1  tau(  45) = (   3.2900926   2.9813045   4.7018136  )
        46           O1  tau(  46) = (   1.3039711   4.4726057   6.0039043  )
        47           O1  tau(  47) = (   5.2763189   4.4711207   6.0039473  )
        48           N1  tau(  48) = (   0.8610865   2.3037131  18.4629187  )
        49           N1  tau(  49) = (   6.4642385   2.8627238  17.5718644  )
        50           C1  tau(  50) = (   1.1134797   3.0572184  19.7121060  )
        51           H1  tau(  51) = (   0.2160447   3.0254214  20.3281890  )
        52           H1  tau(  52) = (   1.9467850   2.5864873  20.2353232  )
        53           H1  tau(  53) = (   1.3463996   4.0866186  19.4485780  )
        54           H1  tau(  54) = (   0.5832711   1.3114681  18.6183785  )
        55           H1  tau(  55) = (   5.5643591   2.7461405  18.0238738  )
        56           H1  tau(  56) = (   1.7079168   2.1891883  17.8702682  )
        57           O1  tau(  57) = (   4.0734316   0.3075885  18.7765601  )
        58           H1  tau(  58) = (   4.9241673   0.1787741  18.2816895  )
        59           H1  tau(  59) = (   3.8734322   5.3936830  19.1372508  )

     number of k points=    10  Fermi-Dirac smearing, width (Ry)=  0.0073
                       cart. coord. in units 2pi/alat
        k(    1) = (   0.0000000   0.0000000   0.0000000), wk =   0.1250000
        k(    2) = (   0.0000000   0.0419351   0.0000000), wk =   0.2500000
        k(    3) = (   0.0000000  -0.0838702   0.0000000), wk =   0.1250000
        k(    4) = (   0.0379955   0.0000049   0.0000000), wk =   0.2500000
        k(    5) = (   0.0379955   0.0419400   0.0000000), wk =   0.2500000
        k(    6) = (   0.0379955  -0.0838652   0.0000000), wk =   0.2500000
        k(    7) = (   0.0379955  -0.0419301   0.0000000), wk =   0.2500000
        k(    8) = (  -0.0759910  -0.0000099   0.0000000), wk =   0.1250000
        k(    9) = (  -0.0759910   0.0419252   0.0000000), wk =   0.2500000
        k(   10) = (  -0.0759910  -0.0838800   0.0000000), wk =   0.1250000

     Initial potential from superposition of free atoms

     starting charge  389.99912, renormalised to  406.00000

     negative rho (up, down):  1.393E-02 0.000E+00

     %%%%%%%%%%%%%%%%%%%%%%%%%%%%%%%%%%%%%%%%%%%%%%%%%%%%%%%%%%%%%%%%%%%%%%%%
     %                                                                      %
     % You are using vdW-DF, which was implemented by the Thonhauser group. %
     % Please cite the following two papers that made this development      %
     % possible and the two reviews that describe the various versions:     %
     %                                                                      %
     %   T. Thonhauser et al., PRL 115, 136402 (2015).                      %
     %   T. Thonhauser et al., PRB 76, 125112 (2007).                       %
     %   K. Berland et al., Rep. Prog. Phys. 78, 066501 (2015).             %
     %   D.C. Langreth et al., J. Phys.: Condens. Matter 21, 084203 (2009). %
     %                                                                      %
     %                                                                      %
     % If you are calculating the stress with vdW-DF, please also cite:     %
     %                                                                      %
     %   R. Sabatini et al., J. Phys.: Condens. Matter 24, 424209 (2012).   %
     %                                                                      %
     %%%%%%%%%%%%%%%%%%%%%%%%%%%%%%%%%%%%%%%%%%%%%%%%%%%%%%%%%%%%%%%%%%%%%%%%

     Adding external electric field

     Computed dipole along edir(3) :
        Dipole              -15.6847 Ry au,        -39.8666 Debye
        Dipole field         -0.0296 Ry au,

        Potential amp.        2.7438 Ry
        Total length         46.3494 bohr

     Starting wfcs are  308 atomic wfcs
  @ DRIVER MODE: Message from server: STATUS
  @ DRIVER MODE: Message from server: POSDATA
  @ DRIVER MODE: Reading and sharing cell
  @ DRIVER MODE: Reading and sharing positions
  @ DRIVER MODE: Received positions

     Self-consistent Calculation

     iteration #  1     ecut=    29.40 Ry     beta= 0.05
     Davidson diagonalization with overlap
     c_bands:  2 eigenvalues not converged
     c_bands:  5 eigenvalues not converged
     c_bands:  2 eigenvalues not converged
     c_bands:  4 eigenvalues not converged
     c_bands:  4 eigenvalues not converged
     c_bands:  5 eigenvalues not converged
     c_bands:  1 eigenvalues not converged
     ethr =  1.00E-05,  avg # of iterations = 24.3

[...]

     total energy              =   -2140.08874241 Ry
     estimated scf accuracy    <    9576.12915399 Ry

     iteration #  2     ecut=    29.40 Ry     beta= 0.05
     Davidson diagonalization with overlap
     ethr =  1.00E-02,  avg # of iterations = 32.1

[...]

     iteration # 71     ecut=    29.40 Ry     beta= 0.05
     Davidson diagonalization with overlap
     c_bands:  2 eigenvalues not converged
     c_bands:  1 eigenvalues not converged
     ethr =  2.70E-11,  avg # of iterations = 13.0

[...]

     total energy              =   -2977.68482037 Ry
     estimated scf accuracy    <       0.00000014 Ry

     iteration # 72     ecut=    29.40 Ry     beta= 0.05
     Davidson diagonalization with overlap
     ethr =  2.70E-11,  avg # of iterations =  8.3

     negative rho (up, down):  1.249E-02 0.000E+00

     Adding external electric field

     Computed dipole along edir(3) :
        Dipole                1.6075 Ry au,          4.0858 Debye
        Dipole field          0.0030 Ry au,

        Potential amp.       -0.2812 Ry
        Total length         46.3494 bohr

     End of self-consistent calculation

          k = 0.0000 0.0000 0.0000 ( 18029 PWs)   bands (ev):

   -54.9546 -54.9180 -54.9153 -54.8839 -54.8444 -54.8347 -54.7945 -54.7629
   -54.7612 -54.7474 -54.7277 -54.7225 -54.7141 -54.6643 -53.9336 -53.8996
   -31.5267 -31.4081 -31.3213 -31.2824 -31.2683 -31.2523 -31.2497 -31.2445
   -31.2100 -31.2080 -31.1635 -31.1631 -31.1578 -31.1274 -31.1088 -31.0888
   -31.0789 -31.0732 -31.0711 -31.0640 -31.0296 -31.0265 -31.0205 -31.0131
   -30.9933 -30.9750 -30.9648 -30.9638 -30.9581 -30.9561 -30.9457 -30.9373
   -30.9232 -30.9207 -30.9137 -30.9122 -30.8875 -30.8783 -30.8780 -30.8763
   -30.8571 -30.8563 -30.3424 -30.2498 -30.2277 -30.1589 -30.0721 -29.9612
   -19.0021 -18.2093 -15.7903 -15.5226 -15.3974 -15.1974 -15.1436 -15.0389
   -14.8795 -14.8201 -14.7535 -14.7293 -14.7236 -14.6957 -14.6232 -14.5679
   -14.5402 -14.4860 -14.4854 -14.4498 -14.4422 -14.4382 -14.3829 -14.3789
   -14.3423 -14.3286 -14.3210 -14.1784 -14.0994 -14.0531 -14.0405 -13.2020
   -12.4362 -12.3191 -10.9878  -7.5991  -6.4112  -5.9747  -5.7844  -4.0106
    -3.8508  -3.1338  -2.9625  -2.9513  -2.8734  -2.8495  -2.6780  -2.6191
    -2.5098  -2.3770  -2.3182  -2.2216  -2.1775  -2.1591  -2.1458  -2.0320
    -1.9464  -1.9095  -1.8699  -1.8319  -1.8145  -1.7686  -1.7475  -1.7374
    -1.7048  -1.6804  -1.5258  -1.4502  -1.4135  -1.3738  -1.3410  -1.2836
    -1.2601  -1.2459  -1.2402  -1.2323  -1.2165  -1.1920  -1.1564  -1.1244
    -1.0543  -0.9726  -0.9627  -0.8507  -0.7674  -0.6352  -0.5812  -0.5238
    -0.4931  -0.4267  -0.3860  -0.3369  -0.3013  -0.2953  -0.2468  -0.1606
    -0.1490  -0.0910  -0.0729   0.0125   0.0592   0.0644   0.0756   0.2521
     0.2623   0.2804   0.3842   0.4634   0.5028   0.5192   0.5772   0.6393
     0.6413   0.6794   0.7019   0.7325   0.8156   0.9191   0.9440   0.9831
     0.9970   1.0224   1.0394   1.0660   1.1052   1.1873   1.1929   1.2700
     1.3666   1.3783   1.6364   1.6689   1.9997   2.0265   2.0890   2.2748
     2.6635   2.7110   4.1472   4.2091   4.2545   4.2802   4.2982   4.3809
     4.4023   4.6150   4.6413   4.6425   4.6515

[...]

          k = 0.0380-0.0419 0.0000 ( 17876 PWs)   bands (ev):

[...]

          k =-0.0760-0.0000 0.0000 ( 17886 PWs)   bands (ev):

[...]

          k =-0.0760-0.0839 0.0000 ( 17948 PWs)   bands (ev):

   -54.9428 -54.9270 -54.9009 -54.9009 -54.8419 -54.8252 -54.8041 -54.7587
   -54.7476 -54.7421 -54.7326 -54.7295 -54.7248 -54.6667 -53.9167 -53.9164
   -31.3354 -31.3241 -31.2582 -31.2232 -31.2232 -31.2171 -31.1934 -31.1933
   -31.1713 -31.1662 -31.1568 -31.1532 -31.1452 -31.0952 -31.0817 -31.0809
   -31.0767 -31.0754 -31.0725 -31.0695 -31.0439 -31.0324 -31.0302 -31.0238
   -31.0228 -31.0203 -31.0203 -31.0201 -30.9986 -30.9811 -30.9750 -30.9706
   -30.9618 -30.9562 -30.9545 -30.9528 -30.9503 -30.9257 -30.9172 -30.9129
   -30.9085 -30.9010 -30.2404 -30.2403 -30.1550 -30.1548 -30.1155 -30.1155
   -18.9973 -18.2098 -15.2809 -15.1541 -15.0569 -14.9999 -14.9528 -14.9371
   -14.9196 -14.8665 -14.8366 -14.7767 -14.7530 -14.7043 -14.6597 -14.6558
   -14.6293 -14.5490 -14.5336 -14.5214 -14.5139 -14.4625 -14.4486 -14.4258
   -14.4030 -14.3990 -14.3808 -14.3102 -14.2983 -14.2941 -14.2558 -13.2111
   -12.4207 -12.4205 -10.9884  -7.6101  -6.4013  -5.9740  -5.7690  -3.9902
    -3.8447  -2.5614  -2.5400  -2.4050  -2.3656  -2.2811  -2.1881  -2.1367
    -2.1316  -1.9939  -1.9605  -1.9451  -1.9293  -1.9164  -1.8681  -1.8462
    -1.8099  -1.7911  -1.7817  -1.7724  -1.7565  -1.7360  -1.6844  -1.6797
    -1.6691  -1.6548  -1.6107  -1.5950  -1.5640  -1.5529  -1.5249  -1.5024
    -1.4349  -1.3413  -1.2938  -1.2504  -1.1965  -1.1431  -1.1371  -1.0591
    -1.0407  -1.0088  -0.9780  -0.9529  -0.8584  -0.7852  -0.6891  -0.6860
    -0.6833  -0.5637  -0.5239  -0.5055  -0.4939  -0.4644  -0.3792  -0.3684
    -0.3093  -0.2343  -0.2073  -0.2037  -0.1784  -0.0587  -0.0297   0.0272
     0.0569   0.0901   0.0923   0.1733   0.1870   0.2482   0.2586   0.2716
     0.3166   0.3344   0.4316   0.5219   0.5573   0.6603   0.7545   0.7830
     0.8776   0.9354   1.0418   1.0622   1.0846   1.1820   1.1907   1.2245
     1.3537   1.3606   1.4763   1.5163   1.5260   1.5288   2.4471   2.4485
     2.5310   2.5311   4.2735   4.3962   4.4118   4.4580   4.5131   4.6539
     4.6774   4.7245   4.7262   4.8035   4.8089

     the Fermi energy is     4.1995 ev

!    total energy              =   -2977.68484314 Ry
     estimated scf accuracy    <       0.00000005 Ry
     smearing contrib. (-TS)   =      -0.03699744 Ry
     internal energy E=F+TS    =   -2977.64784570 Ry

     The total energy is F=E-TS. E is the sum of the following terms:
     one-electron contribution =  -23303.33604428 Ry
     hartree contribution      =   11752.65319745 Ry
     xc contribution           =    -496.61473214 Ry
     ewald contribution        =    9069.64485684 Ry
     electric field correction =       0.00487642 Ry

     convergence has been achieved in  72 iterations

     Forces acting on atoms (cartesian axes, Ry/au):

     atom    1 type  1   force =     0.00009439   -0.00025020    0.09414444
     atom    2 type  1   force =    -0.00009331   -0.00045708   -0.17747132
     atom    3 type  2   force =     0.00006054   -0.00032971   -0.02123533
     atom    4 type  2   force =     0.00003546   -0.00179486    0.05731040
     atom    5 type  2   force =    -0.01079953   -0.00101925    0.00668226
     atom    6 type  2   force =     0.01199563   -0.00033691    0.00503573
     atom    7 type  1   force =    -0.00060723    0.00105911   -0.01460271
     atom    8 type  1   force =     0.00086305    0.00330487    0.00460174
     atom    9 type  2   force =     0.00000832   -0.00005581    0.00014717
     atom   10 type  2   force =    -0.00368763    0.00210700   -0.00162267
     atom   11 type  2   force =    -0.00018746    0.00061322   -0.00007790
     atom   12 type  2   force =     0.00020736    0.00028170   -0.00019016
     atom   13 type  1   force =    -0.00019299   -0.00027670   -0.00001435
     atom   14 type  1   force =     0.00024977   -0.00021540   -0.00040077
     atom   15 type  2   force =     0.00019606    0.00061477    0.00010878
     atom   16 type  2   force =    -0.00011946    0.00025846   -0.00020634
     atom   17 type  2   force =     0.00014953   -0.00020753    0.00042573
     atom   18 type  2   force =    -0.00000412    0.00008985    0.00005634
     atom   19 type  1   force =     0.00000238    0.00025890   -0.00046091
     atom   20 type  1   force =     0.00033732    0.00024435    0.00113960
     atom   21 type  2   force =     0.00011805   -0.00008196    0.10375527
     atom   22 type  2   force =     0.00057817   -0.00012036   -0.00093438
     atom   23 type  2   force =    -0.07067169   -0.00015393   -0.02712774
     atom   24 type  2   force =     0.07063591    0.00031804   -0.02713403
     atom   25 type  1   force =     0.00010371   -0.00017071    0.09375426
     atom   26 type  1   force =    -0.00007415   -0.00053557   -0.17769543
     atom   27 type  2   force =     0.00006914   -0.00005317   -0.02033406
     atom   28 type  2   force =     0.00006522   -0.00145915    0.05631088
     atom   29 type  2   force =    -0.01130672   -0.00039658    0.00736266
     atom   30 type  2   force =     0.01241834    0.00000010    0.00575445
     atom   31 type  1   force =    -0.00074339    0.00573867   -0.01566139
     atom   32 type  1   force =     0.00081187   -0.00458780    0.00433760
     atom   33 type  2   force =     0.00002215    0.00015192    0.00029839
     atom   34 type  2   force =    -0.00321149   -0.00103152   -0.00516467
     atom   35 type  2   force =    -0.00012013   -0.00039273    0.00009930
     atom   36 type  2   force =     0.00022220   -0.00006593   -0.00008228
     atom   37 type  1   force =    -0.00012786    0.00043893   -0.00024952
     atom   38 type  1   force =     0.00008788    0.00014670   -0.00013929
     atom   39 type  2   force =    -0.00044570   -0.00030327    0.00029572
     atom   40 type  2   force =     0.00013000   -0.00008726    0.00028638
     atom   41 type  2   force =     0.00008401    0.00018317   -0.00012613
     atom   42 type  2   force =     0.00034078    0.00006336   -0.00028152
     atom   43 type  1   force =    -0.00018260   -0.00006137   -0.00008714
     atom   44 type  1   force =     0.00021745   -0.00019194    0.00106539
     atom   45 type  2   force =     0.00010529   -0.00006478    0.10373577
     atom   46 type  2   force =    -0.07066998   -0.00006745   -0.02711549
     atom   47 type  2   force =     0.07064440    0.00033435   -0.02713661
     atom   48 type  3   force =     0.00065012   -0.00206659    0.00529275
     atom   49 type  3   force =     0.00340780    0.00319668   -0.01207651
     atom   50 type  4   force =     0.00137479   -0.00008174    0.00072659
     atom   51 type  5   force =     0.00062522    0.00073551   -0.00039338
     atom   52 type  5   force =    -0.00002043    0.00041424    0.00041023
     atom   53 type  5   force =     0.00008830   -0.00058208   -0.00061370
     atom   54 type  5   force =     0.00109507   -0.00062942    0.00074837
     atom   55 type  5   force =    -0.00477686   -0.00224941    0.00464654
     atom   56 type  5   force =     0.00002342    0.00004937    0.00000043
     atom   57 type  2   force =    -0.00080661    0.00076445    0.00150895
     atom   58 type  5   force =     0.00033103   -0.00063564   -0.00102689
     atom   59 type  5   force =     0.00039918   -0.00035391   -0.00037949

     Total force =     0.366178     Total SCF correction =     0.000617
  @ DRIVER MODE: Message from server: STATUS
  @ DRIVER MODE: Message from server: GETFORCE
  @ DRIVER MODE: Returning v,forces,stress,ensemble

     Writing output data file ./calc.save/
  @ DRIVER MODE: Message from server: EXIT
  @ DRIVE MODE: Exiting

     General routines

     Parallel routines

   This run was terminated on:  20: 7:54  15Sep2021

   JOB DONE.