     Program PWSCF v.6.7GPU starts on 23Aug2021 at 14:56:44

     R & G space division:  proc/nbgrp/npool/nimage =       6
     Reading input from /storage/home/hcoda1/3/ntian30/research/carbon/CH2_vib/ads_slab/CH2N2H_a/out_0004/pw.inp
Warning: card &CELL ignored
Warning: card   CELL_DYNAMICS='IPI', ignored
Warning: card / ignored

     Current dimensions of program PWSCF are:
     Max number of different atomic species (ntypx) = 10
     Max number of k-points (npk) =  40000
     Max angular momentum in pseudopotentials (lmaxx) =  3
     Presently no symmetry can be used with electric field

     Message from routine cell_base_init:
     DEPRECATED: use true lattice parameter, not A to a.u. conversion factor

     IMPORTANT: XC functional enforced from input :
     Exchange-correlation= BEEF-VDW
                           (   1   4  43  14   2   0   0)
     Any further DFT definition will be discarded
     Please, verify this is what you really want

  @ DRIVER MODE: Connecting to
 qe_1139763_2632802.sched-torque.pace.gatech.edukh_60y4g_scratch
  using UNIX socket
  @ DRIVER MODE: Message from server: STATUS
  @ DRIVER MODE: Message from server: INIT
  @ DRIVER MODE: Receiving replica           0          -1
  @ DRIVER MODE: Receiving encoded integer          25
  @ DRIVER MODE:  SCF:  T  FORCE:  T  STRESS:  F  VC:  F  ENSEMBLE:  F
  @ DRIVER MODE:  SCF:  T  FORCE:  T  STRESS:  F  VC:  F  ENSEMBLE:  F

     Using Slab Decomposition

     bravais-lattice index     =            0
     lattice parameter (alat)  =       1.8897  a.u.
     unit-cell volume          =    6658.9804 (a.u.)^3
     number of atoms/cell      =           53
     number of atomic types    =            5
     number of electrons       =       395.00
     number of Kohn-Sham states=          207
     kinetic-energy cutoff     =      29.3995  Ry
     charge density cutoff     =     293.9946  Ry
     scf convergence threshold =      7.3E-08
     mixing beta               =       0.0500
     number of iterations used =            8  plain     mixing
     Exchange-correlation= BEEF-VDW
                           (   1   4  43  14   2   0   0)

     celldm(1)=   1.889726  celldm(2)=   0.000000  celldm(3)=   0.000000
     celldm(4)=   0.000000  celldm(5)=   0.000000  celldm(6)=   0.000000

     crystal axes: (cart. coord. in units of alat)
               a(1) = (   6.579727   0.000000   0.000000 )
               a(2) = (  -0.000775   5.961596   0.000000 )
               a(3) = (   0.000000   0.000000  25.155947 )

     reciprocal axes: (cart. coord. in units 2 pi/alat)
               b(1) = (  0.151982  0.000020  0.000000 )
               b(2) = (  0.000000  0.167740  0.000000 )
               b(3) = (  0.000000  0.000000  0.039752 )

     PseudoPot. # 1 for Ti read from file:
     /storage/coda1/p-amedford6/0/shared/rich_project_chbe-medford/medford-share/data/pseudos_module/espresso/nninc/pbe/van/Ti.UPF
     MD5 check sum: 8e4df49b7f0d34bbd5052bf3f5ea0213
     Pseudo is Ultrasoft, Zval = 12.0
     Generated by new atomic code, or converted to UPF format
     Using radial grid of  851 points,  6 beta functions with:
                l(1) =   0
                l(2) =   0
                l(3) =   1
                l(4) =   1
                l(5) =   2
                l(6) =   2
     Q(r) pseudized with  8 coefficients,  rinner =    1.000   1.000   1.000
                                                       1.000   1.000

     PseudoPot. # 2 for O  read from file:
     /storage/coda1/p-amedford6/0/shared/rich_project_chbe-medford/medford-share/data/pseudos_module/espresso/nninc/pbe/van/O.UPF
     MD5 check sum: 78c19812648e8988a0fe644b0f25305e
     Pseudo is Ultrasoft, Zval =  6.0
     Generated by new atomic code, or converted to UPF format
     Using radial grid of  737 points,  4 beta functions with:
                l(1) =   0
                l(2) =   0
                l(3) =   1
                l(4) =   1
     Q(r) pseudized with  8 coefficients,  rinner =    0.800   0.800   0.800

     PseudoPot. # 3 for N  read from file:
     /storage/coda1/p-amedford6/0/shared/rich_project_chbe-medford/medford-share/data/pseudos_module/espresso/nninc/pbe/van/N.UPF
     MD5 check sum: 90d10febe142ad51ac9d5be1deb811c4
     Pseudo is Ultrasoft, Zval =  5.0
     Generated by new atomic code, or converted to UPF format
     Using radial grid of  729 points,  4 beta functions with:
                l(1) =   0
                l(2) =   0
                l(3) =   1
                l(4) =   1
     Q(r) pseudized with  8 coefficients,  rinner =    0.800   0.800   0.800

     PseudoPot. # 4 for C  read from file:
     /storage/coda1/p-amedford6/0/shared/rich_project_chbe-medford/medford-share/data/pseudos_module/espresso/nninc/pbe/van/C.UPF
     MD5 check sum: 1a69bf6b8db32088f5b2163dbdb77a27
     Pseudo is Ultrasoft, Zval =  4.0
     Generated by new atomic code, or converted to UPF format
     Using radial grid of  721 points,  4 beta functions with:
                l(1) =   0
                l(2) =   0
                l(3) =   1
                l(4) =   1
     Q(r) pseudized with  8 coefficients,  rinner =    0.800   0.800   0.800

     PseudoPot. # 5 for H  read from file:
     /storage/coda1/p-amedford6/0/shared/rich_project_chbe-medford/medford-share/data/pseudos_module/espresso/nninc/pbe/van/H.UPF
     MD5 check sum: b5ee9d7bfd3a09ee7748110bda690ff7
     Pseudo is Ultrasoft, Zval =  1.0
     Generated by new atomic code, or converted to UPF format
     Using radial grid of  615 points,  1 beta functions with:
                l(1) =   0
     Q(r) pseudized with  8 coefficients,  rinner =    0.800

     atomic species   valence    mass     pseudopotential
        Ti1           12.00    47.86700     Ti( 1.00)
        O1             6.00    15.99900     O ( 1.00)
        N1             5.00    14.00700     N ( 1.00)
        C1             4.00    12.01100     C ( 1.00)
        H1             1.00     1.00800     H ( 1.00)

     No symmetry found

   Cartesian axes

     site n.     atom                  positions (alat units)
         1           Ti1 tau(   1) = (   0.0004258   2.9801865   6.0000000  )
         2           Ti1 tau(   2) = (   3.2906075   1.4906267   6.0002472  )
         3           O1  tau(   3) = (   0.0006271   0.0005054   7.9858123  )
         4           O1  tau(   4) = (   3.2906025   0.0005020   7.3038282  )
         5           O1  tau(   5) = (   4.5942328   1.4918067   9.2879030  )
         6           O1  tau(   6) = (   1.9868534   1.4903216   9.2879459  )
         7           Ti1 tau(   7) = (   3.2907910   2.8959150   9.1758416  )
         8           Ti1 tau(   8) = (   0.0015273   1.4827037   9.2680791  )
         9           O1  tau(   9) = (   3.3007851   0.0027079  11.3193151  )
        10           O1  tau(  10) = (   0.0116148   5.9584955  10.6183126  )
        11           O1  tau(  11) = (   1.3147357   1.5019762  12.6210215  )
        12           O1  tau(  12) = (   5.3120411   1.4917641  12.6342566  )
        13           Ti1 tau(  13) = (   6.5359925   2.9538565  12.6086018  )
        14           Ti1 tau(  14) = (   3.2189980   1.4905645  12.4770757  )
        15           O1  tau(  15) = (   0.0426301   5.9606301  14.6312846  )
        16           O1  tau(  16) = (   3.3149351   0.0098317  13.8848037  )
        17           O1  tau(  17) = (   4.5523768   1.5206755  16.0744300  )
        18           O1  tau(  18) = (   2.0715852   1.4807026  15.9918588  )
        19           Ti1 tau(  19) = (   3.2935730   2.9941335  15.6827836  )
        20           Ti1 tau(  20) = (   0.0200723   1.3023755  15.9747514  )
        21           O1  tau(  21) = (   3.2904802   0.0005063   4.7018136  )
        22           O1  tau(  22) = (   6.5179923   0.0002674  17.1556216  )
        23           O1  tau(  23) = (   1.3043587   1.4918075   6.0039043  )
        24           O1  tau(  24) = (   5.2767064   1.4903225   6.0039473  )
        25           Ti1 tau(  25) = (   0.0000382   5.9609847   6.0000000  )
        26           Ti1 tau(  26) = (   3.2902200   4.4714249   6.0002472  )
        27           O1  tau(  27) = (   0.0002396   2.9813036   7.9858123  )
        28           O1  tau(  28) = (   3.2902150   2.9813002   7.3038282  )
        29           O1  tau(  29) = (   4.5938453   4.4726049   9.2879030  )
        30           O1  tau(  30) = (   1.9864658   4.4711199   9.2879459  )
        31           Ti1 tau(  31) = (   3.2891106   5.8743827   9.1763621  )
        32           Ti1 tau(  32) = (   0.0006254   4.4649316   9.2693709  )
        33           O1  tau(  33) = (   3.3053585   2.9833221  11.3185053  )
        34           O1  tau(  34) = (   0.0092240   2.9805883  10.6323155  )
        35           O1  tau(  35) = (   1.3157767   4.4721532  12.6203727  )
        36           O1  tau(  36) = (   5.3104355   4.4689601  12.6331991  )
        37           Ti1 tau(  37) = (   6.5385524   5.9338372  12.5465384  )
        38           Ti1 tau(  38) = (   3.2200853   4.4710709  12.4725482  )
        39           O1  tau(  39) = (   0.0068575   2.9964749  14.7765288  )
        40           O1  tau(  40) = (   3.3021705   2.9848394  13.8818356  )
        41           O1  tau(  41) = (   4.5334443   4.4765196  15.9883447  )
        42           O1  tau(  42) = (   2.0816803   4.4801587  16.0471567  )
        43           Ti1 tau(  43) = (   3.3155128   0.0116264  15.6901768  )
        44           Ti1 tau(  44) = (   6.5575601   4.4671909  15.9479714  )
        45           O1  tau(  45) = (   3.2900926   2.9813045   4.7018136  )
        46           O1  tau(  46) = (   1.3039711   4.4726057   6.0039043  )
        47           O1  tau(  47) = (   5.2763189   4.4711207   6.0039473  )
        48           N1  tau(  48) = (   0.4270260   2.3953988  17.9668900  )
        49           C1  tau(  49) = (   0.9469377   1.9340014  19.0583692  )
        50           H1  tau(  50) = (   1.0789317   2.5769861  19.9249762  )
        51           H1  tau(  51) = (   1.2326487   0.8959138  19.0941702  )
        52           N1  tau(  52) = (   0.0025679   3.6232397  17.7996529  )
        53           H1  tau(  53) = (   0.1020252   4.2324666  18.6151602  )

     number of k points=    10  Fermi-Dirac smearing, width (Ry)=  0.0073
                       cart. coord. in units 2pi/alat
        k(    1) = (   0.0000000   0.0000000   0.0000000), wk =   0.1250000
        k(    2) = (   0.0000000   0.0419351   0.0000000), wk =   0.2500000
        k(    3) = (   0.0000000  -0.0838702   0.0000000), wk =   0.1250000
        k(    4) = (   0.0379955   0.0000049   0.0000000), wk =   0.2500000
        k(    5) = (   0.0379955   0.0419400   0.0000000), wk =   0.2500000
        k(    6) = (   0.0379955  -0.0838652   0.0000000), wk =   0.2500000
        k(    7) = (   0.0379955  -0.0419301   0.0000000), wk =   0.2500000
        k(    8) = (  -0.0759910  -0.0000099   0.0000000), wk =   0.1250000
        k(    9) = (  -0.0759910   0.0419252   0.0000000), wk =   0.2500000
        k(   10) = (  -0.0759910  -0.0838800   0.0000000), wk =   0.1250000

     Initial potential from superposition of free atoms

     starting charge  378.99916, renormalised to  395.00000

     negative rho (up, down):  1.650E-02 0.000E+00

     %%%%%%%%%%%%%%%%%%%%%%%%%%%%%%%%%%%%%%%%%%%%%%%%%%%%%%%%%%%%%%%%%%%%%%%%
     %                                                                      %
     % You are using vdW-DF, which was implemented by the Thonhauser group. %
     % Please cite the following two papers that made this development      %
     % possible and the two reviews that describe the various versions:     %
     %                                                                      %
     %   T. Thonhauser et al., PRL 115, 136402 (2015).                      %
     %   T. Thonhauser et al., PRB 76, 125112 (2007).                       %
     %   K. Berland et al., Rep. Prog. Phys. 78, 066501 (2015).             %
     %   D.C. Langreth et al., J. Phys.: Condens. Matter 21, 084203 (2009). %
     %                                                                      %
     %                                                                      %
     % If you are calculating the stress with vdW-DF, please also cite:     %
     %                                                                      %
     %   R. Sabatini et al., J. Phys.: Condens. Matter 24, 424209 (2012).   %
     %                                                                      %
     %%%%%%%%%%%%%%%%%%%%%%%%%%%%%%%%%%%%%%%%%%%%%%%%%%%%%%%%%%%%%%%%%%%%%%%%

     Adding external electric field

     Computed dipole along edir(3) :
        Dipole               -8.3970 Ry au,        -21.3430 Debye
        Dipole field         -0.0158 Ry au,

        Potential amp.        1.4689 Ry
        Total length         46.3494 bohr

     Starting wfcs are  299 atomic wfcs
  @ DRIVER MODE: Message from server: STATUS
  @ DRIVER MODE: Message from server: POSDATA
  @ DRIVER MODE: Reading and sharing cell
  @ DRIVER MODE: Reading and sharing positions
  @ DRIVER MODE: Received positions

     Self-consistent Calculation

     iteration #  1     ecut=    29.40 Ry     beta= 0.05
     Davidson diagonalization with overlap
     c_bands:  2 eigenvalues not converged
     c_bands:  1 eigenvalues not converged
     c_bands:  2 eigenvalues not converged
     c_bands:  3 eigenvalues not converged
     c_bands:  3 eigenvalues not converged
     c_bands:  2 eigenvalues not converged
     c_bands:  1 eigenvalues not converged
     ethr =  1.00E-05,  avg # of iterations = 19.3

[...]

     total energy              =   -2613.93784021 Ry
     estimated scf accuracy    <    3601.28864622 Ry

[...]

     iteration #  3     ecut=    29.40 Ry     beta= 0.05
     Davidson diagonalization with overlap
     ethr =  1.00E-02,  avg # of iterations = 14.2

[...]

     iteration # 69     ecut=    29.40 Ry     beta= 0.05
     Davidson diagonalization with overlap
     c_bands:  1 eigenvalues not converged
     c_bands:  1 eigenvalues not converged
     c_bands:  2 eigenvalues not converged
     ethr =  6.57E-09,  avg # of iterations = 18.9

[...]

     total energy              =   -2939.13520895 Ry
     estimated scf accuracy    <       0.00000008 Ry

     iteration # 80     ecut=    29.40 Ry     beta= 0.05
     Davidson diagonalization with overlap
     ethr =  1.99E-11,  avg # of iterations =  7.9

     negative rho (up, down):  1.678E-02 0.000E+00

     Adding external electric field

     Computed dipole along edir(3) :
        Dipole                0.7788 Ry au,          1.9795 Debye
        Dipole field          0.0015 Ry au,

        Potential amp.       -0.1362 Ry
        Total length         46.3494 bohr

     End of self-consistent calculation

          k = 0.0000 0.0000 0.0000 ( 18029 PWs)   bands (ev):

   -55.8587 -55.8575 -55.8247 -55.8214 -55.7517 -55.7086 -55.6710 -55.6693
   -55.6361 -55.6353 -55.6306 -55.5969 -55.1953 -55.1492 -54.8344 -54.8004
   -32.4116 -32.3417 -32.2474 -32.1692 -32.1553 -32.1509 -32.1370 -32.1224
   -32.1018 -32.0884 -32.0356 -32.0176 -32.0111 -32.0092 -31.9992 -31.9956
   -31.9636 -31.9516 -31.9455 -31.9428 -31.9161 -31.9136 -31.8976 -31.8955
   -31.8648 -31.8606 -31.8582 -31.8573 -31.8322 -31.8172 -31.8095 -31.7994
   -31.7866 -31.7851 -31.7775 -31.7440 -31.7375 -31.4589 -31.4231 -31.3947
   -31.3436 -31.3075 -31.2413 -31.1536 -31.1312 -31.0583 -30.9718 -30.8605
   -17.9987 -16.6179 -16.3379 -16.0827 -16.0074 -16.0033 -15.8697 -15.7069
   -15.5941 -15.5272 -15.4468 -15.4171 -15.3952 -15.3597 -15.3534 -15.3155
   -15.3066 -15.2814 -15.2778 -15.2154 -15.2119 -15.2046 -15.1947 -15.1106
   -15.0529 -15.0014 -14.9939 -14.9204 -14.8866 -14.3579 -13.3363 -13.2199
   -12.1505  -7.8856  -5.3717  -4.5321  -3.9947  -3.8354  -3.7658  -3.7312
    -3.6543  -3.4949  -3.4161  -3.1379  -3.0888  -3.0300  -3.0203  -2.9838
    -2.9509  -2.7892  -2.7110  -2.6836  -2.6677  -2.6451  -2.6300  -2.6181
    -2.6044  -2.5827  -2.5038  -2.4208  -2.3765  -2.3001  -2.2860  -2.2520
    -2.1708  -2.1704  -2.1311  -2.1102  -2.0922  -2.0759  -2.0673  -2.0522
    -1.9140  -1.8584  -1.8410  -1.6634  -1.6507  -1.5942  -1.4675  -1.4613
    -1.3442  -1.3295  -1.2892  -1.2516  -1.1786  -1.1571  -1.0453  -1.0043
    -0.9425  -0.8980  -0.8817  -0.8047  -0.7394  -0.6986  -0.6832  -0.6233
    -0.6164  -0.6035  -0.4697  -0.3907  -0.3389  -0.2827  -0.2604  -0.2048
    -0.1648  -0.1217  -0.0326  -0.0072   0.0045   0.0638   0.0844   0.1100
     0.1212   0.1411   0.1711   0.2256   0.3438   0.3759   0.4527   0.4667
     0.5276   0.6605   0.7985   0.8664   0.9182   1.0362   1.1189   1.1883
     1.2618   1.3808   1.7586   1.8040   2.1460   3.2612   3.3630   3.3959
     3.4069   3.5100   3.6588   3.7203   3.7355   3.7769   3.8106

[...]

          k = 0.0380-0.0419 0.0000 ( 17876 PWs)   bands (ev):

[...]

          k =-0.0760-0.0000 0.0000 ( 17886 PWs)   bands (ev):

[...]

          k =-0.0760-0.0839 0.0000 ( 17948 PWs)   bands (ev):

   -55.8419 -55.8413 -55.8399 -55.8387 -55.7431 -55.7172 -55.6544 -55.6527
   -55.6526 -55.6515 -55.6144 -55.6132 -55.1875 -55.1570 -54.8175 -54.8173
   -32.2138 -32.2121 -32.1572 -32.1567 -32.1365 -32.1360 -32.1023 -32.0994
   -32.0901 -32.0735 -32.0079 -32.0052 -31.9998 -31.9979 -31.9760 -31.9684
   -31.9617 -31.9610 -31.9558 -31.9545 -31.9527 -31.9411 -31.9353 -31.9284
   -31.9164 -31.9113 -31.8667 -31.8564 -31.8544 -31.8538 -31.8454 -31.8446
   -31.8315 -31.8307 -31.8302 -31.8289 -31.6891 -31.4545 -31.4214 -31.4174
   -31.3979 -31.3446 -31.1440 -31.1438 -31.0541 -31.0539 -31.0151 -31.0150
   -17.9861 -16.0330 -16.0303 -15.8226 -15.7837 -15.7645 -15.7586 -15.6689
   -15.5831 -15.5497 -15.5466 -15.4604 -15.4332 -15.4172 -15.4013 -15.3958
   -15.3866 -15.3574 -15.3223 -15.3147 -15.3007 -15.2951 -15.2833 -15.2262
   -15.1749 -15.1706 -15.1484 -15.0760 -14.8373 -14.6968 -13.3219 -13.3217
   -12.1121  -7.8270  -5.4169  -4.5931  -3.3276  -3.3181  -3.0721  -3.0353
    -3.0280  -3.0109  -2.9571  -2.7957  -2.7832  -2.7638  -2.7563  -2.7112
    -2.6879  -2.6676  -2.6479  -2.6427  -2.6140  -2.5878  -2.5727  -2.5355
    -2.5285  -2.5197  -2.4882  -2.4775  -2.4319  -2.4257  -2.4049  -2.3777
    -2.3691  -2.3353  -2.1899  -2.1135  -2.0855  -2.0004  -1.9935  -1.9535
    -1.9333  -1.9099  -1.9092  -1.8748  -1.8375  -1.7003  -1.6178  -1.5563
    -1.5477  -1.4632  -1.4353  -1.3727  -1.2842  -1.2581  -1.2378  -1.1662
    -1.0898  -1.0522  -1.0020  -0.9875  -0.9205  -0.9097  -0.8535  -0.8170
    -0.8152  -0.7369  -0.7037  -0.6624  -0.6241  -0.6073  -0.5839  -0.5572
    -0.5416  -0.5196  -0.4466  -0.3588  -0.3073  -0.2460  -0.1530  -0.0213
     0.0961   0.2091   0.2307   0.2751   0.3293   0.3642   0.4552   0.4591
     0.5217   0.5457   0.5879   0.6659   0.6759   0.7005   0.8115   0.8608
     1.5529   1.5533   1.6239   1.6241   2.0875   3.5840   3.6128   3.6321
     3.6634   3.7930   3.7991   3.8094   3.8104   3.9471   3.9522

     the Fermi energy is     3.2710 ev

!    total energy              =   -2939.13521820 Ry
     estimated scf accuracy    <       0.00000005 Ry
     smearing contrib. (-TS)   =      -0.02098893 Ry
     internal energy E=F+TS    =   -2939.11422928 Ry

     The total energy is F=E-TS. E is the sum of the following terms:
     one-electron contribution =  -24492.32277021 Ry
     hartree contribution      =   12334.05004695 Ry
     xc contribution           =    -485.37589983 Ry
     ewald contribution        =    9704.53324927 Ry
     electric field correction =       0.00114454 Ry

     convergence has been achieved in  80 iterations

     Forces acting on atoms (cartesian axes, Ry/au):

     atom    1 type  1   force =     0.00007760   -0.00023733    0.09633173
     atom    2 type  1   force =     0.00005042   -0.00056671   -0.17514249
     atom    3 type  2   force =     0.00014952   -0.00013829   -0.02408769
     atom    4 type  2   force =    -0.00000564   -0.00124711    0.05222484
     atom    5 type  2   force =    -0.01056724   -0.00047518    0.00251327
     atom    6 type  2   force =     0.01238380    0.00022425    0.00288792
     atom    7 type  1   force =     0.00098187    0.00026416   -0.01174044
     atom    8 type  1   force =    -0.00014087    0.00775889    0.02263843
     atom    9 type  2   force =    -0.00020012   -0.00015282   -0.00028673
     atom   10 type  2   force =    -0.00262049    0.00114438   -0.01268295
     atom   11 type  2   force =     0.00006358   -0.00011808    0.00005316
     atom   12 type  2   force =     0.00009416    0.00018722   -0.00038751
     atom   13 type  1   force =     0.00044348   -0.00034159    0.00024004
     atom   14 type  1   force =     0.00015362    0.00033516   -0.00015904
     atom   15 type  2   force =    -0.00025119    0.00006769    0.00004100
     atom   16 type  2   force =     0.00011118   -0.00022831    0.00036942
     atom   17 type  2   force =     0.00049732    0.00001486    0.00034484
     atom   18 type  2   force =     0.00066136   -0.00020932    0.00024646
     atom   19 type  1   force =    -0.00122750   -0.00025782    0.00028375
     atom   20 type  1   force =     0.00048275   -0.00008299   -0.00024281
     atom   21 type  2   force =     0.00004805    0.00000714    0.10308946
     atom   22 type  2   force =     0.00030340    0.00060543    0.00011831
     atom   23 type  2   force =    -0.07162828   -0.00015039   -0.02765173
     atom   24 type  2   force =     0.07156688    0.00035105   -0.02771524
     atom   25 type  1   force =     0.00014858   -0.00023003    0.09586475
     atom   26 type  1   force =     0.00010070   -0.00040379   -0.17541200
     atom   27 type  2   force =     0.00017462   -0.00020559   -0.02292356
     atom   28 type  2   force =     0.00006207   -0.00101487    0.05218389
     atom   29 type  2   force =    -0.01086057    0.00048051    0.00243429
     atom   30 type  2   force =     0.01255255    0.00064163    0.00278269
     atom   31 type  1   force =     0.00088012    0.00347442   -0.01292239
     atom   32 type  1   force =     0.00003377   -0.00925895    0.02307219
     atom   33 type  2   force =    -0.00048580    0.00013334    0.00021693
     atom   34 type  2   force =    -0.00302703    0.00023484   -0.01289227
     atom   35 type  2   force =     0.00009029    0.00008506   -0.00009136
     atom   36 type  2   force =     0.00009883    0.00033003   -0.00040409
     atom   37 type  1   force =     0.00033733    0.00036256    0.00008523
     atom   38 type  1   force =     0.00002137   -0.00043613    0.00014028
     atom   39 type  2   force =     0.00013456    0.00046891    0.00049676
     atom   40 type  2   force =     0.00035422    0.00015318   -0.00038359
     atom   41 type  2   force =     0.00060573   -0.00005942    0.00040593
     atom   42 type  2   force =     0.00068690   -0.00005290    0.00066031
     atom   43 type  1   force =    -0.00161774   -0.00016914   -0.00024576
     atom   44 type  1   force =     0.00061977    0.00020670   -0.00164609
     atom   45 type  2   force =     0.00006151   -0.00004069    0.10306862
     atom   46 type  2   force =    -0.07165393   -0.00007349   -0.02766343
     atom   47 type  2   force =     0.07159397    0.00032221   -0.02773183
     atom   48 type  3   force =     0.00519380   -0.02113214    0.00303309
     atom   49 type  4   force =    -0.00303157    0.00516746   -0.00399670
     atom   50 type  5   force =    -0.00091937    0.00036832    0.00122582
     atom   51 type  5   force =    -0.00000490   -0.00004609   -0.00103560
     atom   52 type  3   force =    -0.00284374    0.01247638   -0.00047053
     atom   53 type  5   force =    -0.00073370    0.00146337    0.00086243

     Total force =     0.366670     Total SCF correction =     0.000609
  @ DRIVER MODE: Message from server: STATUS
  @ DRIVER MODE: Message from server: GETFORCE
  @ DRIVER MODE: Returning v,forces,stress,ensemble

     Writing output data file ./calc.save/
  @ DRIVER MODE: Message from server: EXIT
  @ DRIVE MODE: Exiting

     General routines

     Parallel routines

   This run was terminated on:  15:32: 9  23Aug2021

   JOB DONE.