     Program PWSCF v.6.7GPU starts on 24Aug2021 at 19:49:25

     R & G space division:  proc/nbgrp/npool/nimage =      72
     Reading input from /storage/home/hcoda1/3/ntian30/research/carbon/CH2_vib/ads_slab/CH2NH_a/out_0028/pw.inp
Warning: card &CELL ignored
Warning: card   CELL_DYNAMICS='IPI', ignored
Warning: card / ignored

     Current dimensions of program PWSCF are:
     Max number of different atomic species (ntypx) = 10
     Max number of k-points (npk) =  40000
     Max angular momentum in pseudopotentials (lmaxx) =  3
     Presently no symmetry can be used with electric field

     Message from routine cell_base_init:
     DEPRECATED: use true lattice parameter, not A to a.u. conversion factor

     IMPORTANT: XC functional enforced from input :
     Exchange-correlation= BEEF-VDW
                           (   1   4  43  14   2   0   0)
     Any further DFT definition will be discarded
     Please, verify this is what you really want

  @ DRIVER MODE: Connecting to
 qe_1139763_2641438.sched-torque.pace.gatech.eduk0cju3lb_scratch
  using UNIX socket
  @ DRIVER MODE: Message from server: STATUS
  @ DRIVER MODE: Message from server: INIT
  @ DRIVER MODE: Receiving replica           0          -1
  @ DRIVER MODE: Receiving encoded integer          25
  @ DRIVER MODE:  SCF:  T  FORCE:  T  STRESS:  F  VC:  F  ENSEMBLE:  F
  @ DRIVER MODE:  SCF:  T  FORCE:  T  STRESS:  F  VC:  F  ENSEMBLE:  F

     Using Slab Decomposition

     bravais-lattice index     =            0
     lattice parameter (alat)  =       1.8897  a.u.
     unit-cell volume          =    6658.9804 (a.u.)^3
     number of atoms/cell      =           52
     number of atomic types    =            5
     number of electrons       =       390.00
     number of Kohn-Sham states=          205
     kinetic-energy cutoff     =      29.3995  Ry
     charge density cutoff     =     293.9946  Ry
     scf convergence threshold =      7.3E-08
     mixing beta               =       0.0500
     number of iterations used =            8  plain     mixing
     Exchange-correlation= BEEF-VDW
                           (   1   4  43  14   2   0   0)

     celldm(1)=   1.889726  celldm(2)=   0.000000  celldm(3)=   0.000000
     celldm(4)=   0.000000  celldm(5)=   0.000000  celldm(6)=   0.000000

     crystal axes: (cart. coord. in units of alat)
               a(1) = (   6.579727   0.000000   0.000000 )
               a(2) = (  -0.000775   5.961596   0.000000 )
               a(3) = (   0.000000   0.000000  25.155947 )

     reciprocal axes: (cart. coord. in units 2 pi/alat)
               b(1) = (  0.151982  0.000020  0.000000 )
               b(2) = (  0.000000  0.167740  0.000000 )
               b(3) = (  0.000000  0.000000  0.039752 )

     PseudoPot. # 1 for Ti read from file:
     /storage/coda1/p-amedford6/0/shared/rich_project_chbe-medford/medford-share/data/pseudos_module/espresso/nninc/pbe/van/Ti.UPF
     MD5 check sum: 8e4df49b7f0d34bbd5052bf3f5ea0213
     Pseudo is Ultrasoft, Zval = 12.0
     Generated by new atomic code, or converted to UPF format
     Using radial grid of  851 points,  6 beta functions with:
                l(1) =   0
                l(2) =   0
                l(3) =   1
                l(4) =   1
                l(5) =   2
                l(6) =   2
     Q(r) pseudized with  8 coefficients,  rinner =    1.000   1.000   1.000
                                                       1.000   1.000

     PseudoPot. # 2 for O  read from file:
     /storage/coda1/p-amedford6/0/shared/rich_project_chbe-medford/medford-share/data/pseudos_module/espresso/nninc/pbe/van/O.UPF
     MD5 check sum: 78c19812648e8988a0fe644b0f25305e
     Pseudo is Ultrasoft, Zval =  6.0
     Generated by new atomic code, or converted to UPF format
     Using radial grid of  737 points,  4 beta functions with:
                l(1) =   0
                l(2) =   0
                l(3) =   1
                l(4) =   1
     Q(r) pseudized with  8 coefficients,  rinner =    0.800   0.800   0.800

     PseudoPot. # 3 for N  read from file:
     /storage/coda1/p-amedford6/0/shared/rich_project_chbe-medford/medford-share/data/pseudos_module/espresso/nninc/pbe/van/N.UPF
     MD5 check sum: 90d10febe142ad51ac9d5be1deb811c4
     Pseudo is Ultrasoft, Zval =  5.0
     Generated by new atomic code, or converted to UPF format
     Using radial grid of  729 points,  4 beta functions with:
                l(1) =   0
                l(2) =   0
                l(3) =   1
                l(4) =   1
     Q(r) pseudized with  8 coefficients,  rinner =    0.800   0.800   0.800

     PseudoPot. # 4 for C  read from file:
     /storage/coda1/p-amedford6/0/shared/rich_project_chbe-medford/medford-share/data/pseudos_module/espresso/nninc/pbe/van/C.UPF
     MD5 check sum: 1a69bf6b8db32088f5b2163dbdb77a27
     Pseudo is Ultrasoft, Zval =  4.0
     Generated by new atomic code, or converted to UPF format
     Using radial grid of  721 points,  4 beta functions with:
                l(1) =   0
                l(2) =   0
                l(3) =   1
                l(4) =   1
     Q(r) pseudized with  8 coefficients,  rinner =    0.800   0.800   0.800

     PseudoPot. # 5 for H  read from file:
     /storage/coda1/p-amedford6/0/shared/rich_project_chbe-medford/medford-share/data/pseudos_module/espresso/nninc/pbe/van/H.UPF
     MD5 check sum: b5ee9d7bfd3a09ee7748110bda690ff7
     Pseudo is Ultrasoft, Zval =  1.0
     Generated by new atomic code, or converted to UPF format
     Using radial grid of  615 points,  1 beta functions with:
                l(1) =   0
     Q(r) pseudized with  8 coefficients,  rinner =    0.800

     atomic species   valence    mass     pseudopotential
        Ti1           12.00    47.86700     Ti( 1.00)
        O1             6.00    15.99900     O ( 1.00)
        N1             5.00    14.00700     N ( 1.00)
        C1             4.00    12.01100     C ( 1.00)
        H1             1.00     1.00800     H ( 1.00)

     No symmetry found

   Cartesian axes

     site n.     atom                  positions (alat units)
         1           Ti1 tau(   1) = (   0.0004258   2.9801865   6.0000000  )
         2           Ti1 tau(   2) = (   3.2906075   1.4906267   6.0002472  )
         3           O1  tau(   3) = (   0.0006271   0.0005054   7.9858123  )
         4           O1  tau(   4) = (   3.2906025   0.0005020   7.3038282  )
         5           O1  tau(   5) = (   4.5942328   1.4918067   9.2879030  )
         6           O1  tau(   6) = (   1.9868534   1.4903216   9.2879459  )
         7           Ti1 tau(   7) = (   3.2907910   2.8959150   9.1758416  )
         8           Ti1 tau(   8) = (   0.0015273   1.4827037   9.2680791  )
         9           O1  tau(   9) = (   3.2859541   5.9290403  11.3715426  )
        10           O1  tau(  10) = (   0.0116148   5.9584955  10.6183126  )
        11           O1  tau(  11) = (   1.2917987   1.4688796  12.6526629  )
        12           O1  tau(  12) = (   5.2888266   1.4686376  12.6403033  )
        13           Ti1 tau(  13) = (   0.0074927   2.9495069  12.5376589  )
        14           Ti1 tau(  14) = (   3.2957121   1.4606513  12.5174744  )
        15           O1  tau(  15) = (   6.5702453   0.0264740  14.6787910  )
        16           O1  tau(  16) = (   3.3001739   5.9406727  13.9930656  )
        17           O1  tau(  17) = (   4.5367710   1.4643441  16.2106543  )
        18           O1  tau(  18) = (   2.0349547   1.4576396  16.1973481  )
        19           Ti1 tau(  19) = (   3.2821410   2.9383233  15.7467721  )
        20           Ti1 tau(  20) = (   6.5624771   1.3975196  16.0657228  )
        21           O1  tau(  21) = (   3.2904802   0.0005063   4.7018136  )
        22           O1  tau(  22) = (   0.0049924   5.8117904  17.2112648  )
        23           O1  tau(  23) = (   1.3043587   1.4918075   6.0039043  )
        24           O1  tau(  24) = (   5.2767064   1.4903225   6.0039473  )
        25           Ti1 tau(  25) = (   0.0000382   5.9609847   6.0000000  )
        26           Ti1 tau(  26) = (   3.2902200   4.4714249   6.0002472  )
        27           O1  tau(  27) = (   0.0002396   2.9813036   7.9858123  )
        28           O1  tau(  28) = (   3.2902150   2.9813002   7.3038282  )
        29           O1  tau(  29) = (   4.5938453   4.4726049   9.2879030  )
        30           O1  tau(  30) = (   1.9864658   4.4711199   9.2879459  )
        31           Ti1 tau(  31) = (   3.2891106   5.8743827   9.1763621  )
        32           Ti1 tau(  32) = (   0.0006254   4.4649316   9.2693709  )
        33           O1  tau(  33) = (   3.2878059   2.9597088  11.3652031  )
        34           O1  tau(  34) = (   0.0092240   2.9805883  10.6323155  )
        35           O1  tau(  35) = (   1.2887225   4.4431869  12.6829221  )
        36           O1  tau(  36) = (   5.2901277   4.4428847  12.6690855  )
        37           Ti1 tau(  37) = (   0.0035388   5.9380168  12.5099366  )
        38           Ti1 tau(  38) = (   3.2962120   4.4389810  12.5267566  )
        39           O1  tau(  39) = (   6.5655450   2.9014274  14.9049457  )
        40           O1  tau(  40) = (   3.2937888   2.9365130  13.9572806  )
        41           O1  tau(  41) = (   4.5374039   4.4072578  16.1608974  )
        42           O1  tau(  42) = (   2.0345115   4.4188705  16.1151926  )
        43           Ti1 tau(  43) = (   3.2925710   5.9161036  15.7896908  )
        44           Ti1 tau(  44) = (   0.0121651   4.6006060  15.8502786  )
        45           O1  tau(  45) = (   3.2900926   2.9813045   4.7018136  )
        46           O1  tau(  46) = (   1.3039711   4.4726057   6.0039043  )
        47           O1  tau(  47) = (   5.2763189   4.4711207   6.0039473  )
        48           N1  tau(  48) = (   6.5581919   2.6818180  17.9522317  )
        49           C1  tau(  49) = (   0.8403426   2.5546117  18.8965076  )
        50           H1  tau(  50) = (   0.6793733   2.9585088  19.8916666  )
        51           H1  tau(  51) = (   1.7584391   2.0155774  18.6961775  )
        52           H1  tau(  52) = (   5.7198555   3.1967788  18.2393814  )

     number of k points=    10  Fermi-Dirac smearing, width (Ry)=  0.0073
                       cart. coord. in units 2pi/alat
        k(    1) = (   0.0000000   0.0000000   0.0000000), wk =   0.1250000
        k(    2) = (   0.0000000   0.0419351   0.0000000), wk =   0.2500000
        k(    3) = (   0.0000000  -0.0838702   0.0000000), wk =   0.1250000
        k(    4) = (   0.0379955   0.0000049   0.0000000), wk =   0.2500000
        k(    5) = (   0.0379955   0.0419400   0.0000000), wk =   0.2500000
        k(    6) = (   0.0379955  -0.0838652   0.0000000), wk =   0.2500000
        k(    7) = (   0.0379955  -0.0419301   0.0000000), wk =   0.2500000
        k(    8) = (  -0.0759910  -0.0000099   0.0000000), wk =   0.1250000
        k(    9) = (  -0.0759910   0.0419252   0.0000000), wk =   0.2500000
        k(   10) = (  -0.0759910  -0.0838800   0.0000000), wk =   0.1250000

     Initial potential from superposition of free atoms

     starting charge  373.99917, renormalised to  390.00000

     negative rho (up, down):  1.699E-02 0.000E+00

     %%%%%%%%%%%%%%%%%%%%%%%%%%%%%%%%%%%%%%%%%%%%%%%%%%%%%%%%%%%%%%%%%%%%%%%%
     %                                                                      %
     % You are using vdW-DF, which was implemented by the Thonhauser group. %
     % Please cite the following two papers that made this development      %
     % possible and the two reviews that describe the various versions:     %
     %                                                                      %
     %   T. Thonhauser et al., PRL 115, 136402 (2015).                      %
     %   T. Thonhauser et al., PRB 76, 125112 (2007).                       %
     %   K. Berland et al., Rep. Prog. Phys. 78, 066501 (2015).             %
     %   D.C. Langreth et al., J. Phys.: Condens. Matter 21, 084203 (2009). %
     %                                                                      %
     %                                                                      %
     % If you are calculating the stress with vdW-DF, please also cite:     %
     %                                                                      %
     %   R. Sabatini et al., J. Phys.: Condens. Matter 24, 424209 (2012).   %
     %                                                                      %
     %%%%%%%%%%%%%%%%%%%%%%%%%%%%%%%%%%%%%%%%%%%%%%%%%%%%%%%%%%%%%%%%%%%%%%%%

     Adding external electric field

     Computed dipole along edir(3) :
        Dipole               -6.0480 Ry au,        -15.3725 Debye
        Dipole field         -0.0114 Ry au,

        Potential amp.        1.0580 Ry
        Total length         46.3494 bohr

     Starting wfcs are  295 atomic wfcs
  @ DRIVER MODE: Message from server: STATUS
  @ DRIVER MODE: Message from server: POSDATA
  @ DRIVER MODE: Reading and sharing cell
  @ DRIVER MODE: Reading and sharing positions
  @ DRIVER MODE: Received positions

     Self-consistent Calculation

     iteration #  1     ecut=    29.40 Ry     beta= 0.05
     Davidson diagonalization with overlap
     c_bands:  1 eigenvalues not converged
     c_bands:  1 eigenvalues not converged
     ethr =  1.00E-05,  avg # of iterations = 16.8

[...]

     total energy              =   -2758.77130381 Ry
     estimated scf accuracy    <    1760.51882838 Ry

     iteration #  2     ecut=    29.40 Ry     beta= 0.05
     Davidson diagonalization with overlap
     ethr =  1.00E-02,  avg # of iterations = 18.5

[...]

     iteration # 55     ecut=    29.40 Ry     beta= 0.05
     Davidson diagonalization with overlap
     c_bands:  1 eigenvalues not converged
     ethr =  1.17E-09,  avg # of iterations = 15.3

[...]

     total energy              =   -2919.11582339 Ry
     estimated scf accuracy    <       0.00000011 Ry

     iteration # 62     ecut=    29.40 Ry     beta= 0.05
     Davidson diagonalization with overlap
     ethr =  2.77E-11,  avg # of iterations =  8.1

     negative rho (up, down):  1.721E-02 0.000E+00

     Adding external electric field

     Computed dipole along edir(3) :
        Dipole                1.2617 Ry au,          3.2070 Debye
        Dipole field          0.0024 Ry au,

        Potential amp.       -0.2207 Ry
        Total length         46.3494 bohr

     End of self-consistent calculation

          k = 0.0000 0.0000 0.0000 ( 18029 PWs)   bands (ev):

   -55.5454 -55.5087 -55.5069 -55.4727 -55.4376 -55.4208 -55.3833 -55.3605
   -55.3604 -55.3355 -55.3259 -55.3123 -55.3021 -55.1303 -54.5276 -54.4935
   -32.1120 -31.9978 -31.9083 -31.8666 -31.8603 -31.8497 -31.8403 -31.8356
   -31.7965 -31.7852 -31.7536 -31.7518 -31.7515 -31.7163 -31.6987 -31.6806
   -31.6754 -31.6676 -31.6614 -31.6574 -31.6192 -31.6161 -31.6008 -31.5904
   -31.5640 -31.5622 -31.5609 -31.5524 -31.5476 -31.5420 -31.5318 -31.5236
   -31.5137 -31.5128 -31.5093 -31.4817 -31.4747 -31.4688 -31.4641 -31.4453
   -31.3538 -31.2715 -30.9366 -30.8434 -30.8212 -30.7530 -30.6663 -30.5553
   -16.5381 -16.3408 -16.0749 -15.8981 -15.7946 -15.7343 -15.5979 -15.5221
   -15.4443 -15.3419 -15.2512 -15.1846 -15.1686 -15.1480 -15.1432 -15.0822
   -15.0787 -15.0548 -15.0372 -15.0357 -14.9814 -14.9738 -14.9421 -14.9300
   -14.9191 -14.8463 -14.7626 -14.6938 -14.6335 -14.2072 -13.0303 -12.9131
    -9.2908  -6.2624  -4.6846  -3.6998  -3.5466  -3.4522  -3.4411  -3.4190
    -3.2710  -3.1330  -2.9271  -2.8460  -2.8002  -2.7508  -2.7228  -2.7049
    -2.6204  -2.5198  -2.4449  -2.4003  -2.3752  -2.3612  -2.3511  -2.3240
    -2.3126  -2.2787  -2.2397  -2.1994  -2.0937  -2.0057  -1.9654  -1.9298
    -1.8732  -1.8627  -1.8356  -1.8291  -1.8224  -1.8007  -1.7623  -1.7525
    -1.7052  -1.5637  -1.5525  -1.4349  -1.3968  -1.2857  -1.1842  -1.1794
    -1.0928  -1.0897  -1.0212  -0.9673  -0.9366  -0.9283  -0.8777  -0.8300
    -0.7400  -0.6466  -0.5853  -0.5432  -0.5085  -0.4795  -0.4124  -0.3211
    -0.3159  -0.3054  -0.2034  -0.1240  -0.1016  -0.0488  -0.0165   0.0267
     0.0428   0.1532   0.1956   0.2375   0.2556   0.3342   0.3562   0.4118
     0.4170   0.4521   0.4612   0.5266   0.5745   0.5939   0.6433   0.6628
     0.8210   1.0737   1.0808   1.1278   1.4039   1.4340   1.4949   1.6798
     2.0702   2.1180   3.5543   3.6267   3.6918   3.7046   3.7461   3.7912
     3.9583   4.0390   4.0555   4.0597   4.0913

[...]

          k = 0.0380-0.0419 0.0000 ( 17876 PWs)   bands (ev):

[...]

          k =-0.0760-0.0000 0.0000 ( 17886 PWs)   bands (ev):

[...]

          k =-0.0760-0.0839 0.0000 ( 17948 PWs)   bands (ev):

   -55.5308 -55.5230 -55.4898 -55.4897 -55.4336 -55.4096 -55.3945 -55.3643
   -55.3442 -55.3414 -55.3193 -55.3187 -55.3107 -55.1319 -54.5105 -54.5105
   -31.9184 -31.9133 -31.8293 -31.8129 -31.8128 -31.8046 -31.7819 -31.7819
   -31.7587 -31.7519 -31.7448 -31.7430 -31.7377 -31.6996 -31.6779 -31.6745
   -31.6704 -31.6661 -31.6624 -31.6575 -31.6527 -31.6337 -31.6197 -31.6190
   -31.6093 -31.6093 -31.6066 -31.5897 -31.5770 -31.5738 -31.5635 -31.5576
   -31.5547 -31.5536 -31.5441 -31.5436 -31.5111 -31.4988 -31.4981 -31.4863
   -31.3586 -31.3529 -30.8339 -30.8339 -30.7491 -30.7490 -30.7097 -30.7096
   -16.5142 -15.7796 -15.7461 -15.7302 -15.5265 -15.5182 -15.5103 -15.4924
   -15.3321 -15.3185 -15.2915 -15.2757 -15.2438 -15.2403 -15.2105 -15.1774
   -15.1244 -15.1199 -15.1116 -15.1093 -15.0495 -15.0452 -15.0250 -14.9964
   -14.9944 -14.9883 -14.8934 -14.8914 -14.7195 -14.5275 -13.0146 -13.0146
    -9.2951  -6.2581  -4.6668  -3.0546  -2.9933  -2.9331  -2.7359  -2.7325
    -2.7016  -2.6192  -2.5501  -2.5378  -2.5115  -2.4831  -2.4805  -2.4324
    -2.3881  -2.3785  -2.3672  -2.3601  -2.3416  -2.3277  -2.2986  -2.2619
    -2.2530  -2.2222  -2.2077  -2.1836  -2.1819  -2.1455  -2.1218  -2.1072
    -2.0956  -2.0364  -1.9331  -1.8805  -1.7944  -1.7690  -1.7390  -1.7330
    -1.6504  -1.6243  -1.5967  -1.5566  -1.5438  -1.5095  -1.3070  -1.2770
    -1.2676  -1.2537  -1.2305  -1.0801  -1.0707  -1.0206  -0.9894  -0.9426
    -0.8845  -0.8485  -0.8347  -0.7520  -0.7209  -0.6768  -0.6375  -0.5145
    -0.5105  -0.5034  -0.5018  -0.4836  -0.3974  -0.3854  -0.3424  -0.3090
    -0.2680  -0.2538  -0.1887  -0.0067   0.0100   0.0761   0.1831   0.2769
     0.3717   0.4509   0.4707   0.5219   0.5648   0.5851   0.6642   0.7574
     0.7692   0.8369   0.8833   0.9247   0.9289   0.9339   1.8527   1.8533
     1.9379   1.9381   3.6772   3.8025   3.8227   3.8610   3.8790   4.0281
     4.0739   4.1117   4.1338   4.1361   4.2165

     the Fermi energy is     3.6097 ev

!    total energy              =   -2919.11586139 Ry
     estimated scf accuracy    <       0.00000005 Ry
     smearing contrib. (-TS)   =      -0.03731336 Ry
     internal energy E=F+TS    =   -2919.07854803 Ry

     The total energy is F=E-TS. E is the sum of the following terms:
     one-electron contribution =  -24307.21754218 Ry
     hartree contribution      =   12241.01672603 Ry
     xc contribution           =    -480.01119291 Ry
     ewald contribution        =    9627.13045683 Ry
     electric field correction =       0.00300420 Ry

     convergence has been achieved in  62 iterations

     Forces acting on atoms (cartesian axes, Ry/au):

     atom    1 type  1   force =     0.00004598   -0.00015682    0.09379454
     atom    2 type  1   force =    -0.00017923   -0.00018725   -0.17778622
     atom    3 type  2   force =     0.00002529   -0.00021935   -0.02112066
     atom    4 type  2   force =    -0.00001590   -0.00198869    0.05777625
     atom    5 type  2   force =    -0.01108186   -0.00165416    0.00749724
     atom    6 type  2   force =     0.01244293   -0.00098796    0.00637970
     atom    7 type  1   force =    -0.00047940    0.00247660   -0.01334841
     atom    8 type  1   force =     0.00030358    0.00294863    0.00275208
     atom    9 type  2   force =     0.00007772   -0.00007847    0.00012814
     atom   10 type  2   force =    -0.00176389   -0.00227309   -0.00368018
     atom   11 type  2   force =     0.00016221    0.00060069   -0.00027587
     atom   12 type  2   force =     0.00044929    0.00053714   -0.00009271
     atom   13 type  1   force =    -0.00072632   -0.00094600   -0.00032083
     atom   14 type  1   force =     0.00082658    0.00026590   -0.00050268
     atom   15 type  2   force =     0.00026679    0.00016383   -0.00002620
     atom   16 type  2   force =    -0.00008111    0.00033804   -0.00063124
     atom   17 type  2   force =    -0.00001430    0.00007386    0.00021607
     atom   18 type  2   force =     0.00053382    0.00000312    0.00019002
     atom   19 type  1   force =     0.00027342   -0.00103082    0.00036716
     atom   20 type  1   force =    -0.00020947    0.00059481    0.00041157
     atom   21 type  2   force =     0.00004488   -0.00002566    0.10381332
     atom   22 type  2   force =     0.00002185   -0.00068251    0.00009895
     atom   23 type  2   force =    -0.07057581   -0.00014581   -0.02705291
     atom   24 type  2   force =     0.07045587    0.00031810   -0.02710098
     atom   25 type  1   force =     0.00008217   -0.00018446    0.09358547
     atom   26 type  1   force =    -0.00009503   -0.00027080   -0.17782365
     atom   27 type  2   force =     0.00008204   -0.00045147   -0.02015863
     atom   28 type  2   force =     0.00002503   -0.00169264    0.05726544
     atom   29 type  2   force =    -0.01117159   -0.00115524    0.00696438
     atom   30 type  2   force =     0.01242416   -0.00081312    0.00582685
     atom   31 type  1   force =    -0.00039347    0.00468022   -0.01442562
     atom   32 type  1   force =     0.00037198   -0.00362450    0.00245714
     atom   33 type  2   force =    -0.00000482    0.00057869    0.00039729
     atom   34 type  2   force =    -0.00117739   -0.00058975   -0.00104146
     atom   35 type  2   force =     0.00038877    0.00025358    0.00021743
     atom   36 type  2   force =     0.00014562    0.00032690    0.00018756
     atom   37 type  1   force =    -0.00053529    0.00131774    0.00008107
     atom   38 type  1   force =     0.00086891    0.00007337   -0.00086085
     atom   39 type  2   force =     0.00012345    0.00046643    0.00032046
     atom   40 type  2   force =     0.00017838    0.00020679   -0.00053701
     atom   41 type  2   force =     0.00027120    0.00010474   -0.00069316
     atom   42 type  2   force =    -0.00011099    0.00005378   -0.00074355
     atom   43 type  1   force =     0.00000908    0.00112105    0.00009953
     atom   44 type  1   force =    -0.00011511    0.00033116   -0.00082225
     atom   45 type  2   force =     0.00004482   -0.00003801    0.10378373
     atom   46 type  2   force =    -0.07059968   -0.00006683   -0.02705003
     atom   47 type  2   force =     0.07047527    0.00034969   -0.02707969
     atom   48 type  3   force =    -0.00638755    0.00413226    0.00081487
     atom   49 type  4   force =    -0.00144125    0.00033113   -0.00002893
     atom   50 type  5   force =    -0.00003147    0.00151332    0.00022660
     atom   51 type  5   force =    -0.00028259   -0.00035258    0.00045396
     atom   52 type  5   force =     0.00605240   -0.00454557   -0.00290307

     Total force =     0.366059     Total SCF correction =     0.000541
  @ DRIVER MODE: Message from server: STATUS
  @ DRIVER MODE: Message from server: GETFORCE
  @ DRIVER MODE: Returning v,forces,stress,ensemble

     Writing output data file ./calc.save/
  @ DRIVER MODE: Message from server: EXIT
  @ DRIVE MODE: Exiting

     General routines

     Parallel routines

   This run was terminated on:  20:11:51  24Aug2021

   JOB DONE.