     Program PWSCF v.6.7GPU starts on  9Sep2021 at 11:40:23

     R & G space division:  proc/nbgrp/npool/nimage =      10
     Reading input from /storage/home/hcoda1/3/ntian30/research/carbon/CxH_vib/CH3_calc/ads_slab/CH3NH2NH_c/out_0041/pw.inp
Warning: card &CELL ignored
Warning: card   CELL_DYNAMICS='IPI', ignored
Warning: card / ignored

     Current dimensions of program PWSCF are:
     Max number of different atomic species (ntypx) = 10
     Max number of k-points (npk) =  40000
     Max angular momentum in pseudopotentials (lmaxx) =  3
     Presently no symmetry can be used with electric field

     Message from routine cell_base_init:
     DEPRECATED: use true lattice parameter, not A to a.u. conversion factor

     IMPORTANT: XC functional enforced from input :
     Exchange-correlation= BEEF-VDW
                           (   1   4  43  14   2   0   0)
     Any further DFT definition will be discarded
     Please, verify this is what you really want

  @ DRIVER MODE: Connecting to
 qe_1139763_2767400.sched-torque.pace.gatech.eduiqhpw05e_scratch
  using UNIX socket
  @ DRIVER MODE: Message from server: STATUS
  @ DRIVER MODE: Message from server: INIT
  @ DRIVER MODE: Receiving replica           0          -1
  @ DRIVER MODE: Receiving encoded integer          25
  @ DRIVER MODE:  SCF:  T  FORCE:  T  STRESS:  F  VC:  F  ENSEMBLE:  F
  @ DRIVER MODE:  SCF:  T  FORCE:  T  STRESS:  F  VC:  F  ENSEMBLE:  F

     Using Slab Decomposition

     bravais-lattice index     =            0
     lattice parameter (alat)  =       1.8897  a.u.
     unit-cell volume          =    6658.9804 (a.u.)^3
     number of atoms/cell      =           56
     number of atomic types    =            5
     number of electrons       =       398.00
     number of Kohn-Sham states=          209
     kinetic-energy cutoff     =      29.3995  Ry
     charge density cutoff     =     293.9946  Ry
     scf convergence threshold =      7.3E-08
     mixing beta               =       0.0500
     number of iterations used =            8  plain     mixing
     Exchange-correlation= BEEF-VDW
                           (   1   4  43  14   2   0   0)

     celldm(1)=   1.889726  celldm(2)=   0.000000  celldm(3)=   0.000000
     celldm(4)=   0.000000  celldm(5)=   0.000000  celldm(6)=   0.000000

     crystal axes: (cart. coord. in units of alat)
               a(1) = (   6.579727   0.000000   0.000000 )
               a(2) = (  -0.000775   5.961596   0.000000 )
               a(3) = (   0.000000   0.000000  25.155947 )

     reciprocal axes: (cart. coord. in units 2 pi/alat)
               b(1) = (  0.151982  0.000020  0.000000 )
               b(2) = (  0.000000  0.167740  0.000000 )
               b(3) = (  0.000000  0.000000  0.039752 )

     PseudoPot. # 1 for Ti read from file:
     /storage/coda1/p-amedford6/0/shared/rich_project_chbe-medford/medford-share/data/pseudos_module/espresso/nninc/pbe/van/Ti.UPF
     MD5 check sum: 8e4df49b7f0d34bbd5052bf3f5ea0213
     Pseudo is Ultrasoft, Zval = 12.0
     Generated by new atomic code, or converted to UPF format
     Using radial grid of  851 points,  6 beta functions with:
                l(1) =   0
                l(2) =   0
                l(3) =   1
                l(4) =   1
                l(5) =   2
                l(6) =   2
     Q(r) pseudized with  8 coefficients,  rinner =    1.000   1.000   1.000
                                                       1.000   1.000

     PseudoPot. # 2 for O  read from file:
     /storage/coda1/p-amedford6/0/shared/rich_project_chbe-medford/medford-share/data/pseudos_module/espresso/nninc/pbe/van/O.UPF
     MD5 check sum: 78c19812648e8988a0fe644b0f25305e
     Pseudo is Ultrasoft, Zval =  6.0
     Generated by new atomic code, or converted to UPF format
     Using radial grid of  737 points,  4 beta functions with:
                l(1) =   0
                l(2) =   0
                l(3) =   1
                l(4) =   1
     Q(r) pseudized with  8 coefficients,  rinner =    0.800   0.800   0.800

     PseudoPot. # 3 for N  read from file:
     /storage/coda1/p-amedford6/0/shared/rich_project_chbe-medford/medford-share/data/pseudos_module/espresso/nninc/pbe/van/N.UPF
     MD5 check sum: 90d10febe142ad51ac9d5be1deb811c4
     Pseudo is Ultrasoft, Zval =  5.0
     Generated by new atomic code, or converted to UPF format
     Using radial grid of  729 points,  4 beta functions with:
                l(1) =   0
                l(2) =   0
                l(3) =   1
                l(4) =   1
     Q(r) pseudized with  8 coefficients,  rinner =    0.800   0.800   0.800

     PseudoPot. # 4 for C  read from file:
     /storage/coda1/p-amedford6/0/shared/rich_project_chbe-medford/medford-share/data/pseudos_module/espresso/nninc/pbe/van/C.UPF
     MD5 check sum: 1a69bf6b8db32088f5b2163dbdb77a27
     Pseudo is Ultrasoft, Zval =  4.0
     Generated by new atomic code, or converted to UPF format
     Using radial grid of  721 points,  4 beta functions with:
                l(1) =   0
                l(2) =   0
                l(3) =   1
                l(4) =   1
     Q(r) pseudized with  8 coefficients,  rinner =    0.800   0.800   0.800

     PseudoPot. # 5 for H  read from file:
     /storage/coda1/p-amedford6/0/shared/rich_project_chbe-medford/medford-share/data/pseudos_module/espresso/nninc/pbe/van/H.UPF
     MD5 check sum: b5ee9d7bfd3a09ee7748110bda690ff7
     Pseudo is Ultrasoft, Zval =  1.0
     Generated by new atomic code, or converted to UPF format
     Using radial grid of  615 points,  1 beta functions with:
                l(1) =   0
     Q(r) pseudized with  8 coefficients,  rinner =    0.800

     atomic species   valence    mass     pseudopotential
        Ti1           12.00    47.86700     Ti( 1.00)
        O1             6.00    15.99900     O ( 1.00)
        N1             5.00    14.00700     N ( 1.00)
        C1             4.00    12.01100     C ( 1.00)
        H1             1.00     1.00800     H ( 1.00)

     No symmetry found

   Cartesian axes

     site n.     atom                  positions (alat units)
         1           Ti1 tau(   1) = (   0.0004258   2.9801865   6.0000000  )
         2           Ti1 tau(   2) = (   3.2906075   1.4906267   6.0002472  )
         3           O1  tau(   3) = (   0.0006271   0.0005054   7.9858123  )
         4           O1  tau(   4) = (   3.2906025   0.0005020   7.3038282  )
         5           O1  tau(   5) = (   4.5942328   1.4918067   9.2879030  )
         6           O1  tau(   6) = (   1.9868534   1.4903216   9.2879459  )
         7           Ti1 tau(   7) = (   3.2907910   2.8959150   9.1758416  )
         8           Ti1 tau(   8) = (   0.0015273   1.4827037   9.2680791  )
         9           O1  tau(   9) = (   3.3032705   0.0110091  11.3485381  )
        10           O1  tau(  10) = (   0.0116148   5.9584955  10.6183126  )
        11           O1  tau(  11) = (   1.3020657   1.4959176  12.6398190  )
        12           O1  tau(  12) = (   5.2896457   1.4919019  12.6612249  )
        13           Ti1 tau(  13) = (   0.0353884   3.0012823  12.5523301  )
        14           Ti1 tau(  14) = (   3.3275346   1.5008247  12.4978572  )
        15           O1  tau(  15) = (   0.0424128   0.0047235  14.7277795  )
        16           O1  tau(  16) = (   3.2762846   0.0047332  13.9819514  )
        17           O1  tau(  17) = (   4.5591522   1.5298593  16.0930730  )
        18           O1  tau(  18) = (   2.0612242   1.5646392  16.2256692  )
        19           Ti1 tau(  19) = (   3.3170857   3.0293758  15.7013767  )
        20           Ti1 tau(  20) = (   6.5267591   1.5471840  15.7818195  )
        21           O1  tau(  21) = (   3.2904802   0.0005063   4.7018136  )
        22           O1  tau(  22) = (   0.0258072   0.0396315  17.3287798  )
        23           O1  tau(  23) = (   1.3043587   1.4918075   6.0039043  )
        24           O1  tau(  24) = (   5.2767064   1.4903225   6.0039473  )
        25           Ti1 tau(  25) = (   0.0000382   5.9609847   6.0000000  )
        26           Ti1 tau(  26) = (   3.2902200   4.4714249   6.0002472  )
        27           O1  tau(  27) = (   0.0002396   2.9813036   7.9858123  )
        28           O1  tau(  28) = (   3.2902150   2.9813002   7.3038282  )
        29           O1  tau(  29) = (   4.5938453   4.4726049   9.2879030  )
        30           O1  tau(  30) = (   1.9864658   4.4711199   9.2879459  )
        31           Ti1 tau(  31) = (   3.2891106   5.8743827   9.1763621  )
        32           Ti1 tau(  32) = (   0.0006254   4.4649316   9.2693709  )
        33           O1  tau(  33) = (   3.3047253   2.9863606  11.3412877  )
        34           O1  tau(  34) = (   0.0092240   2.9805883  10.6323155  )
        35           O1  tau(  35) = (   1.3023160   4.4818153  12.6295520  )
        36           O1  tau(  36) = (   5.2910779   4.4839738  12.6480862  )
        37           Ti1 tau(  37) = (   0.0306270   0.0097343  12.5156175  )
        38           Ti1 tau(  38) = (   3.3295341   4.4791655  12.4867326  )
        39           O1  tau(  39) = (   0.0319336   2.9935560  14.7343221  )
        40           O1  tau(  40) = (   3.2835893   3.0037955  13.9224844  )
        41           O1  tau(  41) = (   4.5669158   4.4809188  16.1713821  )
        42           O1  tau(  42) = (   2.0542530   4.4668402  16.2247519  )
        43           Ti1 tau(  43) = (   3.3000170   0.0150779  15.7669526  )
        44           Ti1 tau(  44) = (   0.0416703   4.6955124  16.1636639  )
        45           O1  tau(  45) = (   3.2900926   2.9813045   4.7018136  )
        46           O1  tau(  46) = (   1.3039711   4.4726057   6.0039043  )
        47           O1  tau(  47) = (   5.2763189   4.4711207   6.0039473  )
        48           N1  tau(  48) = (   0.9019483   2.4226080  18.4567899  )
        49           N1  tau(  49) = (   6.4923839   2.9153054  17.5348467  )
        50           C1  tau(  50) = (   1.2734633   3.3482217  19.5544901  )
        51           H1  tau(  51) = (   0.3921683   3.5464126  20.1615046  )
        52           H1  tau(  52) = (   2.0553077   2.8833093  20.1573268  )
        53           H1  tau(  53) = (   1.6239766   4.2728770  19.1044814  )
        54           H1  tau(  54) = (   0.5870980   1.4942747  18.7732689  )
        55           H1  tau(  55) = (   5.5983569   2.8486818  18.0159164  )
        56           H1  tau(  56) = (   1.7025450   2.1792920  17.8234971  )

     number of k points=    10  Fermi-Dirac smearing, width (Ry)=  0.0073
                       cart. coord. in units 2pi/alat
        k(    1) = (   0.0000000   0.0000000   0.0000000), wk =   0.1250000
        k(    2) = (   0.0000000   0.0419351   0.0000000), wk =   0.2500000
        k(    3) = (   0.0000000  -0.0838702   0.0000000), wk =   0.1250000
        k(    4) = (   0.0379955   0.0000049   0.0000000), wk =   0.2500000
        k(    5) = (   0.0379955   0.0419400   0.0000000), wk =   0.2500000
        k(    6) = (   0.0379955  -0.0838652   0.0000000), wk =   0.2500000
        k(    7) = (   0.0379955  -0.0419301   0.0000000), wk =   0.2500000
        k(    8) = (  -0.0759910  -0.0000099   0.0000000), wk =   0.1250000
        k(    9) = (  -0.0759910   0.0419252   0.0000000), wk =   0.2500000
        k(   10) = (  -0.0759910  -0.0838800   0.0000000), wk =   0.1250000

     Initial potential from superposition of free atoms

     starting charge  381.99914, renormalised to  398.00000

     negative rho (up, down):  1.485E-02 0.000E+00

     %%%%%%%%%%%%%%%%%%%%%%%%%%%%%%%%%%%%%%%%%%%%%%%%%%%%%%%%%%%%%%%%%%%%%%%%
     %                                                                      %
     % You are using vdW-DF, which was implemented by the Thonhauser group. %
     % Please cite the following two papers that made this development      %
     % possible and the two reviews that describe the various versions:     %
     %                                                                      %
     %   T. Thonhauser et al., PRL 115, 136402 (2015).                      %
     %   T. Thonhauser et al., PRB 76, 125112 (2007).                       %
     %   K. Berland et al., Rep. Prog. Phys. 78, 066501 (2015).             %
     %   D.C. Langreth et al., J. Phys.: Condens. Matter 21, 084203 (2009). %
     %                                                                      %
     %                                                                      %
     % If you are calculating the stress with vdW-DF, please also cite:     %
     %                                                                      %
     %   R. Sabatini et al., J. Phys.: Condens. Matter 24, 424209 (2012).   %
     %                                                                      %
     %%%%%%%%%%%%%%%%%%%%%%%%%%%%%%%%%%%%%%%%%%%%%%%%%%%%%%%%%%%%%%%%%%%%%%%%

     Adding external electric field

     Computed dipole along edir(3) :
        Dipole              -10.9098 Ry au,        -27.7300 Debye
        Dipole field         -0.0206 Ry au,

        Potential amp.        1.9085 Ry
        Total length         46.3494 bohr

     Starting wfcs are  302 atomic wfcs
  @ DRIVER MODE: Message from server: STATUS
  @ DRIVER MODE: Message from server: POSDATA
  @ DRIVER MODE: Reading and sharing cell
  @ DRIVER MODE: Reading and sharing positions
  @ DRIVER MODE: Received positions

     Self-consistent Calculation

     iteration #  1     ecut=    29.40 Ry     beta= 0.05
     Davidson diagonalization with overlap
     c_bands:  5 eigenvalues not converged
     c_bands:  3 eigenvalues not converged
     c_bands:  1 eigenvalues not converged
     c_bands:  2 eigenvalues not converged
     c_bands:  3 eigenvalues not converged
     c_bands:  4 eigenvalues not converged
     c_bands:  4 eigenvalues not converged
     ethr =  1.00E-05,  avg # of iterations = 24.5

[...]

     total energy              =   -2445.35322065 Ry
     estimated scf accuracy    <    5568.53109477 Ry

     iteration #  2     ecut=    29.40 Ry     beta= 0.05
     Davidson diagonalization with overlap
     ethr =  1.00E-02,  avg # of iterations = 22.0

[...]

     iteration # 94     ecut=    29.40 Ry     beta= 0.05
     Davidson diagonalization with overlap
     ethr =  9.82E-11,  avg # of iterations =  9.8

[...]

     total energy              =   -2942.84151796 Ry
     estimated scf accuracy    <       0.00000008 Ry

     iteration # 97     ecut=    29.40 Ry     beta= 0.05
     Davidson diagonalization with overlap
     c_bands:  1 eigenvalues not converged
     ethr =  2.01E-11,  avg # of iterations = 10.3

     negative rho (up, down):  1.049E-02 0.000E+00

     Adding external electric field

     Computed dipole along edir(3) :
        Dipole                1.5807 Ry au,          4.0178 Debye
        Dipole field          0.0030 Ry au,

        Potential amp.       -0.2765 Ry
        Total length         46.3494 bohr

     End of self-consistent calculation

          k = 0.0000 0.0000 0.0000 ( 18029 PWs)   bands (ev):

   -55.0895 -55.0540 -55.0504 -55.0199 -54.9665 -54.9641 -54.9265 -54.8899
   -54.8815 -54.8673 -54.8542 -54.8492 -54.8030 -54.7589 -54.0643 -54.0303
   -31.6635 -31.5434 -31.4535 -31.4238 -31.3846 -31.3801 -31.3785 -31.3491
   -31.3464 -31.3442 -31.3012 -31.2991 -31.2986 -31.2641 -31.2459 -31.2264
   -31.2065 -31.2027 -31.1935 -31.1916 -31.1650 -31.1477 -31.1462 -31.1202
   -31.1108 -31.0967 -31.0948 -31.0919 -31.0883 -31.0754 -31.0702 -31.0631
   -31.0505 -31.0398 -31.0214 -31.0131 -31.0056 -31.0010 -30.9953 -30.9895
   -30.9863 -30.9513 -30.4728 -30.3810 -30.3588 -30.2894 -30.2027 -30.0916
   -19.1710 -15.9325 -15.6581 -15.5354 -15.3246 -15.2750 -15.2021 -15.0068
   -14.9424 -14.8865 -14.8763 -14.8645 -14.8474 -14.7762 -14.6971 -14.6165
   -14.6140 -14.6084 -14.5968 -14.5786 -14.5713 -14.5087 -14.5016 -14.4696
   -14.4575 -14.4176 -14.3104 -14.2285 -14.1716 -14.0237 -13.3263 -12.5668
   -12.4497 -11.1236  -7.8774  -6.5578  -5.8735  -4.1185  -3.9465  -3.2775
    -3.0922  -3.0690  -3.0077  -2.9825  -2.8078  -2.7584  -2.5534  -2.4468
    -2.3594  -2.3204  -2.3081  -2.2914  -2.1415  -2.0737  -2.0393  -1.9920
    -1.9684  -1.9455  -1.9040  -1.8964  -1.8658  -1.8478  -1.8396  -1.6618
    -1.5861  -1.5373  -1.5074  -1.4694  -1.4197  -1.3918  -1.3731  -1.3684
    -1.3633  -1.3443  -1.3131  -1.2518  -1.2248  -1.1674  -1.0992  -1.0725
    -0.9827  -0.9011  -0.7131  -0.6679  -0.6497  -0.6135  -0.5534  -0.5052
    -0.4704  -0.4356  -0.4218  -0.3557  -0.2859  -0.2537  -0.1912  -0.1266
    -0.1162  -0.0535  -0.0472   0.1155   0.1275   0.1488   0.2394   0.3261
     0.3741   0.3821   0.4406   0.5146   0.5364   0.5464   0.5827   0.6031
     0.6801   0.7891   0.8138   0.8555   0.8671   0.9008   0.9235   0.9780
     1.0018   1.0650   1.0713   1.1749   1.2237   1.2570   1.5073   1.5405
     1.8709   1.9044   1.9583   2.1450   2.5321   2.5793   4.0188   4.0815
     4.0959   4.1445   4.1677   4.1869   4.2588   4.4796   4.5048   4.5109
     4.5184

[...]

          k = 0.0380-0.0419 0.0000 ( 17876 PWs)   bands (ev):

[...]

          k =-0.0760-0.0000 0.0000 ( 17886 PWs)   bands (ev):

[...]

          k =-0.0760-0.0839 0.0000 ( 17948 PWs)   bands (ev):

   -55.0774 -55.0623 -55.0370 -55.0368 -54.9634 -54.9530 -54.9376 -54.8728
   -54.8701 -54.8693 -54.8673 -54.8650 -54.7968 -54.7650 -54.0474 -54.0471
   -31.4712 -31.4615 -31.3987 -31.3586 -31.3585 -31.3573 -31.3298 -31.3295
   -31.2985 -31.2945 -31.2896 -31.2835 -31.2588 -31.2236 -31.2166 -31.2105
   -31.2085 -31.2046 -31.2038 -31.1950 -31.1629 -31.1618 -31.1582 -31.1562
   -31.1560 -31.1531 -31.1486 -31.1322 -31.1069 -31.1032 -31.0982 -31.0879
   -31.0859 -31.0840 -31.0829 -31.0670 -31.0486 -31.0472 -31.0366 -31.0311
   -31.0069 -30.9907 -30.3715 -30.3714 -30.2854 -30.2852 -30.2461 -30.2460
   -19.1671 -15.4157 -15.3254 -15.1772 -15.1576 -15.1084 -15.0602 -15.0438
   -15.0265 -14.9705 -14.9311 -14.8851 -14.8362 -14.7930 -14.7908 -14.7523
   -14.6802 -14.6587 -14.6566 -14.6421 -14.5911 -14.5804 -14.5528 -14.5341
   -14.5290 -14.4858 -14.4264 -14.4228 -14.3841 -14.2083 -13.3366 -12.5514
   -12.5513 -11.1259  -7.8873  -6.5416  -5.8628  -4.0901  -3.9404  -2.6846
    -2.5853  -2.5243  -2.4189  -2.3319  -2.2916  -2.2568  -2.1226  -2.1033
    -2.0842  -2.0581  -2.0452  -2.0113  -2.0036  -1.9554  -1.9262  -1.9157
    -1.9095  -1.8965  -1.8744  -1.8267  -1.8042  -1.7943  -1.7850  -1.7463
    -1.7324  -1.7004  -1.6945  -1.6555  -1.6340  -1.5494  -1.4599  -1.4201
    -1.3703  -1.3054  -1.2703  -1.2636  -1.1706  -1.1624  -1.1391  -1.1057
    -1.0607  -0.9406  -0.8831  -0.8198  -0.8157  -0.8027  -0.6958  -0.6582
    -0.6293  -0.5925  -0.5566  -0.5253  -0.4868  -0.4397  -0.3631  -0.3321
    -0.2928  -0.2565  -0.1841  -0.0960  -0.0771  -0.0456  -0.0414   0.0435
     0.0696   0.1078   0.1172   0.1364   0.1929   0.2062   0.2932   0.3832
     0.4470   0.5356   0.6491   0.6536   0.7310   0.8232   0.9108   0.9487
     0.9992   1.0658   1.0679   1.1019   1.2233   1.2305   1.3520   1.3908
     1.3996   1.4220   2.3173   2.3184   2.3994   2.3995   4.1476   4.2454
     4.2845   4.3256   4.3772   4.5230   4.5462   4.5918   4.5923   4.6629
     4.6763

     the Fermi energy is     4.0653 ev

!    total energy              =   -2942.84151964 Ry
     estimated scf accuracy    <       0.00000004 Ry
     smearing contrib. (-TS)   =      -0.03725004 Ry
     internal energy E=F+TS    =   -2942.80426960 Ry

     The total energy is F=E-TS. E is the sum of the following terms:
     one-electron contribution =  -23857.05183915 Ry
     hartree contribution      =   12023.86848844 Ry
     xc contribution           =    -487.75881083 Ry
     ewald contribution        =    9378.13317670 Ry
     electric field correction =       0.00471524 Ry

     convergence has been achieved in  97 iterations

     Forces acting on atoms (cartesian axes, Ry/au):

     atom    1 type  1   force =     0.00001465   -0.00023220    0.09431443
     atom    2 type  1   force =    -0.00015870   -0.00054812   -0.17710725
     atom    3 type  2   force =     0.00001605   -0.00024247   -0.02146353
     atom    4 type  2   force =    -0.00001664   -0.00167691    0.05643537
     atom    5 type  2   force =    -0.01049034   -0.00075493    0.00562745
     atom    6 type  2   force =     0.01225619   -0.00009905    0.00551829
     atom    7 type  1   force =    -0.00024256    0.00106696   -0.01569676
     atom    8 type  1   force =    -0.00006973    0.00524678    0.00656512
     atom    9 type  2   force =    -0.00030465    0.00055565    0.00021161
     atom   10 type  2   force =    -0.00199758    0.00266216   -0.00433858
     atom   11 type  2   force =     0.00040344   -0.00022617    0.00027741
     atom   12 type  2   force =    -0.00008355   -0.00029309   -0.00019640
     atom   13 type  1   force =    -0.00072867    0.00044615   -0.00008690
     atom   14 type  1   force =     0.00037080   -0.00016722    0.00000477
     atom   15 type  2   force =    -0.00018640   -0.00060363   -0.00036464
     atom   16 type  2   force =     0.00004872    0.00037955   -0.00029655
     atom   17 type  2   force =     0.00082208    0.00015762    0.00042229
     atom   18 type  2   force =    -0.00019056    0.00004769   -0.00008412
     atom   19 type  1   force =     0.00032103    0.00078379    0.00032082
     atom   20 type  1   force =    -0.00049926    0.00028909    0.00044469
     atom   21 type  2   force =    -0.00002113   -0.00011300    0.10365162
     atom   22 type  2   force =     0.00026575    0.00061560    0.00069025
     atom   23 type  2   force =    -0.07091233   -0.00020899   -0.02718594
     atom   24 type  2   force =     0.07071097    0.00024442   -0.02723569
     atom   25 type  1   force =     0.00002092   -0.00027114    0.09398351
     atom   26 type  1   force =    -0.00025220   -0.00055393   -0.17737627
     atom   27 type  2   force =     0.00005894   -0.00008393   -0.02060044
     atom   28 type  2   force =     0.00002419   -0.00136544    0.05572700
     atom   29 type  2   force =    -0.01080080   -0.00000307    0.00592011
     atom   30 type  2   force =     0.01248802    0.00028452    0.00577184
     atom   31 type  1   force =    -0.00016940    0.00516672   -0.01627404
     atom   32 type  1   force =    -0.00008955   -0.00625121    0.00670139
     atom   33 type  2   force =    -0.00009532   -0.00047654    0.00023729
     atom   34 type  2   force =    -0.00163497    0.00066449   -0.00774042
     atom   35 type  2   force =    -0.00032348    0.00005954    0.00041867
     atom   36 type  2   force =     0.00057362    0.00005964   -0.00007204
     atom   37 type  1   force =    -0.00081926   -0.00077786   -0.00012343
     atom   38 type  1   force =     0.00048167    0.00001095    0.00040525
     atom   39 type  2   force =    -0.00028229   -0.00015645    0.00061827
     atom   40 type  2   force =    -0.00005740   -0.00019284   -0.00022007
     atom   41 type  2   force =     0.00015403   -0.00046399    0.00030714
     atom   42 type  2   force =    -0.00024315   -0.00028683    0.00055332
     atom   43 type  1   force =     0.00003561   -0.00069507   -0.00024690
     atom   44 type  1   force =     0.00023485    0.00020919    0.00023595
     atom   45 type  2   force =    -0.00002291   -0.00011796    0.10364677
     atom   46 type  2   force =    -0.07091708   -0.00014816   -0.02715758
     atom   47 type  2   force =     0.07071963    0.00027333   -0.02722592
     atom   48 type  3   force =     0.00125377    0.00423195   -0.00261972
     atom   49 type  3   force =     0.00020967   -0.00002872    0.00012837
     atom   50 type  4   force =     0.00036662   -0.00104777    0.00021807
     atom   51 type  5   force =     0.00023755   -0.00053513    0.00067963
     atom   52 type  5   force =    -0.00043162    0.00044157    0.00009660
     atom   53 type  5   force =     0.00037749   -0.00056839    0.00009545
     atom   54 type  5   force =    -0.00107921   -0.00408816    0.00361704
     atom   55 type  5   force =    -0.00014035   -0.00061175    0.00020587
     atom   56 type  5   force =     0.00079486   -0.00000727   -0.00033845

     Total force =     0.365741     Total SCF correction =     0.000504
  @ DRIVER MODE: Message from server: STATUS
  @ DRIVER MODE: Message from server: GETFORCE
  @ DRIVER MODE: Returning v,forces,stress,ensemble

     Writing output data file ./calc.save/
  @ DRIVER MODE: Message from server: EXIT
  @ DRIVE MODE: Exiting

     General routines

     Parallel routines

   This run was terminated on:  12: 5:28   9Sep2021

   JOB DONE.