     Program PWSCF v.6.7GPU starts on  2Aug2021 at 18:38:56

     R & G space division:  proc/nbgrp/npool/nimage =      16
     Reading input from /storage/home/hcoda1/3/ntian30/research/carbon/02Aug_vib_paired/ads_slab/CH3NNHH_a/out_0020/pw.inp
Warning: card &CELL ignored
Warning: card   CELL_DYNAMICS='IPI', ignored
Warning: card / ignored

     Current dimensions of program PWSCF are:
     Max number of different atomic species (ntypx) = 10
     Max number of k-points (npk) =  40000
     Max angular momentum in pseudopotentials (lmaxx) =  3
     Presently no symmetry can be used with electric field

     Message from routine cell_base_init:
     DEPRECATED: use true lattice parameter, not A to a.u. conversion factor

     IMPORTANT: XC functional enforced from input :
     Exchange-correlation= BEEF-VDW
                           (   1   4  43  14   2   0   0)
     Any further DFT definition will be discarded
     Please, verify this is what you really want

  @ DRIVER MODE: Connecting to
 qe_1139763_2482543.sched-torque.pace.gatech.eduwtae70j__scratch
  using UNIX socket
  @ DRIVER MODE: Message from server: STATUS
  @ DRIVER MODE: Message from server: INIT
  @ DRIVER MODE: Receiving replica           0          -1
  @ DRIVER MODE: Receiving encoded integer          25
  @ DRIVER MODE:  SCF:  T  FORCE:  T  STRESS:  F  VC:  F  ENSEMBLE:  F
  @ DRIVER MODE:  SCF:  T  FORCE:  T  STRESS:  F  VC:  F  ENSEMBLE:  F

     Using Slab Decomposition

     bravais-lattice index     =            0
     lattice parameter (alat)  =       1.8897  a.u.
     unit-cell volume          =    6658.9804 (a.u.)^3
     number of atoms/cell      =           55
     number of atomic types    =            5
     number of electrons       =       397.00
     number of Kohn-Sham states=          208
     kinetic-energy cutoff     =      29.3995  Ry
     charge density cutoff     =     293.9946  Ry
     scf convergence threshold =      7.3E-08
     mixing beta               =       0.0500
     number of iterations used =            8  plain     mixing
     Exchange-correlation= BEEF-VDW
                           (   1   4  43  14   2   0   0)

     celldm(1)=   1.889726  celldm(2)=   0.000000  celldm(3)=   0.000000
     celldm(4)=   0.000000  celldm(5)=   0.000000  celldm(6)=   0.000000

     crystal axes: (cart. coord. in units of alat)
               a(1) = (   6.579727   0.000000   0.000000 )
               a(2) = (  -0.000775   5.961596   0.000000 )
               a(3) = (   0.000000   0.000000  25.155947 )

     reciprocal axes: (cart. coord. in units 2 pi/alat)
               b(1) = (  0.151982  0.000020  0.000000 )
               b(2) = (  0.000000  0.167740  0.000000 )
               b(3) = (  0.000000  0.000000  0.039752 )

     PseudoPot. # 1 for Ti read from file:
     /storage/coda1/p-amedford6/0/shared/rich_project_chbe-medford/medford-share/data/pseudos_module/espresso/nninc/pbe/van/Ti.UPF
     MD5 check sum: 8e4df49b7f0d34bbd5052bf3f5ea0213
     Pseudo is Ultrasoft, Zval = 12.0
     Generated by new atomic code, or converted to UPF format
     Using radial grid of  851 points,  6 beta functions with:
                l(1) =   0
                l(2) =   0
                l(3) =   1
                l(4) =   1
                l(5) =   2
                l(6) =   2
     Q(r) pseudized with  8 coefficients,  rinner =    1.000   1.000   1.000
                                                       1.000   1.000

     PseudoPot. # 2 for O  read from file:
     /storage/coda1/p-amedford6/0/shared/rich_project_chbe-medford/medford-share/data/pseudos_module/espresso/nninc/pbe/van/O.UPF
     MD5 check sum: 78c19812648e8988a0fe644b0f25305e
     Pseudo is Ultrasoft, Zval =  6.0
     Generated by new atomic code, or converted to UPF format
     Using radial grid of  737 points,  4 beta functions with:
                l(1) =   0
                l(2) =   0
                l(3) =   1
                l(4) =   1
     Q(r) pseudized with  8 coefficients,  rinner =    0.800   0.800   0.800

     PseudoPot. # 3 for N  read from file:
     /storage/coda1/p-amedford6/0/shared/rich_project_chbe-medford/medford-share/data/pseudos_module/espresso/nninc/pbe/van/N.UPF
     MD5 check sum: 90d10febe142ad51ac9d5be1deb811c4
     Pseudo is Ultrasoft, Zval =  5.0
     Generated by new atomic code, or converted to UPF format
     Using radial grid of  729 points,  4 beta functions with:
                l(1) =   0
                l(2) =   0
                l(3) =   1
                l(4) =   1
     Q(r) pseudized with  8 coefficients,  rinner =    0.800   0.800   0.800

     PseudoPot. # 4 for C  read from file:
     /storage/coda1/p-amedford6/0/shared/rich_project_chbe-medford/medford-share/data/pseudos_module/espresso/nninc/pbe/van/C.UPF
     MD5 check sum: 1a69bf6b8db32088f5b2163dbdb77a27
     Pseudo is Ultrasoft, Zval =  4.0
     Generated by new atomic code, or converted to UPF format
     Using radial grid of  721 points,  4 beta functions with:
                l(1) =   0
                l(2) =   0
                l(3) =   1
                l(4) =   1
     Q(r) pseudized with  8 coefficients,  rinner =    0.800   0.800   0.800

     PseudoPot. # 5 for H  read from file:
     /storage/coda1/p-amedford6/0/shared/rich_project_chbe-medford/medford-share/data/pseudos_module/espresso/nninc/pbe/van/H.UPF
     MD5 check sum: b5ee9d7bfd3a09ee7748110bda690ff7
     Pseudo is Ultrasoft, Zval =  1.0
     Generated by new atomic code, or converted to UPF format
     Using radial grid of  615 points,  1 beta functions with:
                l(1) =   0
     Q(r) pseudized with  8 coefficients,  rinner =    0.800

     atomic species   valence    mass     pseudopotential
        Ti1           12.00    47.86700     Ti( 1.00)
        O1             6.00    15.99900     O ( 1.00)
        N1             5.00    14.00700     N ( 1.00)
        C1             4.00    12.01100     C ( 1.00)
        H1             1.00     1.00800     H ( 1.00)

     No symmetry found

   Cartesian axes

     site n.     atom                  positions (alat units)
         1           Ti1 tau(   1) = (   0.0004258   2.9801865   6.0000000  )
         2           Ti1 tau(   2) = (   3.2906075   1.4906267   6.0002472  )
         3           O1  tau(   3) = (   0.0006271   0.0005054   7.9858123  )
         4           O1  tau(   4) = (   3.2906025   0.0005020   7.3038282  )
         5           O1  tau(   5) = (   4.5942328   1.4918067   9.2879030  )
         6           O1  tau(   6) = (   1.9868534   1.4903216   9.2879459  )
         7           Ti1 tau(   7) = (   3.2907910   2.8959150   9.1758416  )
         8           Ti1 tau(   8) = (   0.0015273   1.4827037   9.2680791  )
         9           O1  tau(   9) = (   3.3049802   0.0007868  11.3057318  )
        10           O1  tau(  10) = (   0.0116148   5.9584955  10.6183126  )
        11           O1  tau(  11) = (   1.3244024   1.4905818  12.6109357  )
        12           O1  tau(  12) = (   5.3168099   1.4893704  12.6271843  )
        13           Ti1 tau(  13) = (   6.5373159   3.0114403  12.6515439  )
        14           Ti1 tau(  14) = (   3.2156784   1.4952808  12.4541107  )
        15           O1  tau(  15) = (   0.0550716   5.9579553  14.6769760  )
        16           O1  tau(  16) = (   3.3119233   0.0240268  13.8744051  )
        17           O1  tau(  17) = (   4.5754650   1.5399768  16.1198157  )
        18           O1  tau(  18) = (   2.0928293   1.5118261  15.9950610  )
        19           Ti1 tau(  19) = (   3.3312717   3.0210965  15.6459898  )
        20           Ti1 tau(  20) = (   0.0837956   1.4057146  15.8023643  )
        21           O1  tau(  21) = (   3.2904802   0.0005063   4.7018136  )
        22           O1  tau(  22) = (   0.0662678   0.0194342  17.2484716  )
        23           O1  tau(  23) = (   1.3043587   1.4918075   6.0039043  )
        24           O1  tau(  24) = (   5.2767064   1.4903225   6.0039473  )
        25           Ti1 tau(  25) = (   0.0000382   5.9609847   6.0000000  )
        26           Ti1 tau(  26) = (   3.2902200   4.4714249   6.0002472  )
        27           O1  tau(  27) = (   0.0002396   2.9813036   7.9858123  )
        28           O1  tau(  28) = (   3.2902150   2.9813002   7.3038282  )
        29           O1  tau(  29) = (   4.5938453   4.4726049   9.2879030  )
        30           O1  tau(  30) = (   1.9864658   4.4711199   9.2879459  )
        31           Ti1 tau(  31) = (   3.2891106   5.8743827   9.1763621  )
        32           Ti1 tau(  32) = (   0.0006254   4.4649316   9.2693709  )
        33           O1  tau(  33) = (   3.3066024   2.9928613  11.3071500  )
        34           O1  tau(  34) = (   0.0092240   2.9805883  10.6323155  )
        35           O1  tau(  35) = (   1.3207996   4.4694119  12.6241097  )
        36           O1  tau(  36) = (   5.3140488   4.4801720  12.6365454  )
        37           Ti1 tau(  37) = (   6.5381296   0.0208815  12.5444857  )
        38           Ti1 tau(  38) = (   3.2183512   4.4801350  12.4586296  )
        39           O1  tau(  39) = (   0.0202472   2.9427232  14.7250097  )
        40           O1  tau(  40) = (   3.3152672   2.9848540  13.8607131  )
        41           O1  tau(  41) = (   4.5737023   4.5140360  15.9163038  )
        42           O1  tau(  42) = (   2.1295162   4.4918226  16.0779194  )
        43           Ti1 tau(  43) = (   3.3279662   0.0229233  15.6733299  )
        44           Ti1 tau(  44) = (   6.5520288   4.5036137  16.2892914  )
        45           O1  tau(  45) = (   3.2900926   2.9813045   4.7018136  )
        46           O1  tau(  46) = (   1.3039711   4.4726057   6.0039043  )
        47           O1  tau(  47) = (   5.2763189   4.4711207   6.0039473  )
        48           N1  tau(  48) = (   0.3708600   2.9881754  17.6030774  )
        49           C1  tau(  49) = (   1.3543844   2.7351176  18.6431602  )
        50           H1  tau(  50) = (   1.5086739   3.6319226  19.2591966  )
        51           H1  tau(  51) = (   1.0420479   1.9069190  19.2840631  )
        52           H1  tau(  52) = (   2.3019873   2.4496563  18.1994378  )
        53           N1  tau(  53) = (   5.7269228   3.4566738  18.1314761  )
        54           H1  tau(  54) = (   5.8315057   4.0292447  18.9662490  )
        55           H1  tau(  55) = (   5.0361168   2.7172796  18.2515220  )

     number of k points=    10  Fermi-Dirac smearing, width (Ry)=  0.0073
                       cart. coord. in units 2pi/alat
        k(    1) = (   0.0000000   0.0000000   0.0000000), wk =   0.1250000
        k(    2) = (   0.0000000   0.0419351   0.0000000), wk =   0.2500000
        k(    3) = (   0.0000000  -0.0838702   0.0000000), wk =   0.1250000
        k(    4) = (   0.0379955   0.0000049   0.0000000), wk =   0.2500000
        k(    5) = (   0.0379955   0.0419400   0.0000000), wk =   0.2500000
        k(    6) = (   0.0379955  -0.0838652   0.0000000), wk =   0.2500000
        k(    7) = (   0.0379955  -0.0419301   0.0000000), wk =   0.2500000
        k(    8) = (  -0.0759910  -0.0000099   0.0000000), wk =   0.1250000
        k(    9) = (  -0.0759910   0.0419252   0.0000000), wk =   0.2500000
        k(   10) = (  -0.0759910  -0.0838800   0.0000000), wk =   0.1250000

     Initial potential from superposition of free atoms

     starting charge  380.99914, renormalised to  397.00000

     negative rho (up, down):  1.665E-02 0.000E+00

     %%%%%%%%%%%%%%%%%%%%%%%%%%%%%%%%%%%%%%%%%%%%%%%%%%%%%%%%%%%%%%%%%%%%%%%%
     %                                                                      %
     % You are using vdW-DF, which was implemented by the Thonhauser group. %
     % Please cite the following two papers that made this development      %
     % possible and the two reviews that describe the various versions:     %
     %                                                                      %
     %   T. Thonhauser et al., PRL 115, 136402 (2015).                      %
     %   T. Thonhauser et al., PRB 76, 125112 (2007).                       %
     %   K. Berland et al., Rep. Prog. Phys. 78, 066501 (2015).             %
     %   D.C. Langreth et al., J. Phys.: Condens. Matter 21, 084203 (2009). %
     %                                                                      %
     %                                                                      %
     % If you are calculating the stress with vdW-DF, please also cite:     %
     %                                                                      %
     %   R. Sabatini et al., J. Phys.: Condens. Matter 24, 424209 (2012).   %
     %                                                                      %
     %%%%%%%%%%%%%%%%%%%%%%%%%%%%%%%%%%%%%%%%%%%%%%%%%%%%%%%%%%%%%%%%%%%%%%%%

     Adding external electric field

     Computed dipole along edir(3) :
        Dipole               -9.2540 Ry au,        -23.5213 Debye
        Dipole field         -0.0175 Ry au,

        Potential amp.        1.6188 Ry
        Total length         46.3494 bohr

     Starting wfcs are  301 atomic wfcs
  @ DRIVER MODE: Message from server: STATUS
  @ DRIVER MODE: Message from server: POSDATA
  @ DRIVER MODE: Reading and sharing cell
  @ DRIVER MODE: Reading and sharing positions
  @ DRIVER MODE: Received positions

     Self-consistent Calculation

     iteration #  1     ecut=    29.40 Ry     beta= 0.05
     Davidson diagonalization with overlap
     c_bands:  1 eigenvalues not converged
     c_bands:  2 eigenvalues not converged
     c_bands:  1 eigenvalues not converged
     c_bands:  2 eigenvalues not converged
     c_bands:  2 eigenvalues not converged
     c_bands:  1 eigenvalues not converged
     c_bands:  2 eigenvalues not converged
     c_bands:  2 eigenvalues not converged
     c_bands:  4 eigenvalues not converged
     ethr =  1.00E-05,  avg # of iterations = 19.7

[...]

     total energy              =   -2525.58395912 Ry
     estimated scf accuracy    <    4612.71251181 Ry

     iteration #  2     ecut=    29.40 Ry     beta= 0.05
     Davidson diagonalization with overlap
     ethr =  1.00E-02,  avg # of iterations = 22.7

[...]

     iteration # 69     ecut=    29.40 Ry     beta= 0.05
     Davidson diagonalization with overlap
     c_bands:  1 eigenvalues not converged
     ethr =  1.28E-10,  avg # of iterations = 12.2

[...]

     total energy              =   -2941.63748244 Ry
     estimated scf accuracy    <       0.00000014 Ry

     iteration # 73     ecut=    29.40 Ry     beta= 0.05
     Davidson diagonalization with overlap
     ethr =  3.55E-11,  avg # of iterations =  6.5

     negative rho (up, down):  1.675E-02 0.000E+00

     Adding external electric field

     Computed dipole along edir(3) :
        Dipole                1.1507 Ry au,          2.9248 Debye
        Dipole field          0.0022 Ry au,

        Potential amp.       -0.2013 Ry
        Total length         46.3494 bohr

     End of self-consistent calculation

          k = 0.0000 0.0000 0.0000 ( 18029 PWs)   bands (ev):

   -55.5718 -55.5692 -55.5352 -55.5350 -55.4581 -55.4218 -55.4202 -55.3867
   -55.3693 -55.3353 -55.3241 -55.2903 -55.0316 -54.8875 -54.5353 -54.5013
   -32.1346 -32.0505 -31.9554 -31.8912 -31.8862 -31.8715 -31.8618 -31.8167
   -31.8097 -31.8032 -31.7827 -31.7576 -31.7538 -31.7244 -31.7215 -31.7137
   -31.6725 -31.6588 -31.6560 -31.6470 -31.6462 -31.6266 -31.6099 -31.5944
   -31.5675 -31.5666 -31.5649 -31.5570 -31.5545 -31.5280 -31.5044 -31.5035
   -31.4983 -31.4911 -31.4787 -31.4727 -31.4378 -31.3080 -31.2565 -31.1582
   -31.1404 -31.0484 -30.9417 -30.8551 -30.8326 -30.7588 -30.6724 -30.5610
   -17.5919 -16.3605 -16.0473 -15.8361 -15.7250 -15.7205 -15.6366 -15.4155
   -15.2955 -15.2800 -15.1638 -15.1589 -15.1003 -15.0595 -15.0530 -15.0474
   -15.0126 -15.0004 -14.9823 -14.9520 -14.9133 -14.8956 -14.8759 -14.7697
   -14.7079 -14.6980 -14.6819 -14.6151 -14.5712 -14.2072 -13.0373 -12.9211
   -12.5438  -9.2132  -6.3493  -5.1042  -4.1905  -3.7388  -3.5478  -3.4723
    -3.4372  -3.3737  -3.3666  -3.1815  -3.1737  -2.7957  -2.7749  -2.7557
    -2.7342  -2.7315  -2.4635  -2.4099  -2.3942  -2.3918  -2.3742  -2.3565
    -2.3352  -2.3243  -2.2961  -2.2887  -2.1543  -2.1098  -2.0309  -2.0004
    -1.9902  -1.8773  -1.8538  -1.8323  -1.8214  -1.8069  -1.7785  -1.7708
    -1.7504  -1.6416  -1.5328  -1.4594  -1.4128  -1.3599  -1.3417  -1.1610
    -1.1103  -1.0515  -1.0264  -1.0014  -0.9863  -0.9528  -0.8785  -0.8551
    -0.7125  -0.6741  -0.6216  -0.5953  -0.5646  -0.5085  -0.4737  -0.4459
    -0.3494  -0.3367  -0.3251  -0.3122  -0.2527  -0.0643  -0.0167   0.0013
     0.0169   0.1171   0.1566   0.1795   0.2162   0.2721   0.2980   0.3647
     0.3949   0.4142   0.4241   0.4483   0.4706   0.6022   0.6303   0.6598
     0.7189   0.7728   0.8495   0.9617   1.0476   1.1004   1.2018   1.4200
     1.4871   1.5711   1.6809   1.7010   2.0567   2.1017   3.5661   3.6565
     3.6949   3.7088   3.8158   3.8675   4.0150   4.0250   4.0677   4.0965

[...]

          k = 0.0380-0.0419 0.0000 ( 17876 PWs)   bands (ev):

[...]

          k =-0.0760-0.0000 0.0000 ( 17886 PWs)   bands (ev):

[...]

          k =-0.0760-0.0839 0.0000 ( 17948 PWs)   bands (ev):

   -55.5566 -55.5526 -55.5516 -55.5500 -55.4474 -55.4310 -55.4068 -55.4016
   -55.3537 -55.3505 -55.3089 -55.3057 -55.0302 -54.8889 -54.5183 -54.5182
   -31.9395 -31.9307 -31.8661 -31.8655 -31.8476 -31.8467 -31.8416 -31.8265
   -31.7996 -31.7859 -31.7664 -31.7476 -31.7196 -31.7110 -31.7058 -31.6809
   -31.6786 -31.6724 -31.6711 -31.6663 -31.6633 -31.6503 -31.6471 -31.6431
   -31.6241 -31.6119 -31.6018 -31.6000 -31.5510 -31.5490 -31.5418 -31.5400
   -31.5331 -31.5296 -31.5242 -31.5226 -31.4134 -31.3203 -31.2584 -31.2193
   -31.1461 -31.0603 -30.8454 -30.8453 -30.7546 -30.7544 -30.7157 -30.7156
   -17.5801 -15.8181 -15.7826 -15.5248 -15.5174 -15.5156 -15.4740 -15.3514
   -15.3028 -15.2761 -15.2646 -15.2458 -15.2393 -15.1345 -15.1219 -15.1047
   -15.0949 -15.0688 -15.0252 -15.0194 -15.0120 -15.0020 -14.9901 -14.9256
   -14.8706 -14.8668 -14.7585 -14.6637 -14.5213 -14.4375 -13.0232 -13.0229
   -12.5631  -9.1740  -6.3089  -5.1334  -4.1230  -3.4373  -3.1193  -3.0754
    -2.7868  -2.7676  -2.7538  -2.6374  -2.5171  -2.5085  -2.4837  -2.4603
    -2.4277  -2.4133  -2.4047  -2.3964  -2.3783  -2.3596  -2.3484  -2.3102
    -2.2407  -2.2333  -2.2245  -2.2157  -2.1993  -2.1754  -2.1654  -2.1374
    -2.1132  -2.0797  -2.0204  -1.9896  -1.8392  -1.7927  -1.7387  -1.6942
    -1.6859  -1.6568  -1.6233  -1.6157  -1.5080  -1.4935  -1.4579  -1.3282
    -1.2665  -1.2586  -1.2260  -1.1408  -1.1010  -0.9716  -0.9588  -0.9229
    -0.8688  -0.8578  -0.8209  -0.7834  -0.7309  -0.6793  -0.6353  -0.6111
    -0.5952  -0.5228  -0.5220  -0.4758  -0.4183  -0.3496  -0.3250  -0.3174
    -0.2861  -0.2418  -0.1961  -0.1311  -0.0564  -0.0356  -0.0206   0.0773
     0.1534   0.3696   0.4150   0.5167   0.5364   0.5619   0.6247   0.6735
     0.7431   0.7571   0.7864   0.8603   0.8823   0.9733   0.9838   1.0003
     1.1789   1.6322   1.8526   1.8535   1.9213   1.9219   3.8604   3.8740
     3.9001   3.9242   4.0855   4.0893   4.1014   4.1041   4.2244   4.2572

     the Fermi energy is     3.5650 ev

!    total energy              =   -2941.63749392 Ry
     estimated scf accuracy    <       0.00000007 Ry
     smearing contrib. (-TS)   =      -0.02170439 Ry
     internal energy E=F+TS    =   -2941.61578953 Ry

     The total energy is F=E-TS. E is the sum of the following terms:
     one-electron contribution =  -24405.31090714 Ry
     hartree contribution      =   12294.61166219 Ry
     xc contribution           =    -486.94653593 Ry
     ewald contribution        =    9656.02749260 Ry
     electric field correction =       0.00249875 Ry

     convergence has been achieved in  73 iterations

     Forces acting on atoms (cartesian axes, Ry/au):

     atom    1 type  1   force =     0.00002329   -0.00018649    0.09681547
     atom    2 type  1   force =     0.00010655   -0.00067055   -0.17456755
     atom    3 type  2   force =     0.00020129   -0.00005459   -0.02508351
     atom    4 type  2   force =     0.00001471   -0.00122298    0.05107140
     atom    5 type  2   force =    -0.01106786   -0.00078814    0.00213277
     atom    6 type  2   force =     0.01302108   -0.00028793    0.00280954
     atom    7 type  1   force =     0.00113565    0.00019846   -0.01336433
     atom    8 type  1   force =    -0.00018679    0.01540674    0.02796705
     atom    9 type  2   force =    -0.00011367    0.00045089    0.00001271
     atom   10 type  2   force =    -0.00221533    0.00097475   -0.01126223
     atom   11 type  2   force =     0.00028709   -0.00011406    0.00017639
     atom   12 type  2   force =    -0.00026800   -0.00011975    0.00040352
     atom   13 type  1   force =    -0.00008211   -0.00027539    0.00009781
     atom   14 type  1   force =     0.00012473    0.00012925   -0.00004988
     atom   15 type  2   force =     0.00009729   -0.00056159   -0.00031874
     atom   16 type  2   force =    -0.00043996    0.00016835    0.00028042
     atom   17 type  2   force =    -0.00017817   -0.00004230   -0.00008916
     atom   18 type  2   force =    -0.00039742   -0.00004199    0.00016481
     atom   19 type  1   force =    -0.00004268    0.00037292   -0.00019750
     atom   20 type  1   force =    -0.00032344    0.00000653    0.00021117
     atom   21 type  2   force =     0.00004935   -0.00009703    0.10297089
     atom   22 type  2   force =    -0.00074033   -0.00039960    0.00038963
     atom   23 type  2   force =    -0.07181043   -0.00021994   -0.02779030
     atom   24 type  2   force =     0.07177850    0.00023325   -0.02784811
     atom   25 type  1   force =     0.00004888   -0.00023051    0.09636182
     atom   26 type  1   force =    -0.00001308   -0.00030888   -0.17483391
     atom   27 type  2   force =     0.00020373   -0.00025350   -0.02392699
     atom   28 type  2   force =     0.00007538   -0.00096234    0.05129832
     atom   29 type  2   force =    -0.01106524    0.00095627    0.00149604
     atom   30 type  2   force =     0.01287050    0.00119991    0.00212784
     atom   31 type  1   force =     0.00115134    0.00257277   -0.01567300
     atom   32 type  1   force =    -0.00002151   -0.01667814    0.02888295
     atom   33 type  2   force =    -0.00017692   -0.00045354    0.00043890
     atom   34 type  2   force =    -0.00258285    0.00114770   -0.01890335
     atom   35 type  2   force =    -0.00011573   -0.00011084    0.00004467
     atom   36 type  2   force =    -0.00003660   -0.00018827    0.00023407
     atom   37 type  1   force =    -0.00024661   -0.00016548    0.00047835
     atom   38 type  1   force =     0.00010473   -0.00053760    0.00035006
     atom   39 type  2   force =     0.00005444    0.00046768    0.00021815
     atom   40 type  2   force =    -0.00031844   -0.00013008   -0.00070368
     atom   41 type  2   force =     0.00019236    0.00001819    0.00004371
     atom   42 type  2   force =    -0.00018409    0.00021844    0.00017221
     atom   43 type  1   force =     0.00004421   -0.00047084   -0.00078646
     atom   44 type  1   force =    -0.00049677    0.00133830   -0.00024472
     atom   45 type  2   force =     0.00006130   -0.00011315    0.10297138
     atom   46 type  2   force =    -0.07182505   -0.00016863   -0.02780620
     atom   47 type  2   force =     0.07178402    0.00021699   -0.02785394
     atom   48 type  3   force =    -0.00026893   -0.00197626    0.00073614
     atom   49 type  4   force =     0.00279479    0.00318773   -0.00135852
     atom   50 type  5   force =     0.00010768   -0.00005670    0.00026825
     atom   51 type  5   force =    -0.00373094   -0.00303694    0.00157196
     atom   52 type  5   force =     0.00169355    0.00051568   -0.00056336
     atom   53 type  3   force =     0.00024219    0.00046867    0.00065095
     atom   54 type  5   force =     0.00063860   -0.00022791    0.00111961
     atom   55 type  5   force =     0.00004171    0.00090246   -0.00174349

     Total force =     0.367154     Total SCF correction =     0.000599
  @ DRIVER MODE: Message from server: STATUS
  @ DRIVER MODE: Message from server: GETFORCE
  @ DRIVER MODE: Returning v,forces,stress,ensemble

     Writing output data file ./calc.save/
  @ DRIVER MODE: Message from server: EXIT
  @ DRIVE MODE: Exiting

     General routines

     Parallel routines

   This run was terminated on:  18:54:15   2Aug2021

   JOB DONE.