     Program PWSCF v.6.7GPU starts on 16Sep2021 at  7:22:51

     R & G space division:  proc/nbgrp/npool/nimage =      10
     Reading input from /storage/home/hcoda1/3/ntian30/research/carbon/CxH_vib/H2O_calc/ads_slab/CH3NH2NHH2O_c/out_0044/pw.inp
Warning: card &CELL ignored
Warning: card   CELL_DYNAMICS='IPI', ignored
Warning: card / ignored

     Current dimensions of program PWSCF are:
     Max number of different atomic species (ntypx) = 10
     Max number of k-points (npk) =  40000
     Max angular momentum in pseudopotentials (lmaxx) =  3
     Presently no symmetry can be used with electric field

     Message from routine cell_base_init:
     DEPRECATED: use true lattice parameter, not A to a.u. conversion factor

     IMPORTANT: XC functional enforced from input :
     Exchange-correlation= BEEF-VDW
                           (   1   4  43  14   2   0   0)
     Any further DFT definition will be discarded
     Please, verify this is what you really want

  @ DRIVER MODE: Connecting to
 qe_1139763_2852614.sched-torque.pace.gatech.eduqnporaff_scratch
  using UNIX socket
  @ DRIVER MODE: Message from server: STATUS
  @ DRIVER MODE: Message from server: INIT
  @ DRIVER MODE: Receiving replica           0          -1
  @ DRIVER MODE: Receiving encoded integer          25
  @ DRIVER MODE:  SCF:  T  FORCE:  T  STRESS:  F  VC:  F  ENSEMBLE:  F
  @ DRIVER MODE:  SCF:  T  FORCE:  T  STRESS:  F  VC:  F  ENSEMBLE:  F

     Using Slab Decomposition

     bravais-lattice index     =            0
     lattice parameter (alat)  =       1.8897  a.u.
     unit-cell volume          =    6658.9804 (a.u.)^3
     number of atoms/cell      =           59
     number of atomic types    =            5
     number of electrons       =       406.00
     number of Kohn-Sham states=          213
     kinetic-energy cutoff     =      29.3995  Ry
     charge density cutoff     =     293.9946  Ry
     scf convergence threshold =      7.3E-08
     mixing beta               =       0.0500
     number of iterations used =            8  plain     mixing
     Exchange-correlation= BEEF-VDW
                           (   1   4  43  14   2   0   0)

     celldm(1)=   1.889726  celldm(2)=   0.000000  celldm(3)=   0.000000
     celldm(4)=   0.000000  celldm(5)=   0.000000  celldm(6)=   0.000000

     crystal axes: (cart. coord. in units of alat)
               a(1) = (   6.579727   0.000000   0.000000 )
               a(2) = (  -0.000775   5.961596   0.000000 )
               a(3) = (   0.000000   0.000000  25.155947 )

     reciprocal axes: (cart. coord. in units 2 pi/alat)
               b(1) = (  0.151982  0.000020  0.000000 )
               b(2) = (  0.000000  0.167740  0.000000 )
               b(3) = (  0.000000  0.000000  0.039752 )

     PseudoPot. # 1 for Ti read from file:
     /storage/coda1/p-amedford6/0/shared/rich_project_chbe-medford/medford-share/data/pseudos_module/espresso/nninc/pbe/van/Ti.UPF
     MD5 check sum: 8e4df49b7f0d34bbd5052bf3f5ea0213
     Pseudo is Ultrasoft, Zval = 12.0
     Generated by new atomic code, or converted to UPF format
     Using radial grid of  851 points,  6 beta functions with:
                l(1) =   0
                l(2) =   0
                l(3) =   1
                l(4) =   1
                l(5) =   2
                l(6) =   2
     Q(r) pseudized with  8 coefficients,  rinner =    1.000   1.000   1.000
                                                       1.000   1.000

     PseudoPot. # 2 for O  read from file:
     /storage/coda1/p-amedford6/0/shared/rich_project_chbe-medford/medford-share/data/pseudos_module/espresso/nninc/pbe/van/O.UPF
     MD5 check sum: 78c19812648e8988a0fe644b0f25305e
     Pseudo is Ultrasoft, Zval =  6.0
     Generated by new atomic code, or converted to UPF format
     Using radial grid of  737 points,  4 beta functions with:
                l(1) =   0
                l(2) =   0
                l(3) =   1
                l(4) =   1
     Q(r) pseudized with  8 coefficients,  rinner =    0.800   0.800   0.800

     PseudoPot. # 3 for N  read from file:
     /storage/coda1/p-amedford6/0/shared/rich_project_chbe-medford/medford-share/data/pseudos_module/espresso/nninc/pbe/van/N.UPF
     MD5 check sum: 90d10febe142ad51ac9d5be1deb811c4
     Pseudo is Ultrasoft, Zval =  5.0
     Generated by new atomic code, or converted to UPF format
     Using radial grid of  729 points,  4 beta functions with:
                l(1) =   0
                l(2) =   0
                l(3) =   1
                l(4) =   1
     Q(r) pseudized with  8 coefficients,  rinner =    0.800   0.800   0.800

     PseudoPot. # 4 for C  read from file:
     /storage/coda1/p-amedford6/0/shared/rich_project_chbe-medford/medford-share/data/pseudos_module/espresso/nninc/pbe/van/C.UPF
     MD5 check sum: 1a69bf6b8db32088f5b2163dbdb77a27
     Pseudo is Ultrasoft, Zval =  4.0
     Generated by new atomic code, or converted to UPF format
     Using radial grid of  721 points,  4 beta functions with:
                l(1) =   0
                l(2) =   0
                l(3) =   1
                l(4) =   1
     Q(r) pseudized with  8 coefficients,  rinner =    0.800   0.800   0.800

     PseudoPot. # 5 for H  read from file:
     /storage/coda1/p-amedford6/0/shared/rich_project_chbe-medford/medford-share/data/pseudos_module/espresso/nninc/pbe/van/H.UPF
     MD5 check sum: b5ee9d7bfd3a09ee7748110bda690ff7
     Pseudo is Ultrasoft, Zval =  1.0
     Generated by new atomic code, or converted to UPF format
     Using radial grid of  615 points,  1 beta functions with:
                l(1) =   0
     Q(r) pseudized with  8 coefficients,  rinner =    0.800

     atomic species   valence    mass     pseudopotential
        Ti1           12.00    47.86700     Ti( 1.00)
        O1             6.00    15.99900     O ( 1.00)
        N1             5.00    14.00700     N ( 1.00)
        C1             4.00    12.01100     C ( 1.00)
        H1             1.00     1.00800     H ( 1.00)

     No symmetry found

   Cartesian axes

     site n.     atom                  positions (alat units)
         1           Ti1 tau(   1) = (   0.0004258   2.9801865   6.0000000  )
         2           Ti1 tau(   2) = (   3.2906075   1.4906267   6.0002472  )
         3           O1  tau(   3) = (   0.0006271   0.0005054   7.9858123  )
         4           O1  tau(   4) = (   3.2906025   0.0005020   7.3038282  )
         5           O1  tau(   5) = (   4.5942328   1.4918067   9.2879030  )
         6           O1  tau(   6) = (   1.9868534   1.4903216   9.2879459  )
         7           Ti1 tau(   7) = (   3.2907910   2.8959150   9.1758416  )
         8           Ti1 tau(   8) = (   0.0015273   1.4827037   9.2680791  )
         9           O1  tau(   9) = (   3.2795193   0.0050042  11.3600746  )
        10           O1  tau(  10) = (   0.0116148   5.9584955  10.6183126  )
        11           O1  tau(  11) = (   1.2764768   1.4833402  12.6625751  )
        12           O1  tau(  12) = (   5.2691860   1.4824858  12.6730715  )
        13           Ti1 tau(  13) = (   6.5785005   2.9712200  12.5432933  )
        14           Ti1 tau(  14) = (   3.2815129   1.4861921  12.5133659  )
        15           O1  tau(  15) = (   0.0084525   5.9333602  14.7514412  )
        16           O1  tau(  16) = (   3.2474592   5.9449689  14.0025778  )
        17           O1  tau(  17) = (   4.5272503   1.5270814  16.0535473  )
        18           O1  tau(  18) = (   2.0088677   1.5398698  16.1918835  )
        19           Ti1 tau(  19) = (   3.2695027   3.0127370  15.7044713  )
        20           Ti1 tau(  20) = (   6.4897317   1.5391078  15.7731133  )
        21           O1  tau(  21) = (   3.2904802   0.0005063   4.7018136  )
        22           O1  tau(  22) = (   6.4943121   0.0104379  17.3746616  )
        23           O1  tau(  23) = (   1.3043587   1.4918075   6.0039043  )
        24           O1  tau(  24) = (   5.2767064   1.4903225   6.0039473  )
        25           Ti1 tau(  25) = (   0.0000382   5.9609847   6.0000000  )
        26           Ti1 tau(  26) = (   3.2902200   4.4714249   6.0002472  )
        27           O1  tau(  27) = (   0.0002396   2.9813036   7.9858123  )
        28           O1  tau(  28) = (   3.2902150   2.9813002   7.3038282  )
        29           O1  tau(  29) = (   4.5938453   4.4726049   9.2879030  )
        30           O1  tau(  30) = (   1.9864658   4.4711199   9.2879459  )
        31           Ti1 tau(  31) = (   3.2891106   5.8743827   9.1763621  )
        32           Ti1 tau(  32) = (   0.0006254   4.4649316   9.2693709  )
        33           O1  tau(  33) = (   3.2806081   2.9711243  11.3509633  )
        34           O1  tau(  34) = (   0.0092240   2.9805883  10.6323155  )
        35           O1  tau(  35) = (   1.2760424   4.4718827  12.6381679  )
        36           O1  tau(  36) = (   5.2690016   4.4731519  12.6446470  )
        37           Ti1 tau(  37) = (   6.5708669   5.9382087  12.5160675  )
        38           Ti1 tau(  38) = (   3.2845625   4.4656782  12.4980923  )
        39           O1  tau(  39) = (   6.5779858   3.0049062  14.7590937  )
        40           O1  tau(  40) = (   3.2501146   3.0001303  13.9242794  )
        41           O1  tau(  41) = (   4.5300198   4.4412671  16.1793791  )
        42           O1  tau(  42) = (   2.0030354   4.4482434  16.2507355  )
        43           Ti1 tau(  43) = (   3.2558399   0.0045369  15.7947069  )
        44           Ti1 tau(  44) = (   0.0024851   4.6597080  16.1671864  )
        45           O1  tau(  45) = (   3.2900926   2.9813045   4.7018136  )
        46           O1  tau(  46) = (   1.3039711   4.4726057   6.0039043  )
        47           O1  tau(  47) = (   5.2763189   4.4711207   6.0039473  )
        48           N1  tau(  48) = (   0.8610865   2.3037131  18.4629187  )
        49           N1  tau(  49) = (   6.4642385   2.8627238  17.5618644  )
        50           C1  tau(  50) = (   1.1134797   3.0572184  19.7121060  )
        51           H1  tau(  51) = (   0.2160447   3.0254214  20.3281890  )
        52           H1  tau(  52) = (   1.9467850   2.5864873  20.2353232  )
        53           H1  tau(  53) = (   1.3463996   4.0866186  19.4485780  )
        54           H1  tau(  54) = (   0.5832711   1.3114681  18.6183785  )
        55           H1  tau(  55) = (   5.5743591   2.7461405  18.0238738  )
        56           H1  tau(  56) = (   1.7079168   2.1891883  17.8702682  )
        57           O1  tau(  57) = (   4.0734316   0.3075885  18.7765601  )
        58           H1  tau(  58) = (   4.9241673   0.1787741  18.2816895  )
        59           H1  tau(  59) = (   3.8734322   5.3936830  19.1372508  )

     number of k points=    10  Fermi-Dirac smearing, width (Ry)=  0.0073
                       cart. coord. in units 2pi/alat
        k(    1) = (   0.0000000   0.0000000   0.0000000), wk =   0.1250000
        k(    2) = (   0.0000000   0.0419351   0.0000000), wk =   0.2500000
        k(    3) = (   0.0000000  -0.0838702   0.0000000), wk =   0.1250000
        k(    4) = (   0.0379955   0.0000049   0.0000000), wk =   0.2500000
        k(    5) = (   0.0379955   0.0419400   0.0000000), wk =   0.2500000
        k(    6) = (   0.0379955  -0.0838652   0.0000000), wk =   0.2500000
        k(    7) = (   0.0379955  -0.0419301   0.0000000), wk =   0.2500000
        k(    8) = (  -0.0759910  -0.0000099   0.0000000), wk =   0.1250000
        k(    9) = (  -0.0759910   0.0419252   0.0000000), wk =   0.2500000
        k(   10) = (  -0.0759910  -0.0838800   0.0000000), wk =   0.1250000

     Initial potential from superposition of free atoms

     starting charge  389.99912, renormalised to  406.00000

     negative rho (up, down):  1.392E-02 0.000E+00

     %%%%%%%%%%%%%%%%%%%%%%%%%%%%%%%%%%%%%%%%%%%%%%%%%%%%%%%%%%%%%%%%%%%%%%%%
     %                                                                      %
     % You are using vdW-DF, which was implemented by the Thonhauser group. %
     % Please cite the following two papers that made this development      %
     % possible and the two reviews that describe the various versions:     %
     %                                                                      %
     %   T. Thonhauser et al., PRL 115, 136402 (2015).                      %
     %   T. Thonhauser et al., PRB 76, 125112 (2007).                       %
     %   K. Berland et al., Rep. Prog. Phys. 78, 066501 (2015).             %
     %   D.C. Langreth et al., J. Phys.: Condens. Matter 21, 084203 (2009). %
     %                                                                      %
     %                                                                      %
     % If you are calculating the stress with vdW-DF, please also cite:     %
     %                                                                      %
     %   R. Sabatini et al., J. Phys.: Condens. Matter 24, 424209 (2012).   %
     %                                                                      %
     %%%%%%%%%%%%%%%%%%%%%%%%%%%%%%%%%%%%%%%%%%%%%%%%%%%%%%%%%%%%%%%%%%%%%%%%

     Adding external electric field

     Computed dipole along edir(3) :
        Dipole              -15.6809 Ry au,        -39.8568 Debye
        Dipole field         -0.0296 Ry au,

        Potential amp.        2.7431 Ry
        Total length         46.3494 bohr

     Starting wfcs are  308 atomic wfcs
  @ DRIVER MODE: Message from server: STATUS
  @ DRIVER MODE: Message from server: POSDATA
  @ DRIVER MODE: Reading and sharing cell
  @ DRIVER MODE: Reading and sharing positions
  @ DRIVER MODE: Received positions

     Self-consistent Calculation

     iteration #  1     ecut=    29.40 Ry     beta= 0.05
     Davidson diagonalization with overlap
     c_bands:  2 eigenvalues not converged
     c_bands:  5 eigenvalues not converged
     c_bands:  2 eigenvalues not converged
     c_bands:  4 eigenvalues not converged
     c_bands:  4 eigenvalues not converged
     c_bands:  5 eigenvalues not converged
     c_bands:  5 eigenvalues not converged
     c_bands:  1 eigenvalues not converged
     ethr =  1.00E-05,  avg # of iterations = 22.5

[...]

     total energy              =   -2140.10407166 Ry
     estimated scf accuracy    <    9575.52775171 Ry

     iteration #  2     ecut=    29.40 Ry     beta= 0.05
     Davidson diagonalization with overlap
     ethr =  1.00E-02,  avg # of iterations = 31.8

[...]

     iteration # 65     ecut=    29.40 Ry     beta= 0.05
     Davidson diagonalization with overlap
     ethr =  6.04E-11,  avg # of iterations =  7.9

[...]

     total energy              =   -2977.68480209 Ry
     estimated scf accuracy    <       0.00000014 Ry

     iteration # 66     ecut=    29.40 Ry     beta= 0.05
     Davidson diagonalization with overlap
     c_bands:  1 eigenvalues not converged
     ethr =  3.34E-11,  avg # of iterations = 10.6

     negative rho (up, down):  1.242E-02 0.000E+00

     Adding external electric field

     Computed dipole along edir(3) :
        Dipole                1.6073 Ry au,          4.0853 Debye
        Dipole field          0.0030 Ry au,

        Potential amp.       -0.2812 Ry
        Total length         46.3494 bohr

     End of self-consistent calculation

          k = 0.0000 0.0000 0.0000 ( 18029 PWs)   bands (ev):

   -54.9541 -54.9177 -54.9148 -54.8836 -54.8440 -54.8340 -54.7938 -54.7622
   -54.7582 -54.7470 -54.7270 -54.7217 -54.7137 -54.6604 -53.9328 -53.8987
   -31.5261 -31.4078 -31.3205 -31.2818 -31.2655 -31.2516 -31.2492 -31.2439
   -31.2094 -31.2075 -31.1630 -31.1626 -31.1570 -31.1269 -31.1082 -31.0883
   -31.0780 -31.0721 -31.0708 -31.0634 -31.0294 -31.0250 -31.0187 -31.0125
   -30.9926 -30.9747 -30.9640 -30.9631 -30.9559 -30.9556 -30.9452 -30.9366
   -30.9208 -30.9201 -30.9115 -30.9105 -30.8847 -30.8777 -30.8758 -30.8753
   -30.8563 -30.8558 -30.3416 -30.2491 -30.2269 -30.1580 -30.0713 -29.9604
   -18.9689 -18.2090 -15.7893 -15.5215 -15.3963 -15.1962 -15.1429 -15.0381
   -14.8782 -14.8177 -14.7525 -14.7276 -14.7219 -14.6949 -14.6223 -14.5669
   -14.5382 -14.4854 -14.4848 -14.4488 -14.4415 -14.4369 -14.3822 -14.3782
   -14.3417 -14.3280 -14.3204 -14.1774 -14.0986 -14.0516 -14.0400 -13.2237
   -12.4356 -12.3185 -10.9959  -7.5911  -6.3993  -5.9735  -5.7699  -4.0131
    -3.8464  -3.1333  -2.9639  -2.9513  -2.8727  -2.8491  -2.6786  -2.6183
    -2.5103  -2.3995  -2.3184  -2.2206  -2.1767  -2.1589  -2.1448  -2.0324
    -1.9458  -1.9083  -1.8697  -1.8305  -1.8135  -1.7681  -1.7468  -1.7369
    -1.7041  -1.6790  -1.5257  -1.4524  -1.4159  -1.3817  -1.3405  -1.2834
    -1.2625  -1.2453  -1.2398  -1.2319  -1.2156  -1.1911  -1.1557  -1.1236
    -1.0559  -0.9715  -0.9620  -0.8506  -0.7665  -0.6340  -0.5806  -0.5229
    -0.4924  -0.4259  -0.3849  -0.3365  -0.3008  -0.2943  -0.2484  -0.1604
    -0.1483  -0.0899  -0.0716   0.0133   0.0588   0.0651   0.0764   0.2528
     0.2632   0.2809   0.3837   0.4649   0.5036   0.5203   0.5776   0.6402
     0.6425   0.6808   0.7028   0.7334   0.8164   0.9200   0.9450   0.9833
     0.9978   1.0231   1.0401   1.0671   1.1063   1.1877   1.1938   1.2708
     1.3615   1.3739   1.6374   1.6695   2.0003   2.0273   2.0896   2.2753
     2.6641   2.7115   4.1478   4.2098   4.2550   4.2806   4.2988   4.3801
     4.3993   4.6157   4.6419   4.6430   4.6522

[...]

          k = 0.0380-0.0419 0.0000 ( 17876 PWs)   bands (ev):

[...]

          k =-0.0760-0.0000 0.0000 ( 17886 PWs)   bands (ev):

[...]

          k =-0.0760-0.0839 0.0000 ( 17948 PWs)   bands (ev):

   -54.9422 -54.9265 -54.9006 -54.9005 -54.8415 -54.8244 -54.8034 -54.7557
   -54.7469 -54.7413 -54.7322 -54.7292 -54.7240 -54.6628 -53.9158 -53.9156
   -31.3348 -31.3234 -31.2576 -31.2230 -31.2230 -31.2164 -31.1930 -31.1928
   -31.1683 -31.1654 -31.1563 -31.1526 -31.1445 -31.0946 -31.0810 -31.0803
   -31.0760 -31.0748 -31.0717 -31.0689 -31.0420 -31.0317 -31.0294 -31.0229
   -31.0220 -31.0201 -31.0200 -31.0189 -30.9979 -30.9804 -30.9743 -30.9679
   -30.9611 -30.9554 -30.9540 -30.9500 -30.9498 -30.9230 -30.9156 -30.9125
   -30.9079 -30.8980 -30.2397 -30.2395 -30.1542 -30.1540 -30.1147 -30.1146
   -18.9640 -18.2095 -15.2800 -15.1531 -15.0545 -14.9986 -14.9518 -14.9361
   -14.9186 -14.8653 -14.8351 -14.7754 -14.7517 -14.7033 -14.6592 -14.6552
   -14.6277 -14.5481 -14.5327 -14.5204 -14.5129 -14.4618 -14.4479 -14.4251
   -14.4024 -14.3984 -14.3799 -14.3078 -14.2977 -14.2935 -14.2550 -13.2332
   -12.4201 -12.4199 -10.9964  -7.6021  -6.3897  -5.9728  -5.7549  -3.9911
    -3.8408  -2.5619  -2.5402  -2.4078  -2.4004  -2.2797  -2.1874  -2.1376
    -2.1314  -1.9926  -1.9598  -1.9439  -1.9285  -1.9163  -1.8676  -1.8445
    -1.8083  -1.7912  -1.7812  -1.7714  -1.7557  -1.7352  -1.6831  -1.6795
    -1.6684  -1.6540  -1.6100  -1.5944  -1.5634  -1.5526  -1.5244  -1.5017
    -1.4351  -1.3404  -1.2928  -1.2497  -1.1955  -1.1423  -1.1363  -1.0578
    -1.0399  -1.0083  -0.9774  -0.9527  -0.8570  -0.7835  -0.6889  -0.6867
    -0.6827  -0.5633  -0.5232  -0.5056  -0.4932  -0.4630  -0.3784  -0.3681
    -0.3085  -0.2341  -0.2082  -0.2030  -0.1775  -0.0578  -0.0329   0.0278
     0.0582   0.0906   0.0928   0.1716   0.1849   0.2438   0.2588   0.2722
     0.3172   0.3348   0.4330   0.5230   0.5582   0.6617   0.7542   0.7837
     0.8790   0.9367   1.0406   1.0615   1.0855   1.1818   1.1899   1.2252
     1.3544   1.3612   1.4772   1.5170   1.5269   1.5295   2.4477   2.4491
     2.5316   2.5317   4.2741   4.3971   4.4126   4.4588   4.5140   4.6545
     4.6781   4.7251   4.7268   4.8009   4.8093

     the Fermi energy is     4.2000 ev

!    total energy              =   -2977.68483186 Ry
     estimated scf accuracy    <       0.00000005 Ry
     smearing contrib. (-TS)   =      -0.03700323 Ry
     internal energy E=F+TS    =   -2977.64782863 Ry

     The total energy is F=E-TS. E is the sum of the following terms:
     one-electron contribution =  -23305.83844837 Ry
     hartree contribution      =   11753.91047008 Ry
     xc contribution           =    -496.61571298 Ry
     ewald contribution        =    9070.89098752 Ry
     electric field correction =       0.00487511 Ry

     convergence has been achieved in  66 iterations

     Forces acting on atoms (cartesian axes, Ry/au):

     atom    1 type  1   force =     0.00008536   -0.00025321    0.09412983
     atom    2 type  1   force =    -0.00008524   -0.00045574   -0.17746367
     atom    3 type  2   force =     0.00006213   -0.00032956   -0.02123452
     atom    4 type  2   force =     0.00003774   -0.00179231    0.05728223
     atom    5 type  2   force =    -0.01080181   -0.00101824    0.00667921
     atom    6 type  2   force =     0.01200039   -0.00033236    0.00503188
     atom    7 type  1   force =    -0.00060397    0.00105696   -0.01459677
     atom    8 type  1   force =     0.00086544    0.00331050    0.00460676
     atom    9 type  2   force =     0.00000961   -0.00005316    0.00012913
     atom   10 type  2   force =    -0.00368717    0.00210944   -0.00164917
     atom   11 type  2   force =    -0.00016860    0.00061688   -0.00009895
     atom   12 type  2   force =     0.00018500    0.00028452   -0.00021490
     atom   13 type  1   force =    -0.00019459   -0.00027014    0.00008474
     atom   14 type  1   force =     0.00024956   -0.00022243   -0.00037910
     atom   15 type  2   force =     0.00020215    0.00038095   -0.00009584
     atom   16 type  2   force =    -0.00012042    0.00025373   -0.00021857
     atom   17 type  2   force =    -0.00000150   -0.00026711    0.00036178
     atom   18 type  2   force =     0.00014707    0.00003743   -0.00003134
     atom   19 type  1   force =     0.00003083    0.00020983   -0.00035002
     atom   20 type  1   force =     0.00039494   -0.00005113   -0.00011175
     atom   21 type  2   force =     0.00011914   -0.00008347    0.10377554
     atom   22 type  2   force =     0.00055890   -0.00029289   -0.00066249
     atom   23 type  2   force =    -0.07068946   -0.00014782   -0.02713273
     atom   24 type  2   force =     0.07065487    0.00032680   -0.02713785
     atom   25 type  1   force =     0.00010981   -0.00017145    0.09374808
     atom   26 type  1   force =    -0.00006600   -0.00053321   -0.17769115
     atom   27 type  2   force =     0.00006921   -0.00005218   -0.02034136
     atom   28 type  2   force =     0.00006656   -0.00145976    0.05628247
     atom   29 type  2   force =    -0.01130775   -0.00039270    0.00736008
     atom   30 type  2   force =     0.01242179    0.00000495    0.00574916
     atom   31 type  1   force =    -0.00074600    0.00573950   -0.01563135
     atom   32 type  1   force =     0.00081902   -0.00459525    0.00434938
     atom   33 type  2   force =     0.00002178    0.00015316    0.00028428
     atom   34 type  2   force =    -0.00321159   -0.00103094   -0.00520075
     atom   35 type  2   force =    -0.00010817   -0.00039424    0.00007706
     atom   36 type  2   force =     0.00020711   -0.00006495   -0.00009695
     atom   37 type  1   force =    -0.00012440    0.00044135   -0.00013715
     atom   38 type  1   force =     0.00008728    0.00015608   -0.00013609
     atom   39 type  2   force =    -0.00045032   -0.00032471   -0.00014873
     atom   40 type  2   force =     0.00012791   -0.00008484    0.00026246
     atom   41 type  2   force =    -0.00000164    0.00021778   -0.00014650
     atom   42 type  2   force =     0.00043603    0.00009440   -0.00028349
     atom   43 type  1   force =    -0.00016148   -0.00001320   -0.00006361
     atom   44 type  1   force =     0.00034907    0.00036593    0.00026580
     atom   45 type  2   force =     0.00010645   -0.00006361    0.10376709
     atom   46 type  2   force =    -0.07068326   -0.00007629   -0.02711399
     atom   47 type  2   force =     0.07066147    0.00033121   -0.02713796
     atom   48 type  3   force =     0.00167577   -0.00072709    0.00064342
     atom   49 type  3   force =     0.01200230    0.00074303   -0.00479391
     atom   50 type  4   force =     0.00032884    0.00039693   -0.00026440
     atom   51 type  5   force =     0.00062676    0.00080286   -0.00026223
     atom   52 type  5   force =    -0.00010677    0.00033420    0.00021590
     atom   53 type  5   force =     0.00014637   -0.00053582   -0.00049214
     atom   54 type  5   force =     0.00040364   -0.00010113    0.00017976
     atom   55 type  5   force =    -0.01309831   -0.00175898    0.00542863
     atom   56 type  5   force =     0.00025105   -0.00021275    0.00056104
     atom   57 type  2   force =    -0.00081530    0.00079335    0.00147706
     atom   58 type  5   force =     0.00032058   -0.00062820   -0.00105084
     atom   59 type  5   force =     0.00039182   -0.00037090   -0.00036250

     Total force =     0.366348     Total SCF correction =     0.000593
  @ DRIVER MODE: Message from server: STATUS
  @ DRIVER MODE: Message from server: GETFORCE
  @ DRIVER MODE: Returning v,forces,stress,ensemble

     Writing output data file ./calc.save/
  @ DRIVER MODE: Message from server: EXIT
  @ DRIVE MODE: Exiting

     General routines

     Parallel routines

   This run was terminated on:   7:41:51  16Sep2021

   JOB DONE.