     Program PWSCF v.6.7GPU starts on 15Sep2021 at 18:30:12

     R & G space division:  proc/nbgrp/npool/nimage =      10
     Reading input from /storage/home/hcoda1/3/ntian30/research/carbon/CxH_vib/H2O_calc/ads_slab/CH3NH2O_a/out_0010/pw.inp
Warning: card &CELL ignored
Warning: card   CELL_DYNAMICS='IPI', ignored
Warning: card / ignored

     Current dimensions of program PWSCF are:
     Max number of different atomic species (ntypx) = 10
     Max number of k-points (npk) =  40000
     Max angular momentum in pseudopotentials (lmaxx) =  3
     Presently no symmetry can be used with electric field

     Message from routine cell_base_init:
     DEPRECATED: use true lattice parameter, not A to a.u. conversion factor

     IMPORTANT: XC functional enforced from input :
     Exchange-correlation= BEEF-VDW
                           (   1   4  43  14   2   0   0)
     Any further DFT definition will be discarded
     Please, verify this is what you really want

  @ DRIVER MODE: Connecting to
 qe_1139763_2852618.sched-torque.pace.gatech.edup54u53kq_scratch
  using UNIX socket
  @ DRIVER MODE: Message from server: STATUS
  @ DRIVER MODE: Message from server: INIT
  @ DRIVER MODE: Receiving replica           0          -1
  @ DRIVER MODE: Receiving encoded integer          25
  @ DRIVER MODE:  SCF:  T  FORCE:  T  STRESS:  F  VC:  F  ENSEMBLE:  F
  @ DRIVER MODE:  SCF:  T  FORCE:  T  STRESS:  F  VC:  F  ENSEMBLE:  F

     Using Slab Decomposition

     bravais-lattice index     =            0
     lattice parameter (alat)  =       1.8897  a.u.
     unit-cell volume          =    6658.9804 (a.u.)^3
     number of atoms/cell      =           55
     number of atomic types    =            5
     number of electrons       =       398.00
     number of Kohn-Sham states=          209
     kinetic-energy cutoff     =      29.3995  Ry
     charge density cutoff     =     293.9946  Ry
     scf convergence threshold =      7.3E-08
     mixing beta               =       0.0500
     number of iterations used =            8  plain     mixing
     Exchange-correlation= BEEF-VDW
                           (   1   4  43  14   2   0   0)

     celldm(1)=   1.889726  celldm(2)=   0.000000  celldm(3)=   0.000000
     celldm(4)=   0.000000  celldm(5)=   0.000000  celldm(6)=   0.000000

     crystal axes: (cart. coord. in units of alat)
               a(1) = (   6.579727   0.000000   0.000000 )
               a(2) = (  -0.000775   5.961596   0.000000 )
               a(3) = (   0.000000   0.000000  25.155947 )

     reciprocal axes: (cart. coord. in units 2 pi/alat)
               b(1) = (  0.151982  0.000020  0.000000 )
               b(2) = (  0.000000  0.167740  0.000000 )
               b(3) = (  0.000000  0.000000  0.039752 )

     PseudoPot. # 1 for Ti read from file:
     /storage/coda1/p-amedford6/0/shared/rich_project_chbe-medford/medford-share/data/pseudos_module/espresso/nninc/pbe/van/Ti.UPF
     MD5 check sum: 8e4df49b7f0d34bbd5052bf3f5ea0213
     Pseudo is Ultrasoft, Zval = 12.0
     Generated by new atomic code, or converted to UPF format
     Using radial grid of  851 points,  6 beta functions with:
                l(1) =   0
                l(2) =   0
                l(3) =   1
                l(4) =   1
                l(5) =   2
                l(6) =   2
     Q(r) pseudized with  8 coefficients,  rinner =    1.000   1.000   1.000
                                                       1.000   1.000

     PseudoPot. # 2 for O  read from file:
     /storage/coda1/p-amedford6/0/shared/rich_project_chbe-medford/medford-share/data/pseudos_module/espresso/nninc/pbe/van/O.UPF
     MD5 check sum: 78c19812648e8988a0fe644b0f25305e
     Pseudo is Ultrasoft, Zval =  6.0
     Generated by new atomic code, or converted to UPF format
     Using radial grid of  737 points,  4 beta functions with:
                l(1) =   0
                l(2) =   0
                l(3) =   1
                l(4) =   1
     Q(r) pseudized with  8 coefficients,  rinner =    0.800   0.800   0.800

     PseudoPot. # 3 for N  read from file:
     /storage/coda1/p-amedford6/0/shared/rich_project_chbe-medford/medford-share/data/pseudos_module/espresso/nninc/pbe/van/N.UPF
     MD5 check sum: 90d10febe142ad51ac9d5be1deb811c4
     Pseudo is Ultrasoft, Zval =  5.0
     Generated by new atomic code, or converted to UPF format
     Using radial grid of  729 points,  4 beta functions with:
                l(1) =   0
                l(2) =   0
                l(3) =   1
                l(4) =   1
     Q(r) pseudized with  8 coefficients,  rinner =    0.800   0.800   0.800

     PseudoPot. # 4 for C  read from file:
     /storage/coda1/p-amedford6/0/shared/rich_project_chbe-medford/medford-share/data/pseudos_module/espresso/nninc/pbe/van/C.UPF
     MD5 check sum: 1a69bf6b8db32088f5b2163dbdb77a27
     Pseudo is Ultrasoft, Zval =  4.0
     Generated by new atomic code, or converted to UPF format
     Using radial grid of  721 points,  4 beta functions with:
                l(1) =   0
                l(2) =   0
                l(3) =   1
                l(4) =   1
     Q(r) pseudized with  8 coefficients,  rinner =    0.800   0.800   0.800

     PseudoPot. # 5 for H  read from file:
     /storage/coda1/p-amedford6/0/shared/rich_project_chbe-medford/medford-share/data/pseudos_module/espresso/nninc/pbe/van/H.UPF
     MD5 check sum: b5ee9d7bfd3a09ee7748110bda690ff7
     Pseudo is Ultrasoft, Zval =  1.0
     Generated by new atomic code, or converted to UPF format
     Using radial grid of  615 points,  1 beta functions with:
                l(1) =   0
     Q(r) pseudized with  8 coefficients,  rinner =    0.800

     atomic species   valence    mass     pseudopotential
        Ti1           12.00    47.86700     Ti( 1.00)
        O1             6.00    15.99900     O ( 1.00)
        N1             5.00    14.00700     N ( 1.00)
        C1             4.00    12.01100     C ( 1.00)
        H1             1.00     1.00800     H ( 1.00)

     No symmetry found

   Cartesian axes

     site n.     atom                  positions (alat units)
         1           Ti1 tau(   1) = (   0.0004258   2.9801865   6.0000000  )
         2           Ti1 tau(   2) = (   3.2906075   1.4906267   6.0002472  )
         3           O1  tau(   3) = (   0.0006271   0.0005054   7.9858123  )
         4           O1  tau(   4) = (   3.2906025   0.0005020   7.3038282  )
         5           O1  tau(   5) = (   4.5942328   1.4918067   9.2879030  )
         6           O1  tau(   6) = (   1.9868534   1.4903216   9.2879459  )
         7           Ti1 tau(   7) = (   3.2907910   2.8959150   9.1758416  )
         8           Ti1 tau(   8) = (   0.0015273   1.4827037   9.2680791  )
         9           O1  tau(   9) = (   3.2951577   0.0167633  11.2896499  )
        10           O1  tau(  10) = (   0.0116148   5.9584955  10.6183126  )
        11           O1  tau(  11) = (   1.3222759   1.5071707  12.6129440  )
        12           O1  tau(  12) = (   5.3060066   1.5095485  12.6267335  )
        13           Ti1 tau(  13) = (   6.4824898   3.0013615  12.7357613  )
        14           Ti1 tau(  14) = (   3.1735365   1.4973312  12.4739500  )
        15           O1  tau(  15) = (   0.0245190   0.0017265  14.5963640  )
        16           O1  tau(  16) = (   3.2983568   0.0259644  13.8884976  )
        17           O1  tau(  17) = (   4.5535709   1.5599051  15.9919625  )
        18           O1  tau(  18) = (   2.0723989   1.5598234  15.9883263  )
        19           Ti1 tau(  19) = (   3.3263631   3.0313633  15.6478355  )
        20           Ti1 tau(  20) = (   0.0083359   1.6222165  16.0589653  )
        21           O1  tau(  21) = (   3.2904802   0.0005063   4.7018136  )
        22           O1  tau(  22) = (   0.0206953   0.0548308  17.2083480  )
        23           O1  tau(  23) = (   1.3043587   1.4918075   6.0039043  )
        24           O1  tau(  24) = (   5.2767064   1.4903225   6.0039473  )
        25           Ti1 tau(  25) = (   0.0000382   5.9609847   6.0000000  )
        26           Ti1 tau(  26) = (   3.2902200   4.4714249   6.0002472  )
        27           O1  tau(  27) = (   0.0002396   2.9813036   7.9858123  )
        28           O1  tau(  28) = (   3.2902150   2.9813002   7.3038282  )
        29           O1  tau(  29) = (   4.5938453   4.4726049   9.2879030  )
        30           O1  tau(  30) = (   1.9864658   4.4711199   9.2879459  )
        31           Ti1 tau(  31) = (   3.2891106   5.8743827   9.1763621  )
        32           Ti1 tau(  32) = (   0.0006254   4.4649316   9.2693709  )
        33           O1  tau(  33) = (   3.2909539   2.9954008  11.2901670  )
        34           O1  tau(  34) = (   0.0092240   2.9805883  10.6323155  )
        35           O1  tau(  35) = (   1.3211080   4.4795309  12.6092917  )
        36           O1  tau(  36) = (   5.3058445   4.4798052  12.6251394  )
        37           Ti1 tau(  37) = (   6.5140999   0.0198189  12.7603067  )
        38           Ti1 tau(  38) = (   3.1705570   4.4938763  12.4677136  )
        39           O1  tau(  39) = (   0.0016069   2.9863809  14.6467327  )
        40           O1  tau(  40) = (   3.3112668   3.0122049  13.8485686  )
        41           O1  tau(  41) = (   4.5534170   4.5051619  16.0179686  )
        42           O1  tau(  42) = (   2.0797414   4.5084034  16.0201905  )
        43           Ti1 tau(  43) = (   3.2815144   0.0627375  15.7417980  )
        44           Ti1 tau(  44) = (   0.0076503   4.5954094  16.1032789  )
        45           O1  tau(  45) = (   3.2900926   2.9813045   4.7018136  )
        46           O1  tau(  46) = (   1.3039711   4.4726057   6.0039043  )
        47           O1  tau(  47) = (   5.2763189   4.4711207   6.0039473  )
        48           N1  tau(  48) = (   0.0651939   3.0276870  17.3150544  )
        49           C1  tau(  49) = (   0.3375872   3.0285870  18.7284822  )
        50           H1  tau(  50) = (   0.4544735   4.0311245  19.1352477  )
        51           H1  tau(  51) = (   6.1015407   2.5302758  19.2785169  )
        52           H1  tau(  52) = (   1.2508204   2.4494767  18.9518403  )
        53           O1  tau(  53) = (   3.3357083   0.1159715  18.1615364  )
        54           H1  tau(  54) = (   4.1514219   5.6051498  18.3929375  )
        55           H1  tau(  55) = (   2.5926282   5.5337384  18.4710493  )

     number of k points=    10  Fermi-Dirac smearing, width (Ry)=  0.0073
                       cart. coord. in units 2pi/alat
        k(    1) = (   0.0000000   0.0000000   0.0000000), wk =   0.1250000
        k(    2) = (   0.0000000   0.0419351   0.0000000), wk =   0.2500000
        k(    3) = (   0.0000000  -0.0838702   0.0000000), wk =   0.1250000
        k(    4) = (   0.0379955   0.0000049   0.0000000), wk =   0.2500000
        k(    5) = (   0.0379955   0.0419400   0.0000000), wk =   0.2500000
        k(    6) = (   0.0379955  -0.0838652   0.0000000), wk =   0.2500000
        k(    7) = (   0.0379955  -0.0419301   0.0000000), wk =   0.2500000
        k(    8) = (  -0.0759910  -0.0000099   0.0000000), wk =   0.1250000
        k(    9) = (  -0.0759910   0.0419252   0.0000000), wk =   0.2500000
        k(   10) = (  -0.0759910  -0.0838800   0.0000000), wk =   0.1250000

     Initial potential from superposition of free atoms

     starting charge  381.99915, renormalised to  398.00000

     negative rho (up, down):  1.656E-02 0.000E+00

     %%%%%%%%%%%%%%%%%%%%%%%%%%%%%%%%%%%%%%%%%%%%%%%%%%%%%%%%%%%%%%%%%%%%%%%%
     %                                                                      %
     % You are using vdW-DF, which was implemented by the Thonhauser group. %
     % Please cite the following two papers that made this development      %
     % possible and the two reviews that describe the various versions:     %
     %                                                                      %
     %   T. Thonhauser et al., PRL 115, 136402 (2015).                      %
     %   T. Thonhauser et al., PRB 76, 125112 (2007).                       %
     %   K. Berland et al., Rep. Prog. Phys. 78, 066501 (2015).             %
     %   D.C. Langreth et al., J. Phys.: Condens. Matter 21, 084203 (2009). %
     %                                                                      %
     %                                                                      %
     % If you are calculating the stress with vdW-DF, please also cite:     %
     %                                                                      %
     %   R. Sabatini et al., J. Phys.: Condens. Matter 24, 424209 (2012).   %
     %                                                                      %
     %%%%%%%%%%%%%%%%%%%%%%%%%%%%%%%%%%%%%%%%%%%%%%%%%%%%%%%%%%%%%%%%%%%%%%%%

     Adding external electric field

     Computed dipole along edir(3) :
        Dipole               -9.1079 Ry au,        -23.1500 Debye
        Dipole field         -0.0172 Ry au,

        Potential amp.        1.5933 Ry
        Total length         46.3494 bohr

     Starting wfcs are  301 atomic wfcs
  @ DRIVER MODE: Message from server: STATUS
  @ DRIVER MODE: Message from server: POSDATA
  @ DRIVER MODE: Reading and sharing cell
  @ DRIVER MODE: Reading and sharing positions
  @ DRIVER MODE: Received positions

     Self-consistent Calculation

     iteration #  1     ecut=    29.40 Ry     beta= 0.05
     Davidson diagonalization with overlap
     c_bands:  1 eigenvalues not converged
     c_bands:  1 eigenvalues not converged
     c_bands:  1 eigenvalues not converged
     c_bands:  1 eigenvalues not converged
     c_bands:  1 eigenvalues not converged
     c_bands:  1 eigenvalues not converged
     c_bands:  1 eigenvalues not converged
     c_bands:  2 eigenvalues not converged
     ethr =  1.00E-05,  avg # of iterations = 19.6

[...]

     total energy              =   -2564.51987491 Ry
     estimated scf accuracy    <    4317.22354488 Ry

     iteration #  2     ecut=    29.40 Ry     beta= 0.05
     Davidson diagonalization with overlap
     ethr =  1.00E-02,  avg # of iterations = 23.8

[...]

     iteration # 39     ecut=    29.40 Ry     beta= 0.05
     Davidson diagonalization with overlap
     c_bands:  1 eigenvalues not converged
     ethr =  4.72E-07,  avg # of iterations = 11.1

[...]

     total energy              =   -2953.97087914 Ry
     estimated scf accuracy    <       0.00000015 Ry

     iteration # 59     ecut=    29.40 Ry     beta= 0.05
     Davidson diagonalization with overlap
     ethr =  3.88E-11,  avg # of iterations =  5.2

     negative rho (up, down):  1.668E-02 0.000E+00

     Adding external electric field

     Computed dipole along edir(3) :
        Dipole                0.5326 Ry au,          1.3538 Debye
        Dipole field          0.0010 Ry au,

        Potential amp.       -0.0932 Ry
        Total length         46.3494 bohr

     End of self-consistent calculation

          k = 0.0000 0.0000 0.0000 ( 18029 PWs)   bands (ev):

   -56.5916 -56.5580 -55.7103 -55.6764 -55.6660 -55.6313 -55.4907 -55.4546
   -55.3614 -55.2398 -55.2297 -55.2268 -55.2059 -55.1318 -54.7247 -54.6772
   -33.0182 -32.8661 -32.8380 -32.7679 -32.6769 -32.6444 -32.1782 -32.1486
   -32.0263 -31.9752 -31.9273 -31.9081 -31.8791 -31.8686 -31.8412 -31.8351
   -31.8159 -31.8112 -31.7907 -31.7729 -31.7667 -31.7108 -31.7059 -31.6684
   -31.6548 -31.6308 -31.6262 -31.6169 -31.5948 -31.5864 -31.5795 -31.5553
   -31.4648 -31.4499 -31.4192 -31.4051 -31.3793 -31.3668 -31.3559 -31.3370
   -31.3090 -31.2557 -31.2402 -30.9690 -30.9466 -30.9188 -30.8953 -30.7857
   -18.7880 -16.7471 -16.2844 -16.0439 -15.9478 -15.8664 -15.8258 -15.7829
   -15.6378 -15.5625 -15.5430 -15.5396 -15.4735 -15.3295 -15.2744 -15.1765
   -15.0915 -14.9506 -14.9390 -14.8976 -14.8861 -14.8494 -14.8454 -14.7952
   -14.6260 -14.5901 -14.5434 -14.4864 -14.3934 -14.1738 -13.7383 -13.6286
   -12.9756  -7.7790  -6.5825  -4.3142  -3.7828  -3.5186  -3.4856  -3.3574
    -3.3540  -3.3129  -3.1935  -3.1623  -3.0913  -3.0611  -3.0342  -2.9470
    -2.8757  -2.8629  -2.7765  -2.7622  -2.7434  -2.7356  -2.7151  -2.5980
    -2.5542  -2.5040  -2.3999  -2.2901  -2.2487  -2.2212  -2.1741  -2.1417
    -2.0897  -2.0791  -2.0674  -2.0543  -1.9524  -1.8277  -1.8042  -1.7813
    -1.7334  -1.7213  -1.7108  -1.6889  -1.6042  -1.4959  -1.4030  -1.3340
    -1.3284  -1.2505  -1.2427  -1.1880  -1.0748  -1.0117  -1.0097  -0.9864
    -0.8820  -0.8588  -0.7875  -0.7258  -0.6654  -0.6124  -0.5493  -0.4975
    -0.4730  -0.4644  -0.3673  -0.2974  -0.2727  -0.2171  -0.2098  -0.2037
    -0.1761  -0.0826  -0.0466   0.0284   0.0654   0.1132   0.1472   0.2262
     0.2870   0.3525   0.3991   0.4219   0.4864   0.5432   0.5980   0.6884
     0.7465   0.7530   0.7817   0.8392   0.8527   0.9257   1.0084   1.0300
     1.0945   1.1661   1.3314   1.3704   1.6050   1.6880   2.3158   2.6859
     2.8467   3.1421   3.3311   3.4691   3.6648   3.6754   3.6825   3.9018
     3.9312

[...]

          k = 0.0380-0.0419 0.0000 ( 17876 PWs)   bands (ev):

[...]

          k =-0.0760-0.0000 0.0000 ( 17886 PWs)   bands (ev):

[...]

          k =-0.0760-0.0839 0.0000 ( 17948 PWs)   bands (ev):

   -56.5749 -56.5744 -55.6953 -55.6910 -55.6532 -55.6442 -55.4767 -55.4684
   -55.3590 -55.2319 -55.2235 -55.2228 -55.2227 -55.1350 -54.7171 -54.6846
   -32.8520 -32.8516 -32.8353 -32.8350 -32.7211 -32.7206 -32.0018 -31.9960
   -31.9844 -31.9774 -31.9012 -31.8865 -31.8854 -31.8811 -31.8744 -31.8729
   -31.8654 -31.8574 -31.8319 -31.8150 -31.7219 -31.7154 -31.6838 -31.6760
   -31.6537 -31.6181 -31.5860 -31.5698 -31.5684 -31.5682 -31.5476 -31.5306
   -31.4790 -31.4476 -31.4474 -31.4461 -31.4310 -31.4086 -31.4085 -31.3999
   -31.3739 -31.3385 -31.1006 -31.0395 -30.9440 -30.9186 -30.9053 -30.8583
   -18.7871 -16.0979 -16.0960 -16.0604 -16.0597 -15.7935 -15.7901 -15.7012
   -15.6956 -15.5645 -15.4439 -15.3390 -15.3264 -15.2925 -15.2664 -15.1565
   -15.1355 -15.1246 -15.1145 -15.0075 -14.9881 -14.9402 -14.9254 -14.9103
   -14.9025 -14.6074 -14.5912 -14.4907 -14.4650 -14.3263 -13.7322 -13.7322
   -12.9942  -7.7725  -6.5756  -3.1944  -3.1877  -3.1472  -3.1342  -3.1334
    -3.1200  -2.9759  -2.9264  -2.9253  -2.9127  -2.8300  -2.7802  -2.7726
    -2.6983  -2.6654  -2.6484  -2.5917  -2.5774  -2.5128  -2.4862  -2.4782
    -2.4604  -2.4360  -2.4347  -2.3427  -2.2766  -2.2308  -2.2255  -2.1667
    -2.1369  -2.0775  -2.0547  -2.0430  -2.0099  -1.9685  -1.9559  -1.9191
    -1.8764  -1.8431  -1.7795  -1.6115  -1.6024  -1.5942  -1.5740  -1.4529
    -1.4438  -1.4091  -1.3769  -1.3714  -1.3019  -1.2515  -1.2133  -1.1632
    -1.0750  -1.0536  -0.9497  -0.8970  -0.8535  -0.7982  -0.6930  -0.6724
    -0.6661  -0.6538  -0.6241  -0.5540  -0.5199  -0.5161  -0.3935  -0.3691
    -0.3325  -0.3006  -0.2432  -0.2141  -0.1552  -0.1227  -0.0536  -0.0379
    -0.0008   0.0764   0.1523   0.1862   0.2391   0.2454   0.5189   0.5929
     0.7212   0.7844   0.8465   0.9152   0.9787   1.0082   1.0379   1.1651
     1.1694   1.1793   1.1798   1.2487   1.2538   1.5857   2.1942   3.2618
     3.2621   3.3282   3.3288   3.6498   3.6561   3.7630   3.7732   3.9323
     3.9467

     the Fermi energy is     2.5134 ev

!    total energy              =   -2953.97092968 Ry
     estimated scf accuracy    <       0.00000007 Ry
     smearing contrib. (-TS)   =      -0.00445476 Ry
     internal energy E=F+TS    =   -2953.96647492 Ry

     The total energy is F=E-TS. E is the sum of the following terms:
     one-electron contribution =  -24343.96677235 Ry
     hartree contribution      =   12263.88834145 Ry
     xc contribution           =    -488.77144035 Ry
     ewald contribution        =    9614.88286097 Ry
     electric field correction =       0.00053536 Ry

     convergence has been achieved in  59 iterations

     Forces acting on atoms (cartesian axes, Ry/au):

     atom    1 type  1   force =    -0.00002436   -0.00048055    0.12439722
     atom    2 type  1   force =    -0.00003212   -0.00048296   -0.15981007
     atom    3 type  2   force =     0.00019917   -0.00023668   -0.06775902
     atom    4 type  2   force =     0.00000330   -0.00009325    0.02618938
     atom    5 type  2   force =    -0.01437899    0.00191443   -0.00989642
     atom    6 type  2   force =     0.01616492    0.00232655   -0.01027380
     atom    7 type  1   force =     0.00071757   -0.00388323    0.02837901
     atom    8 type  1   force =    -0.00033918   -0.00435758    0.10925761
     atom    9 type  2   force =     0.00002233    0.00001583    0.00012997
     atom   10 type  2   force =    -0.00225893    0.00267060   -0.07357193
     atom   11 type  2   force =     0.00081089   -0.00003750   -0.00022836
     atom   12 type  2   force =    -0.00043659    0.00003512   -0.00019422
     atom   13 type  1   force =    -0.00000914    0.00013408   -0.00018722
     atom   14 type  1   force =    -0.00034172    0.00048877   -0.00048011
     atom   15 type  2   force =     0.00001443   -0.00056870   -0.00011773
     atom   16 type  2   force =    -0.00018375   -0.00000775    0.00045013
     atom   17 type  2   force =    -0.00061812   -0.00032279   -0.00029423
     atom   18 type  2   force =     0.00025893   -0.00019069    0.00012725
     atom   19 type  1   force =     0.00044100   -0.00000764   -0.00024802
     atom   20 type  1   force =    -0.00020229   -0.00044855   -0.00067000
     atom   21 type  2   force =     0.00006935   -0.00003979    0.09954908
     atom   22 type  2   force =     0.00005959   -0.00048739    0.00035112
     atom   23 type  2   force =    -0.07968254   -0.00006391   -0.03245032
     atom   24 type  2   force =     0.07955295    0.00037734   -0.03250456
     atom   25 type  1   force =    -0.00000506   -0.00057943    0.12403323
     atom   26 type  1   force =    -0.00010133   -0.00061968   -0.15993379
     atom   27 type  2   force =     0.00033068   -0.00035799   -0.06682958
     atom   28 type  2   force =    -0.00002346    0.00017517    0.02521101
     atom   29 type  2   force =    -0.01496976    0.00189775   -0.00987286
     atom   30 type  2   force =     0.01665763    0.00242530   -0.01020642
     atom   31 type  1   force =     0.00077757   -0.00076248    0.02364191
     atom   32 type  1   force =    -0.00023107    0.00200067    0.10989453
     atom   33 type  2   force =     0.00004374   -0.00027011    0.00039287
     atom   34 type  2   force =    -0.00212380    0.00207075   -0.07169369
     atom   35 type  2   force =     0.00023393   -0.00011749   -0.00007867
     atom   36 type  2   force =    -0.00016254   -0.00023525   -0.00014712
     atom   37 type  1   force =     0.00041226   -0.00002211    0.00025324
     atom   38 type  1   force =     0.00001536   -0.00057375   -0.00025431
     atom   39 type  2   force =     0.00006930    0.00018533    0.00061661
     atom   40 type  2   force =    -0.00008661   -0.00023954    0.00029074
     atom   41 type  2   force =     0.00069991   -0.00034017    0.00015374
     atom   42 type  2   force =    -0.00098395   -0.00039823    0.00065050
     atom   43 type  1   force =     0.00001911   -0.00033607    0.00000394
     atom   44 type  1   force =    -0.00030050    0.00020375   -0.00129002
     atom   45 type  2   force =     0.00005802   -0.00004529    0.09950193
     atom   46 type  2   force =    -0.07969344    0.00000426   -0.03247092
     atom   47 type  2   force =     0.07957189    0.00043051   -0.03249674
     atom   48 type  3   force =    -0.00039521    0.00164140   -0.00007429
     atom   49 type  4   force =    -0.00048511   -0.01956397   -0.00042372
     atom   50 type  5   force =     0.00033615    0.00979094    0.00296080
     atom   51 type  5   force =     0.00285366    0.00282931   -0.00122189
     atom   52 type  5   force =    -0.00317798    0.00426210   -0.00048360
     atom   53 type  2   force =    -0.00063888   -0.00012223   -0.00066465
     atom   54 type  5   force =     0.00079178    0.00037302    0.00066689
     atom   55 type  5   force =     0.00070099    0.00003976   -0.00027444

     Total force =     0.423892     Total SCF correction =     0.000737
  @ DRIVER MODE: Message from server: STATUS
  @ DRIVER MODE: Message from server: GETFORCE
  @ DRIVER MODE: Returning v,forces,stress,ensemble

     Writing output data file ./calc.save/
  @ DRIVER MODE: Message from server: EXIT
  @ DRIVE MODE: Exiting

     General routines

     Parallel routines

   This run was terminated on:  18:45:48  15Sep2021

   JOB DONE.