     Program PWSCF v.6.7GPU starts on 10Sep2021 at 21:43:28

     R & G space division:  proc/nbgrp/npool/nimage =      10
     Reading input from /storage/home/hcoda1/3/ntian30/research/carbon/CxH_vib/CH_calc/ads_slab/CHNHNH_a/out_0035/pw.inp
Warning: card &CELL ignored
Warning: card   CELL_DYNAMICS='IPI', ignored
Warning: card / ignored

     Current dimensions of program PWSCF are:
     Max number of different atomic species (ntypx) = 10
     Max number of k-points (npk) =  40000
     Max angular momentum in pseudopotentials (lmaxx) =  3
     Presently no symmetry can be used with electric field

     Message from routine cell_base_init:
     DEPRECATED: use true lattice parameter, not A to a.u. conversion factor

     IMPORTANT: XC functional enforced from input :
     Exchange-correlation= BEEF-VDW
                           (   1   4  43  14   2   0   0)
     Any further DFT definition will be discarded
     Please, verify this is what you really want

  @ DRIVER MODE: Connecting to
 qe_1139763_2787518.sched-torque.pace.gatech.eduys0mcsrk_scratch
  using UNIX socket
  @ DRIVER MODE: Message from server: STATUS
  @ DRIVER MODE: Message from server: INIT
  @ DRIVER MODE: Receiving replica           0          -1
  @ DRIVER MODE: Receiving encoded integer          25
  @ DRIVER MODE:  SCF:  T  FORCE:  T  STRESS:  F  VC:  F  ENSEMBLE:  F
  @ DRIVER MODE:  SCF:  T  FORCE:  T  STRESS:  F  VC:  F  ENSEMBLE:  F

     Using Slab Decomposition

     bravais-lattice index     =            0
     lattice parameter (alat)  =       1.8897  a.u.
     unit-cell volume          =    6658.9804 (a.u.)^3
     number of atoms/cell      =           53
     number of atomic types    =            5
     number of electrons       =       395.00
     number of Kohn-Sham states=          207
     kinetic-energy cutoff     =      29.3995  Ry
     charge density cutoff     =     293.9946  Ry
     scf convergence threshold =      7.3E-08
     mixing beta               =       0.0500
     number of iterations used =            8  plain     mixing
     Exchange-correlation= BEEF-VDW
                           (   1   4  43  14   2   0   0)

     celldm(1)=   1.889726  celldm(2)=   0.000000  celldm(3)=   0.000000
     celldm(4)=   0.000000  celldm(5)=   0.000000  celldm(6)=   0.000000

     crystal axes: (cart. coord. in units of alat)
               a(1) = (   6.579727   0.000000   0.000000 )
               a(2) = (  -0.000775   5.961596   0.000000 )
               a(3) = (   0.000000   0.000000  25.155947 )

     reciprocal axes: (cart. coord. in units 2 pi/alat)
               b(1) = (  0.151982  0.000020  0.000000 )
               b(2) = (  0.000000  0.167740  0.000000 )
               b(3) = (  0.000000  0.000000  0.039752 )

     PseudoPot. # 1 for Ti read from file:
     /storage/coda1/p-amedford6/0/shared/rich_project_chbe-medford/medford-share/data/pseudos_module/espresso/nninc/pbe/van/Ti.UPF
     MD5 check sum: 8e4df49b7f0d34bbd5052bf3f5ea0213
     Pseudo is Ultrasoft, Zval = 12.0
     Generated by new atomic code, or converted to UPF format
     Using radial grid of  851 points,  6 beta functions with:
                l(1) =   0
                l(2) =   0
                l(3) =   1
                l(4) =   1
                l(5) =   2
                l(6) =   2
     Q(r) pseudized with  8 coefficients,  rinner =    1.000   1.000   1.000
                                                       1.000   1.000

     PseudoPot. # 2 for O  read from file:
     /storage/coda1/p-amedford6/0/shared/rich_project_chbe-medford/medford-share/data/pseudos_module/espresso/nninc/pbe/van/O.UPF
     MD5 check sum: 78c19812648e8988a0fe644b0f25305e
     Pseudo is Ultrasoft, Zval =  6.0
     Generated by new atomic code, or converted to UPF format
     Using radial grid of  737 points,  4 beta functions with:
                l(1) =   0
                l(2) =   0
                l(3) =   1
                l(4) =   1
     Q(r) pseudized with  8 coefficients,  rinner =    0.800   0.800   0.800

     PseudoPot. # 3 for N  read from file:
     /storage/coda1/p-amedford6/0/shared/rich_project_chbe-medford/medford-share/data/pseudos_module/espresso/nninc/pbe/van/N.UPF
     MD5 check sum: 90d10febe142ad51ac9d5be1deb811c4
     Pseudo is Ultrasoft, Zval =  5.0
     Generated by new atomic code, or converted to UPF format
     Using radial grid of  729 points,  4 beta functions with:
                l(1) =   0
                l(2) =   0
                l(3) =   1
                l(4) =   1
     Q(r) pseudized with  8 coefficients,  rinner =    0.800   0.800   0.800

     PseudoPot. # 4 for C  read from file:
     /storage/coda1/p-amedford6/0/shared/rich_project_chbe-medford/medford-share/data/pseudos_module/espresso/nninc/pbe/van/C.UPF
     MD5 check sum: 1a69bf6b8db32088f5b2163dbdb77a27
     Pseudo is Ultrasoft, Zval =  4.0
     Generated by new atomic code, or converted to UPF format
     Using radial grid of  721 points,  4 beta functions with:
                l(1) =   0
                l(2) =   0
                l(3) =   1
                l(4) =   1
     Q(r) pseudized with  8 coefficients,  rinner =    0.800   0.800   0.800

     PseudoPot. # 5 for H  read from file:
     /storage/coda1/p-amedford6/0/shared/rich_project_chbe-medford/medford-share/data/pseudos_module/espresso/nninc/pbe/van/H.UPF
     MD5 check sum: b5ee9d7bfd3a09ee7748110bda690ff7
     Pseudo is Ultrasoft, Zval =  1.0
     Generated by new atomic code, or converted to UPF format
     Using radial grid of  615 points,  1 beta functions with:
                l(1) =   0
     Q(r) pseudized with  8 coefficients,  rinner =    0.800

     atomic species   valence    mass     pseudopotential
        Ti1           12.00    47.86700     Ti( 1.00)
        O1             6.00    15.99900     O ( 1.00)
        N1             5.00    14.00700     N ( 1.00)
        C1             4.00    12.01100     C ( 1.00)
        H1             1.00     1.00800     H ( 1.00)

     No symmetry found

   Cartesian axes

     site n.     atom                  positions (alat units)
         1           Ti1 tau(   1) = (   0.0004258   2.9801865   6.0000000  )
         2           Ti1 tau(   2) = (   3.2906075   1.4906267   6.0002472  )
         3           O1  tau(   3) = (   0.0006271   0.0005054   7.9858123  )
         4           O1  tau(   4) = (   3.2906025   0.0005020   7.3038282  )
         5           O1  tau(   5) = (   4.5942328   1.4918067   9.2879030  )
         6           O1  tau(   6) = (   1.9868534   1.4903216   9.2879459  )
         7           Ti1 tau(   7) = (   3.2907910   2.8959150   9.1758416  )
         8           Ti1 tau(   8) = (   0.0015273   1.4827037   9.2680791  )
         9           O1  tau(   9) = (   3.2974950   5.9468587  11.3331085  )
        10           O1  tau(  10) = (   0.0116148   5.9584955  10.6183126  )
        11           O1  tau(  11) = (   1.3019594   1.4757037  12.6170356  )
        12           O1  tau(  12) = (   5.2841045   1.4688878  12.6073194  )
        13           Ti1 tau(  13) = (   0.0658538   3.0089988  12.6217963  )
        14           Ti1 tau(  14) = (   3.3903573   1.4765488  12.4775701  )
        15           O1  tau(  15) = (   6.5762050   0.0002902  14.6414759  )
        16           O1  tau(  16) = (   3.3078303   5.9588356  13.9306596  )
        17           O1  tau(  17) = (   4.5399328   1.5113171  16.0740780  )
        18           O1  tau(  18) = (   2.0525891   1.5105181  16.0861438  )
        19           Ti1 tau(  19) = (   3.3041007   2.9930787  15.6963055  )
        20           Ti1 tau(  20) = (   0.0280933   1.5113244  15.8467906  )
        21           O1  tau(  21) = (   3.2904802   0.0005063   4.7018136  )
        22           O1  tau(  22) = (   0.0368235   0.0128086  17.1990618  )
        23           O1  tau(  23) = (   1.3043587   1.4918075   6.0039043  )
        24           O1  tau(  24) = (   5.2767064   1.4903225   6.0039473  )
        25           Ti1 tau(  25) = (   0.0000382   5.9609847   6.0000000  )
        26           Ti1 tau(  26) = (   3.2902200   4.4714249   6.0002472  )
        27           O1  tau(  27) = (   0.0002396   2.9813036   7.9858123  )
        28           O1  tau(  28) = (   3.2902150   2.9813002   7.3038282  )
        29           O1  tau(  29) = (   4.5938453   4.4726049   9.2879030  )
        30           O1  tau(  30) = (   1.9864658   4.4711199   9.2879459  )
        31           Ti1 tau(  31) = (   3.2891106   5.8743827   9.1763621  )
        32           Ti1 tau(  32) = (   0.0006254   4.4649316   9.2693709  )
        33           O1  tau(  33) = (   3.3000731   2.9737533  11.3293525  )
        34           O1  tau(  34) = (   0.0092240   2.9805883  10.6323155  )
        35           O1  tau(  35) = (   1.3001503   4.4664650  12.6348062  )
        36           O1  tau(  36) = (   5.2875254   4.4541756  12.6228532  )
        37           Ti1 tau(  37) = (   0.0765437   0.0243871  12.5594496  )
        38           Ti1 tau(  38) = (   3.3883988   4.4566399  12.4818539  )
        39           O1  tau(  39) = (   0.0169469   2.9261715  14.6451004  )
        40           O1  tau(  40) = (   3.3035743   2.9719493  13.9037931  )
        41           O1  tau(  41) = (   4.5445893   4.4635849  16.0933648  )
        42           O1  tau(  42) = (   2.0554864   4.4706235  16.0676963  )
        43           Ti1 tau(  43) = (   3.3300396   0.0018144  15.7250798  )
        44           Ti1 tau(  44) = (   0.0441581   4.6348571  16.0952712  )
        45           O1  tau(  45) = (   3.2900926   2.9813045   4.7018136  )
        46           O1  tau(  46) = (   1.3039711   4.4726057   6.0039043  )
        47           O1  tau(  47) = (   5.2763189   4.4711207   6.0039473  )
        48           N1  tau(  48) = (   1.0252718   2.8101955  18.5330041  )
        49           N1  tau(  49) = (   6.5702222   2.9467621  17.4444712  )
        50           C1  tau(  50) = (   1.2122298   3.5280882  19.5702009  )
        51           H1  tau(  51) = (   0.5037382   4.3646449  19.6222421  )
        52           H1  tau(  52) = (   1.5845460   1.9874866  18.3412699  )
        53           H1  tau(  53) = (   5.6894004   2.9582294  17.9438253  )

     number of k points=    10  Fermi-Dirac smearing, width (Ry)=  0.0073
                       cart. coord. in units 2pi/alat
        k(    1) = (   0.0000000   0.0000000   0.0000000), wk =   0.1250000
        k(    2) = (   0.0000000   0.0419351   0.0000000), wk =   0.2500000
        k(    3) = (   0.0000000  -0.0838702   0.0000000), wk =   0.1250000
        k(    4) = (   0.0379955   0.0000049   0.0000000), wk =   0.2500000
        k(    5) = (   0.0379955   0.0419400   0.0000000), wk =   0.2500000
        k(    6) = (   0.0379955  -0.0838652   0.0000000), wk =   0.2500000
        k(    7) = (   0.0379955  -0.0419301   0.0000000), wk =   0.2500000
        k(    8) = (  -0.0759910  -0.0000099   0.0000000), wk =   0.1250000
        k(    9) = (  -0.0759910   0.0419252   0.0000000), wk =   0.2500000
        k(   10) = (  -0.0759910  -0.0838800   0.0000000), wk =   0.1250000

     Initial potential from superposition of free atoms

     starting charge  378.99916, renormalised to  395.00000

     negative rho (up, down):  1.643E-02 0.000E+00

     %%%%%%%%%%%%%%%%%%%%%%%%%%%%%%%%%%%%%%%%%%%%%%%%%%%%%%%%%%%%%%%%%%%%%%%%
     %                                                                      %
     % You are using vdW-DF, which was implemented by the Thonhauser group. %
     % Please cite the following two papers that made this development      %
     % possible and the two reviews that describe the various versions:     %
     %                                                                      %
     %   T. Thonhauser et al., PRL 115, 136402 (2015).                      %
     %   T. Thonhauser et al., PRB 76, 125112 (2007).                       %
     %   K. Berland et al., Rep. Prog. Phys. 78, 066501 (2015).             %
     %   D.C. Langreth et al., J. Phys.: Condens. Matter 21, 084203 (2009). %
     %                                                                      %
     %                                                                      %
     % If you are calculating the stress with vdW-DF, please also cite:     %
     %                                                                      %
     %   R. Sabatini et al., J. Phys.: Condens. Matter 24, 424209 (2012).   %
     %                                                                      %
     %%%%%%%%%%%%%%%%%%%%%%%%%%%%%%%%%%%%%%%%%%%%%%%%%%%%%%%%%%%%%%%%%%%%%%%%

     Adding external electric field

     Computed dipole along edir(3) :
        Dipole               -8.5009 Ry au,        -21.6072 Debye
        Dipole field         -0.0160 Ry au,

        Potential amp.        1.4871 Ry
        Total length         46.3494 bohr

     Starting wfcs are  299 atomic wfcs
  @ DRIVER MODE: Message from server: STATUS
  @ DRIVER MODE: Message from server: POSDATA
  @ DRIVER MODE: Reading and sharing cell
  @ DRIVER MODE: Reading and sharing positions
  @ DRIVER MODE: Received positions

     Self-consistent Calculation

     iteration #  1     ecut=    29.40 Ry     beta= 0.05
     Davidson diagonalization with overlap
     c_bands:  1 eigenvalues not converged
     c_bands:  1 eigenvalues not converged
     c_bands:  2 eigenvalues not converged
     c_bands:  3 eigenvalues not converged
     c_bands:  3 eigenvalues not converged
     c_bands:  1 eigenvalues not converged
     c_bands:  1 eigenvalues not converged
     ethr =  1.00E-05,  avg # of iterations = 19.2

[...]

     total energy              =   -2621.18033775 Ry
     estimated scf accuracy    <    3530.35308677 Ry

[...]

     iteration #  3     ecut=    29.40 Ry     beta= 0.05
     Davidson diagonalization with overlap
     ethr =  1.00E-02,  avg # of iterations = 15.0

[...]

     iteration # 78     ecut=    29.40 Ry     beta= 0.05
     Davidson diagonalization with overlap
     ethr =  2.98E-11,  avg # of iterations =  8.0

[...]

     total energy              =   -2939.04804572 Ry
     estimated scf accuracy    <       0.00000019 Ry

     iteration # 80     ecut=    29.40 Ry     beta= 0.05
     Davidson diagonalization with overlap
     c_bands:  1 eigenvalues not converged
     ethr =  2.50E-11,  avg # of iterations = 10.5

     negative rho (up, down):  1.570E-02 0.000E+00

     Adding external electric field

     Computed dipole along edir(3) :
        Dipole                0.0406 Ry au,          0.1031 Debye
        Dipole field          0.0001 Ry au,

        Potential amp.       -0.0071 Ry
        Total length         46.3494 bohr

     End of self-consistent calculation

          k = 0.0000 0.0000 0.0000 ( 18029 PWs)   bands (ev):

   -56.2414 -56.2352 -56.2073 -56.1992 -56.1502 -56.0788 -56.0777 -56.0495
   -56.0422 -56.0155 -56.0137 -55.9801 -55.7876 -55.5223 -55.2184 -55.1844
   -32.7916 -32.7236 -32.5917 -32.5792 -32.5596 -32.5482 -32.5345 -32.5043
   -32.4838 -32.4823 -32.4563 -32.4447 -32.4164 -32.3934 -32.3879 -32.3771
   -32.3763 -32.3454 -32.3302 -32.2984 -32.2907 -32.2881 -32.2644 -32.2446
   -32.2397 -32.2369 -32.2368 -32.2239 -32.2165 -32.2008 -32.1941 -32.1922
   -32.1886 -32.1800 -32.1666 -32.1564 -32.1259 -32.0400 -31.9772 -31.8008
   -31.7841 -31.7235 -31.6254 -31.5372 -31.5147 -31.4422 -31.3557 -31.2446
   -17.3043 -16.9902 -16.7180 -16.5092 -16.3972 -16.3650 -16.2654 -16.0823
   -15.9586 -15.9282 -15.8285 -15.8012 -15.7776 -15.7665 -15.7443 -15.7349
   -15.6870 -15.6829 -15.6704 -15.6552 -15.6020 -15.5769 -15.5476 -15.4391
   -15.4324 -15.3993 -15.3736 -15.2973 -15.2908 -14.8296 -13.7209 -13.6045
   -12.7839  -8.6626  -5.3560  -4.3656  -4.2194  -4.1932  -4.1467  -4.0945
    -3.8760  -3.8131  -3.7515  -3.5971  -3.4699  -3.4286  -3.4160  -3.3999
    -3.3704  -3.1441  -3.1185  -3.0552  -3.0316  -3.0258  -3.0148  -3.0052
    -2.9840  -2.9670  -2.8945  -2.7901  -2.7173  -2.6680  -2.6203  -2.6103
    -2.5533  -2.5068  -2.5025  -2.4851  -2.4803  -2.4715  -2.4341  -2.4254
    -2.2892  -2.2281  -2.0951  -2.0587  -2.0383  -1.8902  -1.8484  -1.7537
    -1.6871  -1.6699  -1.6604  -1.6319  -1.5464  -1.5245  -1.4046  -1.3820
    -1.3414  -1.2695  -1.2568  -1.2356  -1.1330  -1.1177  -1.0126  -1.0052
    -0.9987  -0.9817  -0.9235  -0.7347  -0.7134  -0.6826  -0.6633  -0.6300
    -0.5535  -0.5232  -0.4323  -0.4199  -0.3611  -0.3408  -0.3167  -0.2670
    -0.2608  -0.2489  -0.2451  -0.2291  -0.0535   0.0081   0.0652   0.1159
     0.1319   0.2883   0.3381   0.4160   0.5016   0.7291   0.8035   0.8399
     0.8922   0.9957   1.3749   1.4204   2.4369   2.8994   2.9796   3.0295
     3.0398   3.1340   3.1403   3.3477   3.3694   3.3755   3.4394

[...]

          k = 0.0380-0.0419 0.0000 ( 17876 PWs)   bands (ev):

[...]

          k =-0.0760-0.0000 0.0000 ( 17886 PWs)   bands (ev):

[...]

          k =-0.0760-0.0839 0.0000 ( 17948 PWs)   bands (ev):

   -56.2247 -56.2239 -56.2179 -56.2162 -56.1457 -56.0831 -56.0645 -56.0555
   -56.0334 -56.0311 -55.9972 -55.9967 -55.7865 -55.5232 -55.2014 -55.2013
   -32.5967 -32.5938 -32.5392 -32.5385 -32.5280 -32.5203 -32.5194 -32.5009
   -32.4432 -32.4420 -32.4362 -32.4331 -32.4083 -32.3732 -32.3621 -32.3577
   -32.3505 -32.3469 -32.3445 -32.3441 -32.3432 -32.3364 -32.3342 -32.2864
   -32.2852 -32.2743 -32.2563 -32.2460 -32.2320 -32.2316 -32.2290 -32.2287
   -32.2122 -32.2114 -32.2036 -32.2013 -32.1312 -32.0424 -31.9724 -31.8574
   -31.7933 -31.7486 -31.5275 -31.5274 -31.4383 -31.4381 -31.3990 -31.3989
   -17.2867 -16.4411 -16.4095 -16.1833 -16.1730 -16.1584 -16.1550 -16.0175
   -15.9499 -15.9472 -15.9402 -15.9085 -15.8806 -15.8427 -15.7979 -15.7757
   -15.7752 -15.7635 -15.7567 -15.7035 -15.6983 -15.6767 -15.6697 -15.5675
   -15.5568 -15.5533 -15.4994 -15.4110 -15.2817 -15.0039 -13.7064 -13.7062
   -12.7946  -8.6680  -5.3536  -3.8678  -3.7320  -3.6949  -3.5278  -3.4118
    -3.4089  -3.3979  -3.3247  -3.1572  -3.1428  -3.1200  -3.0959  -3.0690
    -3.0688  -3.0541  -3.0486  -3.0298  -3.0059  -2.9704  -2.9312  -2.9278
    -2.9060  -2.8962  -2.8703  -2.8565  -2.8266  -2.8149  -2.7990  -2.7810
    -2.7623  -2.7468  -2.5934  -2.4734  -2.4400  -2.3778  -2.3694  -2.3498
    -2.3155  -2.3048  -2.2917  -2.2296  -2.1284  -1.9926  -1.9449  -1.9387
    -1.9063  -1.8265  -1.8142  -1.6689  -1.6546  -1.6267  -1.5886  -1.5353
    -1.5180  -1.4673  -1.4051  -1.3920  -1.3602  -1.3303  -1.2545  -1.2043
    -1.2015  -1.1837  -1.1240  -1.0362  -1.0279  -1.0113  -1.0033  -0.9536
    -0.8759  -0.8621  -0.8304  -0.7457  -0.7282  -0.6301  -0.5462  -0.3460
    -0.2620  -0.2151  -0.1689  -0.1356  -0.0323   0.0140   0.0296   0.0658
     0.0788   0.1259   0.1851   0.2913   0.2981   0.3594   0.4689   0.8050
     1.1672   1.1681   1.2401   1.2404   2.3951   3.1593   3.1678   3.2234
     3.2457   3.3963   3.4019   3.4265   3.4278   3.5483   3.5649

     the Fermi energy is     2.8941 ev

!    total energy              =   -2939.04805205 Ry
     estimated scf accuracy    <          9.3E-09 Ry
     smearing contrib. (-TS)   =      -0.02296509 Ry
     internal energy E=F+TS    =   -2939.02508696 Ry

     The total energy is F=E-TS. E is the sum of the following terms:
     one-electron contribution =  -24315.34755217 Ry
     hartree contribution      =   12241.50123543 Ry
     xc contribution           =    -485.13091423 Ry
     ewald contribution        =    9619.95214090 Ry
     electric field correction =       0.00000311 Ry

     convergence has been achieved in  80 iterations

     Forces acting on atoms (cartesian axes, Ry/au):

     atom    1 type  1   force =     0.00026380   -0.00023957    0.09664592
     atom    2 type  1   force =    -0.00018033   -0.00052551   -0.17530022
     atom    3 type  2   force =    -0.00000312   -0.00007881   -0.02504433
     atom    4 type  2   force =     0.00005822   -0.00154573    0.05297748
     atom    5 type  2   force =    -0.01217428   -0.00104448    0.00344462
     atom    6 type  2   force =     0.01405377   -0.00028556    0.00273560
     atom    7 type  1   force =    -0.00095271    0.00048914   -0.01191944
     atom    8 type  1   force =     0.00044223    0.00876324    0.02925901
     atom    9 type  2   force =     0.00051141    0.00030567   -0.00017835
     atom   10 type  2   force =    -0.00090312   -0.00020478   -0.01711785
     atom   11 type  2   force =     0.00037214    0.00017608    0.00035341
     atom   12 type  2   force =    -0.00107312    0.00081885    0.00048738
     atom   13 type  1   force =     0.00146385    0.00081738    0.00000331
     atom   14 type  1   force =    -0.00124104    0.00035529   -0.00026364
     atom   15 type  2   force =    -0.00065238    0.00069032    0.00043206
     atom   16 type  2   force =     0.00032644   -0.00036310   -0.00016948
     atom   17 type  2   force =     0.00066275    0.00025885   -0.00010311
     atom   18 type  2   force =    -0.00056140    0.00004132   -0.00029057
     atom   19 type  1   force =    -0.00022935   -0.00054308   -0.00009329
     atom   20 type  1   force =     0.00019447    0.00003225    0.00035991
     atom   21 type  2   force =     0.00008149   -0.00005884    0.10320548
     atom   22 type  2   force =    -0.00000288    0.00164443    0.00038357
     atom   23 type  2   force =    -0.07148364   -0.00015894   -0.02775912
     atom   24 type  2   force =     0.07143184    0.00026297   -0.02776004
     atom   25 type  1   force =     0.00007719   -0.00022509    0.09648894
     atom   26 type  1   force =    -0.00012955   -0.00034226   -0.17547525
     atom   27 type  2   force =     0.00006242   -0.00023758   -0.02407162
     atom   28 type  2   force =     0.00011791   -0.00128160    0.05274831
     atom   29 type  2   force =    -0.01228564    0.00002483    0.00300946
     atom   30 type  2   force =     0.01405420    0.00040492    0.00237771
     atom   31 type  1   force =    -0.00094450    0.00315508   -0.01286543
     atom   32 type  1   force =     0.00029038   -0.01002732    0.02995140
     atom   33 type  2   force =     0.00025629   -0.00013886    0.00046565
     atom   34 type  2   force =    -0.00003453   -0.00000136   -0.02439438
     atom   35 type  2   force =    -0.00032955    0.00022066   -0.00028043
     atom   36 type  2   force =    -0.00115850    0.00054009   -0.00007416
     atom   37 type  1   force =     0.00123654   -0.00092267    0.00050120
     atom   38 type  1   force =    -0.00091361   -0.00057270   -0.00004598
     atom   39 type  2   force =    -0.00023444   -0.00060460    0.00054096
     atom   40 type  2   force =     0.00008925    0.00054677    0.00014475
     atom   41 type  2   force =    -0.00106566   -0.00015440   -0.00020005
     atom   42 type  2   force =     0.00170089   -0.00020616   -0.00024687
     atom   43 type  1   force =    -0.00061365    0.00031650   -0.00045939
     atom   44 type  1   force =     0.00007770   -0.00002924   -0.00000370
     atom   45 type  2   force =     0.00005314   -0.00008722    0.10320161
     atom   46 type  2   force =    -0.07150995   -0.00015808   -0.02774528
     atom   47 type  2   force =     0.07147950    0.00034463   -0.02778510
     atom   48 type  3   force =    -0.00182896    0.00093379    0.00028408
     atom   49 type  3   force =     0.00675825   -0.00041560   -0.00565606
     atom   50 type  4   force =     0.00074478    0.00081548    0.00009715
     atom   51 type  5   force =    -0.00012419    0.00076227   -0.00039088
     atom   52 type  5   force =     0.00060626   -0.00151451   -0.00067976
     atom   53 type  5   force =    -0.00683701   -0.00075318    0.00627482

     Total force =     0.368593     Total SCF correction =     0.000272
  @ DRIVER MODE: Message from server: STATUS
  @ DRIVER MODE: Message from server: GETFORCE
  @ DRIVER MODE: Returning v,forces,stress,ensemble

     Writing output data file ./calc.save/
  @ DRIVER MODE: Message from server: EXIT
  @ DRIVE MODE: Exiting

     General routines

     Parallel routines

   This run was terminated on:  22: 5:38  10Sep2021

   JOB DONE.