     Program PWSCF v.6.7GPU starts on  2Aug2021 at 22:14:27

     R & G space division:  proc/nbgrp/npool/nimage =      16
     Reading input from /storage/home/hcoda1/3/ntian30/research/carbon/02Aug_vib_paired/ads_slab/CH3N2_b/out_0033/pw.inp
Warning: card &CELL ignored
Warning: card   CELL_DYNAMICS='IPI', ignored
Warning: card / ignored

     Current dimensions of program PWSCF are:
     Max number of different atomic species (ntypx) = 10
     Max number of k-points (npk) =  40000
     Max angular momentum in pseudopotentials (lmaxx) =  3
     Presently no symmetry can be used with electric field

     Message from routine cell_base_init:
     DEPRECATED: use true lattice parameter, not A to a.u. conversion factor

     IMPORTANT: XC functional enforced from input :
     Exchange-correlation= BEEF-VDW
                           (   1   4  43  14   2   0   0)
     Any further DFT definition will be discarded
     Please, verify this is what you really want

  @ DRIVER MODE: Connecting to
 qe_1139763_2482536.sched-torque.pace.gatech.eduqe452knw_scratch
  using UNIX socket
  @ DRIVER MODE: Message from server: STATUS
  @ DRIVER MODE: Message from server: INIT
  @ DRIVER MODE: Receiving replica           0          -1
  @ DRIVER MODE: Receiving encoded integer          25
  @ DRIVER MODE:  SCF:  T  FORCE:  T  STRESS:  F  VC:  F  ENSEMBLE:  F
  @ DRIVER MODE:  SCF:  T  FORCE:  T  STRESS:  F  VC:  F  ENSEMBLE:  F

     Using Slab Decomposition

     bravais-lattice index     =            0
     lattice parameter (alat)  =       1.8897  a.u.
     unit-cell volume          =    6658.9804 (a.u.)^3
     number of atoms/cell      =           53
     number of atomic types    =            5
     number of electrons       =       395.00
     number of Kohn-Sham states=          207
     kinetic-energy cutoff     =      29.3995  Ry
     charge density cutoff     =     293.9946  Ry
     scf convergence threshold =      7.3E-08
     mixing beta               =       0.0500
     number of iterations used =            8  plain     mixing
     Exchange-correlation= BEEF-VDW
                           (   1   4  43  14   2   0   0)

     celldm(1)=   1.889726  celldm(2)=   0.000000  celldm(3)=   0.000000
     celldm(4)=   0.000000  celldm(5)=   0.000000  celldm(6)=   0.000000

     crystal axes: (cart. coord. in units of alat)
               a(1) = (   6.579727   0.000000   0.000000 )
               a(2) = (  -0.000775   5.961596   0.000000 )
               a(3) = (   0.000000   0.000000  25.155947 )

     reciprocal axes: (cart. coord. in units 2 pi/alat)
               b(1) = (  0.151982  0.000020  0.000000 )
               b(2) = (  0.000000  0.167740  0.000000 )
               b(3) = (  0.000000  0.000000  0.039752 )

     PseudoPot. # 1 for Ti read from file:
     /storage/coda1/p-amedford6/0/shared/rich_project_chbe-medford/medford-share/data/pseudos_module/espresso/nninc/pbe/van/Ti.UPF
     MD5 check sum: 8e4df49b7f0d34bbd5052bf3f5ea0213
     Pseudo is Ultrasoft, Zval = 12.0
     Generated by new atomic code, or converted to UPF format
     Using radial grid of  851 points,  6 beta functions with:
                l(1) =   0
                l(2) =   0
                l(3) =   1
                l(4) =   1
                l(5) =   2
                l(6) =   2
     Q(r) pseudized with  8 coefficients,  rinner =    1.000   1.000   1.000
                                                       1.000   1.000

     PseudoPot. # 2 for O  read from file:
     /storage/coda1/p-amedford6/0/shared/rich_project_chbe-medford/medford-share/data/pseudos_module/espresso/nninc/pbe/van/O.UPF
     MD5 check sum: 78c19812648e8988a0fe644b0f25305e
     Pseudo is Ultrasoft, Zval =  6.0
     Generated by new atomic code, or converted to UPF format
     Using radial grid of  737 points,  4 beta functions with:
                l(1) =   0
                l(2) =   0
                l(3) =   1
                l(4) =   1
     Q(r) pseudized with  8 coefficients,  rinner =    0.800   0.800   0.800

     PseudoPot. # 3 for N  read from file:
     /storage/coda1/p-amedford6/0/shared/rich_project_chbe-medford/medford-share/data/pseudos_module/espresso/nninc/pbe/van/N.UPF
     MD5 check sum: 90d10febe142ad51ac9d5be1deb811c4
     Pseudo is Ultrasoft, Zval =  5.0
     Generated by new atomic code, or converted to UPF format
     Using radial grid of  729 points,  4 beta functions with:
                l(1) =   0
                l(2) =   0
                l(3) =   1
                l(4) =   1
     Q(r) pseudized with  8 coefficients,  rinner =    0.800   0.800   0.800

     PseudoPot. # 4 for C  read from file:
     /storage/coda1/p-amedford6/0/shared/rich_project_chbe-medford/medford-share/data/pseudos_module/espresso/nninc/pbe/van/C.UPF
     MD5 check sum: 1a69bf6b8db32088f5b2163dbdb77a27
     Pseudo is Ultrasoft, Zval =  4.0
     Generated by new atomic code, or converted to UPF format
     Using radial grid of  721 points,  4 beta functions with:
                l(1) =   0
                l(2) =   0
                l(3) =   1
                l(4) =   1
     Q(r) pseudized with  8 coefficients,  rinner =    0.800   0.800   0.800

     PseudoPot. # 5 for H  read from file:
     /storage/coda1/p-amedford6/0/shared/rich_project_chbe-medford/medford-share/data/pseudos_module/espresso/nninc/pbe/van/H.UPF
     MD5 check sum: b5ee9d7bfd3a09ee7748110bda690ff7
     Pseudo is Ultrasoft, Zval =  1.0
     Generated by new atomic code, or converted to UPF format
     Using radial grid of  615 points,  1 beta functions with:
                l(1) =   0
     Q(r) pseudized with  8 coefficients,  rinner =    0.800

     atomic species   valence    mass     pseudopotential
        Ti1           12.00    47.86700     Ti( 1.00)
        O1             6.00    15.99900     O ( 1.00)
        N1             5.00    14.00700     N ( 1.00)
        C1             4.00    12.01100     C ( 1.00)
        H1             1.00     1.00800     H ( 1.00)

     No symmetry found

   Cartesian axes

     site n.     atom                  positions (alat units)
         1           Ti1 tau(   1) = (   0.0004258   2.9801865   6.0000000  )
         2           Ti1 tau(   2) = (   3.2906075   1.4906267   6.0002472  )
         3           O1  tau(   3) = (   0.0006271   0.0005054   7.9858123  )
         4           O1  tau(   4) = (   3.2906025   0.0005020   7.3038282  )
         5           O1  tau(   5) = (   4.5942328   1.4918067   9.2879030  )
         6           O1  tau(   6) = (   1.9868534   1.4903216   9.2879459  )
         7           Ti1 tau(   7) = (   3.2907910   2.8959150   9.1758416  )
         8           Ti1 tau(   8) = (   0.0015273   1.4827037   9.2680791  )
         9           O1  tau(   9) = (   3.3037365   0.0094216  11.3222111  )
        10           O1  tau(  10) = (   0.0116148   5.9584955  10.6183126  )
        11           O1  tau(  11) = (   1.3152514   1.5075076  12.6320051  )
        12           O1  tau(  12) = (   5.3186361   1.4995162  12.6508707  )
        13           Ti1 tau(  13) = (   6.5540705   2.9956815  12.5884341  )
        14           Ti1 tau(  14) = (   3.2234832   1.4927074  12.4921739  )
        15           O1  tau(  15) = (   0.0610261   5.9052480  14.6017706  )
        16           O1  tau(  16) = (   3.2936532   0.0132264  13.8830087  )
        17           O1  tau(  17) = (   4.5722397   1.5061520  16.0138922  )
        18           O1  tau(  18) = (   2.0767725   1.5295127  16.0808449  )
        19           Ti1 tau(  19) = (   3.3650854   3.0251465  15.6907462  )
        20           Ti1 tau(  20) = (   0.0387768   1.3037779  15.7216176  )
        21           O1  tau(  21) = (   3.2904802   0.0005063   4.7018136  )
        22           O1  tau(  22) = (   0.0189486   0.1070799  17.1824039  )
        23           O1  tau(  23) = (   1.3043587   1.4918075   6.0039043  )
        24           O1  tau(  24) = (   5.2767064   1.4903225   6.0039473  )
        25           Ti1 tau(  25) = (   0.0000382   5.9609847   6.0000000  )
        26           Ti1 tau(  26) = (   3.2902200   4.4714249   6.0002472  )
        27           O1  tau(  27) = (   0.0002396   2.9813036   7.9858123  )
        28           O1  tau(  28) = (   3.2902150   2.9813002   7.3038282  )
        29           O1  tau(  29) = (   4.5938453   4.4726049   9.2879030  )
        30           O1  tau(  30) = (   1.9864658   4.4711199   9.2879459  )
        31           Ti1 tau(  31) = (   3.2891106   5.8743827   9.1763621  )
        32           Ti1 tau(  32) = (   0.0006254   4.4649316   9.2693709  )
        33           O1  tau(  33) = (   3.3043114   2.9829305  11.3227053  )
        34           O1  tau(  34) = (   0.0092240   2.9805883  10.6323155  )
        35           O1  tau(  35) = (   1.3131995   4.4620516  12.6081187  )
        36           O1  tau(  36) = (   5.3117129   4.4692194  12.6284301  )
        37           Ti1 tau(  37) = (   6.5303063   5.9583428  12.5400172  )
        38           Ti1 tau(  38) = (   3.2255477   4.4746212  12.4748647  )
        39           O1  tau(  39) = (   0.0377805   3.0059521  14.8845374  )
        40           O1  tau(  40) = (   3.3120027   2.9986483  13.8863452  )
        41           O1  tau(  41) = (   4.5434534   4.5277214  16.0148975  )
        42           O1  tau(  42) = (   2.1165747   4.4940517  16.0783766  )
        43           Ti1 tau(  43) = (   3.3042555   0.0241951  15.7004812  )
        44           Ti1 tau(  44) = (   0.0495666   4.4505358  16.3362958  )
        45           O1  tau(  45) = (   3.2900926   2.9813045   4.7018136  )
        46           O1  tau(  46) = (   1.3039711   4.4726057   6.0039043  )
        47           O1  tau(  47) = (   5.2763189   4.4711207   6.0039473  )
        48           N1  tau(  48) = (   0.5348212   3.4288502  18.0689430  )
        49           C1  tau(  49) = (   1.3556880   3.0079929  19.2215664  )
        50           H1  tau(  50) = (   1.4862090   3.8900195  19.8496782  )
        51           H1  tau(  51) = (   0.8469181   2.2141957  19.7647163  )
        52           H1  tau(  52) = (   2.3296892   2.6851793  18.8624704  )
        53           N1  tau(  53) = (   5.9145885   3.2536146  17.9655992  )

     number of k points=    10  Fermi-Dirac smearing, width (Ry)=  0.0073
                       cart. coord. in units 2pi/alat
        k(    1) = (   0.0000000   0.0000000   0.0000000), wk =   0.1250000
        k(    2) = (   0.0000000   0.0419351   0.0000000), wk =   0.2500000
        k(    3) = (   0.0000000  -0.0838702   0.0000000), wk =   0.1250000
        k(    4) = (   0.0379955   0.0000049   0.0000000), wk =   0.2500000
        k(    5) = (   0.0379955   0.0419400   0.0000000), wk =   0.2500000
        k(    6) = (   0.0379955  -0.0838652   0.0000000), wk =   0.2500000
        k(    7) = (   0.0379955  -0.0419301   0.0000000), wk =   0.2500000
        k(    8) = (  -0.0759910  -0.0000099   0.0000000), wk =   0.1250000
        k(    9) = (  -0.0759910   0.0419252   0.0000000), wk =   0.2500000
        k(   10) = (  -0.0759910  -0.0838800   0.0000000), wk =   0.1250000

     Initial potential from superposition of free atoms

     starting charge  378.99916, renormalised to  395.00000

     negative rho (up, down):  1.610E-02 0.000E+00

     %%%%%%%%%%%%%%%%%%%%%%%%%%%%%%%%%%%%%%%%%%%%%%%%%%%%%%%%%%%%%%%%%%%%%%%%
     %                                                                      %
     % You are using vdW-DF, which was implemented by the Thonhauser group. %
     % Please cite the following two papers that made this development      %
     % possible and the two reviews that describe the various versions:     %
     %                                                                      %
     %   T. Thonhauser et al., PRL 115, 136402 (2015).                      %
     %   T. Thonhauser et al., PRB 76, 125112 (2007).                       %
     %   K. Berland et al., Rep. Prog. Phys. 78, 066501 (2015).             %
     %   D.C. Langreth et al., J. Phys.: Condens. Matter 21, 084203 (2009). %
     %                                                                      %
     %                                                                      %
     % If you are calculating the stress with vdW-DF, please also cite:     %
     %                                                                      %
     %   R. Sabatini et al., J. Phys.: Condens. Matter 24, 424209 (2012).   %
     %                                                                      %
     %%%%%%%%%%%%%%%%%%%%%%%%%%%%%%%%%%%%%%%%%%%%%%%%%%%%%%%%%%%%%%%%%%%%%%%%

     Adding external electric field

     Computed dipole along edir(3) :
        Dipole               -8.5786 Ry au,        -21.8047 Debye
        Dipole field         -0.0162 Ry au,

        Potential amp.        1.5007 Ry
        Total length         46.3494 bohr

     Starting wfcs are  299 atomic wfcs
  @ DRIVER MODE: Message from server: STATUS
  @ DRIVER MODE: Message from server: POSDATA
  @ DRIVER MODE: Reading and sharing cell
  @ DRIVER MODE: Reading and sharing positions
  @ DRIVER MODE: Received positions

     Self-consistent Calculation

     iteration #  1     ecut=    29.40 Ry     beta= 0.05
     Davidson diagonalization with overlap
     c_bands:  1 eigenvalues not converged
     c_bands:  2 eigenvalues not converged
     c_bands:  1 eigenvalues not converged
     c_bands:  3 eigenvalues not converged
     c_bands:  1 eigenvalues not converged
     c_bands:  2 eigenvalues not converged
     c_bands:  2 eigenvalues not converged
     c_bands:  2 eigenvalues not converged
     ethr =  1.00E-05,  avg # of iterations = 19.2

[...]

     total energy              =   -2599.38430736 Ry
     estimated scf accuracy    <    3763.44036309 Ry

     iteration #  2     ecut=    29.40 Ry     beta= 0.05
     Davidson diagonalization with overlap
     ethr =  1.00E-02,  avg # of iterations = 21.9

[...]

     iteration # 58     ecut=    29.40 Ry     beta= 0.05
     Davidson diagonalization with overlap
     c_bands:  1 eigenvalues not converged
     ethr =  4.95E-09,  avg # of iterations = 16.1

[...]

     total energy              =   -2939.12538902 Ry
     estimated scf accuracy    <       0.00000011 Ry

     iteration # 69     ecut=    29.40 Ry     beta= 0.05
     Davidson diagonalization with overlap
     ethr =  2.76E-11,  avg # of iterations =  9.4

     negative rho (up, down):  1.619E-02 0.000E+00

     Adding external electric field

     Computed dipole along edir(3) :
        Dipole                0.9101 Ry au,          2.3132 Debye
        Dipole field          0.0017 Ry au,

        Potential amp.       -0.1592 Ry
        Total length         46.3494 bohr

     End of self-consistent calculation

          k = 0.0000 0.0000 0.0000 ( 18029 PWs)   bands (ev):

   -55.7772 -55.7711 -55.7432 -55.7352 -55.6847 -55.6365 -55.5976 -55.5636
   -55.5568 -55.5231 -55.5211 -55.4479 -54.9571 -54.8127 -54.7571 -54.7231
   -32.3200 -32.2613 -32.1760 -32.0971 -32.0694 -32.0576 -32.0487 -32.0224
   -32.0070 -31.9716 -31.9415 -31.9295 -31.9230 -31.9062 -31.8840 -31.8831
   -31.8800 -31.8796 -31.8665 -31.8364 -31.8344 -31.8229 -31.8017 -31.7930
   -31.7900 -31.7836 -31.7825 -31.7568 -31.7424 -31.7375 -31.7267 -31.7119
   -31.7079 -31.6706 -31.6375 -31.5654 -31.4940 -31.3398 -31.1683 -31.1640
   -31.1092 -31.0761 -31.0692 -31.0537 -30.9811 -30.9190 -30.8946 -30.7832
   -19.4145 -16.5185 -16.2537 -15.9683 -15.9166 -15.8421 -15.7490 -15.6259
   -15.5302 -15.4117 -15.3728 -15.3167 -15.3094 -15.2650 -15.2379 -15.2339
   -15.2077 -15.1995 -15.1354 -15.1279 -15.0771 -15.0656 -15.0177 -14.9827
   -14.9711 -14.9160 -14.8472 -14.8056 -14.6868 -14.1608 -13.2588 -13.1424
   -12.2977  -7.2584  -4.9306  -4.7733  -3.9008  -3.7583  -3.6983  -3.6863
    -3.6417  -3.4412  -3.3527  -3.2852  -3.0453  -2.9540  -2.9295  -2.9188
    -2.8696  -2.7118  -2.6620  -2.6046  -2.5893  -2.5635  -2.5415  -2.5333
    -2.4979  -2.4878  -2.4567  -2.4247  -2.3275  -2.2141  -2.1846  -2.1065
    -2.0918  -2.0753  -2.0457  -2.0354  -2.0262  -2.0163  -1.9978  -1.9602
    -1.8916  -1.8529  -1.7873  -1.7031  -1.5620  -1.5400  -1.4619  -1.3864
    -1.3063  -1.2641  -1.2420  -1.2138  -1.1741  -1.0938  -1.0684  -0.9222
    -0.8250  -0.7921  -0.7744  -0.7327  -0.6964  -0.5944  -0.5726  -0.5435
    -0.5344  -0.5067  -0.4333  -0.3764  -0.2446  -0.2139  -0.2099  -0.1721
    -0.1016  -0.0478   0.0057   0.0550   0.0627   0.0986   0.1588   0.1838
     0.1886   0.2314   0.2737   0.3486   0.3747   0.4489   0.4529   0.5171
     0.5606   0.6428   0.7501   0.8721   1.0158   1.1529   1.1970   1.2659
     1.3616   1.4578   1.8362   1.8818   2.1442   3.3362   3.4435   3.4670
     3.4791   3.5859   3.7944   3.8168   3.8655   3.8862   3.8943

[...]

          k = 0.0380-0.0419 0.0000 ( 17876 PWs)   bands (ev):

[...]

          k =-0.0760-0.0000 0.0000 ( 17886 PWs)   bands (ev):

[...]

          k =-0.0760-0.0839 0.0000 ( 17948 PWs)   bands (ev):

   -55.7603 -55.7599 -55.7538 -55.7522 -55.6775 -55.6437 -55.5806 -55.5802
   -55.5402 -55.5399 -55.5166 -55.4522 -54.9557 -54.8140 -54.7401 -54.7399
   -32.1236 -32.1200 -32.0767 -32.0764 -32.0550 -32.0546 -32.0209 -32.0062
   -31.9999 -31.9912 -31.9223 -31.9171 -31.9062 -31.8998 -31.8835 -31.8812
   -31.8807 -31.8794 -31.8790 -31.8737 -31.8554 -31.8526 -31.8514 -31.8151
   -31.7857 -31.7838 -31.7821 -31.7697 -31.7694 -31.7600 -31.7590 -31.7574
   -31.7561 -31.7378 -31.7133 -31.6622 -31.4405 -31.3228 -31.1704 -31.1617
   -31.0873 -31.0665 -31.0663 -30.9768 -30.9767 -30.9380 -30.9379 -30.9221
   -19.4123 -15.9190 -15.9128 -15.7514 -15.7169 -15.6512 -15.6424 -15.5746
   -15.5074 -15.4628 -15.4578 -15.3426 -15.3405 -15.3260 -15.3042 -15.2503
   -15.2338 -15.2329 -15.2290 -15.2213 -15.2087 -15.1818 -15.1514 -15.1007
   -15.0957 -15.0748 -15.0646 -14.9433 -14.5327 -14.4710 -13.2442 -13.2441
   -12.3002  -7.2452  -4.9321  -4.7710  -3.6226  -3.2082  -3.1918  -3.0040
    -2.9207  -2.9094  -2.8940  -2.7401  -2.7287  -2.7125  -2.6543  -2.6447
    -2.6377  -2.6017  -2.5856  -2.5616  -2.5204  -2.5157  -2.4677  -2.4647
    -2.4499  -2.4267  -2.4097  -2.4038  -2.3908  -2.3752  -2.3385  -2.2815
    -2.2437  -2.2166  -2.1881  -2.0918  -2.0312  -1.9955  -1.9284  -1.9198
    -1.8687  -1.8441  -1.8295  -1.7594  -1.6922  -1.6634  -1.5779  -1.4873
    -1.4691  -1.4535  -1.3349  -1.3210  -1.2456  -1.2226  -1.1384  -1.1217
    -1.0820  -0.9716  -0.9481  -0.9166  -0.8820  -0.8379  -0.7745  -0.7378
    -0.7357  -0.6873  -0.6428  -0.5866  -0.5255  -0.5135  -0.4983  -0.4895
    -0.4263  -0.3927  -0.3700  -0.2879  -0.2726  -0.1911  -0.0472  -0.0144
     0.1431   0.1925   0.3009   0.3285   0.4196   0.4412   0.5352   0.5384
     0.5722   0.7001   0.7193   0.7369   0.7529   0.7728   0.7966   0.9359
     1.6302   1.6304   1.7019   1.7019   2.0824   3.6693   3.7063   3.7565
     3.7783   3.8825   3.8875   3.8900   3.8978   4.0205   4.0236

     the Fermi energy is     3.3498 ev

!    total energy              =   -2939.12542902 Ry
     estimated scf accuracy    <       0.00000005 Ry
     smearing contrib. (-TS)   =      -0.02052570 Ry
     internal energy E=F+TS    =   -2939.10490333 Ry

     The total energy is F=E-TS. E is the sum of the following terms:
     one-electron contribution =  -24213.21010563 Ry
     hartree contribution      =   12195.32639060 Ry
     xc contribution           =    -485.19538561 Ry
     ewald contribution        =    9563.97263435 Ry
     electric field correction =       0.00156296 Ry

     convergence has been achieved in  69 iterations

     Forces acting on atoms (cartesian axes, Ry/au):

     atom    1 type  1   force =     0.00011271   -0.00020302    0.09589262
     atom    2 type  1   force =     0.00005414   -0.00061330   -0.17549241
     atom    3 type  2   force =     0.00017382   -0.00019739   -0.02305039
     atom    4 type  2   force =     0.00004002   -0.00128602    0.05260482
     atom    5 type  2   force =    -0.00977470   -0.00031315    0.00253374
     atom    6 type  2   force =     0.01165684    0.00022827    0.00291347
     atom    7 type  1   force =     0.00088126    0.00002039   -0.00991847
     atom    8 type  1   force =     0.00000319    0.00532133    0.01818166
     atom    9 type  2   force =    -0.00001830   -0.00028761   -0.00009727
     atom   10 type  2   force =    -0.00253918    0.00215835   -0.01348639
     atom   11 type  2   force =    -0.00097308    0.00010290    0.00018227
     atom   12 type  2   force =     0.00039308   -0.00026398    0.00050104
     atom   13 type  1   force =     0.00011474   -0.00008303    0.00056064
     atom   14 type  1   force =    -0.00005718   -0.00017695   -0.00017063
     atom   15 type  2   force =    -0.00054769    0.00010937    0.00047758
     atom   16 type  2   force =    -0.00043856    0.00006219    0.00020138
     atom   17 type  2   force =    -0.00033239   -0.00025158   -0.00054570
     atom   18 type  2   force =     0.00029296    0.00022937    0.00003258
     atom   19 type  1   force =    -0.00049991   -0.00076309    0.00071516
     atom   20 type  1   force =    -0.00035447    0.00061926   -0.00059734
     atom   21 type  2   force =     0.00007369   -0.00006271    0.10322923
     atom   22 type  2   force =    -0.00001103   -0.00037530   -0.00051293
     atom   23 type  2   force =    -0.07154729   -0.00019394   -0.02753081
     atom   24 type  2   force =     0.07152187    0.00030471   -0.02759384
     atom   25 type  1   force =     0.00014635   -0.00029081    0.09520778
     atom   26 type  1   force =     0.00010397   -0.00046728   -0.17562035
     atom   27 type  2   force =     0.00015564   -0.00012107   -0.02179351
     atom   28 type  2   force =     0.00008142   -0.00105989    0.05248340
     atom   29 type  2   force =    -0.01015497    0.00023518    0.00291356
     atom   30 type  2   force =     0.01197032    0.00052037    0.00328676
     atom   31 type  1   force =     0.00089054    0.00415973   -0.01179084
     atom   32 type  1   force =     0.00012352   -0.00632722    0.01831601
     atom   33 type  2   force =     0.00016067    0.00041713   -0.00009545
     atom   34 type  2   force =    -0.00308503   -0.00010062   -0.00867707
     atom   35 type  2   force =    -0.00020868    0.00007157    0.00001077
     atom   36 type  2   force =    -0.00004013    0.00028174   -0.00006351
     atom   37 type  1   force =     0.00045942   -0.00095376    0.00020016
     atom   38 type  1   force =    -0.00033053    0.00007465    0.00032679
     atom   39 type  2   force =     0.00016854   -0.00025416    0.00040566
     atom   40 type  2   force =    -0.00008904    0.00027397    0.00018248
     atom   41 type  2   force =     0.00018233   -0.00012828   -0.00001346
     atom   42 type  2   force =    -0.00068328    0.00006062   -0.00035631
     atom   43 type  1   force =     0.00029369    0.00070606    0.00009530
     atom   44 type  1   force =    -0.00076948   -0.00146378   -0.00019803
     atom   45 type  2   force =     0.00008011   -0.00006303    0.10316292
     atom   46 type  2   force =    -0.07155806   -0.00009693   -0.02751892
     atom   47 type  2   force =     0.07154173    0.00025492   -0.02759111
     atom   48 type  3   force =    -0.00321703   -0.00215467    0.00136917
     atom   49 type  4   force =     0.00065771    0.00056733   -0.00063997
     atom   50 type  5   force =     0.00044158    0.00022803   -0.00002675
     atom   51 type  5   force =    -0.00082365   -0.00024376   -0.00018836
     atom   52 type  5   force =     0.00034927   -0.00081015   -0.00061468
     atom   53 type  3   force =     0.00492852    0.00259902   -0.00180246

     Total force =     0.364814     Total SCF correction =     0.000599
  @ DRIVER MODE: Message from server: STATUS
  @ DRIVER MODE: Message from server: GETFORCE
  @ DRIVER MODE: Returning v,forces,stress,ensemble

     Writing output data file ./calc.save/
  @ DRIVER MODE: Message from server: EXIT
  @ DRIVE MODE: Exiting

     General routines

     Parallel routines

   This run was terminated on:  22:31:43   2Aug2021

   JOB DONE.