     Program PWSCF v.6.7GPU starts on 15Sep2021 at 15:34:19

     R & G space division:  proc/nbgrp/npool/nimage =      10
     Reading input from /storage/home/hcoda1/3/ntian30/research/carbon/CxH_vib/H2O_calc/ads_slab/CH3N2HH2O_a/out_0000/pw.inp
Warning: card &CELL ignored
Warning: card   CELL_DYNAMICS='IPI', ignored
Warning: card / ignored

     Current dimensions of program PWSCF are:
     Max number of different atomic species (ntypx) = 10
     Max number of k-points (npk) =  40000
     Max angular momentum in pseudopotentials (lmaxx) =  3
     Presently no symmetry can be used with electric field

     Message from routine cell_base_init:
     DEPRECATED: use true lattice parameter, not A to a.u. conversion factor

     IMPORTANT: XC functional enforced from input :
     Exchange-correlation= BEEF-VDW
                           (   1   4  43  14   2   0   0)
     Any further DFT definition will be discarded
     Please, verify this is what you really want

  @ DRIVER MODE: Connecting to
 qe_1139763_2852617.sched-torque.pace.gatech.eduf9nrkw2e_scratch
  using UNIX socket
  @ DRIVER MODE: Message from server: STATUS
  @ DRIVER MODE: Message from server: INIT
  @ DRIVER MODE: Receiving replica           0          -1
  @ DRIVER MODE: Receiving encoded integer          25
  @ DRIVER MODE:  SCF:  T  FORCE:  T  STRESS:  F  VC:  F  ENSEMBLE:  F
  @ DRIVER MODE:  SCF:  T  FORCE:  T  STRESS:  F  VC:  F  ENSEMBLE:  F

     Using Slab Decomposition

     bravais-lattice index     =            0
     lattice parameter (alat)  =       1.8897  a.u.
     unit-cell volume          =    6658.9804 (a.u.)^3
     number of atoms/cell      =           57
     number of atomic types    =            5
     number of electrons       =       404.00
     number of Kohn-Sham states=          212
     kinetic-energy cutoff     =      29.3995  Ry
     charge density cutoff     =     293.9946  Ry
     scf convergence threshold =      7.3E-08
     mixing beta               =       0.0500
     number of iterations used =            8  plain     mixing
     Exchange-correlation= BEEF-VDW
                           (   1   4  43  14   2   0   0)

     celldm(1)=   1.889726  celldm(2)=   0.000000  celldm(3)=   0.000000
     celldm(4)=   0.000000  celldm(5)=   0.000000  celldm(6)=   0.000000

     crystal axes: (cart. coord. in units of alat)
               a(1) = (   6.579727   0.000000   0.000000 )
               a(2) = (  -0.000775   5.961596   0.000000 )
               a(3) = (   0.000000   0.000000  25.155947 )

     reciprocal axes: (cart. coord. in units 2 pi/alat)
               b(1) = (  0.151982  0.000020  0.000000 )
               b(2) = (  0.000000  0.167740  0.000000 )
               b(3) = (  0.000000  0.000000  0.039752 )

     PseudoPot. # 1 for Ti read from file:
     /storage/coda1/p-amedford6/0/shared/rich_project_chbe-medford/medford-share/data/pseudos_module/espresso/nninc/pbe/van/Ti.UPF
     MD5 check sum: 8e4df49b7f0d34bbd5052bf3f5ea0213
     Pseudo is Ultrasoft, Zval = 12.0
     Generated by new atomic code, or converted to UPF format
     Using radial grid of  851 points,  6 beta functions with:
                l(1) =   0
                l(2) =   0
                l(3) =   1
                l(4) =   1
                l(5) =   2
                l(6) =   2
     Q(r) pseudized with  8 coefficients,  rinner =    1.000   1.000   1.000
                                                       1.000   1.000

     PseudoPot. # 2 for O  read from file:
     /storage/coda1/p-amedford6/0/shared/rich_project_chbe-medford/medford-share/data/pseudos_module/espresso/nninc/pbe/van/O.UPF
     MD5 check sum: 78c19812648e8988a0fe644b0f25305e
     Pseudo is Ultrasoft, Zval =  6.0
     Generated by new atomic code, or converted to UPF format
     Using radial grid of  737 points,  4 beta functions with:
                l(1) =   0
                l(2) =   0
                l(3) =   1
                l(4) =   1
     Q(r) pseudized with  8 coefficients,  rinner =    0.800   0.800   0.800

     PseudoPot. # 3 for N  read from file:
     /storage/coda1/p-amedford6/0/shared/rich_project_chbe-medford/medford-share/data/pseudos_module/espresso/nninc/pbe/van/N.UPF
     MD5 check sum: 90d10febe142ad51ac9d5be1deb811c4
     Pseudo is Ultrasoft, Zval =  5.0
     Generated by new atomic code, or converted to UPF format
     Using radial grid of  729 points,  4 beta functions with:
                l(1) =   0
                l(2) =   0
                l(3) =   1
                l(4) =   1
     Q(r) pseudized with  8 coefficients,  rinner =    0.800   0.800   0.800

     PseudoPot. # 4 for C  read from file:
     /storage/coda1/p-amedford6/0/shared/rich_project_chbe-medford/medford-share/data/pseudos_module/espresso/nninc/pbe/van/C.UPF
     MD5 check sum: 1a69bf6b8db32088f5b2163dbdb77a27
     Pseudo is Ultrasoft, Zval =  4.0
     Generated by new atomic code, or converted to UPF format
     Using radial grid of  721 points,  4 beta functions with:
                l(1) =   0
                l(2) =   0
                l(3) =   1
                l(4) =   1
     Q(r) pseudized with  8 coefficients,  rinner =    0.800   0.800   0.800

     PseudoPot. # 5 for H  read from file:
     /storage/coda1/p-amedford6/0/shared/rich_project_chbe-medford/medford-share/data/pseudos_module/espresso/nninc/pbe/van/H.UPF
     MD5 check sum: b5ee9d7bfd3a09ee7748110bda690ff7
     Pseudo is Ultrasoft, Zval =  1.0
     Generated by new atomic code, or converted to UPF format
     Using radial grid of  615 points,  1 beta functions with:
                l(1) =   0
     Q(r) pseudized with  8 coefficients,  rinner =    0.800

     atomic species   valence    mass     pseudopotential
        Ti1           12.00    47.86700     Ti( 1.00)
        O1             6.00    15.99900     O ( 1.00)
        N1             5.00    14.00700     N ( 1.00)
        C1             4.00    12.01100     C ( 1.00)
        H1             1.00     1.00800     H ( 1.00)

     No symmetry found

   Cartesian axes

     site n.     atom                  positions (alat units)
         1           Ti1 tau(   1) = (   0.0004258   2.9801865   6.0000000  )
         2           Ti1 tau(   2) = (   3.2906075   1.4906267   6.0002472  )
         3           O1  tau(   3) = (   0.0006271   0.0005054   7.9858123  )
         4           O1  tau(   4) = (   3.2906025   0.0005020   7.3038282  )
         5           O1  tau(   5) = (   4.5942328   1.4918067   9.2879030  )
         6           O1  tau(   6) = (   1.9868534   1.4903216   9.2879459  )
         7           Ti1 tau(   7) = (   3.2907910   2.8959150   9.1758416  )
         8           Ti1 tau(   8) = (   0.0015273   1.4827037   9.2680791  )
         9           O1  tau(   9) = (   3.2846840   0.0164488  11.3171736  )
        10           O1  tau(  10) = (   0.0116148   5.9584955  10.6183126  )
        11           O1  tau(  11) = (   1.2780696   1.4966870  12.6228330  )
        12           O1  tau(  12) = (   5.2671132   1.5021727  12.6038655  )
        13           Ti1 tau(  13) = (   0.0814623   2.9703834  12.6092300  )
        14           Ti1 tau(  14) = (   3.3984034   1.5042134  12.4754612  )
        15           O1  tau(  15) = (   6.5611900   5.9602394  14.6246442  )
        16           O1  tau(  16) = (   3.2847170   0.0117735  13.9091713  )
        17           O1  tau(  17) = (   4.5127615   1.5439160  15.9886145  )
        18           O1  tau(  18) = (   2.0245574   1.5486524  15.9865356  )
        19           Ti1 tau(  19) = (   3.2678410   3.0292036  15.6627315  )
        20           Ti1 tau(  20) = (   6.5437773   1.5790868  15.8036792  )
        21           O1  tau(  21) = (   3.2904802   0.0005063   4.7018136  )
        22           O1  tau(  22) = (   6.5616667   0.0409992  17.2467836  )
        23           O1  tau(  23) = (   1.3043587   1.4918075   6.0039043  )
        24           O1  tau(  24) = (   5.2767064   1.4903225   6.0039473  )
        25           Ti1 tau(  25) = (   0.0000382   5.9609847   6.0000000  )
        26           Ti1 tau(  26) = (   3.2902200   4.4714249   6.0002472  )
        27           O1  tau(  27) = (   0.0002396   2.9813036   7.9858123  )
        28           O1  tau(  28) = (   3.2902150   2.9813002   7.3038282  )
        29           O1  tau(  29) = (   4.5938453   4.4726049   9.2879030  )
        30           O1  tau(  30) = (   1.9864658   4.4711199   9.2879459  )
        31           Ti1 tau(  31) = (   3.2891106   5.8743827   9.1763621  )
        32           Ti1 tau(  32) = (   0.0006254   4.4649316   9.2693709  )
        33           O1  tau(  33) = (   3.2886753   2.9955121  11.3174028  )
        34           O1  tau(  34) = (   0.0092240   2.9805883  10.6323155  )
        35           O1  tau(  35) = (   1.2771457   4.4765085  12.6200386  )
        36           O1  tau(  36) = (   5.2716127   4.4859779  12.5990880  )
        37           Ti1 tau(  37) = (   0.0719143   5.9417653  12.6408960  )
        38           Ti1 tau(  38) = (   3.4009286   4.4967646  12.4819834  )
        39           O1  tau(  39) = (   6.5633752   2.9851081  14.6229342  )
        40           O1  tau(  40) = (   3.2806164   3.0132077  13.8636590  )
        41           O1  tau(  41) = (   4.5054435   4.4842064  16.0752605  )
        42           O1  tau(  42) = (   2.0287922   4.4846499  16.0567397  )
        43           Ti1 tau(  43) = (   3.2585180   0.0608266  15.7494983  )
        44           Ti1 tau(  44) = (   6.5556145   4.6328118  16.1363011  )
        45           O1  tau(  45) = (   3.2900926   2.9813045   4.7018136  )
        46           O1  tau(  46) = (   1.3039711   4.4726057   6.0039043  )
        47           O1  tau(  47) = (   5.2763189   4.4711207   6.0039473  )
        48           N1  tau(  48) = (   6.4582227   2.6263240  18.5734135  )
        49           N1  tau(  49) = (   6.5493832   2.9496485  17.3103279  )
        50           C1  tau(  50) = (   0.1600853   3.5596473  19.6455425  )
        51           H1  tau(  51) = (   6.1911903   4.4878083  19.4849519  )
        52           H1  tau(  52) = (   6.4401482   3.1080517  20.5902855  )
        53           H1  tau(  53) = (   1.2308410   3.8049764  19.6956042  )
        54           H1  tau(  54) = (   6.5044843   1.6253530  18.7706356  )
        55           O1  tau(  55) = (   3.2415852   0.0755412  18.2049893  )
        56           H1  tau(  56) = (   4.0109045   5.4607113  18.3409029  )
        57           H1  tau(  57) = (   2.4534619   5.4803556  18.3240773  )

     number of k points=    10  Fermi-Dirac smearing, width (Ry)=  0.0073
                       cart. coord. in units 2pi/alat
        k(    1) = (   0.0000000   0.0000000   0.0000000), wk =   0.1250000
        k(    2) = (   0.0000000   0.0419351   0.0000000), wk =   0.2500000
        k(    3) = (   0.0000000  -0.0838702   0.0000000), wk =   0.1250000
        k(    4) = (   0.0379955   0.0000049   0.0000000), wk =   0.2500000
        k(    5) = (   0.0379955   0.0419400   0.0000000), wk =   0.2500000
        k(    6) = (   0.0379955  -0.0838652   0.0000000), wk =   0.2500000
        k(    7) = (   0.0379955  -0.0419301   0.0000000), wk =   0.2500000
        k(    8) = (  -0.0759910  -0.0000099   0.0000000), wk =   0.1250000
        k(    9) = (  -0.0759910   0.0419252   0.0000000), wk =   0.2500000
        k(   10) = (  -0.0759910  -0.0838800   0.0000000), wk =   0.1250000

     Initial potential from superposition of free atoms

     starting charge  387.99913, renormalised to  404.00000

     negative rho (up, down):  1.445E-02 0.000E+00

     %%%%%%%%%%%%%%%%%%%%%%%%%%%%%%%%%%%%%%%%%%%%%%%%%%%%%%%%%%%%%%%%%%%%%%%%
     %                                                                      %
     % You are using vdW-DF, which was implemented by the Thonhauser group. %
     % Please cite the following two papers that made this development      %
     % possible and the two reviews that describe the various versions:     %
     %                                                                      %
     %   T. Thonhauser et al., PRL 115, 136402 (2015).                      %
     %   T. Thonhauser et al., PRB 76, 125112 (2007).                       %
     %   K. Berland et al., Rep. Prog. Phys. 78, 066501 (2015).             %
     %   D.C. Langreth et al., J. Phys.: Condens. Matter 21, 084203 (2009). %
     %                                                                      %
     %                                                                      %
     % If you are calculating the stress with vdW-DF, please also cite:     %
     %                                                                      %
     %   R. Sabatini et al., J. Phys.: Condens. Matter 24, 424209 (2012).   %
     %                                                                      %
     %%%%%%%%%%%%%%%%%%%%%%%%%%%%%%%%%%%%%%%%%%%%%%%%%%%%%%%%%%%%%%%%%%%%%%%%

     Adding external electric field

     Computed dipole along edir(3) :
        Dipole              -13.5668 Ry au,        -34.4835 Debye
        Dipole field         -0.0256 Ry au,

        Potential amp.        2.3733 Ry
        Total length         46.3494 bohr

     Starting wfcs are  306 atomic wfcs
  @ DRIVER MODE: Message from server: STATUS
  @ DRIVER MODE: Message from server: POSDATA
  @ DRIVER MODE: Reading and sharing cell
  @ DRIVER MODE: Reading and sharing positions
  @ DRIVER MODE: Received positions

     Self-consistent Calculation

     iteration #  1     ecut=    29.40 Ry     beta= 0.05
     Davidson diagonalization with overlap
     ethr =  1.00E-02,  avg # of iterations =  3.5

[...]

     total energy              =   -2396.94419416 Ry
     estimated scf accuracy    <    6645.98291573 Ry

[...]

     iteration #  3     ecut=    29.40 Ry     beta= 0.05
     Davidson diagonalization with overlap
     c_bands:  1 eigenvalues not converged
     c_bands:  1 eigenvalues not converged
     ethr =  1.00E-02,  avg # of iterations = 17.8

[...]

     iteration # 53     ecut=    29.40 Ry     beta= 0.05
     Davidson diagonalization with overlap
     c_bands:  4 eigenvalues not converged
     c_bands:  2 eigenvalues not converged
     c_bands:  3 eigenvalues not converged
     c_bands:  2 eigenvalues not converged
     c_bands:  2 eigenvalues not converged
     ethr =  1.83E-06,  avg # of iterations = 18.3

[...]

     total energy              =   -2975.23052866 Ry
     estimated scf accuracy    <       0.00000011 Ry

     iteration # 89     ecut=    29.40 Ry     beta= 0.05
     Davidson diagonalization with overlap
     ethr =  2.70E-11,  avg # of iterations =  7.5

     negative rho (up, down):  1.507E-02 0.000E+00

     Adding external electric field

     Computed dipole along edir(3) :
        Dipole                1.1603 Ry au,          2.9492 Debye
        Dipole field          0.0022 Ry au,

        Potential amp.       -0.2030 Ry
        Total length         46.3494 bohr

     End of self-consistent calculation

          k = 0.0000 0.0000 0.0000 ( 18029 PWs)   bands (ev):

   -55.5055 -55.4715 -55.3325 -55.2960 -55.2627 -55.2290 -55.2024 -55.1987
   -55.1877 -55.1648 -55.1533 -55.0143 -54.5528 -54.4359 -54.4019 -54.3890
   -31.9785 -31.8678 -31.7998 -31.7848 -31.7216 -31.7125 -31.6768 -31.6588
   -31.6215 -31.6044 -31.6009 -31.5738 -31.5644 -31.5201 -31.5118 -31.5007
   -31.4822 -31.4801 -31.4555 -31.4385 -31.4253 -31.4169 -31.4139 -31.3960
   -31.3928 -31.3849 -31.3753 -31.3682 -31.3658 -31.3636 -31.3415 -31.3301
   -31.3176 -31.3002 -31.2065 -31.1793 -31.0467 -30.8409 -30.7771 -30.7629
   -30.7578 -30.7351 -30.7241 -30.6579 -30.5995 -30.5717 -30.5686 -30.4605
   -18.7888 -17.7490 -16.0739 -15.8819 -15.6096 -15.4861 -15.4590 -15.2751
   -15.1988 -15.1475 -15.0153 -14.9680 -14.9388 -14.9085 -14.8962 -14.8388
   -14.8114 -14.7845 -14.7549 -14.7504 -14.7309 -14.7085 -14.6676 -14.6103
   -14.5848 -14.5236 -14.4734 -14.4519 -14.3585 -14.3538 -13.9285 -12.9374
   -12.8219 -11.9019  -8.8051  -6.5586  -5.6083  -4.3228  -4.0891  -3.4587
    -3.3832  -3.3241  -3.2082  -3.1292  -2.9899  -2.9506  -2.8818  -2.7766
    -2.6051  -2.5470  -2.5211  -2.4921  -2.4077  -2.2742  -2.2629  -2.2148
    -2.1870  -2.1664  -2.1518  -2.1359  -2.0401  -2.0017  -1.9647  -1.8542
    -1.8181  -1.7957  -1.7786  -1.7700  -1.7532  -1.6890  -1.6571  -1.6385
    -1.6284  -1.5915  -1.5569  -1.5458  -1.4161  -1.3975  -1.2801  -1.1518
    -1.1291  -1.0711  -1.0471  -0.8882  -0.8817  -0.8604  -0.8193  -0.8119
    -0.7400  -0.6671  -0.6246  -0.5504  -0.4318  -0.4225  -0.3876  -0.2415
    -0.2379  -0.2149  -0.1768  -0.1655  -0.1140  -0.1056  -0.0591   0.0020
     0.0964   0.1673   0.2728   0.2756   0.3285   0.3679   0.3807   0.4384
     0.4549   0.5046   0.5163   0.5240   0.5760   0.6108   0.6235   0.6814
     0.7327   0.8496   0.9191   0.9441   0.9907   1.1127   1.1878   1.2356
     1.2407   1.4090   1.5315   1.5611   1.5864   1.7866   1.8183   2.1532
     2.1971   3.6685   3.6852   3.7750   3.8341   3.9482   4.0200   4.1083
     4.1881   4.2577   4.3498   4.3907

[...]

          k = 0.0380-0.0419 0.0000 ( 17876 PWs)   bands (ev):

[...]

          k =-0.0760-0.0000 0.0000 ( 17886 PWs)   bands (ev):

[...]

          k =-0.0760-0.0839 0.0000 ( 17948 PWs)   bands (ev):

   -55.4886 -55.4882 -55.3180 -55.3103 -55.2458 -55.2455 -55.1970 -55.1909
   -55.1763 -55.1738 -55.1673 -55.0159 -54.5512 -54.4189 -54.4187 -54.3905
   -31.7941 -31.7940 -31.7851 -31.7850 -31.6809 -31.6637 -31.6097 -31.6091
   -31.5702 -31.5656 -31.5623 -31.5578 -31.5551 -31.5492 -31.5168 -31.5118
   -31.4899 -31.4808 -31.4783 -31.4710 -31.4389 -31.4367 -31.4286 -31.4260
   -31.4151 -31.4127 -31.4019 -31.3995 -31.3951 -31.3892 -31.3885 -31.3833
   -31.3560 -31.3318 -31.3163 -31.2142 -30.9562 -30.8005 -30.7660 -30.7479
   -30.7478 -30.7456 -30.6540 -30.6538 -30.6183 -30.6149 -30.6149 -30.5995
   -18.7878 -17.7431 -15.4970 -15.4310 -15.3605 -15.3566 -15.2517 -15.1988
   -15.1040 -15.0931 -15.0860 -15.0829 -14.9826 -14.9792 -14.9131 -14.9042
   -14.8648 -14.8582 -14.8544 -14.8377 -14.8229 -14.8177 -14.8028 -14.7561
   -14.7390 -14.7332 -14.5696 -14.5444 -14.4290 -14.4104 -14.0526 -12.9240
   -12.9239 -11.9032  -8.8155  -6.5425  -5.6002  -4.2727  -4.1095  -2.9311
    -2.9156  -2.7884  -2.6612  -2.5288  -2.5164  -2.4954  -2.4590  -2.2927
    -2.2800  -2.2646  -2.2551  -2.2134  -2.2021  -2.1832  -2.1689  -2.1149
    -2.0976  -2.0791  -2.0745  -2.0633  -2.0571  -2.0472  -2.0382  -2.0300
    -2.0064  -1.9591  -1.9378  -1.8558  -1.7706  -1.7609  -1.6836  -1.5545
    -1.5478  -1.5362  -1.5347  -1.5221  -1.5124  -1.4711  -1.4347  -1.3809
    -1.2699  -1.1523  -1.1018  -1.0836  -1.0289  -1.0099  -0.9213  -0.8408
    -0.8061  -0.7877  -0.7022  -0.6535  -0.5746  -0.5590  -0.5222  -0.4716
    -0.4476  -0.4335  -0.4177  -0.4095  -0.3459  -0.3021  -0.2344  -0.2205
    -0.1648  -0.1336  -0.1051  -0.0822  -0.0412   0.0518   0.0597   0.0879
     0.1149   0.1299   0.2045   0.3554   0.3957   0.6348   0.6440   0.7158
     0.8442   0.8666   0.8738   0.9503   0.9638   1.0012   1.0224   1.1427
     1.1655   1.1904   1.3183   1.3536   1.4458   1.9562   1.9571   2.0161
     2.0165   3.5313   4.1329   4.1428   4.1599   4.1733   4.1987   4.2053
     4.2478   4.2611   4.3938   4.4413

     the Fermi energy is     3.6444 ev

!    total energy              =   -2975.23053211 Ry
     estimated scf accuracy    <       0.00000002 Ry
     smearing contrib. (-TS)   =      -0.02107441 Ry
     internal energy E=F+TS    =   -2975.20945770 Ry

     The total energy is F=E-TS. E is the sum of the following terms:
     one-electron contribution =  -23878.63908463 Ry
     hartree contribution      =   12036.73240642 Ry
     xc contribution           =    -494.92708896 Ry
     ewald contribution        =    9361.62176886 Ry
     electric field correction =       0.00254061 Ry

     convergence has been achieved in  89 iterations

     Forces acting on atoms (cartesian axes, Ry/au):

     atom    1 type  1   force =     0.00016835   -0.00023399    0.09946419
     atom    2 type  1   force =    -0.00014963   -0.00039085   -0.17309603
     atom    3 type  2   force =    -0.00006831   -0.00000402   -0.02913099
     atom    4 type  2   force =     0.00003944   -0.00102720    0.04892459
     atom    5 type  2   force =    -0.01223874    0.00099326    0.00048399
     atom    6 type  2   force =     0.01354701    0.00186542   -0.00111370
     atom    7 type  1   force =    -0.00136288   -0.00053881   -0.00298708
     atom    8 type  1   force =     0.00094759   -0.00608316    0.04542837
     atom    9 type  2   force =    -0.00000098   -0.00023353   -0.00002987
     atom   10 type  2   force =    -0.00155737    0.00261432   -0.03095008
     atom   11 type  2   force =    -0.00017427   -0.00045016    0.00003654
     atom   12 type  2   force =     0.00009704   -0.00023473    0.00014123
     atom   13 type  1   force =    -0.00020227   -0.00054669   -0.00035714
     atom   14 type  1   force =     0.00031076   -0.00016877    0.00022537
     atom   15 type  2   force =    -0.00000058   -0.00012716   -0.00027987
     atom   16 type  2   force =    -0.00021849    0.00005149    0.00013208
     atom   17 type  2   force =     0.00018271   -0.00027611    0.00015696
     atom   18 type  2   force =    -0.00005576   -0.00034832    0.00001525
     atom   19 type  1   force =     0.00007639   -0.00014794    0.00032709
     atom   20 type  1   force =    -0.00002675   -0.00054746    0.00024424
     atom   21 type  2   force =     0.00008916   -0.00000550    0.10259018
     atom   22 type  2   force =     0.00008799   -0.00022477   -0.00003289
     atom   23 type  2   force =    -0.07249767   -0.00008799   -0.02845587
     atom   24 type  2   force =     0.07246226    0.00034279   -0.02843788
     atom   25 type  1   force =     0.00009235   -0.00027597    0.09897552
     atom   26 type  1   force =    -0.00006333   -0.00041432   -0.17327405
     atom   27 type  2   force =    -0.00003391    0.00000403   -0.02843805
     atom   28 type  2   force =     0.00009510   -0.00076100    0.04809018
     atom   29 type  2   force =    -0.01260746    0.00063000    0.00051876
     atom   30 type  2   force =     0.01384152    0.00095961   -0.00105159
     atom   31 type  1   force =    -0.00145983    0.00225273   -0.00570934
     atom   32 type  1   force =     0.00112202    0.00383990    0.04594515
     atom   33 type  2   force =    -0.00006349   -0.00026358   -0.00010787
     atom   34 type  2   force =    -0.00096518    0.00133950   -0.03380182
     atom   35 type  2   force =    -0.00028159    0.00004344   -0.00024969
     atom   36 type  2   force =     0.00050020    0.00009977   -0.00004200
     atom   37 type  1   force =    -0.00032454    0.00007117    0.00023711
     atom   38 type  1   force =     0.00018572   -0.00029401    0.00003748
     atom   39 type  2   force =     0.00002562   -0.00051247    0.00038286
     atom   40 type  2   force =    -0.00005147    0.00017580   -0.00026745
     atom   41 type  2   force =    -0.00013547   -0.00024644    0.00005386
     atom   42 type  2   force =     0.00021448   -0.00017924   -0.00005539
     atom   43 type  1   force =     0.00008953    0.00003037   -0.00012877
     atom   44 type  1   force =    -0.00001450   -0.00021262   -0.00000154
     atom   45 type  2   force =     0.00009712   -0.00001390    0.10258140
     atom   46 type  2   force =    -0.07251798   -0.00000953   -0.02844771
     atom   47 type  2   force =     0.07247935    0.00037669   -0.02843920
     atom   48 type  3   force =    -0.00037617   -0.00038389   -0.00031577
     atom   49 type  3   force =     0.00014229   -0.00057073   -0.00022223
     atom   50 type  4   force =     0.00018780   -0.00038344    0.00007393
     atom   51 type  5   force =     0.00017298   -0.00014112    0.00021359
     atom   52 type  5   force =    -0.00010876    0.00024292    0.00021923
     atom   53 type  5   force =     0.00005995   -0.00008469    0.00014518
     atom   54 type  5   force =     0.00032298    0.00009193    0.00019431
     atom   55 type  2   force =     0.00060590    0.00057724   -0.00027982
     atom   56 type  5   force =    -0.00018721   -0.00038110   -0.00024017
     atom   57 type  5   force =    -0.00049900    0.00020285    0.00010523

     Total force =     0.372069     Total SCF correction =     0.000346
  @ DRIVER MODE: Message from server: STATUS
  @ DRIVER MODE: Message from server: GETFORCE
  @ DRIVER MODE: Returning v,forces,stress,ensemble

     Writing output data file ./calc.save/
  @ DRIVER MODE: Message from server: EXIT
  @ DRIVE MODE: Exiting

     General routines

     Parallel routines

   This run was terminated on:  15:56:49  15Sep2021

   JOB DONE.