     Program PWSCF v.6.7GPU starts on 18Oct2021 at 12:38:13

     R & G space division:  proc/nbgrp/npool/nimage =       8
     Reading input from /storage/home/hcoda1/3/ntian30/research/carbon/CxH_vib/Thiel_calc/ads_slab/NNH2_perslab/out_0002/pw.inp
Warning: card &CELL ignored
Warning: card   CELL_DYNAMICS='IPI', ignored
Warning: card / ignored

     Current dimensions of program PWSCF are:
     Max number of different atomic species (ntypx) = 10
     Max number of k-points (npk) =  40000
     Max angular momentum in pseudopotentials (lmaxx) =  3
     Presently no symmetry can be used with electric field

     Message from routine cell_base_init:
     DEPRECATED: use true lattice parameter, not A to a.u. conversion factor

     IMPORTANT: XC functional enforced from input :
     Exchange-correlation= BEEF-VDW
                           (   1   4  43  14   2   0   0)
     Any further DFT definition will be discarded
     Please, verify this is what you really want

  @ DRIVER MODE: Connecting to
 qe_1139763_3255132.sched-torque.pace.gatech.eduo6xzdtux_scratch
  using UNIX socket
  @ DRIVER MODE: Message from server: STATUS
  @ DRIVER MODE: Message from server: INIT
  @ DRIVER MODE: Receiving replica           0          -1
  @ DRIVER MODE: Receiving encoded integer          25
  @ DRIVER MODE:  SCF:  T  FORCE:  T  STRESS:  F  VC:  F  ENSEMBLE:  F
  @ DRIVER MODE:  SCF:  T  FORCE:  T  STRESS:  F  VC:  F  ENSEMBLE:  F

     Using Slab Decomposition

     bravais-lattice index     =            0
     lattice parameter (alat)  =       1.8897  a.u.
     unit-cell volume          =    9988.4706 (a.u.)^3
     number of atoms/cell      =           57
     number of atomic types    =            4
     number of electrons       =       438.00
     number of Kohn-Sham states=          229
     kinetic-energy cutoff     =      29.3995  Ry
     charge density cutoff     =     293.9946  Ry
     scf convergence threshold =      7.3E-08
     mixing beta               =       0.0500
     number of iterations used =            8  plain     mixing
     Exchange-correlation= BEEF-VDW
                           (   1   4  43  14   2   0   0)

     celldm(1)=   1.889726  celldm(2)=   0.000000  celldm(3)=   0.000000
     celldm(4)=   0.000000  celldm(5)=   0.000000  celldm(6)=   0.000000

     crystal axes: (cart. coord. in units of alat)
               a(1) = (   6.579727   0.000000   0.000000 )
               a(2) = (  -0.001163   8.942395   0.000000 )
               a(3) = (   0.000000   0.000000  25.155947 )

     reciprocal axes: (cart. coord. in units 2 pi/alat)
               b(1) = (  0.151982  0.000020  0.000000 )
               b(2) = (  0.000000  0.111827  0.000000 )
               b(3) = (  0.000000  0.000000  0.039752 )

     PseudoPot. # 1 for O  read from file:
     /storage/coda1/p-amedford6/0/shared/rich_project_chbe-medford/medford-share/data/pseudos_module/espresso/nninc/pbe/van/O.UPF
     MD5 check sum: 78c19812648e8988a0fe644b0f25305e
     Pseudo is Ultrasoft, Zval =  6.0
     Generated by new atomic code, or converted to UPF format
     Using radial grid of  737 points,  4 beta functions with:
                l(1) =   0
                l(2) =   0
                l(3) =   1
                l(4) =   1
     Q(r) pseudized with  8 coefficients,  rinner =    0.800   0.800   0.800

     PseudoPot. # 2 for Ti read from file:
     /storage/coda1/p-amedford6/0/shared/rich_project_chbe-medford/medford-share/data/pseudos_module/espresso/nninc/pbe/van/Ti.UPF
     MD5 check sum: 8e4df49b7f0d34bbd5052bf3f5ea0213
     Pseudo is Ultrasoft, Zval = 12.0
     Generated by new atomic code, or converted to UPF format
     Using radial grid of  851 points,  6 beta functions with:
                l(1) =   0
                l(2) =   0
                l(3) =   1
                l(4) =   1
                l(5) =   2
                l(6) =   2
     Q(r) pseudized with  8 coefficients,  rinner =    1.000   1.000   1.000
                                                       1.000   1.000

     PseudoPot. # 3 for H  read from file:
     /storage/coda1/p-amedford6/0/shared/rich_project_chbe-medford/medford-share/data/pseudos_module/espresso/nninc/pbe/van/H.UPF
     MD5 check sum: b5ee9d7bfd3a09ee7748110bda690ff7
     Pseudo is Ultrasoft, Zval =  1.0
     Generated by new atomic code, or converted to UPF format
     Using radial grid of  615 points,  1 beta functions with:
                l(1) =   0
     Q(r) pseudized with  8 coefficients,  rinner =    0.800

     PseudoPot. # 4 for N  read from file:
     /storage/coda1/p-amedford6/0/shared/rich_project_chbe-medford/medford-share/data/pseudos_module/espresso/nninc/pbe/van/N.UPF
     MD5 check sum: 90d10febe142ad51ac9d5be1deb811c4
     Pseudo is Ultrasoft, Zval =  5.0
     Generated by new atomic code, or converted to UPF format
     Using radial grid of  729 points,  4 beta functions with:
                l(1) =   0
                l(2) =   0
                l(3) =   1
                l(4) =   1
     Q(r) pseudized with  8 coefficients,  rinner =    0.800   0.800   0.800

     atomic species   valence    mass     pseudopotential
        O1             6.00    15.99900     O ( 1.00)
        Ti1           12.00    47.86700     Ti( 1.00)
        H1             1.00     1.00800     H ( 1.00)
        N1             5.00    14.00700     N ( 1.00)

     No symmetry found

   Cartesian axes

     site n.     atom                  positions (alat units)
         1           O1  tau(   1) = (   0.0007354   0.0005023  10.5931620  )
         2           O1  tau(   2) = (   3.2894307   8.9151027  13.8626301  )
         3           O1  tau(   3) = (   6.5785074   8.9029937  17.1811234  )
         4           O1  tau(   4) = (   0.0006271   0.0005054   7.9858123  )
         5           O1  tau(   5) = (   3.2894531   8.9103059  11.1803102  )
         6           O1  tau(   6) = (   0.0001665   0.0898506  14.4854618  )
         7           O1  tau(   7) = (   1.9868534   1.4903216   9.2879459  )
         8           O1  tau(   8) = (   5.2077972   1.5880252  12.5310617  )
         9           O1  tau(   9) = (   2.0270748   1.5591520  16.0154840  )
        10           Ti1 tau(  10) = (   0.0007404   1.4906270   9.2895810  )
        11           Ti1 tau(  11) = (   3.2905041   1.3137855  12.4866761  )
        12           Ti1 tau(  12) = (   0.0002678   1.1980239  15.9503415  )
        13           O1  tau(  13) = (   4.5942328   1.4918067   9.2879030  )
        14           O1  tau(  14) = (   1.3724876   1.5877008  12.5310667  )
        15           O1  tau(  15) = (   4.5530873   1.5595562  16.0152608  )
        16           Ti1 tau(  16) = (   3.2902859   2.9801868   9.2893338  )
        17           Ti1 tau(  17) = (   0.0008780   2.7802750  12.4897906  )
        18           Ti1 tau(  18) = (   3.2898779   2.8637395  15.6733051  )
        19           O1  tau(  19) = (   0.0003479   2.9813005  10.5931620  )
        20           O1  tau(  20) = (   3.2899356   2.9525523  13.8505550  )
        21           O1  tau(  21) = (   0.0002396   2.9813036   7.9858123  )
        22           O1  tau(  22) = (   3.2901204   2.9601344  11.1763257  )
        23           O1  tau(  23) = (   0.0004730   3.0483324  14.4991547  )
        24           O1  tau(  24) = (   1.9864658   4.4711199   9.2879459  )
        25           O1  tau(  25) = (   5.2121867   4.5795871  12.5488104  )
        26           O1  tau(  26) = (   2.0380122   4.5167588  15.9960207  )
        27           Ti1 tau(  27) = (   0.0003529   4.4714252   9.2895810  )
        28           Ti1 tau(  28) = (   3.2900145   4.2996056  12.4866231  )
        29           Ti1 tau(  29) = (   0.0009039   4.3359069  15.7637737  )
        30           O1  tau(  30) = (   4.5938453   4.4726049   9.2879030  )
        31           O1  tau(  31) = (   1.3674610   4.5798255  12.5489393  )
        32           O1  tau(  32) = (   4.5418257   4.5152924  15.9960624  )
        33           Ti1 tau(  33) = (   3.2898983   5.9609850   9.2893338  )
        34           Ti1 tau(  34) = (   0.0004239   5.7833099  12.5042391  )
        35           Ti1 tau(  35) = (   3.2910320   5.8371074  15.6885635  )
        36           O1  tau(  36) = (  -0.0000397   5.9620987  10.5931620  )
        37           O1  tau(  37) = (   3.2901811   5.9367453  13.8700337  )
        38           O1  tau(  38) = (  -0.0004039   5.8805593  17.2333871  )
        39           O1  tau(  39) = (  -0.0001480   5.9621018   7.9858123  )
        40           O1  tau(  40) = (   3.2898277   5.9371809  11.1794419  )
        41           O1  tau(  41) = (  -0.0006310   6.0052776  14.6075531  )
        42           O1  tau(  42) = (   1.9860782   7.4519181   9.2879459  )
        43           O1  tau(  43) = (   5.2131951   7.5341658  12.5551123  )
        44           O1  tau(  44) = (   2.0327247   7.5116181  16.0212389  )
        45           Ti1 tau(  45) = (  -0.0000347   7.4522234   9.2895810  )
        46           Ti1 tau(  46) = (   3.2898580   7.2746474  12.4940400  )
        47           Ti1 tau(  47) = (  -0.0002525   7.1929251  16.1233257  )
        48           O1  tau(  48) = (   4.5934577   7.4534031   9.2879030  )
        49           O1  tau(  49) = (   1.3658113   7.5340457  12.5553947  )
        50           O1  tau(  50) = (   4.5451309   7.5107891  16.0219122  )
        51           Ti1 tau(  51) = (   3.2895107   8.9417832   9.2893338  )
        52           Ti1 tau(  52) = (   0.0004043   8.7442612  12.5370553  )
        53           Ti1 tau(  53) = (   3.2888508   8.8110328  15.6839088  )
        54           H1  tau(  54) = (   0.0074189   3.9800110  18.9428080  )
        55           N1  tau(  55) = (   6.5778577   3.0643241  18.4967573  )
        56           N1  tau(  56) = (   0.0000211   2.9855599  17.2125610  )
        57           H1  tau(  57) = (   6.5772452   2.2208360  19.0633684  )

     number of k points=    10  Fermi-Dirac smearing, width (Ry)=  0.0073
                       cart. coord. in units 2pi/alat
        k(    1) = (   0.0000000   0.0000000   0.0000000), wk =   0.1250000
        k(    2) = (   0.0000000   0.0279567   0.0000000), wk =   0.2500000
        k(    3) = (   0.0000000  -0.0559134   0.0000000), wk =   0.1250000
        k(    4) = (   0.0379955   0.0000049   0.0000000), wk =   0.2500000
        k(    5) = (   0.0379955   0.0279617   0.0000000), wk =   0.2500000
        k(    6) = (   0.0379955  -0.0559085   0.0000000), wk =   0.2500000
        k(    7) = (   0.0379955  -0.0279518   0.0000000), wk =   0.2500000
        k(    8) = (  -0.0759910  -0.0000099   0.0000000), wk =   0.1250000
        k(    9) = (  -0.0759910   0.0279468   0.0000000), wk =   0.2500000
        k(   10) = (  -0.0759910  -0.0559233   0.0000000), wk =   0.1250000

     Initial potential from superposition of free atoms

     starting charge  419.99912, renormalised to  438.00000

     negative rho (up, down):  3.820E-02 0.000E+00

     %%%%%%%%%%%%%%%%%%%%%%%%%%%%%%%%%%%%%%%%%%%%%%%%%%%%%%%%%%%%%%%%%%%%%%%%
     %                                                                      %
     % You are using vdW-DF, which was implemented by the Thonhauser group. %
     % Please cite the following two papers that made this development      %
     % possible and the two reviews that describe the various versions:     %
     %                                                                      %
     %   T. Thonhauser et al., PRL 115, 136402 (2015).                      %
     %   T. Thonhauser et al., PRB 76, 125112 (2007).                       %
     %   K. Berland et al., Rep. Prog. Phys. 78, 066501 (2015).             %
     %   D.C. Langreth et al., J. Phys.: Condens. Matter 21, 084203 (2009). %
     %                                                                      %
     %                                                                      %
     % If you are calculating the stress with vdW-DF, please also cite:     %
     %                                                                      %
     %   R. Sabatini et al., J. Phys.: Condens. Matter 24, 424209 (2012).   %
     %                                                                      %
     %%%%%%%%%%%%%%%%%%%%%%%%%%%%%%%%%%%%%%%%%%%%%%%%%%%%%%%%%%%%%%%%%%%%%%%%

     Adding external electric field

     Computed dipole along edir(3) :
        Dipole               -4.0077 Ry au,        -10.1866 Debye
        Dipole field         -0.0050 Ry au,

        Potential amp.        0.4674 Ry
        Total length         46.3494 bohr

     Starting wfcs are  330 atomic wfcs
  @ DRIVER MODE: Message from server: STATUS
  @ DRIVER MODE: Message from server: POSDATA
  @ DRIVER MODE: Reading and sharing cell
  @ DRIVER MODE: Reading and sharing positions
  @ DRIVER MODE: Received positions

     Self-consistent Calculation

     iteration #  1     ecut=    29.40 Ry     beta= 0.05
     Davidson diagonalization with overlap
     c_bands:  2 eigenvalues not converged
     c_bands:  4 eigenvalues not converged
     c_bands:  1 eigenvalues not converged
     c_bands:  4 eigenvalues not converged
     c_bands:  1 eigenvalues not converged
     c_bands:  1 eigenvalues not converged
     ethr =  1.00E-05,  avg # of iterations = 25.3

[...]

     total energy              =   -3291.57982934 Ry
     estimated scf accuracy    <      28.48412262 Ry

     iteration #  2     ecut=    29.40 Ry     beta= 0.05
     Davidson diagonalization with overlap
     ethr =  6.50E-03,  avg # of iterations =  4.7

[...]

     iteration # 35     ecut=    29.40 Ry     beta= 0.05
     Davidson diagonalization with overlap
     c_bands:  1 eigenvalues not converged
     ethr =  2.88E-07,  avg # of iterations =  7.5

[...]

     total energy              =   -3290.76831216 Ry
     estimated scf accuracy    <       0.00000010 Ry

     iteration # 56     ecut=    29.40 Ry     beta= 0.05
     Davidson diagonalization with overlap
     ethr =  1.92E-11,  avg # of iterations =  2.7

     negative rho (up, down):  3.580E-02 0.000E+00

     Adding external electric field

     Computed dipole along edir(3) :
        Dipole                1.4089 Ry au,          3.5811 Debye
        Dipole field          0.0018 Ry au,

        Potential amp.       -0.1643 Ry
        Total length         46.3494 bohr

     End of self-consistent calculation

          k = 0.0000 0.0000 0.0000 ( 26871 PWs)   bands (ev):

   -58.0999 -58.0756 -58.0726 -57.9810 -57.9574 -57.9516 -57.8990 -57.8651
   -57.8330 -57.6322 -57.5519 -57.5084 -57.0196 -56.9784 -56.9558 -56.8029
   -56.7753 -56.7654 -34.4590 -34.4570 -34.4545 -34.4434 -34.4402 -34.3914
   -34.3883 -34.3180 -34.2978 -34.2747 -34.2684 -34.2434 -34.2395 -34.2162
   -34.2119 -34.2062 -34.1995 -34.1976 -34.1812 -34.1603 -34.1553 -34.1461
   -34.1446 -34.1353 -34.0923 -34.0822 -34.0462 -34.0269 -33.9954 -33.9147
   -33.8477 -33.8056 -33.7979 -33.7900 -33.7324 -33.6605 -33.5321 -33.4368
   -33.2917 -33.2700 -33.2508 -33.2394 -33.2264 -33.2174 -33.1423 -33.1364
   -33.1202 -33.1119 -33.1083 -33.0918 -33.0141 -32.9533 -32.9396 -32.8131
   -20.4755 -18.8329 -18.3407 -18.2134 -18.2077 -18.1892 -18.1476 -18.1402
   -18.0720 -17.8258 -17.6989 -17.6774 -17.6742 -17.6451 -17.5732 -17.5709
   -17.5437 -17.5110 -17.4982 -17.4738 -17.3963 -17.3923 -17.3209 -17.2895
   -17.2355 -17.1648 -17.1165 -17.0887 -17.0192 -16.8985 -16.7212 -16.5742
   -16.4266 -15.2738 -15.2287 -15.2230 -12.9660  -9.1857  -6.9537  -6.1813
    -5.8699  -5.7470  -5.7239  -5.4583  -5.4461  -5.3712  -5.3612  -5.3150
    -5.2325  -5.2286  -5.2171  -5.2142  -5.1752  -5.0463  -5.0334  -4.9004
    -4.8447  -4.8276  -4.8133  -4.7891  -4.7307  -4.7158  -4.6583  -4.6477
    -4.6275  -4.6162  -4.6071  -4.5104  -4.4719  -4.3777  -4.3514  -4.3274
    -4.3097  -4.2595  -4.1928  -4.1468  -4.1356  -4.0702  -4.0453  -3.9754
    -3.9503  -3.9460  -3.9252  -3.8911  -3.8382  -3.6563  -3.6327  -3.5477
    -3.4197  -3.3509  -3.2667  -3.2570  -3.1789  -3.1673  -3.1447  -3.1334
    -3.1240  -3.1133  -3.0496  -2.9681  -2.9398  -2.8947  -2.8747  -2.8637
    -2.8346  -2.6971  -2.6968  -2.6868  -2.6766  -2.6272  -2.6220  -2.5846
    -2.5809  -2.5774  -2.4769  -2.3893  -2.3599  -2.3464  -2.3106  -2.2613
    -2.1910  -2.1803  -2.1545  -2.0672  -1.9873  -1.9587  -1.7863  -1.7372
    -1.6889  -1.6468  -1.6444  -1.6217  -1.5702  -1.4772  -1.4668  -1.4103
    -1.3597  -1.2023  -0.9957  -0.7223  -0.5013  -0.4908  -0.4642  -0.2936
    -0.2817  -0.1875   0.9413   0.9619   1.2038   1.4190   1.4233   1.5160
     1.6914   1.7080   1.7182   1.7351   1.7961

[...]

          k = 0.0380-0.0280 0.0000 ( 26873 PWs)   bands (ev):

[...]

          k =-0.0760-0.0000 0.0000 ( 26902 PWs)   bands (ev):

[...]

          k =-0.0760-0.0559 0.0000 ( 26868 PWs)   bands (ev):

   -58.0929 -58.0896 -58.0656 -57.9753 -57.9687 -57.9458 -57.8977 -57.8674
   -57.8319 -57.6320 -57.5525 -57.5081 -57.0187 -56.9806 -56.9544 -56.7999
   -56.7823 -56.7612 -34.5391 -34.5203 -34.4480 -34.4453 -34.4028 -34.3882
   -34.2964 -34.2786 -34.2581 -34.2551 -34.2436 -34.2416 -34.2294 -34.2272
   -34.2236 -34.2216 -34.2186 -34.2140 -34.1759 -34.1729 -34.1692 -34.1398
   -34.1338 -34.1128 -34.1070 -34.0984 -34.0757 -34.0370 -33.9268 -33.9104
   -33.8651 -33.8465 -33.8062 -33.7966 -33.7331 -33.6607 -33.5751 -33.3555
   -33.2967 -33.2725 -33.2530 -33.2494 -33.2201 -33.2170 -33.1920 -33.1642
   -33.1436 -33.1276 -33.1074 -33.0007 -32.9825 -32.9256 -32.9174 -32.9013
   -20.4748 -18.5510 -18.5418 -18.2347 -18.1108 -18.0962 -17.9485 -17.8909
   -17.8621 -17.8570 -17.8085 -17.7975 -17.7631 -17.7448 -17.6577 -17.6528
   -17.5970 -17.5883 -17.5834 -17.5510 -17.5358 -17.5206 -17.3216 -17.2657
   -17.1804 -17.1483 -17.1266 -17.0115 -16.9947 -16.9597 -16.7334 -16.5737
   -16.3946 -15.2817 -15.2733 -15.1609 -12.9642  -9.1863  -6.9118  -5.8541
    -5.8454  -5.7395  -5.7021  -5.4476  -5.2133  -5.2007  -5.1938  -5.1730
    -5.1620  -5.1114  -5.0910  -5.0861  -5.0453  -5.0339  -5.0020  -4.9714
    -4.8935  -4.8608  -4.8542  -4.8477  -4.8375  -4.7833  -4.7091  -4.6909
    -4.6623  -4.6368  -4.5830  -4.5164  -4.4673  -4.4360  -4.4122  -4.3246
    -4.2752  -4.2629  -4.0936  -4.0727  -4.0694  -3.9879  -3.9550  -3.8869
    -3.8495  -3.7592  -3.5699  -3.5685  -3.5614  -3.5565  -3.4818  -3.4686
    -3.4538  -3.4338  -3.3752  -3.3479  -3.3432  -3.3226  -3.2665  -3.2279
    -3.1479  -3.0905  -3.0878  -3.0803  -3.0571  -3.0483  -3.0262  -3.0022
    -2.9769  -2.9440  -2.9048  -2.8661  -2.8511  -2.7865  -2.7161  -2.6826
    -2.6626  -2.6458  -2.6254  -2.5341  -2.5027  -2.4008  -2.3764  -2.2667
    -2.1345  -2.0154  -1.9803  -1.9647  -1.9635  -1.8833  -1.8174  -1.8074
    -1.7693  -1.7148  -1.6412  -1.6398  -1.5767  -1.5040  -1.3351  -1.3264
    -1.3119  -1.2691  -1.1550  -1.1380  -0.7307  -0.4173  -0.4061  -0.3677
    -0.3145  -0.3103   0.8590   1.1319   1.2180   1.2335   1.3262   1.3380
     1.3892   1.4992   1.5583   1.5702   1.7546

     the Fermi energy is     0.9506 ev

!    total energy              =   -3290.76836777 Ry
     estimated scf accuracy    <       0.00000006 Ry
     smearing contrib. (-TS)   =      -0.02527218 Ry
     internal energy E=F+TS    =   -3290.74309559 Ry

     The total energy is F=E-TS. E is the sum of the following terms:
     one-electron contribution =  -34651.75919845 Ry
     hartree contribution      =   17388.89060856 Ry
     xc contribution           =    -540.56809078 Ry
     ewald contribution        =   14512.69108768 Ry
     electric field correction =       0.00249740 Ry

     convergence has been achieved in  56 iterations

     Forces acting on atoms (cartesian axes, Ry/au):

     atom    1 type  1   force =     0.00005534    0.00573943    0.05230640
     atom    2 type  1   force =    -0.00006572   -0.00108084   -0.00802685
     atom    3 type  1   force =     0.00002048   -0.00576561   -0.00141876
     atom    4 type  1   force =     0.00004803    0.00074678    0.10115195
     atom    5 type  1   force =    -0.00006002   -0.00054371    0.00808076
     atom    6 type  1   force =     0.00006220   -0.00068844    0.00120232
     atom    7 type  1   force =     0.07734503   -0.00001962   -0.03168928
     atom    8 type  1   force =     0.00602201   -0.02644265    0.00063853
     atom    9 type  1   force =     0.00714585   -0.01972134    0.00208620
     atom   10 type  2   force =    -0.00006811   -0.01109159   -0.16209740
     atom   11 type  2   force =     0.00030742    0.01947748   -0.00148454
     atom   12 type  2   force =    -0.00015852    0.02604085   -0.00099639
     atom   13 type  1   force =    -0.07744813   -0.00046119   -0.03165876
     atom   14 type  1   force =    -0.00577582   -0.02672811    0.00065372
     atom   15 type  1   force =    -0.00734035   -0.01973470    0.00200878
     atom   16 type  2   force =     0.00012062   -0.00267104    0.06039739
     atom   17 type  2   force =    -0.00050999    0.03271607    0.00353079
     atom   18 type  2   force =     0.00020755    0.01780086   -0.00034260
     atom   19 type  1   force =     0.00005455    0.00935313    0.05080403
     atom   20 type  1   force =    -0.00006535   -0.00145831   -0.00570177
     atom   21 type  1   force =     0.00004623    0.00264095    0.10242137
     atom   22 type  1   force =    -0.00005477   -0.00071397    0.00789948
     atom   23 type  1   force =     0.00003836   -0.00210734    0.00105771
     atom   24 type  1   force =     0.07606824   -0.00029314   -0.03167400
     atom   25 type  1   force =     0.00668232   -0.02613989    0.00079809
     atom   26 type  1   force =     0.00580051   -0.01947730    0.00051116
     atom   27 type  2   force =    -0.00005310   -0.00162919   -0.16992945
     atom   28 type  2   force =     0.00031714    0.02056893   -0.00171266
     atom   29 type  2   force =    -0.00008138    0.02392971    0.00174937
     atom   30 type  1   force =    -0.07617382   -0.00074442   -0.03164048
     atom   31 type  1   force =    -0.00640749   -0.02644868    0.00081625
     atom   32 type  1   force =    -0.00575934   -0.01933993    0.00048297
     atom   33 type  2   force =     0.00011399   -0.00117636    0.06159254
     atom   34 type  2   force =    -0.00055000    0.03174566    0.00375295
     atom   35 type  2   force =     0.00007698    0.02582366    0.00302321
     atom   36 type  1   force =     0.00004514    0.00404457    0.05968125
     atom   37 type  1   force =    -0.00006358   -0.00141505   -0.00682695
     atom   38 type  1   force =     0.00006194   -0.00312530   -0.00221243
     atom   39 type  1   force =     0.00005273   -0.00126108    0.10265466
     atom   40 type  1   force =    -0.00005972   -0.00077179    0.00710763
     atom   41 type  1   force =     0.00004450   -0.00322996    0.00248528
     atom   42 type  1   force =     0.07735450   -0.00092222   -0.03228741
     atom   43 type  1   force =     0.00824940   -0.02793212    0.00023221
     atom   44 type  1   force =     0.00771301   -0.02190072    0.00211443
     atom   45 type  2   force =    -0.00008299    0.00749688   -0.16112436
     atom   46 type  2   force =     0.00033671    0.02097911   -0.00161935
     atom   47 type  2   force =    -0.00009341    0.02092497   -0.00088124
     atom   48 type  1   force =    -0.07745658   -0.00136873   -0.03226452
     atom   49 type  1   force =    -0.00797126   -0.02824011    0.00024727
     atom   50 type  1   force =    -0.00772474   -0.02183108    0.00209899
     atom   51 type  2   force =     0.00011622   -0.00315064    0.06196894
     atom   52 type  2   force =    -0.00054467    0.03310521    0.00409748
     atom   53 type  2   force =     0.00008433    0.02975766    0.00534979
     atom   54 type  3   force =    -0.00032691    0.00023544    0.00035868
     atom   55 type  4   force =     0.00032414    0.00090074   -0.00152653
     atom   56 type  4   force =    -0.00007803   -0.00484149    0.00103162
     atom   57 type  3   force =     0.00005835    0.00043960    0.00072157

     Total force =     0.436452     Total SCF correction =     0.000761
  @ DRIVER MODE: Message from server: STATUS
  @ DRIVER MODE: Message from server: GETFORCE
  @ DRIVER MODE: Returning v,forces,stress,ensemble

     Writing output data file ./calc.save/
  @ DRIVER MODE: Message from server: EXIT
  @ DRIVE MODE: Exiting

     General routines

     Parallel routines

   This run was terminated on:  13: 7:46  18Oct2021

   JOB DONE.