     Program PWSCF v.6.7GPU starts on 26Sep2021 at 13:22: 9

     R & G space division:  proc/nbgrp/npool/nimage =       8
     Reading input from /storage/home/hcoda1/3/ntian30/research/carbon/CxH_vib/H2O_calc/ads_slab/CH2OHN2HO_a/out_0040/pw.inp
Warning: card &CELL ignored
Warning: card   CELL_DYNAMICS='IPI', ignored
Warning: card / ignored

     Current dimensions of program PWSCF are:
     Max number of different atomic species (ntypx) = 10
     Max number of k-points (npk) =  40000
     Max angular momentum in pseudopotentials (lmaxx) =  3
     Presently no symmetry can be used with electric field

     Message from routine cell_base_init:
     DEPRECATED: use true lattice parameter, not A to a.u. conversion factor

     IMPORTANT: XC functional enforced from input :
     Exchange-correlation= BEEF-VDW
                           (   1   4  43  14   2   0   0)
     Any further DFT definition will be discarded
     Please, verify this is what you really want

  @ DRIVER MODE: Connecting to
 qe_1139763_2971670.sched-torque.pace.gatech.edum9i00usd_scratch
  using UNIX socket
  @ DRIVER MODE: Message from server: STATUS
  @ DRIVER MODE: Message from server: INIT
  @ DRIVER MODE: Receiving replica           0          -1
  @ DRIVER MODE: Receiving encoded integer          25
  @ DRIVER MODE:  SCF:  T  FORCE:  T  STRESS:  F  VC:  F  ENSEMBLE:  F
  @ DRIVER MODE:  SCF:  T  FORCE:  T  STRESS:  F  VC:  F  ENSEMBLE:  F

     Using Slab Decomposition

     bravais-lattice index     =            0
     lattice parameter (alat)  =       1.8897  a.u.
     unit-cell volume          =    6658.9804 (a.u.)^3
     number of atoms/cell      =           56
     number of atomic types    =            5
     number of electrons       =       408.00
     number of Kohn-Sham states=          214
     kinetic-energy cutoff     =      29.3995  Ry
     charge density cutoff     =     293.9946  Ry
     scf convergence threshold =      7.3E-08
     mixing beta               =       0.0500
     number of iterations used =            8  plain     mixing
     Exchange-correlation= BEEF-VDW
                           (   1   4  43  14   2   0   0)

     celldm(1)=   1.889726  celldm(2)=   0.000000  celldm(3)=   0.000000
     celldm(4)=   0.000000  celldm(5)=   0.000000  celldm(6)=   0.000000

     crystal axes: (cart. coord. in units of alat)
               a(1) = (   6.579727   0.000000   0.000000 )
               a(2) = (  -0.000775   5.961596   0.000000 )
               a(3) = (   0.000000   0.000000  25.155947 )

     reciprocal axes: (cart. coord. in units 2 pi/alat)
               b(1) = (  0.151982  0.000020  0.000000 )
               b(2) = (  0.000000  0.167740  0.000000 )
               b(3) = (  0.000000  0.000000  0.039752 )

     PseudoPot. # 1 for C  read from file:
     /storage/coda1/p-amedford6/0/shared/rich_project_chbe-medford/medford-share/data/pseudos_module/espresso/nninc/pbe/van/C.UPF
     MD5 check sum: 1a69bf6b8db32088f5b2163dbdb77a27
     Pseudo is Ultrasoft, Zval =  4.0
     Generated by new atomic code, or converted to UPF format
     Using radial grid of  721 points,  4 beta functions with:
                l(1) =   0
                l(2) =   0
                l(3) =   1
                l(4) =   1
     Q(r) pseudized with  8 coefficients,  rinner =    0.800   0.800   0.800

     PseudoPot. # 2 for H  read from file:
     /storage/coda1/p-amedford6/0/shared/rich_project_chbe-medford/medford-share/data/pseudos_module/espresso/nninc/pbe/van/H.UPF
     MD5 check sum: b5ee9d7bfd3a09ee7748110bda690ff7
     Pseudo is Ultrasoft, Zval =  1.0
     Generated by new atomic code, or converted to UPF format
     Using radial grid of  615 points,  1 beta functions with:
                l(1) =   0
     Q(r) pseudized with  8 coefficients,  rinner =    0.800

     PseudoPot. # 3 for O  read from file:
     /storage/coda1/p-amedford6/0/shared/rich_project_chbe-medford/medford-share/data/pseudos_module/espresso/nninc/pbe/van/O.UPF
     MD5 check sum: 78c19812648e8988a0fe644b0f25305e
     Pseudo is Ultrasoft, Zval =  6.0
     Generated by new atomic code, or converted to UPF format
     Using radial grid of  737 points,  4 beta functions with:
                l(1) =   0
                l(2) =   0
                l(3) =   1
                l(4) =   1
     Q(r) pseudized with  8 coefficients,  rinner =    0.800   0.800   0.800

     PseudoPot. # 4 for Ti read from file:
     /storage/coda1/p-amedford6/0/shared/rich_project_chbe-medford/medford-share/data/pseudos_module/espresso/nninc/pbe/van/Ti.UPF
     MD5 check sum: 8e4df49b7f0d34bbd5052bf3f5ea0213
     Pseudo is Ultrasoft, Zval = 12.0
     Generated by new atomic code, or converted to UPF format
     Using radial grid of  851 points,  6 beta functions with:
                l(1) =   0
                l(2) =   0
                l(3) =   1
                l(4) =   1
                l(5) =   2
                l(6) =   2
     Q(r) pseudized with  8 coefficients,  rinner =    1.000   1.000   1.000
                                                       1.000   1.000

     PseudoPot. # 5 for N  read from file:
     /storage/coda1/p-amedford6/0/shared/rich_project_chbe-medford/medford-share/data/pseudos_module/espresso/nninc/pbe/van/N.UPF
     MD5 check sum: 90d10febe142ad51ac9d5be1deb811c4
     Pseudo is Ultrasoft, Zval =  5.0
     Generated by new atomic code, or converted to UPF format
     Using radial grid of  729 points,  4 beta functions with:
                l(1) =   0
                l(2) =   0
                l(3) =   1
                l(4) =   1
     Q(r) pseudized with  8 coefficients,  rinner =    0.800   0.800   0.800

     atomic species   valence    mass     pseudopotential
        C1             4.00    12.01100     C ( 1.00)
        H1             1.00     1.00800     H ( 1.00)
        O1             6.00    15.99900     O ( 1.00)
        Ti1           12.00    47.86700     Ti( 1.00)
        N1             5.00    14.00700     N ( 1.00)

     No symmetry found

   Cartesian axes

     site n.     atom                  positions (alat units)
         1           C1  tau(   1) = (   4.4694424   3.1333252  19.5683752  )
         2           H1  tau(   2) = (   3.5225350   3.1610456  19.0510688  )
         3           H1  tau(   3) = (   5.8501665   2.9975095  17.9951248  )
         4           H1  tau(   4) = (   4.8161173   2.2403860  20.0673745  )
         5           O1  tau(   5) = (   0.0006271   0.0005054   7.9858123  )
         6           O1  tau(   6) = (   3.2906025   0.0005020   7.3038282  )
         7           O1  tau(   7) = (   4.5942328   1.4918067   9.2879030  )
         8           O1  tau(   8) = (   1.9868534   1.4903216   9.2879459  )
         9           O1  tau(   9) = (   3.2658522   0.0207364  11.3165592  )
        10           O1  tau(  10) = (   0.0022773   0.0111808  10.5833539  )
        11           O1  tau(  11) = (   1.2584498   1.5025451  12.6333345  )
        12           O1  tau(  12) = (   5.2827793   1.4879884  12.6049259  )
        13           O1  tau(  13) = (   6.5229081   0.0016576  14.6697044  )
        14           O1  tau(  14) = (   3.2671471   5.9223268  13.9212949  )
        15           O1  tau(  15) = (   4.5038562   1.5078053  16.0770842  )
        16           O1  tau(  16) = (   1.9713840   1.5400684  15.9915579  )
        17           O1  tau(  17) = (   3.2904802   0.0005063   4.7018136  )
        18           O1  tau(  18) = (   0.0083768   5.9574009  17.1899481  )
        19           O1  tau(  19) = (   1.3043587   1.4918075   6.0039043  )
        20           O1  tau(  20) = (   5.2767064   1.4903225   6.0039473  )
        21           O1  tau(  21) = (   0.0002396   2.9813036   7.9858123  )
        22           O1  tau(  22) = (   3.2902150   2.9813002   7.3038282  )
        23           O1  tau(  23) = (   4.5938453   4.4726049   9.2879030  )
        24           O1  tau(  24) = (   1.9864658   4.4711199   9.2879459  )
        25           O1  tau(  25) = (   3.2699439   2.9592623  11.2883102  )
        26           O1  tau(  26) = (   0.0014687   2.9942081  10.5424492  )
        27           O1  tau(  27) = (   1.2624719   4.4656417  12.6394791  )
        28           O1  tau(  28) = (   5.2897987   4.4902883  12.6063686  )
        29           O1  tau(  29) = (   6.5205774   2.9949485  14.6561412  )
        30           O1  tau(  30) = (   3.3050662   2.9767913  13.8748461  )
        31           O1  tau(  31) = (   4.4950179   4.4323158  16.0974573  )
        32           O1  tau(  32) = (   1.9671975   4.4064719  15.9829847  )
        33           O1  tau(  33) = (   3.2900926   2.9813045   4.7018136  )
        34           O1  tau(  34) = (   1.3039711   4.4726057   6.0039043  )
        35           O1  tau(  35) = (   5.2763189   4.4711207   6.0039473  )
        36           O1  tau(  36) = (   6.5424668   2.9800173  17.2949776  )
        37           Ti1 tau(  37) = (   0.0004258   2.9801865   6.0000000  )
        38           Ti1 tau(  38) = (   3.2906075   1.4906267   6.0002472  )
        39           Ti1 tau(  39) = (   3.3167600   3.1006338   9.2159236  )
        40           Ti1 tau(  40) = (   0.0391818   1.5627686   9.3440282  )
        41           Ti1 tau(  41) = (   6.5783755   3.0458713  12.7937554  )
        42           Ti1 tau(  42) = (   3.2318486   1.5634082  12.4209175  )
        43           Ti1 tau(  43) = (   3.2670811   2.9501284  15.6494465  )
        44           Ti1 tau(  44) = (   0.0280251   1.4030395  16.0254105  )
        45           Ti1 tau(  45) = (   0.0000382   5.9609847   6.0000000  )
        46           Ti1 tau(  46) = (   3.2902200   4.4714249   6.0002472  )
        47           Ti1 tau(  47) = (   3.3194908   0.1157174   9.1781592  )
        48           Ti1 tau(  48) = (   0.0398790   4.5135925   9.3581580  )
        49           Ti1 tau(  49) = (   6.5007586   0.0629955  12.6074658  )
        50           Ti1 tau(  50) = (   3.2510718   4.6571100  12.6672192  )
        51           Ti1 tau(  51) = (   3.3282601   5.9350673  16.2366838  )
        52           Ti1 tau(  52) = (   0.0495319   4.5308688  15.9870001  )
        53           N1  tau(  53) = (   5.2748021   5.2735043  20.4272172  )
        54           N1  tau(  54) = (   4.8779203   4.2832533  20.0576380  )
        55           O1  tau(  55) = (   3.0402417   5.9484128  18.0530970  )
        56           H1  tau(  56) = (   2.1234608   0.1014992  18.3542784  )

     number of k points=    10  Fermi-Dirac smearing, width (Ry)=  0.0073
                       cart. coord. in units 2pi/alat
        k(    1) = (   0.0000000   0.0000000   0.0000000), wk =   0.1250000
        k(    2) = (   0.0000000   0.0419351   0.0000000), wk =   0.2500000
        k(    3) = (   0.0000000  -0.0838702   0.0000000), wk =   0.1250000
        k(    4) = (   0.0379955   0.0000049   0.0000000), wk =   0.2500000
        k(    5) = (   0.0379955   0.0419400   0.0000000), wk =   0.2500000
        k(    6) = (   0.0379955  -0.0838652   0.0000000), wk =   0.2500000
        k(    7) = (   0.0379955  -0.0419301   0.0000000), wk =   0.2500000
        k(    8) = (  -0.0759910  -0.0000099   0.0000000), wk =   0.1250000
        k(    9) = (  -0.0759910   0.0419252   0.0000000), wk =   0.2500000
        k(   10) = (  -0.0759910  -0.0838800   0.0000000), wk =   0.1250000

     Initial potential from superposition of free atoms

     starting charge  391.99915, renormalised to  408.00000

     negative rho (up, down):  1.414E-02 0.000E+00

     %%%%%%%%%%%%%%%%%%%%%%%%%%%%%%%%%%%%%%%%%%%%%%%%%%%%%%%%%%%%%%%%%%%%%%%%
     %                                                                      %
     % You are using vdW-DF, which was implemented by the Thonhauser group. %
     % Please cite the following two papers that made this development      %
     % possible and the two reviews that describe the various versions:     %
     %                                                                      %
     %   T. Thonhauser et al., PRL 115, 136402 (2015).                      %
     %   T. Thonhauser et al., PRB 76, 125112 (2007).                       %
     %   K. Berland et al., Rep. Prog. Phys. 78, 066501 (2015).             %
     %   D.C. Langreth et al., J. Phys.: Condens. Matter 21, 084203 (2009). %
     %                                                                      %
     %                                                                      %
     % If you are calculating the stress with vdW-DF, please also cite:     %
     %                                                                      %
     %   R. Sabatini et al., J. Phys.: Condens. Matter 24, 424209 (2012).   %
     %                                                                      %
     %%%%%%%%%%%%%%%%%%%%%%%%%%%%%%%%%%%%%%%%%%%%%%%%%%%%%%%%%%%%%%%%%%%%%%%%

     Adding external electric field

     Computed dipole along edir(3) :
        Dipole              -15.5929 Ry au,        -39.6331 Debye
        Dipole field         -0.0294 Ry au,

        Potential amp.        2.7277 Ry
        Total length         46.3494 bohr

     Starting wfcs are  308 atomic wfcs
  @ DRIVER MODE: Message from server: STATUS
  @ DRIVER MODE: Message from server: POSDATA
  @ DRIVER MODE: Reading and sharing cell
  @ DRIVER MODE: Reading and sharing positions
  @ DRIVER MODE: Received positions

     Self-consistent Calculation

     iteration #  1     ecut=    29.40 Ry     beta= 0.05
     Davidson diagonalization with overlap
     c_bands:  3 eigenvalues not converged
     c_bands:  1 eigenvalues not converged
     c_bands:  1 eigenvalues not converged
     c_bands:  2 eigenvalues not converged
     c_bands:  4 eigenvalues not converged
     c_bands:  2 eigenvalues not converged
     ethr =  1.00E-05,  avg # of iterations = 30.2

[...]

     total energy              =   -2234.24896551 Ry
     estimated scf accuracy    <    8817.41073320 Ry

     iteration #  2     ecut=    29.40 Ry     beta= 0.05
     Davidson diagonalization with overlap
     ethr =  1.00E-02,  avg # of iterations = 31.5

[...]

     iteration # 69     ecut=    29.40 Ry     beta= 0.05
     Davidson diagonalization with overlap
     c_bands:  1 eigenvalues not converged
     ethr =  1.10E-08,  avg # of iterations =  4.4

[...]

     total energy              =   -3005.15851135 Ry
     estimated scf accuracy    <       0.00000013 Ry

     iteration # 81     ecut=    29.40 Ry     beta= 0.05
     Davidson diagonalization with overlap
     ethr =  3.21E-11,  avg # of iterations =  4.9

     negative rho (up, down):  1.447E-02 0.000E+00

     Adding external electric field

     Computed dipole along edir(3) :
        Dipole                0.5089 Ry au,          1.2936 Debye
        Dipole field          0.0010 Ry au,

        Potential amp.       -0.0890 Ry
        Total length         46.3494 bohr

     End of self-consistent calculation

          k = 0.0000 0.0000 0.0000 ( 18029 PWs)   bands (ev):

   -56.1885 -56.1420 -55.6459 -55.6393 -55.6212 -55.5747 -55.5629 -55.5225
   -55.5110 -55.4822 -55.4382 -55.3958 -55.3917 -55.2685 -54.8127 -54.7788
   -32.6027 -32.4518 -32.4030 -32.3687 -32.2744 -32.2290 -32.1391 -32.0798
   -32.0702 -32.0161 -31.9491 -31.9366 -31.9342 -31.8793 -31.8786 -31.8714
   -31.8568 -31.8374 -31.8226 -31.8042 -31.7948 -31.7865 -31.7501 -31.7264
   -31.7229 -31.7052 -31.7002 -31.6961 -31.6955 -31.6873 -31.6811 -31.6738
   -31.6618 -31.6441 -31.6410 -31.5995 -31.5906 -31.5836 -31.5576 -31.5222
   -31.4820 -31.4702 -31.2075 -31.1520 -31.1277 -31.0245 -30.9396 -30.8286
   -20.7742 -16.8323 -16.4136 -16.3516 -16.2086 -15.9783 -15.8413 -15.7569
   -15.5261 -15.5095 -15.3965 -15.3878 -15.3446 -15.2326 -15.2183 -15.1814
   -15.1759 -15.1620 -15.1490 -15.1141 -15.1095 -15.1024 -15.0350 -15.0072
   -14.9796 -14.9357 -14.8810 -14.8405 -14.7708 -14.7655 -14.7209 -14.5171
   -13.6920 -13.3134 -13.2044  -6.3405  -5.3879  -4.8471  -4.3240  -4.0097
    -3.8768  -3.6610  -3.5662  -3.5571  -3.4246  -3.3667  -3.2687  -3.0490
    -2.9160  -2.8335  -2.8031  -2.7430  -2.7201  -2.6501  -2.6162  -2.6068
    -2.5663  -2.5166  -2.4854  -2.4575  -2.4473  -2.4236  -2.3804  -2.3483
    -2.3324  -2.3291  -2.2894  -2.1425  -2.1293  -2.0715  -2.0624  -2.0157
    -2.0094  -1.9811  -1.9704  -1.9246  -1.8874  -1.7479  -1.7301  -1.7164
    -1.6487  -1.4304  -1.3958  -1.2988  -1.2392  -1.2049  -1.1087  -1.1072
    -1.0756  -1.0452  -0.9965  -0.9163  -0.8827  -0.8264  -0.7809  -0.7740
    -0.7247  -0.6580  -0.6088  -0.5499  -0.5132  -0.4747  -0.3956  -0.3439
    -0.2777  -0.2587  -0.2087  -0.1698  -0.0787  -0.0447  -0.0161   0.0365
     0.0610   0.1259   0.1294   0.1702   0.1884   0.2678   0.2967   0.3145
     0.3643   0.3900   0.4052   0.4675   0.5303   0.5735   0.6190   0.7210
     0.7649   0.7908   0.8613   0.9376   1.1060   1.2057   1.2346   1.4301
     1.4624   1.7594   1.8074   1.8688   3.1097   3.2744   3.5622   3.6506
     3.6889   3.7199   3.8169   3.8471   4.0029   4.0458

[...]

          k = 0.0380-0.0419 0.0000 ( 17876 PWs)   bands (ev):

[...]

          k =-0.0760-0.0000 0.0000 ( 17886 PWs)   bands (ev):

[...]

          k =-0.0760-0.0839 0.0000 ( 17948 PWs)   bands (ev):

   -56.1813 -56.1491 -55.6441 -55.6374 -55.6157 -55.5684 -55.5679 -55.5291
   -55.5124 -55.4839 -55.4297 -55.4042 -55.3894 -55.2707 -54.7959 -54.7955
   -32.4471 -32.4332 -32.4073 -32.4057 -32.3337 -32.3064 -32.0285 -31.9462
   -31.9460 -31.9186 -31.9135 -31.8800 -31.8779 -31.8671 -31.8577 -31.8463
   -31.8372 -31.8246 -31.8104 -31.8022 -31.7959 -31.7934 -31.7843 -31.7822
   -31.7758 -31.7754 -31.7635 -31.7463 -31.7169 -31.7138 -31.7041 -31.6949
   -31.6936 -31.6691 -31.6522 -31.6421 -31.6373 -31.6185 -31.5884 -31.5823
   -31.5220 -31.4738 -31.1408 -31.1406 -31.0230 -31.0213 -30.9818 -30.9809
   -20.7735 -16.7553 -16.3896 -15.7929 -15.6629 -15.6550 -15.6542 -15.6188
   -15.5780 -15.5253 -15.4981 -15.4441 -15.3755 -15.3484 -15.3315 -15.3064
   -15.2625 -15.2306 -15.2163 -15.1430 -15.1057 -15.0938 -15.0786 -15.0678
   -15.0245 -15.0214 -15.0025 -14.9960 -14.9870 -14.9314 -14.8340 -14.6578
   -13.6992 -13.3086 -13.3074  -6.2719  -5.4311  -4.8006  -4.2896  -3.9834
    -3.5229  -3.0207  -2.9187  -2.8404  -2.8327  -2.7447  -2.7038  -2.6730
    -2.6534  -2.6350  -2.6080  -2.5594  -2.5351  -2.4994  -2.4898  -2.4885
    -2.4695  -2.4633  -2.4418  -2.4173  -2.4043  -2.3894  -2.3802  -2.3670
    -2.3522  -2.3405  -2.3305  -2.2938  -2.2420  -2.2206  -2.0446  -2.0119
    -2.0047  -2.0040  -1.9367  -1.9326  -1.8741  -1.8010  -1.7849  -1.7637
    -1.7451  -1.6318  -1.4948  -1.4463  -1.3903  -1.3690  -1.3007  -1.2486
    -1.1525  -1.1337  -1.1228  -1.1048  -1.0610  -1.0570  -0.9713  -0.9172
    -0.8736  -0.8694  -0.8490  -0.8053  -0.6858  -0.6768  -0.6388  -0.6156
    -0.6013  -0.4994  -0.4673  -0.4471  -0.4324  -0.4207  -0.3164  -0.2669
    -0.2209  -0.1728  -0.1127  -0.0539   0.0694   0.0942   0.1880   0.2191
     0.2587   0.3933   0.4188   0.4678   0.5035   0.5569   0.5947   0.6102
     0.7363   0.7924   0.8105   0.8769   0.8975   0.9362   0.9599   1.5981
     1.6042   1.6116   1.6140   1.8068   3.6520   3.6784   3.6846   3.7191
     3.9024   3.9316   4.0109   4.0345   4.0493   4.0602

     the Fermi energy is     2.5715 ev

!    total energy              =   -3005.15852575 Ry
     estimated scf accuracy    <       0.00000006 Ry
     smearing contrib. (-TS)   =      -0.00024420 Ry
     internal energy E=F+TS    =   -3005.15828155 Ry

     The total energy is F=E-TS. E is the sum of the following terms:
     one-electron contribution =  -22952.42588827 Ry
     hartree contribution      =   11572.18793681 Ry
     xc contribution           =    -500.31256664 Ry
     ewald contribution        =    8875.39174775 Ry
     electric field correction =       0.00048880 Ry

     convergence has been achieved in  81 iterations

     Forces acting on atoms (cartesian axes, Ry/au):

     atom    1 type  1   force =     0.00421175    0.01133140    0.00229552
     atom    2 type  2   force =     0.00005972    0.00068314    0.00050392
     atom    3 type  2   force =    -0.00061739    0.00007623    0.00033005
     atom    4 type  2   force =    -0.00002278    0.00147076    0.00114135
     atom    5 type  3   force =     0.00027548   -0.00316517   -0.05387062
     atom    6 type  3   force =     0.00044473    0.00119990    0.04056438
     atom    7 type  3   force =    -0.00981143   -0.00221344    0.00043598
     atom    8 type  3   force =     0.00889232   -0.00511724   -0.00066386
     atom    9 type  3   force =     0.00010119    0.00003361    0.00001669
     atom   10 type  3   force =    -0.00010207    0.00004875    0.00003416
     atom   11 type  3   force =     0.00013921   -0.00000424   -0.00009333
     atom   12 type  3   force =     0.00001814    0.00014190    0.00002346
     atom   13 type  3   force =     0.00001007    0.00003246   -0.00005135
     atom   14 type  3   force =     0.00007181   -0.00008888    0.00038030
     atom   15 type  3   force =    -0.00006981   -0.00000874    0.00010612
     atom   16 type  3   force =     0.00003521   -0.00014954   -0.00000211
     atom   17 type  3   force =    -0.00006814    0.00016611    0.09943481
     atom   18 type  3   force =     0.00005223   -0.00008348    0.00030838
     atom   19 type  3   force =    -0.08022298    0.00059448   -0.03415827
     atom   20 type  3   force =     0.07999560    0.00110854   -0.03418325
     atom   21 type  3   force =     0.00051640    0.00002172   -0.05295232
     atom   22 type  3   force =     0.00038225    0.00049032    0.04231883
     atom   23 type  3   force =    -0.01094297    0.00576169    0.00235054
     atom   24 type  3   force =     0.01007126    0.00213508    0.00120445
     atom   25 type  3   force =     0.00007834    0.00000434    0.00010507
     atom   26 type  3   force =     0.00000933    0.00006718    0.00002417
     atom   27 type  3   force =     0.00008257    0.00008460   -0.00000084
     atom   28 type  3   force =     0.00005200   -0.00002243    0.00007653
     atom   29 type  3   force =     0.00013045   -0.00013744    0.00006676
     atom   30 type  3   force =    -0.00001693   -0.00005727    0.00003436
     atom   31 type  3   force =     0.00005465    0.00004049   -0.00007083
     atom   32 type  3   force =     0.00002282   -0.00013177    0.00015147
     atom   33 type  3   force =    -0.00008020    0.00025626    0.09903258
     atom   34 type  3   force =    -0.08022115   -0.00145026   -0.03415638
     atom   35 type  3   force =     0.08000302   -0.00092686   -0.03420902
     atom   36 type  3   force =     0.00044749   -0.00016402   -0.00050668
     atom   37 type  4   force =     0.00020648    0.00016693    0.13338322
     atom   38 type  4   force =     0.00002333    0.00799922   -0.15914497
     atom   39 type  4   force =    -0.00006151   -0.00006154   -0.00005138
     atom   40 type  4   force =    -0.00007707    0.00016320    0.00003439
     atom   41 type  4   force =    -0.00028575   -0.00002287   -0.00007461
     atom   42 type  4   force =    -0.00007498    0.00012664   -0.00010315
     atom   43 type  4   force =     0.00013095   -0.00003722    0.00007196
     atom   44 type  4   force =     0.00016500    0.00027391   -0.00007645
     atom   45 type  4   force =    -0.00023446   -0.00009323    0.14212206
     atom   46 type  4   force =    -0.00018989   -0.00647586   -0.15859784
     atom   47 type  4   force =     0.00011299   -0.00009240    0.00000226
     atom   48 type  4   force =    -0.00015552    0.00015057    0.00011784
     atom   49 type  4   force =    -0.00011941   -0.00000440    0.00008776
     atom   50 type  4   force =    -0.00010222   -0.00007041   -0.00007082
     atom   51 type  4   force =     0.00026362    0.00004915   -0.00010762
     atom   52 type  4   force =     0.00009309   -0.00036002    0.00011917
     atom   53 type  5   force =     0.01331360    0.03392023    0.01138069
     atom   54 type  5   force =    -0.01726065   -0.04760520   -0.01526587
     atom   55 type  3   force =    -0.00011916    0.00033519   -0.00008564
     atom   56 type  2   force =     0.00038938   -0.00039010    0.00023799

     Total force =     0.390716     Total SCF correction =     0.000706
  @ DRIVER MODE: Message from server: STATUS
  @ DRIVER MODE: Message from server: GETFORCE
  @ DRIVER MODE: Returning v,forces,stress,ensemble

     Writing output data file ./calc.save/
  @ DRIVER MODE: Message from server: EXIT
  @ DRIVE MODE: Exiting

     General routines

     Parallel routines

   This run was terminated on:  14: 9:35  26Sep2021

   JOB DONE.