     Program PWSCF v.6.7GPU starts on  4Aug2021 at  1:32:22

     R & G space division:  proc/nbgrp/npool/nimage =      16
     Reading input from /storage/home/hcoda1/3/ntian30/research/carbon/02Aug_vib_paired/ads_slab/CH3NH3NH3_a/out_0033/pw.inp
Warning: card &CELL ignored
Warning: card   CELL_DYNAMICS='IPI', ignored
Warning: card / ignored

     Current dimensions of program PWSCF are:
     Max number of different atomic species (ntypx) = 10
     Max number of k-points (npk) =  40000
     Max angular momentum in pseudopotentials (lmaxx) =  3
     Presently no symmetry can be used with electric field

     Message from routine cell_base_init:
     DEPRECATED: use true lattice parameter, not A to a.u. conversion factor

     IMPORTANT: XC functional enforced from input :
     Exchange-correlation= BEEF-VDW
                           (   1   4  43  14   2   0   0)
     Any further DFT definition will be discarded
     Please, verify this is what you really want

  @ DRIVER MODE: Connecting to
 qe_1139763_2492108.sched-torque.pace.gatech.edube2fgaxy_scratch
  using UNIX socket
  @ DRIVER MODE: Message from server: STATUS
  @ DRIVER MODE: Message from server: INIT
  @ DRIVER MODE: Receiving replica           0          -1
  @ DRIVER MODE: Receiving encoded integer          25
  @ DRIVER MODE:  SCF:  T  FORCE:  T  STRESS:  F  VC:  F  ENSEMBLE:  F
  @ DRIVER MODE:  SCF:  T  FORCE:  T  STRESS:  F  VC:  F  ENSEMBLE:  F

     Using Slab Decomposition

     bravais-lattice index     =            0
     lattice parameter (alat)  =       1.8897  a.u.
     unit-cell volume          =    6658.9804 (a.u.)^3
     number of atoms/cell      =           59
     number of atomic types    =            5
     number of electrons       =       401.00
     number of Kohn-Sham states=          210
     kinetic-energy cutoff     =      29.3995  Ry
     charge density cutoff     =     293.9946  Ry
     scf convergence threshold =      7.3E-08
     mixing beta               =       0.0500
     number of iterations used =            8  plain     mixing
     Exchange-correlation= BEEF-VDW
                           (   1   4  43  14   2   0   0)

     celldm(1)=   1.889726  celldm(2)=   0.000000  celldm(3)=   0.000000
     celldm(4)=   0.000000  celldm(5)=   0.000000  celldm(6)=   0.000000

     crystal axes: (cart. coord. in units of alat)
               a(1) = (   6.579727   0.000000   0.000000 )
               a(2) = (  -0.000775   5.961596   0.000000 )
               a(3) = (   0.000000   0.000000  25.155947 )

     reciprocal axes: (cart. coord. in units 2 pi/alat)
               b(1) = (  0.151982  0.000020  0.000000 )
               b(2) = (  0.000000  0.167740  0.000000 )
               b(3) = (  0.000000  0.000000  0.039752 )

     PseudoPot. # 1 for Ti read from file:
     /storage/coda1/p-amedford6/0/shared/rich_project_chbe-medford/medford-share/data/pseudos_module/espresso/nninc/pbe/van/Ti.UPF
     MD5 check sum: 8e4df49b7f0d34bbd5052bf3f5ea0213
     Pseudo is Ultrasoft, Zval = 12.0
     Generated by new atomic code, or converted to UPF format
     Using radial grid of  851 points,  6 beta functions with:
                l(1) =   0
                l(2) =   0
                l(3) =   1
                l(4) =   1
                l(5) =   2
                l(6) =   2
     Q(r) pseudized with  8 coefficients,  rinner =    1.000   1.000   1.000
                                                       1.000   1.000

     PseudoPot. # 2 for O  read from file:
     /storage/coda1/p-amedford6/0/shared/rich_project_chbe-medford/medford-share/data/pseudos_module/espresso/nninc/pbe/van/O.UPF
     MD5 check sum: 78c19812648e8988a0fe644b0f25305e
     Pseudo is Ultrasoft, Zval =  6.0
     Generated by new atomic code, or converted to UPF format
     Using radial grid of  737 points,  4 beta functions with:
                l(1) =   0
                l(2) =   0
                l(3) =   1
                l(4) =   1
     Q(r) pseudized with  8 coefficients,  rinner =    0.800   0.800   0.800

     PseudoPot. # 3 for C  read from file:
     /storage/coda1/p-amedford6/0/shared/rich_project_chbe-medford/medford-share/data/pseudos_module/espresso/nninc/pbe/van/C.UPF
     MD5 check sum: 1a69bf6b8db32088f5b2163dbdb77a27
     Pseudo is Ultrasoft, Zval =  4.0
     Generated by new atomic code, or converted to UPF format
     Using radial grid of  721 points,  4 beta functions with:
                l(1) =   0
                l(2) =   0
                l(3) =   1
                l(4) =   1
     Q(r) pseudized with  8 coefficients,  rinner =    0.800   0.800   0.800

     PseudoPot. # 4 for H  read from file:
     /storage/coda1/p-amedford6/0/shared/rich_project_chbe-medford/medford-share/data/pseudos_module/espresso/nninc/pbe/van/H.UPF
     MD5 check sum: b5ee9d7bfd3a09ee7748110bda690ff7
     Pseudo is Ultrasoft, Zval =  1.0
     Generated by new atomic code, or converted to UPF format
     Using radial grid of  615 points,  1 beta functions with:
                l(1) =   0
     Q(r) pseudized with  8 coefficients,  rinner =    0.800

     PseudoPot. # 5 for N  read from file:
     /storage/coda1/p-amedford6/0/shared/rich_project_chbe-medford/medford-share/data/pseudos_module/espresso/nninc/pbe/van/N.UPF
     MD5 check sum: 90d10febe142ad51ac9d5be1deb811c4
     Pseudo is Ultrasoft, Zval =  5.0
     Generated by new atomic code, or converted to UPF format
     Using radial grid of  729 points,  4 beta functions with:
                l(1) =   0
                l(2) =   0
                l(3) =   1
                l(4) =   1
     Q(r) pseudized with  8 coefficients,  rinner =    0.800   0.800   0.800

     atomic species   valence    mass     pseudopotential
        Ti1           12.00    47.86700     Ti( 1.00)
        O1             6.00    15.99900     O ( 1.00)
        C1             4.00    12.01100     C ( 1.00)
        H1             1.00     1.00800     H ( 1.00)
        N1             5.00    14.00700     N ( 1.00)

     No symmetry found

   Cartesian axes

     site n.     atom                  positions (alat units)
         1           Ti1 tau(   1) = (   0.0004258   2.9801865   6.0000000  )
         2           Ti1 tau(   2) = (   3.2906075   1.4906267   6.0002472  )
         3           O1  tau(   3) = (   0.0006271   0.0005054   7.9858123  )
         4           O1  tau(   4) = (   3.2906025   0.0005020   7.3038282  )
         5           O1  tau(   5) = (   4.5942328   1.4918067   9.2879030  )
         6           O1  tau(   6) = (   1.9868534   1.4903216   9.2879459  )
         7           Ti1 tau(   7) = (   3.2907910   2.8959150   9.1758416  )
         8           Ti1 tau(   8) = (   0.0015273   1.4827037   9.2680791  )
         9           O1  tau(   9) = (   3.3006472   5.9526327  11.3326431  )
        10           O1  tau(  10) = (   0.0116148   5.9584955  10.6183126  )
        11           O1  tau(  11) = (   1.2986171   1.4856602  12.6180737  )
        12           O1  tau(  12) = (   5.2832837   1.4869688  12.6136912  )
        13           Ti1 tau(  13) = (   0.0716907   2.9700601  12.6329626  )
        14           Ti1 tau(  14) = (   3.3921379   1.4824266  12.4783935  )
        15           O1  tau(  15) = (   0.0098915   0.0277142  14.6273811  )
        16           O1  tau(  16) = (   3.2980527   0.0034327  13.9214941  )
        17           O1  tau(  17) = (   4.5491770   1.5035522  16.0668258  )
        18           O1  tau(  18) = (   2.0540802   1.5011373  16.0688643  )
        19           Ti1 tau(  19) = (   3.2973159   2.9845483  15.7023000  )
        20           Ti1 tau(  20) = (   6.5754392   1.4353193  15.8239573  )
        21           O1  tau(  21) = (   3.2904802   0.0005063   4.7018136  )
        22           O1  tau(  22) = (   0.0048264   5.9571524  17.1588256  )
        23           O1  tau(  23) = (   1.3043587   1.4918075   6.0039043  )
        24           O1  tau(  24) = (   5.2767064   1.4903225   6.0039473  )
        25           Ti1 tau(  25) = (   0.0000382   5.9609847   6.0000000  )
        26           Ti1 tau(  26) = (   3.2902200   4.4714249   6.0002472  )
        27           O1  tau(  27) = (   0.0002396   2.9813036   7.9858123  )
        28           O1  tau(  28) = (   3.2902150   2.9813002   7.3038282  )
        29           O1  tau(  29) = (   4.5938453   4.4726049   9.2879030  )
        30           O1  tau(  30) = (   1.9864658   4.4711199   9.2879459  )
        31           Ti1 tau(  31) = (   3.2891106   5.8743827   9.1763621  )
        32           Ti1 tau(  32) = (   0.0006254   4.4649316   9.2693709  )
        33           O1  tau(  33) = (   3.3024910   2.9811918  11.3312481  )
        34           O1  tau(  34) = (   0.0092240   2.9805883  10.6323155  )
        35           O1  tau(  35) = (   1.2967186   4.4682081  12.6345707  )
        36           O1  tau(  36) = (   5.2888097   4.4704914  12.6297389  )
        37           Ti1 tau(  37) = (   0.0778612   5.9457776  12.5489457  )
        38           Ti1 tau(  38) = (   3.3928769   4.4622707  12.4864817  )
        39           O1  tau(  39) = (   0.0140712   2.9461142  14.6842920  )
        40           O1  tau(  40) = (   3.2991745   2.9776924  13.9065265  )
        41           O1  tau(  41) = (   4.5418516   4.4678888  16.0645815  )
        42           O1  tau(  42) = (   2.0574864   4.4691885  16.0636024  )
        43           Ti1 tau(  43) = (   3.2861726   0.0051191  15.7195692  )
        44           Ti1 tau(  44) = (   6.5761434   4.5285208  16.1368719  )
        45           O1  tau(  45) = (   3.2900926   2.9813045   4.7018136  )
        46           O1  tau(  46) = (   1.3039711   4.4726057   6.0039043  )
        47           O1  tau(  47) = (   5.2763189   4.4711207   6.0039473  )
        48           C1  tau(  48) = (   0.0175971   3.0427671  17.7901079  )
        49           H1  tau(  49) = (   5.6823727   3.3959267  18.2745233  )
        50           H1  tau(  50) = (   0.1100020   1.9921885  18.0671921  )
        51           H1  tau(  51) = (   0.8707680   3.5346006  18.2680029  )
        52           N1  tau(  52) = (   6.1495222   1.5591847  21.8098380  )
        53           H1  tau(  53) = (   6.1793786   2.4848735  21.3946126  )
        54           H1  tau(  54) = (   6.2462200   0.9013766  21.0428083  )
        55           H1  tau(  55) = (   5.2088654   1.4380024  22.1828036  )
        56           N1  tau(  56) = (   2.8610371   0.9663425  23.1735989  )
        57           H1  tau(  57) = (   2.8683653   5.9129692  23.1556095  )
        58           H1  tau(  58) = (   1.9074079   1.2374795  22.9038124  )
        59           H1  tau(  59) = (   2.9640119   1.2328864  24.1466208  )

     number of k points=    10  Fermi-Dirac smearing, width (Ry)=  0.0073
                       cart. coord. in units 2pi/alat
        k(    1) = (   0.0000000   0.0000000   0.0000000), wk =   0.1250000
        k(    2) = (   0.0000000   0.0419351   0.0000000), wk =   0.2500000
        k(    3) = (   0.0000000  -0.0838702   0.0000000), wk =   0.1250000
        k(    4) = (   0.0379955   0.0000049   0.0000000), wk =   0.2500000
        k(    5) = (   0.0379955   0.0419400   0.0000000), wk =   0.2500000
        k(    6) = (   0.0379955  -0.0838652   0.0000000), wk =   0.2500000
        k(    7) = (   0.0379955  -0.0419301   0.0000000), wk =   0.2500000
        k(    8) = (  -0.0759910  -0.0000099   0.0000000), wk =   0.1250000
        k(    9) = (  -0.0759910   0.0419252   0.0000000), wk =   0.2500000
        k(   10) = (  -0.0759910  -0.0838800   0.0000000), wk =   0.1250000

     Initial potential from superposition of free atoms

     starting charge  384.99911, renormalised to  401.00000

     negative rho (up, down):  4.923E-03 0.000E+00

     %%%%%%%%%%%%%%%%%%%%%%%%%%%%%%%%%%%%%%%%%%%%%%%%%%%%%%%%%%%%%%%%%%%%%%%%
     %                                                                      %
     % You are using vdW-DF, which was implemented by the Thonhauser group. %
     % Please cite the following two papers that made this development      %
     % possible and the two reviews that describe the various versions:     %
     %                                                                      %
     %   T. Thonhauser et al., PRL 115, 136402 (2015).                      %
     %   T. Thonhauser et al., PRB 76, 125112 (2007).                       %
     %   K. Berland et al., Rep. Prog. Phys. 78, 066501 (2015).             %
     %   D.C. Langreth et al., J. Phys.: Condens. Matter 21, 084203 (2009). %
     %                                                                      %
     %                                                                      %
     % If you are calculating the stress with vdW-DF, please also cite:     %
     %                                                                      %
     %   R. Sabatini et al., J. Phys.: Condens. Matter 24, 424209 (2012).   %
     %                                                                      %
     %%%%%%%%%%%%%%%%%%%%%%%%%%%%%%%%%%%%%%%%%%%%%%%%%%%%%%%%%%%%%%%%%%%%%%%%

     Adding external electric field

     Computed dipole along edir(3) :
        Dipole              -16.7053 Ry au,        -42.4606 Debye
        Dipole field         -0.0315 Ry au,

        Potential amp.        2.9223 Ry
        Total length         46.3494 bohr

     Starting wfcs are  305 atomic wfcs
  @ DRIVER MODE: Message from server: STATUS
  @ DRIVER MODE: Message from server: POSDATA
  @ DRIVER MODE: Reading and sharing cell
  @ DRIVER MODE: Reading and sharing positions
  @ DRIVER MODE: Received positions

     Self-consistent Calculation

     iteration #  1     ecut=    29.40 Ry     beta= 0.05
     Davidson diagonalization with overlap
     c_bands:  2 eigenvalues not converged
     c_bands:  3 eigenvalues not converged
     c_bands:  1 eigenvalues not converged
     c_bands:  4 eigenvalues not converged
     c_bands:  4 eigenvalues not converged
     c_bands:  2 eigenvalues not converged
     c_bands:  3 eigenvalues not converged
     c_bands:  3 eigenvalues not converged
     c_bands:  4 eigenvalues not converged
     ethr =  1.00E-05,  avg # of iterations = 19.8

[...]

     total energy              =   -2364.28710702 Ry
     estimated scf accuracy    <    6692.61900728 Ry

     iteration #  2     ecut=    29.40 Ry     beta= 0.05
     Davidson diagonalization with overlap
     ethr =  1.00E-02,  avg # of iterations = 22.6

[...]

     iteration # 55     ecut=    29.40 Ry     beta= 0.05
     Davidson diagonalization with overlap
     c_bands:  1 eigenvalues not converged
     ethr =  5.57E-10,  avg # of iterations = 11.8

[...]

     total energy              =   -2946.58236479 Ry
     estimated scf accuracy    <       0.00000008 Ry

     iteration # 64     ecut=    29.40 Ry     beta= 0.05
     Davidson diagonalization with overlap
     ethr =  1.90E-11,  avg # of iterations =  4.4

     negative rho (up, down):  7.002E-03 0.000E+00

     Adding external electric field

     Computed dipole along edir(3) :
        Dipole                0.3155 Ry au,          0.8019 Debye
        Dipole field          0.0006 Ry au,

        Potential amp.       -0.0552 Ry
        Total length         46.3494 bohr

     End of self-consistent calculation

          k = 0.0000 0.0000 0.0000 ( 18029 PWs)   bands (ev):

   -55.9978 -55.9879 -55.9638 -55.9508 -55.8784 -55.8538 -55.8330 -55.8148
   -55.8050 -55.7713 -55.7709 -55.7376 -55.6123 -55.3903 -54.9785 -54.9445
   -32.5417 -32.4805 -32.3528 -32.3328 -32.3042 -32.3019 -32.2904 -32.2618
   -32.2398 -32.2165 -32.2095 -32.1950 -32.1676 -32.1500 -32.1408 -32.1269
   -32.1107 -32.1023 -32.0871 -32.0586 -32.0551 -32.0549 -32.0270 -32.0076
   -32.0071 -32.0022 -31.9931 -31.9890 -31.9758 -31.9736 -31.9652 -31.9455
   -31.9435 -31.9370 -31.9242 -31.9105 -31.8833 -31.8656 -31.8281 -31.6671
   -31.6408 -31.5282 -31.3858 -31.2969 -31.2745 -31.2023 -31.1158 -31.0050
   -16.7429 -16.4736 -16.2472 -16.1511 -16.1240 -16.0048 -15.8395 -15.7176
   -15.6693 -15.5690 -15.5595 -15.5349 -15.5021 -15.4782 -15.4775 -15.4432
   -15.4402 -15.4211 -15.4095 -15.3593 -15.3362 -15.3246 -15.2094 -15.1756
   -15.1333 -15.1122 -15.0545 -15.0419 -14.6195 -13.4819 -13.3655 -13.0324
   -12.9194  -9.1022  -4.1161  -3.9593  -3.9050  -3.8600  -3.8293  -3.6123
    -3.5463  -3.2486  -3.1845  -3.1698  -3.1525  -3.1200  -3.1166  -3.0652
    -3.0411  -2.9865  -2.9016  -2.8305  -2.8095  -2.8065  -2.7796  -2.7768
    -2.7672  -2.7551  -2.7144  -2.6888  -2.6628  -2.6126  -2.5577  -2.4956
    -2.4121  -2.3941  -2.3126  -2.2902  -2.2840  -2.2410  -2.2267  -2.2188
    -2.1998  -2.1747  -2.1616  -1.9782  -1.9396  -1.8369  -1.7808  -1.7787
    -1.6073  -1.5073  -1.4656  -1.4546  -1.4253  -1.3916  -1.3849  -1.2987
    -1.1819  -1.1507  -1.1177  -1.0458  -1.0021  -0.9703  -0.8728  -0.8453
    -0.7623  -0.7600  -0.7379  -0.6499  -0.5963  -0.4826  -0.4347  -0.4247
    -0.3867  -0.3576  -0.2883  -0.2740  -0.2172  -0.1448  -0.1240  -0.0612
    -0.0307  -0.0166  -0.0055   0.0114   0.0378   0.0682   0.1722   0.2026
     0.2821   0.3498   0.4450   0.5426   0.6484   0.6573   0.7587   0.9678
     1.0415   1.1399   1.1986   1.2356   1.6147   1.6606   1.7340   2.1769
     3.1392   3.2234   3.2707   3.2816   3.3726   3.3889   3.5895   3.6138
     3.6348   3.6868

[...]

          k = 0.0380-0.0419 0.0000 ( 17876 PWs)   bands (ev):

[...]

          k =-0.0760-0.0000 0.0000 ( 17886 PWs)   bands (ev):

[...]

          k =-0.0760-0.0839 0.0000 ( 17948 PWs)   bands (ev):

   -55.9813 -55.9802 -55.9738 -55.9647 -55.8704 -55.8436 -55.8408 -55.8249
   -55.7890 -55.7864 -55.7558 -55.7533 -55.6112 -55.3914 -54.9615 -54.9614
   -32.3493 -32.3407 -32.2961 -32.2954 -32.2763 -32.2754 -32.2594 -32.2504
   -32.2040 -32.1922 -32.1860 -32.1834 -32.1455 -32.1297 -32.1279 -32.1187
   -32.1081 -32.1008 -32.1005 -32.0996 -32.0940 -32.0912 -32.0704 -32.0604
   -32.0412 -32.0384 -32.0289 -32.0120 -31.9889 -31.9880 -31.9865 -31.9848
   -31.9701 -31.9687 -31.9657 -31.9617 -31.9332 -31.8568 -31.8314 -31.6808
   -31.6690 -31.5725 -31.2872 -31.2871 -31.1986 -31.1985 -31.1591 -31.1590
   -16.1757 -16.1562 -15.9486 -15.9119 -15.9089 -15.8997 -15.7879 -15.7028
   -15.6930 -15.6923 -15.6098 -15.5977 -15.5814 -15.5372 -15.5330 -15.5237
   -15.5140 -15.5021 -15.4589 -15.4539 -15.4350 -15.4275 -15.3455 -15.3152
   -15.3115 -15.2731 -15.1410 -15.0096 -14.8614 -13.4675 -13.4672 -12.9958
   -12.9555  -9.1188  -3.4677  -3.4421  -3.1919  -3.1557  -3.1464  -3.1117
    -3.0823  -3.0726  -2.9860  -2.9219  -2.8956  -2.8808  -2.8761  -2.8627
    -2.8398  -2.8274  -2.8176  -2.8057  -2.7875  -2.7532  -2.7443  -2.7119
    -2.7010  -2.6810  -2.6676  -2.6521  -2.6275  -2.6149  -2.6086  -2.5774
    -2.5632  -2.5463  -2.5257  -2.5028  -2.4198  -2.2305  -2.2007  -2.1361
    -2.1269  -2.0965  -2.0850  -2.0615  -2.0471  -2.0287  -1.9818  -1.8288
    -1.7268  -1.7006  -1.6728  -1.5976  -1.5768  -1.5290  -1.4150  -1.3803
    -1.3529  -1.3271  -1.2770  -1.2259  -1.2085  -1.1856  -1.1166  -1.1030
    -1.0254  -0.9819  -0.9594  -0.9550  -0.8901  -0.8472  -0.7652  -0.7599
    -0.7159  -0.6802  -0.6328  -0.5926  -0.5879  -0.5008  -0.4752  -0.3586
    -0.3039  -0.0442   0.0054   0.0567   0.0829   0.1418   0.1922   0.2069
     0.3160   0.3203   0.3568   0.4005   0.4412   0.5288   0.5481   0.5829
     0.7290   1.3029   1.4061   1.4067   1.4799   1.4803   1.9397   1.9557
     3.4241   3.4395   3.4698   3.5023   3.6437   3.6475   3.6690   3.6707
     3.7968   3.8112

     the Fermi energy is     3.1369 ev

!    total energy              =   -2946.58239643 Ry
     estimated scf accuracy    <       0.00000006 Ry
     smearing contrib. (-TS)   =      -0.02179089 Ry
     internal energy E=F+TS    =   -2946.56060553 Ry

     The total energy is F=E-TS. E is the sum of the following terms:
     one-electron contribution =  -22199.57225191 Ry
     hartree contribution      =   11188.78438648 Ry
     xc contribution           =    -489.84070734 Ry
     ewald contribution        =    8554.06777938 Ry
     electric field correction =       0.00018786 Ry

     convergence has been achieved in  64 iterations

     Forces acting on atoms (cartesian axes, Ry/au):

     atom    1 type  1   force =     0.00012747   -0.00025886    0.09666793
     atom    2 type  1   force =    -0.00013338   -0.00054488   -0.17509118
     atom    3 type  2   force =    -0.00000143   -0.00002903   -0.02503389
     atom    4 type  2   force =     0.00007600   -0.00144042    0.05270899
     atom    5 type  2   force =    -0.01210385   -0.00084028    0.00340347
     atom    6 type  2   force =     0.01401859   -0.00015583    0.00291279
     atom    7 type  1   force =    -0.00082683    0.00069418   -0.01133935
     atom    8 type  1   force =     0.00025395    0.01147989    0.02861503
     atom    9 type  2   force =    -0.00010252    0.00008677   -0.00001650
     atom   10 type  2   force =    -0.00085031    0.00077221   -0.01660092
     atom   11 type  2   force =    -0.00031148    0.00010217    0.00003700
     atom   12 type  2   force =    -0.00000140    0.00020870    0.00005815
     atom   13 type  1   force =    -0.00011019   -0.00019581    0.00009430
     atom   14 type  1   force =    -0.00022122    0.00000988   -0.00003018
     atom   15 type  2   force =    -0.00003158    0.00004986   -0.00010617
     atom   16 type  2   force =    -0.00012199   -0.00004244    0.00002902
     atom   17 type  2   force =    -0.00002801   -0.00015750   -0.00002433
     atom   18 type  2   force =    -0.00020125   -0.00017726   -0.00002700
     atom   19 type  1   force =    -0.00000193   -0.00020136    0.00014345
     atom   20 type  1   force =     0.00010534   -0.00036121   -0.00007418
     atom   21 type  2   force =     0.00006789    0.00000802    0.10290949
     atom   22 type  2   force =    -0.00011046   -0.00008358   -0.00040362
     atom   23 type  2   force =    -0.07139236   -0.00010487   -0.02771809
     atom   24 type  2   force =     0.07135281    0.00030402   -0.02774728
     atom   25 type  1   force =     0.00001229   -0.00030671    0.09645822
     atom   26 type  1   force =    -0.00017462   -0.00027741   -0.17526772
     atom   27 type  2   force =     0.00009482   -0.00020190   -0.02393577
     atom   28 type  2   force =     0.00011325   -0.00119913    0.05274733
     atom   29 type  2   force =    -0.01213629    0.00045257    0.00288601
     atom   30 type  2   force =     0.01396841    0.00079761    0.00243381
     atom   31 type  1   force =    -0.00076664    0.00311617   -0.01226744
     atom   32 type  1   force =     0.00026825   -0.01311787    0.02917351
     atom   33 type  2   force =    -0.00009831   -0.00003233    0.00003859
     atom   34 type  2   force =    -0.00028940    0.00077337   -0.02204956
     atom   35 type  2   force =    -0.00016469    0.00007927   -0.00003364
     atom   36 type  2   force =    -0.00009743    0.00020189   -0.00002246
     atom   37 type  1   force =    -0.00001849   -0.00031270   -0.00017335
     atom   38 type  1   force =     0.00001619    0.00000268   -0.00000148
     atom   39 type  2   force =    -0.00008163    0.00013518    0.00028055
     atom   40 type  2   force =    -0.00013453   -0.00001245   -0.00006298
     atom   41 type  2   force =     0.00000915   -0.00021438    0.00000104
     atom   42 type  2   force =    -0.00020159   -0.00022147    0.00017019
     atom   43 type  1   force =     0.00032621   -0.00015425   -0.00017711
     atom   44 type  1   force =     0.00018160   -0.00026684    0.00017138
     atom   45 type  2   force =     0.00006057   -0.00007075    0.10290140
     atom   46 type  2   force =    -0.07140566   -0.00008961   -0.02772437
     atom   47 type  2   force =     0.07136636    0.00036962   -0.02773615
     atom   48 type  3   force =    -0.00018367    0.00037703    0.00005060
     atom   49 type  4   force =    -0.00007814    0.00041898    0.00021508
     atom   50 type  4   force =    -0.00008237    0.00012532    0.00005812
     atom   51 type  4   force =     0.00008817    0.00029676    0.00038554
     atom   52 type  5   force =    -0.00043288   -0.00030271    0.00144591
     atom   53 type  4   force =     0.00011794    0.00055853   -0.00048533
     atom   54 type  4   force =    -0.00041737   -0.00040700   -0.00135166
     atom   55 type  4   force =     0.00060192    0.00019946   -0.00041073
     atom   56 type  5   force =    -0.01471672    0.00427610   -0.00654430
     atom   57 type  4   force =     0.00124467   -0.00124476    0.00112244
     atom   58 type  4   force =     0.01234420   -0.00277013    0.00201643
     atom   59 type  4   force =     0.00121456   -0.00010049    0.00232098

     Total force =     0.368286     Total SCF correction =     0.000587
  @ DRIVER MODE: Message from server: STATUS
  @ DRIVER MODE: Message from server: GETFORCE
  @ DRIVER MODE: Returning v,forces,stress,ensemble

     Writing output data file ./calc.save/
  @ DRIVER MODE: Message from server: EXIT
  @ DRIVE MODE: Exiting

     General routines

     Parallel routines

   This run was terminated on:   1:57:49   4Aug2021

   JOB DONE.