     Program PWSCF v.6.7GPU starts on 16Sep2021 at  5:41: 3

     R & G space division:  proc/nbgrp/npool/nimage =      10
     Reading input from /storage/home/hcoda1/3/ntian30/research/carbon/CxH_vib/H2O_calc/ads_slab/CH2N2HH2O_a/out_0042/pw.inp
Warning: card &CELL ignored
Warning: card   CELL_DYNAMICS='IPI', ignored
Warning: card / ignored

     Current dimensions of program PWSCF are:
     Max number of different atomic species (ntypx) = 10
     Max number of k-points (npk) =  40000
     Max angular momentum in pseudopotentials (lmaxx) =  3
     Presently no symmetry can be used with electric field

     Message from routine cell_base_init:
     DEPRECATED: use true lattice parameter, not A to a.u. conversion factor

     IMPORTANT: XC functional enforced from input :
     Exchange-correlation= BEEF-VDW
                           (   1   4  43  14   2   0   0)
     Any further DFT definition will be discarded
     Please, verify this is what you really want

  @ DRIVER MODE: Connecting to
 qe_1139763_2852606.sched-torque.pace.gatech.eduh7bj43zr_scratch
  using UNIX socket
  @ DRIVER MODE: Message from server: STATUS
  @ DRIVER MODE: Message from server: INIT
  @ DRIVER MODE: Receiving replica           0          -1
  @ DRIVER MODE: Receiving encoded integer          25
  @ DRIVER MODE:  SCF:  T  FORCE:  T  STRESS:  F  VC:  F  ENSEMBLE:  F
  @ DRIVER MODE:  SCF:  T  FORCE:  T  STRESS:  F  VC:  F  ENSEMBLE:  F

     Using Slab Decomposition

     bravais-lattice index     =            0
     lattice parameter (alat)  =       1.8897  a.u.
     unit-cell volume          =    6658.9804 (a.u.)^3
     number of atoms/cell      =           56
     number of atomic types    =            5
     number of electrons       =       403.00
     number of Kohn-Sham states=          211
     kinetic-energy cutoff     =      29.3995  Ry
     charge density cutoff     =     293.9946  Ry
     scf convergence threshold =      7.3E-08
     mixing beta               =       0.0500
     number of iterations used =            8  plain     mixing
     Exchange-correlation= BEEF-VDW
                           (   1   4  43  14   2   0   0)

     celldm(1)=   1.889726  celldm(2)=   0.000000  celldm(3)=   0.000000
     celldm(4)=   0.000000  celldm(5)=   0.000000  celldm(6)=   0.000000

     crystal axes: (cart. coord. in units of alat)
               a(1) = (   6.579727   0.000000   0.000000 )
               a(2) = (  -0.000775   5.961596   0.000000 )
               a(3) = (   0.000000   0.000000  25.155947 )

     reciprocal axes: (cart. coord. in units 2 pi/alat)
               b(1) = (  0.151982  0.000020  0.000000 )
               b(2) = (  0.000000  0.167740  0.000000 )
               b(3) = (  0.000000  0.000000  0.039752 )

     PseudoPot. # 1 for Ti read from file:
     /storage/coda1/p-amedford6/0/shared/rich_project_chbe-medford/medford-share/data/pseudos_module/espresso/nninc/pbe/van/Ti.UPF
     MD5 check sum: 8e4df49b7f0d34bbd5052bf3f5ea0213
     Pseudo is Ultrasoft, Zval = 12.0
     Generated by new atomic code, or converted to UPF format
     Using radial grid of  851 points,  6 beta functions with:
                l(1) =   0
                l(2) =   0
                l(3) =   1
                l(4) =   1
                l(5) =   2
                l(6) =   2
     Q(r) pseudized with  8 coefficients,  rinner =    1.000   1.000   1.000
                                                       1.000   1.000

     PseudoPot. # 2 for O  read from file:
     /storage/coda1/p-amedford6/0/shared/rich_project_chbe-medford/medford-share/data/pseudos_module/espresso/nninc/pbe/van/O.UPF
     MD5 check sum: 78c19812648e8988a0fe644b0f25305e
     Pseudo is Ultrasoft, Zval =  6.0
     Generated by new atomic code, or converted to UPF format
     Using radial grid of  737 points,  4 beta functions with:
                l(1) =   0
                l(2) =   0
                l(3) =   1
                l(4) =   1
     Q(r) pseudized with  8 coefficients,  rinner =    0.800   0.800   0.800

     PseudoPot. # 3 for N  read from file:
     /storage/coda1/p-amedford6/0/shared/rich_project_chbe-medford/medford-share/data/pseudos_module/espresso/nninc/pbe/van/N.UPF
     MD5 check sum: 90d10febe142ad51ac9d5be1deb811c4
     Pseudo is Ultrasoft, Zval =  5.0
     Generated by new atomic code, or converted to UPF format
     Using radial grid of  729 points,  4 beta functions with:
                l(1) =   0
                l(2) =   0
                l(3) =   1
                l(4) =   1
     Q(r) pseudized with  8 coefficients,  rinner =    0.800   0.800   0.800

     PseudoPot. # 4 for C  read from file:
     /storage/coda1/p-amedford6/0/shared/rich_project_chbe-medford/medford-share/data/pseudos_module/espresso/nninc/pbe/van/C.UPF
     MD5 check sum: 1a69bf6b8db32088f5b2163dbdb77a27
     Pseudo is Ultrasoft, Zval =  4.0
     Generated by new atomic code, or converted to UPF format
     Using radial grid of  721 points,  4 beta functions with:
                l(1) =   0
                l(2) =   0
                l(3) =   1
                l(4) =   1
     Q(r) pseudized with  8 coefficients,  rinner =    0.800   0.800   0.800

     PseudoPot. # 5 for H  read from file:
     /storage/coda1/p-amedford6/0/shared/rich_project_chbe-medford/medford-share/data/pseudos_module/espresso/nninc/pbe/van/H.UPF
     MD5 check sum: b5ee9d7bfd3a09ee7748110bda690ff7
     Pseudo is Ultrasoft, Zval =  1.0
     Generated by new atomic code, or converted to UPF format
     Using radial grid of  615 points,  1 beta functions with:
                l(1) =   0
     Q(r) pseudized with  8 coefficients,  rinner =    0.800

     atomic species   valence    mass     pseudopotential
        Ti1           12.00    47.86700     Ti( 1.00)
        O1             6.00    15.99900     O ( 1.00)
        N1             5.00    14.00700     N ( 1.00)
        C1             4.00    12.01100     C ( 1.00)
        H1             1.00     1.00800     H ( 1.00)

     No symmetry found

   Cartesian axes

     site n.     atom                  positions (alat units)
         1           Ti1 tau(   1) = (   0.0004258   2.9801865   6.0000000  )
         2           Ti1 tau(   2) = (   3.2906075   1.4906267   6.0002472  )
         3           O1  tau(   3) = (   0.0006271   0.0005054   7.9858123  )
         4           O1  tau(   4) = (   3.2906025   0.0005020   7.3038282  )
         5           O1  tau(   5) = (   4.5942328   1.4918067   9.2879030  )
         6           O1  tau(   6) = (   1.9868534   1.4903216   9.2879459  )
         7           Ti1 tau(   7) = (   3.2907910   2.8959150   9.1758416  )
         8           Ti1 tau(   8) = (   0.0015273   1.4827037   9.2680791  )
         9           O1  tau(   9) = (   3.2932810   5.9556063  11.3276769  )
        10           O1  tau(  10) = (   0.0116148   5.9584955  10.6183126  )
        11           O1  tau(  11) = (   1.2966828   1.5020869  12.6141357  )
        12           O1  tau(  12) = (   5.2995835   1.4923495  12.6341875  )
        13           Ti1 tau(  13) = (   6.5470072   2.9473109  12.5798724  )
        14           Ti1 tau(  14) = (   3.2302912   1.4573256  12.5082679  )
        15           O1  tau(  15) = (   0.0525813   0.0137714  14.6435187  )
        16           O1  tau(  16) = (   3.2708393   0.0302713  13.9228694  )
        17           O1  tau(  17) = (   4.5627544   1.5900677  16.0055000  )
        18           O1  tau(  18) = (   2.0437599   1.5040777  16.0764052  )
        19           Ti1 tau(  19) = (   3.3063064   2.9825517  15.6619520  )
        20           Ti1 tau(  20) = (   6.5607061   1.3194196  15.9785141  )
        21           O1  tau(  21) = (   3.2904802   0.0005063   4.7018136  )
        22           O1  tau(  22) = (   6.3855286   5.9589440  17.1610702  )
        23           O1  tau(  23) = (   1.3043587   1.4918075   6.0039043  )
        24           O1  tau(  24) = (   5.2767064   1.4903225   6.0039473  )
        25           Ti1 tau(  25) = (   0.0000382   5.9609847   6.0000000  )
        26           Ti1 tau(  26) = (   3.2902200   4.4714249   6.0002472  )
        27           O1  tau(  27) = (   0.0002396   2.9813036   7.9858123  )
        28           O1  tau(  28) = (   3.2902150   2.9813002   7.3038282  )
        29           O1  tau(  29) = (   4.5938453   4.4726049   9.2879030  )
        30           O1  tau(  30) = (   1.9864658   4.4711199   9.2879459  )
        31           Ti1 tau(  31) = (   3.2891106   5.8743827   9.1763621  )
        32           Ti1 tau(  32) = (   0.0006254   4.4649316   9.2693709  )
        33           O1  tau(  33) = (   3.2946552   2.9814125  11.3288906  )
        34           O1  tau(  34) = (   0.0092240   2.9805883  10.6323155  )
        35           O1  tau(  35) = (   1.2978438   4.4726441  12.6233041  )
        36           O1  tau(  36) = (   5.2969606   4.4732664  12.6435870  )
        37           Ti1 tau(  37) = (   6.5415350   5.9305516  12.5357152  )
        38           Ti1 tau(  38) = (   3.2303862   4.4559975  12.4807118  )
        39           O1  tau(  39) = (   0.0164246   2.9899045  14.7829194  )
        40           O1  tau(  40) = (   3.2688228   2.9752494  13.8698570  )
        41           O1  tau(  41) = (   4.5210259   4.4573316  15.9082071  )
        42           O1  tau(  42) = (   2.0412773   4.4882057  16.0214637  )
        43           Ti1 tau(  43) = (   3.2233344   5.9452837  15.7820064  )
        44           Ti1 tau(  44) = (   6.5355943   4.4735413  15.8975681  )
        45           O1  tau(  45) = (   3.2900926   2.9813045   4.7018136  )
        46           O1  tau(  46) = (   1.3039711   4.4726057   6.0039043  )
        47           O1  tau(  47) = (   5.2763189   4.4711207   6.0039473  )
        48           N1  tau(  48) = (   0.2167872   2.3688911  18.0161765  )
        49           C1  tau(  49) = (   0.4968348   1.8934616  19.1878903  )
        50           H1  tau(  50) = (   0.5617972   2.5522217  20.0513624  )
        51           H1  tau(  51) = (   0.6371857   0.8299532  19.2874115  )
        52           N1  tau(  52) = (   6.5661014   3.6386027  17.7750644  )
        53           H1  tau(  53) = (   0.0713089   4.2532688  18.5884219  )
        54           O1  tau(  54) = (   3.6608114   5.9026821  18.1062282  )
        55           H1  tau(  55) = (   4.6425638   0.0038819  18.0438526  )
        56           H1  tau(  56) = (   3.3558581   0.7595698  18.5153002  )

     number of k points=    10  Fermi-Dirac smearing, width (Ry)=  0.0073
                       cart. coord. in units 2pi/alat
        k(    1) = (   0.0000000   0.0000000   0.0000000), wk =   0.1250000
        k(    2) = (   0.0000000   0.0419351   0.0000000), wk =   0.2500000
        k(    3) = (   0.0000000  -0.0838702   0.0000000), wk =   0.1250000
        k(    4) = (   0.0379955   0.0000049   0.0000000), wk =   0.2500000
        k(    5) = (   0.0379955   0.0419400   0.0000000), wk =   0.2500000
        k(    6) = (   0.0379955  -0.0838652   0.0000000), wk =   0.2500000
        k(    7) = (   0.0379955  -0.0419301   0.0000000), wk =   0.2500000
        k(    8) = (  -0.0759910  -0.0000099   0.0000000), wk =   0.1250000
        k(    9) = (  -0.0759910   0.0419252   0.0000000), wk =   0.2500000
        k(   10) = (  -0.0759910  -0.0838800   0.0000000), wk =   0.1250000

     Initial potential from superposition of free atoms

     starting charge  386.99914, renormalised to  403.00000

     negative rho (up, down):  1.554E-02 0.000E+00

     %%%%%%%%%%%%%%%%%%%%%%%%%%%%%%%%%%%%%%%%%%%%%%%%%%%%%%%%%%%%%%%%%%%%%%%%
     %                                                                      %
     % You are using vdW-DF, which was implemented by the Thonhauser group. %
     % Please cite the following two papers that made this development      %
     % possible and the two reviews that describe the various versions:     %
     %                                                                      %
     %   T. Thonhauser et al., PRL 115, 136402 (2015).                      %
     %   T. Thonhauser et al., PRB 76, 125112 (2007).                       %
     %   K. Berland et al., Rep. Prog. Phys. 78, 066501 (2015).             %
     %   D.C. Langreth et al., J. Phys.: Condens. Matter 21, 084203 (2009). %
     %                                                                      %
     %                                                                      %
     % If you are calculating the stress with vdW-DF, please also cite:     %
     %                                                                      %
     %   R. Sabatini et al., J. Phys.: Condens. Matter 24, 424209 (2012).   %
     %                                                                      %
     %%%%%%%%%%%%%%%%%%%%%%%%%%%%%%%%%%%%%%%%%%%%%%%%%%%%%%%%%%%%%%%%%%%%%%%%

     Adding external electric field

     Computed dipole along edir(3) :
        Dipole              -12.7999 Ry au,        -32.5340 Debye
        Dipole field         -0.0242 Ry au,

        Potential amp.        2.2391 Ry
        Total length         46.3494 bohr

     Starting wfcs are  305 atomic wfcs
  @ DRIVER MODE: Message from server: STATUS
  @ DRIVER MODE: Message from server: POSDATA
  @ DRIVER MODE: Reading and sharing cell
  @ DRIVER MODE: Reading and sharing positions
  @ DRIVER MODE: Received positions

     Self-consistent Calculation

     iteration #  1     ecut=    29.40 Ry     beta= 0.05
     Davidson diagonalization with overlap
     c_bands:  3 eigenvalues not converged
     c_bands:  3 eigenvalues not converged
     c_bands:  4 eigenvalues not converged
     c_bands:  5 eigenvalues not converged
     c_bands:  1 eigenvalues not converged
     c_bands:  1 eigenvalues not converged
     c_bands:  4 eigenvalues not converged
     c_bands:  3 eigenvalues not converged
     ethr =  1.00E-05,  avg # of iterations = 27.5

[...]

     total energy              =   -2369.07207349 Ry
     estimated scf accuracy    <    6884.48651325 Ry

     iteration #  2     ecut=    29.40 Ry     beta= 0.05
     Davidson diagonalization with overlap
     ethr =  1.00E-02,  avg # of iterations = 24.7

[...]

     iteration # 56     ecut=    29.40 Ry     beta= 0.05
     Davidson diagonalization with overlap
     c_bands:  1 eigenvalues not converged
     ethr =  5.00E-09,  avg # of iterations = 10.4

[...]

     total energy              =   -2973.98329025 Ry
     estimated scf accuracy    <       0.00000014 Ry

     iteration # 79     ecut=    29.40 Ry     beta= 0.05
     Davidson diagonalization with overlap
     ethr =  3.39E-11,  avg # of iterations =  8.1

     negative rho (up, down):  1.541E-02 0.000E+00

     Adding external electric field

     Computed dipole along edir(3) :
        Dipole                0.9177 Ry au,          2.3325 Debye
        Dipole field          0.0017 Ry au,

        Potential amp.       -0.1605 Ry
        Total length         46.3494 bohr

     End of self-consistent calculation

          k = 0.0000 0.0000 0.0000 ( 18029 PWs)   bands (ev):

   -55.6183 -55.5905 -55.5842 -55.5524 -55.4996 -55.4895 -55.4579 -55.4358
   -55.4018 -55.3974 -55.3634 -55.3403 -55.0444 -54.9934 -54.5980 -54.5640
   -32.1346 -32.1024 -31.9904 -31.9356 -31.9227 -31.9101 -31.8887 -31.8760
   -31.8627 -31.8219 -31.7708 -31.7670 -31.7395 -31.7381 -31.7350 -31.7243
   -31.7198 -31.7166 -31.7135 -31.7109 -31.6804 -31.6757 -31.6662 -31.6390
   -31.6297 -31.6287 -31.6214 -31.6165 -31.6030 -31.5949 -31.5777 -31.5645
   -31.5521 -31.5458 -31.5406 -31.5108 -31.5085 -31.3080 -31.2688 -31.2451
   -31.1916 -31.1496 -31.0049 -30.9170 -30.8946 -30.8219 -30.7354 -30.6241
   -18.6671 -17.9036 -16.3382 -16.0959 -15.8561 -15.7790 -15.7467 -15.5333
   -15.4304 -15.3745 -15.2392 -15.1892 -15.1767 -15.1567 -15.1316 -15.0971
   -15.0713 -15.0573 -15.0507 -15.0343 -15.0086 -14.9820 -14.9618 -14.9581
   -14.9166 -14.8479 -14.7787 -14.7531 -14.6912 -14.6790 -14.2372 -13.0993
   -12.9828 -12.0718  -7.8448  -6.4662  -5.3010  -4.4962  -3.7114  -3.5739
    -3.5263  -3.4764  -3.4656  -3.2787  -3.1763  -3.0506  -2.9012  -2.8490
    -2.7842  -2.7446  -2.7059  -2.6430  -2.6029  -2.4970  -2.4597  -2.4309
    -2.4157  -2.3702  -2.3653  -2.3611  -2.2994  -2.2634  -2.1816  -2.1580
    -2.0782  -2.0090  -1.9807  -1.9537  -1.9324  -1.9140  -1.9108  -1.8626
    -1.8614  -1.8596  -1.7873  -1.7389  -1.6649  -1.6186  -1.5599  -1.4206
    -1.3815  -1.2712  -1.2259  -1.1042  -1.1006  -1.0759  -1.0536  -1.0147
    -1.0062  -0.8832  -0.7976  -0.7469  -0.7127  -0.6506  -0.5466  -0.5261
    -0.4351  -0.4321  -0.3786  -0.3652  -0.3493  -0.3205  -0.2409  -0.1283
    -0.1106  -0.0505  -0.0011   0.0616   0.1053   0.1301   0.1684   0.2179
     0.2415   0.2830   0.3092   0.3204   0.3533   0.3911   0.4133   0.4915
     0.5649   0.6141   0.6633   0.7035   0.7082   0.8852   0.9982   1.0363
     1.1672   1.1939   1.3578   1.4254   1.4956   1.6173   1.9956   2.0412
     2.2183   3.4895   3.6031   3.6276   3.6375   3.7408   3.8743   3.9571
     3.9975   4.0224   4.0609

[...]

          k = 0.0380-0.0419 0.0000 ( 17876 PWs)   bands (ev):

[...]

          k =-0.0760-0.0000 0.0000 ( 17886 PWs)   bands (ev):

[...]

          k =-0.0760-0.0839 0.0000 ( 17948 PWs)   bands (ev):

   -55.6013 -55.6011 -55.5778 -55.5648 -55.4906 -55.4874 -55.4669 -55.4191
   -55.4181 -55.3831 -55.3779 -55.3422 -55.0376 -55.0001 -54.5811 -54.5808
   -31.9509 -31.9256 -31.9178 -31.9176 -31.8957 -31.8954 -31.8305 -31.8260
   -31.8178 -31.8125 -31.7945 -31.7438 -31.7400 -31.7368 -31.7287 -31.7262
   -31.7241 -31.7213 -31.7205 -31.7190 -31.7178 -31.7047 -31.6953 -31.6806
   -31.6780 -31.6733 -31.6520 -31.6232 -31.6222 -31.6127 -31.6038 -31.5997
   -31.5965 -31.5955 -31.5941 -31.5492 -31.5212 -31.2966 -31.2708 -31.2657
   -31.2491 -31.1927 -30.9074 -30.9072 -30.8178 -30.8175 -30.7788 -30.7787
   -18.6651 -17.8908 -15.7791 -15.6863 -15.5988 -15.5569 -15.4783 -15.4592
   -15.4063 -15.3407 -15.3025 -15.2841 -15.2422 -15.2137 -15.1693 -15.1570
   -15.1492 -15.1257 -15.1016 -15.0774 -15.0662 -15.0602 -15.0556 -15.0422
   -15.0082 -14.9761 -14.9398 -14.9359 -14.9075 -14.6635 -14.5863 -13.0847
   -13.0845 -12.0247  -7.7674  -6.4602  -5.3660  -4.5667  -3.1579  -3.0670
    -2.8945  -2.8557  -2.7994  -2.7539  -2.7472  -2.6930  -2.5684  -2.5594
    -2.5284  -2.4637  -2.4407  -2.4373  -2.4290  -2.4250  -2.4038  -2.3670
    -2.3666  -2.3112  -2.3012  -2.2902  -2.2862  -2.2666  -2.2500  -2.2474
    -2.2239  -2.1775  -2.1616  -2.1465  -2.0396  -1.9367  -1.8815  -1.8432
    -1.8127  -1.7669  -1.7621  -1.7415  -1.7260  -1.6880  -1.6719  -1.6159
    -1.5004  -1.4221  -1.3361  -1.3064  -1.2761  -1.2063  -1.1606  -1.0963
    -1.0569  -1.0515  -0.9663  -0.8522  -0.8388  -0.8031  -0.7749  -0.6989
    -0.6703  -0.6378  -0.5771  -0.5704  -0.5426  -0.5119  -0.4766  -0.3868
    -0.3688  -0.3628  -0.3326  -0.3238  -0.3128  -0.2717  -0.1988  -0.0997
    -0.0281  -0.0218   0.0844   0.2124   0.3087   0.4405   0.4685   0.5171
     0.5700   0.6047   0.6872   0.6949   0.7217   0.7848   0.8283   0.8960
     0.9199   0.9353   1.0217   1.0289   1.7893   1.7906   1.8612   1.8614
     2.1623   3.8536   3.8822   3.9027   3.9475   4.0251   4.0490   4.0498
     4.0558   4.1720   4.1792

     the Fermi energy is     3.5083 ev

!    total energy              =   -2973.98329718 Ry
     estimated scf accuracy    <       0.00000002 Ry
     smearing contrib. (-TS)   =      -0.02040643 Ry
     internal energy E=F+TS    =   -2973.96289075 Ry

     The total energy is F=E-TS. E is the sum of the following terms:
     one-electron contribution =  -24201.02898704 Ry
     hartree contribution      =   12195.09476439 Ry
     xc contribution           =    -494.26214614 Ry
     ewald contribution        =    9526.23188886 Ry
     electric field correction =       0.00158919 Ry

     convergence has been achieved in  79 iterations

     Forces acting on atoms (cartesian axes, Ry/au):

     atom    1 type  1   force =    -0.00006601   -0.00019314    0.09551679
     atom    2 type  1   force =     0.00002472   -0.00035662   -0.17557804
     atom    3 type  2   force =     0.00009454   -0.00012479   -0.02315069
     atom    4 type  2   force =     0.00000733   -0.00139106    0.05290474
     atom    5 type  2   force =    -0.01000017   -0.00075320    0.00325183
     atom    6 type  2   force =     0.01153142   -0.00009547    0.00282808
     atom    7 type  1   force =     0.00046105    0.00027494   -0.00663813
     atom    8 type  1   force =     0.00028679    0.00536912    0.01757655
     atom    9 type  2   force =    -0.00014658   -0.00015418   -0.00037490
     atom   10 type  2   force =    -0.00346227    0.00075294   -0.01267361
     atom   11 type  2   force =    -0.00079038   -0.00032774    0.00008981
     atom   12 type  2   force =     0.00030191   -0.00017431    0.00009858
     atom   13 type  1   force =    -0.00025546    0.00040046   -0.00016151
     atom   14 type  1   force =     0.00021071    0.00010836    0.00063025
     atom   15 type  2   force =    -0.00011557    0.00011206   -0.00047094
     atom   16 type  2   force =    -0.00007241   -0.00025705    0.00022568
     atom   17 type  2   force =     0.00029654   -0.00045667    0.00020368
     atom   18 type  2   force =    -0.00009728   -0.00046572   -0.00001915
     atom   19 type  1   force =    -0.00017715   -0.00004506    0.00037839
     atom   20 type  1   force =     0.00055875   -0.00004721   -0.00017725
     atom   21 type  2   force =     0.00007052    0.00003480    0.10318216
     atom   22 type  2   force =    -0.00004948    0.00002749   -0.00015129
     atom   23 type  2   force =    -0.07160608   -0.00013263   -0.02754392
     atom   24 type  2   force =     0.07153266    0.00036831   -0.02758395
     atom   25 type  1   force =     0.00019091   -0.00009428    0.09517410
     atom   26 type  1   force =     0.00008070   -0.00039922   -0.17575557
     atom   27 type  2   force =     0.00011117   -0.00024067   -0.02206903
     atom   28 type  2   force =     0.00002797   -0.00099081    0.05230548
     atom   29 type  2   force =    -0.01015070    0.00037133    0.00285807
     atom   30 type  2   force =     0.01155186    0.00074675    0.00247910
     atom   31 type  1   force =     0.00027869    0.00393402   -0.01132581
     atom   32 type  1   force =     0.00045670   -0.00673076    0.01787344
     atom   33 type  2   force =    -0.00008243    0.00004709   -0.00018697
     atom   34 type  2   force =    -0.00395394    0.00073820   -0.01215183
     atom   35 type  2   force =    -0.00019323    0.00008350   -0.00017442
     atom   36 type  2   force =    -0.00002688    0.00003723   -0.00008234
     atom   37 type  1   force =    -0.00004045   -0.00041964    0.00043782
     atom   38 type  1   force =     0.00005810   -0.00003866    0.00037859
     atom   39 type  2   force =     0.00034577   -0.00039301    0.00017978
     atom   40 type  2   force =    -0.00049675    0.00026860   -0.00008601
     atom   41 type  2   force =    -0.00010469    0.00028393   -0.00000841
     atom   42 type  2   force =     0.00049282    0.00028586    0.00024436
     atom   43 type  1   force =    -0.00015564   -0.00045782    0.00001019
     atom   44 type  1   force =    -0.00010868   -0.00023633    0.00048160
     atom   45 type  2   force =     0.00007284   -0.00000250    0.10314302
     atom   46 type  2   force =    -0.07160644   -0.00003902   -0.02751479
     atom   47 type  2   force =     0.07153853    0.00035093   -0.02760454
     atom   48 type  3   force =     0.00013693   -0.00012329   -0.00023400
     atom   49 type  4   force =     0.00080595   -0.00006778    0.00021324
     atom   50 type  5   force =     0.00027077   -0.00025495    0.00039560
     atom   51 type  5   force =     0.00049678   -0.00027579    0.00006004
     atom   52 type  3   force =    -0.00014471    0.00029244   -0.00052694
     atom   53 type  5   force =     0.00053257    0.00039008   -0.00010677
     atom   54 type  2   force =     0.00271745   -0.00884679   -0.00626284
     atom   55 type  5   force =     0.00053161    0.00055757    0.00108856
     atom   56 type  5   force =    -0.00217166    0.00875016    0.00440415

     Total force =     0.365021     Total SCF correction =     0.000322
  @ DRIVER MODE: Message from server: STATUS
  @ DRIVER MODE: Message from server: GETFORCE
  @ DRIVER MODE: Returning v,forces,stress,ensemble

     Writing output data file ./calc.save/
  @ DRIVER MODE: Message from server: EXIT
  @ DRIVE MODE: Exiting

     General routines

     Parallel routines

   This run was terminated on:   6: 3: 8  16Sep2021

   JOB DONE.