     Program PWSCF v.6.7GPU starts on 25Aug2021 at  8:49:25

     R & G space division:  proc/nbgrp/npool/nimage =       6
     Reading input from /storage/home/hcoda1/3/ntian30/research/carbon/CH3_vib_end_on/ads_slab/CH3N2H2_f/out_0031/pw.inp
Warning: card &CELL ignored
Warning: card   CELL_DYNAMICS='IPI', ignored
Warning: card / ignored

     Current dimensions of program PWSCF are:
     Max number of different atomic species (ntypx) = 10
     Max number of k-points (npk) =  40000
     Max angular momentum in pseudopotentials (lmaxx) =  3
     Presently no symmetry can be used with electric field

     Message from routine cell_base_init:
     DEPRECATED: use true lattice parameter, not A to a.u. conversion factor

     IMPORTANT: XC functional enforced from input :
     Exchange-correlation= BEEF-VDW
                           (   1   4  43  14   2   0   0)
     Any further DFT definition will be discarded
     Please, verify this is what you really want

  @ DRIVER MODE: Connecting to
 qe_1139763_2643870.sched-torque.pace.gatech.eduzzcaujrv_scratch
  using UNIX socket
  @ DRIVER MODE: Message from server: STATUS
  @ DRIVER MODE: Message from server: INIT
  @ DRIVER MODE: Receiving replica           0          -1
  @ DRIVER MODE: Receiving encoded integer          25
  @ DRIVER MODE:  SCF:  T  FORCE:  T  STRESS:  F  VC:  F  ENSEMBLE:  F
  @ DRIVER MODE:  SCF:  T  FORCE:  T  STRESS:  F  VC:  F  ENSEMBLE:  F

     Using Slab Decomposition

     bravais-lattice index     =            0
     lattice parameter (alat)  =       1.8897  a.u.
     unit-cell volume          =    6658.9804 (a.u.)^3
     number of atoms/cell      =           55
     number of atomic types    =            5
     number of electrons       =       397.00
     number of Kohn-Sham states=          208
     kinetic-energy cutoff     =      29.3995  Ry
     charge density cutoff     =     293.9946  Ry
     scf convergence threshold =      7.3E-08
     mixing beta               =       0.0500
     number of iterations used =            8  plain     mixing
     Exchange-correlation= BEEF-VDW
                           (   1   4  43  14   2   0   0)

     celldm(1)=   1.889726  celldm(2)=   0.000000  celldm(3)=   0.000000
     celldm(4)=   0.000000  celldm(5)=   0.000000  celldm(6)=   0.000000

     crystal axes: (cart. coord. in units of alat)
               a(1) = (   6.579727   0.000000   0.000000 )
               a(2) = (  -0.000775   5.961596   0.000000 )
               a(3) = (   0.000000   0.000000  25.155947 )

     reciprocal axes: (cart. coord. in units 2 pi/alat)
               b(1) = (  0.151982  0.000020  0.000000 )
               b(2) = (  0.000000  0.167740  0.000000 )
               b(3) = (  0.000000  0.000000  0.039752 )

     PseudoPot. # 1 for Ti read from file:
     /storage/coda1/p-amedford6/0/shared/rich_project_chbe-medford/medford-share/data/pseudos_module/espresso/nninc/pbe/van/Ti.UPF
     MD5 check sum: 8e4df49b7f0d34bbd5052bf3f5ea0213
     Pseudo is Ultrasoft, Zval = 12.0
     Generated by new atomic code, or converted to UPF format
     Using radial grid of  851 points,  6 beta functions with:
                l(1) =   0
                l(2) =   0
                l(3) =   1
                l(4) =   1
                l(5) =   2
                l(6) =   2
     Q(r) pseudized with  8 coefficients,  rinner =    1.000   1.000   1.000
                                                       1.000   1.000

     PseudoPot. # 2 for O  read from file:
     /storage/coda1/p-amedford6/0/shared/rich_project_chbe-medford/medford-share/data/pseudos_module/espresso/nninc/pbe/van/O.UPF
     MD5 check sum: 78c19812648e8988a0fe644b0f25305e
     Pseudo is Ultrasoft, Zval =  6.0
     Generated by new atomic code, or converted to UPF format
     Using radial grid of  737 points,  4 beta functions with:
                l(1) =   0
                l(2) =   0
                l(3) =   1
                l(4) =   1
     Q(r) pseudized with  8 coefficients,  rinner =    0.800   0.800   0.800

     PseudoPot. # 3 for N  read from file:
     /storage/coda1/p-amedford6/0/shared/rich_project_chbe-medford/medford-share/data/pseudos_module/espresso/nninc/pbe/van/N.UPF
     MD5 check sum: 90d10febe142ad51ac9d5be1deb811c4
     Pseudo is Ultrasoft, Zval =  5.0
     Generated by new atomic code, or converted to UPF format
     Using radial grid of  729 points,  4 beta functions with:
                l(1) =   0
                l(2) =   0
                l(3) =   1
                l(4) =   1
     Q(r) pseudized with  8 coefficients,  rinner =    0.800   0.800   0.800

     PseudoPot. # 4 for C  read from file:
     /storage/coda1/p-amedford6/0/shared/rich_project_chbe-medford/medford-share/data/pseudos_module/espresso/nninc/pbe/van/C.UPF
     MD5 check sum: 1a69bf6b8db32088f5b2163dbdb77a27
     Pseudo is Ultrasoft, Zval =  4.0
     Generated by new atomic code, or converted to UPF format
     Using radial grid of  721 points,  4 beta functions with:
                l(1) =   0
                l(2) =   0
                l(3) =   1
                l(4) =   1
     Q(r) pseudized with  8 coefficients,  rinner =    0.800   0.800   0.800

     PseudoPot. # 5 for H  read from file:
     /storage/coda1/p-amedford6/0/shared/rich_project_chbe-medford/medford-share/data/pseudos_module/espresso/nninc/pbe/van/H.UPF
     MD5 check sum: b5ee9d7bfd3a09ee7748110bda690ff7
     Pseudo is Ultrasoft, Zval =  1.0
     Generated by new atomic code, or converted to UPF format
     Using radial grid of  615 points,  1 beta functions with:
                l(1) =   0
     Q(r) pseudized with  8 coefficients,  rinner =    0.800

     atomic species   valence    mass     pseudopotential
        Ti1           12.00    47.86700     Ti( 1.00)
        O1             6.00    15.99900     O ( 1.00)
        N1             5.00    14.00700     N ( 1.00)
        C1             4.00    12.01100     C ( 1.00)
        H1             1.00     1.00800     H ( 1.00)

     No symmetry found

   Cartesian axes

     site n.     atom                  positions (alat units)
         1           Ti1 tau(   1) = (   0.0004258   2.9801865   6.0000000  )
         2           Ti1 tau(   2) = (   3.2906075   1.4906267   6.0002472  )
         3           O1  tau(   3) = (   0.0006271   0.0005054   7.9858123  )
         4           O1  tau(   4) = (   3.2906025   0.0005020   7.3038282  )
         5           O1  tau(   5) = (   4.5942328   1.4918067   9.2879030  )
         6           O1  tau(   6) = (   1.9868534   1.4903216   9.2879459  )
         7           Ti1 tau(   7) = (   3.2907910   2.8959150   9.1758416  )
         8           Ti1 tau(   8) = (   0.0015273   1.4827037   9.2680791  )
         9           O1  tau(   9) = (   3.2830128   5.9597860  11.3344455  )
        10           O1  tau(  10) = (   0.0116148   5.9584955  10.6183126  )
        11           O1  tau(  11) = (   1.2885291   1.4855062  12.6376555  )
        12           O1  tau(  12) = (   5.2724004   1.4911608  12.5936499  )
        13           Ti1 tau(  13) = (   0.0410009   3.0319447  12.6084003  )
        14           Ti1 tau(  14) = (   3.3739341   1.4916561  12.4823474  )
        15           O1  tau(  15) = (   6.4862162   0.0153916  14.6455093  )
        16           O1  tau(  16) = (   3.3439542   5.9611638  13.9051029  )
        17           O1  tau(  17) = (   4.4933269   1.5483200  16.1231154  )
        18           O1  tau(  18) = (   1.9964937   1.4536654  15.9127221  )
        19           Ti1 tau(  19) = (   3.1412959   3.0017366  15.7441667  )
        20           Ti1 tau(  20) = (   6.4823597   1.5369342  15.8006069  )
        21           O1  tau(  21) = (   3.2904802   0.0005063   4.7018136  )
        22           O1  tau(  22) = (   6.5709111   0.0522475  17.2082838  )
        23           O1  tau(  23) = (   1.3043587   1.4918075   6.0039043  )
        24           O1  tau(  24) = (   5.2767064   1.4903225   6.0039473  )
        25           Ti1 tau(  25) = (   0.0000382   5.9609847   6.0000000  )
        26           Ti1 tau(  26) = (   3.2902200   4.4714249   6.0002472  )
        27           O1  tau(  27) = (   0.0002396   2.9813036   7.9858123  )
        28           O1  tau(  28) = (   3.2902150   2.9813002   7.3038282  )
        29           O1  tau(  29) = (   4.5938453   4.4726049   9.2879030  )
        30           O1  tau(  30) = (   1.9864658   4.4711199   9.2879459  )
        31           Ti1 tau(  31) = (   3.2891106   5.8743827   9.1763621  )
        32           Ti1 tau(  32) = (   0.0006254   4.4649316   9.2693709  )
        33           O1  tau(  33) = (   3.2833609   2.9822938  11.3349093  )
        34           O1  tau(  34) = (   0.0092240   2.9805883  10.6323155  )
        35           O1  tau(  35) = (   1.2838611   4.4860338  12.6468719  )
        36           O1  tau(  36) = (   5.2760156   4.4607002  12.6015494  )
        37           Ti1 tau(  37) = (   0.0673138   0.0440259  12.5461749  )
        38           Ti1 tau(  38) = (   3.3712377   4.4654930  12.4933830  )
        39           O1  tau(  39) = (   6.5217465   2.9589972  14.6412948  )
        40           O1  tau(  40) = (   3.2809526   2.9956502  13.9333893  )
        41           O1  tau(  41) = (   4.4911989   4.4583117  16.1637052  )
        42           O1  tau(  42) = (   1.9937212   4.5427850  15.9740970  )
        43           Ti1 tau(  43) = (   3.2955853   0.0167752  15.6963065  )
        44           Ti1 tau(  44) = (   6.5082246   4.6715011  16.1069148  )
        45           O1  tau(  45) = (   3.2900926   2.9813045   4.7018136  )
        46           O1  tau(  46) = (   1.3039711   4.4726057   6.0039043  )
        47           O1  tau(  47) = (   5.2763189   4.4711207   6.0039473  )
        48           N1  tau(  48) = (   1.3945086   2.8365607  18.1849301  )
        49           N1  tau(  49) = (   0.1777896   2.9650562  17.4211889  )
        50           C1  tau(  50) = (   1.4118813   3.7128676  19.3556819  )
        51           H1  tau(  51) = (   0.5171711   3.5996102  19.9880000  )
        52           H1  tau(  52) = (   2.2935099   3.4681107  19.9517681  )
        53           H1  tau(  53) = (   1.4603795   4.7520035  19.0319817  )
        54           H1  tau(  54) = (   1.4579882   1.8621926  18.4823179  )
        55           H1  tau(  55) = (   5.9558665   2.8747675  18.0551794  )

     number of k points=    10  Fermi-Dirac smearing, width (Ry)=  0.0073
                       cart. coord. in units 2pi/alat
        k(    1) = (   0.0000000   0.0000000   0.0000000), wk =   0.1250000
        k(    2) = (   0.0000000   0.0419351   0.0000000), wk =   0.2500000
        k(    3) = (   0.0000000  -0.0838702   0.0000000), wk =   0.1250000
        k(    4) = (   0.0379955   0.0000049   0.0000000), wk =   0.2500000
        k(    5) = (   0.0379955   0.0419400   0.0000000), wk =   0.2500000
        k(    6) = (   0.0379955  -0.0838652   0.0000000), wk =   0.2500000
        k(    7) = (   0.0379955  -0.0419301   0.0000000), wk =   0.2500000
        k(    8) = (  -0.0759910  -0.0000099   0.0000000), wk =   0.1250000
        k(    9) = (  -0.0759910   0.0419252   0.0000000), wk =   0.2500000
        k(   10) = (  -0.0759910  -0.0838800   0.0000000), wk =   0.1250000

     Initial potential from superposition of free atoms

     starting charge  380.99914, renormalised to  397.00000

     negative rho (up, down):  1.540E-02 0.000E+00

     %%%%%%%%%%%%%%%%%%%%%%%%%%%%%%%%%%%%%%%%%%%%%%%%%%%%%%%%%%%%%%%%%%%%%%%%
     %                                                                      %
     % You are using vdW-DF, which was implemented by the Thonhauser group. %
     % Please cite the following two papers that made this development      %
     % possible and the two reviews that describe the various versions:     %
     %                                                                      %
     %   T. Thonhauser et al., PRL 115, 136402 (2015).                      %
     %   T. Thonhauser et al., PRB 76, 125112 (2007).                       %
     %   K. Berland et al., Rep. Prog. Phys. 78, 066501 (2015).             %
     %   D.C. Langreth et al., J. Phys.: Condens. Matter 21, 084203 (2009). %
     %                                                                      %
     %                                                                      %
     % If you are calculating the stress with vdW-DF, please also cite:     %
     %                                                                      %
     %   R. Sabatini et al., J. Phys.: Condens. Matter 24, 424209 (2012).   %
     %                                                                      %
     %%%%%%%%%%%%%%%%%%%%%%%%%%%%%%%%%%%%%%%%%%%%%%%%%%%%%%%%%%%%%%%%%%%%%%%%

     Adding external electric field

     Computed dipole along edir(3) :
        Dipole               -9.6180 Ry au,        -24.4465 Debye
        Dipole field         -0.0182 Ry au,

        Potential amp.        1.6825 Ry
        Total length         46.3494 bohr

     Starting wfcs are  301 atomic wfcs
  @ DRIVER MODE: Message from server: STATUS
  @ DRIVER MODE: Message from server: POSDATA
  @ DRIVER MODE: Reading and sharing cell
  @ DRIVER MODE: Reading and sharing positions
  @ DRIVER MODE: Received positions

     Self-consistent Calculation

     iteration #  1     ecut=    29.40 Ry     beta= 0.05
     Davidson diagonalization with overlap
     c_bands:  1 eigenvalues not converged
     c_bands:  1 eigenvalues not converged
     c_bands:  1 eigenvalues not converged
     c_bands:  1 eigenvalues not converged
     c_bands:  1 eigenvalues not converged
     c_bands:  1 eigenvalues not converged
     c_bands:  2 eigenvalues not converged
     ethr =  1.00E-05,  avg # of iterations = 18.8

[...]

     total energy              =   -2533.46903632 Ry
     estimated scf accuracy    <    4540.48053492 Ry

     iteration #  2     ecut=    29.40 Ry     beta= 0.05
     Davidson diagonalization with overlap
     ethr =  1.00E-02,  avg # of iterations = 24.8

[...]

     iteration # 58     ecut=    29.40 Ry     beta= 0.05
     Davidson diagonalization with overlap
     c_bands:  1 eigenvalues not converged
     ethr =  7.09E-09,  avg # of iterations = 14.0

[...]

     total energy              =   -2941.66157132 Ry
     estimated scf accuracy    <       0.00000008 Ry

     iteration # 70     ecut=    29.40 Ry     beta= 0.05
     Davidson diagonalization with overlap
     ethr =  1.90E-11,  avg # of iterations = 11.0

     negative rho (up, down):  1.607E-02 0.000E+00

     Adding external electric field

     Computed dipole along edir(3) :
        Dipole                0.9412 Ry au,          2.3923 Debye
        Dipole field          0.0018 Ry au,

        Potential amp.       -0.1646 Ry
        Total length         46.3494 bohr

     End of self-consistent calculation

          k = 0.0000 0.0000 0.0000 ( 18029 PWs)   bands (ev):

   -55.6871 -55.6702 -55.6530 -55.6336 -55.5928 -55.5387 -55.5318 -55.5020
   -55.4958 -55.4680 -55.4665 -55.4324 -55.2591 -55.0351 -54.6677 -54.6337
   -32.2212 -32.1701 -32.0432 -32.0333 -32.0003 -31.9853 -31.9801 -31.9568
   -31.9314 -31.8993 -31.8970 -31.8908 -31.8477 -31.8393 -31.8255 -31.8239
   -31.8073 -31.7920 -31.7840 -31.7483 -31.7442 -31.7375 -31.7217 -31.7183
   -31.6960 -31.6913 -31.6883 -31.6807 -31.6670 -31.6642 -31.6564 -31.6474
   -31.6424 -31.6324 -31.6195 -31.6096 -31.5786 -31.5093 -31.4655 -31.3014
   -31.2919 -31.2377 -31.0750 -30.9864 -30.9639 -30.8917 -30.8052 -30.6942
   -16.7731 -16.4180 -16.1633 -15.9336 -15.8428 -15.8123 -15.6598 -15.5284
   -15.4191 -15.3372 -15.2522 -15.2333 -15.2259 -15.2150 -15.1893 -15.1833
   -15.1367 -15.1315 -15.1121 -15.0991 -15.0494 -15.0327 -15.0294 -14.9344
   -14.8704 -14.8351 -14.8203 -14.7858 -14.7487 -14.3347 -13.1702 -13.0538
   -11.8074  -8.9816  -5.4331  -4.3654  -3.8398  -3.7892  -3.6454  -3.5948
    -3.5346  -3.4946  -3.3179  -3.2155  -2.9428  -2.8856  -2.8563  -2.8472
    -2.7881  -2.7559  -2.6021  -2.5760  -2.5060  -2.4965  -2.4809  -2.4522
    -2.4448  -2.4369  -2.4033  -2.3770  -2.3477  -2.2439  -2.1053  -2.0955
    -2.0722  -2.0388  -2.0011  -1.9526  -1.9366  -1.9161  -1.8977  -1.8849
    -1.8724  -1.7375  -1.7026  -1.5864  -1.4967  -1.4491  -1.3693  -1.2996
    -1.2680  -1.1586  -1.1192  -1.1057  -1.0920  -1.0815  -0.9820  -0.8761
    -0.8588  -0.8211  -0.7660  -0.7103  -0.6395  -0.5947  -0.5436  -0.4914
    -0.4671  -0.4519  -0.4491  -0.4140  -0.3226  -0.1811  -0.1292  -0.0949
    -0.0726   0.0041   0.0391   0.0950   0.1197   0.1431   0.1790   0.2318
     0.2756   0.2820   0.2955   0.3099   0.3147   0.4891   0.5385   0.5802
     0.6136   0.6595   0.8207   0.8429   0.9645   1.0389   1.2016   1.2798
     1.3544   1.4324   1.5461   1.6222   1.9257   1.9715   3.4435   3.5309
     3.5755   3.5894   3.6845   3.7268   3.8964   3.9268   3.9412   4.0013

[...]

          k = 0.0380-0.0419 0.0000 ( 17876 PWs)   bands (ev):

[...]

          k =-0.0760-0.0000 0.0000 ( 17886 PWs)   bands (ev):

[...]

          k =-0.0760-0.0839 0.0000 ( 17948 PWs)   bands (ev):

   -55.6704 -55.6696 -55.6555 -55.6481 -55.5868 -55.5446 -55.5192 -55.5084
   -55.4854 -55.4840 -55.4524 -55.4467 -55.2579 -55.0362 -54.6507 -54.6506
   -32.0303 -32.0206 -31.9857 -31.9851 -31.9659 -31.9650 -31.9449 -31.9384
   -31.8855 -31.8850 -31.8747 -31.8695 -31.8525 -31.8346 -31.8101 -31.8055
   -31.8010 -31.7976 -31.7910 -31.7904 -31.7894 -31.7890 -31.7859 -31.7454
   -31.7372 -31.7258 -31.7176 -31.7064 -31.6861 -31.6852 -31.6832 -31.6766
   -31.6667 -31.6627 -31.6588 -31.6563 -31.6151 -31.5118 -31.4622 -31.3636
   -31.2940 -31.2637 -30.9767 -30.9766 -30.8878 -30.8877 -30.8485 -30.8485
   -16.7469 -15.8651 -15.8040 -15.6463 -15.6111 -15.5914 -15.5564 -15.4957
   -15.4125 -15.3854 -15.3807 -15.3335 -15.3078 -15.2750 -15.2371 -15.2226
   -15.2155 -15.1966 -15.1842 -15.1507 -15.1412 -15.1295 -15.1223 -15.0467
   -15.0093 -15.0049 -14.9992 -14.8956 -14.7691 -14.5026 -13.1556 -13.1555
   -11.8137  -8.9959  -5.4471  -4.3526  -3.7620  -3.1579  -3.0709  -2.8964
    -2.8407  -2.8119  -2.7960  -2.6305  -2.6174  -2.6042  -2.5546  -2.5368
    -2.5277  -2.5181  -2.5092  -2.4882  -2.4753  -2.4406  -2.4307  -2.3958
    -2.3813  -2.3640  -2.3470  -2.3298  -2.3099  -2.2965  -2.2808  -2.2384
    -2.2192  -2.2081  -2.1868  -2.1434  -1.9330  -1.8831  -1.8373  -1.8341
    -1.8229  -1.8035  -1.7482  -1.7431  -1.7092  -1.6582  -1.5793  -1.4346
    -1.3894  -1.3730  -1.2797  -1.2581  -1.2053  -1.1334  -1.0876  -1.0706
    -1.0358  -0.9715  -0.9355  -0.8979  -0.8315  -0.8071  -0.8010  -0.7073
    -0.6865  -0.6503  -0.6436  -0.5651  -0.5142  -0.4516  -0.4362  -0.4199
    -0.3882  -0.3548  -0.3367  -0.2686  -0.1768  -0.1757  -0.1527  -0.0435
     0.0472   0.2755   0.3382   0.3752   0.4202   0.5137   0.5822   0.6068
     0.6227   0.6444   0.6637   0.7119   0.8387   0.8488   0.8831   0.9961
     1.1003   1.6384   1.7178   1.7187   1.7913   1.7914   3.7451   3.7634
     3.7839   3.8303   3.9493   3.9564   3.9788   3.9809   4.1032   4.1161

     the Fermi energy is     3.4451 ev

!    total energy              =   -2941.66158816 Ry
     estimated scf accuracy    <       0.00000003 Ry
     smearing contrib. (-TS)   =      -0.02150921 Ry
     internal energy E=F+TS    =   -2941.64007895 Ry

     The total energy is F=E-TS. E is the sum of the following terms:
     one-electron contribution =  -24276.04807093 Ry
     hartree contribution      =   12228.47459686 Ry
     xc contribution           =    -486.87345827 Ry
     ewald contribution        =    9592.80518172 Ry
     electric field correction =       0.00167167 Ry

     convergence has been achieved in  70 iterations

     Forces acting on atoms (cartesian axes, Ry/au):

     atom    1 type  1   force =     0.00018187   -0.00011552    0.09634344
     atom    2 type  1   force =    -0.00021661   -0.00064045   -0.17553183
     atom    3 type  2   force =    -0.00004067   -0.00003521   -0.02419568
     atom    4 type  2   force =     0.00004945   -0.00143771    0.05293458
     atom    5 type  2   force =    -0.01183893   -0.00049333    0.00396400
     atom    6 type  2   force =     0.01314404    0.00022857    0.00230058
     atom    7 type  1   force =    -0.00139608    0.00079680   -0.01148383
     atom    8 type  1   force =     0.00053575    0.00923213    0.02522624
     atom    9 type  2   force =    -0.00011087    0.00017420    0.00038734
     atom   10 type  2   force =    -0.00086655    0.00148260   -0.01579586
     atom   11 type  2   force =    -0.00018934   -0.00049826    0.00039479
     atom   12 type  2   force =    -0.00013810   -0.00026213    0.00002750
     atom   13 type  1   force =     0.00054698   -0.00091783    0.00007810
     atom   14 type  1   force =    -0.00007940   -0.00040163    0.00026086
     atom   15 type  2   force =     0.00017743    0.00003650   -0.00029656
     atom   16 type  2   force =     0.00006728    0.00024736    0.00003315
     atom   17 type  2   force =    -0.00049969    0.00034567    0.00048161
     atom   18 type  2   force =     0.00010165    0.00010398    0.00027834
     atom   19 type  1   force =     0.00008712   -0.00054824    0.00027205
     atom   20 type  1   force =     0.00015678    0.00037135    0.00057412
     atom   21 type  2   force =     0.00007462   -0.00007980    0.10320730
     atom   22 type  2   force =    -0.00042876   -0.00025739    0.00024774
     atom   23 type  2   force =    -0.07145815   -0.00018452   -0.02770985
     atom   24 type  2   force =     0.07138036    0.00024311   -0.02770966
     atom   25 type  1   force =     0.00003131   -0.00027665    0.09580604
     atom   26 type  1   force =    -0.00014707   -0.00022693   -0.17570284
     atom   27 type  2   force =     0.00009057   -0.00012702   -0.02329159
     atom   28 type  2   force =     0.00008010   -0.00129519    0.05336024
     atom   29 type  2   force =    -0.01196781   -0.00005718    0.00376051
     atom   30 type  2   force =     0.01321074    0.00042334    0.00213478
     atom   31 type  1   force =    -0.00141026    0.00344843   -0.01080749
     atom   32 type  1   force =     0.00064414   -0.01009876    0.02563570
     atom   33 type  2   force =    -0.00038869    0.00005340    0.00004631
     atom   34 type  2   force =     0.00074914    0.00090174   -0.02305703
     atom   35 type  2   force =    -0.00010664    0.00029438   -0.00002349
     atom   36 type  2   force =    -0.00022919    0.00059604   -0.00029025
     atom   37 type  1   force =    -0.00082507   -0.00101776   -0.00013061
     atom   38 type  1   force =    -0.00002870   -0.00010309   -0.00001624
     atom   39 type  2   force =    -0.00035114    0.00003589    0.00056879
     atom   40 type  2   force =     0.00048963    0.00025054    0.00024567
     atom   41 type  2   force =     0.00007012    0.00050576    0.00025590
     atom   42 type  2   force =     0.00006460    0.00029174   -0.00020600
     atom   43 type  1   force =     0.00019281    0.00008786   -0.00017822
     atom   44 type  1   force =    -0.00026196   -0.00064134   -0.00004568
     atom   45 type  2   force =     0.00007147   -0.00008766    0.10321271
     atom   46 type  2   force =    -0.07146219   -0.00016526   -0.02770787
     atom   47 type  2   force =     0.07138720    0.00031303   -0.02772376
     atom   48 type  3   force =    -0.00062708   -0.00015800   -0.00020754
     atom   49 type  3   force =     0.00049124   -0.00020542    0.00039664
     atom   50 type  4   force =    -0.00118311   -0.00044420    0.00113998
     atom   51 type  5   force =     0.00104638   -0.00057565   -0.00025033
     atom   52 type  5   force =    -0.00019697    0.00164521   -0.00093539
     atom   53 type  5   force =     0.00154826   -0.00117253    0.00030450
     atom   54 type  5   force =     0.00005485    0.00067887   -0.00044196
     atom   55 type  5   force =    -0.00027685   -0.00026382   -0.00013993

     Total force =     0.367331     Total SCF correction =     0.000675
  @ DRIVER MODE: Message from server: STATUS
  @ DRIVER MODE: Message from server: GETFORCE
  @ DRIVER MODE: Returning v,forces,stress,ensemble

     Writing output data file ./calc.save/
  @ DRIVER MODE: Message from server: EXIT
  @ DRIVE MODE: Exiting

     General routines

     Parallel routines

   This run was terminated on:   9:20: 5  25Aug2021

   JOB DONE.