     Program PWSCF v.6.7GPU starts on 10Sep2021 at 21:32:11

     R & G space division:  proc/nbgrp/npool/nimage =      10
     Reading input from /storage/home/hcoda1/3/ntian30/research/carbon/CxH_vib/CH2_calc/ads_slab/CH2NHNH2_a/out_0011/pw.inp
Warning: card &CELL ignored
Warning: card   CELL_DYNAMICS='IPI', ignored
Warning: card / ignored

     Current dimensions of program PWSCF are:
     Max number of different atomic species (ntypx) = 10
     Max number of k-points (npk) =  40000
     Max angular momentum in pseudopotentials (lmaxx) =  3
     Presently no symmetry can be used with electric field

     Message from routine cell_base_init:
     DEPRECATED: use true lattice parameter, not A to a.u. conversion factor

     IMPORTANT: XC functional enforced from input :
     Exchange-correlation= BEEF-VDW
                           (   1   4  43  14   2   0   0)
     Any further DFT definition will be discarded
     Please, verify this is what you really want

  @ DRIVER MODE: Connecting to
 qe_1139763_2792044.sched-torque.pace.gatech.edu1_08wcnp_scratch
  using UNIX socket
  @ DRIVER MODE: Message from server: STATUS
  @ DRIVER MODE: Message from server: INIT
  @ DRIVER MODE: Receiving replica           0          -1
  @ DRIVER MODE: Receiving encoded integer          25
  @ DRIVER MODE:  SCF:  T  FORCE:  T  STRESS:  F  VC:  F  ENSEMBLE:  F
  @ DRIVER MODE:  SCF:  T  FORCE:  T  STRESS:  F  VC:  F  ENSEMBLE:  F

     Using Slab Decomposition

     bravais-lattice index     =            0
     lattice parameter (alat)  =       1.8897  a.u.
     unit-cell volume          =    6658.9804 (a.u.)^3
     number of atoms/cell      =           55
     number of atomic types    =            5
     number of electrons       =       397.00
     number of Kohn-Sham states=          208
     kinetic-energy cutoff     =      29.3995  Ry
     charge density cutoff     =     293.9946  Ry
     scf convergence threshold =      7.3E-08
     mixing beta               =       0.0500
     number of iterations used =            8  plain     mixing
     Exchange-correlation= BEEF-VDW
                           (   1   4  43  14   2   0   0)

     celldm(1)=   1.889726  celldm(2)=   0.000000  celldm(3)=   0.000000
     celldm(4)=   0.000000  celldm(5)=   0.000000  celldm(6)=   0.000000

     crystal axes: (cart. coord. in units of alat)
               a(1) = (   6.579727   0.000000   0.000000 )
               a(2) = (  -0.000775   5.961596   0.000000 )
               a(3) = (   0.000000   0.000000  25.155947 )

     reciprocal axes: (cart. coord. in units 2 pi/alat)
               b(1) = (  0.151982  0.000020  0.000000 )
               b(2) = (  0.000000  0.167740  0.000000 )
               b(3) = (  0.000000  0.000000  0.039752 )

     PseudoPot. # 1 for Ti read from file:
     /storage/coda1/p-amedford6/0/shared/rich_project_chbe-medford/medford-share/data/pseudos_module/espresso/nninc/pbe/van/Ti.UPF
     MD5 check sum: 8e4df49b7f0d34bbd5052bf3f5ea0213
     Pseudo is Ultrasoft, Zval = 12.0
     Generated by new atomic code, or converted to UPF format
     Using radial grid of  851 points,  6 beta functions with:
                l(1) =   0
                l(2) =   0
                l(3) =   1
                l(4) =   1
                l(5) =   2
                l(6) =   2
     Q(r) pseudized with  8 coefficients,  rinner =    1.000   1.000   1.000
                                                       1.000   1.000

     PseudoPot. # 2 for O  read from file:
     /storage/coda1/p-amedford6/0/shared/rich_project_chbe-medford/medford-share/data/pseudos_module/espresso/nninc/pbe/van/O.UPF
     MD5 check sum: 78c19812648e8988a0fe644b0f25305e
     Pseudo is Ultrasoft, Zval =  6.0
     Generated by new atomic code, or converted to UPF format
     Using radial grid of  737 points,  4 beta functions with:
                l(1) =   0
                l(2) =   0
                l(3) =   1
                l(4) =   1
     Q(r) pseudized with  8 coefficients,  rinner =    0.800   0.800   0.800

     PseudoPot. # 3 for N  read from file:
     /storage/coda1/p-amedford6/0/shared/rich_project_chbe-medford/medford-share/data/pseudos_module/espresso/nninc/pbe/van/N.UPF
     MD5 check sum: 90d10febe142ad51ac9d5be1deb811c4
     Pseudo is Ultrasoft, Zval =  5.0
     Generated by new atomic code, or converted to UPF format
     Using radial grid of  729 points,  4 beta functions with:
                l(1) =   0
                l(2) =   0
                l(3) =   1
                l(4) =   1
     Q(r) pseudized with  8 coefficients,  rinner =    0.800   0.800   0.800

     PseudoPot. # 4 for C  read from file:
     /storage/coda1/p-amedford6/0/shared/rich_project_chbe-medford/medford-share/data/pseudos_module/espresso/nninc/pbe/van/C.UPF
     MD5 check sum: 1a69bf6b8db32088f5b2163dbdb77a27
     Pseudo is Ultrasoft, Zval =  4.0
     Generated by new atomic code, or converted to UPF format
     Using radial grid of  721 points,  4 beta functions with:
                l(1) =   0
                l(2) =   0
                l(3) =   1
                l(4) =   1
     Q(r) pseudized with  8 coefficients,  rinner =    0.800   0.800   0.800

     PseudoPot. # 5 for H  read from file:
     /storage/coda1/p-amedford6/0/shared/rich_project_chbe-medford/medford-share/data/pseudos_module/espresso/nninc/pbe/van/H.UPF
     MD5 check sum: b5ee9d7bfd3a09ee7748110bda690ff7
     Pseudo is Ultrasoft, Zval =  1.0
     Generated by new atomic code, or converted to UPF format
     Using radial grid of  615 points,  1 beta functions with:
                l(1) =   0
     Q(r) pseudized with  8 coefficients,  rinner =    0.800

     atomic species   valence    mass     pseudopotential
        Ti1           12.00    47.86700     Ti( 1.00)
        O1             6.00    15.99900     O ( 1.00)
        N1             5.00    14.00700     N ( 1.00)
        C1             4.00    12.01100     C ( 1.00)
        H1             1.00     1.00800     H ( 1.00)

     No symmetry found

   Cartesian axes

     site n.     atom                  positions (alat units)
         1           Ti1 tau(   1) = (   0.0004258   2.9801865   6.0000000  )
         2           Ti1 tau(   2) = (   3.2906075   1.4906267   6.0002472  )
         3           O1  tau(   3) = (   0.0006271   0.0005054   7.9858123  )
         4           O1  tau(   4) = (   3.2906025   0.0005020   7.3038282  )
         5           O1  tau(   5) = (   4.5942328   1.4918067   9.2879030  )
         6           O1  tau(   6) = (   1.9868534   1.4903216   9.2879459  )
         7           Ti1 tau(   7) = (   3.2907910   2.8959150   9.1758416  )
         8           Ti1 tau(   8) = (   0.0015273   1.4827037   9.2680791  )
         9           O1  tau(   9) = (   3.2904964   5.9585769  11.3857690  )
        10           O1  tau(  10) = (   0.0116148   5.9584955  10.6183126  )
        11           O1  tau(  11) = (   1.2878431   1.4867815  12.6991744  )
        12           O1  tau(  12) = (   5.2968392   1.4897239  12.6840540  )
        13           Ti1 tau(  13) = (   0.0031652   2.9724310  12.5021289  )
        14           Ti1 tau(  14) = (   3.2974598   1.4750309  12.5411678  )
        15           O1  tau(  15) = (   6.5490940   5.8844369  14.7025010  )
        16           O1  tau(  16) = (   3.3056738   5.9474069  14.0077327  )
        17           O1  tau(  17) = (   4.5358307   1.5199601  16.1809847  )
        18           O1  tau(  18) = (   2.0145668   1.5037208  16.1256758  )
        19           Ti1 tau(  19) = (   3.2722398   2.9952086  15.7861162  )
        20           Ti1 tau(  20) = (   6.5630583   1.3046800  15.8709962  )
        21           O1  tau(  21) = (   3.2904802   0.0005063   4.7018136  )
        22           O1  tau(  22) = (   0.0019326   0.1554656  17.2922311  )
        23           O1  tau(  23) = (   1.3043587   1.4918075   6.0039043  )
        24           O1  tau(  24) = (   5.2767064   1.4903225   6.0039473  )
        25           Ti1 tau(  25) = (   0.0000382   5.9609847   6.0000000  )
        26           Ti1 tau(  26) = (   3.2902200   4.4714249   6.0002472  )
        27           O1  tau(  27) = (   0.0002396   2.9813036   7.9858123  )
        28           O1  tau(  28) = (   3.2902150   2.9813002   7.3038282  )
        29           O1  tau(  29) = (   4.5938453   4.4726049   9.2879030  )
        30           O1  tau(  30) = (   1.9864658   4.4711199   9.2879459  )
        31           Ti1 tau(  31) = (   3.2891106   5.8743827   9.1763621  )
        32           Ti1 tau(  32) = (   0.0006254   4.4649316   9.2693709  )
        33           O1  tau(  33) = (   3.2902589   2.9648534  11.3782866  )
        34           O1  tau(  34) = (   0.0092240   2.9805883  10.6323155  )
        35           O1  tau(  35) = (   1.2907939   4.4579819  12.6664495  )
        36           O1  tau(  36) = (   5.2949113   4.4550998  12.6520156  )
        37           Ti1 tau(  37) = (   0.0082621   5.9437129  12.5015890  )
        38           Ti1 tau(  38) = (   3.2989848   4.4491302  12.5337562  )
        39           O1  tau(  39) = (   6.5545586   3.0159292  14.9830317  )
        40           O1  tau(  40) = (   3.2960925   2.9977268  13.9872472  )
        41           O1  tau(  41) = (   4.5245867   4.4695491  16.2648171  )
        42           O1  tau(  42) = (   2.0004542   4.4779941  16.2115700  )
        43           Ti1 tau(  43) = (   3.2998562   0.0139781  15.8031611  )
        44           Ti1 tau(  44) = (   0.0298651   4.5190837  16.0363964  )
        45           O1  tau(  45) = (   3.2900926   2.9813045   4.7018136  )
        46           O1  tau(  46) = (   1.3039711   4.4726057   6.0039043  )
        47           O1  tau(  47) = (   5.2763189   4.4711207   6.0039473  )
        48           N1  tau(  48) = (   0.7490466   2.5008218  18.8353846  )
        49           N1  tau(  49) = (   6.4369825   3.4131575  18.1651453  )
        50           C1  tau(  50) = (   1.9829018   2.9174465  19.1941100  )
        51           H1  tau(  51) = (   2.1359794   3.9544348  19.4490303  )
        52           H1  tau(  52) = (   2.6935556   2.1521737  19.4548401  )
        53           H1  tau(  53) = (   0.6355624   1.5475814  18.4636284  )
        54           H1  tau(  54) = (   6.4936903   4.3158724  18.6511896  )
        55           H1  tau(  55) = (   5.4890587   3.0624770  18.3097170  )

     number of k points=    10  Fermi-Dirac smearing, width (Ry)=  0.0073
                       cart. coord. in units 2pi/alat
        k(    1) = (   0.0000000   0.0000000   0.0000000), wk =   0.1250000
        k(    2) = (   0.0000000   0.0419351   0.0000000), wk =   0.2500000
        k(    3) = (   0.0000000  -0.0838702   0.0000000), wk =   0.1250000
        k(    4) = (   0.0379955   0.0000049   0.0000000), wk =   0.2500000
        k(    5) = (   0.0379955   0.0419400   0.0000000), wk =   0.2500000
        k(    6) = (   0.0379955  -0.0838652   0.0000000), wk =   0.2500000
        k(    7) = (   0.0379955  -0.0419301   0.0000000), wk =   0.2500000
        k(    8) = (  -0.0759910  -0.0000099   0.0000000), wk =   0.1250000
        k(    9) = (  -0.0759910   0.0419252   0.0000000), wk =   0.2500000
        k(   10) = (  -0.0759910  -0.0838800   0.0000000), wk =   0.1250000

     Initial potential from superposition of free atoms

     starting charge  380.99914, renormalised to  397.00000

     negative rho (up, down):  1.606E-02 0.000E+00

     %%%%%%%%%%%%%%%%%%%%%%%%%%%%%%%%%%%%%%%%%%%%%%%%%%%%%%%%%%%%%%%%%%%%%%%%
     %                                                                      %
     % You are using vdW-DF, which was implemented by the Thonhauser group. %
     % Please cite the following two papers that made this development      %
     % possible and the two reviews that describe the various versions:     %
     %                                                                      %
     %   T. Thonhauser et al., PRL 115, 136402 (2015).                      %
     %   T. Thonhauser et al., PRB 76, 125112 (2007).                       %
     %   K. Berland et al., Rep. Prog. Phys. 78, 066501 (2015).             %
     %   D.C. Langreth et al., J. Phys.: Condens. Matter 21, 084203 (2009). %
     %                                                                      %
     %                                                                      %
     % If you are calculating the stress with vdW-DF, please also cite:     %
     %                                                                      %
     %   R. Sabatini et al., J. Phys.: Condens. Matter 24, 424209 (2012).   %
     %                                                                      %
     %%%%%%%%%%%%%%%%%%%%%%%%%%%%%%%%%%%%%%%%%%%%%%%%%%%%%%%%%%%%%%%%%%%%%%%%

     Adding external electric field

     Computed dipole along edir(3) :
        Dipole              -10.6730 Ry au,        -27.1281 Debye
        Dipole field         -0.0201 Ry au,

        Potential amp.        1.8671 Ry
        Total length         46.3494 bohr

     Starting wfcs are  301 atomic wfcs
  @ DRIVER MODE: Message from server: STATUS
  @ DRIVER MODE: Message from server: POSDATA
  @ DRIVER MODE: Reading and sharing cell
  @ DRIVER MODE: Reading and sharing positions
  @ DRIVER MODE: Received positions

     Self-consistent Calculation

     iteration #  1     ecut=    29.40 Ry     beta= 0.05
     Davidson diagonalization with overlap
     c_bands:  2 eigenvalues not converged
     c_bands:  3 eigenvalues not converged
     c_bands:  3 eigenvalues not converged
     c_bands:  4 eigenvalues not converged
     c_bands:  4 eigenvalues not converged
     c_bands:  4 eigenvalues not converged
     c_bands:  1 eigenvalues not converged
     c_bands:  2 eigenvalues not converged
     c_bands:  2 eigenvalues not converged
     ethr =  1.00E-05,  avg # of iterations = 20.0

[...]

     total energy              =   -2465.33726735 Ry
     estimated scf accuracy    <    5331.15369666 Ry

     iteration #  2     ecut=    29.40 Ry     beta= 0.05
     Davidson diagonalization with overlap
     ethr =  1.00E-02,  avg # of iterations = 23.0

[...]

     iteration # 65     ecut=    29.40 Ry     beta= 0.05
     Davidson diagonalization with overlap
     ethr =  6.20E-11,  avg # of iterations = 13.0

[...]

     total energy              =   -2941.51052297 Ry
     estimated scf accuracy    <       0.00000009 Ry

     iteration # 66     ecut=    29.40 Ry     beta= 0.05
     Davidson diagonalization with overlap
     c_bands:  1 eigenvalues not converged
     c_bands:  1 eigenvalues not converged
     c_bands:  1 eigenvalues not converged
     ethr =  2.22E-11,  avg # of iterations = 17.4

     negative rho (up, down):  1.515E-02 0.000E+00

     Adding external electric field

     Computed dipole along edir(3) :
        Dipole                1.2006 Ry au,          3.0515 Debye
        Dipole field          0.0023 Ry au,

        Potential amp.       -0.2100 Ry
        Total length         46.3494 bohr

     End of self-consistent calculation

          k = 0.0000 0.0000 0.0000 ( 18029 PWs)   bands (ev):

   -55.3853 -55.3484 -55.3395 -55.3054 -55.2670 -55.2610 -55.2323 -55.2139
   -55.1891 -55.1856 -55.1795 -55.1701 -55.1364 -55.0334 -54.3729 -54.3388
   -31.9481 -31.8328 -31.7781 -31.7543 -31.7030 -31.6925 -31.6868 -31.6766
   -31.6282 -31.6197 -31.5974 -31.5842 -31.5748 -31.5509 -31.5443 -31.5374
   -31.5250 -31.5090 -31.5069 -31.4922 -31.4914 -31.4542 -31.4530 -31.4442
   -31.4442 -31.4162 -31.3974 -31.3967 -31.3948 -31.3917 -31.3743 -31.3688
   -31.3679 -31.3617 -31.3608 -31.3592 -31.3272 -31.3030 -31.2979 -31.2815
   -31.2484 -31.2031 -30.7825 -30.6877 -30.6657 -30.5988 -30.5120 -30.4012
   -18.8515 -16.2168 -15.9631 -15.8156 -15.7078 -15.5917 -15.4821 -15.4279
   -15.3217 -15.2502 -15.1343 -15.0865 -15.0694 -15.0375 -15.0296 -15.0167
   -14.9382 -14.9317 -14.9137 -14.8907 -14.8851 -14.8431 -14.8316 -14.7908
   -14.7656 -14.7574 -14.6380 -14.5524 -14.4776 -14.3142 -14.3100 -12.8757
   -12.7581  -9.8338  -7.4263  -6.2186  -4.9776  -4.0168  -3.5841  -3.5493
    -3.4109  -3.3023  -3.2820  -3.2398  -3.1453  -2.9642  -2.8276  -2.7924
    -2.6780  -2.5976  -2.5843  -2.5537  -2.4282  -2.3917  -2.3521  -2.2873
    -2.2580  -2.1963  -2.1779  -2.1656  -2.1465  -2.1207  -2.0983  -1.9944
    -1.9586  -1.8627  -1.8226  -1.7895  -1.7484  -1.7312  -1.7105  -1.6804
    -1.6702  -1.6160  -1.6010  -1.5881  -1.5388  -1.4214  -1.3005  -1.2667
    -1.1769  -1.0310  -0.9932  -0.9730  -0.9168  -0.8811  -0.8568  -0.8260
    -0.7676  -0.7286  -0.6729  -0.6132  -0.5421  -0.4983  -0.4539  -0.4188
    -0.3807  -0.2955  -0.2155  -0.1704  -0.1571  -0.1400  -0.0398  -0.0044
     0.0513   0.1268   0.1291   0.1411   0.1847   0.2663   0.3435   0.3623
     0.3849   0.4891   0.4940   0.5369   0.5393   0.5598   0.5935   0.6291
     0.6782   0.7052   0.7928   0.8898   1.1171   1.2180   1.2196   1.5430
     1.5535   1.6497   1.8328   2.2265   2.2749   3.7067   3.7770   3.7977
     3.8544   3.8574   3.9268   3.9438   4.1896   4.2151   4.2156   4.2348

[...]

          k = 0.0380-0.0419 0.0000 ( 17876 PWs)   bands (ev):

[...]

          k =-0.0760-0.0000 0.0000 ( 17886 PWs)   bands (ev):

[...]

          k =-0.0760-0.0839 0.0000 ( 17948 PWs)   bands (ev):

   -55.3712 -55.3623 -55.3228 -55.3220 -55.2566 -55.2519 -55.2474 -55.1981
   -55.1949 -55.1928 -55.1838 -55.1536 -55.1530 -55.0356 -54.3559 -54.3557
   -31.7572 -31.7482 -31.6869 -31.6648 -31.6482 -31.6476 -31.6296 -31.6136
   -31.6132 -31.5969 -31.5889 -31.5806 -31.5652 -31.5333 -31.5311 -31.5267
   -31.5261 -31.5250 -31.5137 -31.5094 -31.4798 -31.4677 -31.4640 -31.4538
   -31.4475 -31.4450 -31.4425 -31.4418 -31.4392 -31.4306 -31.4279 -31.4108
   -31.4081 -31.4073 -31.3879 -31.3859 -31.3858 -31.3740 -31.3341 -31.3334
   -31.2973 -31.2502 -30.6784 -30.6782 -30.5951 -30.5949 -30.5554 -30.5553
   -18.8452 -15.7666 -15.5997 -15.5807 -15.4367 -15.4004 -15.3572 -15.3461
   -15.2514 -15.2163 -15.1904 -15.1598 -15.1384 -15.1033 -15.0903 -15.0720
   -15.0160 -14.9938 -14.9881 -14.9683 -14.9094 -14.9050 -14.8973 -14.8945
   -14.8396 -14.8364 -14.8260 -14.7460 -14.7431 -14.6259 -14.2376 -12.8597
   -12.8595  -9.8035  -7.3856  -6.2156  -5.0757  -3.9588  -3.6073  -2.8572
    -2.8497  -2.8375  -2.6527  -2.5695  -2.5471  -2.5405  -2.4509  -2.4142
    -2.3682  -2.3661  -2.3124  -2.3062  -2.2790  -2.2390  -2.2276  -2.2075
    -2.1889  -2.1794  -2.1437  -2.1214  -2.1115  -2.0807  -2.0498  -2.0325
    -2.0265  -2.0049  -1.9738  -1.9547  -1.9418  -1.8863  -1.7774  -1.7622
    -1.6657  -1.6006  -1.5962  -1.5226  -1.4986  -1.4551  -1.4484  -1.4240
    -1.3785  -1.1987  -1.1675  -1.1375  -1.1296  -1.0445  -0.9915  -0.9189
    -0.9134  -0.8882  -0.8501  -0.7594  -0.7234  -0.7043  -0.6294  -0.6054
    -0.5403  -0.5005  -0.4311  -0.4004  -0.3469  -0.3450  -0.3108  -0.2963
    -0.2800  -0.2068  -0.1610  -0.1266  -0.1144  -0.0820   0.1153   0.1241
     0.1411   0.2503   0.2935   0.4415   0.4563   0.5191   0.6248   0.6513
     0.7203   0.7453   0.9021   0.9134   0.9306   0.9820   0.9902   1.0596
     1.0690   2.0058   2.0063   2.0947   2.0951   3.6754   3.8944   3.9652
     3.9801   4.0127   4.1386   4.2064   4.2243   4.2929   4.2973   4.3265

     the Fermi energy is     3.7725 ev

!    total energy              =   -2941.51055103 Ry
     estimated scf accuracy    <       0.00000006 Ry
     smearing contrib. (-TS)   =      -0.04436181 Ry
     internal energy E=F+TS    =   -2941.46618922 Ry

     The total energy is F=E-TS. E is the sum of the following terms:
     one-electron contribution =  -23636.06203613 Ry
     hartree contribution      =   11910.30338628 Ry
     xc contribution           =    -486.87942589 Ry
     ewald contribution        =    9271.16916652 Ry
     electric field correction =       0.00271999 Ry

     convergence has been achieved in  66 iterations

     Forces acting on atoms (cartesian axes, Ry/au):

     atom    1 type  1   force =     0.00012968   -0.00018822    0.09304622
     atom    2 type  1   force =    -0.00007957   -0.00046429   -0.17842848
     atom    3 type  2   force =     0.00004734   -0.00037163   -0.02006136
     atom    4 type  2   force =    -0.00000747   -0.00201689    0.05931352
     atom    5 type  2   force =    -0.01032083   -0.00099103    0.00817195
     atom    6 type  2   force =     0.01175373   -0.00039110    0.00731424
     atom    7 type  1   force =    -0.00037972    0.00239506   -0.01417394
     atom    8 type  1   force =     0.00022415   -0.00123613   -0.00619008
     atom    9 type  2   force =    -0.00023172    0.00022275    0.00013703
     atom   10 type  2   force =    -0.00162653    0.00148125    0.00160726
     atom   11 type  2   force =    -0.00003222   -0.00015653    0.00006586
     atom   12 type  2   force =    -0.00019780   -0.00015313   -0.00004423
     atom   13 type  1   force =     0.00007196   -0.00027719    0.00012075
     atom   14 type  1   force =     0.00018502    0.00019539    0.00030589
     atom   15 type  2   force =    -0.00009090    0.00046101   -0.00039590
     atom   16 type  2   force =     0.00016966   -0.00021097    0.00008119
     atom   17 type  2   force =    -0.00016383   -0.00007415    0.00031879
     atom   18 type  2   force =    -0.00013531   -0.00006098   -0.00022184
     atom   19 type  1   force =    -0.00004297   -0.00008626    0.00037415
     atom   20 type  1   force =    -0.00017892    0.00000482    0.00036118
     atom   21 type  2   force =     0.00005981   -0.00008293    0.10400645
     atom   22 type  2   force =     0.00007169    0.00000102   -0.00071646
     atom   23 type  2   force =    -0.07033327   -0.00018264   -0.02687592
     atom   24 type  2   force =     0.07021639    0.00026114   -0.02690154
     atom   25 type  1   force =    -0.00001838   -0.00014050    0.09260762
     atom   26 type  1   force =    -0.00006134   -0.00038728   -0.17857148
     atom   27 type  2   force =     0.00009607   -0.00030146   -0.01914907
     atom   28 type  2   force =     0.00003997   -0.00178775    0.05866124
     atom   29 type  2   force =    -0.01081776   -0.00126259    0.00872141
     atom   30 type  2   force =     0.01216954   -0.00086039    0.00782336
     atom   31 type  1   force =    -0.00028532    0.00613961   -0.01441823
     atom   32 type  1   force =     0.00028396    0.00069428   -0.00652707
     atom   33 type  2   force =    -0.00022768   -0.00025287   -0.00000234
     atom   34 type  2   force =    -0.00093399   -0.00222622   -0.00019084
     atom   35 type  2   force =    -0.00039318    0.00023152    0.00012208
     atom   36 type  2   force =     0.00010427    0.00019250   -0.00029664
     atom   37 type  1   force =     0.00017525    0.00000018    0.00010950
     atom   38 type  1   force =     0.00032451    0.00018459    0.00012734
     atom   39 type  2   force =    -0.00026430    0.00015674   -0.00050286
     atom   40 type  2   force =    -0.00009561   -0.00015680   -0.00013435
     atom   41 type  2   force =    -0.00030594    0.00041681   -0.00019387
     atom   42 type  2   force =    -0.00007000    0.00014609   -0.00006010
     atom   43 type  1   force =     0.00047942   -0.00002500    0.00029399
     atom   44 type  1   force =     0.00018535   -0.00046831   -0.00024547
     atom   45 type  2   force =     0.00004477   -0.00008984    0.10397451
     atom   46 type  2   force =    -0.07030828   -0.00009378   -0.02682878
     atom   47 type  2   force =     0.07018678    0.00032241   -0.02686707
     atom   48 type  3   force =    -0.00065065   -0.00002515   -0.00164641
     atom   49 type  3   force =     0.00121008    0.00398509    0.00810171
     atom   50 type  4   force =    -0.00096139    0.00050637   -0.00155813
     atom   51 type  5   force =     0.00045724   -0.00090723    0.00019892
     atom   52 type  5   force =     0.00042256    0.00041065    0.00011441
     atom   53 type  5   force =     0.00000825    0.00136480    0.00047460
     atom   54 type  5   force =    -0.00072677   -0.00400665   -0.00399357
     atom   55 type  5   force =     0.00082419    0.00016182   -0.00135916

     Total force =     0.366618     Total SCF correction =     0.000574
  @ DRIVER MODE: Message from server: STATUS
  @ DRIVER MODE: Message from server: GETFORCE
  @ DRIVER MODE: Returning v,forces,stress,ensemble

     Writing output data file ./calc.save/
  @ DRIVER MODE: Message from server: EXIT
  @ DRIVE MODE: Exiting

     General routines

     Parallel routines

   This run was terminated on:  21:50: 4  10Sep2021

   JOB DONE.