     Program PWSCF v.6.7GPU starts on 26Sep2021 at  0:33:11

     R & G space division:  proc/nbgrp/npool/nimage =       8
     Reading input from /storage/home/hcoda1/3/ntian30/research/carbon/CxH_vib/H2O_calc/ads_slab/CH3ON2H2O_a/out_0020/pw.inp
Warning: card &CELL ignored
Warning: card   CELL_DYNAMICS='IPI', ignored
Warning: card / ignored

     Current dimensions of program PWSCF are:
     Max number of different atomic species (ntypx) = 10
     Max number of k-points (npk) =  40000
     Max angular momentum in pseudopotentials (lmaxx) =  3
     Presently no symmetry can be used with electric field

     Message from routine cell_base_init:
     DEPRECATED: use true lattice parameter, not A to a.u. conversion factor

     IMPORTANT: XC functional enforced from input :
     Exchange-correlation= BEEF-VDW
                           (   1   4  43  14   2   0   0)
     Any further DFT definition will be discarded
     Please, verify this is what you really want

  @ DRIVER MODE: Connecting to
 qe_1139763_2971672.sched-torque.pace.gatech.educhmm3fas_scratch
  using UNIX socket
  @ DRIVER MODE: Message from server: STATUS
  @ DRIVER MODE: Message from server: INIT
  @ DRIVER MODE: Receiving replica           0          -1
  @ DRIVER MODE: Receiving encoded integer          25
  @ DRIVER MODE:  SCF:  T  FORCE:  T  STRESS:  F  VC:  F  ENSEMBLE:  F
  @ DRIVER MODE:  SCF:  T  FORCE:  T  STRESS:  F  VC:  F  ENSEMBLE:  F

     Using Slab Decomposition

     bravais-lattice index     =            0
     lattice parameter (alat)  =       1.8897  a.u.
     unit-cell volume          =    6658.9804 (a.u.)^3
     number of atoms/cell      =           57
     number of atomic types    =            5
     number of electrons       =       409.00
     number of Kohn-Sham states=          214
     kinetic-energy cutoff     =      29.3995  Ry
     charge density cutoff     =     293.9946  Ry
     scf convergence threshold =      7.3E-08
     mixing beta               =       0.0500
     number of iterations used =            8  plain     mixing
     Exchange-correlation= BEEF-VDW
                           (   1   4  43  14   2   0   0)

     celldm(1)=   1.889726  celldm(2)=   0.000000  celldm(3)=   0.000000
     celldm(4)=   0.000000  celldm(5)=   0.000000  celldm(6)=   0.000000

     crystal axes: (cart. coord. in units of alat)
               a(1) = (   6.579727   0.000000   0.000000 )
               a(2) = (  -0.000775   5.961596   0.000000 )
               a(3) = (   0.000000   0.000000  25.155947 )

     reciprocal axes: (cart. coord. in units 2 pi/alat)
               b(1) = (  0.151982  0.000020  0.000000 )
               b(2) = (  0.000000  0.167740  0.000000 )
               b(3) = (  0.000000  0.000000  0.039752 )

     PseudoPot. # 1 for Ti read from file:
     /storage/coda1/p-amedford6/0/shared/rich_project_chbe-medford/medford-share/data/pseudos_module/espresso/nninc/pbe/van/Ti.UPF
     MD5 check sum: 8e4df49b7f0d34bbd5052bf3f5ea0213
     Pseudo is Ultrasoft, Zval = 12.0
     Generated by new atomic code, or converted to UPF format
     Using radial grid of  851 points,  6 beta functions with:
                l(1) =   0
                l(2) =   0
                l(3) =   1
                l(4) =   1
                l(5) =   2
                l(6) =   2
     Q(r) pseudized with  8 coefficients,  rinner =    1.000   1.000   1.000
                                                       1.000   1.000

     PseudoPot. # 2 for O  read from file:
     /storage/coda1/p-amedford6/0/shared/rich_project_chbe-medford/medford-share/data/pseudos_module/espresso/nninc/pbe/van/O.UPF
     MD5 check sum: 78c19812648e8988a0fe644b0f25305e
     Pseudo is Ultrasoft, Zval =  6.0
     Generated by new atomic code, or converted to UPF format
     Using radial grid of  737 points,  4 beta functions with:
                l(1) =   0
                l(2) =   0
                l(3) =   1
                l(4) =   1
     Q(r) pseudized with  8 coefficients,  rinner =    0.800   0.800   0.800

     PseudoPot. # 3 for C  read from file:
     /storage/coda1/p-amedford6/0/shared/rich_project_chbe-medford/medford-share/data/pseudos_module/espresso/nninc/pbe/van/C.UPF
     MD5 check sum: 1a69bf6b8db32088f5b2163dbdb77a27
     Pseudo is Ultrasoft, Zval =  4.0
     Generated by new atomic code, or converted to UPF format
     Using radial grid of  721 points,  4 beta functions with:
                l(1) =   0
                l(2) =   0
                l(3) =   1
                l(4) =   1
     Q(r) pseudized with  8 coefficients,  rinner =    0.800   0.800   0.800

     PseudoPot. # 4 for H  read from file:
     /storage/coda1/p-amedford6/0/shared/rich_project_chbe-medford/medford-share/data/pseudos_module/espresso/nninc/pbe/van/H.UPF
     MD5 check sum: b5ee9d7bfd3a09ee7748110bda690ff7
     Pseudo is Ultrasoft, Zval =  1.0
     Generated by new atomic code, or converted to UPF format
     Using radial grid of  615 points,  1 beta functions with:
                l(1) =   0
     Q(r) pseudized with  8 coefficients,  rinner =    0.800

     PseudoPot. # 5 for N  read from file:
     /storage/coda1/p-amedford6/0/shared/rich_project_chbe-medford/medford-share/data/pseudos_module/espresso/nninc/pbe/van/N.UPF
     MD5 check sum: 90d10febe142ad51ac9d5be1deb811c4
     Pseudo is Ultrasoft, Zval =  5.0
     Generated by new atomic code, or converted to UPF format
     Using radial grid of  729 points,  4 beta functions with:
                l(1) =   0
                l(2) =   0
                l(3) =   1
                l(4) =   1
     Q(r) pseudized with  8 coefficients,  rinner =    0.800   0.800   0.800

     atomic species   valence    mass     pseudopotential
        Ti1           12.00    47.86700     Ti( 1.00)
        O1             6.00    15.99900     O ( 1.00)
        C1             4.00    12.01100     C ( 1.00)
        H1             1.00     1.00800     H ( 1.00)
        N1             5.00    14.00700     N ( 1.00)

     No symmetry found

   Cartesian axes

     site n.     atom                  positions (alat units)
         1           Ti1 tau(   1) = (   0.0004258   2.9801865   6.0000000  )
         2           Ti1 tau(   2) = (   3.2906075   1.4906267   6.0002472  )
         3           O1  tau(   3) = (   0.0006271   0.0005054   7.9858123  )
         4           O1  tau(   4) = (   3.2906025   0.0005020   7.3038282  )
         5           O1  tau(   5) = (   4.5942328   1.4918067   9.2879030  )
         6           O1  tau(   6) = (   1.9868534   1.4903216   9.2879459  )
         7           Ti1 tau(   7) = (   3.3113259   3.0354369   9.1618307  )
         8           Ti1 tau(   8) = (   0.0141821   1.6139659   9.3625064  )
         9           O1  tau(   9) = (   3.2964399   0.0287090  11.3517035  )
        10           O1  tau(  10) = (   0.0046459   0.0167322  10.6079620  )
        11           O1  tau(  11) = (   1.2916403   1.5142126  12.6509924  )
        12           O1  tau(  12) = (   5.2954765   1.5212855  12.6445515  )
        13           Ti1 tau(  13) = (   0.0303381   3.0181167  12.7741416  )
        14           Ti1 tau(  14) = (   3.3376880   1.5190318  12.5019279  )
        15           O1  tau(  15) = (   6.5702980   0.0162101  14.7136675  )
        16           O1  tau(  16) = (   3.3118210   0.0215951  13.9605728  )
        17           O1  tau(  17) = (   4.5586303   1.5408398  16.0643691  )
        18           O1  tau(  18) = (   2.0376984   1.5397913  16.0346728  )
        19           Ti1 tau(  19) = (   3.2806018   3.0126274  15.6982083  )
        20           Ti1 tau(  20) = (   0.0204579   1.3876160  16.0921805  )
        21           O1  tau(  21) = (   3.2904802   0.0005063   4.7018136  )
        22           O1  tau(  22) = (   0.0362274   0.0182013  17.2505027  )
        23           O1  tau(  23) = (   1.3043587   1.4918075   6.0039043  )
        24           O1  tau(  24) = (   5.2767064   1.4903225   6.0039473  )
        25           Ti1 tau(  25) = (   0.0000382   5.9609847   6.0000000  )
        26           Ti1 tau(  26) = (   3.2902200   4.4714249   6.0002472  )
        27           O1  tau(  27) = (   0.0002396   2.9813036   7.9858123  )
        28           O1  tau(  28) = (   3.2902150   2.9813002   7.3038282  )
        29           O1  tau(  29) = (   4.5938453   4.4726049   9.2879030  )
        30           O1  tau(  30) = (   1.9864658   4.4711199   9.2879459  )
        31           Ti1 tau(  31) = (   3.2918133   0.0584897   9.1554610  )
        32           Ti1 tau(  32) = (   0.0176696   4.5429683   9.2683582  )
        33           O1  tau(  33) = (   3.2944385   3.0046939  11.3531965  )
        34           O1  tau(  34) = (   0.0071923   2.9964285  10.5824339  )
        35           O1  tau(  35) = (   1.2923070   4.5060354  12.6395470  )
        36           O1  tau(  36) = (   5.2930342   4.4972821  12.6335129  )
        37           Ti1 tau(  37) = (   0.0360028   0.0369787  12.5252624  )
        38           Ti1 tau(  38) = (   3.3378333   4.5109478  12.5016189  )
        39           O1  tau(  39) = (   0.0182598   3.0415135  14.6926035  )
        40           O1  tau(  40) = (   3.2973286   3.0139918  13.9115332  )
        41           O1  tau(  41) = (   4.5518717   4.4752506  16.0920674  )
        42           O1  tau(  42) = (   2.0385343   4.4722040  16.0556704  )
        43           Ti1 tau(  43) = (   3.3273276   0.0437280  15.7880462  )
        44           Ti1 tau(  44) = (   0.0148993   4.5306414  15.9319406  )
        45           O1  tau(  45) = (   3.2900926   2.9813045   4.7018136  )
        46           O1  tau(  46) = (   1.3039711   4.4726057   6.0039043  )
        47           O1  tau(  47) = (   5.2763189   4.4711207   6.0039473  )
        48           C1  tau(  48) = (   6.0619278   3.0088867  18.6555636  )
        49           O1  tau(  49) = (   6.5788924   2.9994598  17.3400993  )
        50           H1  tau(  50) = (   4.9713474   2.8828304  18.6515055  )
        51           H1  tau(  51) = (   6.5009130   2.1836263  19.2313859  )
        52           H1  tau(  52) = (   6.3070107   3.9563896  19.1453893  )
        53           N1  tau(  53) = (   5.9950546   3.0301018  22.7159517  )
        54           N1  tau(  54) = (   5.2276613   3.1827328  21.9368001  )
        55           O1  tau(  55) = (   3.1818816   0.0591848  18.2205797  )
        56           H1  tau(  56) = (   3.8437189   5.3938241  18.5518935  )
        57           H1  tau(  57) = (   2.3086839   5.6188137  18.3735615  )

     number of k points=    10  Fermi-Dirac smearing, width (Ry)=  0.0073
                       cart. coord. in units 2pi/alat
        k(    1) = (   0.0000000   0.0000000   0.0000000), wk =   0.1250000
        k(    2) = (   0.0000000   0.0419351   0.0000000), wk =   0.2500000
        k(    3) = (   0.0000000  -0.0838702   0.0000000), wk =   0.1250000
        k(    4) = (   0.0379955   0.0000049   0.0000000), wk =   0.2500000
        k(    5) = (   0.0379955   0.0419400   0.0000000), wk =   0.2500000
        k(    6) = (   0.0379955  -0.0838652   0.0000000), wk =   0.2500000
        k(    7) = (   0.0379955  -0.0419301   0.0000000), wk =   0.2500000
        k(    8) = (  -0.0759910  -0.0000099   0.0000000), wk =   0.1250000
        k(    9) = (  -0.0759910   0.0419252   0.0000000), wk =   0.2500000
        k(   10) = (  -0.0759910  -0.0838800   0.0000000), wk =   0.1250000

     Initial potential from superposition of free atoms

     starting charge  392.99914, renormalised to  409.00000

     negative rho (up, down):  9.745E-03 0.000E+00

     %%%%%%%%%%%%%%%%%%%%%%%%%%%%%%%%%%%%%%%%%%%%%%%%%%%%%%%%%%%%%%%%%%%%%%%%
     %                                                                      %
     % You are using vdW-DF, which was implemented by the Thonhauser group. %
     % Please cite the following two papers that made this development      %
     % possible and the two reviews that describe the various versions:     %
     %                                                                      %
     %   T. Thonhauser et al., PRL 115, 136402 (2015).                      %
     %   T. Thonhauser et al., PRB 76, 125112 (2007).                       %
     %   K. Berland et al., Rep. Prog. Phys. 78, 066501 (2015).             %
     %   D.C. Langreth et al., J. Phys.: Condens. Matter 21, 084203 (2009). %
     %                                                                      %
     %                                                                      %
     % If you are calculating the stress with vdW-DF, please also cite:     %
     %                                                                      %
     %   R. Sabatini et al., J. Phys.: Condens. Matter 24, 424209 (2012).   %
     %                                                                      %
     %%%%%%%%%%%%%%%%%%%%%%%%%%%%%%%%%%%%%%%%%%%%%%%%%%%%%%%%%%%%%%%%%%%%%%%%

     Adding external electric field

     Computed dipole along edir(3) :
        Dipole              -18.5715 Ry au,        -47.2041 Debye
        Dipole field         -0.0350 Ry au,

        Potential amp.        3.2488 Ry
        Total length         46.3494 bohr

     Starting wfcs are  309 atomic wfcs
  @ DRIVER MODE: Message from server: STATUS
  @ DRIVER MODE: Message from server: POSDATA
  @ DRIVER MODE: Reading and sharing cell
  @ DRIVER MODE: Reading and sharing positions
  @ DRIVER MODE: Received positions

     Self-consistent Calculation

     iteration #  1     ecut=    29.40 Ry     beta= 0.05
     Davidson diagonalization with overlap
     c_bands:  3 eigenvalues not converged
     c_bands:  2 eigenvalues not converged
     c_bands:  2 eigenvalues not converged
     c_bands:  5 eigenvalues not converged
     c_bands:  5 eigenvalues not converged
     c_bands:  5 eigenvalues not converged
     c_bands:  1 eigenvalues not converged
     c_bands:  3 eigenvalues not converged
     ethr =  1.00E-05,  avg # of iterations = 28.5

[...]

     total energy              =   -2113.12055438 Ry
     estimated scf accuracy    <   10297.59258567 Ry

     iteration #  2     ecut=    29.40 Ry     beta= 0.05
     Davidson diagonalization with overlap
     ethr =  1.00E-02,  avg # of iterations = 30.6

[...]

     iteration # 58     ecut=    29.40 Ry     beta= 0.05
     Davidson diagonalization with overlap
     c_bands:  1 eigenvalues not converged
     ethr =  4.21E-09,  avg # of iterations = 14.6

[...]

     total energy              =   -3006.52130634 Ry
     estimated scf accuracy    <       0.00000019 Ry

     iteration # 69     ecut=    29.40 Ry     beta= 0.05
     Davidson diagonalization with overlap
     ethr =  2.32E-11,  avg # of iterations = 10.2

     negative rho (up, down):  1.093E-02 0.000E+00

     Adding external electric field

     Computed dipole along edir(3) :
        Dipole                0.9960 Ry au,          2.5315 Debye
        Dipole field          0.0019 Ry au,

        Potential amp.       -0.1742 Ry
        Total length         46.3494 bohr

     End of self-consistent calculation

          k = 0.0000 0.0000 0.0000 ( 18029 PWs)   bands (ev):

   -55.2857 -55.2509 -55.2499 -55.2145 -55.1921 -55.1765 -55.1690 -55.1334
   -55.0827 -55.0645 -55.0489 -55.0412 -55.0074 -54.9532 -54.2926 -54.2585
   -31.8079 -31.7550 -31.6778 -31.6460 -31.6246 -31.5774 -31.5603 -31.5565
   -31.5206 -31.5154 -31.4785 -31.4650 -31.4585 -31.4495 -31.4454 -31.4322
   -31.4262 -31.3900 -31.3847 -31.3773 -31.3730 -31.3541 -31.3504 -31.3412
   -31.3335 -31.3274 -31.3116 -31.2902 -31.2798 -31.2741 -31.2709 -31.2635
   -31.2607 -31.2450 -31.2322 -31.2221 -31.2204 -31.1858 -31.1707 -31.1504
   -31.1380 -31.1367 -30.7019 -30.6061 -30.5837 -30.5185 -30.4324 -30.3213
   -21.4235 -18.7347 -17.1983 -16.0003 -15.7300 -15.5697 -15.4386 -15.4034
   -15.2163 -15.0947 -14.9619 -14.9378 -14.8841 -14.8569 -14.8224 -14.8118
   -14.8069 -14.7946 -14.7866 -14.7398 -14.7052 -14.6879 -14.6874 -14.6641
   -14.6154 -14.5618 -14.4968 -14.4317 -14.4032 -14.3613 -14.2922 -14.2843
   -12.7934 -12.6754  -9.1121  -6.6004  -6.5279  -4.5615  -4.5506  -3.9139
    -3.7550  -3.4790  -3.3639  -3.2845  -3.2123  -3.1900  -3.1683  -3.0929
    -2.9822  -2.8458  -2.7503  -2.5110  -2.4558  -2.4131  -2.3814  -2.3523
    -2.1956  -2.1705  -2.1022  -2.0911  -2.0824  -2.0717  -2.0448  -2.0154
    -1.9898  -1.9579  -1.8994  -1.8744  -1.8043  -1.6734  -1.6648  -1.6327
    -1.5866  -1.5702  -1.5686  -1.5419  -1.4978  -1.4789  -1.4543  -1.4489
    -1.3521  -1.2598  -1.2169  -1.1215  -1.0427  -0.9702  -0.8475  -0.8090
    -0.7356  -0.7024  -0.6864  -0.6327  -0.5835  -0.5732  -0.5144  -0.4676
    -0.3600  -0.3141  -0.2755  -0.2381  -0.1871  -0.1430  -0.0723  -0.0387
    -0.0064  -0.0019   0.0193   0.2176   0.2293   0.2803   0.2930   0.3900
     0.4425   0.4770   0.4903   0.4999   0.5375   0.6131   0.6686   0.6771
     0.7089   0.7449   0.7641   0.8103   0.8525   0.9035   0.9331   0.9677
     1.0344   1.0746   1.2287   1.3231   1.3673   1.4834   1.6402   1.7315
     1.8054   1.9055   2.3182   2.3756   3.8959   3.9300   3.9566   3.9751
     4.0429   4.1420   4.2587   4.3495   4.3592   4.3896

[...]

          k = 0.0380-0.0419 0.0000 ( 17876 PWs)   bands (ev):

[...]

          k =-0.0760-0.0000 0.0000 ( 17886 PWs)   bands (ev):

[...]

          k =-0.0760-0.0839 0.0000 ( 17948 PWs)   bands (ev):

   -55.2734 -55.2620 -55.2349 -55.2303 -55.1890 -55.1743 -55.1583 -55.1442
   -55.0853 -55.0614 -55.0511 -55.0266 -55.0222 -54.9559 -54.2760 -54.2750
   -31.6197 -31.6033 -31.5777 -31.5757 -31.5657 -31.5643 -31.5470 -31.5138
   -31.5069 -31.4901 -31.4868 -31.4763 -31.4411 -31.4308 -31.4102 -31.4061
   -31.4012 -31.3992 -31.3977 -31.3918 -31.3885 -31.3852 -31.3738 -31.3654
   -31.3592 -31.3506 -31.3498 -31.3480 -31.3428 -31.3170 -31.2912 -31.2784
   -31.2758 -31.2743 -31.2717 -31.2630 -31.2540 -31.2418 -31.2322 -31.2230
   -31.1812 -31.1474 -30.5970 -30.5957 -30.5153 -30.5144 -30.4759 -30.4750
   -21.4233 -18.7337 -17.1679 -15.4683 -15.3592 -15.2303 -15.1658 -15.1430
   -15.1163 -15.0635 -15.0471 -14.9916 -14.9875 -14.9369 -14.9307 -14.8876
   -14.8807 -14.8268 -14.7985 -14.7896 -14.7605 -14.7279 -14.7119 -14.7108
   -14.6709 -14.6493 -14.6408 -14.6104 -14.6031 -14.5410 -14.5035 -14.4706
   -12.7777 -12.7758  -9.1140  -6.6011  -6.5213  -4.5619  -4.5579  -3.8250
    -3.7126  -3.5037  -3.2707  -3.0034  -2.7538  -2.5711  -2.4798  -2.4109
    -2.3578  -2.3399  -2.2303  -2.2058  -2.1759  -2.1412  -2.1189  -2.1081
    -2.0904  -2.0815  -2.0743  -2.0566  -2.0232  -2.0035  -1.9774  -1.9527
    -1.9377  -1.9141  -1.8965  -1.8890  -1.8643  -1.8364  -1.8297  -1.8268
    -1.7641  -1.7243  -1.5658  -1.5207  -1.4997  -1.4096  -1.3902  -1.3736
    -1.3482  -1.3341  -1.3175  -1.1987  -1.1474  -1.1191  -1.0111  -0.9931
    -0.9671  -0.8284  -0.8047  -0.7724  -0.7442  -0.7022  -0.6325  -0.6092
    -0.5536  -0.5407  -0.4383  -0.4017  -0.3772  -0.3638  -0.2673  -0.2453
    -0.2404  -0.2142  -0.1515  -0.1184  -0.0744  -0.0446  -0.0138   0.0107
     0.0567   0.0766   0.1704   0.1907   0.2270   0.2700   0.3638   0.5315
     0.6235   0.7335   0.7596   0.8068   0.8667   0.9091   0.9587   1.0129
     1.0602   1.0675   1.1297   1.1670   1.2519   1.2657   1.2691   1.3375
     2.0928   2.0931   2.1809   2.1900   4.1374   4.1457   4.2027   4.2224
     4.3615   4.3677   4.3812   4.3887   4.4837   4.5412

     the Fermi energy is     3.8658 ev

!    total energy              =   -3006.52132722 Ry
     estimated scf accuracy    <       0.00000004 Ry
     smearing contrib. (-TS)   =      -0.02294532 Ry
     internal energy E=F+TS    =   -3006.49838189 Ry

     The total energy is F=E-TS. E is the sum of the following terms:
     one-electron contribution =  -22563.07853130 Ry
     hartree contribution      =   11380.87942824 Ry
     xc contribution           =    -501.14333428 Ry
     ewald contribution        =    8676.84218345 Ry
     electric field correction =       0.00187199 Ry

     convergence has been achieved in  69 iterations

     Forces acting on atoms (cartesian axes, Ry/au):

     atom    1 type  1   force =    -0.00014667   -0.00167320    0.10540425
     atom    2 type  1   force =    -0.00021825    0.00113583   -0.17915656
     atom    3 type  2   force =     0.00020763   -0.00553424   -0.03235058
     atom    4 type  2   force =     0.00010457    0.00072022    0.04628031
     atom    5 type  2   force =    -0.01804926    0.00052909    0.00423527
     atom    6 type  2   force =     0.01844558   -0.00044402    0.00410307
     atom    7 type  1   force =     0.00007718    0.00018724    0.00005611
     atom    8 type  1   force =     0.00007119    0.00030805   -0.00013848
     atom    9 type  2   force =     0.00017651    0.00034984   -0.00008149
     atom   10 type  2   force =     0.00017060   -0.00000579    0.00003724
     atom   11 type  2   force =     0.00005188   -0.00034700   -0.00037202
     atom   12 type  2   force =    -0.00006328   -0.00052056   -0.00051202
     atom   13 type  1   force =     0.00047372    0.00023826    0.00008833
     atom   14 type  1   force =    -0.00026305   -0.00047991   -0.00042367
     atom   15 type  2   force =     0.00004128   -0.00052936    0.00032319
     atom   16 type  2   force =    -0.00008709    0.00030555   -0.00021950
     atom   17 type  2   force =    -0.00044284   -0.00061167    0.00007233
     atom   18 type  2   force =     0.00004266   -0.00048723    0.00020588
     atom   19 type  1   force =     0.00041524   -0.00028327   -0.00015571
     atom   20 type  1   force =    -0.00010703   -0.00074926   -0.00085115
     atom   21 type  2   force =    -0.00003354    0.00009773    0.10394984
     atom   22 type  2   force =    -0.00000118   -0.00053080    0.00049561
     atom   23 type  2   force =    -0.06943523    0.00051988   -0.02947249
     atom   24 type  2   force =     0.06918990    0.00097825   -0.02952879
     atom   25 type  1   force =    -0.00003458    0.00156839    0.11481969
     atom   26 type  1   force =    -0.00022148   -0.00048064   -0.17916497
     atom   27 type  2   force =     0.00021410    0.00414453   -0.02605257
     atom   28 type  2   force =     0.00042800    0.00093348    0.04806499
     atom   29 type  2   force =    -0.01632478    0.00162672    0.00384548
     atom   30 type  2   force =     0.01737720    0.00217912    0.00361543
     atom   31 type  1   force =    -0.00014499    0.00009355   -0.00023454
     atom   32 type  1   force =     0.00011141   -0.00008335    0.00023977
     atom   33 type  2   force =     0.00028747   -0.00050769    0.00018695
     atom   34 type  2   force =    -0.00003995   -0.00031351   -0.00027399
     atom   35 type  2   force =    -0.00045433   -0.00013211    0.00002226
     atom   36 type  2   force =     0.00053584    0.00002044    0.00001306
     atom   37 type  1   force =     0.00046459   -0.00073303   -0.00004281
     atom   38 type  1   force =    -0.00036971   -0.00002225   -0.00036389
     atom   39 type  2   force =    -0.00041891   -0.00049451   -0.00048904
     atom   40 type  2   force =     0.00035891   -0.00040967   -0.00023561
     atom   41 type  2   force =    -0.00019844   -0.00003770    0.00007695
     atom   42 type  2   force =    -0.00031600   -0.00021647    0.00005002
     atom   43 type  1   force =     0.00026232    0.00010856    0.00135845
     atom   44 type  1   force =     0.00003632   -0.00035963   -0.00078501
     atom   45 type  2   force =    -0.00003579    0.00008598    0.10399141
     atom   46 type  2   force =    -0.06903970   -0.00107131   -0.02953065
     atom   47 type  2   force =     0.06885406   -0.00062654   -0.02960834
     atom   48 type  3   force =     0.00321480   -0.00293738    0.00227514
     atom   49 type  2   force =    -0.00026259    0.00069189   -0.00129781
     atom   50 type  4   force =     0.00007108   -0.00098831    0.00058425
     atom   51 type  4   force =    -0.00321456    0.00288625   -0.00173434
     atom   52 type  4   force =    -0.00020146    0.00063969   -0.00057301
     atom   53 type  5   force =    -0.00108102   -0.00017883   -0.00112400
     atom   54 type  5   force =     0.00051456    0.00038086    0.00081545
     atom   55 type  2   force =     0.00069988   -0.00006812    0.00042419
     atom   56 type  4   force =    -0.00155937    0.00016335   -0.00064655
     atom   57 type  4   force =    -0.00013339    0.00096458   -0.00021531

     Total force =     0.374603     Total SCF correction =     0.000388
  @ DRIVER MODE: Message from server: STATUS
  @ DRIVER MODE: Message from server: GETFORCE
  @ DRIVER MODE: Returning v,forces,stress,ensemble

     Writing output data file ./calc.save/
  @ DRIVER MODE: Message from server: EXIT
  @ DRIVE MODE: Exiting

     General routines

     Parallel routines

   This run was terminated on:   1: 1:20  26Sep2021

   JOB DONE.