     Program PWSCF v.6.7GPU starts on 15Sep2021 at 16:37:39

     R & G space division:  proc/nbgrp/npool/nimage =      10
     Reading input from /storage/home/hcoda1/3/ntian30/research/carbon/CxH_vib/H2O_calc/ads_slab/CH3NHNH2H2O_a/out_0003/pw.inp
Warning: card &CELL ignored
Warning: card   CELL_DYNAMICS='IPI', ignored
Warning: card / ignored

     Current dimensions of program PWSCF are:
     Max number of different atomic species (ntypx) = 10
     Max number of k-points (npk) =  40000
     Max angular momentum in pseudopotentials (lmaxx) =  3
     Presently no symmetry can be used with electric field

     Message from routine cell_base_init:
     DEPRECATED: use true lattice parameter, not A to a.u. conversion factor

     IMPORTANT: XC functional enforced from input :
     Exchange-correlation= BEEF-VDW
                           (   1   4  43  14   2   0   0)
     Any further DFT definition will be discarded
     Please, verify this is what you really want

  @ DRIVER MODE: Connecting to
 qe_1139763_2852619.sched-torque.pace.gatech.educh0i7hcz_scratch
  using UNIX socket
  @ DRIVER MODE: Message from server: STATUS
  @ DRIVER MODE: Message from server: INIT
  @ DRIVER MODE: Receiving replica           0          -1
  @ DRIVER MODE: Receiving encoded integer          25
  @ DRIVER MODE:  SCF:  T  FORCE:  T  STRESS:  F  VC:  F  ENSEMBLE:  F
  @ DRIVER MODE:  SCF:  T  FORCE:  T  STRESS:  F  VC:  F  ENSEMBLE:  F

     Using Slab Decomposition

     bravais-lattice index     =            0
     lattice parameter (alat)  =       1.8897  a.u.
     unit-cell volume          =    6658.9804 (a.u.)^3
     number of atoms/cell      =           59
     number of atomic types    =            5
     number of electrons       =       406.00
     number of Kohn-Sham states=          213
     kinetic-energy cutoff     =      29.3995  Ry
     charge density cutoff     =     293.9946  Ry
     scf convergence threshold =      7.3E-08
     mixing beta               =       0.0500
     number of iterations used =            8  plain     mixing
     Exchange-correlation= BEEF-VDW
                           (   1   4  43  14   2   0   0)

     celldm(1)=   1.889726  celldm(2)=   0.000000  celldm(3)=   0.000000
     celldm(4)=   0.000000  celldm(5)=   0.000000  celldm(6)=   0.000000

     crystal axes: (cart. coord. in units of alat)
               a(1) = (   6.579727   0.000000   0.000000 )
               a(2) = (  -0.000775   5.961596   0.000000 )
               a(3) = (   0.000000   0.000000  25.155947 )

     reciprocal axes: (cart. coord. in units 2 pi/alat)
               b(1) = (  0.151982  0.000020  0.000000 )
               b(2) = (  0.000000  0.167740  0.000000 )
               b(3) = (  0.000000  0.000000  0.039752 )

     PseudoPot. # 1 for Ti read from file:
     /storage/coda1/p-amedford6/0/shared/rich_project_chbe-medford/medford-share/data/pseudos_module/espresso/nninc/pbe/van/Ti.UPF
     MD5 check sum: 8e4df49b7f0d34bbd5052bf3f5ea0213
     Pseudo is Ultrasoft, Zval = 12.0
     Generated by new atomic code, or converted to UPF format
     Using radial grid of  851 points,  6 beta functions with:
                l(1) =   0
                l(2) =   0
                l(3) =   1
                l(4) =   1
                l(5) =   2
                l(6) =   2
     Q(r) pseudized with  8 coefficients,  rinner =    1.000   1.000   1.000
                                                       1.000   1.000

     PseudoPot. # 2 for O  read from file:
     /storage/coda1/p-amedford6/0/shared/rich_project_chbe-medford/medford-share/data/pseudos_module/espresso/nninc/pbe/van/O.UPF
     MD5 check sum: 78c19812648e8988a0fe644b0f25305e
     Pseudo is Ultrasoft, Zval =  6.0
     Generated by new atomic code, or converted to UPF format
     Using radial grid of  737 points,  4 beta functions with:
                l(1) =   0
                l(2) =   0
                l(3) =   1
                l(4) =   1
     Q(r) pseudized with  8 coefficients,  rinner =    0.800   0.800   0.800

     PseudoPot. # 3 for N  read from file:
     /storage/coda1/p-amedford6/0/shared/rich_project_chbe-medford/medford-share/data/pseudos_module/espresso/nninc/pbe/van/N.UPF
     MD5 check sum: 90d10febe142ad51ac9d5be1deb811c4
     Pseudo is Ultrasoft, Zval =  5.0
     Generated by new atomic code, or converted to UPF format
     Using radial grid of  729 points,  4 beta functions with:
                l(1) =   0
                l(2) =   0
                l(3) =   1
                l(4) =   1
     Q(r) pseudized with  8 coefficients,  rinner =    0.800   0.800   0.800

     PseudoPot. # 4 for C  read from file:
     /storage/coda1/p-amedford6/0/shared/rich_project_chbe-medford/medford-share/data/pseudos_module/espresso/nninc/pbe/van/C.UPF
     MD5 check sum: 1a69bf6b8db32088f5b2163dbdb77a27
     Pseudo is Ultrasoft, Zval =  4.0
     Generated by new atomic code, or converted to UPF format
     Using radial grid of  721 points,  4 beta functions with:
                l(1) =   0
                l(2) =   0
                l(3) =   1
                l(4) =   1
     Q(r) pseudized with  8 coefficients,  rinner =    0.800   0.800   0.800

     PseudoPot. # 5 for H  read from file:
     /storage/coda1/p-amedford6/0/shared/rich_project_chbe-medford/medford-share/data/pseudos_module/espresso/nninc/pbe/van/H.UPF
     MD5 check sum: b5ee9d7bfd3a09ee7748110bda690ff7
     Pseudo is Ultrasoft, Zval =  1.0
     Generated by new atomic code, or converted to UPF format
     Using radial grid of  615 points,  1 beta functions with:
                l(1) =   0
     Q(r) pseudized with  8 coefficients,  rinner =    0.800

     atomic species   valence    mass     pseudopotential
        Ti1           12.00    47.86700     Ti( 1.00)
        O1             6.00    15.99900     O ( 1.00)
        N1             5.00    14.00700     N ( 1.00)
        C1             4.00    12.01100     C ( 1.00)
        H1             1.00     1.00800     H ( 1.00)

     No symmetry found

   Cartesian axes

     site n.     atom                  positions (alat units)
         1           Ti1 tau(   1) = (   0.0004258   2.9801865   6.0000000  )
         2           Ti1 tau(   2) = (   3.2906075   1.4906267   6.0002472  )
         3           O1  tau(   3) = (   0.0006271   0.0005054   7.9858123  )
         4           O1  tau(   4) = (   3.2906025   0.0005020   7.3038282  )
         5           O1  tau(   5) = (   4.5942328   1.4918067   9.2879030  )
         6           O1  tau(   6) = (   1.9868534   1.4903216   9.2879459  )
         7           Ti1 tau(   7) = (   3.2907910   2.8959150   9.1758416  )
         8           Ti1 tau(   8) = (   0.0015273   1.4827037   9.2680791  )
         9           O1  tau(   9) = (   3.2683845   0.0132936  11.3796717  )
        10           O1  tau(  10) = (   0.0116148   5.9584955  10.6183126  )
        11           O1  tau(  11) = (   1.2681313   1.5011218  12.7194972  )
        12           O1  tau(  12) = (   5.2787963   1.4993765  12.6897032  )
        13           Ti1 tau(  13) = (   6.5560253   2.9823375  12.4990790  )
        14           Ti1 tau(  14) = (   3.2673924   1.4925278  12.5394213  )
        15           O1  tau(  15) = (   6.5345332   5.8735037  14.6996474  )
        16           O1  tau(  16) = (   3.2898196   5.9462848  13.9939205  )
        17           O1  tau(  17) = (   4.4957945   1.5291507  16.1605787  )
        18           O1  tau(  18) = (   1.9883785   1.5110281  16.0762771  )
        19           Ti1 tau(  19) = (   3.2526948   3.0056396  15.7740191  )
        20           Ti1 tau(  20) = (   0.0000763   1.3299063  15.8143521  )
        21           O1  tau(  21) = (   3.2904802   0.0005063   4.7018136  )
        22           O1  tau(  22) = (   6.5205728   0.2065101  17.2442985  )
        23           O1  tau(  23) = (   1.3043587   1.4918075   6.0039043  )
        24           O1  tau(  24) = (   5.2767064   1.4903225   6.0039473  )
        25           Ti1 tau(  25) = (   0.0000382   5.9609847   6.0000000  )
        26           Ti1 tau(  26) = (   3.2902200   4.4714249   6.0002472  )
        27           O1  tau(  27) = (   0.0002396   2.9813036   7.9858123  )
        28           O1  tau(  28) = (   3.2902150   2.9813002   7.3038282  )
        29           O1  tau(  29) = (   4.5938453   4.4726049   9.2879030  )
        30           O1  tau(  30) = (   1.9864658   4.4711199   9.2879459  )
        31           Ti1 tau(  31) = (   3.2891106   5.8743827   9.1763621  )
        32           Ti1 tau(  32) = (   0.0006254   4.4649316   9.2693709  )
        33           O1  tau(  33) = (   3.2688559   2.9716192  11.3757022  )
        34           O1  tau(  34) = (   0.0092240   2.9805883  10.6323155  )
        35           O1  tau(  35) = (   1.2711362   4.4646907  12.6658965  )
        36           O1  tau(  36) = (   5.2748280   4.4660984  12.6332574  )
        37           Ti1 tau(  37) = (   6.5627654   5.9477838  12.5072267  )
        38           Ti1 tau(  38) = (   3.2667511   4.4702655  12.5260729  )
        39           O1  tau(  39) = (   6.5087961   3.0586107  15.0099536  )
        40           O1  tau(  40) = (   3.2849776   3.0149387  13.9815115  )
        41           O1  tau(  41) = (   4.4906635   4.4862850  16.2792570  )
        42           O1  tau(  42) = (   1.9756856   4.4939852  16.2100911  )
        43           Ti1 tau(  43) = (   3.2747729   0.0241646  15.7895078  )
        44           Ti1 tau(  44) = (   6.5697470   4.5456975  16.1185117  )
        45           O1  tau(  45) = (   3.2900926   2.9813045   4.7018136  )
        46           O1  tau(  46) = (   1.3039711   4.4726057   6.0039043  )
        47           O1  tau(  47) = (   5.2763189   4.4711207   6.0039473  )
        48           N1  tau(  48) = (   0.9980056   3.0861469  19.0053282  )
        49           N1  tau(  49) = (   6.4063515   3.4839273  18.2229180  )
        50           C1  tau(  50) = (   1.6570833   4.2684698  19.5811903  )
        51           H1  tau(  51) = (   0.9936588   4.8902639  20.1979557  )
        52           H1  tau(  52) = (   2.4789334   3.9063689  20.1993048  )
        53           H1  tau(  53) = (   2.0598354   4.8861676  18.7819781  )
        54           H1  tau(  54) = (   0.6510520   2.5058952  19.7602174  )
        55           H1  tau(  55) = (   5.8507131   4.1735594  18.7414995  )
        56           H1  tau(  56) = (   5.8147758   2.6545292  18.1916272  )
        57           O1  tau(  57) = (   5.1718451   0.7889162  19.5681371  )
        58           H1  tau(  58) = (   5.5516362   0.5215711  18.6954158  )
        59           H1  tau(  59) = (   4.2099197   0.7512590  19.4668632  )

     number of k points=    10  Fermi-Dirac smearing, width (Ry)=  0.0073
                       cart. coord. in units 2pi/alat
        k(    1) = (   0.0000000   0.0000000   0.0000000), wk =   0.1250000
        k(    2) = (   0.0000000   0.0419351   0.0000000), wk =   0.2500000
        k(    3) = (   0.0000000  -0.0838702   0.0000000), wk =   0.1250000
        k(    4) = (   0.0379955   0.0000049   0.0000000), wk =   0.2500000
        k(    5) = (   0.0379955   0.0419400   0.0000000), wk =   0.2500000
        k(    6) = (   0.0379955  -0.0838652   0.0000000), wk =   0.2500000
        k(    7) = (   0.0379955  -0.0419301   0.0000000), wk =   0.2500000
        k(    8) = (  -0.0759910  -0.0000099   0.0000000), wk =   0.1250000
        k(    9) = (  -0.0759910   0.0419252   0.0000000), wk =   0.2500000
        k(   10) = (  -0.0759910  -0.0838800   0.0000000), wk =   0.1250000

     Initial potential from superposition of free atoms

     starting charge  389.99912, renormalised to  406.00000

     negative rho (up, down):  1.389E-02 0.000E+00

     %%%%%%%%%%%%%%%%%%%%%%%%%%%%%%%%%%%%%%%%%%%%%%%%%%%%%%%%%%%%%%%%%%%%%%%%
     %                                                                      %
     % You are using vdW-DF, which was implemented by the Thonhauser group. %
     % Please cite the following two papers that made this development      %
     % possible and the two reviews that describe the various versions:     %
     %                                                                      %
     %   T. Thonhauser et al., PRL 115, 136402 (2015).                      %
     %   T. Thonhauser et al., PRB 76, 125112 (2007).                       %
     %   K. Berland et al., Rep. Prog. Phys. 78, 066501 (2015).             %
     %   D.C. Langreth et al., J. Phys.: Condens. Matter 21, 084203 (2009). %
     %                                                                      %
     %                                                                      %
     % If you are calculating the stress with vdW-DF, please also cite:     %
     %                                                                      %
     %   R. Sabatini et al., J. Phys.: Condens. Matter 24, 424209 (2012).   %
     %                                                                      %
     %%%%%%%%%%%%%%%%%%%%%%%%%%%%%%%%%%%%%%%%%%%%%%%%%%%%%%%%%%%%%%%%%%%%%%%%

     Adding external electric field

     Computed dipole along edir(3) :
        Dipole              -16.7176 Ry au,        -42.4920 Debye
        Dipole field         -0.0315 Ry au,

        Potential amp.        2.9245 Ry
        Total length         46.3494 bohr

     Starting wfcs are  308 atomic wfcs
  @ DRIVER MODE: Message from server: STATUS
  @ DRIVER MODE: Message from server: POSDATA
  @ DRIVER MODE: Reading and sharing cell
  @ DRIVER MODE: Reading and sharing positions
  @ DRIVER MODE: Received positions

     Self-consistent Calculation

     iteration #  1     ecut=    29.40 Ry     beta= 0.05
     Davidson diagonalization with overlap
     c_bands:  2 eigenvalues not converged
     c_bands:  3 eigenvalues not converged
     c_bands:  2 eigenvalues not converged
     c_bands:  4 eigenvalues not converged
     c_bands:  1 eigenvalues not converged
     c_bands:  4 eigenvalues not converged
     c_bands:  3 eigenvalues not converged
     c_bands:  5 eigenvalues not converged
     c_bands:  3 eigenvalues not converged
     ethr =  1.00E-05,  avg # of iterations = 24.9

[...]

     total energy              =   -2136.66746570 Ry
     estimated scf accuracy    <    9692.80306266 Ry

     iteration #  2     ecut=    29.40 Ry     beta= 0.05
     Davidson diagonalization with overlap
     ethr =  1.00E-02,  avg # of iterations = 32.2

[...]

     iteration # 79     ecut=    29.40 Ry     beta= 0.05
     Davidson diagonalization with overlap
     c_bands:  1 eigenvalues not converged
     c_bands:  1 eigenvalues not converged
     ethr =  3.02E-11,  avg # of iterations = 15.3

[...]

     total energy              =   -2977.68368424 Ry
     estimated scf accuracy    <       0.00000016 Ry

     iteration # 80     ecut=    29.40 Ry     beta= 0.05
     Davidson diagonalization with overlap
     ethr =  3.02E-11,  avg # of iterations = 13.1

     negative rho (up, down):  1.439E-02 0.000E+00

     Adding external electric field

     Computed dipole along edir(3) :
        Dipole                1.0205 Ry au,          2.5938 Debye
        Dipole field          0.0019 Ry au,

        Potential amp.       -0.1785 Ry
        Total length         46.3494 bohr

     End of self-consistent calculation

          k = 0.0000 0.0000 0.0000 ( 18029 PWs)   bands (ev):

   -55.3591 -55.3219 -55.3097 -55.2923 -55.2755 -55.2403 -55.2382 -55.2037
   -55.1822 -55.1808 -55.1479 -55.1419 -55.1082 -55.0170 -54.3415 -54.3074
   -31.9255 -31.8077 -31.8026 -31.7272 -31.6753 -31.6714 -31.6714 -31.6484
   -31.5986 -31.5943 -31.5712 -31.5689 -31.5547 -31.5385 -31.5293 -31.5261
   -31.5136 -31.5066 -31.4961 -31.4785 -31.4638 -31.4623 -31.4344 -31.4240
   -31.4170 -31.4128 -31.3919 -31.3848 -31.3688 -31.3669 -31.3622 -31.3531
   -31.3411 -31.3404 -31.3314 -31.3288 -31.2958 -31.2925 -31.2703 -31.2531
   -31.2293 -31.2271 -30.7510 -30.6565 -30.6344 -30.5673 -30.4805 -30.3696
   -18.0028 -17.6105 -16.1928 -15.9320 -15.7865 -15.6581 -15.5605 -15.4324
   -15.4131 -15.2912 -15.2209 -15.1168 -15.0660 -15.0471 -15.0118 -15.0017
   -14.9782 -14.9078 -14.9016 -14.8879 -14.8638 -14.8548 -14.8088 -14.8010
   -14.7598 -14.7353 -14.7108 -14.6125 -14.5223 -14.4473 -14.3395 -13.1280
   -12.8443 -12.7267  -9.4316  -6.2954  -5.8750  -5.7470  -4.2217  -3.5314
    -3.3827  -3.3134  -3.2775  -3.2522  -3.1188  -2.9610  -2.8989  -2.7994
    -2.7884  -2.6956  -2.6439  -2.5728  -2.5565  -2.5412  -2.3946  -2.3723
    -2.3478  -2.2803  -2.2533  -2.1868  -2.1647  -2.1544  -2.1445  -2.1212
    -2.0936  -2.0502  -1.9915  -1.9329  -1.8398  -1.8145  -1.7638  -1.7348
    -1.7132  -1.6963  -1.6505  -1.6395  -1.5998  -1.5857  -1.5665  -1.5513
    -1.3885  -1.3666  -1.2639  -1.2028  -1.1033  -0.9994  -0.9638  -0.9494
    -0.8523  -0.8336  -0.7809  -0.7401  -0.7373  -0.7029  -0.5909  -0.5280
    -0.4759  -0.4124  -0.3900  -0.3496  -0.2817  -0.1991  -0.1426  -0.1285
    -0.1124  -0.0963   0.0139   0.0262   0.0781   0.1527   0.1622   0.1684
     0.2421   0.2987   0.3688   0.3938   0.4116   0.5166   0.5322   0.5644
     0.5703   0.6001   0.6210   0.6460   0.7060   0.7364   0.8195   0.9413
     1.1327   1.2219   1.2498   1.3318   1.5727   1.5855   1.6811   1.8643
     2.2574   2.3058   3.7379   3.8089   3.8839   3.8879   3.9106   3.9743
     4.2110   4.2280   4.2428   4.2466   4.2705

[...]

          k = 0.0380-0.0419 0.0000 ( 17876 PWs)   bands (ev):

[...]

          k =-0.0760-0.0000 0.0000 ( 17886 PWs)   bands (ev):

[...]

          k =-0.0760-0.0839 0.0000 ( 17948 PWs)   bands (ev):

   -55.3454 -55.3354 -55.2927 -55.2924 -55.2910 -55.2326 -55.2283 -55.2156
   -55.1863 -55.1662 -55.1634 -55.1255 -55.1247 -55.0181 -54.3246 -54.3242
   -31.7335 -31.7257 -31.7234 -31.6390 -31.6194 -31.6177 -31.6176 -31.5839
   -31.5838 -31.5729 -31.5586 -31.5574 -31.5506 -31.5307 -31.5188 -31.5056
   -31.4991 -31.4958 -31.4943 -31.4932 -31.4863 -31.4788 -31.4463 -31.4389
   -31.4358 -31.4355 -31.4220 -31.4166 -31.4125 -31.4121 -31.4068 -31.3990
   -31.3967 -31.3794 -31.3763 -31.3739 -31.3594 -31.3560 -31.3062 -31.3061
   -31.2995 -31.2330 -30.6473 -30.6469 -30.5636 -30.5633 -30.5241 -30.5238
   -17.9918 -17.6185 -15.6733 -15.5884 -15.5674 -15.4124 -15.3607 -15.3341
   -15.3233 -15.2077 -15.1650 -15.1461 -15.1315 -15.1098 -15.0715 -15.0620
   -15.0551 -14.9922 -14.9719 -14.9630 -14.9371 -14.8830 -14.8755 -14.8675
   -14.8597 -14.8097 -14.8059 -14.7661 -14.7152 -14.7117 -14.6356 -13.1341
   -12.8282 -12.8282  -9.4368  -6.3190  -5.9068  -5.6585  -4.1998  -2.9040
    -2.8456  -2.8353  -2.8284  -2.7066  -2.6257  -2.5504  -2.5282  -2.5077
    -2.4201  -2.4087  -2.3778  -2.3530  -2.3228  -2.2841  -2.2462  -2.2394
    -2.2038  -2.1953  -2.1796  -2.1628  -2.1413  -2.1265  -2.0920  -2.0813
    -2.0678  -2.0240  -1.9978  -1.9842  -1.9626  -1.9423  -1.9345  -1.9158
    -1.8412  -1.7511  -1.7264  -1.6408  -1.5736  -1.5699  -1.5644  -1.5021
    -1.4586  -1.4201  -1.3951  -1.3781  -1.2386  -1.1672  -1.1233  -1.1091
    -1.0944  -0.9637  -0.9577  -0.8815  -0.8588  -0.8523  -0.7602  -0.7143
    -0.6758  -0.6687  -0.5823  -0.5701  -0.4942  -0.3957  -0.3736  -0.3597
    -0.3147  -0.3130  -0.2756  -0.2627  -0.1662  -0.1307  -0.1080  -0.0968
    -0.0801  -0.0386   0.1124   0.1612   0.1676   0.3005   0.3327   0.4711
     0.5012   0.5654   0.6452   0.6938   0.7464   0.7792   0.8662   0.9405
     0.9437   1.0069   1.0225   1.0886   1.1008   1.3379   2.0373   2.0379
     2.1256   2.1260   3.8858   4.0010   4.0047   4.0338   4.1560   4.1792
     4.2556   4.2832   4.3226   4.3260   4.3892

     the Fermi energy is     3.8020 ev

!    total energy              =   -2977.68370123 Ry
     estimated scf accuracy    <       0.00000004 Ry
     smearing contrib. (-TS)   =      -0.03717402 Ry
     internal energy E=F+TS    =   -2977.64652721 Ry

     The total energy is F=E-TS. E is the sum of the following terms:
     one-electron contribution =  -22681.72004453 Ry
     hartree contribution      =   11438.23548966 Ry
     xc contribution           =    -496.61122087 Ry
     ewald contribution        =    8762.44728335 Ry
     electric field correction =       0.00196517 Ry

     convergence has been achieved in  80 iterations

     Forces acting on atoms (cartesian axes, Ry/au):

     atom    1 type  1   force =     0.00024077   -0.00036708    0.09320856
     atom    2 type  1   force =     0.00001327   -0.00037877   -0.17820207
     atom    3 type  2   force =     0.00004981   -0.00042143   -0.02002238
     atom    4 type  2   force =     0.00001291   -0.00190343    0.05910527
     atom    5 type  2   force =    -0.01035750   -0.00058813    0.00861119
     atom    6 type  2   force =     0.01130668    0.00010014    0.00628163
     atom    7 type  1   force =    -0.00096519    0.00198157   -0.01428247
     atom    8 type  1   force =     0.00097720   -0.00255494   -0.00599627
     atom    9 type  2   force =     0.00016732   -0.00001510    0.00009182
     atom   10 type  2   force =    -0.00230862    0.00308845    0.00262713
     atom   11 type  2   force =     0.00040321   -0.00042308   -0.00056524
     atom   12 type  2   force =     0.00004893   -0.00040569   -0.00057253
     atom   13 type  1   force =     0.00033707   -0.00028981   -0.00018589
     atom   14 type  1   force =     0.00005124   -0.00008632   -0.00004815
     atom   15 type  2   force =     0.00000625    0.00056490   -0.00002870
     atom   16 type  2   force =     0.00031077    0.00027346   -0.00013800
     atom   17 type  2   force =     0.00036535    0.00021547    0.00033863
     atom   18 type  2   force =    -0.00048459    0.00018004   -0.00015990
     atom   19 type  1   force =    -0.00014251    0.00002094    0.00037510
     atom   20 type  1   force =    -0.00008581   -0.00007756    0.00070999
     atom   21 type  2   force =     0.00012093   -0.00011117    0.10403177
     atom   22 type  2   force =     0.00012472   -0.00034293    0.00049147
     atom   23 type  2   force =    -0.07028207   -0.00019609   -0.02688578
     atom   24 type  2   force =     0.07026612    0.00024542   -0.02688623
     atom   25 type  1   force =     0.00017704   -0.00031668    0.09240298
     atom   26 type  1   force =     0.00006013   -0.00054615   -0.17853713
     atom   27 type  2   force =     0.00008250   -0.00020710   -0.01908301
     atom   28 type  2   force =     0.00005978   -0.00173081    0.05852442
     atom   29 type  2   force =    -0.01101604   -0.00114494    0.00944510
     atom   30 type  2   force =     0.01187552   -0.00070381    0.00722990
     atom   31 type  1   force =    -0.00087885    0.00647045   -0.01493695
     atom   32 type  1   force =     0.00102309    0.00219446   -0.00639188
     atom   33 type  2   force =     0.00025862    0.00009592    0.00001983
     atom   34 type  2   force =    -0.00214472   -0.00242978   -0.00029386
     atom   35 type  2   force =     0.00026953    0.00012017   -0.00001118
     atom   36 type  2   force =     0.00026434    0.00003058    0.00050701
     atom   37 type  1   force =    -0.00010010    0.00003202   -0.00004783
     atom   38 type  1   force =     0.00015598   -0.00007635    0.00001310
     atom   39 type  2   force =    -0.00011283   -0.00021402    0.00039866
     atom   40 type  2   force =    -0.00013863    0.00008852    0.00004223
     atom   41 type  2   force =    -0.00041127    0.00015735    0.00030840
     atom   42 type  2   force =     0.00028954   -0.00009736   -0.00015580
     atom   43 type  1   force =     0.00036747    0.00034636   -0.00003908
     atom   44 type  1   force =     0.00005831   -0.00013005    0.00003969
     atom   45 type  2   force =     0.00012513   -0.00011009    0.10397101
     atom   46 type  2   force =    -0.07024543   -0.00012516   -0.02682464
     atom   47 type  2   force =     0.07023548    0.00028084   -0.02688777
     atom   48 type  3   force =     0.00472976    0.01720985   -0.00566924
     atom   49 type  3   force =     0.00090553   -0.00399009   -0.00032717
     atom   50 type  4   force =    -0.00104015   -0.00642457   -0.00130362
     atom   51 type  5   force =    -0.00114117   -0.00068067   -0.00018206
     atom   52 type  5   force =     0.00057624    0.00029033    0.00053453
     atom   53 type  5   force =    -0.00058189   -0.00071886   -0.00084867
     atom   54 type  5   force =    -0.00393000   -0.00551916    0.00667637
     atom   55 type  5   force =     0.00118769    0.00016031    0.00040898
     atom   56 type  5   force =    -0.00132849   -0.00039636   -0.00009058
     atom   57 type  2   force =    -0.00103293   -0.00071486    0.00085442
     atom   58 type  5   force =     0.00009821   -0.00023695   -0.00019978
     atom   59 type  5   force =     0.00112634    0.00052777   -0.00144533

     Total force =     0.366997     Total SCF correction =     0.000557
  @ DRIVER MODE: Message from server: STATUS
  @ DRIVER MODE: Message from server: GETFORCE
  @ DRIVER MODE: Returning v,forces,stress,ensemble

     Writing output data file ./calc.save/
  @ DRIVER MODE: Message from server: EXIT
  @ DRIVE MODE: Exiting

     General routines

     Parallel routines

   This run was terminated on:  16:59:36  15Sep2021

   JOB DONE.