     Program PWSCF v.6.7GPU starts on  3Aug2021 at 23: 0:38

     R & G space division:  proc/nbgrp/npool/nimage =      16
     Reading input from /storage/home/hcoda1/3/ntian30/research/carbon/02Aug_vib_paired/ads_slab/CH3NH3NH3_a/out_0025/pw.inp
Warning: card &CELL ignored
Warning: card   CELL_DYNAMICS='IPI', ignored
Warning: card / ignored

     Current dimensions of program PWSCF are:
     Max number of different atomic species (ntypx) = 10
     Max number of k-points (npk) =  40000
     Max angular momentum in pseudopotentials (lmaxx) =  3
     Presently no symmetry can be used with electric field

     Message from routine cell_base_init:
     DEPRECATED: use true lattice parameter, not A to a.u. conversion factor

     IMPORTANT: XC functional enforced from input :
     Exchange-correlation= BEEF-VDW
                           (   1   4  43  14   2   0   0)
     Any further DFT definition will be discarded
     Please, verify this is what you really want

  @ DRIVER MODE: Connecting to
 qe_1139763_2492108.sched-torque.pace.gatech.eduo3jxlcqg_scratch
  using UNIX socket
  @ DRIVER MODE: Message from server: STATUS
  @ DRIVER MODE: Message from server: INIT
  @ DRIVER MODE: Receiving replica           0          -1
  @ DRIVER MODE: Receiving encoded integer          25
  @ DRIVER MODE:  SCF:  T  FORCE:  T  STRESS:  F  VC:  F  ENSEMBLE:  F
  @ DRIVER MODE:  SCF:  T  FORCE:  T  STRESS:  F  VC:  F  ENSEMBLE:  F

     Using Slab Decomposition

     bravais-lattice index     =            0
     lattice parameter (alat)  =       1.8897  a.u.
     unit-cell volume          =    6658.9804 (a.u.)^3
     number of atoms/cell      =           59
     number of atomic types    =            5
     number of electrons       =       401.00
     number of Kohn-Sham states=          210
     kinetic-energy cutoff     =      29.3995  Ry
     charge density cutoff     =     293.9946  Ry
     scf convergence threshold =      7.3E-08
     mixing beta               =       0.0500
     number of iterations used =            8  plain     mixing
     Exchange-correlation= BEEF-VDW
                           (   1   4  43  14   2   0   0)

     celldm(1)=   1.889726  celldm(2)=   0.000000  celldm(3)=   0.000000
     celldm(4)=   0.000000  celldm(5)=   0.000000  celldm(6)=   0.000000

     crystal axes: (cart. coord. in units of alat)
               a(1) = (   6.579727   0.000000   0.000000 )
               a(2) = (  -0.000775   5.961596   0.000000 )
               a(3) = (   0.000000   0.000000  25.155947 )

     reciprocal axes: (cart. coord. in units 2 pi/alat)
               b(1) = (  0.151982  0.000020  0.000000 )
               b(2) = (  0.000000  0.167740  0.000000 )
               b(3) = (  0.000000  0.000000  0.039752 )

     PseudoPot. # 1 for Ti read from file:
     /storage/coda1/p-amedford6/0/shared/rich_project_chbe-medford/medford-share/data/pseudos_module/espresso/nninc/pbe/van/Ti.UPF
     MD5 check sum: 8e4df49b7f0d34bbd5052bf3f5ea0213
     Pseudo is Ultrasoft, Zval = 12.0
     Generated by new atomic code, or converted to UPF format
     Using radial grid of  851 points,  6 beta functions with:
                l(1) =   0
                l(2) =   0
                l(3) =   1
                l(4) =   1
                l(5) =   2
                l(6) =   2
     Q(r) pseudized with  8 coefficients,  rinner =    1.000   1.000   1.000
                                                       1.000   1.000

     PseudoPot. # 2 for O  read from file:
     /storage/coda1/p-amedford6/0/shared/rich_project_chbe-medford/medford-share/data/pseudos_module/espresso/nninc/pbe/van/O.UPF
     MD5 check sum: 78c19812648e8988a0fe644b0f25305e
     Pseudo is Ultrasoft, Zval =  6.0
     Generated by new atomic code, or converted to UPF format
     Using radial grid of  737 points,  4 beta functions with:
                l(1) =   0
                l(2) =   0
                l(3) =   1
                l(4) =   1
     Q(r) pseudized with  8 coefficients,  rinner =    0.800   0.800   0.800

     PseudoPot. # 3 for C  read from file:
     /storage/coda1/p-amedford6/0/shared/rich_project_chbe-medford/medford-share/data/pseudos_module/espresso/nninc/pbe/van/C.UPF
     MD5 check sum: 1a69bf6b8db32088f5b2163dbdb77a27
     Pseudo is Ultrasoft, Zval =  4.0
     Generated by new atomic code, or converted to UPF format
     Using radial grid of  721 points,  4 beta functions with:
                l(1) =   0
                l(2) =   0
                l(3) =   1
                l(4) =   1
     Q(r) pseudized with  8 coefficients,  rinner =    0.800   0.800   0.800

     PseudoPot. # 4 for H  read from file:
     /storage/coda1/p-amedford6/0/shared/rich_project_chbe-medford/medford-share/data/pseudos_module/espresso/nninc/pbe/van/H.UPF
     MD5 check sum: b5ee9d7bfd3a09ee7748110bda690ff7
     Pseudo is Ultrasoft, Zval =  1.0
     Generated by new atomic code, or converted to UPF format
     Using radial grid of  615 points,  1 beta functions with:
                l(1) =   0
     Q(r) pseudized with  8 coefficients,  rinner =    0.800

     PseudoPot. # 5 for N  read from file:
     /storage/coda1/p-amedford6/0/shared/rich_project_chbe-medford/medford-share/data/pseudos_module/espresso/nninc/pbe/van/N.UPF
     MD5 check sum: 90d10febe142ad51ac9d5be1deb811c4
     Pseudo is Ultrasoft, Zval =  5.0
     Generated by new atomic code, or converted to UPF format
     Using radial grid of  729 points,  4 beta functions with:
                l(1) =   0
                l(2) =   0
                l(3) =   1
                l(4) =   1
     Q(r) pseudized with  8 coefficients,  rinner =    0.800   0.800   0.800

     atomic species   valence    mass     pseudopotential
        Ti1           12.00    47.86700     Ti( 1.00)
        O1             6.00    15.99900     O ( 1.00)
        C1             4.00    12.01100     C ( 1.00)
        H1             1.00     1.00800     H ( 1.00)
        N1             5.00    14.00700     N ( 1.00)

     No symmetry found

   Cartesian axes

     site n.     atom                  positions (alat units)
         1           Ti1 tau(   1) = (   0.0004258   2.9801865   6.0000000  )
         2           Ti1 tau(   2) = (   3.2906075   1.4906267   6.0002472  )
         3           O1  tau(   3) = (   0.0006271   0.0005054   7.9858123  )
         4           O1  tau(   4) = (   3.2906025   0.0005020   7.3038282  )
         5           O1  tau(   5) = (   4.5942328   1.4918067   9.2879030  )
         6           O1  tau(   6) = (   1.9868534   1.4903216   9.2879459  )
         7           Ti1 tau(   7) = (   3.2907910   2.8959150   9.1758416  )
         8           Ti1 tau(   8) = (   0.0015273   1.4827037   9.2680791  )
         9           O1  tau(   9) = (   3.3006472   5.9526327  11.3326431  )
        10           O1  tau(  10) = (   0.0116148   5.9584955  10.6183126  )
        11           O1  tau(  11) = (   1.2986171   1.4856602  12.6180737  )
        12           O1  tau(  12) = (   5.2832837   1.4869688  12.6136912  )
        13           Ti1 tau(  13) = (   0.0716907   2.9700601  12.6329626  )
        14           Ti1 tau(  14) = (   3.3921379   1.4824266  12.4783935  )
        15           O1  tau(  15) = (   0.0098915   0.0277142  14.6273811  )
        16           O1  tau(  16) = (   3.2980527   0.0034327  13.9214941  )
        17           O1  tau(  17) = (   4.5491770   1.5035522  16.0668258  )
        18           O1  tau(  18) = (   2.0540802   1.5011373  16.0688643  )
        19           Ti1 tau(  19) = (   3.2973159   2.9845483  15.7023000  )
        20           Ti1 tau(  20) = (   6.5754392   1.4353193  15.8239573  )
        21           O1  tau(  21) = (   3.2904802   0.0005063   4.7018136  )
        22           O1  tau(  22) = (   0.0048264   5.9571524  17.1588256  )
        23           O1  tau(  23) = (   1.3043587   1.4918075   6.0039043  )
        24           O1  tau(  24) = (   5.2767064   1.4903225   6.0039473  )
        25           Ti1 tau(  25) = (   0.0000382   5.9609847   6.0000000  )
        26           Ti1 tau(  26) = (   3.2902200   4.4714249   6.0002472  )
        27           O1  tau(  27) = (   0.0002396   2.9813036   7.9858123  )
        28           O1  tau(  28) = (   3.2902150   2.9813002   7.3038282  )
        29           O1  tau(  29) = (   4.5938453   4.4726049   9.2879030  )
        30           O1  tau(  30) = (   1.9864658   4.4711199   9.2879459  )
        31           Ti1 tau(  31) = (   3.2891106   5.8743827   9.1763621  )
        32           Ti1 tau(  32) = (   0.0006254   4.4649316   9.2693709  )
        33           O1  tau(  33) = (   3.3024910   2.9811918  11.3312481  )
        34           O1  tau(  34) = (   0.0092240   2.9805883  10.6323155  )
        35           O1  tau(  35) = (   1.2967186   4.4682081  12.6345707  )
        36           O1  tau(  36) = (   5.2888097   4.4704914  12.6297389  )
        37           Ti1 tau(  37) = (   0.0778612   5.9457776  12.5489457  )
        38           Ti1 tau(  38) = (   3.3928769   4.4622707  12.4864817  )
        39           O1  tau(  39) = (   0.0140712   2.9461142  14.6842920  )
        40           O1  tau(  40) = (   3.2991745   2.9776924  13.9065265  )
        41           O1  tau(  41) = (   4.5418516   4.4678888  16.0645815  )
        42           O1  tau(  42) = (   2.0574864   4.4691885  16.0636024  )
        43           Ti1 tau(  43) = (   3.2861726   0.0051191  15.7195692  )
        44           Ti1 tau(  44) = (   6.5761434   4.5285208  16.1368719  )
        45           O1  tau(  45) = (   3.2900926   2.9813045   4.7018136  )
        46           O1  tau(  46) = (   1.3039711   4.4726057   6.0039043  )
        47           O1  tau(  47) = (   5.2763189   4.4711207   6.0039473  )
        48           C1  tau(  48) = (   0.0175971   3.0427671  17.7901079  )
        49           H1  tau(  49) = (   5.6823727   3.3959267  18.2745233  )
        50           H1  tau(  50) = (   0.1100020   1.9921885  18.0671921  )
        51           H1  tau(  51) = (   0.8707680   3.5346006  18.2680029  )
        52           N1  tau(  52) = (   6.1495222   1.5591847  21.8098380  )
        53           H1  tau(  53) = (   6.1793786   2.4848735  21.3946126  )
        54           H1  tau(  54) = (   6.2462200   0.9013766  21.0528083  )
        55           H1  tau(  55) = (   5.2088654   1.4380024  22.1828036  )
        56           N1  tau(  56) = (   2.8510371   0.9663425  23.1735989  )
        57           H1  tau(  57) = (   2.8683653   5.9129692  23.1556095  )
        58           H1  tau(  58) = (   1.9074079   1.2374795  22.9038124  )
        59           H1  tau(  59) = (   2.9640119   1.2328864  24.1466208  )

     number of k points=    10  Fermi-Dirac smearing, width (Ry)=  0.0073
                       cart. coord. in units 2pi/alat
        k(    1) = (   0.0000000   0.0000000   0.0000000), wk =   0.1250000
        k(    2) = (   0.0000000   0.0419351   0.0000000), wk =   0.2500000
        k(    3) = (   0.0000000  -0.0838702   0.0000000), wk =   0.1250000
        k(    4) = (   0.0379955   0.0000049   0.0000000), wk =   0.2500000
        k(    5) = (   0.0379955   0.0419400   0.0000000), wk =   0.2500000
        k(    6) = (   0.0379955  -0.0838652   0.0000000), wk =   0.2500000
        k(    7) = (   0.0379955  -0.0419301   0.0000000), wk =   0.2500000
        k(    8) = (  -0.0759910  -0.0000099   0.0000000), wk =   0.1250000
        k(    9) = (  -0.0759910   0.0419252   0.0000000), wk =   0.2500000
        k(   10) = (  -0.0759910  -0.0838800   0.0000000), wk =   0.1250000

     Initial potential from superposition of free atoms

     starting charge  384.99911, renormalised to  401.00000

     negative rho (up, down):  4.921E-03 0.000E+00

     %%%%%%%%%%%%%%%%%%%%%%%%%%%%%%%%%%%%%%%%%%%%%%%%%%%%%%%%%%%%%%%%%%%%%%%%
     %                                                                      %
     % You are using vdW-DF, which was implemented by the Thonhauser group. %
     % Please cite the following two papers that made this development      %
     % possible and the two reviews that describe the various versions:     %
     %                                                                      %
     %   T. Thonhauser et al., PRL 115, 136402 (2015).                      %
     %   T. Thonhauser et al., PRB 76, 125112 (2007).                       %
     %   K. Berland et al., Rep. Prog. Phys. 78, 066501 (2015).             %
     %   D.C. Langreth et al., J. Phys.: Condens. Matter 21, 084203 (2009). %
     %                                                                      %
     %                                                                      %
     % If you are calculating the stress with vdW-DF, please also cite:     %
     %                                                                      %
     %   R. Sabatini et al., J. Phys.: Condens. Matter 24, 424209 (2012).   %
     %                                                                      %
     %%%%%%%%%%%%%%%%%%%%%%%%%%%%%%%%%%%%%%%%%%%%%%%%%%%%%%%%%%%%%%%%%%%%%%%%

     Adding external electric field

     Computed dipole along edir(3) :
        Dipole              -16.7061 Ry au,        -42.4625 Debye
        Dipole field         -0.0315 Ry au,

        Potential amp.        2.9225 Ry
        Total length         46.3494 bohr

     Starting wfcs are  305 atomic wfcs
  @ DRIVER MODE: Message from server: STATUS
  @ DRIVER MODE: Message from server: POSDATA
  @ DRIVER MODE: Reading and sharing cell
  @ DRIVER MODE: Reading and sharing positions
  @ DRIVER MODE: Received positions

     Self-consistent Calculation

     iteration #  1     ecut=    29.40 Ry     beta= 0.05
     Davidson diagonalization with overlap
     c_bands:  2 eigenvalues not converged
     c_bands:  3 eigenvalues not converged
     c_bands:  1 eigenvalues not converged
     c_bands:  4 eigenvalues not converged
     c_bands:  4 eigenvalues not converged
     c_bands:  2 eigenvalues not converged
     c_bands:  3 eigenvalues not converged
     c_bands:  3 eigenvalues not converged
     c_bands:  4 eigenvalues not converged
     ethr =  1.00E-05,  avg # of iterations = 19.8

[...]

     total energy              =   -2364.23995317 Ry
     estimated scf accuracy    <    6692.69634064 Ry

     iteration #  2     ecut=    29.40 Ry     beta= 0.05
     Davidson diagonalization with overlap
     ethr =  1.00E-02,  avg # of iterations = 22.0

[...]

     iteration # 67     ecut=    29.40 Ry     beta= 0.05
     Davidson diagonalization with overlap
     c_bands:  1 eigenvalues not converged
     ethr =  3.71E-11,  avg # of iterations =  6.9

[...]

     total energy              =   -2946.58239046 Ry
     estimated scf accuracy    <       0.00000007 Ry

     iteration # 69     ecut=    29.40 Ry     beta= 0.05
     Davidson diagonalization with overlap
     ethr =  1.83E-11,  avg # of iterations =  1.7

     negative rho (up, down):  6.998E-03 0.000E+00

     Adding external electric field

     Computed dipole along edir(3) :
        Dipole                0.3155 Ry au,          0.8018 Debye
        Dipole field          0.0006 Ry au,

        Potential amp.       -0.0552 Ry
        Total length         46.3494 bohr

     End of self-consistent calculation

          k = 0.0000 0.0000 0.0000 ( 18029 PWs)   bands (ev):

   -55.9972 -55.9869 -55.9631 -55.9499 -55.8774 -55.8532 -55.8320 -55.8141
   -55.8043 -55.7707 -55.7703 -55.7369 -55.6115 -55.3893 -54.9776 -54.9436
   -32.5407 -32.4797 -32.3521 -32.3318 -32.3036 -32.3009 -32.2899 -32.2611
   -32.2392 -32.2156 -32.2086 -32.1940 -32.1667 -32.1493 -32.1400 -32.1259
   -32.1097 -32.1016 -32.0864 -32.0580 -32.0544 -32.0542 -32.0262 -32.0069
   -32.0062 -32.0015 -31.9925 -31.9883 -31.9751 -31.9729 -31.9646 -31.9449
   -31.9425 -31.9363 -31.9235 -31.9099 -31.8826 -31.8648 -31.8273 -31.6661
   -31.6398 -31.5272 -31.3847 -31.2960 -31.2736 -31.2014 -31.1149 -31.0039
   -16.7420 -16.4727 -16.2462 -16.1503 -16.1231 -16.0038 -15.8387 -15.7167
   -15.6683 -15.5681 -15.5587 -15.5342 -15.5012 -15.4772 -15.4764 -15.4423
   -15.4394 -15.4203 -15.4086 -15.3584 -15.3354 -15.3237 -15.2084 -15.1748
   -15.1325 -15.1111 -15.0537 -15.0410 -14.6184 -13.4810 -13.3647 -13.0557
   -12.9370  -9.1012  -4.1152  -3.9585  -3.9043  -3.8591  -3.8283  -3.6115
    -3.5453  -3.2478  -3.1836  -3.1691  -3.1563  -3.1516  -3.1191  -3.0921
    -3.0413  -2.9864  -2.9008  -2.8376  -2.8272  -2.8084  -2.8055  -2.7760
    -2.7664  -2.7542  -2.7135  -2.6879  -2.6618  -2.6117  -2.5567  -2.4948
    -2.4113  -2.3934  -2.3118  -2.2893  -2.2832  -2.2402  -2.2258  -2.2179
    -2.1990  -2.1739  -2.1608  -1.9773  -1.9387  -1.8359  -1.7798  -1.7777
    -1.6064  -1.5064  -1.4647  -1.4538  -1.4246  -1.3908  -1.3840  -1.2977
    -1.1809  -1.1499  -1.1168  -1.0448  -1.0013  -0.9694  -0.8719  -0.8444
    -0.7615  -0.7593  -0.7371  -0.6490  -0.5953  -0.4818  -0.4338  -0.4238
    -0.3858  -0.3567  -0.2874  -0.2732  -0.2163  -0.1439  -0.1231  -0.0603
    -0.0300  -0.0158  -0.0046   0.0122   0.0387   0.0691   0.1731   0.2035
     0.2829   0.3507   0.4460   0.5435   0.6494   0.6581   0.7596   0.9687
     1.0423   1.1408   1.1996   1.2365   1.6155   1.6613   1.7488   2.1866
     3.1399   3.2240   3.2715   3.2824   3.3735   3.3899   3.5901   3.6147
     3.6356   3.6876

[...]

          k = 0.0380-0.0419 0.0000 ( 17876 PWs)   bands (ev):

[...]

          k =-0.0760-0.0000 0.0000 ( 17886 PWs)   bands (ev):

[...]

          k =-0.0760-0.0839 0.0000 ( 17948 PWs)   bands (ev):

   -55.9806 -55.9795 -55.9729 -55.9637 -55.8694 -55.8430 -55.8398 -55.8243
   -55.7884 -55.7858 -55.7551 -55.7526 -55.6104 -55.3903 -54.9606 -54.9605
   -32.3484 -32.3397 -32.2954 -32.2946 -32.2757 -32.2748 -32.2584 -32.2494
   -32.2032 -32.1914 -32.1851 -32.1824 -32.1446 -32.1288 -32.1271 -32.1179
   -32.1075 -32.1000 -32.0999 -32.0989 -32.0933 -32.0905 -32.0694 -32.0597
   -32.0406 -32.0375 -32.0283 -32.0113 -31.9882 -31.9873 -31.9858 -31.9841
   -31.9694 -31.9680 -31.9650 -31.9610 -31.9324 -31.8559 -31.8305 -31.6798
   -31.6680 -31.5715 -31.2864 -31.2863 -31.1976 -31.1974 -31.1582 -31.1581
   -16.1747 -16.1553 -15.9478 -15.9110 -15.9080 -15.8987 -15.7870 -15.7020
   -15.6921 -15.6915 -15.6088 -15.5966 -15.5805 -15.5364 -15.5321 -15.5228
   -15.5132 -15.5011 -15.4580 -15.4531 -15.4342 -15.4267 -15.3447 -15.3144
   -15.3106 -15.2721 -15.1401 -15.0086 -14.8602 -13.4666 -13.4664 -13.0235
   -12.9687  -9.1177  -3.4667  -3.4411  -3.1910  -3.1592  -3.1547  -3.1454
    -3.0815  -3.0632  -2.9889  -2.9445  -2.9210  -2.8948  -2.8800  -2.8752
    -2.8389  -2.8266  -2.8168  -2.8049  -2.7867  -2.7523  -2.7433  -2.7110
    -2.7001  -2.6800  -2.6668  -2.6513  -2.6267  -2.6140  -2.6077  -2.5765
    -2.5624  -2.5454  -2.5248  -2.5019  -2.4188  -2.2297  -2.1999  -2.1352
    -2.1261  -2.0956  -2.0841  -2.0607  -2.0464  -2.0277  -1.9810  -1.8278
    -1.7259  -1.6997  -1.6719  -1.5967  -1.5758  -1.5280  -1.4141  -1.3794
    -1.3520  -1.3261  -1.2761  -1.2250  -1.2076  -1.1846  -1.1157  -1.1021
    -1.0245  -0.9810  -0.9586  -0.9543  -0.8892  -0.8463  -0.7644  -0.7591
    -0.7151  -0.6795  -0.6319  -0.5918  -0.5869  -0.5000  -0.4744  -0.3577
    -0.3030  -0.0433   0.0064   0.0576   0.0838   0.1427   0.1931   0.2079
     0.3168   0.3211   0.3577   0.4015   0.4422   0.5297   0.5489   0.5837
     0.7298   1.3039   1.4069   1.4075   1.4807   1.4811   1.9547   1.9656
     3.4251   3.4404   3.4708   3.5032   3.6445   3.6483   3.6696   3.6714
     3.7975   3.8119

     the Fermi energy is     3.1377 ev

!    total energy              =   -2946.58241171 Ry
     estimated scf accuracy    <       0.00000006 Ry
     smearing contrib. (-TS)   =      -0.02178626 Ry
     internal energy E=F+TS    =   -2946.56062545 Ry

     The total energy is F=E-TS. E is the sum of the following terms:
     one-electron contribution =  -22199.46470058 Ry
     hartree contribution      =   11188.73121275 Ry
     xc contribution           =    -489.85342391 Ry
     ewald contribution        =    8554.02609849 Ry
     electric field correction =       0.00018780 Ry

     convergence has been achieved in  69 iterations

     Forces acting on atoms (cartesian axes, Ry/au):

     atom    1 type  1   force =     0.00012550   -0.00025775    0.09669976
     atom    2 type  1   force =    -0.00013823   -0.00054863   -0.17508997
     atom    3 type  2   force =    -0.00000281   -0.00002825   -0.02503248
     atom    4 type  2   force =     0.00007581   -0.00144142    0.05268438
     atom    5 type  2   force =    -0.01211912   -0.00083343    0.00339367
     atom    6 type  2   force =     0.01402698   -0.00015429    0.00290322
     atom    7 type  1   force =    -0.00081972    0.00069079   -0.01134434
     atom    8 type  1   force =     0.00026076    0.01148993    0.02860624
     atom    9 type  2   force =    -0.00010156    0.00008448   -0.00002087
     atom   10 type  2   force =    -0.00085088    0.00077169   -0.01661702
     atom   11 type  2   force =    -0.00031516    0.00010301    0.00002733
     atom   12 type  2   force =    -0.00000808    0.00021157    0.00004787
     atom   13 type  1   force =    -0.00011088   -0.00020156    0.00010023
     atom   14 type  1   force =    -0.00021798    0.00000902   -0.00003860
     atom   15 type  2   force =    -0.00003071    0.00005828   -0.00010573
     atom   16 type  2   force =    -0.00012315   -0.00004074    0.00002692
     atom   17 type  2   force =    -0.00003782   -0.00015499   -0.00002403
     atom   18 type  2   force =    -0.00018895   -0.00017271   -0.00002758
     atom   19 type  1   force =     0.00001069   -0.00019948    0.00013428
     atom   20 type  1   force =     0.00010053   -0.00037636   -0.00005811
     atom   21 type  2   force =     0.00006405    0.00000974    0.10293551
     atom   22 type  2   force =    -0.00010656   -0.00009274   -0.00042570
     atom   23 type  2   force =    -0.07138947   -0.00010166   -0.02771102
     atom   24 type  2   force =     0.07134860    0.00030313   -0.02774429
     atom   25 type  1   force =     0.00000910   -0.00030305    0.09648050
     atom   26 type  1   force =    -0.00018482   -0.00027025   -0.17527350
     atom   27 type  2   force =     0.00009231   -0.00020018   -0.02393588
     atom   28 type  2   force =     0.00011431   -0.00119998    0.05272199
     atom   29 type  2   force =    -0.01215127    0.00045730    0.00287873
     atom   30 type  2   force =     0.01398047    0.00079976    0.00242453
     atom   31 type  1   force =    -0.00076516    0.00310859   -0.01226361
     atom   32 type  1   force =     0.00027463   -0.01311090    0.02918481
     atom   33 type  2   force =    -0.00009765   -0.00002735    0.00003466
     atom   34 type  2   force =    -0.00028817    0.00077235   -0.02206854
     atom   35 type  2   force =    -0.00016973    0.00008009   -0.00004287
     atom   36 type  2   force =    -0.00010387    0.00020143   -0.00003215
     atom   37 type  1   force =    -0.00001328   -0.00031550   -0.00017101
     atom   38 type  1   force =     0.00002535   -0.00000050    0.00000629
     atom   39 type  2   force =    -0.00008065    0.00013198    0.00027686
     atom   40 type  2   force =    -0.00013359   -0.00001218   -0.00006595
     atom   41 type  2   force =    -0.00000223   -0.00021668    0.00000577
     atom   42 type  2   force =    -0.00019223   -0.00022304    0.00017395
     atom   43 type  1   force =     0.00031447   -0.00016461   -0.00018035
     atom   44 type  1   force =     0.00018120   -0.00026410    0.00018590
     atom   45 type  2   force =     0.00006297   -0.00007111    0.10292881
     atom   46 type  2   force =    -0.07140306   -0.00008974   -0.02771952
     atom   47 type  2   force =     0.07135986    0.00036721   -0.02772803
     atom   48 type  3   force =    -0.00018202    0.00037845    0.00004584
     atom   49 type  4   force =    -0.00008338    0.00042003    0.00021410
     atom   50 type  4   force =    -0.00008495    0.00012194    0.00006143
     atom   51 type  4   force =     0.00009117    0.00029943    0.00038405
     atom   52 type  5   force =    -0.00276223    0.00741013    0.01116059
     atom   53 type  4   force =     0.00025097   -0.00005109   -0.00084645
     atom   54 type  4   force =     0.00143605   -0.00791772   -0.01118025
     atom   55 type  4   force =     0.00083475    0.00064119    0.00002963
     atom   56 type  5   force =     0.00070164    0.00036489   -0.00066910
     atom   57 type  4   force =     0.00005541   -0.00033626    0.00033348
     atom   58 type  4   force =    -0.00050749   -0.00002346   -0.00055829
     atom   59 type  4   force =    -0.00003072    0.00011525   -0.00011606

     Total force =     0.368203     Total SCF correction =     0.000766
  @ DRIVER MODE: Message from server: STATUS
  @ DRIVER MODE: Message from server: GETFORCE
  @ DRIVER MODE: Returning v,forces,stress,ensemble

     Writing output data file ./calc.save/
  @ DRIVER MODE: Message from server: EXIT
  @ DRIVE MODE: Exiting

     General routines

     Parallel routines

   This run was terminated on:  23:16: 4   3Aug2021

   JOB DONE.