     Program PWSCF v.6.7GPU starts on 22Sep2021 at 18:13:47

     R & G space division:  proc/nbgrp/npool/nimage =      10
     Reading input from /storage/home/hcoda1/3/ntian30/research/carbon/CxH_vib/H2O_calc/ads_slab/CH2N2HHO_a/out_0005/pw.inp
Warning: card &CELL ignored
Warning: card   CELL_DYNAMICS='IPI', ignored
Warning: card / ignored

     Current dimensions of program PWSCF are:
     Max number of different atomic species (ntypx) = 10
     Max number of k-points (npk) =  40000
     Max angular momentum in pseudopotentials (lmaxx) =  3
     Presently no symmetry can be used with electric field

     Message from routine cell_base_init:
     DEPRECATED: use true lattice parameter, not A to a.u. conversion factor

     IMPORTANT: XC functional enforced from input :
     Exchange-correlation= BEEF-VDW
                           (   1   4  43  14   2   0   0)
     Any further DFT definition will be discarded
     Please, verify this is what you really want

  @ DRIVER MODE: Connecting to
 qe_1139763_2937323.sched-torque.pace.gatech.edu73su5v11_scratch
  using UNIX socket
  @ DRIVER MODE: Message from server: STATUS
  @ DRIVER MODE: Message from server: INIT
  @ DRIVER MODE: Receiving replica           0          -1
  @ DRIVER MODE: Receiving encoded integer          25
  @ DRIVER MODE:  SCF:  T  FORCE:  T  STRESS:  F  VC:  F  ENSEMBLE:  F
  @ DRIVER MODE:  SCF:  T  FORCE:  T  STRESS:  F  VC:  F  ENSEMBLE:  F

     Using Slab Decomposition

     bravais-lattice index     =            0
     lattice parameter (alat)  =       1.8897  a.u.
     unit-cell volume          =    6658.9804 (a.u.)^3
     number of atoms/cell      =           55
     number of atomic types    =            5
     number of electrons       =       402.00
     number of Kohn-Sham states=          211
     kinetic-energy cutoff     =      29.3995  Ry
     charge density cutoff     =     293.9946  Ry
     scf convergence threshold =      7.3E-08
     mixing beta               =       0.0500
     number of iterations used =            8  plain     mixing
     Exchange-correlation= BEEF-VDW
                           (   1   4  43  14   2   0   0)

     celldm(1)=   1.889726  celldm(2)=   0.000000  celldm(3)=   0.000000
     celldm(4)=   0.000000  celldm(5)=   0.000000  celldm(6)=   0.000000

     crystal axes: (cart. coord. in units of alat)
               a(1) = (   6.579727   0.000000   0.000000 )
               a(2) = (  -0.000775   5.961596   0.000000 )
               a(3) = (   0.000000   0.000000  25.155947 )

     reciprocal axes: (cart. coord. in units 2 pi/alat)
               b(1) = (  0.151982  0.000020  0.000000 )
               b(2) = (  0.000000  0.167740  0.000000 )
               b(3) = (  0.000000  0.000000  0.039752 )

     PseudoPot. # 1 for Ti read from file:
     /storage/coda1/p-amedford6/0/shared/rich_project_chbe-medford/medford-share/data/pseudos_module/espresso/nninc/pbe/van/Ti.UPF
     MD5 check sum: 8e4df49b7f0d34bbd5052bf3f5ea0213
     Pseudo is Ultrasoft, Zval = 12.0
     Generated by new atomic code, or converted to UPF format
     Using radial grid of  851 points,  6 beta functions with:
                l(1) =   0
                l(2) =   0
                l(3) =   1
                l(4) =   1
                l(5) =   2
                l(6) =   2
     Q(r) pseudized with  8 coefficients,  rinner =    1.000   1.000   1.000
                                                       1.000   1.000

     PseudoPot. # 2 for O  read from file:
     /storage/coda1/p-amedford6/0/shared/rich_project_chbe-medford/medford-share/data/pseudos_module/espresso/nninc/pbe/van/O.UPF
     MD5 check sum: 78c19812648e8988a0fe644b0f25305e
     Pseudo is Ultrasoft, Zval =  6.0
     Generated by new atomic code, or converted to UPF format
     Using radial grid of  737 points,  4 beta functions with:
                l(1) =   0
                l(2) =   0
                l(3) =   1
                l(4) =   1
     Q(r) pseudized with  8 coefficients,  rinner =    0.800   0.800   0.800

     PseudoPot. # 3 for N  read from file:
     /storage/coda1/p-amedford6/0/shared/rich_project_chbe-medford/medford-share/data/pseudos_module/espresso/nninc/pbe/van/N.UPF
     MD5 check sum: 90d10febe142ad51ac9d5be1deb811c4
     Pseudo is Ultrasoft, Zval =  5.0
     Generated by new atomic code, or converted to UPF format
     Using radial grid of  729 points,  4 beta functions with:
                l(1) =   0
                l(2) =   0
                l(3) =   1
                l(4) =   1
     Q(r) pseudized with  8 coefficients,  rinner =    0.800   0.800   0.800

     PseudoPot. # 4 for C  read from file:
     /storage/coda1/p-amedford6/0/shared/rich_project_chbe-medford/medford-share/data/pseudos_module/espresso/nninc/pbe/van/C.UPF
     MD5 check sum: 1a69bf6b8db32088f5b2163dbdb77a27
     Pseudo is Ultrasoft, Zval =  4.0
     Generated by new atomic code, or converted to UPF format
     Using radial grid of  721 points,  4 beta functions with:
                l(1) =   0
                l(2) =   0
                l(3) =   1
                l(4) =   1
     Q(r) pseudized with  8 coefficients,  rinner =    0.800   0.800   0.800

     PseudoPot. # 5 for H  read from file:
     /storage/coda1/p-amedford6/0/shared/rich_project_chbe-medford/medford-share/data/pseudos_module/espresso/nninc/pbe/van/H.UPF
     MD5 check sum: b5ee9d7bfd3a09ee7748110bda690ff7
     Pseudo is Ultrasoft, Zval =  1.0
     Generated by new atomic code, or converted to UPF format
     Using radial grid of  615 points,  1 beta functions with:
                l(1) =   0
     Q(r) pseudized with  8 coefficients,  rinner =    0.800

     atomic species   valence    mass     pseudopotential
        Ti1           12.00    47.86700     Ti( 1.00)
        O1             6.00    15.99900     O ( 1.00)
        N1             5.00    14.00700     N ( 1.00)
        C1             4.00    12.01100     C ( 1.00)
        H1             1.00     1.00800     H ( 1.00)

     No symmetry found

   Cartesian axes

     site n.     atom                  positions (alat units)
         1           Ti1 tau(   1) = (   0.0004258   2.9801865   6.0000000  )
         2           Ti1 tau(   2) = (   3.2906075   1.4906267   6.0002472  )
         3           O1  tau(   3) = (   0.0006271   0.0005054   7.9858123  )
         4           O1  tau(   4) = (   3.2906025   0.0005020   7.3038282  )
         5           O1  tau(   5) = (   4.5942328   1.4918067   9.2879030  )
         6           O1  tau(   6) = (   1.9868534   1.4903216   9.2879459  )
         7           Ti1 tau(   7) = (   3.2907910   2.8959150   9.1758416  )
         8           Ti1 tau(   8) = (   0.0015273   1.4827037   9.2680791  )
         9           O1  tau(   9) = (   3.3002520   5.9418316  11.2747492  )
        10           O1  tau(  10) = (   0.0116148   5.9584955  10.6183126  )
        11           O1  tau(  11) = (   1.2897458   1.4862980  12.6211975  )
        12           O1  tau(  12) = (   5.3051886   1.5023792  12.6347999  )
        13           Ti1 tau(  13) = (   0.0146078   2.8478158  12.7200684  )
        14           Ti1 tau(  14) = (   3.3063360   1.3081926  12.6482236  )
        15           O1  tau(  15) = (   0.0235978   5.9609164  14.6274833  )
        16           O1  tau(  16) = (   3.2983906   0.0399142  13.8749830  )
        17           O1  tau(  17) = (   4.5813539   1.5856785  16.0626423  )
        18           O1  tau(  18) = (   2.0324892   1.5097802  16.0098020  )
        19           Ti1 tau(  19) = (   3.2774956   2.9544257  15.6266065  )
        20           Ti1 tau(  20) = (   6.5530467   1.3151789  15.9772938  )
        21           O1  tau(  21) = (   3.2904802   0.0005063   4.7018136  )
        22           O1  tau(  22) = (   6.5059356   5.9265713  17.1294848  )
        23           O1  tau(  23) = (   1.3043587   1.4918075   6.0039043  )
        24           O1  tau(  24) = (   5.2767064   1.4903225   6.0039473  )
        25           Ti1 tau(  25) = (   0.0000382   5.9609847   6.0000000  )
        26           Ti1 tau(  26) = (   3.2902200   4.4714249   6.0002472  )
        27           O1  tau(  27) = (   0.0002396   2.9813036   7.9858123  )
        28           O1  tau(  28) = (   3.2902150   2.9813002   7.3038282  )
        29           O1  tau(  29) = (   4.5938453   4.4726049   9.2879030  )
        30           O1  tau(  30) = (   1.9864658   4.4711199   9.2879459  )
        31           Ti1 tau(  31) = (   3.2891106   5.8743827   9.1763621  )
        32           Ti1 tau(  32) = (   0.0006254   4.4649316   9.2693709  )
        33           O1  tau(  33) = (   3.2992753   3.0242338  11.2405823  )
        34           O1  tau(  34) = (   0.0092240   2.9805883  10.6323155  )
        35           O1  tau(  35) = (   1.2972400   4.4705050  12.6241655  )
        36           O1  tau(  36) = (   5.3008088   4.4694758  12.6340222  )
        37           Ti1 tau(  37) = (   0.0289225   5.8314391  12.5906285  )
        38           Ti1 tau(  38) = (   3.3189507   4.3956991  12.4097224  )
        39           O1  tau(  39) = (   0.0312427   2.9750824  14.7260556  )
        40           O1  tau(  40) = (   3.2762925   2.9668711  13.8358254  )
        41           O1  tau(  41) = (   4.5358187   4.4455929  15.9064879  )
        42           O1  tau(  42) = (   2.0572077   4.4429961  16.0439637  )
        43           Ti1 tau(  43) = (   3.2186928   5.9141907  16.2420754  )
        44           Ti1 tau(  44) = (   6.4642982   4.4840528  15.9061301  )
        45           O1  tau(  45) = (   3.2900926   2.9813045   4.7018136  )
        46           O1  tau(  46) = (   1.3039711   4.4726057   6.0039043  )
        47           O1  tau(  47) = (   5.2763189   4.4711207   6.0039473  )
        48           N1  tau(  48) = (   0.2499663   2.3419386  17.9813213  )
        49           C1  tau(  49) = (   0.6208863   1.8700663  19.1394302  )
        50           H1  tau(  50) = (   0.7431952   2.5333404  19.9929579  )
        51           H1  tau(  51) = (   0.8399735   0.8189210  19.2161768  )
        52           N1  tau(  52) = (   6.5658643   3.6116587  17.7752569  )
        53           H1  tau(  53) = (   0.1300021   4.2235620  18.5825096  )
        54           O1  tau(  54) = (   3.3713844   5.9089882  18.0735649  )
        55           H1  tau(  55) = (   4.1655974   0.3538959  18.4550359  )

     number of k points=    10  Fermi-Dirac smearing, width (Ry)=  0.0073
                       cart. coord. in units 2pi/alat
        k(    1) = (   0.0000000   0.0000000   0.0000000), wk =   0.1250000
        k(    2) = (   0.0000000   0.0419351   0.0000000), wk =   0.2500000
        k(    3) = (   0.0000000  -0.0838702   0.0000000), wk =   0.1250000
        k(    4) = (   0.0379955   0.0000049   0.0000000), wk =   0.2500000
        k(    5) = (   0.0379955   0.0419400   0.0000000), wk =   0.2500000
        k(    6) = (   0.0379955  -0.0838652   0.0000000), wk =   0.2500000
        k(    7) = (   0.0379955  -0.0419301   0.0000000), wk =   0.2500000
        k(    8) = (  -0.0759910  -0.0000099   0.0000000), wk =   0.1250000
        k(    9) = (  -0.0759910   0.0419252   0.0000000), wk =   0.2500000
        k(   10) = (  -0.0759910  -0.0838800   0.0000000), wk =   0.1250000

     Initial potential from superposition of free atoms

     starting charge  385.99915, renormalised to  402.00000

     negative rho (up, down):  1.590E-02 0.000E+00

     %%%%%%%%%%%%%%%%%%%%%%%%%%%%%%%%%%%%%%%%%%%%%%%%%%%%%%%%%%%%%%%%%%%%%%%%
     %                                                                      %
     % You are using vdW-DF, which was implemented by the Thonhauser group. %
     % Please cite the following two papers that made this development      %
     % possible and the two reviews that describe the various versions:     %
     %                                                                      %
     %   T. Thonhauser et al., PRL 115, 136402 (2015).                      %
     %   T. Thonhauser et al., PRB 76, 125112 (2007).                       %
     %   K. Berland et al., Rep. Prog. Phys. 78, 066501 (2015).             %
     %   D.C. Langreth et al., J. Phys.: Condens. Matter 21, 084203 (2009). %
     %                                                                      %
     %                                                                      %
     % If you are calculating the stress with vdW-DF, please also cite:     %
     %                                                                      %
     %   R. Sabatini et al., J. Phys.: Condens. Matter 24, 424209 (2012).   %
     %                                                                      %
     %%%%%%%%%%%%%%%%%%%%%%%%%%%%%%%%%%%%%%%%%%%%%%%%%%%%%%%%%%%%%%%%%%%%%%%%

     Adding external electric field

     Computed dipole along edir(3) :
        Dipole              -11.3488 Ry au,        -28.8458 Debye
        Dipole field         -0.0214 Ry au,

        Potential amp.        1.9853 Ry
        Total length         46.3494 bohr

     Starting wfcs are  304 atomic wfcs
  @ DRIVER MODE: Message from server: STATUS
  @ DRIVER MODE: Message from server: POSDATA
  @ DRIVER MODE: Reading and sharing cell
  @ DRIVER MODE: Reading and sharing positions
  @ DRIVER MODE: Received positions

     Self-consistent Calculation

     iteration #  1     ecut=    29.40 Ry     beta= 0.05
     Davidson diagonalization with overlap
     c_bands:  4 eigenvalues not converged
     c_bands:  3 eigenvalues not converged
     c_bands:  3 eigenvalues not converged
     c_bands:  5 eigenvalues not converged
     c_bands:  5 eigenvalues not converged
     c_bands:  1 eigenvalues not converged
     c_bands:  5 eigenvalues not converged
     c_bands:  4 eigenvalues not converged
     c_bands:  5 eigenvalues not converged
     c_bands:  1 eigenvalues not converged
     ethr =  1.00E-05,  avg # of iterations = 24.0

[...]

     total energy              =   -2410.19993752 Ry
     estimated scf accuracy    <    6308.07814565 Ry

     iteration #  2     ecut=    29.40 Ry     beta= 0.05
     Davidson diagonalization with overlap
     ethr =  1.00E-02,  avg # of iterations = 22.7

[...]

     iteration # 41     ecut=    29.40 Ry     beta= 0.05
     Davidson diagonalization with overlap
     c_bands:  1 eigenvalues not converged
     ethr =  1.90E-06,  avg # of iterations = 11.6

[...]

     total energy              =   -2972.72734534 Ry
     estimated scf accuracy    <       0.00000009 Ry

     iteration # 70     ecut=    29.40 Ry     beta= 0.05
     Davidson diagonalization with overlap
     ethr =  1.89E-11,  avg # of iterations =  2.0

     negative rho (up, down):  1.621E-02 0.000E+00

     Adding external electric field

     Computed dipole along edir(3) :
        Dipole                0.4663 Ry au,          1.1851 Debye
        Dipole field          0.0009 Ry au,

        Potential amp.       -0.0816 Ry
        Total length         46.3494 bohr

     End of self-consistent calculation

          k = 0.0000 0.0000 0.0000 ( 18029 PWs)   bands (ev):

   -56.5323 -56.4987 -55.8822 -55.8467 -55.6196 -55.5601 -55.3776 -55.3239
   -55.3031 -55.2281 -55.2009 -55.1845 -55.1505 -55.0320 -55.0309 -54.9851
   -32.9647 -32.8171 -32.7891 -32.6996 -32.6083 -32.5904 -32.3652 -32.1017
   -32.1001 -32.0726 -32.0254 -32.0217 -31.9886 -31.8672 -31.8484 -31.8405
   -31.7877 -31.7638 -31.7230 -31.7074 -31.6933 -31.6452 -31.6446 -31.5865
   -31.5845 -31.5813 -31.5736 -31.5323 -31.5281 -31.5253 -31.5040 -31.5011
   -31.4821 -31.4779 -31.4217 -31.4065 -31.3942 -31.3556 -31.3115 -31.2926
   -31.2880 -31.2775 -31.2440 -31.2409 -31.2169 -31.1996 -31.1765 -31.1559
   -17.8266 -16.7183 -16.2854 -16.1728 -15.9790 -15.9024 -15.8796 -15.8473
   -15.7805 -15.6147 -15.5300 -15.5071 -15.4938 -15.4360 -15.2687 -15.1721
   -15.1571 -15.0918 -15.0127 -14.9880 -14.9495 -14.8940 -14.8725 -14.8549
   -14.8383 -14.8061 -14.6793 -14.6006 -14.5052 -14.3222 -14.3075 -13.6819
   -13.5723 -11.9153  -7.7627  -5.1575  -4.3462  -4.2686  -3.7931  -3.7758
    -3.6016  -3.4242  -3.3656  -3.2262  -3.1647  -3.1118  -3.0564  -3.0421
    -2.9381  -2.7970  -2.7929  -2.7359  -2.7119  -2.7106  -2.6924  -2.5915
    -2.5259  -2.5159  -2.4212  -2.3300  -2.3098  -2.2700  -2.2288  -2.2212
    -2.1780  -2.1406  -2.0849  -2.0468  -2.0346  -1.9355  -1.9162  -1.8118
    -1.7793  -1.7644  -1.7518  -1.7158  -1.6752  -1.6176  -1.5478  -1.4302
    -1.3390  -1.3193  -1.2560  -1.2459  -1.2148  -1.0542  -1.0144  -1.0105
    -0.9508  -0.8752  -0.8436  -0.7901  -0.7543  -0.7092  -0.6597  -0.6225
    -0.5805  -0.4480  -0.4450  -0.3964  -0.3159  -0.2897  -0.2578  -0.2349
    -0.1529  -0.0989  -0.0641   0.0048   0.0669   0.0721   0.1156   0.1761
     0.2839   0.3266   0.3520   0.3821   0.4265   0.4489   0.5185   0.5663
     0.5977   0.6063   0.6816   0.7843   0.8012   0.8388   0.9234   0.9514
     1.0329   1.0721   1.0927   1.1573   1.1930   1.3769   1.4153   1.5822
     2.3912   2.7321   2.8819   3.1643   3.1786   3.4702   3.6939   3.7222
     3.7249   3.8033   3.9407

[...]

          k = 0.0380-0.0419 0.0000 ( 17876 PWs)   bands (ev):

[...]

          k =-0.0760-0.0000 0.0000 ( 17886 PWs)   bands (ev):

[...]

          k =-0.0760-0.0839 0.0000 ( 17948 PWs)   bands (ev):

   -56.5157 -56.5151 -55.8702 -55.8585 -55.6143 -55.5654 -55.3714 -55.3299
   -55.3011 -55.2266 -55.2027 -55.1680 -55.1668 -55.0322 -55.0246 -54.9923
   -32.8030 -32.8024 -32.7817 -32.7809 -32.6525 -32.6523 -32.1912 -32.1817
   -32.0638 -32.0510 -32.0507 -32.0428 -31.9224 -31.8836 -31.8422 -31.8355
   -31.7924 -31.7863 -31.7007 -31.6687 -31.6292 -31.6088 -31.5907 -31.5859
   -31.5751 -31.5626 -31.5513 -31.5385 -31.5241 -31.5146 -31.5137 -31.5078
   -31.4729 -31.4685 -31.4280 -31.4112 -31.3921 -31.3906 -31.3854 -31.3536
   -31.3526 -31.2972 -31.2811 -31.2598 -31.2450 -31.2445 -31.2194 -31.1787
   -17.8127 -16.1535 -16.1019 -16.0976 -16.0140 -16.0117 -15.8082 -15.8011
   -15.6217 -15.5986 -15.5260 -15.4567 -15.3466 -15.3140 -15.2895 -15.2379
   -15.1953 -15.1660 -15.1117 -15.0800 -14.9968 -14.9659 -14.9493 -14.9373
   -14.9056 -14.8540 -14.7202 -14.6842 -14.6675 -14.5890 -14.4530 -13.6764
   -13.6756 -11.8726  -7.6936  -5.2185  -4.4208  -3.7512  -3.2145  -3.1861
    -3.1368  -3.1276  -2.9302  -2.8891  -2.8708  -2.8176  -2.7844  -2.7710
    -2.7213  -2.7154  -2.6341  -2.5820  -2.5500  -2.5372  -2.5131  -2.4541
    -2.4335  -2.4012  -2.3885  -2.3595  -2.3491  -2.3400  -2.3167  -2.2485
    -2.2020  -2.1473  -2.1168  -2.0755  -2.0142  -2.0091  -1.9756  -1.9668
    -1.8900  -1.8055  -1.7633  -1.6843  -1.6023  -1.5681  -1.5393  -1.5225
    -1.4804  -1.4202  -1.3938  -1.3445  -1.3199  -1.2682  -1.2289  -1.2206
    -1.1558  -1.1167  -1.0513  -1.0296  -0.9504  -0.8368  -0.7827  -0.7556
    -0.7296  -0.7155  -0.6480  -0.5867  -0.5371  -0.5176  -0.4454  -0.4385
    -0.4113  -0.3615  -0.3473  -0.3142  -0.1997  -0.1395  -0.0740   0.0104
     0.0489   0.0845   0.1567   0.2127   0.2443   0.3181   0.3975   0.4771
     0.4952   0.5304   0.5397   0.7049   0.7366   0.8404   0.8773   0.9544
     0.9880   1.0285   1.1484   1.1866   1.2270   1.2282   1.2487   1.2660
     2.3375   3.3017   3.3042   3.3540   3.3621   3.6292   3.6377   3.7761
     3.7781   3.8949   3.9344

     the Fermi energy is     2.6119 ev

!    total energy              =   -2972.72736551 Ry
     estimated scf accuracy    <       0.00000005 Ry
     smearing contrib. (-TS)   =      -0.00748505 Ry
     internal energy E=F+TS    =   -2972.71988046 Ry

     The total energy is F=E-TS. E is the sum of the following terms:
     one-electron contribution =  -24034.19786497 Ry
     hartree contribution      =   12110.76526205 Ry
     xc contribution           =    -493.27660621 Ry
     ewald contribution        =    9443.98891838 Ry
     electric field correction =       0.00041028 Ry

     convergence has been achieved in  70 iterations

     Forces acting on atoms (cartesian axes, Ry/au):

     atom    1 type  1   force =    -0.00000134   -0.00042732    0.11611185
     atom    2 type  1   force =    -0.00007819    0.00014247   -0.15941000
     atom    3 type  2   force =     0.00002554    0.00000602   -0.05243810
     atom    4 type  2   force =     0.00005209   -0.00014280    0.02475204
     atom    5 type  2   force =    -0.00350143   -0.00224439   -0.01039639
     atom    6 type  2   force =     0.00529643   -0.00174484   -0.01059557
     atom    7 type  1   force =    -0.00000285   -0.00613467    0.04615318
     atom    8 type  1   force =     0.00041002    0.01612418    0.08027051
     atom    9 type  2   force =    -0.00001058   -0.00060876    0.00024801
     atom   10 type  2   force =    -0.00257368    0.00058061   -0.04964353
     atom   11 type  2   force =    -0.00055654   -0.00011685   -0.00012107
     atom   12 type  2   force =     0.00059167   -0.00026504    0.00003180
     atom   13 type  1   force =    -0.00017987    0.00044757   -0.00023336
     atom   14 type  1   force =     0.00017429    0.00006654   -0.00123277
     atom   15 type  2   force =    -0.00017827   -0.00060422   -0.00066962
     atom   16 type  2   force =     0.00013398   -0.00066107    0.00081860
     atom   17 type  2   force =    -0.00003086    0.00054733    0.00011389
     atom   18 type  2   force =     0.00034453    0.00044699   -0.00040353
     atom   19 type  1   force =    -0.00057371   -0.00041752   -0.00065280
     atom   20 type  1   force =     0.00035801   -0.00023602   -0.00153954
     atom   21 type  2   force =     0.00004792    0.00021657    0.09896454
     atom   22 type  2   force =    -0.00000103   -0.00037666   -0.00005472
     atom   23 type  2   force =    -0.07983716    0.00004337   -0.03163211
     atom   24 type  2   force =     0.07973356    0.00047729   -0.03169046
     atom   25 type  1   force =     0.00006717   -0.00057611    0.11640461
     atom   26 type  1   force =    -0.00011395   -0.00143296   -0.15993455
     atom   27 type  2   force =     0.00007134   -0.00069831   -0.05045522
     atom   28 type  2   force =     0.00005318    0.00166283    0.02028681
     atom   29 type  2   force =    -0.00170372    0.00505378   -0.01368618
     atom   30 type  2   force =     0.00361672    0.00547634   -0.01381967
     atom   31 type  1   force =    -0.00017385    0.00219266    0.03163832
     atom   32 type  1   force =     0.00032102   -0.01973693    0.07992040
     atom   33 type  2   force =     0.00014243   -0.00034079    0.00026845
     atom   34 type  2   force =    -0.00158742    0.00084859   -0.06318362
     atom   35 type  2   force =     0.00040141    0.00000797   -0.00015125
     atom   36 type  2   force =     0.00016048   -0.00007081   -0.00021800
     atom   37 type  1   force =    -0.00012335   -0.00025685   -0.00070394
     atom   38 type  1   force =     0.00013329    0.00047169   -0.00005791
     atom   39 type  2   force =    -0.00028889    0.00058860    0.00030955
     atom   40 type  2   force =     0.00023764    0.00010582    0.00080665
     atom   41 type  2   force =     0.00137400   -0.00003607    0.00001261
     atom   42 type  2   force =    -0.00137205   -0.00058517    0.00018395
     atom   43 type  1   force =    -0.00053225    0.00063049   -0.00048158
     atom   44 type  1   force =    -0.00012327    0.00067968   -0.00039948
     atom   45 type  2   force =     0.00005127    0.00002815    0.09877567
     atom   46 type  2   force =    -0.07989026   -0.00000039   -0.03163197
     atom   47 type  2   force =     0.07978416    0.00043263   -0.03170484
     atom   48 type  3   force =     0.00462574   -0.00298441    0.02083434
     atom   49 type  4   force =    -0.00394146    0.00264269   -0.01447610
     atom   50 type  5   force =    -0.00070539    0.00008311   -0.00155123
     atom   51 type  5   force =     0.00013869    0.00065382   -0.00044965
     atom   52 type  3   force =    -0.00091229    0.00108364   -0.00344059
     atom   53 type  5   force =    -0.00014139   -0.00089087    0.00028897
     atom   54 type  2   force =    -0.00031629   -0.00023660   -0.00078882
     atom   55 type  5   force =     0.00110475    0.00008503    0.00065342

     Total force =     0.397446     Total SCF correction =     0.000712
  @ DRIVER MODE: Message from server: STATUS
  @ DRIVER MODE: Message from server: GETFORCE
  @ DRIVER MODE: Returning v,forces,stress,ensemble

     Writing output data file ./calc.save/
  @ DRIVER MODE: Message from server: EXIT
  @ DRIVE MODE: Exiting

     General routines

     Parallel routines

   This run was terminated on:  18:32:23  22Sep2021

   JOB DONE.