     Program PWSCF v.6.7GPU starts on 18Oct2021 at 16:10:11

     R & G space division:  proc/nbgrp/npool/nimage =       8
     Reading input from /storage/home/hcoda1/3/ntian30/research/carbon/CxH_vib/Thiel_calc/ads_slab/HNNH_perslab/out_0009/pw.inp
Warning: card &CELL ignored
Warning: card   CELL_DYNAMICS='IPI', ignored
Warning: card / ignored

     Current dimensions of program PWSCF are:
     Max number of different atomic species (ntypx) = 10
     Max number of k-points (npk) =  40000
     Max angular momentum in pseudopotentials (lmaxx) =  3
     Presently no symmetry can be used with electric field

     Message from routine cell_base_init:
     DEPRECATED: use true lattice parameter, not A to a.u. conversion factor

     IMPORTANT: XC functional enforced from input :
     Exchange-correlation= BEEF-VDW
                           (   1   4  43  14   2   0   0)
     Any further DFT definition will be discarded
     Please, verify this is what you really want

  @ DRIVER MODE: Connecting to
 qe_1139763_3255131.sched-torque.pace.gatech.eduybxbzaj2_scratch
  using UNIX socket
  @ DRIVER MODE: Message from server: STATUS
  @ DRIVER MODE: Message from server: INIT
  @ DRIVER MODE: Receiving replica           0          -1
  @ DRIVER MODE: Receiving encoded integer          25
  @ DRIVER MODE:  SCF:  T  FORCE:  T  STRESS:  F  VC:  F  ENSEMBLE:  F
  @ DRIVER MODE:  SCF:  T  FORCE:  T  STRESS:  F  VC:  F  ENSEMBLE:  F

     Using Slab Decomposition

     bravais-lattice index     =            0
     lattice parameter (alat)  =       1.8897  a.u.
     unit-cell volume          =    9988.4706 (a.u.)^3
     number of atoms/cell      =           57
     number of atomic types    =            4
     number of electrons       =       438.00
     number of Kohn-Sham states=          229
     kinetic-energy cutoff     =      29.3995  Ry
     charge density cutoff     =     293.9946  Ry
     scf convergence threshold =      7.3E-08
     mixing beta               =       0.0500
     number of iterations used =            8  plain     mixing
     Exchange-correlation= BEEF-VDW
                           (   1   4  43  14   2   0   0)

     celldm(1)=   1.889726  celldm(2)=   0.000000  celldm(3)=   0.000000
     celldm(4)=   0.000000  celldm(5)=   0.000000  celldm(6)=   0.000000

     crystal axes: (cart. coord. in units of alat)
               a(1) = (   6.579727   0.000000   0.000000 )
               a(2) = (  -0.001163   8.942395   0.000000 )
               a(3) = (   0.000000   0.000000  25.155947 )

     reciprocal axes: (cart. coord. in units 2 pi/alat)
               b(1) = (  0.151982  0.000020  0.000000 )
               b(2) = (  0.000000  0.111827  0.000000 )
               b(3) = (  0.000000  0.000000  0.039752 )

     PseudoPot. # 1 for O  read from file:
     /storage/coda1/p-amedford6/0/shared/rich_project_chbe-medford/medford-share/data/pseudos_module/espresso/nninc/pbe/van/O.UPF
     MD5 check sum: 78c19812648e8988a0fe644b0f25305e
     Pseudo is Ultrasoft, Zval =  6.0
     Generated by new atomic code, or converted to UPF format
     Using radial grid of  737 points,  4 beta functions with:
                l(1) =   0
                l(2) =   0
                l(3) =   1
                l(4) =   1
     Q(r) pseudized with  8 coefficients,  rinner =    0.800   0.800   0.800

     PseudoPot. # 2 for Ti read from file:
     /storage/coda1/p-amedford6/0/shared/rich_project_chbe-medford/medford-share/data/pseudos_module/espresso/nninc/pbe/van/Ti.UPF
     MD5 check sum: 8e4df49b7f0d34bbd5052bf3f5ea0213
     Pseudo is Ultrasoft, Zval = 12.0
     Generated by new atomic code, or converted to UPF format
     Using radial grid of  851 points,  6 beta functions with:
                l(1) =   0
                l(2) =   0
                l(3) =   1
                l(4) =   1
                l(5) =   2
                l(6) =   2
     Q(r) pseudized with  8 coefficients,  rinner =    1.000   1.000   1.000
                                                       1.000   1.000

     PseudoPot. # 3 for H  read from file:
     /storage/coda1/p-amedford6/0/shared/rich_project_chbe-medford/medford-share/data/pseudos_module/espresso/nninc/pbe/van/H.UPF
     MD5 check sum: b5ee9d7bfd3a09ee7748110bda690ff7
     Pseudo is Ultrasoft, Zval =  1.0
     Generated by new atomic code, or converted to UPF format
     Using radial grid of  615 points,  1 beta functions with:
                l(1) =   0
     Q(r) pseudized with  8 coefficients,  rinner =    0.800

     PseudoPot. # 4 for N  read from file:
     /storage/coda1/p-amedford6/0/shared/rich_project_chbe-medford/medford-share/data/pseudos_module/espresso/nninc/pbe/van/N.UPF
     MD5 check sum: 90d10febe142ad51ac9d5be1deb811c4
     Pseudo is Ultrasoft, Zval =  5.0
     Generated by new atomic code, or converted to UPF format
     Using radial grid of  729 points,  4 beta functions with:
                l(1) =   0
                l(2) =   0
                l(3) =   1
                l(4) =   1
     Q(r) pseudized with  8 coefficients,  rinner =    0.800   0.800   0.800

     atomic species   valence    mass     pseudopotential
        O1             6.00    15.99900     O ( 1.00)
        Ti1           12.00    47.86700     Ti( 1.00)
        H1             1.00     1.00800     H ( 1.00)
        N1             5.00    14.00700     N ( 1.00)

     No symmetry found

   Cartesian axes

     site n.     atom                  positions (alat units)
         1           O1  tau(   1) = (   0.0007354   0.0005023  10.5931620  )
         2           O1  tau(   2) = (   3.2896598   8.9340738  13.9086047  )
         3           O1  tau(   3) = (   6.5779785   8.9335072  17.2267929  )
         4           O1  tau(   4) = (   0.0006271   0.0005054   7.9858123  )
         5           O1  tau(   5) = (   3.2892818   8.9168625  11.1887994  )
         6           O1  tau(   6) = (   0.0000953   0.0200859  14.6187425  )
         7           O1  tau(   7) = (   1.9868534   1.4903216   9.2879459  )
         8           O1  tau(   8) = (   5.2299496   1.5903429  12.5639559  )
         9           O1  tau(   9) = (   2.0057315   1.6103507  16.0678580  )
        10           Ti1 tau(  10) = (   0.0007404   1.4906270   9.2895810  )
        11           Ti1 tau(  11) = (   3.2903845   1.3415648  12.5012035  )
        12           Ti1 tau(  12) = (   0.0001950   1.2451541  15.9845895  )
        13           O1  tau(  13) = (   4.5942328   1.4918067   9.2879030  )
        14           O1  tau(  14) = (   1.3504490   1.5899334  12.5641350  )
        15           O1  tau(  15) = (   4.5723762   1.6092463  16.0679920  )
        16           Ti1 tau(  16) = (   3.2902859   2.9801868   9.2893338  )
        17           Ti1 tau(  17) = (  -0.0000381   2.8017340  12.4757424  )
        18           Ti1 tau(  18) = (   3.2890522   2.9119407  15.7046117  )
        19           O1  tau(  19) = (   0.0003479   2.9813005  10.5931620  )
        20           O1  tau(  20) = (   3.2896940   2.9634103  13.8950687  )
        21           O1  tau(  21) = (   0.0002396   2.9813036   7.9858123  )
        22           O1  tau(  22) = (   3.2899864   2.9652420  11.1892519  )
        23           O1  tau(  23) = (  -0.0000843   3.0239999  14.5506518  )
        24           O1  tau(  24) = (   1.9864658   4.4711199   9.2879459  )
        25           O1  tau(  25) = (   5.2265999   4.6000300  12.5825491  )
        26           O1  tau(  26) = (   2.0173024   4.5375175  16.0298170  )
        27           Ti1 tau(  27) = (   0.0003529   4.4714252   9.2895810  )
        28           Ti1 tau(  28) = (   3.2900658   4.3228872  12.5050252  )
        29           Ti1 tau(  29) = (   0.0015352   4.3959346  15.6897578  )
        30           O1  tau(  30) = (   4.5938453   4.4726049   9.2879030  )
        31           O1  tau(  31) = (   1.3532953   4.6000771  12.5829012  )
        32           O1  tau(  32) = (   4.5620845   4.5358613  16.0300787  )
        33           Ti1 tau(  33) = (   3.2898983   5.9609850   9.2893338  )
        34           Ti1 tau(  34) = (  -0.0003676   5.8120669  12.4544080  )
        35           Ti1 tau(  35) = (   3.2921900   5.8807914  15.7090278  )
        36           O1  tau(  36) = (  -0.0000397   5.9620987  10.5931620  )
        37           O1  tau(  37) = (   3.2903388   5.9631658  13.9136923  )
        38           O1  tau(  38) = (  -0.0000761   5.9602876  17.3216368  )
        39           O1  tau(  39) = (  -0.0001480   5.9621018   7.9858123  )
        40           O1  tau(  40) = (   3.2896813   5.9437884  11.1873515  )
        41           O1  tau(  41) = (  -0.0004454   6.0514558  14.6911356  )
        42           O1  tau(  42) = (   1.9860782   7.4519181   9.2879459  )
        43           O1  tau(  43) = (   5.2331690   7.5528723  12.5749626  )
        44           O1  tau(  44) = (   2.0197658   7.5481525  16.0489791  )
        45           Ti1 tau(  45) = (  -0.0000347   7.4522234   9.2895810  )
        46           Ti1 tau(  46) = (   3.2899396   7.3045924  12.4973202  )
        47           Ti1 tau(  47) = (   0.0022254   7.3576980  16.0878887  )
        48           O1  tau(  48) = (   4.5934577   7.4534031   9.2879030  )
        49           O1  tau(  49) = (   1.3462119   7.5526743  12.5754142  )
        50           O1  tau(  50) = (   4.5579802   7.5455642  16.0489991  )
        51           Ti1 tau(  51) = (   3.2895107   8.9417832   9.2893338  )
        52           Ti1 tau(  52) = (  -0.0004108   8.7719052  12.5005688  )
        53           Ti1 tau(  53) = (   3.2909707   8.8596889  15.7095313  )
        54           H1  tau(  54) = (   6.5770345   5.6246256  18.2315160  )
        55           N1  tau(  55) = (   6.5773047   3.3038987  18.5316601  )
        56           N1  tau(  56) = (   6.5788436   3.1068121  17.3210979  )
        57           H1  tau(  57) = (   6.5767427   2.4184016  19.0716447  )

     number of k points=    10  Fermi-Dirac smearing, width (Ry)=  0.0073
                       cart. coord. in units 2pi/alat
        k(    1) = (   0.0000000   0.0000000   0.0000000), wk =   0.1250000
        k(    2) = (   0.0000000   0.0279567   0.0000000), wk =   0.2500000
        k(    3) = (   0.0000000  -0.0559134   0.0000000), wk =   0.1250000
        k(    4) = (   0.0379955   0.0000049   0.0000000), wk =   0.2500000
        k(    5) = (   0.0379955   0.0279617   0.0000000), wk =   0.2500000
        k(    6) = (   0.0379955  -0.0559085   0.0000000), wk =   0.2500000
        k(    7) = (   0.0379955  -0.0279518   0.0000000), wk =   0.2500000
        k(    8) = (  -0.0759910  -0.0000099   0.0000000), wk =   0.1250000
        k(    9) = (  -0.0759910   0.0279468   0.0000000), wk =   0.2500000
        k(   10) = (  -0.0759910  -0.0559233   0.0000000), wk =   0.1250000

     Initial potential from superposition of free atoms

     starting charge  419.99912, renormalised to  438.00000

     negative rho (up, down):  3.866E-02 0.000E+00

     %%%%%%%%%%%%%%%%%%%%%%%%%%%%%%%%%%%%%%%%%%%%%%%%%%%%%%%%%%%%%%%%%%%%%%%%
     %                                                                      %
     % You are using vdW-DF, which was implemented by the Thonhauser group. %
     % Please cite the following two papers that made this development      %
     % possible and the two reviews that describe the various versions:     %
     %                                                                      %
     %   T. Thonhauser et al., PRL 115, 136402 (2015).                      %
     %   T. Thonhauser et al., PRB 76, 125112 (2007).                       %
     %   K. Berland et al., Rep. Prog. Phys. 78, 066501 (2015).             %
     %   D.C. Langreth et al., J. Phys.: Condens. Matter 21, 084203 (2009). %
     %                                                                      %
     %                                                                      %
     % If you are calculating the stress with vdW-DF, please also cite:     %
     %                                                                      %
     %   R. Sabatini et al., J. Phys.: Condens. Matter 24, 424209 (2012).   %
     %                                                                      %
     %%%%%%%%%%%%%%%%%%%%%%%%%%%%%%%%%%%%%%%%%%%%%%%%%%%%%%%%%%%%%%%%%%%%%%%%

     Adding external electric field

     Computed dipole along edir(3) :
        Dipole               -4.5407 Ry au,        -11.5413 Debye
        Dipole field         -0.0057 Ry au,

        Potential amp.        0.5296 Ry
        Total length         46.3494 bohr

     Starting wfcs are  330 atomic wfcs
  @ DRIVER MODE: Message from server: STATUS
  @ DRIVER MODE: Message from server: POSDATA
  @ DRIVER MODE: Reading and sharing cell
  @ DRIVER MODE: Reading and sharing positions
  @ DRIVER MODE: Received positions

     Self-consistent Calculation

     iteration #  1     ecut=    29.40 Ry     beta= 0.05
     Davidson diagonalization with overlap
     c_bands:  3 eigenvalues not converged
     c_bands:  2 eigenvalues not converged
     c_bands:  3 eigenvalues not converged
     c_bands:  5 eigenvalues not converged
     c_bands:  5 eigenvalues not converged
     c_bands:  1 eigenvalues not converged
     c_bands:  2 eigenvalues not converged
     ethr =  1.00E-05,  avg # of iterations = 24.8

[...]

     total energy              =   -3289.27546017 Ry
     estimated scf accuracy    <      56.48324414 Ry

     iteration #  2     ecut=    29.40 Ry     beta= 0.05
     Davidson diagonalization with overlap
     ethr =  1.00E-02,  avg # of iterations =  5.5

[...]

     iteration # 54     ecut=    29.40 Ry     beta= 0.05
     Davidson diagonalization with overlap
     c_bands:  1 eigenvalues not converged
     ethr =  1.20E-10,  avg # of iterations = 15.0

[...]

     total energy              =   -3290.76648110 Ry
     estimated scf accuracy    <       0.00000012 Ry

     iteration # 59     ecut=    29.40 Ry     beta= 0.05
     Davidson diagonalization with overlap
     ethr =  2.67E-11,  avg # of iterations =  8.7

     negative rho (up, down):  3.652E-02 0.000E+00

     Adding external electric field

     Computed dipole along edir(3) :
        Dipole                1.2135 Ry au,          3.0845 Debye
        Dipole field          0.0015 Ry au,

        Potential amp.       -0.1415 Ry
        Total length         46.3494 bohr

     End of self-consistent calculation

          k = 0.0000 0.0000 0.0000 ( 26871 PWs)   bands (ev):

   -57.9788 -57.9750 -57.9717 -57.9542 -57.9517 -57.9142 -57.8516 -57.8106
   -57.7868 -57.7775 -57.7067 -57.6846 -57.6520 -57.3883 -57.3620 -56.9185
   -56.8953 -56.8812 -34.3728 -34.3663 -34.3647 -34.3533 -34.3508 -34.3178
   -34.3075 -34.2994 -34.2977 -34.2907 -34.2511 -34.2461 -34.1900 -34.1850
   -34.1757 -34.1755 -34.1624 -34.1529 -34.1477 -34.1450 -34.1245 -34.1039
   -34.0948 -34.0762 -34.0744 -34.0692 -34.0642 -34.0381 -34.0187 -33.9715
   -33.9703 -33.9603 -33.9430 -33.9356 -33.9317 -33.9265 -33.8990 -33.8746
   -33.8643 -33.8200 -33.6851 -33.6689 -33.6281 -33.6029 -33.5756 -33.2404
   -33.2329 -33.2237 -33.2176 -33.2112 -33.1400 -33.0810 -33.0654 -32.9378
   -20.8196 -19.3907 -18.8111 -18.4125 -18.2249 -18.2087 -18.1998 -18.1425
   -18.0662 -18.0626 -17.8824 -17.7918 -17.7694 -17.7428 -17.7246 -17.6924
   -17.6343 -17.6148 -17.5940 -17.5841 -17.5638 -17.5585 -17.4799 -17.4159
   -17.3899 -17.3835 -17.3756 -17.3720 -17.3018 -17.2161 -17.1259 -17.0675
   -17.0340 -15.3831 -15.3296 -15.3243 -11.3293  -7.6582  -7.1939  -6.1336
    -5.9223  -5.8571  -5.7817  -5.4324  -5.4281  -5.4169  -5.3539  -5.3307
    -5.2966  -5.2820  -5.2312  -5.2112  -5.2109  -5.1835  -5.1079  -5.0842
    -5.0578  -4.9830  -4.9376  -4.9066  -4.8549  -4.8407  -4.7419  -4.7403
    -4.7167  -4.7147  -4.7024  -4.6836  -4.6339  -4.6262  -4.5351  -4.5148
    -4.4713  -4.3520  -4.3296  -4.2680  -4.2513  -4.2225  -4.1389  -4.0754
    -4.0649  -4.0464  -4.0118  -3.9794  -3.9454  -3.9116  -3.8616  -3.7823
    -3.7169  -3.6783  -3.5660  -3.5100  -3.4776  -3.4529  -3.3741  -3.3558
    -3.3153  -3.2434  -3.1958  -3.1546  -3.1197  -3.1171  -3.0820  -2.9846
    -2.9769  -2.9006  -2.8175  -2.7912  -2.7126  -2.7016  -2.6935  -2.6765
    -2.6572  -2.6289  -2.6002  -2.5705  -2.4926  -2.4766  -2.4528  -2.3996
    -2.2929  -2.2761  -2.2711  -2.2544  -2.2499  -2.1838  -2.0845  -1.9753
    -1.9751  -1.9669  -1.8235  -1.7972  -1.7438  -1.7403  -1.6922  -1.6213
    -1.5649  -1.1750  -0.9366  -0.6507  -0.6182  -0.6098  -0.3713  -0.3615
    -0.2433   0.0227   0.9985   1.2677   1.3475   1.4346   1.4847   1.4905
     1.6160   1.6385   1.6719   1.7144   1.7248

[...]

          k = 0.0380-0.0280 0.0000 ( 26873 PWs)   bands (ev):

[...]

          k =-0.0760-0.0000 0.0000 ( 26902 PWs)   bands (ev):

[...]

          k =-0.0760-0.0559 0.0000 ( 26868 PWs)   bands (ev):

   -57.9733 -57.9730 -57.9713 -57.9689 -57.9444 -57.9149 -57.8512 -57.8064
   -57.7952 -57.7730 -57.7046 -57.6880 -57.6509 -57.3885 -57.3618 -56.9147
   -56.9026 -56.8778 -34.4451 -34.4323 -34.3779 -34.3662 -34.3324 -34.3111
   -34.3077 -34.2965 -34.2687 -34.2611 -34.2231 -34.2017 -34.2015 -34.1637
   -34.1630 -34.1620 -34.1598 -34.1414 -34.1209 -34.1188 -34.1141 -34.1039
   -34.1038 -34.0647 -34.0615 -34.0520 -34.0318 -34.0265 -34.0039 -33.9979
   -33.9920 -33.9914 -33.9782 -33.9747 -33.9478 -33.9308 -33.9261 -33.8748
   -33.8575 -33.7754 -33.7259 -33.6720 -33.6296 -33.6048 -33.5768 -33.3171
   -33.2422 -33.2308 -33.2076 -33.1254 -33.1108 -33.0524 -33.0408 -33.0272
   -20.8185 -19.3849 -18.5035 -18.4908 -18.1777 -18.1086 -18.0746 -18.0436
   -18.0032 -17.9677 -17.9384 -17.9261 -17.8971 -17.8032 -17.7931 -17.7219
   -17.6978 -17.6746 -17.6615 -17.6333 -17.5985 -17.5945 -17.5808 -17.4734
   -17.4625 -17.3786 -17.3601 -17.3171 -17.2603 -17.2154 -17.1146 -17.1021
   -17.0018 -15.3855 -15.3778 -15.2641 -11.3268  -7.6406  -7.1766  -5.7627
    -5.7565  -5.7215  -5.6975  -5.6426  -5.3709  -5.3457  -5.2145  -5.2114
    -5.2039  -5.1700  -5.1490  -5.1085  -5.0925  -5.0805  -5.0683  -5.0633
    -4.9981  -4.9979  -4.9427  -4.9121  -4.8651  -4.8587  -4.8496  -4.7934
    -4.7684  -4.7321  -4.7265  -4.6965  -4.5716  -4.5506  -4.5261  -4.4862
    -4.4493  -4.4310  -4.3504  -4.2928  -4.2242  -4.1106  -4.0875  -4.0824
    -4.0275  -3.9855  -3.9248  -3.8753  -3.7208  -3.6858  -3.6602  -3.5938
    -3.5653  -3.5518  -3.5359  -3.5143  -3.5005  -3.4488  -3.4423  -3.3882
    -3.3524  -3.3261  -3.3046  -3.2125  -3.1619  -3.1288  -3.0897  -3.0712
    -3.0606  -3.0490  -3.0222  -3.0158  -3.0141  -2.9490  -2.9391  -2.8978
    -2.8533  -2.7653  -2.7354  -2.6964  -2.6385  -2.5336  -2.5151  -2.4644
    -2.4506  -2.3929  -2.2089  -2.1952  -2.1783  -2.1351  -2.0878  -2.0491
    -2.0405  -2.0201  -1.9718  -1.8631  -1.7290  -1.7097  -1.5486  -1.4802
    -1.4732  -1.4524  -1.2510  -0.8342  -0.5498  -0.5217  -0.5164  -0.3747
    -0.3715   0.0258   1.1589   1.1833   1.2500   1.3215   1.3576   1.3657
     1.3861   1.4888   1.4920   1.5941   1.6592

     the Fermi energy is     1.0977 ev

!    total energy              =   -3290.76653234 Ry
     estimated scf accuracy    <       0.00000003 Ry
     smearing contrib. (-TS)   =      -0.03256016 Ry
     internal energy E=F+TS    =   -3290.73397218 Ry

     The total energy is F=E-TS. E is the sum of the following terms:
     one-electron contribution =  -34499.22488918 Ry
     hartree contribution      =   17311.01208360 Ry
     xc contribution           =    -540.52172053 Ry
     ewald contribution        =   14437.99870123 Ry
     electric field correction =       0.00185271 Ry

     convergence has been achieved in  59 iterations

     Forces acting on atoms (cartesian axes, Ry/au):

     atom    1 type  1   force =    -0.00000250    0.00295936    0.06147891
     atom    2 type  1   force =     0.00005544    0.00057393   -0.00872426
     atom    3 type  1   force =     0.00000820   -0.00455352    0.00134842
     atom    4 type  1   force =     0.00004987   -0.00106239    0.10515681
     atom    5 type  1   force =     0.00005062   -0.00001152    0.01002288
     atom    6 type  1   force =    -0.00003338   -0.00436438    0.00672396
     atom    7 type  1   force =     0.07080974   -0.00018275   -0.02969769
     atom    8 type  1   force =     0.00421309   -0.02883136    0.00201348
     atom    9 type  1   force =     0.00646133   -0.02307413    0.00272384
     atom   10 type  2   force =    -0.00005649   -0.00528807   -0.17414640
     atom   11 type  2   force =    -0.00024865    0.02023367   -0.00523744
     atom   12 type  2   force =    -0.00005886    0.02595557   -0.00823673
     atom   13 type  1   force =    -0.07090183   -0.00063146   -0.02963785
     atom   14 type  1   force =    -0.00450743   -0.02853623    0.00199079
     atom   15 type  1   force =    -0.00635119   -0.02313101    0.00269646
     atom   16 type  2   force =     0.00011112   -0.00199955    0.06352137
     atom   17 type  2   force =     0.00047319    0.03495814    0.00384632
     atom   18 type  2   force =    -0.00005837    0.01820967   -0.00082981
     atom   19 type  1   force =    -0.00001158    0.00866400    0.05610418
     atom   20 type  1   force =     0.00004157    0.00030035   -0.00814341
     atom   21 type  1   force =     0.00004729    0.00236706    0.10554736
     atom   22 type  1   force =     0.00004578   -0.00045786    0.00965998
     atom   23 type  1   force =    -0.00001632   -0.00201918    0.00292204
     atom   24 type  1   force =     0.06933099   -0.00028603   -0.02955882
     atom   25 type  1   force =     0.00470478   -0.02809235    0.00243711
     atom   26 type  1   force =     0.00617564   -0.01519315   -0.00027326
     atom   27 type  2   force =    -0.00005717   -0.00797764   -0.18326715
     atom   28 type  2   force =    -0.00026799    0.02039291   -0.00598051
     atom   29 type  2   force =    -0.00009341    0.02375916    0.00591707
     atom   30 type  1   force =    -0.06942712   -0.00073878   -0.02950397
     atom   31 type  1   force =    -0.00497525   -0.02779874    0.00240458
     atom   32 type  1   force =    -0.00590983   -0.01505432   -0.00026964
     atom   33 type  2   force =     0.00008122   -0.00101308    0.06382825
     atom   34 type  2   force =     0.00046972    0.03459856    0.00494086
     atom   35 type  2   force =    -0.00012833    0.02157596    0.00150730
     atom   36 type  1   force =    -0.00001318    0.00377372    0.05850492
     atom   37 type  1   force =     0.00004831   -0.00063911   -0.00666815
     atom   38 type  1   force =     0.00000119   -0.00164587    0.00045377
     atom   39 type  1   force =     0.00005371   -0.00050964    0.10665517
     atom   40 type  1   force =     0.00004894   -0.00050215    0.00897225
     atom   41 type  1   force =    -0.00000859   -0.00431111   -0.00108159
     atom   42 type  1   force =     0.06973373   -0.00119739   -0.02999672
     atom   43 type  1   force =     0.00449748   -0.02931038    0.00148193
     atom   44 type  1   force =     0.00986725   -0.02503174    0.00505826
     atom   45 type  2   force =    -0.00007090    0.00912665   -0.17963715
     atom   46 type  2   force =    -0.00024875    0.02119727   -0.00517090
     atom   47 type  2   force =    -0.00012672    0.02456878   -0.00985698
     atom   48 type  1   force =    -0.06983159   -0.00164893   -0.02994655
     atom   49 type  1   force =    -0.00477937   -0.02900442    0.00145319
     atom   50 type  1   force =    -0.00961694   -0.02493451    0.00508508
     atom   51 type  2   force =     0.00011173   -0.00178464    0.06382923
     atom   52 type  2   force =     0.00048122    0.03633537    0.00331124
     atom   53 type  2   force =    -0.00015694    0.03626970    0.00375352
     atom   54 type  3   force =    -0.00000274   -0.00091115   -0.00103643
     atom   55 type  4   force =     0.00000847    0.01676877   -0.00037577
     atom   56 type  4   force =     0.00000990   -0.00906303   -0.00141738
     atom   57 type  3   force =    -0.00003012   -0.01179705    0.00334399

     Total force =     0.453834     Total SCF correction =     0.000440
  @ DRIVER MODE: Message from server: STATUS
  @ DRIVER MODE: Message from server: GETFORCE
  @ DRIVER MODE: Returning v,forces,stress,ensemble

     Writing output data file ./calc.save/
  @ DRIVER MODE: Message from server: EXIT
  @ DRIVE MODE: Exiting

     General routines

     Parallel routines

   This run was terminated on:  16:40:22  18Oct2021

   JOB DONE.