     Program PWSCF v.6.7GPU starts on  7Oct2021 at 15:20:29

     R & G space division:  proc/nbgrp/npool/nimage =       8
     Reading input from /storage/home/hcoda1/3/ntian30/research/carbon/CxH_vib/pristine/ads_slab/HO_a/out_0011/pw.inp
Warning: card &CELL ignored
Warning: card   CELL_DYNAMICS='IPI', ignored
Warning: card / ignored

     Current dimensions of program PWSCF are:
     Max number of different atomic species (ntypx) = 10
     Max number of k-points (npk) =  40000
     Max angular momentum in pseudopotentials (lmaxx) =  3
     Presently no symmetry can be used with electric field

     Message from routine cell_base_init:
     DEPRECATED: use true lattice parameter, not A to a.u. conversion factor

     IMPORTANT: XC functional enforced from input :
     Exchange-correlation= BEEF-VDW
                           (   1   4  43  14   2   0   0)
     Any further DFT definition will be discarded
     Please, verify this is what you really want

  @ DRIVER MODE: Connecting to
 qe_1139763_3117414.sched-torque.pace.gatech.eduhtlorc26_scratch
  using UNIX socket
  @ DRIVER MODE: Message from server: STATUS
  @ DRIVER MODE: Message from server: INIT
  @ DRIVER MODE: Receiving replica           0          -1
  @ DRIVER MODE: Receiving encoded integer          25
  @ DRIVER MODE:  SCF:  T  FORCE:  T  STRESS:  F  VC:  F  ENSEMBLE:  F
  @ DRIVER MODE:  SCF:  T  FORCE:  T  STRESS:  F  VC:  F  ENSEMBLE:  F

     Using Slab Decomposition

     bravais-lattice index     =            0
     lattice parameter (alat)  =       1.8897  a.u.
     unit-cell volume          =    6658.9804 (a.u.)^3
     number of atoms/cell      =           50
     number of atomic types    =            3
     number of electrons       =       391.00
     number of Kohn-Sham states=          205
     kinetic-energy cutoff     =      29.3995  Ry
     charge density cutoff     =     293.9946  Ry
     scf convergence threshold =      7.3E-08
     mixing beta               =       0.0500
     number of iterations used =            8  plain     mixing
     Exchange-correlation= BEEF-VDW
                           (   1   4  43  14   2   0   0)

     celldm(1)=   1.889726  celldm(2)=   0.000000  celldm(3)=   0.000000
     celldm(4)=   0.000000  celldm(5)=   0.000000  celldm(6)=   0.000000

     crystal axes: (cart. coord. in units of alat)
               a(1) = (   6.579727   0.000000   0.000000 )
               a(2) = (  -0.000775   5.961596   0.000000 )
               a(3) = (   0.000000   0.000000  25.155947 )

     reciprocal axes: (cart. coord. in units 2 pi/alat)
               b(1) = (  0.151982  0.000020  0.000000 )
               b(2) = (  0.000000  0.167740  0.000000 )
               b(3) = (  0.000000  0.000000  0.039752 )

     PseudoPot. # 1 for Ti read from file:
     /storage/coda1/p-amedford6/0/shared/rich_project_chbe-medford/medford-share/data/pseudos_module/espresso/nninc/pbe/van/Ti.UPF
     MD5 check sum: 8e4df49b7f0d34bbd5052bf3f5ea0213
     Pseudo is Ultrasoft, Zval = 12.0
     Generated by new atomic code, or converted to UPF format
     Using radial grid of  851 points,  6 beta functions with:
                l(1) =   0
                l(2) =   0
                l(3) =   1
                l(4) =   1
                l(5) =   2
                l(6) =   2
     Q(r) pseudized with  8 coefficients,  rinner =    1.000   1.000   1.000
                                                       1.000   1.000

     PseudoPot. # 2 for O  read from file:
     /storage/coda1/p-amedford6/0/shared/rich_project_chbe-medford/medford-share/data/pseudos_module/espresso/nninc/pbe/van/O.UPF
     MD5 check sum: 78c19812648e8988a0fe644b0f25305e
     Pseudo is Ultrasoft, Zval =  6.0
     Generated by new atomic code, or converted to UPF format
     Using radial grid of  737 points,  4 beta functions with:
                l(1) =   0
                l(2) =   0
                l(3) =   1
                l(4) =   1
     Q(r) pseudized with  8 coefficients,  rinner =    0.800   0.800   0.800

     PseudoPot. # 3 for H  read from file:
     /storage/coda1/p-amedford6/0/shared/rich_project_chbe-medford/medford-share/data/pseudos_module/espresso/nninc/pbe/van/H.UPF
     MD5 check sum: b5ee9d7bfd3a09ee7748110bda690ff7
     Pseudo is Ultrasoft, Zval =  1.0
     Generated by new atomic code, or converted to UPF format
     Using radial grid of  615 points,  1 beta functions with:
                l(1) =   0
     Q(r) pseudized with  8 coefficients,  rinner =    0.800

     atomic species   valence    mass     pseudopotential
        Ti1           12.00    47.86700     Ti( 1.00)
        O1             6.00    15.99900     O ( 1.00)
        H1             1.00     1.00800     H ( 1.00)

     No symmetry found

   Cartesian axes

     site n.     atom                  positions (alat units)
         1           Ti1 tau(   1) = (   0.0004258   2.9801865   6.0000000  )
         2           Ti1 tau(   2) = (   3.2906075   1.4906267   6.0002472  )
         3           O1  tau(   3) = (   0.0006271   0.0005054   7.9858123  )
         4           O1  tau(   4) = (   3.2906025   0.0005020   7.3038282  )
         5           O1  tau(   5) = (   4.5942328   1.4918067   9.2879030  )
         6           O1  tau(   6) = (   1.9868534   1.4903216   9.2879459  )
         7           Ti1 tau(   7) = (   3.3248368   2.9353415   9.1581132  )
         8           Ti1 tau(   8) = (   0.0348061   1.4328757   9.2698444  )
         9           O1  tau(   9) = (   3.2558153   5.9608867  11.3540807  )
        10           O1  tau(  10) = (   6.5787777   5.9580609  10.6102199  )
        11           O1  tau(  11) = (   1.2578461   1.4922241  12.6657876  )
        12           O1  tau(  12) = (   5.2569931   1.4893933  12.6381393  )
        13           Ti1 tau(  13) = (   6.5294230   2.9904941  12.8452735  )
        14           Ti1 tau(  14) = (   3.2579094   1.4843304  12.4961006  )
        15           O1  tau(  15) = (   6.5186568   0.0062952  14.7209196  )
        16           O1  tau(  16) = (   3.2668583   0.0047471  13.9447273  )
        17           O1  tau(  17) = (   4.4776800   1.5076002  16.1086166  )
        18           O1  tau(  18) = (   1.9743396   1.5021368  16.0673285  )
        19           Ti1 tau(  19) = (   3.2504849   2.9915922  15.7337648  )
        20           Ti1 tau(  20) = (   6.5638180   1.3940782  16.0359698  )
        21           O1  tau(  21) = (   3.2904802   0.0005063   4.7018136  )
        22           O1  tau(  22) = (   6.5319333   0.0131466  17.2434795  )
        23           O1  tau(  23) = (   1.3043587   1.4918075   6.0039043  )
        24           O1  tau(  24) = (   5.2767064   1.4903225   6.0039473  )
        25           Ti1 tau(  25) = (   0.0000382   5.9609847   6.0000000  )
        26           Ti1 tau(  26) = (   3.2902200   4.4714249   6.0002472  )
        27           O1  tau(  27) = (   0.0002396   2.9813036   7.9858123  )
        28           O1  tau(  28) = (   3.2902150   2.9813002   7.3038282  )
        29           O1  tau(  29) = (   4.5938453   4.4726049   9.2879030  )
        30           O1  tau(  30) = (   1.9864658   4.4711199   9.2879459  )
        31           Ti1 tau(  31) = (   3.3025199   5.9118878   9.1541808  )
        32           Ti1 tau(  32) = (   0.0289454   4.3516898   9.3667734  )
        33           O1  tau(  33) = (   3.2607980   2.9788302  11.3532926  )
        34           O1  tau(  34) = (   6.5774047   2.9692645  10.5656574  )
        35           O1  tau(  35) = (   1.2571186   4.4720179  12.6628446  )
        36           O1  tau(  36) = (   5.2563914   4.4739326  12.6347338  )
        37           Ti1 tau(  37) = (   6.5611204   0.0114005  12.5205682  )
        38           Ti1 tau(  38) = (   3.2560456   4.4634797  12.4976326  )
        39           O1  tau(  39) = (   6.4988029   2.9873628  14.7163224  )
        40           O1  tau(  40) = (   3.2643784   2.9861877  13.9386898  )
        41           O1  tau(  41) = (   4.4776508   4.4728947  16.1063220  )
        42           O1  tau(  42) = (   1.9753228   4.4765485  16.0727810  )
        43           Ti1 tau(  43) = (   3.2601155   0.0105718  15.7379043  )
        44           Ti1 tau(  44) = (   6.5588044   4.5863390  16.0547194  )
        45           O1  tau(  45) = (   3.2900926   2.9813045   4.7018136  )
        46           O1  tau(  46) = (   6.4741149   2.9911911  17.3728393  )
        47           O1  tau(  47) = (   1.3039711   4.4726057   6.0039043  )
        48           O1  tau(  48) = (   5.2763189   4.4711207   6.0039473  )
        49           H1  tau(  49) = (   0.3451658   2.7570926  19.1939219  )
        50           O1  tau(  50) = (   0.9073542   3.0070444  18.4291685  )

     number of k points=    10  Fermi-Dirac smearing, width (Ry)=  0.0073
                       cart. coord. in units 2pi/alat
        k(    1) = (   0.0000000   0.0000000   0.0000000), wk =   0.1250000
        k(    2) = (   0.0000000   0.0419351   0.0000000), wk =   0.2500000
        k(    3) = (   0.0000000  -0.0838702   0.0000000), wk =   0.1250000
        k(    4) = (   0.0379955   0.0000049   0.0000000), wk =   0.2500000
        k(    5) = (   0.0379955   0.0419400   0.0000000), wk =   0.2500000
        k(    6) = (   0.0379955  -0.0838652   0.0000000), wk =   0.2500000
        k(    7) = (   0.0379955  -0.0419301   0.0000000), wk =   0.2500000
        k(    8) = (  -0.0759910  -0.0000099   0.0000000), wk =   0.1250000
        k(    9) = (  -0.0759910   0.0419252   0.0000000), wk =   0.2500000
        k(   10) = (  -0.0759910  -0.0838800   0.0000000), wk =   0.1250000

     Initial potential from superposition of free atoms

     starting charge  374.99924, renormalised to  391.00000

     negative rho (up, down):  2.047E-02 0.000E+00

     %%%%%%%%%%%%%%%%%%%%%%%%%%%%%%%%%%%%%%%%%%%%%%%%%%%%%%%%%%%%%%%%%%%%%%%%
     %                                                                      %
     % You are using vdW-DF, which was implemented by the Thonhauser group. %
     % Please cite the following two papers that made this development      %
     % possible and the two reviews that describe the various versions:     %
     %                                                                      %
     %   T. Thonhauser et al., PRL 115, 136402 (2015).                      %
     %   T. Thonhauser et al., PRB 76, 125112 (2007).                       %
     %   K. Berland et al., Rep. Prog. Phys. 78, 066501 (2015).             %
     %   D.C. Langreth et al., J. Phys.: Condens. Matter 21, 084203 (2009). %
     %                                                                      %
     %                                                                      %
     % If you are calculating the stress with vdW-DF, please also cite:     %
     %                                                                      %
     %   R. Sabatini et al., J. Phys.: Condens. Matter 24, 424209 (2012).   %
     %                                                                      %
     %%%%%%%%%%%%%%%%%%%%%%%%%%%%%%%%%%%%%%%%%%%%%%%%%%%%%%%%%%%%%%%%%%%%%%%%

     Adding external electric field

     Computed dipole along edir(3) :
        Dipole               -5.3513 Ry au,        -13.6017 Debye
        Dipole field         -0.0101 Ry au,

        Potential amp.        0.9361 Ry
        Total length         46.3494 bohr

     Starting wfcs are  293 atomic wfcs
  @ DRIVER MODE: Message from server: STATUS
  @ DRIVER MODE: Message from server: POSDATA
  @ DRIVER MODE: Reading and sharing cell
  @ DRIVER MODE: Reading and sharing positions
  @ DRIVER MODE: Received positions

     Self-consistent Calculation

     iteration #  1     ecut=    29.40 Ry     beta= 0.05
     Davidson diagonalization with overlap
     c_bands:  3 eigenvalues not converged
     c_bands:  2 eigenvalues not converged
     c_bands:  2 eigenvalues not converged
     c_bands:  4 eigenvalues not converged
     c_bands:  3 eigenvalues not converged
     c_bands:  1 eigenvalues not converged
     c_bands:  1 eigenvalues not converged
     c_bands:  2 eigenvalues not converged
     ethr =  1.00E-05,  avg # of iterations = 19.6

[...]

     total energy              =   -2813.99348565 Ry
     estimated scf accuracy    <    1500.59235825 Ry

     iteration #  2     ecut=    29.40 Ry     beta= 0.05
     Davidson diagonalization with overlap
     ethr =  1.00E-02,  avg # of iterations = 17.5

[...]

     iteration # 62     ecut=    29.40 Ry     beta= 0.05
     Davidson diagonalization with overlap
     c_bands:  1 eigenvalues not converged
     ethr =  7.13E-10,  avg # of iterations = 15.3

[...]

     total energy              =   -2949.69589372 Ry
     estimated scf accuracy    <       0.00000009 Ry

     iteration # 69     ecut=    29.40 Ry     beta= 0.05
     Davidson diagonalization with overlap
     ethr =  2.20E-11,  avg # of iterations =  9.9

     negative rho (up, down):  2.023E-02 0.000E+00

     Adding external electric field

     Computed dipole along edir(3) :
        Dipole                0.7177 Ry au,          1.8241 Debye
        Dipole field          0.0014 Ry au,

        Potential amp.       -0.1255 Ry
        Total length         46.3494 bohr

     End of self-consistent calculation

          k = 0.0000 0.0000 0.0000 ( 18029 PWs)   bands (ev):

   -56.0556 -56.0394 -56.0181 -56.0030 -55.9276 -55.9250 -55.8859 -55.8849
   -55.8570 -55.8365 -55.8181 -55.8091 -55.7759 -55.6855 -55.0648 -55.0308
   -32.6024 -32.5217 -32.4543 -32.3824 -32.3777 -32.3533 -32.3469 -32.3189
   -32.2875 -32.2737 -32.2639 -32.2520 -32.2435 -32.2198 -32.2161 -32.1917
   -32.1828 -32.1689 -32.1663 -32.1439 -32.1285 -32.1208 -32.1053 -32.0884
   -32.0728 -32.0625 -32.0615 -32.0610 -32.0533 -32.0426 -32.0340 -32.0336
   -32.0221 -32.0096 -31.9963 -31.9782 -31.9640 -31.9527 -31.9143 -31.9086
   -31.8799 -31.8752 -31.4748 -31.3775 -31.3552 -31.2913 -31.2053 -31.0942
   -20.4573 -16.7787 -16.5002 -16.3595 -16.2003 -16.1549 -16.0498 -15.8771
   -15.7523 -15.7228 -15.6555 -15.6105 -15.6090 -15.5872 -15.5738 -15.5601
   -15.5516 -15.5288 -15.4704 -15.4592 -15.4502 -15.4251 -15.3809 -15.3249
   -15.2562 -15.1821 -15.1681 -15.1158 -15.0461 -15.0093 -14.4364 -13.5657
   -13.4475  -5.8104  -4.2653  -4.1280  -3.9591  -3.9380  -3.9144  -3.8442
    -3.5922  -3.5861  -3.4197  -3.2136  -3.2003  -3.1703  -3.1614  -3.1560
    -2.9339  -2.8772  -2.8727  -2.8646  -2.8584  -2.8160  -2.8036  -2.7909
    -2.7864  -2.7574  -2.6884  -2.6273  -2.5648  -2.4517  -2.4351  -2.3908
    -2.3535  -2.3148  -2.3104  -2.3060  -2.2545  -2.2412  -2.2143  -2.1815
    -2.1160  -1.9795  -1.8769  -1.8260  -1.7502  -1.6932  -1.5489  -1.5033
    -1.4522  -1.4436  -1.3867  -1.3592  -1.3277  -1.2730  -1.2279  -1.2167
    -1.1231  -1.0497  -0.9953  -0.9398  -0.8915  -0.8822  -0.7963  -0.7717
    -0.7459  -0.7165  -0.5257  -0.5011  -0.4992  -0.4045  -0.3747  -0.3293
    -0.2978  -0.2660  -0.2371  -0.2049  -0.1529  -0.0916  -0.0849  -0.0521
    -0.0500  -0.0132   0.0108   0.1279   0.1697   0.1932   0.2661   0.2882
     0.4388   0.4838   0.5975   0.7064   0.8619   0.8662   0.9592   1.0412
     1.1301   1.5484   1.6093   3.1355   3.1620   3.1854   3.2160   3.2867
     3.4092   3.5203   3.5602   3.5951   3.6232

[...]

          k = 0.0380-0.0419 0.0000 ( 17876 PWs)   bands (ev):

[...]

          k =-0.0760-0.0000 0.0000 ( 17886 PWs)   bands (ev):

[...]

          k =-0.0760-0.0839 0.0000 ( 17948 PWs)   bands (ev):

   -56.0447 -56.0288 -56.0233 -56.0188 -55.9237 -55.9148 -55.8949 -55.8787
   -55.8609 -55.8434 -55.8150 -55.7942 -55.7915 -55.6877 -55.0483 -55.0472
   -32.4066 -32.4022 -32.3599 -32.3464 -32.3367 -32.3297 -32.3119 -32.3115
   -32.3028 -32.2525 -32.2387 -32.2368 -32.2157 -32.1991 -32.1902 -32.1713
   -32.1690 -32.1627 -32.1608 -32.1489 -32.1280 -32.1236 -32.1187 -32.1145
   -32.1112 -32.1095 -32.1059 -32.0906 -32.0801 -32.0690 -32.0660 -32.0526
   -32.0477 -32.0460 -32.0372 -32.0212 -32.0126 -31.9997 -31.9977 -31.9861
   -31.9185 -31.8831 -31.3685 -31.3671 -31.2882 -31.2873 -31.2488 -31.2478
   -20.4522 -16.2084 -16.1978 -15.9822 -15.9580 -15.9559 -15.8914 -15.8173
   -15.7986 -15.7676 -15.7652 -15.7061 -15.6964 -15.6827 -15.6378 -15.5871
   -15.5503 -15.5457 -15.5339 -15.4948 -15.4915 -15.4661 -15.4287 -15.4041
   -15.3899 -15.3773 -15.3723 -15.3229 -15.2666 -15.1820 -14.4732 -13.5500
   -13.5475  -5.8038  -4.1259  -3.4999  -3.4862  -3.3621  -3.1745  -3.1720
    -3.1260  -3.0832  -2.9691  -2.9563  -2.9139  -2.8885  -2.8795  -2.8593
    -2.8364  -2.8241  -2.8166  -2.8015  -2.7922  -2.7663  -2.7489  -2.6972
    -2.6903  -2.6748  -2.6534  -2.6447  -2.6193  -2.6009  -2.5874  -2.5733
    -2.5602  -2.4599  -2.3362  -2.3037  -2.2312  -2.1853  -2.1406  -2.1349
    -2.1016  -2.0944  -2.0806  -1.9660  -1.8963  -1.7731  -1.7652  -1.7496
    -1.7173  -1.6196  -1.5917  -1.5487  -1.4626  -1.4515  -1.3585  -1.3301
    -1.3065  -1.2469  -1.1956  -1.1495  -1.1285  -1.0370  -1.0169  -1.0007
    -0.9506  -0.9282  -0.8674  -0.8357  -0.7901  -0.7741  -0.7040  -0.6659
    -0.6264  -0.5581  -0.5478  -0.5270  -0.4803  -0.4031  -0.1584  -0.0560
    -0.0355   0.0107   0.0403   0.0601   0.1825   0.1917   0.2423   0.2740
     0.3578   0.4123   0.4728   0.4911   0.5237   0.5904   0.8094   1.3192
     1.3210   1.4105   1.4218   3.3258   3.3814   3.4002   3.4485   3.5925
     3.5980   3.6204   3.6264   3.6868   3.7171

     the Fermi energy is     3.1021 ev

!    total energy              =   -2949.69591270 Ry
     estimated scf accuracy    <       0.00000004 Ry
     smearing contrib. (-TS)   =      -0.02329789 Ry
     internal energy E=F+TS    =   -2949.67261481 Ry

     The total energy is F=E-TS. E is the sum of the following terms:
     one-electron contribution =  -24644.00459069 Ry
     hartree contribution      =   12406.46866566 Ry
     xc contribution           =    -484.01597597 Ry
     ewald contribution        =    9771.87831423 Ry
     electric field correction =       0.00097197 Ry

     convergence has been achieved in  69 iterations

     Forces acting on atoms (cartesian axes, Ry/au):

     atom    1 type  1   force =    -0.00009091    0.00154365    0.10637154
     atom    2 type  1   force =    -0.00009985    0.00000188   -0.17999911
     atom    3 type  2   force =     0.00022124    0.00713569   -0.03467270
     atom    4 type  2   force =     0.00039278   -0.00050987    0.04594571
     atom    5 type  2   force =    -0.01959334   -0.00191020    0.00432466
     atom    6 type  2   force =     0.01831808   -0.00056848    0.00276441
     atom    7 type  1   force =    -0.00036838   -0.00056146    0.00007554
     atom    8 type  1   force =     0.00024142   -0.00021622    0.00016230
     atom    9 type  2   force =     0.00032662   -0.00028541   -0.00045243
     atom   10 type  2   force =    -0.00002879   -0.00034556    0.00003266
     atom   11 type  2   force =     0.00001659   -0.00010639    0.00006586
     atom   12 type  2   force =     0.00056205   -0.00004917    0.00007769
     atom   13 type  1   force =    -0.00011331   -0.00014989   -0.00003461
     atom   14 type  1   force =    -0.00029511    0.00034177    0.00008054
     atom   15 type  2   force =     0.00055640   -0.00018508   -0.00047063
     atom   16 type  2   force =    -0.00003414   -0.00015895    0.00084930
     atom   17 type  2   force =    -0.00046024   -0.00022441   -0.00034869
     atom   18 type  2   force =     0.00018194   -0.00006380   -0.00004269
     atom   19 type  1   force =     0.00091163   -0.00026247    0.00100131
     atom   20 type  1   force =    -0.00029413    0.00079804   -0.00044827
     atom   21 type  2   force =     0.00004788   -0.00000506    0.10418656
     atom   22 type  2   force =    -0.00015511   -0.00031927    0.00001726
     atom   23 type  2   force =    -0.06851534    0.00090224   -0.02986764
     atom   24 type  2   force =     0.06838469    0.00144207   -0.02986703
     atom   25 type  1   force =     0.00009143   -0.00148138    0.11888485
     atom   26 type  1   force =    -0.00027441   -0.00075922   -0.17995599
     atom   27 type  2   force =     0.00046432   -0.00348600   -0.02898905
     atom   28 type  2   force =     0.00073428   -0.00072924    0.04750343
     atom   29 type  2   force =    -0.02065182   -0.00019351    0.00519191
     atom   30 type  2   force =     0.01976934    0.00204185    0.00388203
     atom   31 type  1   force =    -0.00029759   -0.00009791   -0.00019747
     atom   32 type  1   force =     0.00007834    0.00044263    0.00027908
     atom   33 type  2   force =    -0.00012882    0.00028950    0.00018019
     atom   34 type  2   force =    -0.00004634    0.00036500   -0.00045510
     atom   35 type  2   force =     0.00030913   -0.00015466    0.00015073
     atom   36 type  2   force =     0.00035513   -0.00009989    0.00025468
     atom   37 type  1   force =    -0.00126599    0.00042762   -0.00049916
     atom   38 type  1   force =    -0.00029250   -0.00002083    0.00002425
     atom   39 type  2   force =     0.00028029    0.00002102   -0.00055890
     atom   40 type  2   force =    -0.00004715    0.00005365   -0.00031684
     atom   41 type  2   force =     0.00022810    0.00015231   -0.00003989
     atom   42 type  2   force =    -0.00057043   -0.00006170    0.00037023
     atom   43 type  1   force =     0.00102608    0.00000792   -0.00065469
     atom   44 type  1   force =    -0.00021898   -0.00036783    0.00032228
     atom   45 type  2   force =     0.00004808    0.00001079    0.10423358
     atom   46 type  2   force =    -0.00361113    0.00030649   -0.00510315
     atom   47 type  2   force =    -0.06896832   -0.00124497   -0.02980325
     atom   48 type  2   force =     0.06872182   -0.00095491   -0.02982551
     atom   49 type  3   force =     0.00788575    0.00255400   -0.00957321
     atom   50 type  2   force =    -0.00373129   -0.00326436    0.01494345

     Total force =     0.378051     Total SCF correction =     0.000465
  @ DRIVER MODE: Message from server: STATUS
  @ DRIVER MODE: Message from server: GETFORCE
  @ DRIVER MODE: Returning v,forces,stress,ensemble

     Writing output data file ./calc.save/
  @ DRIVER MODE: Message from server: EXIT
  @ DRIVE MODE: Exiting

     General routines

     Parallel routines

   This run was terminated on:  15:46:45   7Oct2021

   JOB DONE.