     Program PWSCF v.6.7GPU starts on 23Sep2021 at 17:25: 0

     R & G space division:  proc/nbgrp/npool/nimage =       8
     Reading input from /storage/home/hcoda1/3/ntian30/research/carbon/CxH_vib/H2O_calc/ads_slab/CH3NHNHHO_a/out_0049/pw.inp
Warning: card &CELL ignored
Warning: card   CELL_DYNAMICS='IPI', ignored
Warning: card / ignored

     Current dimensions of program PWSCF are:
     Max number of different atomic species (ntypx) = 10
     Max number of k-points (npk) =  40000
     Max angular momentum in pseudopotentials (lmaxx) =  3
     Presently no symmetry can be used with electric field

     Message from routine cell_base_init:
     DEPRECATED: use true lattice parameter, not A to a.u. conversion factor

     IMPORTANT: XC functional enforced from input :
     Exchange-correlation= BEEF-VDW
                           (   1   4  43  14   2   0   0)
     Any further DFT definition will be discarded
     Please, verify this is what you really want

  @ DRIVER MODE: Connecting to
 qe_1139763_2941006.sched-torque.pace.gatech.edu89dhlef5_scratch
  using UNIX socket
  @ DRIVER MODE: Message from server: STATUS
  @ DRIVER MODE: Message from server: INIT
  @ DRIVER MODE: Receiving replica           0          -1
  @ DRIVER MODE: Receiving encoded integer          25
  @ DRIVER MODE:  SCF:  T  FORCE:  T  STRESS:  F  VC:  F  ENSEMBLE:  F
  @ DRIVER MODE:  SCF:  T  FORCE:  T  STRESS:  F  VC:  F  ENSEMBLE:  F

     Using Slab Decomposition

     bravais-lattice index     =            0
     lattice parameter (alat)  =       1.8897  a.u.
     unit-cell volume          =    6658.9804 (a.u.)^3
     number of atoms/cell      =           57
     number of atomic types    =            5
     number of electrons       =       404.00
     number of Kohn-Sham states=          212
     kinetic-energy cutoff     =      29.3995  Ry
     charge density cutoff     =     293.9946  Ry
     scf convergence threshold =      7.3E-08
     mixing beta               =       0.0500
     number of iterations used =            8  plain     mixing
     Exchange-correlation= BEEF-VDW
                           (   1   4  43  14   2   0   0)

     celldm(1)=   1.889726  celldm(2)=   0.000000  celldm(3)=   0.000000
     celldm(4)=   0.000000  celldm(5)=   0.000000  celldm(6)=   0.000000

     crystal axes: (cart. coord. in units of alat)
               a(1) = (   6.579727   0.000000   0.000000 )
               a(2) = (  -0.000775   5.961596   0.000000 )
               a(3) = (   0.000000   0.000000  25.155947 )

     reciprocal axes: (cart. coord. in units 2 pi/alat)
               b(1) = (  0.151982  0.000020  0.000000 )
               b(2) = (  0.000000  0.167740  0.000000 )
               b(3) = (  0.000000  0.000000  0.039752 )

     PseudoPot. # 1 for Ti read from file:
     /storage/coda1/p-amedford6/0/shared/rich_project_chbe-medford/medford-share/data/pseudos_module/espresso/nninc/pbe/van/Ti.UPF
     MD5 check sum: 8e4df49b7f0d34bbd5052bf3f5ea0213
     Pseudo is Ultrasoft, Zval = 12.0
     Generated by new atomic code, or converted to UPF format
     Using radial grid of  851 points,  6 beta functions with:
                l(1) =   0
                l(2) =   0
                l(3) =   1
                l(4) =   1
                l(5) =   2
                l(6) =   2
     Q(r) pseudized with  8 coefficients,  rinner =    1.000   1.000   1.000
                                                       1.000   1.000

     PseudoPot. # 2 for O  read from file:
     /storage/coda1/p-amedford6/0/shared/rich_project_chbe-medford/medford-share/data/pseudos_module/espresso/nninc/pbe/van/O.UPF
     MD5 check sum: 78c19812648e8988a0fe644b0f25305e
     Pseudo is Ultrasoft, Zval =  6.0
     Generated by new atomic code, or converted to UPF format
     Using radial grid of  737 points,  4 beta functions with:
                l(1) =   0
                l(2) =   0
                l(3) =   1
                l(4) =   1
     Q(r) pseudized with  8 coefficients,  rinner =    0.800   0.800   0.800

     PseudoPot. # 3 for N  read from file:
     /storage/coda1/p-amedford6/0/shared/rich_project_chbe-medford/medford-share/data/pseudos_module/espresso/nninc/pbe/van/N.UPF
     MD5 check sum: 90d10febe142ad51ac9d5be1deb811c4
     Pseudo is Ultrasoft, Zval =  5.0
     Generated by new atomic code, or converted to UPF format
     Using radial grid of  729 points,  4 beta functions with:
                l(1) =   0
                l(2) =   0
                l(3) =   1
                l(4) =   1
     Q(r) pseudized with  8 coefficients,  rinner =    0.800   0.800   0.800

     PseudoPot. # 4 for C  read from file:
     /storage/coda1/p-amedford6/0/shared/rich_project_chbe-medford/medford-share/data/pseudos_module/espresso/nninc/pbe/van/C.UPF
     MD5 check sum: 1a69bf6b8db32088f5b2163dbdb77a27
     Pseudo is Ultrasoft, Zval =  4.0
     Generated by new atomic code, or converted to UPF format
     Using radial grid of  721 points,  4 beta functions with:
                l(1) =   0
                l(2) =   0
                l(3) =   1
                l(4) =   1
     Q(r) pseudized with  8 coefficients,  rinner =    0.800   0.800   0.800

     PseudoPot. # 5 for H  read from file:
     /storage/coda1/p-amedford6/0/shared/rich_project_chbe-medford/medford-share/data/pseudos_module/espresso/nninc/pbe/van/H.UPF
     MD5 check sum: b5ee9d7bfd3a09ee7748110bda690ff7
     Pseudo is Ultrasoft, Zval =  1.0
     Generated by new atomic code, or converted to UPF format
     Using radial grid of  615 points,  1 beta functions with:
                l(1) =   0
     Q(r) pseudized with  8 coefficients,  rinner =    0.800

     atomic species   valence    mass     pseudopotential
        Ti1           12.00    47.86700     Ti( 1.00)
        O1             6.00    15.99900     O ( 1.00)
        N1             5.00    14.00700     N ( 1.00)
        C1             4.00    12.01100     C ( 1.00)
        H1             1.00     1.00800     H ( 1.00)

     No symmetry found

   Cartesian axes

     site n.     atom                  positions (alat units)
         1           Ti1 tau(   1) = (   0.0004258   2.9801865   6.0000000  )
         2           Ti1 tau(   2) = (   3.2906075   1.4906267   6.0002472  )
         3           O1  tau(   3) = (   0.0006271   0.0005054   7.9858123  )
         4           O1  tau(   4) = (   3.2906025   0.0005020   7.3038282  )
         5           O1  tau(   5) = (   4.5942328   1.4918067   9.2879030  )
         6           O1  tau(   6) = (   1.9868534   1.4903216   9.2879459  )
         7           Ti1 tau(   7) = (   3.2907910   2.8959150   9.1758416  )
         8           Ti1 tau(   8) = (   0.0015273   1.4827037   9.2680791  )
         9           O1  tau(   9) = (   3.2953096   5.9421394  11.2884464  )
        10           O1  tau(  10) = (   0.0116148   5.9584955  10.6183126  )
        11           O1  tau(  11) = (   1.3041449   1.4755329  12.6321863  )
        12           O1  tau(  12) = (   5.3089623   1.4871430  12.6059879  )
        13           Ti1 tau(  13) = (   6.5683417   3.1096339  12.6902584  )
        14           Ti1 tau(  14) = (   3.3171551   1.3050273  12.6602886  )
        15           O1  tau(  15) = (   6.5441980   0.0188234  14.6400653  )
        16           O1  tau(  16) = (   3.3305379   0.0354930  13.9003223  )
        17           O1  tau(  17) = (   4.5569828   1.5958521  16.0354584  )
        18           O1  tau(  18) = (   2.0254723   1.5302355  15.9749146  )
        19           Ti1 tau(  19) = (   3.2479256   3.0467527  15.6517507  )
        20           Ti1 tau(  20) = (   6.4631478   1.5268535  15.8454044  )
        21           O1  tau(  21) = (   3.2904802   0.0005063   4.7018136  )
        22           O1  tau(  22) = (   6.5640117   0.0389496  17.1838934  )
        23           O1  tau(  23) = (   1.3043587   1.4918075   6.0039043  )
        24           O1  tau(  24) = (   5.2767064   1.4903225   6.0039473  )
        25           Ti1 tau(  25) = (   0.0000382   5.9609847   6.0000000  )
        26           Ti1 tau(  26) = (   3.2902200   4.4714249   6.0002472  )
        27           O1  tau(  27) = (   0.0002396   2.9813036   7.9858123  )
        28           O1  tau(  28) = (   3.2902150   2.9813002   7.3038282  )
        29           O1  tau(  29) = (   4.5938453   4.4726049   9.2879030  )
        30           O1  tau(  30) = (   1.9864658   4.4711199   9.2879459  )
        31           Ti1 tau(  31) = (   3.2891106   5.8743827   9.1763621  )
        32           Ti1 tau(  32) = (   0.0006254   4.4649316   9.2693709  )
        33           O1  tau(  33) = (   3.2909858   3.0116154  11.2527998  )
        34           O1  tau(  34) = (   0.0092240   2.9805883  10.6323155  )
        35           O1  tau(  35) = (   1.2990260   4.4726261  12.6330189  )
        36           O1  tau(  36) = (   5.2946483   4.4606482  12.6134978  )
        37           Ti1 tau(  37) = (   0.0333947   0.1262769  12.6104238  )
        38           Ti1 tau(  38) = (   3.2900473   4.3917186  12.4086616  )
        39           O1  tau(  39) = (   6.5591047   2.9728048  14.6463482  )
        40           O1  tau(  40) = (   3.3071982   2.9909887  13.8663713  )
        41           O1  tau(  41) = (   4.5374868   4.4330245  16.1128471  )
        42           O1  tau(  42) = (   2.0037144   4.4952966  15.9584979  )
        43           Ti1 tau(  43) = (   3.1911318   0.0573200  16.2061952  )
        44           Ti1 tau(  44) = (   6.5299348   4.6473693  16.0672121  )
        45           O1  tau(  45) = (   3.2900926   2.9813045   4.7018136  )
        46           O1  tau(  46) = (   1.3039711   4.4726057   6.0039043  )
        47           O1  tau(  47) = (   5.2763189   4.4711207   6.0039473  )
        48           N1  tau(  48) = (   1.2509970   2.8552009  18.3001485  )
        49           N1  tau(  49) = (   0.1090600   2.9410495  17.4585617  )
        50           C1  tau(  50) = (   1.1117997   3.5424446  19.5707766  )
        51           H1  tau(  51) = (   0.2696121   3.1616043  20.1716506  )
        52           H1  tau(  52) = (   2.0314425   3.4001925  20.1392599  )
        53           H1  tau(  53) = (   0.9679189   4.6079482  19.3970517  )
        54           H1  tau(  54) = (   1.5306055   1.8840965  18.4148701  )
        55           H1  tau(  55) = (   5.8389999   2.9001924  18.0325661  )
        56           O1  tau(  56) = (   3.2324369   0.1001929  18.0579484  )
        57           H1  tau(  57) = (   3.9792659   5.6040190  18.4897823  )

     number of k points=    10  Fermi-Dirac smearing, width (Ry)=  0.0073
                       cart. coord. in units 2pi/alat
        k(    1) = (   0.0000000   0.0000000   0.0000000), wk =   0.1250000
        k(    2) = (   0.0000000   0.0419351   0.0000000), wk =   0.2500000
        k(    3) = (   0.0000000  -0.0838702   0.0000000), wk =   0.1250000
        k(    4) = (   0.0379955   0.0000049   0.0000000), wk =   0.2500000
        k(    5) = (   0.0379955   0.0419400   0.0000000), wk =   0.2500000
        k(    6) = (   0.0379955  -0.0838652   0.0000000), wk =   0.2500000
        k(    7) = (   0.0379955  -0.0419301   0.0000000), wk =   0.2500000
        k(    8) = (  -0.0759910  -0.0000099   0.0000000), wk =   0.1250000
        k(    9) = (  -0.0759910   0.0419252   0.0000000), wk =   0.2500000
        k(   10) = (  -0.0759910  -0.0838800   0.0000000), wk =   0.1250000

     Initial potential from superposition of free atoms

     starting charge  387.99913, renormalised to  404.00000

     negative rho (up, down):  1.467E-02 0.000E+00

     %%%%%%%%%%%%%%%%%%%%%%%%%%%%%%%%%%%%%%%%%%%%%%%%%%%%%%%%%%%%%%%%%%%%%%%%
     %                                                                      %
     % You are using vdW-DF, which was implemented by the Thonhauser group. %
     % Please cite the following two papers that made this development      %
     % possible and the two reviews that describe the various versions:     %
     %                                                                      %
     %   T. Thonhauser et al., PRL 115, 136402 (2015).                      %
     %   T. Thonhauser et al., PRB 76, 125112 (2007).                       %
     %   K. Berland et al., Rep. Prog. Phys. 78, 066501 (2015).             %
     %   D.C. Langreth et al., J. Phys.: Condens. Matter 21, 084203 (2009). %
     %                                                                      %
     %                                                                      %
     % If you are calculating the stress with vdW-DF, please also cite:     %
     %                                                                      %
     %   R. Sabatini et al., J. Phys.: Condens. Matter 24, 424209 (2012).   %
     %                                                                      %
     %%%%%%%%%%%%%%%%%%%%%%%%%%%%%%%%%%%%%%%%%%%%%%%%%%%%%%%%%%%%%%%%%%%%%%%%

     Adding external electric field

     Computed dipole along edir(3) :
        Dipole              -12.7315 Ry au,        -32.3602 Debye
        Dipole field         -0.0240 Ry au,

        Potential amp.        2.2272 Ry
        Total length         46.3494 bohr

     Starting wfcs are  306 atomic wfcs
  @ DRIVER MODE: Message from server: STATUS
  @ DRIVER MODE: Message from server: POSDATA
  @ DRIVER MODE: Reading and sharing cell
  @ DRIVER MODE: Reading and sharing positions
  @ DRIVER MODE: Received positions

     Self-consistent Calculation

     iteration #  1     ecut=    29.40 Ry     beta= 0.05
     Davidson diagonalization with overlap
     c_bands:  4 eigenvalues not converged
     c_bands:  5 eigenvalues not converged
     c_bands:  5 eigenvalues not converged
     c_bands:  5 eigenvalues not converged
     c_bands:  1 eigenvalues not converged
     c_bands:  3 eigenvalues not converged
     c_bands:  4 eigenvalues not converged
     c_bands:  4 eigenvalues not converged
     ethr =  1.00E-05,  avg # of iterations = 24.4

[...]

     total energy              =   -2345.46460517 Ry
     estimated scf accuracy    <    7121.52105599 Ry

     iteration #  2     ecut=    29.40 Ry     beta= 0.05
     Davidson diagonalization with overlap
     ethr =  1.00E-02,  avg # of iterations = 23.9

[...]

     iteration # 40     ecut=    29.40 Ry     beta= 0.05
     Davidson diagonalization with overlap
     c_bands:  1 eigenvalues not converged
     ethr =  5.01E-07,  avg # of iterations =  7.9

[...]

     total energy              =   -2975.25024145 Ry
     estimated scf accuracy    <       0.00000009 Ry

     iteration # 65     ecut=    29.40 Ry     beta= 0.05
     Davidson diagonalization with overlap
     ethr =  2.17E-11,  avg # of iterations =  4.7

     negative rho (up, down):  1.542E-02 0.000E+00

     Adding external electric field

     Computed dipole along edir(3) :
        Dipole                0.5377 Ry au,          1.3667 Debye
        Dipole field          0.0010 Ry au,

        Potential amp.       -0.0941 Ry
        Total length         46.3494 bohr

     End of self-consistent calculation

          k = 0.0000 0.0000 0.0000 ( 18029 PWs)   bands (ev):

   -56.4264 -56.3928 -55.7707 -55.7358 -55.5389 -55.4779 -55.3647 -55.2107
   -55.2065 -55.1382 -55.1027 -55.0894 -55.0554 -55.0504 -54.9833 -54.8651
   -32.8595 -32.7108 -32.6828 -32.5940 -32.5027 -32.4851 -32.2508 -32.0171
   -31.9901 -31.9672 -31.9144 -31.9089 -31.8793 -31.7670 -31.7550 -31.7447
   -31.7039 -31.6952 -31.6801 -31.6398 -31.6332 -31.6235 -31.5744 -31.5540
   -31.5140 -31.4818 -31.4797 -31.4292 -31.4171 -31.4098 -31.4051 -31.3853
   -31.3658 -31.3654 -31.3289 -31.3105 -31.3056 -31.2996 -31.2813 -31.2374
   -31.2332 -31.2167 -31.2037 -31.1833 -31.1134 -31.1093 -31.1050 -31.0583
   -16.6162 -16.5681 -16.1796 -16.1423 -15.8639 -15.8003 -15.7749 -15.7402
   -15.6785 -15.5548 -15.4374 -15.3918 -15.3840 -15.3357 -15.1763 -15.0790
   -14.9845 -14.9124 -14.9050 -14.8577 -14.8496 -14.8217 -14.8090 -14.8006
   -14.7346 -14.7001 -14.5919 -14.5478 -14.4509 -14.2555 -14.1783 -13.5869
   -13.4771 -11.5353  -8.6597  -5.0346  -4.2550  -4.1669  -3.7567  -3.6918
    -3.5217  -3.4451  -3.2922  -3.2614  -3.1752  -3.0723  -3.0105  -2.9534
    -2.9424  -2.8373  -2.6887  -2.6371  -2.6322  -2.6090  -2.6029  -2.5125
    -2.4437  -2.4099  -2.3427  -2.2725  -2.2411  -2.1555  -2.1501  -2.1242
    -2.1031  -2.0744  -2.0266  -1.9775  -1.9538  -1.9341  -1.8233  -1.7810
    -1.7543  -1.7097  -1.6772  -1.6031  -1.5675  -1.5205  -1.4435  -1.3828
    -1.2595  -1.2330  -1.1678  -1.1530  -1.1233  -0.9993  -0.9612  -0.9260
    -0.8653  -0.8317  -0.7665  -0.7428  -0.7111  -0.6730  -0.6645  -0.6238
    -0.5177  -0.4887  -0.3618  -0.3441  -0.2920  -0.2231  -0.2116  -0.1578
    -0.1355  -0.0994  -0.0538  -0.0187   0.0237   0.0925   0.1312   0.2188
     0.2622   0.3257   0.4205   0.4501   0.4723   0.5351   0.5524   0.5851
     0.6304   0.7248   0.7340   0.7946   0.8715   0.9151   0.9337   0.9942
     1.0542   1.0738   1.1718   1.1991   1.2109   1.2656   1.4738   1.5141
     1.6910   2.4481   2.8380   2.9847   3.2704   3.3020   3.5622   3.7972
     3.8272   3.8292   3.9118   4.0130

[...]

          k = 0.0380-0.0419 0.0000 ( 17876 PWs)   bands (ev):

[...]

          k =-0.0760-0.0000 0.0000 ( 17886 PWs)   bands (ev):

[...]

          k =-0.0760-0.0839 0.0000 ( 17948 PWs)   bands (ev):

   -56.4097 -56.4093 -55.7579 -55.7484 -55.5338 -55.4829 -55.3633 -55.2120
   -55.2018 -55.1426 -55.1005 -55.0729 -55.0718 -55.0489 -54.9856 -54.8665
   -32.6966 -32.6962 -32.6765 -32.6758 -32.5469 -32.5467 -32.0758 -32.0675
   -31.9520 -31.9446 -31.9408 -31.9384 -31.8369 -31.7981 -31.7611 -31.7528
   -31.7085 -31.7032 -31.6630 -31.6141 -31.5822 -31.5631 -31.5390 -31.4990
   -31.4866 -31.4836 -31.4335 -31.4317 -31.4185 -31.4177 -31.4164 -31.3956
   -31.3819 -31.3557 -31.3345 -31.3216 -31.3097 -31.2974 -31.2961 -31.2959
   -31.2590 -31.2580 -31.2402 -31.2346 -31.1903 -31.1756 -31.1146 -31.0897
   -16.5435 -16.1340 -15.9970 -15.9930 -15.9135 -15.9109 -15.7028 -15.6972
   -15.5265 -15.4974 -15.4230 -15.3047 -15.2529 -15.1964 -15.1887 -15.1461
   -15.0920 -15.0724 -15.0304 -15.0123 -14.9502 -14.9072 -14.8579 -14.8119
   -14.7935 -14.7544 -14.6334 -14.5841 -14.5776 -14.3899 -14.3594 -13.5810
   -13.5804 -11.5420  -8.6664  -5.0429  -4.2522  -3.7273  -3.4018  -3.0990
    -3.0809  -3.0354  -3.0263  -2.8107  -2.7900  -2.7647  -2.6915  -2.6787
    -2.6288  -2.6214  -2.5295  -2.4890  -2.4468  -2.4323  -2.4178  -2.3628
    -2.3358  -2.2911  -2.2876  -2.2524  -2.2175  -2.1839  -2.1589  -2.1175
    -2.0934  -2.0789  -2.0402  -2.0090  -1.9816  -1.9317  -1.9114  -1.8797
    -1.8698  -1.8481  -1.6913  -1.6372  -1.5811  -1.5390  -1.5082  -1.4424
    -1.4316  -1.3763  -1.3175  -1.2840  -1.2555  -1.2378  -1.1518  -1.1195
    -1.1029  -1.0676  -1.0258  -0.9648  -0.9070  -0.8582  -0.7817  -0.6870
    -0.6580  -0.6408  -0.6135  -0.6058  -0.5639  -0.5124  -0.4249  -0.3729
    -0.3203  -0.3033  -0.2600  -0.2540  -0.2245  -0.1866  -0.1169   0.0062
     0.0711   0.1077   0.1624   0.2177   0.2748   0.3393   0.3787   0.4636
     0.5422   0.5646   0.6484   0.6821   0.8075   0.8497   0.9650   1.0057
     1.0448   1.0886   1.1581   1.2553   1.2801   1.3249   1.3266   1.3434
     1.3578   2.4735   3.4047   3.4077   3.4582   3.4657   3.7401   3.7482
     3.8818   3.8836   4.0080   4.0207

     the Fermi energy is     2.7193 ev

!    total energy              =   -2975.25026922 Ry
     estimated scf accuracy    <       0.00000004 Ry
     smearing contrib. (-TS)   =      -0.00755055 Ry
     internal energy E=F+TS    =   -2975.24271867 Ry

     The total energy is F=E-TS. E is the sum of the following terms:
     one-electron contribution =  -23773.58010581 Ry
     hartree contribution      =   11982.42826598 Ry
     xc contribution           =    -494.80281527 Ry
     ewald contribution        =    9310.71139079 Ry
     electric field correction =       0.00054564 Ry

     convergence has been achieved in  65 iterations

     Forces acting on atoms (cartesian axes, Ry/au):

     atom    1 type  1   force =     0.00001797   -0.00034922    0.11622183
     atom    2 type  1   force =    -0.00014704    0.00031512   -0.16022963
     atom    3 type  2   force =     0.00004413    0.00032722   -0.05317049
     atom    4 type  2   force =     0.00006978   -0.00041525    0.02650084
     atom    5 type  2   force =    -0.00502361   -0.00225844   -0.01001842
     atom    6 type  2   force =     0.00670433   -0.00183159   -0.01075040
     atom    7 type  1   force =    -0.00038763   -0.00640048    0.04569801
     atom    8 type  1   force =     0.00057492    0.01079334    0.08182865
     atom    9 type  2   force =    -0.00001636    0.00035858   -0.00016339
     atom   10 type  2   force =    -0.00140206    0.00154983   -0.05454355
     atom   11 type  2   force =     0.00072190    0.00028399   -0.00022637
     atom   12 type  2   force =    -0.00114372    0.00021037    0.00019500
     atom   13 type  1   force =    -0.00022317   -0.00091822    0.00035117
     atom   14 type  1   force =     0.00047160    0.00119239   -0.00024432
     atom   15 type  2   force =    -0.00001258   -0.00051741    0.00044426
     atom   16 type  2   force =    -0.00031351    0.00065149    0.00076348
     atom   17 type  2   force =    -0.00079752   -0.00065086    0.00050855
     atom   18 type  2   force =     0.00068489   -0.00011877   -0.00001568
     atom   19 type  1   force =    -0.00082658   -0.00053556   -0.00049424
     atom   20 type  1   force =     0.00056215   -0.00035348   -0.00035951
     atom   21 type  2   force =     0.00007492    0.00015073    0.09918173
     atom   22 type  2   force =     0.00013964   -0.00042757    0.00078613
     atom   23 type  2   force =    -0.07949046   -0.00002258   -0.03162586
     atom   24 type  2   force =     0.07940932    0.00040746   -0.03166075
     atom   25 type  1   force =     0.00017403   -0.00036643    0.11647580
     atom   26 type  1   force =    -0.00009048   -0.00141741   -0.16036350
     atom   27 type  2   force =     0.00013379   -0.00011759   -0.05155558
     atom   28 type  2   force =     0.00002977    0.00129628    0.02169191
     atom   29 type  2   force =    -0.00383908    0.00422835   -0.01241642
     atom   30 type  2   force =     0.00542103    0.00484111   -0.01300820
     atom   31 type  1   force =    -0.00015886    0.00314194    0.03067113
     atom   32 type  1   force =     0.00051156   -0.01302237    0.08269569
     atom   33 type  2   force =     0.00017827   -0.00051057    0.00022715
     atom   34 type  2   force =    -0.00049854    0.00168508   -0.06790998
     atom   35 type  2   force =    -0.00047104   -0.00065162   -0.00009558
     atom   36 type  2   force =     0.00009064   -0.00003614   -0.00001042
     atom   37 type  1   force =    -0.00011667   -0.00120716   -0.00019615
     atom   38 type  1   force =     0.00047320   -0.00029281    0.00013884
     atom   39 type  2   force =     0.00012218    0.00031372    0.00001731
     atom   40 type  2   force =    -0.00011251   -0.00024975    0.00027514
     atom   41 type  2   force =     0.00110367    0.00014727    0.00042831
     atom   42 type  2   force =    -0.00111858   -0.00056368    0.00000894
     atom   43 type  1   force =    -0.00039881   -0.00072147   -0.00042523
     atom   44 type  1   force =     0.00059688    0.00061053   -0.00049456
     atom   45 type  2   force =     0.00007337   -0.00002702    0.09900369
     atom   46 type  2   force =    -0.07950537   -0.00001371   -0.03164211
     atom   47 type  2   force =     0.07944169    0.00043225   -0.03166377
     atom   48 type  3   force =    -0.00080744    0.00035050   -0.00061040
     atom   49 type  3   force =    -0.00104203    0.00024763   -0.00010910
     atom   50 type  4   force =    -0.00053250    0.00081179   -0.00009791
     atom   51 type  5   force =    -0.00113965    0.00017045   -0.00018864
     atom   52 type  5   force =    -0.00000784   -0.00043138    0.00020034
     atom   53 type  5   force =     0.00053032    0.00021337   -0.00057968
     atom   54 type  5   force =    -0.00009226   -0.00163386    0.00008943
     atom   55 type  5   force =    -0.00051200    0.00012620    0.00034177
     atom   56 type  2   force =     0.01291935   -0.00684048    0.00666631
     atom   57 type  5   force =    -0.01104739    0.00804590   -0.00654157

     Total force =     0.399678     Total SCF correction =     0.000450
  @ DRIVER MODE: Message from server: STATUS
  @ DRIVER MODE: Message from server: GETFORCE
  @ DRIVER MODE: Returning v,forces,stress,ensemble

     Writing output data file ./calc.save/
  @ DRIVER MODE: Message from server: EXIT
  @ DRIVE MODE: Exiting

     General routines

     Parallel routines

   This run was terminated on:  17:47:44  23Sep2021

   JOB DONE.