     Program PWSCF v.6.7GPU starts on  9Sep2021 at 22:18:11

     R & G space division:  proc/nbgrp/npool/nimage =      10
     Reading input from /storage/home/hcoda1/3/ntian30/research/carbon/CxH_vib/CH3_calc/ads_slab/CH3N2OH_l/out_0006/pw.inp
Warning: card &CELL ignored
Warning: card   CELL_DYNAMICS='IPI', ignored
Warning: card / ignored

     Current dimensions of program PWSCF are:
     Max number of different atomic species (ntypx) = 10
     Max number of k-points (npk) =  40000
     Max angular momentum in pseudopotentials (lmaxx) =  3
     Presently no symmetry can be used with electric field

     Message from routine cell_base_init:
     DEPRECATED: use true lattice parameter, not A to a.u. conversion factor

     IMPORTANT: XC functional enforced from input :
     Exchange-correlation= BEEF-VDW
                           (   1   4  43  14   2   0   0)
     Any further DFT definition will be discarded
     Please, verify this is what you really want

  @ DRIVER MODE: Connecting to
 qe_1139763_2779712.sched-torque.pace.gatech.eduruz0x8ek_scratch
  using UNIX socket
  @ DRIVER MODE: Message from server: STATUS
  @ DRIVER MODE: Message from server: INIT
  @ DRIVER MODE: Receiving replica           0          -1
  @ DRIVER MODE: Receiving encoded integer          25
  @ DRIVER MODE:  SCF:  T  FORCE:  T  STRESS:  F  VC:  F  ENSEMBLE:  F
  @ DRIVER MODE:  SCF:  T  FORCE:  T  STRESS:  F  VC:  F  ENSEMBLE:  F

     Using Slab Decomposition

     bravais-lattice index     =            0
     lattice parameter (alat)  =       1.8897  a.u.
     unit-cell volume          =    6658.9804 (a.u.)^3
     number of atoms/cell      =           55
     number of atomic types    =            5
     number of electrons       =       402.00
     number of Kohn-Sham states=          211
     kinetic-energy cutoff     =      29.3995  Ry
     charge density cutoff     =     293.9946  Ry
     scf convergence threshold =      7.3E-08
     mixing beta               =       0.0500
     number of iterations used =            8  plain     mixing
     Exchange-correlation= BEEF-VDW
                           (   1   4  43  14   2   0   0)

     celldm(1)=   1.889726  celldm(2)=   0.000000  celldm(3)=   0.000000
     celldm(4)=   0.000000  celldm(5)=   0.000000  celldm(6)=   0.000000

     crystal axes: (cart. coord. in units of alat)
               a(1) = (   6.579727   0.000000   0.000000 )
               a(2) = (  -0.000775   5.961596   0.000000 )
               a(3) = (   0.000000   0.000000  25.155947 )

     reciprocal axes: (cart. coord. in units 2 pi/alat)
               b(1) = (  0.151982  0.000020  0.000000 )
               b(2) = (  0.000000  0.167740  0.000000 )
               b(3) = (  0.000000  0.000000  0.039752 )

     PseudoPot. # 1 for Ti read from file:
     /storage/coda1/p-amedford6/0/shared/rich_project_chbe-medford/medford-share/data/pseudos_module/espresso/nninc/pbe/van/Ti.UPF
     MD5 check sum: 8e4df49b7f0d34bbd5052bf3f5ea0213
     Pseudo is Ultrasoft, Zval = 12.0
     Generated by new atomic code, or converted to UPF format
     Using radial grid of  851 points,  6 beta functions with:
                l(1) =   0
                l(2) =   0
                l(3) =   1
                l(4) =   1
                l(5) =   2
                l(6) =   2
     Q(r) pseudized with  8 coefficients,  rinner =    1.000   1.000   1.000
                                                       1.000   1.000

     PseudoPot. # 2 for O  read from file:
     /storage/coda1/p-amedford6/0/shared/rich_project_chbe-medford/medford-share/data/pseudos_module/espresso/nninc/pbe/van/O.UPF
     MD5 check sum: 78c19812648e8988a0fe644b0f25305e
     Pseudo is Ultrasoft, Zval =  6.0
     Generated by new atomic code, or converted to UPF format
     Using radial grid of  737 points,  4 beta functions with:
                l(1) =   0
                l(2) =   0
                l(3) =   1
                l(4) =   1
     Q(r) pseudized with  8 coefficients,  rinner =    0.800   0.800   0.800

     PseudoPot. # 3 for N  read from file:
     /storage/coda1/p-amedford6/0/shared/rich_project_chbe-medford/medford-share/data/pseudos_module/espresso/nninc/pbe/van/N.UPF
     MD5 check sum: 90d10febe142ad51ac9d5be1deb811c4
     Pseudo is Ultrasoft, Zval =  5.0
     Generated by new atomic code, or converted to UPF format
     Using radial grid of  729 points,  4 beta functions with:
                l(1) =   0
                l(2) =   0
                l(3) =   1
                l(4) =   1
     Q(r) pseudized with  8 coefficients,  rinner =    0.800   0.800   0.800

     PseudoPot. # 4 for C  read from file:
     /storage/coda1/p-amedford6/0/shared/rich_project_chbe-medford/medford-share/data/pseudos_module/espresso/nninc/pbe/van/C.UPF
     MD5 check sum: 1a69bf6b8db32088f5b2163dbdb77a27
     Pseudo is Ultrasoft, Zval =  4.0
     Generated by new atomic code, or converted to UPF format
     Using radial grid of  721 points,  4 beta functions with:
                l(1) =   0
                l(2) =   0
                l(3) =   1
                l(4) =   1
     Q(r) pseudized with  8 coefficients,  rinner =    0.800   0.800   0.800

     PseudoPot. # 5 for H  read from file:
     /storage/coda1/p-amedford6/0/shared/rich_project_chbe-medford/medford-share/data/pseudos_module/espresso/nninc/pbe/van/H.UPF
     MD5 check sum: b5ee9d7bfd3a09ee7748110bda690ff7
     Pseudo is Ultrasoft, Zval =  1.0
     Generated by new atomic code, or converted to UPF format
     Using radial grid of  615 points,  1 beta functions with:
                l(1) =   0
     Q(r) pseudized with  8 coefficients,  rinner =    0.800

     atomic species   valence    mass     pseudopotential
        Ti1           12.00    47.86700     Ti( 1.00)
        O1             6.00    15.99900     O ( 1.00)
        N1             5.00    14.00700     N ( 1.00)
        C1             4.00    12.01100     C ( 1.00)
        H1             1.00     1.00800     H ( 1.00)

     No symmetry found

   Cartesian axes

     site n.     atom                  positions (alat units)
         1           Ti1 tau(   1) = (   0.0004258   2.9801865   6.0000000  )
         2           Ti1 tau(   2) = (   3.2906075   1.4906267   6.0002472  )
         3           O1  tau(   3) = (   0.0006271   0.0005054   7.9858123  )
         4           O1  tau(   4) = (   3.2906025   0.0005020   7.3038282  )
         5           O1  tau(   5) = (   4.5942328   1.4918067   9.2879030  )
         6           O1  tau(   6) = (   1.9868534   1.4903216   9.2879459  )
         7           Ti1 tau(   7) = (   3.2907910   2.8959150   9.1758416  )
         8           Ti1 tau(   8) = (   0.0015273   1.4827037   9.2680791  )
         9           O1  tau(   9) = (   3.3074573   5.9346435  11.2963613  )
        10           O1  tau(  10) = (   0.0116148   5.9584955  10.6183126  )
        11           O1  tau(  11) = (   1.3055178   1.4819292  12.6272398  )
        12           O1  tau(  12) = (   5.3158762   1.4804127  12.6185516  )
        13           Ti1 tau(  13) = (   0.0186029   2.8424156  12.6464711  )
        14           Ti1 tau(  14) = (   3.3167612   1.2924093  12.6669032  )
        15           O1  tau(  15) = (   0.0012442   5.9356390  14.6370070  )
        16           O1  tau(  16) = (   3.3127944   0.0275565  13.9018093  )
        17           O1  tau(  17) = (   4.5765900   1.5157235  16.0894388  )
        18           O1  tau(  18) = (   2.0422450   1.5317946  16.0210879  )
        19           Ti1 tau(  19) = (   3.3088329   2.9810726  15.6636066  )
        20           Ti1 tau(  20) = (   0.0236821   1.4688588  15.8133175  )
        21           O1  tau(  21) = (   3.2904802   0.0005063   4.7018136  )
        22           O1  tau(  22) = (   0.0676014   5.9495730  17.1734943  )
        23           O1  tau(  23) = (   1.3043587   1.4918075   6.0039043  )
        24           O1  tau(  24) = (   5.2767064   1.4903225   6.0039473  )
        25           Ti1 tau(  25) = (   0.0000382   5.9609847   6.0000000  )
        26           Ti1 tau(  26) = (   3.2902200   4.4714249   6.0002472  )
        27           O1  tau(  27) = (   0.0002396   2.9813036   7.9858123  )
        28           O1  tau(  28) = (   3.2902150   2.9813002   7.3038282  )
        29           O1  tau(  29) = (   4.5938453   4.4726049   9.2879030  )
        30           O1  tau(  30) = (   1.9864658   4.4711199   9.2879459  )
        31           Ti1 tau(  31) = (   3.2891106   5.8743827   9.1763621  )
        32           Ti1 tau(  32) = (   0.0006254   4.4649316   9.2693709  )
        33           O1  tau(  33) = (   3.3041982   3.0170362  11.2630756  )
        34           O1  tau(  34) = (   0.0092240   2.9805883  10.6323155  )
        35           O1  tau(  35) = (   1.3098214   4.4601496  12.6289764  )
        36           O1  tau(  36) = (   5.3139316   4.4642116  12.6209765  )
        37           Ti1 tau(  37) = (   0.0286784   5.8202107  12.5681754  )
        38           Ti1 tau(  38) = (   3.3194384   4.3879401  12.4232525  )
        39           O1  tau(  39) = (   6.5763552   2.9401740  14.6754030  )
        40           O1  tau(  40) = (   3.3328261   2.9762691  13.8808942  )
        41           O1  tau(  41) = (   4.5658580   4.4380642  16.1332302  )
        42           O1  tau(  42) = (   2.0359873   4.4031365  16.0422930  )
        43           Ti1 tau(  43) = (   3.3255947   5.9578944  16.3175027  )
        44           Ti1 tau(  44) = (   0.0374668   4.6230282  16.0307208  )
        45           O1  tau(  45) = (   3.2900926   2.9813045   4.7018136  )
        46           O1  tau(  46) = (   1.3039711   4.4726057   6.0039043  )
        47           O1  tau(  47) = (   5.2763189   4.4711207   6.0039473  )
        48           N1  tau(  48) = (   0.1245995   2.6662279  18.6773576  )
        49           N1  tau(  49) = (   0.0476076   2.8693738  17.4835824  )
        50           C1  tau(  50) = (   0.1295945   3.7926219  19.6405614  )
        51           H1  tau(  51) = (   6.3015398   4.7065717  19.2118634  )
        52           H1  tau(  52) = (   6.1525190   3.4626129  20.5140504  )
        53           H1  tau(  53) = (   1.1733748   3.9370966  19.9287387  )
        54           O1  tau(  54) = (   3.0981659   0.0197753  18.1302257  )
        55           H1  tau(  55) = (   2.1972620   0.2293568  18.4309947  )

     number of k points=    10  Fermi-Dirac smearing, width (Ry)=  0.0073
                       cart. coord. in units 2pi/alat
        k(    1) = (   0.0000000   0.0000000   0.0000000), wk =   0.1250000
        k(    2) = (   0.0000000   0.0419351   0.0000000), wk =   0.2500000
        k(    3) = (   0.0000000  -0.0838702   0.0000000), wk =   0.1250000
        k(    4) = (   0.0379955   0.0000049   0.0000000), wk =   0.2500000
        k(    5) = (   0.0379955   0.0419400   0.0000000), wk =   0.2500000
        k(    6) = (   0.0379955  -0.0838652   0.0000000), wk =   0.2500000
        k(    7) = (   0.0379955  -0.0419301   0.0000000), wk =   0.2500000
        k(    8) = (  -0.0759910  -0.0000099   0.0000000), wk =   0.1250000
        k(    9) = (  -0.0759910   0.0419252   0.0000000), wk =   0.2500000
        k(   10) = (  -0.0759910  -0.0838800   0.0000000), wk =   0.1250000

     Initial potential from superposition of free atoms

     starting charge  385.99915, renormalised to  402.00000

     negative rho (up, down):  1.432E-02 0.000E+00

     %%%%%%%%%%%%%%%%%%%%%%%%%%%%%%%%%%%%%%%%%%%%%%%%%%%%%%%%%%%%%%%%%%%%%%%%
     %                                                                      %
     % You are using vdW-DF, which was implemented by the Thonhauser group. %
     % Please cite the following two papers that made this development      %
     % possible and the two reviews that describe the various versions:     %
     %                                                                      %
     %   T. Thonhauser et al., PRL 115, 136402 (2015).                      %
     %   T. Thonhauser et al., PRB 76, 125112 (2007).                       %
     %   K. Berland et al., Rep. Prog. Phys. 78, 066501 (2015).             %
     %   D.C. Langreth et al., J. Phys.: Condens. Matter 21, 084203 (2009). %
     %                                                                      %
     %                                                                      %
     % If you are calculating the stress with vdW-DF, please also cite:     %
     %                                                                      %
     %   R. Sabatini et al., J. Phys.: Condens. Matter 24, 424209 (2012).   %
     %                                                                      %
     %%%%%%%%%%%%%%%%%%%%%%%%%%%%%%%%%%%%%%%%%%%%%%%%%%%%%%%%%%%%%%%%%%%%%%%%

     Adding external electric field

     Computed dipole along edir(3) :
        Dipole              -11.9963 Ry au,        -30.4915 Debye
        Dipole field         -0.0226 Ry au,

        Potential amp.        2.0986 Ry
        Total length         46.3494 bohr

     Starting wfcs are  304 atomic wfcs
  @ DRIVER MODE: Message from server: STATUS
  @ DRIVER MODE: Message from server: POSDATA
  @ DRIVER MODE: Reading and sharing cell
  @ DRIVER MODE: Reading and sharing positions
  @ DRIVER MODE: Received positions

     Self-consistent Calculation

     iteration #  1     ecut=    29.40 Ry     beta= 0.05
     Davidson diagonalization with overlap
     c_bands:  3 eigenvalues not converged
     c_bands:  5 eigenvalues not converged
     c_bands:  5 eigenvalues not converged
     c_bands:  4 eigenvalues not converged
     c_bands:  1 eigenvalues not converged
     c_bands:  4 eigenvalues not converged
     c_bands:  2 eigenvalues not converged
     c_bands:  5 eigenvalues not converged
     c_bands:  4 eigenvalues not converged
     ethr =  1.00E-05,  avg # of iterations = 23.7

[...]

     total energy              =   -2400.49925938 Ry
     estimated scf accuracy    <    6448.85527147 Ry

     iteration #  2     ecut=    29.40 Ry     beta= 0.05
     Davidson diagonalization with overlap
     ethr =  1.00E-02,  avg # of iterations = 22.6

[...]

     iteration # 60     ecut=    29.40 Ry     beta= 0.05
     Davidson diagonalization with overlap
     c_bands:  1 eigenvalues not converged
     ethr =  7.47E-07,  avg # of iterations =  9.9

[...]

     total energy              =   -2972.75591444 Ry
     estimated scf accuracy    <       0.00000009 Ry

     iteration # 83     ecut=    29.40 Ry     beta= 0.05
     Davidson diagonalization with overlap
     ethr =  1.98E-11,  avg # of iterations =  2.5

     negative rho (up, down):  1.510E-02 0.000E+00

     Adding external electric field

     Computed dipole along edir(3) :
        Dipole                0.5499 Ry au,          1.3978 Debye
        Dipole field          0.0010 Ry au,

        Potential amp.       -0.0962 Ry
        Total length         46.3494 bohr

     End of self-consistent calculation

          k = 0.0000 0.0000 0.0000 ( 18029 PWs)   bands (ev):

   -56.2913 -56.2576 -55.8804 -55.8454 -55.6230 -55.5881 -55.5651 -55.4081
   -55.3599 -55.3413 -55.2371 -55.1802 -55.0745 -55.0550 -55.0370 -55.0210
   -32.7412 -32.5838 -32.5570 -32.4498 -32.3654 -32.3600 -32.3572 -32.1047
   -32.0997 -32.0752 -32.0246 -32.0194 -31.9901 -31.9009 -31.8966 -31.8511
   -31.8455 -31.8438 -31.8123 -31.7861 -31.7685 -31.7501 -31.7277 -31.7126
   -31.6870 -31.6786 -31.6204 -31.5673 -31.5526 -31.5487 -31.5361 -31.5173
   -31.4960 -31.4511 -31.4360 -31.4138 -31.3888 -31.3885 -31.3651 -31.3328
   -31.3081 -31.2850 -31.2750 -31.2699 -31.2675 -31.2543 -31.1855 -31.0735
   -18.7374 -16.5807 -16.3679 -16.2379 -15.9953 -15.8559 -15.7740 -15.7198
   -15.6985 -15.5987 -15.5483 -15.4666 -15.3768 -15.3118 -15.2755 -15.2593
   -15.1784 -15.1099 -15.0591 -15.0353 -14.9955 -14.9855 -14.9616 -14.9007
   -14.8838 -14.8628 -14.8187 -14.6855 -14.6311 -14.3305 -14.3053 -13.5526
   -13.4405 -11.5299  -6.9547  -4.3900  -4.0912  -4.0792  -3.9841  -3.8678
    -3.7893  -3.5822  -3.4576  -3.2814  -3.2440  -3.1561  -2.9965  -2.9896
    -2.9394  -2.8664  -2.7838  -2.7120  -2.6720  -2.6606  -2.5558  -2.5162
    -2.5067  -2.4916  -2.4410  -2.4146  -2.3227  -2.2804  -2.2642  -2.2274
    -2.1944  -2.1423  -2.1293  -2.0891  -2.0667  -2.0013  -1.9346  -1.8930
    -1.8519  -1.7852  -1.7423  -1.6887  -1.6350  -1.6034  -1.5934  -1.5671
    -1.5249  -1.3360  -1.2975  -1.2579  -1.2535  -1.1111  -1.0601  -1.0268
    -0.9652  -0.9435  -0.8598  -0.8228  -0.8026  -0.7851  -0.7173  -0.7115
    -0.6656  -0.6345  -0.4520  -0.4182  -0.3513  -0.3324  -0.2724  -0.2358
    -0.2027  -0.1667  -0.1312  -0.0818  -0.0683  -0.0100   0.0388   0.0616
     0.2035   0.2367   0.3175   0.3277   0.3336   0.3566   0.4286   0.4655
     0.5374   0.5832   0.5917   0.6497   0.7322   0.7710   0.8937   0.9629
     0.9696   1.0033   1.0297   1.0942   1.2005   1.5011   1.5167   1.5553
     2.6855   2.9355   3.0663   3.2157   3.3671   3.4754   3.8005   3.8028
     3.8371   3.8887   3.9838

[...]

          k = 0.0380-0.0419 0.0000 ( 17876 PWs)   bands (ev):

[...]

          k =-0.0760-0.0000 0.0000 ( 17886 PWs)   bands (ev):

[...]

          k =-0.0760-0.0839 0.0000 ( 17948 PWs)   bands (ev):

   -56.2744 -56.2744 -55.8678 -55.8578 -55.6175 -55.5873 -55.5705 -55.4008
   -55.3670 -55.3419 -55.2354 -55.1782 -55.0761 -55.0388 -55.0385 -55.0374
   -32.5694 -32.5693 -32.5573 -32.5571 -32.4018 -32.4016 -32.1870 -32.1779
   -32.0614 -32.0528 -32.0512 -32.0464 -31.9262 -31.8889 -31.8541 -31.8396
   -31.8383 -31.8233 -31.8108 -31.7977 -31.7844 -31.7310 -31.7092 -31.7029
   -31.6375 -31.6363 -31.6248 -31.6061 -31.5994 -31.5988 -31.5533 -31.5496
   -31.4879 -31.4420 -31.4217 -31.4178 -31.3873 -31.3784 -31.3776 -31.3398
   -31.3362 -31.2884 -31.2845 -31.2712 -31.2666 -31.2652 -31.2283 -31.2274
   -18.7343 -16.3523 -15.9912 -15.9831 -15.8529 -15.8476 -15.6740 -15.6627
   -15.6040 -15.5645 -15.5255 -15.4996 -15.3708 -15.3441 -15.2745 -15.2446
   -15.2177 -15.1890 -15.1619 -15.1460 -15.1115 -15.0696 -15.0262 -15.0154
   -14.9736 -14.9719 -14.8506 -14.7655 -14.6953 -14.5026 -14.4658 -13.5439
   -13.5433 -11.5280  -6.9692  -4.3366  -4.0483  -4.0197  -3.8353  -3.1534
    -3.1128  -2.9868  -2.9628  -2.8824  -2.8418  -2.7777  -2.7165  -2.6991
    -2.6854  -2.6727  -2.6049  -2.5758  -2.5654  -2.5307  -2.5147  -2.5068
    -2.4649  -2.3997  -2.3886  -2.3650  -2.3588  -2.3539  -2.2783  -2.2181
    -2.2157  -2.1846  -2.1423  -2.1123  -2.0402  -2.0254  -1.9986  -1.9638
    -1.9272  -1.8272  -1.7850  -1.7268  -1.6687  -1.6218  -1.5874  -1.5774
    -1.5164  -1.4786  -1.3657  -1.3416  -1.3206  -1.2826  -1.2387  -1.1865
    -1.1321  -1.1066  -1.0641  -1.0563  -1.0392  -1.0150  -0.8968  -0.8584
    -0.7647  -0.7280  -0.7031  -0.6874  -0.6427  -0.6349  -0.5605  -0.5385
    -0.4987  -0.4783  -0.4082  -0.4049  -0.3691  -0.2991  -0.2008  -0.0437
     0.0583   0.0910   0.1202   0.1413   0.1842   0.2872   0.2988   0.3772
     0.4457   0.4603   0.4753   0.5045   0.6580   0.7258   0.8406   0.8657
     0.9042   0.9546   1.0166   1.0831   1.3612   1.3686   1.3714   1.3720
     2.6975   3.4867   3.4891   3.5180   3.5291   3.7190   3.7284   3.7369
     3.8854   3.9135   3.9805

     the Fermi energy is     2.8706 ev

!    total energy              =   -2972.75592254 Ry
     estimated scf accuracy    <       0.00000005 Ry
     smearing contrib. (-TS)   =      -0.01274633 Ry
     internal energy E=F+TS    =   -2972.74317621 Ry

     The total energy is F=E-TS. E is the sum of the following terms:
     one-electron contribution =  -23633.96178116 Ry
     hartree contribution      =   11909.96811724 Ry
     xc contribution           =    -493.06981141 Ry
     ewald contribution        =    9244.31972842 Ry
     electric field correction =       0.00057070 Ry

     convergence has been achieved in  83 iterations

     Forces acting on atoms (cartesian axes, Ry/au):

     atom    1 type  1   force =    -0.00001537   -0.00035827    0.10701524
     atom    2 type  1   force =    -0.00005630    0.00020475   -0.16480030
     atom    3 type  2   force =     0.00005603    0.00002057   -0.03839692
     atom    4 type  2   force =     0.00006515   -0.00062815    0.03432958
     atom    5 type  2   force =    -0.00362468   -0.00218419   -0.00725785
     atom    6 type  2   force =     0.00564874   -0.00176951   -0.00693391
     atom    7 type  1   force =     0.00025397   -0.00518701    0.03758353
     atom    8 type  1   force =    -0.00001972    0.01089548    0.05927440
     atom    9 type  2   force =    -0.00043952    0.00027136   -0.00118428
     atom   10 type  2   force =    -0.00076924   -0.00038621   -0.04481488
     atom   11 type  2   force =     0.00025227   -0.00021934    0.00017813
     atom   12 type  2   force =    -0.00059492   -0.00055677   -0.00017659
     atom   13 type  1   force =     0.00004131    0.00029328    0.00127825
     atom   14 type  1   force =    -0.00025560   -0.00000459    0.00099561
     atom   15 type  2   force =    -0.00018043   -0.00026218   -0.00167514
     atom   16 type  2   force =     0.00032758    0.00011500    0.00015252
     atom   17 type  2   force =    -0.00002089    0.00036418   -0.00010192
     atom   18 type  2   force =     0.00037164    0.00045358   -0.00073691
     atom   19 type  1   force =    -0.00048387   -0.00048725    0.00022114
     atom   20 type  1   force =     0.00016525    0.00014495    0.00238964
     atom   21 type  2   force =     0.00004355    0.00021395    0.10031540
     atom   22 type  2   force =    -0.00000725   -0.00097912   -0.00043258
     atom   23 type  2   force =    -0.07700598   -0.00000561   -0.03004253
     atom   24 type  2   force =     0.07687355    0.00042190   -0.03009869
     atom   25 type  1   force =     0.00005274   -0.00041709    0.10704789
     atom   26 type  1   force =    -0.00017220   -0.00138109   -0.16515935
     atom   27 type  2   force =     0.00012478   -0.00064126   -0.03683660
     atom   28 type  2   force =     0.00003861    0.00112336    0.02990711
     atom   29 type  2   force =    -0.00200575    0.00418524   -0.01023179
     atom   30 type  2   force =     0.00407242    0.00463237   -0.00980968
     atom   31 type  1   force =     0.00024391    0.00320951    0.02310982
     atom   32 type  1   force =    -0.00015690   -0.01397114    0.05931214
     atom   33 type  2   force =    -0.00014280   -0.00126631   -0.00067776
     atom   34 type  2   force =    -0.00070957   -0.00005995   -0.05526461
     atom   35 type  2   force =    -0.00107733    0.00023446    0.00007362
     atom   36 type  2   force =     0.00052958    0.00001310   -0.00035815
     atom   37 type  1   force =    -0.00013480   -0.00078416    0.00074473
     atom   38 type  1   force =    -0.00056184   -0.00002992    0.00052527
     atom   39 type  2   force =    -0.00031969    0.00051409   -0.00060400
     atom   40 type  2   force =    -0.00024260   -0.00044375   -0.00040003
     atom   41 type  2   force =    -0.00099749    0.00005869   -0.00031691
     atom   42 type  2   force =    -0.00007816    0.00013094    0.00038292
     atom   43 type  1   force =     0.00074324    0.00100448    0.00044892
     atom   44 type  1   force =    -0.00015267    0.00114408    0.00207128
     atom   45 type  2   force =     0.00003474    0.00000047    0.10012333
     atom   46 type  2   force =    -0.07704471    0.00003324   -0.03007267
     atom   47 type  2   force =     0.07693504    0.00045915   -0.03013438
     atom   48 type  3   force =    -0.00131835    0.00134675   -0.02819441
     atom   49 type  3   force =     0.00156353   -0.00340193    0.02396235
     atom   50 type  4   force =    -0.00016789    0.00242070    0.00148057
     atom   51 type  5   force =    -0.00029073   -0.00034522    0.00030321
     atom   52 type  5   force =    -0.00022843    0.00075128    0.00064692
     atom   53 type  5   force =     0.00012179    0.00059914    0.00107834
     atom   54 type  2   force =     0.00111826   -0.00043309   -0.00145372
     atom   55 type  5   force =    -0.00040199    0.00094307    0.00121471

     Total force =     0.381973     Total SCF correction =     0.000773
  @ DRIVER MODE: Message from server: STATUS
  @ DRIVER MODE: Message from server: GETFORCE
  @ DRIVER MODE: Returning v,forces,stress,ensemble

     Writing output data file ./calc.save/
  @ DRIVER MODE: Message from server: EXIT
  @ DRIVE MODE: Exiting

     General routines

     Parallel routines

   This run was terminated on:  22:39: 8   9Sep2021

   JOB DONE.