     Program PWSCF v.6.7GPU starts on  5Oct2021 at 20:26:23

     R & G space division:  proc/nbgrp/npool/nimage =       8
     Reading input from /storage/home/hcoda1/3/ntian30/research/carbon/CxH_vib/pristine/ads_slab/CH2N2_a/out_0026/pw.inp
Warning: card &CELL ignored
Warning: card   CELL_DYNAMICS='IPI', ignored
Warning: card / ignored

     Current dimensions of program PWSCF are:
     Max number of different atomic species (ntypx) = 10
     Max number of k-points (npk) =  40000
     Max angular momentum in pseudopotentials (lmaxx) =  3
     Presently no symmetry can be used with electric field

     Message from routine cell_base_init:
     DEPRECATED: use true lattice parameter, not A to a.u. conversion factor

     IMPORTANT: XC functional enforced from input :
     Exchange-correlation= BEEF-VDW
                           (   1   4  43  14   2   0   0)
     Any further DFT definition will be discarded
     Please, verify this is what you really want

  @ DRIVER MODE: Connecting to
 qe_1139763_3091261.sched-torque.pace.gatech.edugrtn0a4i_scratch
  using UNIX socket
  @ DRIVER MODE: Message from server: STATUS
  @ DRIVER MODE: Message from server: INIT
  @ DRIVER MODE: Receiving replica           0          -1
  @ DRIVER MODE: Receiving encoded integer          25
  @ DRIVER MODE:  SCF:  T  FORCE:  T  STRESS:  F  VC:  F  ENSEMBLE:  F
  @ DRIVER MODE:  SCF:  T  FORCE:  T  STRESS:  F  VC:  F  ENSEMBLE:  F

     Using Slab Decomposition

     bravais-lattice index     =            0
     lattice parameter (alat)  =       1.8897  a.u.
     unit-cell volume          =    6658.9804 (a.u.)^3
     number of atoms/cell      =           53
     number of atomic types    =            5
     number of electrons       =       400.00
     number of Kohn-Sham states=          210
     kinetic-energy cutoff     =      29.3995  Ry
     charge density cutoff     =     293.9946  Ry
     scf convergence threshold =      7.3E-08
     mixing beta               =       0.0500
     number of iterations used =            8  plain     mixing
     Exchange-correlation= BEEF-VDW
                           (   1   4  43  14   2   0   0)

     celldm(1)=   1.889726  celldm(2)=   0.000000  celldm(3)=   0.000000
     celldm(4)=   0.000000  celldm(5)=   0.000000  celldm(6)=   0.000000

     crystal axes: (cart. coord. in units of alat)
               a(1) = (   6.579727   0.000000   0.000000 )
               a(2) = (  -0.000775   5.961596   0.000000 )
               a(3) = (   0.000000   0.000000  25.155947 )

     reciprocal axes: (cart. coord. in units 2 pi/alat)
               b(1) = (  0.151982  0.000020  0.000000 )
               b(2) = (  0.000000  0.167740  0.000000 )
               b(3) = (  0.000000  0.000000  0.039752 )

     PseudoPot. # 1 for Ti read from file:
     /storage/coda1/p-amedford6/0/shared/rich_project_chbe-medford/medford-share/data/pseudos_module/espresso/nninc/pbe/van/Ti.UPF
     MD5 check sum: 8e4df49b7f0d34bbd5052bf3f5ea0213
     Pseudo is Ultrasoft, Zval = 12.0
     Generated by new atomic code, or converted to UPF format
     Using radial grid of  851 points,  6 beta functions with:
                l(1) =   0
                l(2) =   0
                l(3) =   1
                l(4) =   1
                l(5) =   2
                l(6) =   2
     Q(r) pseudized with  8 coefficients,  rinner =    1.000   1.000   1.000
                                                       1.000   1.000

     PseudoPot. # 2 for O  read from file:
     /storage/coda1/p-amedford6/0/shared/rich_project_chbe-medford/medford-share/data/pseudos_module/espresso/nninc/pbe/van/O.UPF
     MD5 check sum: 78c19812648e8988a0fe644b0f25305e
     Pseudo is Ultrasoft, Zval =  6.0
     Generated by new atomic code, or converted to UPF format
     Using radial grid of  737 points,  4 beta functions with:
                l(1) =   0
                l(2) =   0
                l(3) =   1
                l(4) =   1
     Q(r) pseudized with  8 coefficients,  rinner =    0.800   0.800   0.800

     PseudoPot. # 3 for N  read from file:
     /storage/coda1/p-amedford6/0/shared/rich_project_chbe-medford/medford-share/data/pseudos_module/espresso/nninc/pbe/van/N.UPF
     MD5 check sum: 90d10febe142ad51ac9d5be1deb811c4
     Pseudo is Ultrasoft, Zval =  5.0
     Generated by new atomic code, or converted to UPF format
     Using radial grid of  729 points,  4 beta functions with:
                l(1) =   0
                l(2) =   0
                l(3) =   1
                l(4) =   1
     Q(r) pseudized with  8 coefficients,  rinner =    0.800   0.800   0.800

     PseudoPot. # 4 for C  read from file:
     /storage/coda1/p-amedford6/0/shared/rich_project_chbe-medford/medford-share/data/pseudos_module/espresso/nninc/pbe/van/C.UPF
     MD5 check sum: 1a69bf6b8db32088f5b2163dbdb77a27
     Pseudo is Ultrasoft, Zval =  4.0
     Generated by new atomic code, or converted to UPF format
     Using radial grid of  721 points,  4 beta functions with:
                l(1) =   0
                l(2) =   0
                l(3) =   1
                l(4) =   1
     Q(r) pseudized with  8 coefficients,  rinner =    0.800   0.800   0.800

     PseudoPot. # 5 for H  read from file:
     /storage/coda1/p-amedford6/0/shared/rich_project_chbe-medford/medford-share/data/pseudos_module/espresso/nninc/pbe/van/H.UPF
     MD5 check sum: b5ee9d7bfd3a09ee7748110bda690ff7
     Pseudo is Ultrasoft, Zval =  1.0
     Generated by new atomic code, or converted to UPF format
     Using radial grid of  615 points,  1 beta functions with:
                l(1) =   0
     Q(r) pseudized with  8 coefficients,  rinner =    0.800

     atomic species   valence    mass     pseudopotential
        Ti1           12.00    47.86700     Ti( 1.00)
        O1             6.00    15.99900     O ( 1.00)
        N1             5.00    14.00700     N ( 1.00)
        C1             4.00    12.01100     C ( 1.00)
        H1             1.00     1.00800     H ( 1.00)

     No symmetry found

   Cartesian axes

     site n.     atom                  positions (alat units)
         1           Ti1 tau(   1) = (   0.0004258   2.9801865   6.0000000  )
         2           Ti1 tau(   2) = (   3.2906075   1.4906267   6.0002472  )
         3           O1  tau(   3) = (   0.0006271   0.0005054   7.9858123  )
         4           O1  tau(   4) = (   3.2906025   0.0005020   7.3038282  )
         5           O1  tau(   5) = (   4.5942328   1.4918067   9.2879030  )
         6           O1  tau(   6) = (   1.9868534   1.4903216   9.2879459  )
         7           Ti1 tau(   7) = (   3.2967797   2.8647345   9.1688538  )
         8           Ti1 tau(   8) = (   0.0139078   1.4260134   9.3797207  )
         9           O1  tau(   9) = (   3.2818202   5.9426219  11.3413624  )
        10           O1  tau(  10) = (  -0.0006713   5.9438105  10.5613913  )
        11           O1  tau(  11) = (   1.2629550   1.4689526  12.6431422  )
        12           O1  tau(  12) = (   5.2627372   1.4724369  12.6244454  )
        13           Ti1 tau(  13) = (   0.0649248   2.9521173  12.8162972  )
        14           Ti1 tau(  14) = (   3.3900010   1.4623865  12.4921655  )
        15           O1  tau(  15) = (   6.5612248   5.9427239  14.6529025  )
        16           O1  tau(  16) = (   3.2707349   5.9499158  13.9186396  )
        17           O1  tau(  17) = (   4.5120437   1.4930778  16.0516072  )
        18           O1  tau(  18) = (   2.0188724   1.4901805  16.0528637  )
        19           Ti1 tau(  19) = (   3.2526435   2.9656207  15.7242400  )
        20           Ti1 tau(  20) = (   6.5390660   1.5270114  16.1581541  )
        21           O1  tau(  21) = (   3.2904802   0.0005063   4.7018136  )
        22           O1  tau(  22) = (   6.5517350   0.0054997  17.2382445  )
        23           O1  tau(  23) = (   1.3043587   1.4918075   6.0039043  )
        24           O1  tau(  24) = (   5.2767064   1.4903225   6.0039473  )
        25           Ti1 tau(  25) = (   0.0000382   5.9609847   6.0000000  )
        26           Ti1 tau(  26) = (   3.2902200   4.4714249   6.0002472  )
        27           O1  tau(  27) = (   0.0002396   2.9813036   7.9858123  )
        28           O1  tau(  28) = (   3.2902150   2.9813002   7.3038282  )
        29           O1  tau(  29) = (   4.5938453   4.4726049   9.2879030  )
        30           O1  tau(  30) = (   1.9864658   4.4711199   9.2879459  )
        31           Ti1 tau(  31) = (   3.2991641   5.8454459   9.1677744  )
        32           Ti1 tau(  32) = (   0.0142928   4.4069258   9.3804372  )
        33           O1  tau(  33) = (   3.2794024   2.9620648  11.3429404  )
        34           O1  tau(  34) = (   0.0008107   2.9631099  10.5617750  )
        35           O1  tau(  35) = (   1.2628400   4.4505553  12.6449227  )
        36           O1  tau(  36) = (   5.2621040   4.4508628  12.6271667  )
        37           Ti1 tau(  37) = (   0.0634051   5.9337149  12.8176510  )
        38           Ti1 tau(  38) = (   3.3888395   4.4462795  12.4902329  )
        39           O1  tau(  39) = (   6.5643088   2.9532696  14.6533357  )
        40           O1  tau(  40) = (   3.2687884   2.9653797  13.9163527  )
        41           O1  tau(  41) = (   4.5138939   4.4677068  16.0260545  )
        42           O1  tau(  42) = (   2.0159196   4.4685127  16.0260682  )
        43           Ti1 tau(  43) = (   3.2551286   5.9518885  15.7372992  )
        44           Ti1 tau(  44) = (   6.5382561   4.5045293  16.1449140  )
        45           O1  tau(  45) = (   3.2900926   2.9813045   4.7018136  )
        46           O1  tau(  46) = (   6.5520679   2.9954315  17.2342401  )
        47           O1  tau(  47) = (   1.3039711   4.4726057   6.0039043  )
        48           O1  tau(  48) = (   5.2763189   4.4711207   6.0039473  )
        49           N1  tau(  49) = (   3.2718132   4.4933032  18.6889481  )
        50           N1  tau(  50) = (   3.2619367   3.3563452  18.5802627  )
        51           C1  tau(  51) = (   3.2831389   5.7900214  18.6539038  )
        52           H1  tau(  52) = (   2.3406966   0.3270794  18.8225995  )
        53           H1  tau(  53) = (   4.2501870   0.3074325  18.8013464  )

     number of k points=    10  Fermi-Dirac smearing, width (Ry)=  0.0073
                       cart. coord. in units 2pi/alat
        k(    1) = (   0.0000000   0.0000000   0.0000000), wk =   0.1250000
        k(    2) = (   0.0000000   0.0419351   0.0000000), wk =   0.2500000
        k(    3) = (   0.0000000  -0.0838702   0.0000000), wk =   0.1250000
        k(    4) = (   0.0379955   0.0000049   0.0000000), wk =   0.2500000
        k(    5) = (   0.0379955   0.0419400   0.0000000), wk =   0.2500000
        k(    6) = (   0.0379955  -0.0838652   0.0000000), wk =   0.2500000
        k(    7) = (   0.0379955  -0.0419301   0.0000000), wk =   0.2500000
        k(    8) = (  -0.0759910  -0.0000099   0.0000000), wk =   0.1250000
        k(    9) = (  -0.0759910   0.0419252   0.0000000), wk =   0.2500000
        k(   10) = (  -0.0759910  -0.0838800   0.0000000), wk =   0.1250000

     Initial potential from superposition of free atoms

     starting charge  383.99917, renormalised to  400.00000

     negative rho (up, down):  1.829E-02 0.000E+00

     %%%%%%%%%%%%%%%%%%%%%%%%%%%%%%%%%%%%%%%%%%%%%%%%%%%%%%%%%%%%%%%%%%%%%%%%
     %                                                                      %
     % You are using vdW-DF, which was implemented by the Thonhauser group. %
     % Please cite the following two papers that made this development      %
     % possible and the two reviews that describe the various versions:     %
     %                                                                      %
     %   T. Thonhauser et al., PRL 115, 136402 (2015).                      %
     %   T. Thonhauser et al., PRB 76, 125112 (2007).                       %
     %   K. Berland et al., Rep. Prog. Phys. 78, 066501 (2015).             %
     %   D.C. Langreth et al., J. Phys.: Condens. Matter 21, 084203 (2009). %
     %                                                                      %
     %                                                                      %
     % If you are calculating the stress with vdW-DF, please also cite:     %
     %                                                                      %
     %   R. Sabatini et al., J. Phys.: Condens. Matter 24, 424209 (2012).   %
     %                                                                      %
     %%%%%%%%%%%%%%%%%%%%%%%%%%%%%%%%%%%%%%%%%%%%%%%%%%%%%%%%%%%%%%%%%%%%%%%%

     Adding external electric field

     Computed dipole along edir(3) :
        Dipole               -9.8398 Ry au,        -25.0102 Debye
        Dipole field         -0.0186 Ry au,

        Potential amp.        1.7213 Ry
        Total length         46.3494 bohr

     Starting wfcs are  302 atomic wfcs
  @ DRIVER MODE: Message from server: STATUS
  @ DRIVER MODE: Message from server: POSDATA
  @ DRIVER MODE: Reading and sharing cell
  @ DRIVER MODE: Reading and sharing positions
  @ DRIVER MODE: Received positions

     Self-consistent Calculation

     iteration #  1     ecut=    29.40 Ry     beta= 0.05
     Davidson diagonalization with overlap
     c_bands:  1 eigenvalues not converged
     c_bands:  2 eigenvalues not converged
     c_bands:  1 eigenvalues not converged
     c_bands:  2 eigenvalues not converged
     c_bands:  2 eigenvalues not converged
     c_bands:  2 eigenvalues not converged
     c_bands:  1 eigenvalues not converged
     c_bands:  3 eigenvalues not converged
     ethr =  1.00E-05,  avg # of iterations = 20.0

[...]

     total energy              =   -2519.79258478 Ry
     estimated scf accuracy    <    5013.15440138 Ry

     iteration #  2     ecut=    29.40 Ry     beta= 0.05
     Davidson diagonalization with overlap
     ethr =  1.00E-02,  avg # of iterations = 26.5

[...]

     iteration # 40     ecut=    29.40 Ry     beta= 0.05
     Davidson diagonalization with overlap
     c_bands:  1 eigenvalues not converged
     c_bands:  1 eigenvalues not converged
     c_bands:  1 eigenvalues not converged
     ethr =  1.79E-07,  avg # of iterations = 15.4

[...]

     total energy              =   -2970.35077558 Ry
     estimated scf accuracy    <       0.00000062 Ry

     iteration # 64     ecut=    29.40 Ry     beta= 0.05
     Davidson diagonalization with overlap
     ethr =  3.62E-11,  avg # of iterations =  6.2

     negative rho (up, down):  1.788E-02 0.000E+00

     Adding external electric field

     Computed dipole along edir(3) :
        Dipole                0.5377 Ry au,          1.3668 Debye
        Dipole field          0.0010 Ry au,

        Potential amp.       -0.0941 Ry
        Total length         46.3494 bohr

     End of self-consistent calculation

          k = 0.0000 0.0000 0.0000 ( 18029 PWs)   bands (ev):

   -56.2394 -56.2059 -55.8895 -55.8538 -55.7646 -55.7296 -55.6317 -55.6080
   -55.5971 -55.5740 -55.5275 -55.4924 -55.4814 -55.4446 -55.0124 -54.9785
   -32.6663 -32.4871 -32.4591 -32.4308 -32.4245 -32.3397 -32.2932 -32.2386
   -32.1857 -32.1347 -32.1035 -32.0999 -32.0686 -32.0670 -32.0511 -32.0453
   -32.0326 -32.0125 -32.0066 -31.9915 -31.9053 -31.8830 -31.8722 -31.8610
   -31.8517 -31.8461 -31.8231 -31.8144 -31.8010 -31.7729 -31.7658 -31.7441
   -31.7377 -31.7242 -31.7064 -31.7046 -31.7043 -31.6877 -31.6853 -31.6572
   -31.6314 -31.5523 -31.4119 -31.3396 -31.3157 -31.2302 -31.1452 -31.0334
   -21.0508 -16.5569 -16.3934 -16.1720 -16.0188 -15.9297 -15.7984 -15.6034
   -15.5780 -15.4848 -15.4826 -15.4590 -15.3882 -15.3873 -15.3539 -15.3489
   -15.3204 -15.2989 -15.2595 -15.2429 -15.2407 -15.1981 -15.1381 -15.1127
   -15.0197 -14.9724 -14.8675 -14.8626 -14.8321 -14.7477 -14.7165 -14.2761
   -13.5067 -13.3934  -6.7766  -5.8632  -5.0987  -3.9845  -3.9247  -3.8919
    -3.7783  -3.7595  -3.6333  -3.3549  -3.3002  -3.0489  -2.9938  -2.9772
    -2.9317  -2.9099  -2.8424  -2.8233  -2.7379  -2.7335  -2.6872  -2.6799
    -2.6468  -2.6446  -2.6279  -2.5674  -2.5464  -2.4618  -2.4530  -2.4218
    -2.3898  -2.2799  -2.2355  -2.1906  -2.1888  -2.1598  -2.0608  -2.0532
    -2.0398  -2.0105  -1.9278  -1.8769  -1.7500  -1.6497  -1.6334  -1.5883
    -1.5269  -1.4946  -1.2956  -1.2481  -1.2443  -1.2233  -1.2011  -1.1885
    -1.1201  -1.0534  -0.9306  -0.8558  -0.8299  -0.7752  -0.7545  -0.7484
    -0.7293  -0.6511  -0.6217  -0.6150  -0.5920  -0.4509  -0.3055  -0.2665
    -0.2440  -0.2296  -0.2078  -0.1290  -0.1124  -0.0760  -0.0351  -0.0183
     0.0025   0.0509   0.0795   0.0882   0.1924   0.2128   0.2743   0.2955
     0.3052   0.3409   0.3848   0.5303   0.6173   0.7307   0.7399   0.8196
     0.9672   0.9743   1.0148   1.2223   1.2292   1.2768   1.6003   1.6735
     3.0326   3.2160   3.4481   3.5184   3.5388   3.6313   3.7371   3.7670
     3.8339   3.9121

[...]

          k = 0.0380-0.0419 0.0000 ( 17876 PWs)   bands (ev):

[...]

          k =-0.0760-0.0000 0.0000 ( 17886 PWs)   bands (ev):

[...]

          k =-0.0760-0.0839 0.0000 ( 17948 PWs)   bands (ev):

   -56.2226 -56.2225 -55.8719 -55.8713 -55.7492 -55.7448 -55.6151 -55.6136
   -55.5913 -55.5904 -55.5106 -55.5093 -55.4633 -55.4626 -54.9954 -54.9954
   -32.4838 -32.4837 -32.4728 -32.4726 -32.3836 -32.3835 -32.2307 -32.2264
   -32.1355 -32.1307 -32.0779 -32.0770 -32.0672 -32.0565 -32.0367 -32.0283
   -31.9544 -31.9471 -31.9362 -31.9345 -31.9213 -31.9204 -31.8549 -31.8545
   -31.8433 -31.8420 -31.8364 -31.8360 -31.8300 -31.8296 -31.8015 -31.8007
   -31.7904 -31.7843 -31.7265 -31.7255 -31.7170 -31.7159 -31.6995 -31.6983
   -31.6830 -31.6822 -31.3286 -31.3286 -31.2261 -31.2260 -31.1878 -31.1878
   -21.0498 -15.9777 -15.9660 -15.7726 -15.7677 -15.7047 -15.7046 -15.6641
   -15.6617 -15.6118 -15.6105 -15.4721 -15.4690 -15.4680 -15.4638 -15.3882
   -15.3868 -15.3728 -15.3717 -15.3208 -15.3192 -15.1849 -15.1837 -15.0976
   -15.0967 -15.0529 -15.0521 -14.9962 -14.9954 -14.8965 -14.8823 -14.2883
   -13.4958 -13.4957  -6.6174  -5.8337  -5.0872  -4.1491  -3.2633  -3.2501
    -2.9841  -2.9782  -2.8798  -2.8634  -2.8454  -2.8263  -2.8243  -2.7392
    -2.7303  -2.7078  -2.7021  -2.6749  -2.6707  -2.6135  -2.6121  -2.5892
    -2.5834  -2.5740  -2.5729  -2.5675  -2.5652  -2.4759  -2.4725  -2.4593
    -2.4572  -2.3846  -2.3778  -2.3443  -2.3319  -2.1239  -2.1235  -2.0538
    -2.0527  -1.9348  -1.9336  -1.9171  -1.9132  -1.8768  -1.8371  -1.5987
    -1.5965  -1.5391  -1.5365  -1.4876  -1.4732  -1.3671  -1.3381  -1.2107
    -1.1916  -1.1754  -1.1679  -1.0177  -1.0142  -1.0123  -1.0087  -0.9849
    -0.9815  -0.8655  -0.8518  -0.7657  -0.7587  -0.7419  -0.7384  -0.7002
    -0.6827  -0.5326  -0.5322  -0.5090  -0.5033  -0.3619  -0.3608  -0.3016
    -0.2949  -0.0532  -0.0450   0.0671   0.0674   0.2970   0.3313   0.3523
     0.3634   0.5058   0.5143   0.5283   0.5372   0.6622   0.6668   0.6837
     0.6896   0.7767   0.7767   1.2189   1.4025   1.4030   1.4549   1.4549
     3.5737   3.5781   3.5826   3.5871   3.6274   3.6290   3.6746   3.6764
     3.9320   3.9544

     the Fermi energy is     2.4053 ev

!    total energy              =   -2970.35081797 Ry
     estimated scf accuracy    <       0.00000006 Ry
     smearing contrib. (-TS)   =      -0.00009806 Ry
     internal energy E=F+TS    =   -2970.35071991 Ry

     The total energy is F=E-TS. E is the sum of the following terms:
     one-electron contribution =  -24066.83803466 Ry
     hartree contribution      =   12123.73147303 Ry
     xc contribution           =    -491.47846190 Ry
     ewald contribution        =    9464.23375794 Ry
     electric field correction =       0.00054569 Ry

     convergence has been achieved in  64 iterations

     Forces acting on atoms (cartesian axes, Ry/au):

     atom    1 type  1   force =     0.00011266   -0.00011703    0.14847610
     atom    2 type  1   force =    -0.00010654   -0.00049012   -0.16831837
     atom    3 type  2   force =     0.00014082    0.00223240   -0.05995670
     atom    4 type  2   force =     0.00015523   -0.00146590    0.03991737
     atom    5 type  2   force =    -0.02119743   -0.00097752    0.00398444
     atom    6 type  2   force =     0.02099442    0.00032458    0.00311801
     atom    7 type  1   force =    -0.00011540   -0.00019803   -0.00000075
     atom    8 type  1   force =    -0.00021701    0.00002243    0.00003631
     atom    9 type  2   force =    -0.00023717   -0.00005661    0.00011650
     atom   10 type  2   force =     0.00001496   -0.00000325    0.00006680
     atom   11 type  2   force =    -0.00000265   -0.00006528   -0.00012143
     atom   12 type  2   force =    -0.00008629   -0.00013402   -0.00006115
     atom   13 type  1   force =    -0.00008901   -0.00001038   -0.00008283
     atom   14 type  1   force =     0.00006006   -0.00002692    0.00004838
     atom   15 type  2   force =     0.00010566    0.00001215    0.00000504
     atom   16 type  2   force =     0.00007676   -0.00004418    0.00011407
     atom   17 type  2   force =     0.00007585   -0.00012086    0.00018894
     atom   18 type  2   force =     0.00018817   -0.00008345   -0.00005881
     atom   19 type  1   force =     0.00022017    0.00007558    0.00002521
     atom   20 type  1   force =    -0.00015123    0.00000334   -0.00021103
     atom   21 type  2   force =     0.00004292   -0.00004468    0.10199165
     atom   22 type  2   force =     0.00008440   -0.00003823    0.00001077
     atom   23 type  2   force =    -0.07526094    0.00015811   -0.03468267
     atom   24 type  2   force =     0.07519433    0.00058287   -0.03475913
     atom   25 type  1   force =     0.00010690   -0.00013790    0.14838398
     atom   26 type  1   force =    -0.00013394   -0.00085911   -0.16855384
     atom   27 type  2   force =     0.00012486    0.00218150   -0.05991041
     atom   28 type  2   force =     0.00009016   -0.00146052    0.04019942
     atom   29 type  2   force =    -0.02099344   -0.00108157    0.00396418
     atom   30 type  2   force =     0.02118780    0.00040633    0.00311487
     atom   31 type  1   force =    -0.00019583   -0.00009966   -0.00000015
     atom   32 type  1   force =    -0.00011071   -0.00006141   -0.00008524
     atom   33 type  2   force =     0.00013096    0.00008205    0.00003331
     atom   34 type  2   force =    -0.00008811    0.00002526   -0.00001031
     atom   35 type  2   force =    -0.00003555    0.00002851    0.00004104
     atom   36 type  2   force =    -0.00013182    0.00022664   -0.00014054
     atom   37 type  1   force =    -0.00007523   -0.00014281   -0.00005688
     atom   38 type  1   force =     0.00004542    0.00005309    0.00020912
     atom   39 type  2   force =    -0.00007773   -0.00000719   -0.00014202
     atom   40 type  2   force =     0.00011526    0.00002045    0.00005063
     atom   41 type  2   force =     0.00026070   -0.00011192    0.00008238
     atom   42 type  2   force =     0.00020072   -0.00004287    0.00024163
     atom   43 type  1   force =    -0.00008298    0.00032448    0.00025910
     atom   44 type  1   force =    -0.00007328    0.00000426   -0.00003058
     atom   45 type  2   force =     0.00003672   -0.00004871    0.10198532
     atom   46 type  2   force =     0.00003771    0.00002386   -0.00013277
     atom   47 type  2   force =    -0.07526342    0.00019769   -0.03468289
     atom   48 type  2   force =     0.07520153    0.00062920   -0.03475536
     atom   49 type  3   force =    -0.00046520   -0.00016979   -0.00120096
     atom   50 type  3   force =     0.00019371    0.00035024    0.00106734
     atom   51 type  4   force =     0.00964463    0.00404581    0.00068672
     atom   52 type  5   force =     0.00041457    0.00019470    0.00045252
     atom   53 type  5   force =    -0.01006715   -0.00410564   -0.00091631

     Total force =     0.401925     Total SCF correction =     0.000576
  @ DRIVER MODE: Message from server: STATUS
  @ DRIVER MODE: Message from server: GETFORCE
  @ DRIVER MODE: Returning v,forces,stress,ensemble

     Writing output data file ./calc.save/
  @ DRIVER MODE: Message from server: EXIT
  @ DRIVE MODE: Exiting

     General routines

     Parallel routines

   This run was terminated on:  20:48:16   5Oct2021

   JOB DONE.