     Program PWSCF v.6.7GPU starts on  9Sep2021 at  1:27:36

     R & G space division:  proc/nbgrp/npool/nimage =      10
     Reading input from /storage/home/hcoda1/3/ntian30/research/carbon/CxH_vib/CH2_calc/ads_slab/CH2OH_a/out_0013/pw.inp
Warning: card &CELL ignored
Warning: card   CELL_DYNAMICS='IPI', ignored
Warning: card / ignored

     Current dimensions of program PWSCF are:
     Max number of different atomic species (ntypx) = 10
     Max number of k-points (npk) =  40000
     Max angular momentum in pseudopotentials (lmaxx) =  3
     Presently no symmetry can be used with electric field

     Message from routine cell_base_init:
     DEPRECATED: use true lattice parameter, not A to a.u. conversion factor

     IMPORTANT: XC functional enforced from input :
     Exchange-correlation= BEEF-VDW
                           (   1   4  43  14   2   0   0)
     Any further DFT definition will be discarded
     Please, verify this is what you really want

  @ DRIVER MODE: Connecting to
 qe_1139763_2767393.sched-torque.pace.gatech.edu1vze8ve6_scratch
  using UNIX socket
  @ DRIVER MODE: Message from server: STATUS
  @ DRIVER MODE: Message from server: INIT
  @ DRIVER MODE: Receiving replica           0          -1
  @ DRIVER MODE: Receiving encoded integer          25
  @ DRIVER MODE:  SCF:  T  FORCE:  T  STRESS:  F  VC:  F  ENSEMBLE:  F
  @ DRIVER MODE:  SCF:  T  FORCE:  T  STRESS:  F  VC:  F  ENSEMBLE:  F

     Using Slab Decomposition

     bravais-lattice index     =            0
     lattice parameter (alat)  =       1.8897  a.u.
     unit-cell volume          =    6658.9804 (a.u.)^3
     number of atoms/cell      =           52
     number of atomic types    =            4
     number of electrons       =       391.00
     number of Kohn-Sham states=          205
     kinetic-energy cutoff     =      29.3995  Ry
     charge density cutoff     =     293.9946  Ry
     scf convergence threshold =      7.3E-08
     mixing beta               =       0.0500
     number of iterations used =            8  plain     mixing
     Exchange-correlation= BEEF-VDW
                           (   1   4  43  14   2   0   0)

     celldm(1)=   1.889726  celldm(2)=   0.000000  celldm(3)=   0.000000
     celldm(4)=   0.000000  celldm(5)=   0.000000  celldm(6)=   0.000000

     crystal axes: (cart. coord. in units of alat)
               a(1) = (   6.579727   0.000000   0.000000 )
               a(2) = (  -0.000775   5.961596   0.000000 )
               a(3) = (   0.000000   0.000000  25.155947 )

     reciprocal axes: (cart. coord. in units 2 pi/alat)
               b(1) = (  0.151982  0.000020  0.000000 )
               b(2) = (  0.000000  0.167740  0.000000 )
               b(3) = (  0.000000  0.000000  0.039752 )

     PseudoPot. # 1 for Ti read from file:
     /storage/coda1/p-amedford6/0/shared/rich_project_chbe-medford/medford-share/data/pseudos_module/espresso/nninc/pbe/van/Ti.UPF
     MD5 check sum: 8e4df49b7f0d34bbd5052bf3f5ea0213
     Pseudo is Ultrasoft, Zval = 12.0
     Generated by new atomic code, or converted to UPF format
     Using radial grid of  851 points,  6 beta functions with:
                l(1) =   0
                l(2) =   0
                l(3) =   1
                l(4) =   1
                l(5) =   2
                l(6) =   2
     Q(r) pseudized with  8 coefficients,  rinner =    1.000   1.000   1.000
                                                       1.000   1.000

     PseudoPot. # 2 for O  read from file:
     /storage/coda1/p-amedford6/0/shared/rich_project_chbe-medford/medford-share/data/pseudos_module/espresso/nninc/pbe/van/O.UPF
     MD5 check sum: 78c19812648e8988a0fe644b0f25305e
     Pseudo is Ultrasoft, Zval =  6.0
     Generated by new atomic code, or converted to UPF format
     Using radial grid of  737 points,  4 beta functions with:
                l(1) =   0
                l(2) =   0
                l(3) =   1
                l(4) =   1
     Q(r) pseudized with  8 coefficients,  rinner =    0.800   0.800   0.800

     PseudoPot. # 3 for C  read from file:
     /storage/coda1/p-amedford6/0/shared/rich_project_chbe-medford/medford-share/data/pseudos_module/espresso/nninc/pbe/van/C.UPF
     MD5 check sum: 1a69bf6b8db32088f5b2163dbdb77a27
     Pseudo is Ultrasoft, Zval =  4.0
     Generated by new atomic code, or converted to UPF format
     Using radial grid of  721 points,  4 beta functions with:
                l(1) =   0
                l(2) =   0
                l(3) =   1
                l(4) =   1
     Q(r) pseudized with  8 coefficients,  rinner =    0.800   0.800   0.800

     PseudoPot. # 4 for H  read from file:
     /storage/coda1/p-amedford6/0/shared/rich_project_chbe-medford/medford-share/data/pseudos_module/espresso/nninc/pbe/van/H.UPF
     MD5 check sum: b5ee9d7bfd3a09ee7748110bda690ff7
     Pseudo is Ultrasoft, Zval =  1.0
     Generated by new atomic code, or converted to UPF format
     Using radial grid of  615 points,  1 beta functions with:
                l(1) =   0
     Q(r) pseudized with  8 coefficients,  rinner =    0.800

     atomic species   valence    mass     pseudopotential
        Ti1           12.00    47.86700     Ti( 1.00)
        O1             6.00    15.99900     O ( 1.00)
        C1             4.00    12.01100     C ( 1.00)
        H1             1.00     1.00800     H ( 1.00)

     No symmetry found

   Cartesian axes

     site n.     atom                  positions (alat units)
         1           Ti1 tau(   1) = (   0.0004258   2.9801865   6.0000000  )
         2           Ti1 tau(   2) = (   3.2906075   1.4906267   6.0002472  )
         3           O1  tau(   3) = (   0.0006271   0.0005054   7.9858123  )
         4           O1  tau(   4) = (   3.2906025   0.0005020   7.3038282  )
         5           O1  tau(   5) = (   4.5942328   1.4918067   9.2879030  )
         6           O1  tau(   6) = (   1.9868534   1.4903216   9.2879459  )
         7           Ti1 tau(   7) = (   3.2719207   3.0347534   9.1624208  )
         8           Ti1 tau(   8) = (   6.5479847   1.5485315   9.3114282  )
         9           O1  tau(   9) = (   3.3130468   5.9588651  11.3322545  )
        10           O1  tau(  10) = (   6.5779921   5.9597862  10.5854321  )
        11           O1  tau(  11) = (   1.2828316   1.4981946  12.5939292  )
        12           O1  tau(  12) = (   5.3076696   1.4616608  12.6584921  )
        13           Ti1 tau(  13) = (   0.0652608   2.9737989  12.6898254  )
        14           Ti1 tau(  14) = (   3.3390979   1.6191063  12.6104043  )
        15           O1  tau(  15) = (   0.1579450   5.9294946  14.6423442  )
        16           O1  tau(  16) = (   3.1680681   5.9402194  13.8972025  )
        17           O1  tau(  17) = (   4.6139792   1.3367142  15.8434034  )
        18           O1  tau(  18) = (   2.0781381   1.4994250  16.2203239  )
        19           Ti1 tau(  19) = (   3.3500823   2.9415657  15.9644494  )
        20           Ti1 tau(  20) = (   0.0003135   1.3236462  15.9137460  )
        21           O1  tau(  21) = (   3.2904802   0.0005063   4.7018136  )
        22           O1  tau(  22) = (   6.5745372   5.9170875  17.1494514  )
        23           O1  tau(  23) = (   1.3043587   1.4918075   6.0039043  )
        24           O1  tau(  24) = (   5.2767064   1.4903225   6.0039473  )
        25           Ti1 tau(  25) = (   0.0000382   5.9609847   6.0000000  )
        26           Ti1 tau(  26) = (   3.2902200   4.4714249   6.0002472  )
        27           O1  tau(  27) = (   0.0002396   2.9813036   7.9858123  )
        28           O1  tau(  28) = (   3.2902150   2.9813002   7.3038282  )
        29           O1  tau(  29) = (   4.5938453   4.4726049   9.2879030  )
        30           O1  tau(  30) = (   1.9864658   4.4711199   9.2879459  )
        31           Ti1 tau(  31) = (   3.2621523   0.0587977   9.1770015  )
        32           Ti1 tau(  32) = (   6.5480547   4.4734411   9.2675299  )
        33           O1  tau(  33) = (   3.3121001   2.9882390  11.3403144  )
        34           O1  tau(  34) = (   6.5676672   2.9758547  10.5865552  )
        35           O1  tau(  35) = (   1.2831373   4.4454538  12.5925867  )
        36           O1  tau(  36) = (   5.3039272   4.4828346  12.6569239  )
        37           Ti1 tau(  37) = (   0.0139245   5.9553196  12.4525254  )
        38           Ti1 tau(  38) = (   3.3396594   4.5312311  12.4471015  )
        39           O1  tau(  39) = (   0.0911754   2.9492527  14.7447760  )
        40           O1  tau(  40) = (   3.3148107   2.9226094  13.9462488  )
        41           O1  tau(  41) = (   4.6112453   4.5441982  15.8230962  )
        42           O1  tau(  42) = (   2.0803191   4.3866676  16.2083192  )
        43           Ti1 tau(  43) = (   3.2736722   5.9210238  15.6733724  )
        44           Ti1 tau(  44) = (   6.5729336   4.5444060  15.8763539  )
        45           O1  tau(  45) = (   3.2900926   2.9813045   4.7018136  )
        46           O1  tau(  46) = (   1.3039711   4.4726057   6.0039043  )
        47           O1  tau(  47) = (   5.2763189   4.4711207   6.0039473  )
        48           C1  tau(  48) = (   4.5191185   2.9521590  17.9045005  )
        49           O1  tau(  49) = (   5.9932199   2.9473452  17.4910416  )
        50           H1  tau(  50) = (   6.5392410   2.9805908  18.2871345  )
        51           H1  tau(  51) = (   4.3954453   2.0589761  18.5217578  )
        52           H1  tau(  52) = (   4.3955607   3.8562994  18.5052511  )

     number of k points=    10  Fermi-Dirac smearing, width (Ry)=  0.0073
                       cart. coord. in units 2pi/alat
        k(    1) = (   0.0000000   0.0000000   0.0000000), wk =   0.1250000
        k(    2) = (   0.0000000   0.0419351   0.0000000), wk =   0.2500000
        k(    3) = (   0.0000000  -0.0838702   0.0000000), wk =   0.1250000
        k(    4) = (   0.0379955   0.0000049   0.0000000), wk =   0.2500000
        k(    5) = (   0.0379955   0.0419400   0.0000000), wk =   0.2500000
        k(    6) = (   0.0379955  -0.0838652   0.0000000), wk =   0.2500000
        k(    7) = (   0.0379955  -0.0419301   0.0000000), wk =   0.2500000
        k(    8) = (  -0.0759910  -0.0000099   0.0000000), wk =   0.1250000
        k(    9) = (  -0.0759910   0.0419252   0.0000000), wk =   0.2500000
        k(   10) = (  -0.0759910  -0.0838800   0.0000000), wk =   0.1250000

     Initial potential from superposition of free atoms

     starting charge  374.99918, renormalised to  391.00000

     negative rho (up, down):  1.948E-02 0.000E+00

     %%%%%%%%%%%%%%%%%%%%%%%%%%%%%%%%%%%%%%%%%%%%%%%%%%%%%%%%%%%%%%%%%%%%%%%%
     %                                                                      %
     % You are using vdW-DF, which was implemented by the Thonhauser group. %
     % Please cite the following two papers that made this development      %
     % possible and the two reviews that describe the various versions:     %
     %                                                                      %
     %   T. Thonhauser et al., PRL 115, 136402 (2015).                      %
     %   T. Thonhauser et al., PRB 76, 125112 (2007).                       %
     %   K. Berland et al., Rep. Prog. Phys. 78, 066501 (2015).             %
     %   D.C. Langreth et al., J. Phys.: Condens. Matter 21, 084203 (2009). %
     %                                                                      %
     %                                                                      %
     % If you are calculating the stress with vdW-DF, please also cite:     %
     %                                                                      %
     %   R. Sabatini et al., J. Phys.: Condens. Matter 24, 424209 (2012).   %
     %                                                                      %
     %%%%%%%%%%%%%%%%%%%%%%%%%%%%%%%%%%%%%%%%%%%%%%%%%%%%%%%%%%%%%%%%%%%%%%%%

     Adding external electric field

     Computed dipole along edir(3) :
        Dipole               -5.2229 Ry au,        -13.2753 Debye
        Dipole field         -0.0099 Ry au,

        Potential amp.        0.9137 Ry
        Total length         46.3494 bohr

     Starting wfcs are  295 atomic wfcs
  @ DRIVER MODE: Message from server: STATUS
  @ DRIVER MODE: Message from server: POSDATA
  @ DRIVER MODE: Reading and sharing cell
  @ DRIVER MODE: Reading and sharing positions
  @ DRIVER MODE: Received positions

     Self-consistent Calculation

     iteration #  1     ecut=    29.40 Ry     beta= 0.05
     Davidson diagonalization with overlap
     c_bands:  3 eigenvalues not converged
     c_bands:  3 eigenvalues not converged
     c_bands:  3 eigenvalues not converged
     c_bands:  4 eigenvalues not converged
     c_bands:  2 eigenvalues not converged
     c_bands:  1 eigenvalues not converged
     c_bands:  3 eigenvalues not converged
     ethr =  1.00E-05,  avg # of iterations = 19.6

[...]

     total energy              =   -2803.10342578 Ry
     estimated scf accuracy    <    1410.01806146 Ry

     iteration #  2     ecut=    29.40 Ry     beta= 0.05
     Davidson diagonalization with overlap
     ethr =  1.00E-02,  avg # of iterations = 16.5

[...]

     iteration # 44     ecut=    29.40 Ry     beta= 0.05
     Davidson diagonalization with overlap
     c_bands:  1 eigenvalues not converged
     c_bands:  1 eigenvalues not converged
     ethr =  7.71E-10,  avg # of iterations = 12.9

[...]

     total energy              =   -2931.32990335 Ry
     estimated scf accuracy    <       0.00000014 Ry

     iteration # 55     ecut=    29.40 Ry     beta= 0.05
     Davidson diagonalization with overlap
     ethr =  2.89E-11,  avg # of iterations =  6.2

     negative rho (up, down):  1.893E-02 0.000E+00

     Adding external electric field

     Computed dipole along edir(3) :
        Dipole                0.9588 Ry au,          2.4370 Debye
        Dipole field          0.0018 Ry au,

        Potential amp.       -0.1677 Ry
        Total length         46.3494 bohr

     End of self-consistent calculation

          k = 0.0000 0.0000 0.0000 ( 18029 PWs)   bands (ev):

   -55.8487 -55.8096 -55.7665 -55.7522 -55.6976 -55.6879 -55.6786 -55.6682
   -55.6299 -55.6185 -55.5971 -55.5865 -55.5597 -55.5515 -54.8194 -54.7853
   -32.3702 -32.3206 -32.2357 -32.2137 -32.1578 -32.1305 -32.1178 -32.0853
   -32.0778 -32.0634 -32.0429 -32.0168 -32.0038 -31.9955 -31.9672 -31.9603
   -31.9426 -31.9409 -31.9224 -31.9099 -31.9082 -31.9021 -31.8772 -31.8573
   -31.8544 -31.8518 -31.8464 -31.8417 -31.8285 -31.8138 -31.8028 -31.8022
   -31.8005 -31.7944 -31.7846 -31.7841 -31.7611 -31.7438 -31.7413 -31.7285
   -31.6998 -31.6340 -31.2264 -31.1371 -31.1146 -31.0435 -30.9574 -30.8457
   -19.6073 -16.5537 -16.3320 -16.1537 -16.0564 -15.9941 -15.8305 -15.7488
   -15.5610 -15.4847 -15.4778 -15.4525 -15.3900 -15.3760 -15.3648 -15.3439
   -15.3437 -15.3129 -15.2496 -15.2368 -15.2301 -15.2008 -15.1308 -15.1203
   -14.9764 -14.9592 -14.9590 -14.9468 -14.8481 -14.7793 -13.3190 -13.2020
    -9.6203  -6.4899  -4.2211  -4.0191  -3.8665  -3.7625  -3.7553  -3.7200
    -3.5674  -3.4898  -3.2755  -3.1349  -3.0892  -3.0214  -2.9772  -2.9159
    -2.8342  -2.7670  -2.7209  -2.6751  -2.6613  -2.6363  -2.6247  -2.5759
    -2.5401  -2.5144  -2.4040  -2.3992  -2.3495  -2.2917  -2.2547  -2.2017
    -2.1633  -2.1448  -2.1221  -2.0925  -2.0626  -2.0437  -2.0234  -1.9691
    -1.9179  -1.8390  -1.8245  -1.5545  -1.4647  -1.3924  -1.3659  -1.2884
    -1.2629  -1.2414  -1.2114  -1.2101  -1.1835  -1.1046  -1.0993  -1.0065
    -0.9715  -0.8876  -0.8343  -0.7460  -0.7059  -0.6346  -0.6148  -0.5794
    -0.5609  -0.5452  -0.4003  -0.3806  -0.3552  -0.2361  -0.2172  -0.1613
    -0.1338  -0.0752  -0.0499   0.0149   0.0457   0.0925   0.1208   0.1404
     0.1617   0.1769   0.2223   0.3081   0.3847   0.4004   0.4253   0.4915
     0.6768   0.7066   0.8351   0.9006   1.1333   1.2059   1.2497   1.2972
     1.3917   1.7801   1.8354   3.3038   3.3588   3.4188   3.4237   3.4609
     3.5533   3.7347   3.7539   3.8079   3.8657

[...]

          k = 0.0380-0.0419 0.0000 ( 17876 PWs)   bands (ev):

[...]

          k =-0.0760-0.0000 0.0000 ( 17886 PWs)   bands (ev):

[...]

          k =-0.0760-0.0839 0.0000 ( 17948 PWs)   bands (ev):

   -55.8388 -55.8194 -55.7625 -55.7458 -55.7039 -55.6913 -55.6732 -55.6662
   -55.6238 -55.6211 -55.5949 -55.5866 -55.5703 -55.5537 -54.8024 -54.8022
   -32.2937 -32.1454 -32.1364 -32.1271 -32.1032 -32.0898 -32.0836 -32.0598
   -32.0219 -32.0102 -31.9972 -31.9915 -31.9780 -31.9714 -31.9679 -31.9644
   -31.9605 -31.9578 -31.9468 -31.9422 -31.9146 -31.9116 -31.9002 -31.8974
   -31.8918 -31.8860 -31.8830 -31.8728 -31.8657 -31.8638 -31.8550 -31.8344
   -31.8244 -31.8201 -31.8112 -31.8099 -31.7960 -31.7934 -31.7906 -31.7871
   -31.7795 -31.6354 -31.1275 -31.1271 -31.0401 -31.0389 -31.0005 -30.9999
   -19.6014 -16.1438 -15.9638 -15.8085 -15.7805 -15.7795 -15.6454 -15.6273
   -15.6056 -15.5722 -15.5336 -15.5053 -15.4799 -15.4733 -15.4301 -15.3749
   -15.3683 -15.3557 -15.3296 -15.2715 -15.2595 -15.2571 -15.2157 -15.1609
   -15.1382 -15.1286 -15.1207 -15.1067 -15.0771 -15.0550 -13.3061 -13.3015
    -9.6206  -6.4735  -4.2269  -3.8917  -3.2855  -3.2142  -3.0124  -3.0088
    -2.9261  -2.8867  -2.8753  -2.8337  -2.7672  -2.7613  -2.7429  -2.6748
    -2.6499  -2.6471  -2.6076  -2.5992  -2.5782  -2.5696  -2.5484  -2.5232
    -2.4885  -2.4489  -2.4320  -2.4224  -2.4037  -2.3949  -2.3887  -2.3459
    -2.3249  -2.2153  -2.1350  -2.0242  -2.0192  -1.9726  -1.9578  -1.9355
    -1.9001  -1.8855  -1.8796  -1.8439  -1.7632  -1.6201  -1.5199  -1.5010
    -1.4610  -1.4353  -1.4020  -1.3808  -1.2838  -1.2714  -1.2184  -1.1902
    -1.1850  -1.0695  -1.0603  -0.9630  -0.9269  -0.8179  -0.8090  -0.7827
    -0.7605  -0.7253  -0.7006  -0.6317  -0.6119  -0.5706  -0.5530  -0.4875
    -0.4492  -0.4326  -0.3555  -0.3166  -0.2546  -0.2062  -0.1724  -0.0215
     0.1589   0.1770   0.2083   0.3190   0.3573   0.4302   0.4862   0.5013
     0.5711   0.6049   0.6734   0.7044   0.7664   0.8060   1.2625   1.5668
     1.5773   1.6400   1.6536   3.5964   3.6444   3.7693   3.7856   3.8177
     3.8227   3.8335   3.8557   3.9170   3.9523

     the Fermi energy is     3.2940 ev

!    total energy              =   -2931.32997078 Ry
     estimated scf accuracy    <       0.00000007 Ry
     smearing contrib. (-TS)   =      -0.02177116 Ry
     internal energy E=F+TS    =   -2931.30819962 Ry

     The total energy is F=E-TS. E is the sum of the following terms:
     one-electron contribution =  -24940.55802369 Ry
     hartree contribution      =   12556.72267097 Ry
     xc contribution           =    -482.05121928 Ry
     ewald contribution        =    9934.57663763 Ry
     electric field correction =       0.00173476 Ry

     convergence has been achieved in  55 iterations

     Forces acting on atoms (cartesian axes, Ry/au):

     atom    1 type  1   force =     0.00040863   -0.00074347    0.09646948
     atom    2 type  1   force =     0.00021853   -0.00292778   -0.17614531
     atom    3 type  2   force =    -0.00037853   -0.00272682   -0.03079428
     atom    4 type  2   force =    -0.00049103    0.00065486    0.04967100
     atom    5 type  2   force =    -0.01530250   -0.00088509    0.00150911
     atom    6 type  2   force =     0.01484237    0.00155561    0.00315229
     atom    7 type  1   force =    -0.00059883   -0.00031415   -0.00011225
     atom    8 type  1   force =    -0.00056444    0.00060520    0.00063783
     atom    9 type  2   force =    -0.00018790    0.00026183    0.00046831
     atom   10 type  2   force =     0.00000303    0.00008481   -0.00066872
     atom   11 type  2   force =     0.00022011    0.00030813    0.00017589
     atom   12 type  2   force =    -0.00016521    0.00013471   -0.00020875
     atom   13 type  1   force =     0.00016169   -0.00018434    0.00049970
     atom   14 type  1   force =     0.00032111   -0.00057139    0.00042977
     atom   15 type  2   force =     0.00002907    0.00061508   -0.00025527
     atom   16 type  2   force =    -0.00015428   -0.00012012    0.00021073
     atom   17 type  2   force =     0.00007924    0.00011762    0.00019936
     atom   18 type  2   force =    -0.00004823    0.00012073    0.00011557
     atom   19 type  1   force =     0.00019464   -0.00037021    0.00125182
     atom   20 type  1   force =     0.00024666    0.00010551    0.00025063
     atom   21 type  2   force =     0.00016271    0.00023061    0.10302270
     atom   22 type  2   force =     0.00021640    0.00042821   -0.00014260
     atom   23 type  2   force =    -0.07096451    0.00144430   -0.02887504
     atom   24 type  2   force =     0.07108791    0.00185911   -0.02889216
     atom   25 type  1   force =     0.00034426    0.00078871    0.11231393
     atom   26 type  1   force =    -0.00013171    0.00363103   -0.17642811
     atom   27 type  2   force =    -0.00014809    0.00020233   -0.02745745
     atom   28 type  2   force =    -0.00030945    0.00087401    0.04912698
     atom   29 type  2   force =    -0.01335997   -0.00250009    0.00128567
     atom   30 type  2   force =     0.01438742   -0.00067859    0.00298690
     atom   31 type  1   force =     0.00019806   -0.00032558    0.00021120
     atom   32 type  1   force =    -0.00074873    0.00067039   -0.00046734
     atom   33 type  2   force =    -0.00026057   -0.00028806   -0.00025034
     atom   34 type  2   force =     0.00012397    0.00017086    0.00002225
     atom   35 type  2   force =    -0.00016452   -0.00007124    0.00030640
     atom   36 type  2   force =     0.00022774   -0.00009281    0.00030950
     atom   37 type  1   force =    -0.00026150   -0.00020436    0.00034135
     atom   38 type  1   force =     0.00028148    0.00033259    0.00032198
     atom   39 type  2   force =     0.00015493    0.00019388   -0.00017696
     atom   40 type  2   force =    -0.00009292   -0.00055704   -0.00089293
     atom   41 type  2   force =    -0.00020408   -0.00008875    0.00032782
     atom   42 type  2   force =     0.00007185   -0.00001699    0.00027684
     atom   43 type  1   force =     0.00025781    0.00032753    0.00015491
     atom   44 type  1   force =     0.00065737    0.00049492   -0.00026082
     atom   45 type  2   force =     0.00015420    0.00016533    0.10345116
     atom   46 type  2   force =    -0.07078003   -0.00174915   -0.02886484
     atom   47 type  2   force =     0.07089221   -0.00133820   -0.02888947
     atom   48 type  3   force =    -0.00118675   -0.00014975   -0.00024506
     atom   49 type  2   force =    -0.00667854    0.00017380   -0.00751783
     atom   50 type  4   force =     0.00770811    0.00002992    0.00817154
     atom   51 type  4   force =    -0.00041865   -0.00001836   -0.00022214
     atom   52 type  4   force =    -0.00005054    0.00034073    0.00009507

     Total force =     0.369582     Total SCF correction =     0.000832
  @ DRIVER MODE: Message from server: STATUS
  @ DRIVER MODE: Message from server: GETFORCE
  @ DRIVER MODE: Returning v,forces,stress,ensemble

     Writing output data file ./calc.save/
  @ DRIVER MODE: Message from server: EXIT
  @ DRIVE MODE: Exiting

     General routines

     Parallel routines

   This run was terminated on:   1:42:53   9Sep2021

   JOB DONE.