     Program PWSCF v.6.7GPU starts on 24Sep2021 at  5:13:48

     R & G space division:  proc/nbgrp/npool/nimage =       8
     Reading input from /storage/home/hcoda1/3/ntian30/research/carbon/CxH_vib/H2O_calc/ads_slab/CH3ON2HO_a/out_0037/pw.inp
Warning: card &CELL ignored
Warning: card   CELL_DYNAMICS='IPI', ignored
Warning: card / ignored

     Current dimensions of program PWSCF are:
     Max number of different atomic species (ntypx) = 10
     Max number of k-points (npk) =  40000
     Max angular momentum in pseudopotentials (lmaxx) =  3
     Presently no symmetry can be used with electric field

     Message from routine cell_base_init:
     DEPRECATED: use true lattice parameter, not A to a.u. conversion factor

     IMPORTANT: XC functional enforced from input :
     Exchange-correlation= BEEF-VDW
                           (   1   4  43  14   2   0   0)
     Any further DFT definition will be discarded
     Please, verify this is what you really want

  @ DRIVER MODE: Connecting to
 qe_1139763_2947306.sched-torque.pace.gatech.edut_yq3tg8_scratch
  using UNIX socket
  @ DRIVER MODE: Message from server: STATUS
  @ DRIVER MODE: Message from server: INIT
  @ DRIVER MODE: Receiving replica           0          -1
  @ DRIVER MODE: Receiving encoded integer          25
  @ DRIVER MODE:  SCF:  T  FORCE:  T  STRESS:  F  VC:  F  ENSEMBLE:  F
  @ DRIVER MODE:  SCF:  T  FORCE:  T  STRESS:  F  VC:  F  ENSEMBLE:  F

     Using Slab Decomposition

     bravais-lattice index     =            0
     lattice parameter (alat)  =       1.8897  a.u.
     unit-cell volume          =    6658.9804 (a.u.)^3
     number of atoms/cell      =           56
     number of atomic types    =            5
     number of electrons       =       408.00
     number of Kohn-Sham states=          214
     kinetic-energy cutoff     =      29.3995  Ry
     charge density cutoff     =     293.9946  Ry
     scf convergence threshold =      7.3E-08
     mixing beta               =       0.0500
     number of iterations used =            8  plain     mixing
     Exchange-correlation= BEEF-VDW
                           (   1   4  43  14   2   0   0)

     celldm(1)=   1.889726  celldm(2)=   0.000000  celldm(3)=   0.000000
     celldm(4)=   0.000000  celldm(5)=   0.000000  celldm(6)=   0.000000

     crystal axes: (cart. coord. in units of alat)
               a(1) = (   6.579727   0.000000   0.000000 )
               a(2) = (  -0.000775   5.961596   0.000000 )
               a(3) = (   0.000000   0.000000  25.155947 )

     reciprocal axes: (cart. coord. in units 2 pi/alat)
               b(1) = (  0.151982  0.000020  0.000000 )
               b(2) = (  0.000000  0.167740  0.000000 )
               b(3) = (  0.000000  0.000000  0.039752 )

     PseudoPot. # 1 for Ti read from file:
     /storage/coda1/p-amedford6/0/shared/rich_project_chbe-medford/medford-share/data/pseudos_module/espresso/nninc/pbe/van/Ti.UPF
     MD5 check sum: 8e4df49b7f0d34bbd5052bf3f5ea0213
     Pseudo is Ultrasoft, Zval = 12.0
     Generated by new atomic code, or converted to UPF format
     Using radial grid of  851 points,  6 beta functions with:
                l(1) =   0
                l(2) =   0
                l(3) =   1
                l(4) =   1
                l(5) =   2
                l(6) =   2
     Q(r) pseudized with  8 coefficients,  rinner =    1.000   1.000   1.000
                                                       1.000   1.000

     PseudoPot. # 2 for O  read from file:
     /storage/coda1/p-amedford6/0/shared/rich_project_chbe-medford/medford-share/data/pseudos_module/espresso/nninc/pbe/van/O.UPF
     MD5 check sum: 78c19812648e8988a0fe644b0f25305e
     Pseudo is Ultrasoft, Zval =  6.0
     Generated by new atomic code, or converted to UPF format
     Using radial grid of  737 points,  4 beta functions with:
                l(1) =   0
                l(2) =   0
                l(3) =   1
                l(4) =   1
     Q(r) pseudized with  8 coefficients,  rinner =    0.800   0.800   0.800

     PseudoPot. # 3 for C  read from file:
     /storage/coda1/p-amedford6/0/shared/rich_project_chbe-medford/medford-share/data/pseudos_module/espresso/nninc/pbe/van/C.UPF
     MD5 check sum: 1a69bf6b8db32088f5b2163dbdb77a27
     Pseudo is Ultrasoft, Zval =  4.0
     Generated by new atomic code, or converted to UPF format
     Using radial grid of  721 points,  4 beta functions with:
                l(1) =   0
                l(2) =   0
                l(3) =   1
                l(4) =   1
     Q(r) pseudized with  8 coefficients,  rinner =    0.800   0.800   0.800

     PseudoPot. # 4 for H  read from file:
     /storage/coda1/p-amedford6/0/shared/rich_project_chbe-medford/medford-share/data/pseudos_module/espresso/nninc/pbe/van/H.UPF
     MD5 check sum: b5ee9d7bfd3a09ee7748110bda690ff7
     Pseudo is Ultrasoft, Zval =  1.0
     Generated by new atomic code, or converted to UPF format
     Using radial grid of  615 points,  1 beta functions with:
                l(1) =   0
     Q(r) pseudized with  8 coefficients,  rinner =    0.800

     PseudoPot. # 5 for N  read from file:
     /storage/coda1/p-amedford6/0/shared/rich_project_chbe-medford/medford-share/data/pseudos_module/espresso/nninc/pbe/van/N.UPF
     MD5 check sum: 90d10febe142ad51ac9d5be1deb811c4
     Pseudo is Ultrasoft, Zval =  5.0
     Generated by new atomic code, or converted to UPF format
     Using radial grid of  729 points,  4 beta functions with:
                l(1) =   0
                l(2) =   0
                l(3) =   1
                l(4) =   1
     Q(r) pseudized with  8 coefficients,  rinner =    0.800   0.800   0.800

     atomic species   valence    mass     pseudopotential
        Ti1           12.00    47.86700     Ti( 1.00)
        O1             6.00    15.99900     O ( 1.00)
        C1             4.00    12.01100     C ( 1.00)
        H1             1.00     1.00800     H ( 1.00)
        N1             5.00    14.00700     N ( 1.00)

     No symmetry found

   Cartesian axes

     site n.     atom                  positions (alat units)
         1           Ti1 tau(   1) = (   0.0004258   2.9801865   6.0000000  )
         2           Ti1 tau(   2) = (   3.2906075   1.4906267   6.0002472  )
         3           O1  tau(   3) = (   0.0006271   0.0005054   7.9858123  )
         4           O1  tau(   4) = (   3.2906025   0.0005020   7.3038282  )
         5           O1  tau(   5) = (   4.5942328   1.4918067   9.2879030  )
         6           O1  tau(   6) = (   1.9868534   1.4903216   9.2879459  )
         7           Ti1 tau(   7) = (   3.3138730   3.1023225   9.2183157  )
         8           Ti1 tau(   8) = (   0.0392070   1.5780841   9.3433077  )
         9           O1  tau(   9) = (   3.2868017   0.0212601  11.3135411  )
        10           O1  tau(  10) = (   0.0022550   0.0140515  10.5858881  )
        11           O1  tau(  11) = (   1.2767464   1.5002397  12.6205121  )
        12           O1  tau(  12) = (   5.2993684   1.4943797  12.6172415  )
        13           Ti1 tau(  13) = (   0.0200588   3.0780815  12.7918821  )
        14           Ti1 tau(  14) = (   3.2574684   1.5637424  12.4212484  )
        15           O1  tau(  15) = (   6.5768379   0.0158506  14.6682411  )
        16           O1  tau(  16) = (   3.2886937   5.9311801  13.9109749  )
        17           O1  tau(  17) = (   4.5620935   1.5260772  16.0398494  )
        18           O1  tau(  18) = (   2.0292830   1.5431627  16.0187044  )
        19           Ti1 tau(  19) = (   3.3027642   2.9567202  15.6520962  )
        20           Ti1 tau(  20) = (   0.0552782   1.4362356  15.9688716  )
        21           O1  tau(  21) = (   3.2904802   0.0005063   4.7018136  )
        22           O1  tau(  22) = (   0.0488089   0.0211857  17.1900833  )
        23           O1  tau(  23) = (   1.3043587   1.4918075   6.0039043  )
        24           O1  tau(  24) = (   5.2767064   1.4903225   6.0039473  )
        25           Ti1 tau(  25) = (   0.0000382   5.9609847   6.0000000  )
        26           Ti1 tau(  26) = (   3.2902200   4.4714249   6.0002472  )
        27           O1  tau(  27) = (   0.0002396   2.9813036   7.9858123  )
        28           O1  tau(  28) = (   3.2902150   2.9813002   7.3038282  )
        29           O1  tau(  29) = (   4.5938453   4.4726049   9.2879030  )
        30           O1  tau(  30) = (   1.9864658   4.4711199   9.2879459  )
        31           Ti1 tau(  31) = (   3.3219941   0.1169887   9.1790125  )
        32           Ti1 tau(  32) = (   0.0373256   4.5280481   9.3594506  )
        33           O1  tau(  33) = (   3.2887547   2.9594671  11.2851190  )
        34           O1  tau(  34) = (   0.0046902   2.9985155  10.5475055  )
        35           O1  tau(  35) = (   1.2817606   4.4707209  12.6310527  )
        36           O1  tau(  36) = (   5.3098963   4.4869072  12.6241852  )
        37           Ti1 tau(  37) = (   6.5328698   0.0937101  12.6083326  )
        38           Ti1 tau(  38) = (   3.2790761   4.6595539  12.6693962  )
        39           O1  tau(  39) = (   0.0062896   2.9920245  14.6683812  )
        40           O1  tau(  40) = (   3.3079832   2.9813091  13.8732900  )
        41           O1  tau(  41) = (   4.5514670   4.4448635  16.0695425  )
        42           O1  tau(  42) = (   2.0242163   4.4286948  16.0089506  )
        43           Ti1 tau(  43) = (   3.3772342   5.9382356  16.2476532  )
        44           Ti1 tau(  44) = (   0.0845355   4.5653432  16.0322982  )
        45           O1  tau(  45) = (   3.2900926   2.9813045   4.7018136  )
        46           O1  tau(  46) = (   1.3039711   4.4726057   6.0039043  )
        47           O1  tau(  47) = (   5.2763189   4.4711207   6.0039473  )
        48           C1  tau(  48) = (   6.0101766   2.9784267  18.6088694  )
        49           O1  tau(  49) = (   6.5649008   2.9952511  17.2928482  )
        50           H1  tau(  50) = (   4.9185495   2.9407445  18.5675634  )
        51           H1  tau(  51) = (   6.3703738   2.0936667  19.1370987  )
        52           H1  tau(  52) = (   6.3118891   3.8824302  19.1399426  )
        53           N1  tau(  53) = (   6.0262039   3.1690275  22.5535725  )
        54           N1  tau(  54) = (   5.1317247   3.1052473  21.8962875  )
        55           O1  tau(  55) = (   3.2068502   5.9581871  18.0710493  )
        56           H1  tau(  56) = (   2.3500504   0.2277792  18.4614507  )

     number of k points=    10  Fermi-Dirac smearing, width (Ry)=  0.0073
                       cart. coord. in units 2pi/alat
        k(    1) = (   0.0000000   0.0000000   0.0000000), wk =   0.1250000
        k(    2) = (   0.0000000   0.0419351   0.0000000), wk =   0.2500000
        k(    3) = (   0.0000000  -0.0838702   0.0000000), wk =   0.1250000
        k(    4) = (   0.0379955   0.0000049   0.0000000), wk =   0.2500000
        k(    5) = (   0.0379955   0.0419400   0.0000000), wk =   0.2500000
        k(    6) = (   0.0379955  -0.0838652   0.0000000), wk =   0.2500000
        k(    7) = (   0.0379955  -0.0419301   0.0000000), wk =   0.2500000
        k(    8) = (  -0.0759910  -0.0000099   0.0000000), wk =   0.1250000
        k(    9) = (  -0.0759910   0.0419252   0.0000000), wk =   0.2500000
        k(   10) = (  -0.0759910  -0.0838800   0.0000000), wk =   0.1250000

     Initial potential from superposition of free atoms

     starting charge  391.99915, renormalised to  408.00000

     negative rho (up, down):  9.970E-03 0.000E+00

     %%%%%%%%%%%%%%%%%%%%%%%%%%%%%%%%%%%%%%%%%%%%%%%%%%%%%%%%%%%%%%%%%%%%%%%%
     %                                                                      %
     % You are using vdW-DF, which was implemented by the Thonhauser group. %
     % Please cite the following two papers that made this development      %
     % possible and the two reviews that describe the various versions:     %
     %                                                                      %
     %   T. Thonhauser et al., PRL 115, 136402 (2015).                      %
     %   T. Thonhauser et al., PRB 76, 125112 (2007).                       %
     %   K. Berland et al., Rep. Prog. Phys. 78, 066501 (2015).             %
     %   D.C. Langreth et al., J. Phys.: Condens. Matter 21, 084203 (2009). %
     %                                                                      %
     %                                                                      %
     % If you are calculating the stress with vdW-DF, please also cite:     %
     %                                                                      %
     %   R. Sabatini et al., J. Phys.: Condens. Matter 24, 424209 (2012).   %
     %                                                                      %
     %%%%%%%%%%%%%%%%%%%%%%%%%%%%%%%%%%%%%%%%%%%%%%%%%%%%%%%%%%%%%%%%%%%%%%%%

     Adding external electric field

     Computed dipole along edir(3) :
        Dipole              -16.8152 Ry au,        -42.7399 Debye
        Dipole field         -0.0317 Ry au,

        Potential amp.        2.9416 Ry
        Total length         46.3494 bohr

     Starting wfcs are  308 atomic wfcs
  @ DRIVER MODE: Message from server: STATUS
  @ DRIVER MODE: Message from server: POSDATA
  @ DRIVER MODE: Reading and sharing cell
  @ DRIVER MODE: Reading and sharing positions
  @ DRIVER MODE: Received positions

     Self-consistent Calculation

     iteration #  1     ecut=    29.40 Ry     beta= 0.05
     Davidson diagonalization with overlap
     c_bands:  4 eigenvalues not converged
     c_bands:  1 eigenvalues not converged
     c_bands:  1 eigenvalues not converged
     c_bands:  2 eigenvalues not converged
     c_bands:  2 eigenvalues not converged
     c_bands:  1 eigenvalues not converged
     c_bands:  5 eigenvalues not converged
     ethr =  1.00E-05,  avg # of iterations = 28.8

[...]

     total energy              =   -2248.54020455 Ry
     estimated scf accuracy    <    8688.95979576 Ry

     iteration #  2     ecut=    29.40 Ry     beta= 0.05
     Davidson diagonalization with overlap
     ethr =  1.00E-02,  avg # of iterations = 29.5

[...]

     iteration # 46     ecut=    29.40 Ry     beta= 0.05
     Davidson diagonalization with overlap
     c_bands:  3 eigenvalues not converged
     c_bands:  1 eigenvalues not converged
     c_bands:  1 eigenvalues not converged
     c_bands:  2 eigenvalues not converged
     c_bands:  1 eigenvalues not converged
     c_bands:  4 eigenvalues not converged
     ethr =  1.76E-06,  avg # of iterations = 17.1

[...]

     total energy              =   -3005.28886448 Ry
     estimated scf accuracy    <       0.00000011 Ry

     iteration # 84     ecut=    29.40 Ry     beta= 0.05
     Davidson diagonalization with overlap
     ethr =  2.78E-11,  avg # of iterations =  1.0

     negative rho (up, down):  1.137E-02 0.000E+00

     Adding external electric field

     Computed dipole along edir(3) :
        Dipole                0.5489 Ry au,          1.3951 Debye
        Dipole field          0.0010 Ry au,

        Potential amp.       -0.0960 Ry
        Total length         46.3494 bohr

     End of self-consistent calculation

          k = 0.0000 0.0000 0.0000 ( 18029 PWs)   bands (ev):

   -56.1296 -56.0821 -55.5720 -55.5524 -55.5384 -55.5146 -55.4811 -55.4573
   -55.4227 -55.3964 -55.3627 -55.3210 -55.3199 -55.1839 -54.7427 -54.7087
   -32.5426 -32.3938 -32.3434 -32.3091 -32.2144 -32.1690 -32.0753 -32.0190
   -32.0106 -31.9040 -31.8602 -31.8427 -31.8374 -31.8155 -31.8132 -31.7751
   -31.7723 -31.7588 -31.7385 -31.7317 -31.7277 -31.6865 -31.6771 -31.6619
   -31.6588 -31.6409 -31.6379 -31.6285 -31.6208 -31.6112 -31.6043 -31.5867
   -31.5722 -31.5669 -31.5606 -31.5258 -31.5169 -31.5140 -31.4836 -31.4386
   -31.4006 -31.3891 -31.1371 -31.0828 -31.0585 -30.9539 -30.8690 -30.7582
   -20.7308 -17.3362 -16.3418 -16.2864 -16.1453 -15.9086 -15.7641 -15.6868
   -15.4572 -15.4468 -15.3319 -15.3250 -15.2901 -15.1592 -15.1418 -15.1342
   -15.0826 -15.0685 -15.0452 -15.0430 -15.0394 -15.0311 -14.9735 -14.9543
   -14.9148 -14.8560 -14.7796 -14.7593 -14.7103 -14.6993 -14.6577 -14.4322
   -13.2440 -13.1354  -9.0868  -6.0739  -4.0946  -3.9838  -3.9176  -3.8882
    -3.8131  -3.7600  -3.5880  -3.4893  -3.4624  -3.3867  -3.2913  -3.1861
    -2.9718  -2.8204  -2.7573  -2.7186  -2.7097  -2.6763  -2.6350  -2.5733
    -2.5188  -2.4766  -2.4428  -2.4087  -2.3485  -2.3361  -2.3203  -2.2899
    -2.2702  -2.2492  -2.2132  -2.2013  -2.0702  -2.0336  -2.0038  -1.9924
    -1.9392  -1.9206  -1.9018  -1.8918  -1.8470  -1.7507  -1.6526  -1.6386
    -1.5947  -1.4087  -1.3330  -1.2871  -1.2087  -1.1431  -1.0657  -1.0451
    -1.0353  -0.9805  -0.9426  -0.8412  -0.8073  -0.7681  -0.7005  -0.6953
    -0.6559  -0.5962  -0.5711  -0.5096  -0.4818  -0.4484  -0.3096  -0.2738
    -0.2564  -0.1942  -0.1936  -0.1015  -0.0421   0.0108   0.0297   0.0853
     0.1253   0.1475   0.1985   0.2292   0.2431   0.3265   0.3756   0.3826
     0.4169   0.4561   0.4748   0.5066   0.5949   0.6432   0.6694   0.6951
     0.8392   0.8535   0.9078   1.0142   1.0241   1.2054   1.2750   1.3106
     1.4972   1.5354   1.8266   1.8724   3.1706   3.3339   3.6131   3.7257
     3.7696   3.8095   3.8850   3.9120   4.0668   4.0903

[...]

          k = 0.0380-0.0419 0.0000 ( 17876 PWs)   bands (ev):

[...]

          k =-0.0760-0.0000 0.0000 ( 17886 PWs)   bands (ev):

[...]

          k =-0.0760-0.0839 0.0000 ( 17948 PWs)   bands (ev):

   -56.1226 -56.0889 -55.5700 -55.5475 -55.5373 -55.5086 -55.4856 -55.4631
   -55.4246 -55.3977 -55.3542 -55.3292 -55.3182 -55.1859 -54.7258 -54.7254
   -32.3893 -32.3738 -32.3474 -32.3451 -32.2747 -32.2459 -31.9638 -31.8838
   -31.8549 -31.8373 -31.8149 -31.8051 -31.7919 -31.7863 -31.7765 -31.7619
   -31.7565 -31.7467 -31.7465 -31.7386 -31.7293 -31.7205 -31.7073 -31.7057
   -31.7038 -31.6869 -31.6818 -31.6566 -31.6484 -31.6471 -31.6297 -31.6234
   -31.6003 -31.5936 -31.5781 -31.5662 -31.5635 -31.5361 -31.5210 -31.5031
   -31.4391 -31.3926 -31.0716 -31.0714 -30.9527 -30.9509 -30.9112 -30.9103
   -20.7307 -17.2986 -16.3156 -15.6931 -15.6034 -15.5941 -15.5867 -15.5538
   -15.5180 -15.4533 -15.4386 -15.3705 -15.2984 -15.2678 -15.2269 -15.2020
   -15.1860 -15.1492 -15.1448 -15.0829 -15.0391 -15.0303 -15.0156 -15.0019
   -14.9572 -14.9493 -14.9404 -14.9243 -14.9151 -14.8545 -14.7548 -14.5769
   -13.2397 -13.2385  -9.0870  -6.0755  -4.0056  -3.9841  -3.9211  -3.8357
    -3.7007  -3.4587  -2.9260  -2.8458  -2.7670  -2.7648  -2.6957  -2.6761
    -2.6282  -2.6052  -2.5688  -2.5535  -2.5315  -2.4660  -2.4412  -2.4268
    -2.4233  -2.4145  -2.3985  -2.3796  -2.3371  -2.3279  -2.3150  -2.3055
    -2.2865  -2.2821  -2.2696  -2.2485  -2.2080  -2.1460  -2.0886  -1.9482
    -1.9400  -1.9140  -1.8948  -1.8705  -1.8454  -1.7946  -1.7130  -1.6929
    -1.6743  -1.5987  -1.5397  -1.3348  -1.3138  -1.2961  -1.2263  -1.1579
    -1.0915  -1.0737  -1.0391  -1.0049  -0.9816  -0.9415  -0.8849  -0.8507
    -0.8076  -0.7948  -0.7567  -0.7190  -0.6723  -0.6088  -0.6007  -0.5677
    -0.5178  -0.4940  -0.4040  -0.3958  -0.3717  -0.3541  -0.3205  -0.2291
    -0.1766  -0.1309  -0.0420  -0.0025   0.0378   0.1708   0.2369   0.2728
     0.3455   0.3873   0.4936   0.5155   0.5946   0.6164   0.6456   0.6710
     0.7366   0.8072   0.8587   0.9079   0.9484   0.9632   1.0142   1.0643
     1.6684   1.6709   1.6785   1.6848   3.7135   3.7397   3.7476   3.7809
     3.9849   4.0149   4.0880   4.1047   4.1253   4.1800

     the Fermi energy is     2.5788 ev

!    total energy              =   -3005.28886962 Ry
     estimated scf accuracy    <       0.00000006 Ry
     smearing contrib. (-TS)   =      -0.00015431 Ry
     internal energy E=F+TS    =   -3005.28871530 Ry

     The total energy is F=E-TS. E is the sum of the following terms:
     one-electron contribution =  -22581.57926212 Ry
     hartree contribution      =   11387.09808879 Ry
     xc contribution           =    -500.22266563 Ry
     ewald contribution        =    8689.41455513 Ry
     electric field correction =       0.00056851 Ry

     convergence has been achieved in  84 iterations

     Forces acting on atoms (cartesian axes, Ry/au):

     atom    1 type  1   force =     0.00011441    0.00010691    0.13278938
     atom    2 type  1   force =    -0.00011007    0.00820860   -0.15824696
     atom    3 type  2   force =     0.00030123   -0.00362389   -0.05308880
     atom    4 type  2   force =     0.00059374    0.00104810    0.04010220
     atom    5 type  2   force =    -0.00786195   -0.00195100   -0.00033541
     atom    6 type  2   force =     0.00846865   -0.00490270   -0.00004139
     atom    7 type  1   force =    -0.00017767   -0.00030955   -0.00004593
     atom    8 type  1   force =    -0.00000369   -0.00026773    0.00021527
     atom    9 type  2   force =     0.00013482    0.00009689    0.00001082
     atom   10 type  2   force =    -0.00002922    0.00020391    0.00009617
     atom   11 type  2   force =    -0.00003205    0.00013158    0.00000422
     atom   12 type  2   force =     0.00036071   -0.00010778   -0.00004097
     atom   13 type  1   force =    -0.00017970    0.00002572    0.00017408
     atom   14 type  1   force =     0.00011904    0.00057042    0.00008588
     atom   15 type  2   force =    -0.00010631    0.00012468   -0.00004133
     atom   16 type  2   force =     0.00002580    0.00005569   -0.00042747
     atom   17 type  2   force =     0.00013178   -0.00045544    0.00023305
     atom   18 type  2   force =    -0.00008269   -0.00055404    0.00012839
     atom   19 type  1   force =    -0.00038503    0.00030460   -0.00005383
     atom   20 type  1   force =     0.00043320    0.00003901   -0.00005240
     atom   21 type  2   force =    -0.00006129    0.00009307    0.09914699
     atom   22 type  2   force =    -0.00023346    0.00013564    0.00001452
     atom   23 type  2   force =    -0.08057601    0.00058222   -0.03416711
     atom   24 type  2   force =     0.08035440    0.00110291   -0.03420824
     atom   25 type  1   force =    -0.00021496   -0.00017327    0.14168023
     atom   26 type  1   force =    -0.00018375   -0.00686460   -0.15776143
     atom   27 type  2   force =     0.00043929    0.00018154   -0.05212810
     atom   28 type  2   force =     0.00044124    0.00035697    0.04188213
     atom   29 type  2   force =    -0.00939849    0.00598237    0.00165482
     atom   30 type  2   force =     0.00931790    0.00235465    0.00176298
     atom   31 type  1   force =    -0.00002697    0.00010383    0.00013255
     atom   32 type  1   force =     0.00003116   -0.00013689   -0.00010286
     atom   33 type  2   force =    -0.00006276   -0.00031674    0.00026995
     atom   34 type  2   force =    -0.00009685   -0.00005847    0.00002587
     atom   35 type  2   force =     0.00063242    0.00026302   -0.00006341
     atom   36 type  2   force =    -0.00019619    0.00015327    0.00006262
     atom   37 type  1   force =    -0.00039183    0.00047502   -0.00063235
     atom   38 type  1   force =     0.00025117   -0.00033311   -0.00012012
     atom   39 type  2   force =    -0.00002767   -0.00000354    0.00027954
     atom   40 type  2   force =     0.00013146   -0.00008698   -0.00035033
     atom   41 type  2   force =     0.00073310    0.00014569    0.00019835
     atom   42 type  2   force =    -0.00038665    0.00035544    0.00002133
     atom   43 type  1   force =    -0.00058494   -0.00033146    0.00003989
     atom   44 type  1   force =     0.00003153   -0.00038051   -0.00039906
     atom   45 type  2   force =    -0.00007440    0.00018447    0.09873514
     atom   46 type  2   force =    -0.08054073   -0.00156620   -0.03412529
     atom   47 type  2   force =     0.08034921   -0.00103388   -0.03420933
     atom   48 type  3   force =     0.00029716   -0.00009164    0.00039494
     atom   49 type  2   force =    -0.00019731   -0.00032100    0.00059037
     atom   50 type  4   force =    -0.00041476    0.00016772   -0.00033035
     atom   51 type  4   force =    -0.00012697   -0.00008642    0.00010805
     atom   52 type  4   force =     0.00019670    0.00033375   -0.00029784
     atom   53 type  5   force =    -0.03585140   -0.00253122   -0.02636995
     atom   54 type  5   force =     0.03545551    0.00262858    0.02621875
     atom   55 type  2   force =    -0.00113451    0.00083662    0.00028934
     atom   56 type  4   force =     0.00040463   -0.00086483    0.00029240

     Total force =     0.388775     Total SCF correction =     0.000955
  @ DRIVER MODE: Message from server: STATUS
  @ DRIVER MODE: Message from server: GETFORCE
  @ DRIVER MODE: Returning v,forces,stress,ensemble

     Writing output data file ./calc.save/
  @ DRIVER MODE: Message from server: EXIT
  @ DRIVE MODE: Exiting

     General routines

     Parallel routines

   This run was terminated on:   5:42:48  24Sep2021

   JOB DONE.