     Program PWSCF v.6.7GPU starts on  2Aug2021 at 22: 7: 0

     R & G space division:  proc/nbgrp/npool/nimage =      16
     Reading input from /storage/home/hcoda1/3/ntian30/research/carbon/02Aug_vib_paired/ads_slab/CH3N2H_a/out_0037/pw.inp
Warning: card &CELL ignored
Warning: card   CELL_DYNAMICS='IPI', ignored
Warning: card / ignored

     Current dimensions of program PWSCF are:
     Max number of different atomic species (ntypx) = 10
     Max number of k-points (npk) =  40000
     Max angular momentum in pseudopotentials (lmaxx) =  3
     Presently no symmetry can be used with electric field

     Message from routine cell_base_init:
     DEPRECATED: use true lattice parameter, not A to a.u. conversion factor

     IMPORTANT: XC functional enforced from input :
     Exchange-correlation= BEEF-VDW
                           (   1   4  43  14   2   0   0)
     Any further DFT definition will be discarded
     Please, verify this is what you really want

  @ DRIVER MODE: Connecting to
 qe_1139763_2482535.sched-torque.pace.gatech.edus9cqaqr7_scratch
  using UNIX socket
  @ DRIVER MODE: Message from server: STATUS
  @ DRIVER MODE: Message from server: INIT
  @ DRIVER MODE: Receiving replica           0          -1
  @ DRIVER MODE: Receiving encoded integer          25
  @ DRIVER MODE:  SCF:  T  FORCE:  T  STRESS:  F  VC:  F  ENSEMBLE:  F
  @ DRIVER MODE:  SCF:  T  FORCE:  T  STRESS:  F  VC:  F  ENSEMBLE:  F

     Using Slab Decomposition

     bravais-lattice index     =            0
     lattice parameter (alat)  =       1.8897  a.u.
     unit-cell volume          =    6658.9804 (a.u.)^3
     number of atoms/cell      =           54
     number of atomic types    =            5
     number of electrons       =       396.00
     number of Kohn-Sham states=          208
     kinetic-energy cutoff     =      29.3995  Ry
     charge density cutoff     =     293.9946  Ry
     scf convergence threshold =      7.3E-08
     mixing beta               =       0.0500
     number of iterations used =            8  plain     mixing
     Exchange-correlation= BEEF-VDW
                           (   1   4  43  14   2   0   0)

     celldm(1)=   1.889726  celldm(2)=   0.000000  celldm(3)=   0.000000
     celldm(4)=   0.000000  celldm(5)=   0.000000  celldm(6)=   0.000000

     crystal axes: (cart. coord. in units of alat)
               a(1) = (   6.579727   0.000000   0.000000 )
               a(2) = (  -0.000775   5.961596   0.000000 )
               a(3) = (   0.000000   0.000000  25.155947 )

     reciprocal axes: (cart. coord. in units 2 pi/alat)
               b(1) = (  0.151982  0.000020  0.000000 )
               b(2) = (  0.000000  0.167740  0.000000 )
               b(3) = (  0.000000  0.000000  0.039752 )

     PseudoPot. # 1 for Ti read from file:
     /storage/coda1/p-amedford6/0/shared/rich_project_chbe-medford/medford-share/data/pseudos_module/espresso/nninc/pbe/van/Ti.UPF
     MD5 check sum: 8e4df49b7f0d34bbd5052bf3f5ea0213
     Pseudo is Ultrasoft, Zval = 12.0
     Generated by new atomic code, or converted to UPF format
     Using radial grid of  851 points,  6 beta functions with:
                l(1) =   0
                l(2) =   0
                l(3) =   1
                l(4) =   1
                l(5) =   2
                l(6) =   2
     Q(r) pseudized with  8 coefficients,  rinner =    1.000   1.000   1.000
                                                       1.000   1.000

     PseudoPot. # 2 for O  read from file:
     /storage/coda1/p-amedford6/0/shared/rich_project_chbe-medford/medford-share/data/pseudos_module/espresso/nninc/pbe/van/O.UPF
     MD5 check sum: 78c19812648e8988a0fe644b0f25305e
     Pseudo is Ultrasoft, Zval =  6.0
     Generated by new atomic code, or converted to UPF format
     Using radial grid of  737 points,  4 beta functions with:
                l(1) =   0
                l(2) =   0
                l(3) =   1
                l(4) =   1
     Q(r) pseudized with  8 coefficients,  rinner =    0.800   0.800   0.800

     PseudoPot. # 3 for N  read from file:
     /storage/coda1/p-amedford6/0/shared/rich_project_chbe-medford/medford-share/data/pseudos_module/espresso/nninc/pbe/van/N.UPF
     MD5 check sum: 90d10febe142ad51ac9d5be1deb811c4
     Pseudo is Ultrasoft, Zval =  5.0
     Generated by new atomic code, or converted to UPF format
     Using radial grid of  729 points,  4 beta functions with:
                l(1) =   0
                l(2) =   0
                l(3) =   1
                l(4) =   1
     Q(r) pseudized with  8 coefficients,  rinner =    0.800   0.800   0.800

     PseudoPot. # 4 for C  read from file:
     /storage/coda1/p-amedford6/0/shared/rich_project_chbe-medford/medford-share/data/pseudos_module/espresso/nninc/pbe/van/C.UPF
     MD5 check sum: 1a69bf6b8db32088f5b2163dbdb77a27
     Pseudo is Ultrasoft, Zval =  4.0
     Generated by new atomic code, or converted to UPF format
     Using radial grid of  721 points,  4 beta functions with:
                l(1) =   0
                l(2) =   0
                l(3) =   1
                l(4) =   1
     Q(r) pseudized with  8 coefficients,  rinner =    0.800   0.800   0.800

     PseudoPot. # 5 for H  read from file:
     /storage/coda1/p-amedford6/0/shared/rich_project_chbe-medford/medford-share/data/pseudos_module/espresso/nninc/pbe/van/H.UPF
     MD5 check sum: b5ee9d7bfd3a09ee7748110bda690ff7
     Pseudo is Ultrasoft, Zval =  1.0
     Generated by new atomic code, or converted to UPF format
     Using radial grid of  615 points,  1 beta functions with:
                l(1) =   0
     Q(r) pseudized with  8 coefficients,  rinner =    0.800

     atomic species   valence    mass     pseudopotential
        Ti1           12.00    47.86700     Ti( 1.00)
        O1             6.00    15.99900     O ( 1.00)
        N1             5.00    14.00700     N ( 1.00)
        C1             4.00    12.01100     C ( 1.00)
        H1             1.00     1.00800     H ( 1.00)

     No symmetry found

   Cartesian axes

     site n.     atom                  positions (alat units)
         1           Ti1 tau(   1) = (   0.0004258   2.9801865   6.0000000  )
         2           Ti1 tau(   2) = (   3.2906075   1.4906267   6.0002472  )
         3           O1  tau(   3) = (   0.0006271   0.0005054   7.9858123  )
         4           O1  tau(   4) = (   3.2906025   0.0005020   7.3038282  )
         5           O1  tau(   5) = (   4.5942328   1.4918067   9.2879030  )
         6           O1  tau(   6) = (   1.9868534   1.4903216   9.2879459  )
         7           Ti1 tau(   7) = (   3.2907910   2.8959150   9.1758416  )
         8           Ti1 tau(   8) = (   0.0015273   1.4827037   9.2680791  )
         9           O1  tau(   9) = (   3.3106937   0.0084137  11.2927479  )
        10           O1  tau(  10) = (   0.0116148   5.9584955  10.6183126  )
        11           O1  tau(  11) = (   1.3255326   1.5151957  12.5859258  )
        12           O1  tau(  12) = (   5.3246634   1.4871208  12.6441624  )
        13           Ti1 tau(  13) = (   6.5358624   2.9940264  12.7507449  )
        14           Ti1 tau(  14) = (   3.1828407   1.5032771  12.4528579  )
        15           O1  tau(  15) = (   0.1336207   0.0073438  14.6266748  )
        16           O1  tau(  16) = (   3.2550344   0.0288700  13.8306396  )
        17           O1  tau(  17) = (   4.6334483   1.5013943  15.9792279  )
        18           O1  tau(  18) = (   2.1409664   1.5470880  15.9954950  )
        19           Ti1 tau(  19) = (   3.4798582   3.0305884  15.6593850  )
        20           Ti1 tau(  20) = (   0.1386493   1.3724552  15.8613965  )
        21           O1  tau(  21) = (   3.2904802   0.0005063   4.7018136  )
        22           O1  tau(  22) = (   0.1429122   0.0333940  17.1908172  )
        23           O1  tau(  23) = (   1.3043587   1.4918075   6.0039043  )
        24           O1  tau(  24) = (   5.2767064   1.4903225   6.0039473  )
        25           Ti1 tau(  25) = (   0.0000382   5.9609847   6.0000000  )
        26           Ti1 tau(  26) = (   3.2902200   4.4714249   6.0002472  )
        27           O1  tau(  27) = (   0.0002396   2.9813036   7.9858123  )
        28           O1  tau(  28) = (   3.2902150   2.9813002   7.3038282  )
        29           O1  tau(  29) = (   4.5938453   4.4726049   9.2879030  )
        30           O1  tau(  30) = (   1.9864658   4.4711199   9.2879459  )
        31           Ti1 tau(  31) = (   3.2891106   5.8743827   9.1763621  )
        32           Ti1 tau(  32) = (   0.0006254   4.4649316   9.2693709  )
        33           O1  tau(  33) = (   3.3137399   2.9960163  11.2943833  )
        34           O1  tau(  34) = (   0.0092240   2.9805883  10.6323155  )
        35           O1  tau(  35) = (   1.3234708   4.4688006  12.5930975  )
        36           O1  tau(  36) = (   5.3222282   4.4932535  12.6449723  )
        37           Ti1 tau(  37) = (   6.5041614   0.0053836  12.5833808  )
        38           Ti1 tau(  38) = (   3.1843229   4.4812189  12.4522442  )
        39           O1  tau(  39) = (   0.0584892   2.9792810  14.6723703  )
        40           O1  tau(  40) = (   3.3232524   2.9928384  13.8523860  )
        41           O1  tau(  41) = (   4.6237859   4.5837569  15.7472905  )
        42           O1  tau(  42) = (   2.1882403   4.4693611  16.1038286  )
        43           Ti1 tau(  43) = (   3.3015484   0.0242660  15.6383815  )
        44           Ti1 tau(  44) = (   0.0181797   4.4930750  16.1931172  )
        45           O1  tau(  45) = (   3.2900926   2.9813045   4.7018136  )
        46           O1  tau(  46) = (   1.3039711   4.4726057   6.0039043  )
        47           O1  tau(  47) = (   5.2763189   4.4711207   6.0039473  )
        48           N1  tau(  48) = (   0.2677213   2.8760844  17.5655548  )
        49           C1  tau(  49) = (   1.2271684   2.7639891  18.6598760  )
        50           H1  tau(  50) = (   1.2930054   3.7106696  19.2072709  )
        51           H1  tau(  51) = (   0.8976878   1.9730418  19.3402421  )
        52           H1  tau(  52) = (   2.2102292   2.4972526  18.2850250  )
        53           N1  tau(  53) = (   5.6732178   3.4927010  17.8452151  )
        54           H1  tau(  54) = (   5.7245573   4.0058295  18.7343860  )

     number of k points=    10  Fermi-Dirac smearing, width (Ry)=  0.0073
                       cart. coord. in units 2pi/alat
        k(    1) = (   0.0000000   0.0000000   0.0000000), wk =   0.1250000
        k(    2) = (   0.0000000   0.0419351   0.0000000), wk =   0.2500000
        k(    3) = (   0.0000000  -0.0838702   0.0000000), wk =   0.1250000
        k(    4) = (   0.0379955   0.0000049   0.0000000), wk =   0.2500000
        k(    5) = (   0.0379955   0.0419400   0.0000000), wk =   0.2500000
        k(    6) = (   0.0379955  -0.0838652   0.0000000), wk =   0.2500000
        k(    7) = (   0.0379955  -0.0419301   0.0000000), wk =   0.2500000
        k(    8) = (  -0.0759910  -0.0000099   0.0000000), wk =   0.1250000
        k(    9) = (  -0.0759910   0.0419252   0.0000000), wk =   0.2500000
        k(   10) = (  -0.0759910  -0.0838800   0.0000000), wk =   0.1250000

     Initial potential from superposition of free atoms

     starting charge  379.99915, renormalised to  396.00000

     negative rho (up, down):  1.686E-02 0.000E+00

     %%%%%%%%%%%%%%%%%%%%%%%%%%%%%%%%%%%%%%%%%%%%%%%%%%%%%%%%%%%%%%%%%%%%%%%%
     %                                                                      %
     % You are using vdW-DF, which was implemented by the Thonhauser group. %
     % Please cite the following two papers that made this development      %
     % possible and the two reviews that describe the various versions:     %
     %                                                                      %
     %   T. Thonhauser et al., PRL 115, 136402 (2015).                      %
     %   T. Thonhauser et al., PRB 76, 125112 (2007).                       %
     %   K. Berland et al., Rep. Prog. Phys. 78, 066501 (2015).             %
     %   D.C. Langreth et al., J. Phys.: Condens. Matter 21, 084203 (2009). %
     %                                                                      %
     %                                                                      %
     % If you are calculating the stress with vdW-DF, please also cite:     %
     %                                                                      %
     %   R. Sabatini et al., J. Phys.: Condens. Matter 24, 424209 (2012).   %
     %                                                                      %
     %%%%%%%%%%%%%%%%%%%%%%%%%%%%%%%%%%%%%%%%%%%%%%%%%%%%%%%%%%%%%%%%%%%%%%%%

     Adding external electric field

     Computed dipole along edir(3) :
        Dipole               -8.2222 Ry au,        -20.8988 Debye
        Dipole field         -0.0155 Ry au,

        Potential amp.        1.4384 Ry
        Total length         46.3494 bohr

     Starting wfcs are  300 atomic wfcs
  @ DRIVER MODE: Message from server: STATUS
  @ DRIVER MODE: Message from server: POSDATA
  @ DRIVER MODE: Reading and sharing cell
  @ DRIVER MODE: Reading and sharing positions
  @ DRIVER MODE: Received positions

     Self-consistent Calculation

     iteration #  1     ecut=    29.40 Ry     beta= 0.05
     Davidson diagonalization with overlap
     c_bands:  1 eigenvalues not converged
     c_bands:  1 eigenvalues not converged
     c_bands:  1 eigenvalues not converged
     c_bands:  1 eigenvalues not converged
     c_bands:  4 eigenvalues not converged
     c_bands:  1 eigenvalues not converged
     c_bands:  4 eigenvalues not converged
     c_bands:  2 eigenvalues not converged
     c_bands:  1 eigenvalues not converged
     ethr =  1.00E-05,  avg # of iterations = 20.0

[...]

     total energy              =   -2607.33836580 Ry
     estimated scf accuracy    <    3677.85995896 Ry

     iteration #  2     ecut=    29.40 Ry     beta= 0.05
     Davidson diagonalization with overlap
     ethr =  1.00E-02,  avg # of iterations = 22.1

[...]

     iteration # 58     ecut=    29.40 Ry     beta= 0.05
     Davidson diagonalization with overlap
     c_bands:  2 eigenvalues not converged
     ethr =  1.18E-06,  avg # of iterations =  9.1

[...]

     total energy              =   -2940.35220154 Ry
     estimated scf accuracy    <       0.00000010 Ry

     iteration # 82     ecut=    29.40 Ry     beta= 0.05
     Davidson diagonalization with overlap
     ethr =  2.49E-11,  avg # of iterations =  7.1

     negative rho (up, down):  1.745E-02 0.000E+00

     Adding external electric field

     Computed dipole along edir(3) :
        Dipole                0.7404 Ry au,          1.8819 Debye
        Dipole field          0.0014 Ry au,

        Potential amp.       -0.1295 Ry
        Total length         46.3494 bohr

     End of self-consistent calculation

          k = 0.0000 0.0000 0.0000 ( 18029 PWs)   bands (ev):

   -56.0215 -55.9875 -55.8033 -55.7644 -55.7237 -55.6892 -55.6627 -55.6380
   -55.6285 -55.6033 -55.5752 -55.4956 -55.2408 -54.9177 -54.8837 -54.7899
   -32.4882 -32.3455 -32.3156 -32.2922 -32.1906 -32.1764 -32.1654 -32.1275
   -32.1110 -32.0982 -32.0824 -32.0443 -32.0211 -31.9811 -31.9744 -31.9722
   -31.9405 -31.9301 -31.9195 -31.8949 -31.8861 -31.8684 -31.8625 -31.8586
   -31.8384 -31.8366 -31.8280 -31.8242 -31.8181 -31.8013 -31.7935 -31.7922
   -31.7754 -31.7507 -31.6920 -31.6650 -31.6163 -31.4674 -31.4645 -31.3213
   -31.2419 -31.2189 -31.2069 -31.1386 -31.0526 -30.9944 -30.9413 -30.9144
   -17.3052 -16.5583 -16.3674 -16.0773 -15.9267 -15.9075 -15.7878 -15.6904
   -15.6127 -15.5130 -15.4603 -15.4053 -15.3933 -15.3682 -15.3095 -15.2870
   -15.2462 -15.2283 -15.1861 -15.1755 -15.1299 -15.1069 -15.0849 -15.0515
   -14.9858 -14.9158 -14.9024 -14.7470 -14.6068 -14.4550 -13.4192 -13.3044
   -11.5540  -8.3467  -5.0184  -4.0139  -3.9449  -3.8748  -3.8426  -3.7733
    -3.6919  -3.4409  -3.4183  -3.3573  -3.0696  -3.0224  -2.9984  -2.9938
    -2.8961  -2.7564  -2.7256  -2.6658  -2.6601  -2.6392  -2.6198  -2.6026
    -2.5456  -2.4910  -2.4733  -2.4315  -2.2967  -2.2712  -2.2669  -2.2448
    -2.1748  -2.1655  -2.1009  -2.0831  -2.0607  -2.0419  -2.0053  -1.8724
    -1.8388  -1.7741  -1.6927  -1.6034  -1.5234  -1.4879  -1.4008  -1.3853
    -1.3386  -1.2597  -1.2540  -1.1780  -1.1449  -1.0686  -1.0441  -1.0063
    -0.8975  -0.8712  -0.8124  -0.7558  -0.7096  -0.6970  -0.6550  -0.6307
    -0.6254  -0.6110  -0.5979  -0.4038  -0.3732  -0.2307  -0.1848  -0.1603
    -0.1194  -0.0966  -0.0385  -0.0147  -0.0096   0.0307   0.0486   0.0913
     0.1471   0.1629   0.1880   0.2811   0.3132   0.3682   0.4944   0.5084
     0.5965   0.6634   0.7691   0.7823   0.8343   0.9654   1.0610   1.0850
     1.1042   1.3096   1.4144   1.6683   1.7108   3.0263   3.1718   3.2671
     3.3757   3.4961   3.5710   3.6095   3.7841   3.8213   3.8636   3.9207

[...]

          k = 0.0380-0.0419 0.0000 ( 17876 PWs)   bands (ev):

[...]

          k =-0.0760-0.0000 0.0000 ( 17886 PWs)   bands (ev):

[...]

          k =-0.0760-0.0839 0.0000 ( 17948 PWs)   bands (ev):

   -56.0054 -56.0035 -55.7911 -55.7764 -55.7100 -55.7025 -55.6473 -55.6439
   -55.6247 -55.6167 -55.5713 -55.4994 -55.2402 -54.9007 -54.9006 -54.7904
   -32.3046 -32.3037 -32.3014 -32.2997 -32.1529 -32.1408 -32.1283 -32.1263
   -32.0494 -32.0367 -32.0264 -32.0223 -32.0154 -32.0128 -31.9694 -31.9639
   -31.9548 -31.9427 -31.9125 -31.9012 -31.8891 -31.8847 -31.8804 -31.8791
   -31.8751 -31.8707 -31.8545 -31.8491 -31.8435 -31.8394 -31.8343 -31.8162
   -31.7970 -31.7936 -31.7644 -31.7059 -31.6068 -31.4699 -31.4639 -31.2571
   -31.2318 -31.2316 -31.1346 -31.1344 -31.0957 -31.0956 -31.0064 -30.9183
   -17.2860 -15.9755 -15.9471 -15.8394 -15.8200 -15.7317 -15.7184 -15.6036
   -15.5959 -15.5831 -15.5168 -15.4709 -15.4604 -15.3784 -15.3515 -15.3400
   -15.3153 -15.3054 -15.2991 -15.2883 -15.2763 -15.1958 -15.1907 -15.1889
   -15.1138 -15.0906 -14.9053 -14.8618 -14.6643 -14.6175 -13.4068 -13.4064
   -11.5575  -8.3266  -5.0251  -3.9126  -3.8376  -3.2777  -3.2415  -3.0256
    -2.9998  -2.9794  -2.9498  -2.7652  -2.7514  -2.7450  -2.7278  -2.7149
    -2.6777  -2.6587  -2.6459  -2.5799  -2.5706  -2.5497  -2.5448  -2.5350
    -2.5162  -2.5008  -2.4930  -2.4734  -2.4593  -2.4147  -2.3602  -2.3375
    -2.2875  -2.1933  -2.0884  -2.0426  -2.0285  -2.0206  -1.9975  -1.9884
    -1.9481  -1.9355  -1.8495  -1.6659  -1.6180  -1.5563  -1.5503  -1.5433
    -1.4836  -1.4274  -1.3867  -1.3100  -1.2430  -1.1910  -1.1623  -1.1378
    -1.1034  -1.0368  -0.9709  -0.9515  -0.9385  -0.9090  -0.9056  -0.8878
    -0.8096  -0.7262  -0.6844  -0.6548  -0.6322  -0.6181  -0.6024  -0.5797
    -0.4732  -0.4044  -0.3568  -0.3116  -0.2700  -0.2272  -0.1084  -0.0934
     0.1007   0.1672   0.1925   0.2714   0.3677   0.3934   0.4040   0.4679
     0.5445   0.6057   0.6404   0.6952   0.7108   0.7321   0.7990   1.0181
     1.0701   1.4783   1.4799   1.5289   1.5299   2.9900   3.6720   3.6796
     3.6830   3.6932   3.7137   3.7370   3.7893   3.8240   3.9259   3.9721

     the Fermi energy is     3.1364 ev

!    total energy              =   -2940.35221148 Ry
     estimated scf accuracy    <       0.00000007 Ry
     smearing contrib. (-TS)   =      -0.01869918 Ry
     internal energy E=F+TS    =   -2940.33351230 Ry

     The total energy is F=E-TS. E is the sum of the following terms:
     one-electron contribution =  -24661.66416551 Ry
     hartree contribution      =   12419.97184856 Ry
     xc contribution           =    -486.05022816 Ry
     ewald contribution        =    9787.40799836 Ry
     electric field correction =       0.00103445 Ry

     convergence has been achieved in  82 iterations

     Forces acting on atoms (cartesian axes, Ry/au):

     atom    1 type  1   force =     0.00026264   -0.00035670    0.10150200
     atom    2 type  1   force =     0.00003103   -0.00086465   -0.17137684
     atom    3 type  2   force =     0.00029087    0.00021643   -0.03324152
     atom    4 type  2   force =     0.00003330   -0.00078795    0.04480638
     atom    5 type  2   force =    -0.01195571   -0.00021159   -0.00232763
     atom    6 type  2   force =     0.01439154    0.00038277   -0.00112920
     atom    7 type  1   force =     0.00140432   -0.00129324   -0.00429691
     atom    8 type  1   force =    -0.00078547    0.02219548    0.05620161
     atom    9 type  2   force =     0.00002852   -0.00032561    0.00046871
     atom   10 type  2   force =    -0.00266539    0.00207292   -0.02590901
     atom   11 type  2   force =     0.00002466    0.00024532   -0.00005171
     atom   12 type  2   force =     0.00008969    0.00074014    0.00002669
     atom   13 type  1   force =    -0.00005456    0.00013561    0.00019311
     atom   14 type  1   force =     0.00028942    0.00028306   -0.00004019
     atom   15 type  2   force =     0.00020049   -0.00022349    0.00008081
     atom   16 type  2   force =    -0.00002792   -0.00013460    0.00078279
     atom   17 type  2   force =    -0.00014068   -0.00084971   -0.00000025
     atom   18 type  2   force =     0.00046199   -0.00069980    0.00030781
     atom   19 type  1   force =    -0.00001790   -0.00049219    0.00026516
     atom   20 type  1   force =    -0.00004108    0.00010278   -0.00026836
     atom   21 type  2   force =     0.00006767   -0.00001161    0.10208212
     atom   22 type  2   force =    -0.00001255   -0.00027504    0.00032745
     atom   23 type  2   force =    -0.07327670   -0.00015819   -0.02887805
     atom   24 type  2   force =     0.07322945    0.00033264   -0.02892811
     atom   25 type  1   force =    -0.00029277   -0.00032679    0.10193498
     atom   26 type  1   force =     0.00002595   -0.00017035   -0.17137630
     atom   27 type  2   force =     0.00036354   -0.00022812   -0.03196339
     atom   28 type  2   force =     0.00009299   -0.00057042    0.04541914
     atom   29 type  2   force =    -0.01210502    0.00213206   -0.00288302
     atom   30 type  2   force =     0.01441825    0.00229182   -0.00162743
     atom   31 type  1   force =     0.00159830    0.00092936   -0.00562970
     atom   32 type  1   force =    -0.00059218   -0.02474933    0.05725829
     atom   33 type  2   force =     0.00015046    0.00035966    0.00062932
     atom   34 type  2   force =    -0.00420730    0.00212214   -0.04830737
     atom   35 type  2   force =     0.00061842   -0.00058554    0.00001286
     atom   36 type  2   force =    -0.00040752   -0.00075215    0.00014045
     atom   37 type  1   force =     0.00005806    0.00060934   -0.00012185
     atom   38 type  1   force =     0.00003681   -0.00014105   -0.00014239
     atom   39 type  2   force =     0.00020516   -0.00002922   -0.00062653
     atom   40 type  2   force =    -0.00008262   -0.00003342   -0.00033158
     atom   41 type  2   force =     0.00001097    0.00057992   -0.00009955
     atom   42 type  2   force =    -0.00000968    0.00036343    0.00072587
     atom   43 type  1   force =    -0.00019075   -0.00012452    0.00010806
     atom   44 type  1   force =    -0.00021081    0.00006506    0.00050071
     atom   45 type  2   force =     0.00004764   -0.00005176    0.10214208
     atom   46 type  2   force =    -0.07328975   -0.00009536   -0.02885327
     atom   47 type  2   force =     0.07324228    0.00028431   -0.02888949
     atom   48 type  3   force =    -0.00084858    0.00160917    0.00207955
     atom   49 type  4   force =    -0.00021738   -0.00043645    0.00013585
     atom   50 type  5   force =    -0.00006426   -0.00024233   -0.00012174
     atom   51 type  5   force =    -0.00051133   -0.00047937    0.00054614
     atom   52 type  5   force =    -0.00019206   -0.00047744    0.00015543
     atom   53 type  3   force =    -0.00140921   -0.00124988   -0.00168934
     atom   54 type  5   force =     0.00193475   -0.00062555    0.00027737

     Total force =     0.377746     Total SCF correction =     0.000524
  @ DRIVER MODE: Message from server: STATUS
  @ DRIVER MODE: Message from server: GETFORCE
  @ DRIVER MODE: Returning v,forces,stress,ensemble

     Writing output data file ./calc.save/
  @ DRIVER MODE: Message from server: EXIT
  @ DRIVE MODE: Exiting

     General routines

     Parallel routines

   This run was terminated on:  22:23:36   2Aug2021

   JOB DONE.