     Program PWSCF v.6.7GPU starts on  9Sep2021 at  0:53: 1

     R & G space division:  proc/nbgrp/npool/nimage =      10
     Reading input from /storage/home/hcoda1/3/ntian30/research/carbon/CxH_vib/CH2_calc/ads_slab/CH2OH_a/out_0011/pw.inp
Warning: card &CELL ignored
Warning: card   CELL_DYNAMICS='IPI', ignored
Warning: card / ignored

     Current dimensions of program PWSCF are:
     Max number of different atomic species (ntypx) = 10
     Max number of k-points (npk) =  40000
     Max angular momentum in pseudopotentials (lmaxx) =  3
     Presently no symmetry can be used with electric field

     Message from routine cell_base_init:
     DEPRECATED: use true lattice parameter, not A to a.u. conversion factor

     IMPORTANT: XC functional enforced from input :
     Exchange-correlation= BEEF-VDW
                           (   1   4  43  14   2   0   0)
     Any further DFT definition will be discarded
     Please, verify this is what you really want

  @ DRIVER MODE: Connecting to
 qe_1139763_2767393.sched-torque.pace.gatech.edujai8uefc_scratch
  using UNIX socket
  @ DRIVER MODE: Message from server: STATUS
  @ DRIVER MODE: Message from server: INIT
  @ DRIVER MODE: Receiving replica           0          -1
  @ DRIVER MODE: Receiving encoded integer          25
  @ DRIVER MODE:  SCF:  T  FORCE:  T  STRESS:  F  VC:  F  ENSEMBLE:  F
  @ DRIVER MODE:  SCF:  T  FORCE:  T  STRESS:  F  VC:  F  ENSEMBLE:  F

     Using Slab Decomposition

     bravais-lattice index     =            0
     lattice parameter (alat)  =       1.8897  a.u.
     unit-cell volume          =    6658.9804 (a.u.)^3
     number of atoms/cell      =           52
     number of atomic types    =            4
     number of electrons       =       391.00
     number of Kohn-Sham states=          205
     kinetic-energy cutoff     =      29.3995  Ry
     charge density cutoff     =     293.9946  Ry
     scf convergence threshold =      7.3E-08
     mixing beta               =       0.0500
     number of iterations used =            8  plain     mixing
     Exchange-correlation= BEEF-VDW
                           (   1   4  43  14   2   0   0)

     celldm(1)=   1.889726  celldm(2)=   0.000000  celldm(3)=   0.000000
     celldm(4)=   0.000000  celldm(5)=   0.000000  celldm(6)=   0.000000

     crystal axes: (cart. coord. in units of alat)
               a(1) = (   6.579727   0.000000   0.000000 )
               a(2) = (  -0.000775   5.961596   0.000000 )
               a(3) = (   0.000000   0.000000  25.155947 )

     reciprocal axes: (cart. coord. in units 2 pi/alat)
               b(1) = (  0.151982  0.000020  0.000000 )
               b(2) = (  0.000000  0.167740  0.000000 )
               b(3) = (  0.000000  0.000000  0.039752 )

     PseudoPot. # 1 for Ti read from file:
     /storage/coda1/p-amedford6/0/shared/rich_project_chbe-medford/medford-share/data/pseudos_module/espresso/nninc/pbe/van/Ti.UPF
     MD5 check sum: 8e4df49b7f0d34bbd5052bf3f5ea0213
     Pseudo is Ultrasoft, Zval = 12.0
     Generated by new atomic code, or converted to UPF format
     Using radial grid of  851 points,  6 beta functions with:
                l(1) =   0
                l(2) =   0
                l(3) =   1
                l(4) =   1
                l(5) =   2
                l(6) =   2
     Q(r) pseudized with  8 coefficients,  rinner =    1.000   1.000   1.000
                                                       1.000   1.000

     PseudoPot. # 2 for O  read from file:
     /storage/coda1/p-amedford6/0/shared/rich_project_chbe-medford/medford-share/data/pseudos_module/espresso/nninc/pbe/van/O.UPF
     MD5 check sum: 78c19812648e8988a0fe644b0f25305e
     Pseudo is Ultrasoft, Zval =  6.0
     Generated by new atomic code, or converted to UPF format
     Using radial grid of  737 points,  4 beta functions with:
                l(1) =   0
                l(2) =   0
                l(3) =   1
                l(4) =   1
     Q(r) pseudized with  8 coefficients,  rinner =    0.800   0.800   0.800

     PseudoPot. # 3 for C  read from file:
     /storage/coda1/p-amedford6/0/shared/rich_project_chbe-medford/medford-share/data/pseudos_module/espresso/nninc/pbe/van/C.UPF
     MD5 check sum: 1a69bf6b8db32088f5b2163dbdb77a27
     Pseudo is Ultrasoft, Zval =  4.0
     Generated by new atomic code, or converted to UPF format
     Using radial grid of  721 points,  4 beta functions with:
                l(1) =   0
                l(2) =   0
                l(3) =   1
                l(4) =   1
     Q(r) pseudized with  8 coefficients,  rinner =    0.800   0.800   0.800

     PseudoPot. # 4 for H  read from file:
     /storage/coda1/p-amedford6/0/shared/rich_project_chbe-medford/medford-share/data/pseudos_module/espresso/nninc/pbe/van/H.UPF
     MD5 check sum: b5ee9d7bfd3a09ee7748110bda690ff7
     Pseudo is Ultrasoft, Zval =  1.0
     Generated by new atomic code, or converted to UPF format
     Using radial grid of  615 points,  1 beta functions with:
                l(1) =   0
     Q(r) pseudized with  8 coefficients,  rinner =    0.800

     atomic species   valence    mass     pseudopotential
        Ti1           12.00    47.86700     Ti( 1.00)
        O1             6.00    15.99900     O ( 1.00)
        C1             4.00    12.01100     C ( 1.00)
        H1             1.00     1.00800     H ( 1.00)

     No symmetry found

   Cartesian axes

     site n.     atom                  positions (alat units)
         1           Ti1 tau(   1) = (   0.0004258   2.9801865   6.0000000  )
         2           Ti1 tau(   2) = (   3.2906075   1.4906267   6.0002472  )
         3           O1  tau(   3) = (   0.0006271   0.0005054   7.9858123  )
         4           O1  tau(   4) = (   3.2906025   0.0005020   7.3038282  )
         5           O1  tau(   5) = (   4.5942328   1.4918067   9.2879030  )
         6           O1  tau(   6) = (   1.9868534   1.4903216   9.2879459  )
         7           Ti1 tau(   7) = (   3.2719207   3.0347534   9.1624208  )
         8           Ti1 tau(   8) = (   6.5479847   1.5485315   9.3114282  )
         9           O1  tau(   9) = (   3.3130468   5.9588651  11.3322545  )
        10           O1  tau(  10) = (   6.5779921   5.9597862  10.5854321  )
        11           O1  tau(  11) = (   1.2828316   1.4981946  12.5939292  )
        12           O1  tau(  12) = (   5.3076696   1.4616608  12.6584921  )
        13           Ti1 tau(  13) = (   0.0652608   2.9737989  12.6898254  )
        14           Ti1 tau(  14) = (   3.3390979   1.6191063  12.6104043  )
        15           O1  tau(  15) = (   0.1579450   5.9294946  14.6423442  )
        16           O1  tau(  16) = (   3.1680681   5.9402194  13.8972025  )
        17           O1  tau(  17) = (   4.6139792   1.3367142  15.8434034  )
        18           O1  tau(  18) = (   2.0781381   1.4994250  16.2203239  )
        19           Ti1 tau(  19) = (   3.3500823   2.9415657  15.9644494  )
        20           Ti1 tau(  20) = (   0.0003135   1.3236462  15.9137460  )
        21           O1  tau(  21) = (   3.2904802   0.0005063   4.7018136  )
        22           O1  tau(  22) = (   6.5745372   5.9170875  17.1494514  )
        23           O1  tau(  23) = (   1.3043587   1.4918075   6.0039043  )
        24           O1  tau(  24) = (   5.2767064   1.4903225   6.0039473  )
        25           Ti1 tau(  25) = (   0.0000382   5.9609847   6.0000000  )
        26           Ti1 tau(  26) = (   3.2902200   4.4714249   6.0002472  )
        27           O1  tau(  27) = (   0.0002396   2.9813036   7.9858123  )
        28           O1  tau(  28) = (   3.2902150   2.9813002   7.3038282  )
        29           O1  tau(  29) = (   4.5938453   4.4726049   9.2879030  )
        30           O1  tau(  30) = (   1.9864658   4.4711199   9.2879459  )
        31           Ti1 tau(  31) = (   3.2621523   0.0587977   9.1770015  )
        32           Ti1 tau(  32) = (   6.5480547   4.4734411   9.2675299  )
        33           O1  tau(  33) = (   3.3121001   2.9882390  11.3403144  )
        34           O1  tau(  34) = (   6.5676672   2.9758547  10.5865552  )
        35           O1  tau(  35) = (   1.2831373   4.4454538  12.5925867  )
        36           O1  tau(  36) = (   5.3039272   4.4828346  12.6569239  )
        37           Ti1 tau(  37) = (   0.0139245   5.9553196  12.4525254  )
        38           Ti1 tau(  38) = (   3.3396594   4.5312311  12.4471015  )
        39           O1  tau(  39) = (   0.0911754   2.9492527  14.7447760  )
        40           O1  tau(  40) = (   3.3148107   2.9226094  13.9462488  )
        41           O1  tau(  41) = (   4.6112453   4.5441982  15.8230962  )
        42           O1  tau(  42) = (   2.0803191   4.3866676  16.2083192  )
        43           Ti1 tau(  43) = (   3.2736722   5.9210238  15.6733724  )
        44           Ti1 tau(  44) = (   6.5729336   4.5444060  15.8763539  )
        45           O1  tau(  45) = (   3.2900926   2.9813045   4.7018136  )
        46           O1  tau(  46) = (   1.3039711   4.4726057   6.0039043  )
        47           O1  tau(  47) = (   5.2763189   4.4711207   6.0039473  )
        48           C1  tau(  48) = (   4.5191185   2.9521590  17.9045005  )
        49           O1  tau(  49) = (   5.9932199   2.9473452  17.4810416  )
        50           H1  tau(  50) = (   6.5492410   2.9805908  18.2871345  )
        51           H1  tau(  51) = (   4.3954453   2.0589761  18.5217578  )
        52           H1  tau(  52) = (   4.3955607   3.8562994  18.5052511  )

     number of k points=    10  Fermi-Dirac smearing, width (Ry)=  0.0073
                       cart. coord. in units 2pi/alat
        k(    1) = (   0.0000000   0.0000000   0.0000000), wk =   0.1250000
        k(    2) = (   0.0000000   0.0419351   0.0000000), wk =   0.2500000
        k(    3) = (   0.0000000  -0.0838702   0.0000000), wk =   0.1250000
        k(    4) = (   0.0379955   0.0000049   0.0000000), wk =   0.2500000
        k(    5) = (   0.0379955   0.0419400   0.0000000), wk =   0.2500000
        k(    6) = (   0.0379955  -0.0838652   0.0000000), wk =   0.2500000
        k(    7) = (   0.0379955  -0.0419301   0.0000000), wk =   0.2500000
        k(    8) = (  -0.0759910  -0.0000099   0.0000000), wk =   0.1250000
        k(    9) = (  -0.0759910   0.0419252   0.0000000), wk =   0.2500000
        k(   10) = (  -0.0759910  -0.0838800   0.0000000), wk =   0.1250000

     Initial potential from superposition of free atoms

     starting charge  374.99918, renormalised to  391.00000

     negative rho (up, down):  1.947E-02 0.000E+00

     %%%%%%%%%%%%%%%%%%%%%%%%%%%%%%%%%%%%%%%%%%%%%%%%%%%%%%%%%%%%%%%%%%%%%%%%
     %                                                                      %
     % You are using vdW-DF, which was implemented by the Thonhauser group. %
     % Please cite the following two papers that made this development      %
     % possible and the two reviews that describe the various versions:     %
     %                                                                      %
     %   T. Thonhauser et al., PRL 115, 136402 (2015).                      %
     %   T. Thonhauser et al., PRB 76, 125112 (2007).                       %
     %   K. Berland et al., Rep. Prog. Phys. 78, 066501 (2015).             %
     %   D.C. Langreth et al., J. Phys.: Condens. Matter 21, 084203 (2009). %
     %                                                                      %
     %                                                                      %
     % If you are calculating the stress with vdW-DF, please also cite:     %
     %                                                                      %
     %   R. Sabatini et al., J. Phys.: Condens. Matter 24, 424209 (2012).   %
     %                                                                      %
     %%%%%%%%%%%%%%%%%%%%%%%%%%%%%%%%%%%%%%%%%%%%%%%%%%%%%%%%%%%%%%%%%%%%%%%%

     Adding external electric field

     Computed dipole along edir(3) :
        Dipole               -5.2181 Ry au,        -13.2630 Debye
        Dipole field         -0.0098 Ry au,

        Potential amp.        0.9128 Ry
        Total length         46.3494 bohr

     Starting wfcs are  295 atomic wfcs
  @ DRIVER MODE: Message from server: STATUS
  @ DRIVER MODE: Message from server: POSDATA
  @ DRIVER MODE: Reading and sharing cell
  @ DRIVER MODE: Reading and sharing positions
  @ DRIVER MODE: Received positions

     Self-consistent Calculation

     iteration #  1     ecut=    29.40 Ry     beta= 0.05
     Davidson diagonalization with overlap
     c_bands:  1 eigenvalues not converged
     c_bands:  3 eigenvalues not converged
     c_bands:  2 eigenvalues not converged
     c_bands:  3 eigenvalues not converged
     c_bands:  5 eigenvalues not converged
     c_bands:  3 eigenvalues not converged
     c_bands:  1 eigenvalues not converged
     c_bands:  2 eigenvalues not converged
     ethr =  1.00E-05,  avg # of iterations = 19.7

[...]

     total energy              =   -2802.53022675 Ry
     estimated scf accuracy    <    1415.98793444 Ry

     iteration #  2     ecut=    29.40 Ry     beta= 0.05
     Davidson diagonalization with overlap
     ethr =  1.00E-02,  avg # of iterations = 16.7

[...]

     iteration # 64     ecut=    29.40 Ry     beta= 0.05
     Davidson diagonalization with overlap
     c_bands:  1 eigenvalues not converged
     ethr =  3.15E-11,  avg # of iterations = 13.6

[...]

     total energy              =   -2931.32984311 Ry
     estimated scf accuracy    <       0.00000013 Ry

     iteration # 65     ecut=    29.40 Ry     beta= 0.05
     Davidson diagonalization with overlap
     ethr =  3.15E-11,  avg # of iterations = 11.6

     negative rho (up, down):  1.893E-02 0.000E+00

     Adding external electric field

     Computed dipole along edir(3) :
        Dipole                0.9634 Ry au,          2.4486 Debye
        Dipole field          0.0018 Ry au,

        Potential amp.       -0.1685 Ry
        Total length         46.3494 bohr

     End of self-consistent calculation

          k = 0.0000 0.0000 0.0000 ( 18029 PWs)   bands (ev):

   -55.8448 -55.8057 -55.7624 -55.7471 -55.6926 -55.6840 -55.6746 -55.6646
   -55.6260 -55.6146 -55.5932 -55.5827 -55.5558 -55.5491 -54.8157 -54.7816
   -32.3653 -32.3166 -32.2317 -32.2098 -32.1540 -32.1266 -32.1146 -32.0815
   -32.0739 -32.0597 -32.0383 -32.0128 -31.9999 -31.9912 -31.9621 -31.9562
   -31.9386 -31.9370 -31.9183 -31.9051 -31.9043 -31.8982 -31.8733 -31.8535
   -31.8505 -31.8478 -31.8426 -31.8378 -31.8247 -31.8107 -31.7990 -31.7984
   -31.7967 -31.7895 -31.7808 -31.7803 -31.7572 -31.7398 -31.7382 -31.7247
   -31.6959 -31.6320 -31.2228 -31.1334 -31.1109 -31.0398 -30.9537 -30.8421
   -19.5371 -16.5493 -16.3278 -16.1496 -16.0519 -15.9902 -15.8257 -15.7447
   -15.5566 -15.4807 -15.4743 -15.4486 -15.3859 -15.3720 -15.3611 -15.3413
   -15.3398 -15.3089 -15.2458 -15.2328 -15.2262 -15.1970 -15.1269 -15.1172
   -14.9724 -14.9554 -14.9551 -14.9428 -14.8442 -14.7756 -13.3154 -13.1985
    -9.5945  -6.4616  -4.2205  -4.0293  -3.8637  -3.7595  -3.7517  -3.7162
    -3.5643  -3.4858  -3.2716  -3.1308  -3.0834  -3.0164  -2.9734  -2.9115
    -2.8301  -2.7631  -2.7168  -2.6705  -2.6582  -2.6320  -2.6210  -2.5722
    -2.5363  -2.5099  -2.3993  -2.3952  -2.3457  -2.2879  -2.2508  -2.1979
    -2.1599  -2.1411  -2.1184  -2.0888  -2.0587  -2.0397  -2.0195  -1.9652
    -1.9139  -1.8374  -1.8208  -1.5512  -1.4611  -1.3885  -1.3628  -1.2847
    -1.2592  -1.2377  -1.2195  -1.2066  -1.1798  -1.1008  -1.0946  -1.0025
    -0.9686  -0.8844  -0.8309  -0.7421  -0.7025  -0.6307  -0.6109  -0.5760
    -0.5572  -0.5418  -0.3983  -0.3771  -0.3515  -0.2324  -0.2138  -0.1572
    -0.1299  -0.0711  -0.0465   0.0188   0.0496   0.0968   0.1248   0.1443
     0.1654   0.1808   0.2263   0.3123   0.3884   0.4041   0.4290   0.4953
     0.6807   0.7103   0.8388   0.9044   1.1367   1.2094   1.2531   1.2966
     1.3952   1.7838   1.8392   3.3078   3.3625   3.4226   3.4277   3.4648
     3.5573   3.7381   3.7578   3.8129   3.8701

[...]

          k = 0.0380-0.0419 0.0000 ( 17876 PWs)   bands (ev):

[...]

          k =-0.0760-0.0000 0.0000 ( 17886 PWs)   bands (ev):

[...]

          k =-0.0760-0.0839 0.0000 ( 17948 PWs)   bands (ev):

   -55.8348 -55.8155 -55.7584 -55.7407 -55.6988 -55.6875 -55.6692 -55.6624
   -55.6199 -55.6172 -55.5911 -55.5827 -55.5664 -55.5513 -54.7987 -54.7985
   -32.2885 -32.1414 -32.1324 -32.1231 -32.0993 -32.0857 -32.0798 -32.0560
   -32.0180 -32.0055 -31.9925 -31.9875 -31.9741 -31.9674 -31.9639 -31.9603
   -31.9566 -31.9535 -31.9430 -31.9380 -31.9107 -31.9077 -31.8962 -31.8931
   -31.8880 -31.8821 -31.8793 -31.8694 -31.8620 -31.8594 -31.8510 -31.8315
   -31.8206 -31.8162 -31.8073 -31.8061 -31.7921 -31.7895 -31.7868 -31.7833
   -31.7756 -31.6335 -31.1238 -31.1233 -31.0365 -31.0353 -30.9968 -30.9962
   -19.5308 -16.1382 -15.9598 -15.8045 -15.7764 -15.7755 -15.6409 -15.6235
   -15.6021 -15.5685 -15.5300 -15.5016 -15.4763 -15.4702 -15.4264 -15.3709
   -15.3642 -15.3518 -15.3256 -15.2676 -15.2556 -15.2532 -15.2108 -15.1571
   -15.1343 -15.1247 -15.1170 -15.1029 -15.0730 -15.0523 -13.3026 -13.2979
    -9.5948  -6.4446  -4.2263  -3.9045  -3.2809  -3.2102  -3.0081  -3.0047
    -2.9219  -2.8826  -2.8715  -2.8299  -2.7633  -2.7571  -2.7389  -2.6710
    -2.6460  -2.6430  -2.6039  -2.5953  -2.5741  -2.5656  -2.5445  -2.5186
    -2.4847  -2.4451  -2.4282  -2.4186  -2.4000  -2.3911  -2.3850  -2.3420
    -2.3227  -2.2117  -2.1310  -2.0223  -2.0153  -1.9687  -1.9550  -1.9317
    -1.8965  -1.8817  -1.8760  -1.8400  -1.7596  -1.6144  -1.5164  -1.4972
    -1.4589  -1.4302  -1.3973  -1.3776  -1.2815  -1.2770  -1.2172  -1.1868
    -1.1816  -1.0647  -1.0563  -0.9578  -0.9239  -0.8139  -0.8050  -0.7790
    -0.7567  -0.7217  -0.6968  -0.6278  -0.6072  -0.5669  -0.5492  -0.4837
    -0.4457  -0.4288  -0.3517  -0.3127  -0.2509  -0.2021  -0.1695  -0.0177
     0.1628   0.1806   0.2122   0.3226   0.3609   0.4342   0.4900   0.5051
     0.5750   0.6086   0.6772   0.7082   0.7702   0.8099   1.2606   1.5703
     1.5808   1.6438   1.6574   3.5998   3.6485   3.7732   3.7895   3.8214
     3.8267   3.8370   3.8592   3.9214   3.9610

     the Fermi energy is     3.2979 ev

!    total energy              =   -2931.32987767 Ry
     estimated scf accuracy    <       0.00000004 Ry
     smearing contrib. (-TS)   =      -0.02177501 Ry
     internal energy E=F+TS    =   -2931.30810266 Ry

     The total energy is F=E-TS. E is the sum of the following terms:
     one-electron contribution =  -24943.71618686 Ry
     hartree contribution      =   12558.33735566 Ry
     xc contribution           =    -482.03855071 Ry
     ewald contribution        =    9936.10752784 Ry
     electric field correction =       0.00175142 Ry

     convergence has been achieved in  65 iterations

     Forces acting on atoms (cartesian axes, Ry/au):

     atom    1 type  1   force =     0.00041820   -0.00074676    0.09648906
     atom    2 type  1   force =     0.00022951   -0.00291787   -0.17613542
     atom    3 type  2   force =    -0.00038018   -0.00272896   -0.03078825
     atom    4 type  2   force =    -0.00049074    0.00065446    0.04968908
     atom    5 type  2   force =    -0.01529032   -0.00088331    0.00151398
     atom    6 type  2   force =     0.01483146    0.00155614    0.00315709
     atom    7 type  1   force =    -0.00059360   -0.00030977   -0.00009240
     atom    8 type  1   force =    -0.00057060    0.00060477    0.00064598
     atom    9 type  2   force =    -0.00018674    0.00026495    0.00046315
     atom   10 type  2   force =    -0.00000137    0.00008199   -0.00070041
     atom   11 type  2   force =     0.00024599    0.00030229    0.00015828
     atom   12 type  2   force =    -0.00019572    0.00013305   -0.00022042
     atom   13 type  1   force =     0.00018143   -0.00018098    0.00059989
     atom   14 type  1   force =     0.00032653   -0.00058455    0.00040310
     atom   15 type  2   force =     0.00001732    0.00062806   -0.00047826
     atom   16 type  2   force =    -0.00015403   -0.00011845    0.00023503
     atom   17 type  2   force =    -0.00019681    0.00001391    0.00009722
     atom   18 type  2   force =    -0.00003982    0.00018077    0.00018401
     atom   19 type  1   force =     0.00001867   -0.00037057    0.00091905
     atom   20 type  1   force =     0.00022049    0.00017842   -0.00019745
     atom   21 type  2   force =     0.00016070    0.00023164    0.10301179
     atom   22 type  2   force =     0.00022072    0.00042991    0.00013402
     atom   23 type  2   force =    -0.07098746    0.00144639   -0.02884959
     atom   24 type  2   force =     0.07111146    0.00185818   -0.02886641
     atom   25 type  1   force =     0.00034154    0.00078916    0.11233089
     atom   26 type  1   force =    -0.00012133    0.00362920   -0.17642408
     atom   27 type  2   force =    -0.00014954    0.00020223   -0.02745268
     atom   28 type  2   force =    -0.00030922    0.00087299    0.04915152
     atom   29 type  2   force =    -0.01334434   -0.00250177    0.00128868
     atom   30 type  2   force =     0.01437723   -0.00068212    0.00299176
     atom   31 type  1   force =     0.00019941   -0.00032202    0.00022896
     atom   32 type  1   force =    -0.00074891    0.00067138   -0.00045741
     atom   33 type  2   force =    -0.00025808   -0.00029492   -0.00025557
     atom   34 type  2   force =     0.00011976    0.00016654   -0.00002630
     atom   35 type  2   force =    -0.00014485   -0.00006633    0.00028611
     atom   36 type  2   force =     0.00020538   -0.00009049    0.00029569
     atom   37 type  1   force =    -0.00024516   -0.00020473    0.00041120
     atom   38 type  1   force =     0.00028796    0.00034213    0.00031558
     atom   39 type  2   force =     0.00026429    0.00020327   -0.00067060
     atom   40 type  2   force =    -0.00011117   -0.00055206   -0.00085456
     atom   41 type  2   force =    -0.00048449    0.00001363    0.00022280
     atom   42 type  2   force =     0.00008014   -0.00007863    0.00034312
     atom   43 type  1   force =     0.00032663    0.00032582    0.00002588
     atom   44 type  1   force =     0.00063035    0.00039555   -0.00071124
     atom   45 type  2   force =     0.00015522    0.00016514    0.10343974
     atom   46 type  2   force =    -0.07080219   -0.00175037   -0.02883610
     atom   47 type  2   force =     0.07091498   -0.00133933   -0.02886161
     atom   48 type  3   force =    -0.00107149   -0.00015241   -0.00183904
     atom   49 type  2   force =     0.00619862    0.00106749    0.01748368
     atom   50 type  4   force =    -0.00661113   -0.00084657   -0.01329666
     atom   51 type  4   force =     0.00052971   -0.00003995   -0.00041021
     atom   52 type  4   force =     0.00087561    0.00035345   -0.00009165

     Total force =     0.370056     Total SCF correction =     0.000568
  @ DRIVER MODE: Message from server: STATUS
  @ DRIVER MODE: Message from server: GETFORCE
  @ DRIVER MODE: Returning v,forces,stress,ensemble

     Writing output data file ./calc.save/
  @ DRIVER MODE: Message from server: EXIT
  @ DRIVE MODE: Exiting

     General routines

     Parallel routines

   This run was terminated on:   1:10:12   9Sep2021

   JOB DONE.