     Program PWSCF v.6.7GPU starts on  2Aug2021 at 13:45:55

     R & G space division:  proc/nbgrp/npool/nimage =      16
     Reading input from /storage/home/hcoda1/3/ntian30/research/carbon/02Aug_vib_paired/ads_slab/CH3NH3_a/out_0006/pw.inp
Warning: card &CELL ignored
Warning: card   CELL_DYNAMICS='IPI', ignored
Warning: card / ignored

     Current dimensions of program PWSCF are:
     Max number of different atomic species (ntypx) = 10
     Max number of k-points (npk) =  40000
     Max angular momentum in pseudopotentials (lmaxx) =  3
     Presently no symmetry can be used with electric field

     Message from routine cell_base_init:
     DEPRECATED: use true lattice parameter, not A to a.u. conversion factor

     IMPORTANT: XC functional enforced from input :
     Exchange-correlation= BEEF-VDW
                           (   1   4  43  14   2   0   0)
     Any further DFT definition will be discarded
     Please, verify this is what you really want

  @ DRIVER MODE: Connecting to
 qe_1139763_2482539.sched-torque.pace.gatech.edu6krvfi0n_scratch
  using UNIX socket
  @ DRIVER MODE: Message from server: STATUS
  @ DRIVER MODE: Message from server: INIT
  @ DRIVER MODE: Receiving replica           0          -1
  @ DRIVER MODE: Receiving encoded integer          25
  @ DRIVER MODE:  SCF:  T  FORCE:  T  STRESS:  F  VC:  F  ENSEMBLE:  F
  @ DRIVER MODE:  SCF:  T  FORCE:  T  STRESS:  F  VC:  F  ENSEMBLE:  F

     Using Slab Decomposition

     bravais-lattice index     =            0
     lattice parameter (alat)  =       1.8897  a.u.
     unit-cell volume          =    6658.9804 (a.u.)^3
     number of atoms/cell      =           55
     number of atomic types    =            5
     number of electrons       =       393.00
     number of Kohn-Sham states=          206
     kinetic-energy cutoff     =      29.3995  Ry
     charge density cutoff     =     293.9946  Ry
     scf convergence threshold =      7.3E-08
     mixing beta               =       0.0500
     number of iterations used =            8  plain     mixing
     Exchange-correlation= BEEF-VDW
                           (   1   4  43  14   2   0   0)

     celldm(1)=   1.889726  celldm(2)=   0.000000  celldm(3)=   0.000000
     celldm(4)=   0.000000  celldm(5)=   0.000000  celldm(6)=   0.000000

     crystal axes: (cart. coord. in units of alat)
               a(1) = (   6.579727   0.000000   0.000000 )
               a(2) = (  -0.000775   5.961596   0.000000 )
               a(3) = (   0.000000   0.000000  25.155947 )

     reciprocal axes: (cart. coord. in units 2 pi/alat)
               b(1) = (  0.151982  0.000020  0.000000 )
               b(2) = (  0.000000  0.167740  0.000000 )
               b(3) = (  0.000000  0.000000  0.039752 )

     PseudoPot. # 1 for Ti read from file:
     /storage/coda1/p-amedford6/0/shared/rich_project_chbe-medford/medford-share/data/pseudos_module/espresso/nninc/pbe/van/Ti.UPF
     MD5 check sum: 8e4df49b7f0d34bbd5052bf3f5ea0213
     Pseudo is Ultrasoft, Zval = 12.0
     Generated by new atomic code, or converted to UPF format
     Using radial grid of  851 points,  6 beta functions with:
                l(1) =   0
                l(2) =   0
                l(3) =   1
                l(4) =   1
                l(5) =   2
                l(6) =   2
     Q(r) pseudized with  8 coefficients,  rinner =    1.000   1.000   1.000
                                                       1.000   1.000

     PseudoPot. # 2 for O  read from file:
     /storage/coda1/p-amedford6/0/shared/rich_project_chbe-medford/medford-share/data/pseudos_module/espresso/nninc/pbe/van/O.UPF
     MD5 check sum: 78c19812648e8988a0fe644b0f25305e
     Pseudo is Ultrasoft, Zval =  6.0
     Generated by new atomic code, or converted to UPF format
     Using radial grid of  737 points,  4 beta functions with:
                l(1) =   0
                l(2) =   0
                l(3) =   1
                l(4) =   1
     Q(r) pseudized with  8 coefficients,  rinner =    0.800   0.800   0.800

     PseudoPot. # 3 for C  read from file:
     /storage/coda1/p-amedford6/0/shared/rich_project_chbe-medford/medford-share/data/pseudos_module/espresso/nninc/pbe/van/C.UPF
     MD5 check sum: 1a69bf6b8db32088f5b2163dbdb77a27
     Pseudo is Ultrasoft, Zval =  4.0
     Generated by new atomic code, or converted to UPF format
     Using radial grid of  721 points,  4 beta functions with:
                l(1) =   0
                l(2) =   0
                l(3) =   1
                l(4) =   1
     Q(r) pseudized with  8 coefficients,  rinner =    0.800   0.800   0.800

     PseudoPot. # 4 for H  read from file:
     /storage/coda1/p-amedford6/0/shared/rich_project_chbe-medford/medford-share/data/pseudos_module/espresso/nninc/pbe/van/H.UPF
     MD5 check sum: b5ee9d7bfd3a09ee7748110bda690ff7
     Pseudo is Ultrasoft, Zval =  1.0
     Generated by new atomic code, or converted to UPF format
     Using radial grid of  615 points,  1 beta functions with:
                l(1) =   0
     Q(r) pseudized with  8 coefficients,  rinner =    0.800

     PseudoPot. # 5 for N  read from file:
     /storage/coda1/p-amedford6/0/shared/rich_project_chbe-medford/medford-share/data/pseudos_module/espresso/nninc/pbe/van/N.UPF
     MD5 check sum: 90d10febe142ad51ac9d5be1deb811c4
     Pseudo is Ultrasoft, Zval =  5.0
     Generated by new atomic code, or converted to UPF format
     Using radial grid of  729 points,  4 beta functions with:
                l(1) =   0
                l(2) =   0
                l(3) =   1
                l(4) =   1
     Q(r) pseudized with  8 coefficients,  rinner =    0.800   0.800   0.800

     atomic species   valence    mass     pseudopotential
        Ti1           12.00    47.86700     Ti( 1.00)
        O1             6.00    15.99900     O ( 1.00)
        C1             4.00    12.01100     C ( 1.00)
        H1             1.00     1.00800     H ( 1.00)
        N1             5.00    14.00700     N ( 1.00)

     No symmetry found

   Cartesian axes

     site n.     atom                  positions (alat units)
         1           Ti1 tau(   1) = (   0.0004258   2.9801865   6.0000000  )
         2           Ti1 tau(   2) = (   3.2906075   1.4906267   6.0002472  )
         3           O1  tau(   3) = (   0.0006271   0.0005054   7.9858123  )
         4           O1  tau(   4) = (   3.2906025   0.0005020   7.3038282  )
         5           O1  tau(   5) = (   4.5942328   1.4918067   9.2879030  )
         6           O1  tau(   6) = (   1.9868534   1.4903216   9.2879459  )
         7           Ti1 tau(   7) = (   3.2907910   2.8959150   9.1758416  )
         8           Ti1 tau(   8) = (   0.0015273   1.4827037   9.2680791  )
         9           O1  tau(   9) = (   3.2981156   0.0012339  11.3300471  )
        10           O1  tau(  10) = (   0.0116148   5.9584955  10.6183126  )
        11           O1  tau(  11) = (   1.3033605   1.5036236  12.6199488  )
        12           O1  tau(  12) = (   5.2811161   1.5074500  12.6162500  )
        13           Ti1 tau(  13) = (   0.0407500   2.9455431  12.6352795  )
        14           Ti1 tau(  14) = (   3.3444429   1.4910927  12.4779025  )
        15           O1  tau(  15) = (   0.0052662   0.0451097  14.6026341  )
        16           O1  tau(  16) = (   3.2946143   0.0124870  13.9210852  )
        17           O1  tau(  17) = (   4.5465206   1.5046604  16.0624161  )
        18           O1  tau(  18) = (   2.0546879   1.5048301  16.0609706  )
        19           Ti1 tau(  19) = (   3.2991624   2.9918142  15.6995589  )
        20           Ti1 tau(  20) = (   6.5707204   1.4025535  15.8059435  )
        21           O1  tau(  21) = (   3.2904802   0.0005063   4.7018136  )
        22           O1  tau(  22) = (   0.0164654   0.0145536  17.1360041  )
        23           O1  tau(  23) = (   1.3043587   1.4918075   6.0039043  )
        24           O1  tau(  24) = (   5.2767064   1.4903225   6.0039473  )
        25           Ti1 tau(  25) = (   0.0000382   5.9609847   6.0000000  )
        26           Ti1 tau(  26) = (   3.2902200   4.4714249   6.0002472  )
        27           O1  tau(  27) = (   0.0002396   2.9813036   7.9858123  )
        28           O1  tau(  28) = (   3.2902150   2.9813002   7.3038282  )
        29           O1  tau(  29) = (   4.5938453   4.4726049   9.2879030  )
        30           O1  tau(  30) = (   1.9864658   4.4711199   9.2879459  )
        31           Ti1 tau(  31) = (   3.2891106   5.8743827   9.1763621  )
        32           Ti1 tau(  32) = (   0.0006254   4.4649316   9.2693709  )
        33           O1  tau(  33) = (   3.2977166   2.9913250  11.3287690  )
        34           O1  tau(  34) = (   0.0092240   2.9805883  10.6323155  )
        35           O1  tau(  35) = (   1.3008534   4.4801743  12.6308489  )
        36           O1  tau(  36) = (   5.2850400   4.4860598  12.6280017  )
        37           Ti1 tau(  37) = (   0.0409916   5.9178611  12.5441859  )
        38           Ti1 tau(  38) = (   3.3442415   4.4710906  12.4862270  )
        39           O1  tau(  39) = (   0.0109228   2.9791018  14.7123696  )
        40           O1  tau(  40) = (   3.2998940   2.9912248  13.9043662  )
        41           O1  tau(  41) = (   4.5474046   4.4713503  16.0779382  )
        42           O1  tau(  42) = (   2.0618872   4.4767818  16.0643778  )
        43           Ti1 tau(  43) = (   3.2722838   0.0128901  15.7174356  )
        44           Ti1 tau(  44) = (   6.5592075   4.4947239  16.1563676  )
        45           O1  tau(  45) = (   3.2900926   2.9813045   4.7018136  )
        46           O1  tau(  46) = (   1.3039711   4.4726057   6.0039043  )
        47           O1  tau(  47) = (   5.2763189   4.4711207   6.0039473  )
        48           C1  tau(  48) = (   0.0359503   3.0870652  17.8441721  )
        49           H1  tau(  49) = (   5.8142062   3.6010452  18.3763092  )
        50           H1  tau(  50) = (   6.4784518   2.0305676  18.0614951  )
        51           H1  tau(  51) = (   0.9863100   3.3782628  18.2908018  )
        52           N1  tau(  52) = (   4.7642638   1.7931862  21.6370373  )
        53           H1  tau(  53) = (   4.5527921   2.7808570  21.5386679  )
        54           H1  tau(  54) = (   4.1042548   1.2952780  21.0483319  )
        55           H1  tau(  55) = (   4.5435699   1.5432347  22.5953497  )

     number of k points=    10  Fermi-Dirac smearing, width (Ry)=  0.0073
                       cart. coord. in units 2pi/alat
        k(    1) = (   0.0000000   0.0000000   0.0000000), wk =   0.1250000
        k(    2) = (   0.0000000   0.0419351   0.0000000), wk =   0.2500000
        k(    3) = (   0.0000000  -0.0838702   0.0000000), wk =   0.1250000
        k(    4) = (   0.0379955   0.0000049   0.0000000), wk =   0.2500000
        k(    5) = (   0.0379955   0.0419400   0.0000000), wk =   0.2500000
        k(    6) = (   0.0379955  -0.0838652   0.0000000), wk =   0.2500000
        k(    7) = (   0.0379955  -0.0419301   0.0000000), wk =   0.2500000
        k(    8) = (  -0.0759910  -0.0000099   0.0000000), wk =   0.1250000
        k(    9) = (  -0.0759910   0.0419252   0.0000000), wk =   0.2500000
        k(   10) = (  -0.0759910  -0.0838800   0.0000000), wk =   0.1250000

     Initial potential from superposition of free atoms

     starting charge  376.99914, renormalised to  393.00000

     negative rho (up, down):  1.000E-02 0.000E+00

     %%%%%%%%%%%%%%%%%%%%%%%%%%%%%%%%%%%%%%%%%%%%%%%%%%%%%%%%%%%%%%%%%%%%%%%%
     %                                                                      %
     % You are using vdW-DF, which was implemented by the Thonhauser group. %
     % Please cite the following two papers that made this development      %
     % possible and the two reviews that describe the various versions:     %
     %                                                                      %
     %   T. Thonhauser et al., PRL 115, 136402 (2015).                      %
     %   T. Thonhauser et al., PRB 76, 125112 (2007).                       %
     %   K. Berland et al., Rep. Prog. Phys. 78, 066501 (2015).             %
     %   D.C. Langreth et al., J. Phys.: Condens. Matter 21, 084203 (2009). %
     %                                                                      %
     %                                                                      %
     % If you are calculating the stress with vdW-DF, please also cite:     %
     %                                                                      %
     %   R. Sabatini et al., J. Phys.: Condens. Matter 24, 424209 (2012).   %
     %                                                                      %
     %%%%%%%%%%%%%%%%%%%%%%%%%%%%%%%%%%%%%%%%%%%%%%%%%%%%%%%%%%%%%%%%%%%%%%%%

     Adding external electric field

     Computed dipole along edir(3) :
        Dipole               -9.0648 Ry au,        -23.0404 Debye
        Dipole field         -0.0171 Ry au,

        Potential amp.        1.5857 Ry
        Total length         46.3494 bohr

     Starting wfcs are  298 atomic wfcs
  @ DRIVER MODE: Message from server: STATUS
  @ DRIVER MODE: Message from server: POSDATA
  @ DRIVER MODE: Reading and sharing cell
  @ DRIVER MODE: Reading and sharing positions
  @ DRIVER MODE: Received positions

     Self-consistent Calculation

     iteration #  1     ecut=    29.40 Ry     beta= 0.05
     Davidson diagonalization with overlap
     c_bands:  1 eigenvalues not converged
     c_bands:  1 eigenvalues not converged
     c_bands:  1 eigenvalues not converged
     ethr =  1.00E-05,  avg # of iterations = 17.8

[...]

     total energy              =   -2692.40170124 Ry
     estimated scf accuracy    <    2566.54872760 Ry

[...]

     iteration #  3     ecut=    29.40 Ry     beta= 0.05
     Davidson diagonalization with overlap
     ethr =  1.00E-02,  avg # of iterations = 16.4

[...]

     iteration # 65     ecut=    29.40 Ry     beta= 0.05
     Davidson diagonalization with overlap
     c_bands:  1 eigenvalues not converged
     ethr =  4.48E-09,  avg # of iterations =  7.2

[...]

     total energy              =   -2922.78947403 Ry
     estimated scf accuracy    <       0.00000008 Ry

     iteration # 81     ecut=    29.40 Ry     beta= 0.05
     Davidson diagonalization with overlap
     ethr =  1.97E-11,  avg # of iterations =  6.9

     negative rho (up, down):  1.131E-02 0.000E+00

     Adding external electric field

     Computed dipole along edir(3) :
        Dipole                0.5444 Ry au,          1.3837 Debye
        Dipole field          0.0010 Ry au,

        Potential amp.       -0.0952 Ry
        Total length         46.3494 bohr

     End of self-consistent calculation

          k = 0.0000 0.0000 0.0000 ( 18029 PWs)   bands (ev):

   -56.0386 -56.0351 -56.0045 -55.9987 -55.9067 -55.8719 -55.8715 -55.8470
   -55.8283 -55.8130 -55.8084 -55.7746 -55.5736 -55.4053 -55.0144 -54.9804
   -32.5935 -32.5205 -32.3662 -32.3601 -32.3462 -32.3451 -32.3317 -32.2990
   -32.2813 -32.2446 -32.2386 -32.2380 -32.2146 -32.1908 -32.1783 -32.1721
   -32.1424 -32.1404 -32.1266 -32.0958 -32.0861 -32.0751 -32.0438 -32.0390
   -32.0345 -32.0325 -32.0184 -32.0170 -32.0106 -31.9849 -31.9848 -31.9820
   -31.9772 -31.9763 -31.9615 -31.9519 -31.9207 -31.8524 -31.7878 -31.6932
   -31.6337 -31.5220 -31.4215 -31.3333 -31.3108 -31.2382 -31.1517 -31.0407
   -16.7735 -16.5101 -16.2781 -16.1875 -16.1378 -16.0512 -15.8738 -15.7571
   -15.7088 -15.6079 -15.5751 -15.5554 -15.5390 -15.5087 -15.5004 -15.4754
   -15.4640 -15.4575 -15.4230 -15.3952 -15.3700 -15.3553 -15.2355 -15.1831
   -15.1669 -15.1359 -15.0879 -15.0715 -14.6168 -13.6463 -13.5172 -13.4008
    -9.0528  -4.1482  -3.9680  -3.9425  -3.8944  -3.8525  -3.7050  -3.6877
    -3.6499  -3.5896  -3.2719  -3.2149  -3.2066  -3.1658  -3.1511  -2.9938
    -2.9295  -2.8552  -2.8396  -2.8329  -2.8081  -2.8028  -2.7977  -2.7554
    -2.7130  -2.6581  -2.6343  -2.5658  -2.5231  -2.4491  -2.3763  -2.3484
    -2.3067  -2.3063  -2.2673  -2.2553  -2.2471  -2.2369  -2.2015  -2.1913
    -2.0066  -1.9651  -1.8876  -1.8218  -1.8073  -1.6435  -1.5370  -1.4897
    -1.4702  -1.4632  -1.4448  -1.4280  -1.3323  -1.2142  -1.1813  -1.1317
    -1.0845  -1.0362  -1.0055  -0.9052  -0.8887  -0.7974  -0.7842  -0.7655
    -0.6592  -0.6323  -0.4963  -0.4754  -0.4694  -0.4091  -0.3936  -0.3206
    -0.2962  -0.2390  -0.1747  -0.1624  -0.0943  -0.0684  -0.0648  -0.0084
    -0.0039   0.0416   0.0549   0.1689   0.2217   0.2716   0.3249   0.4306
     0.5112   0.6257   0.6725   0.7316   0.9335   1.0071   1.1167   1.1999
     1.2178   1.4766   1.5785   1.6240   3.0999   3.1847   3.2063   3.2321
     3.3395   3.3649   3.5504   3.5669   3.6013   3.6212

[...]

          k = 0.0380-0.0419 0.0000 ( 17876 PWs)   bands (ev):

[...]

          k =-0.0760-0.0000 0.0000 ( 17886 PWs)   bands (ev):

[...]

          k =-0.0760-0.0839 0.0000 ( 17948 PWs)   bands (ev):

   -56.0221 -56.0209 -56.0198 -56.0138 -55.8917 -55.8867 -55.8631 -55.8368
   -55.8306 -55.8288 -55.7928 -55.7904 -55.5721 -55.4066 -54.9974 -54.9973
   -32.3995 -32.3929 -32.3361 -32.3354 -32.3176 -32.3166 -32.2984 -32.2936
   -32.2273 -32.2263 -32.2233 -32.2124 -32.1723 -32.1713 -32.1520 -32.1476
   -32.1434 -32.1416 -32.1403 -32.1326 -32.1319 -32.1291 -32.0931 -32.0827
   -32.0780 -32.0556 -32.0514 -32.0377 -32.0290 -32.0281 -32.0243 -32.0225
   -32.0073 -32.0060 -32.0014 -31.9953 -31.9302 -31.8353 -31.7900 -31.6960
   -31.6787 -31.5653 -31.3236 -31.3235 -31.2343 -31.2342 -31.1950 -31.1949
   -16.2154 -16.1924 -15.9860 -15.9518 -15.9483 -15.9413 -15.8105 -15.7301
   -15.7295 -15.7038 -15.6428 -15.6314 -15.6095 -15.5709 -15.5466 -15.5442
   -15.5255 -15.5205 -15.4943 -15.4842 -15.4713 -15.4641 -15.3715 -15.3520
   -15.3482 -15.2987 -15.1532 -15.0072 -14.8971 -13.6455 -13.5027 -13.5025
    -9.0670  -3.7071  -3.6987  -3.5117  -3.4803  -3.2378  -3.1996  -3.1865
    -3.1174  -2.9610  -2.9214  -2.9034  -2.8957  -2.8513  -2.8437  -2.8386
    -2.8269  -2.7989  -2.7817  -2.7455  -2.7391  -2.7230  -2.7161  -2.7046
    -2.6875  -2.6574  -2.6489  -2.6206  -2.6132  -2.5933  -2.5770  -2.5487
    -2.5438  -2.4163  -2.2571  -2.2334  -2.1729  -2.1653  -2.1254  -2.1071
    -2.0991  -2.0718  -2.0471  -2.0163  -1.8599  -1.7453  -1.7310  -1.7142
    -1.6454  -1.6176  -1.5323  -1.4424  -1.4015  -1.3831  -1.3152  -1.3115
    -1.2626  -1.2369  -1.2139  -1.1485  -1.0929  -1.0551  -0.9979  -0.9916
    -0.9837  -0.9131  -0.8711  -0.7962  -0.7874  -0.7504  -0.7153  -0.6603
    -0.6329  -0.6145  -0.5253  -0.4923  -0.3797  -0.3306  -0.0729  -0.0260
     0.0281   0.0565   0.1226   0.1799   0.1858   0.2813   0.2851   0.3205
     0.4008   0.4225   0.4932   0.5123   0.5624   0.7242   1.3086   1.3712
     1.3720   1.4436   1.4440   1.4684   3.3976   3.4091   3.4163   3.4610
     3.6062   3.6108   3.6296   3.6313   3.7743   3.7991

     the Fermi energy is     3.0963 ev

!    total energy              =   -2922.78948472 Ry
     estimated scf accuracy    <       0.00000003 Ry
     smearing contrib. (-TS)   =      -0.02169416 Ry
     internal energy E=F+TS    =   -2922.76779056 Ry

     The total energy is F=E-TS. E is the sum of the following terms:
     one-electron contribution =  -23649.21038435 Ry
     hartree contribution      =   11908.77294074 Ry
     xc contribution           =    -482.26788397 Ry
     ewald contribution        =    9299.93697775 Ry
     electric field correction =       0.00055928 Ry

     convergence has been achieved in  81 iterations

     Forces acting on atoms (cartesian axes, Ry/au):

     atom    1 type  1   force =     0.00004817   -0.00022302    0.09683282
     atom    2 type  1   force =    -0.00017085   -0.00055898   -0.17515946
     atom    3 type  2   force =     0.00002256   -0.00004653   -0.02501907
     atom    4 type  2   force =     0.00002769   -0.00139627    0.05267125
     atom    5 type  2   force =    -0.01207132   -0.00051607    0.00330595
     atom    6 type  2   force =     0.01380268    0.00008368    0.00270343
     atom    7 type  1   force =    -0.00057929    0.00055600   -0.01156842
     atom    8 type  1   force =     0.00020177    0.01202679    0.02900658
     atom    9 type  2   force =    -0.00029534    0.00057148    0.00055856
     atom   10 type  2   force =    -0.00153313    0.00252868   -0.01947520
     atom   11 type  2   force =    -0.00017988   -0.00036781   -0.00014636
     atom   12 type  2   force =    -0.00089671    0.00004078   -0.00029984
     atom   13 type  1   force =     0.00054196   -0.00098265    0.00103681
     atom   14 type  1   force =     0.00145408    0.00058134   -0.00068288
     atom   15 type  2   force =    -0.00013297   -0.00097234    0.00037872
     atom   16 type  2   force =    -0.00020729   -0.00020323   -0.00146031
     atom   17 type  2   force =    -0.00060916    0.00077846   -0.00000252
     atom   18 type  2   force =     0.00043450    0.00097304    0.00004225
     atom   19 type  1   force =    -0.00018978   -0.00116865    0.00062843
     atom   20 type  1   force =    -0.00010728    0.00030129    0.00002185
     atom   21 type  2   force =     0.00004979   -0.00003902    0.10322638
     atom   22 type  2   force =     0.00025485   -0.00031834    0.00086196
     atom   23 type  2   force =    -0.07153575   -0.00014359   -0.02769232
     atom   24 type  2   force =     0.07143107    0.00026838   -0.02772411
     atom   25 type  1   force =     0.00005329   -0.00027476    0.09643436
     atom   26 type  1   force =    -0.00019824   -0.00028923   -0.17537480
     atom   27 type  2   force =     0.00008758   -0.00017138   -0.02380659
     atom   28 type  2   force =     0.00004541   -0.00114270    0.05275202
     atom   29 type  2   force =    -0.01211270    0.00084582    0.00277170
     atom   30 type  2   force =     0.01376247    0.00123683    0.00218845
     atom   31 type  1   force =    -0.00047197    0.00303039   -0.01241600
     atom   32 type  1   force =     0.00018489   -0.01422771    0.02941948
     atom   33 type  2   force =    -0.00022988   -0.00062122    0.00041318
     atom   34 type  2   force =    -0.00098104    0.00175945   -0.02265977
     atom   35 type  2   force =    -0.00066968   -0.00061054   -0.00011991
     atom   36 type  2   force =     0.00003233   -0.00015501   -0.00033466
     atom   37 type  1   force =     0.00064507    0.00027774    0.00054510
     atom   38 type  1   force =     0.00150907    0.00018315   -0.00069529
     atom   39 type  2   force =     0.00006977    0.00015329   -0.00099517
     atom   40 type  2   force =    -0.00034642   -0.00009542    0.00176599
     atom   41 type  2   force =    -0.00066184   -0.00113162   -0.00002348
     atom   42 type  2   force =     0.00015450   -0.00155936    0.00036749
     atom   43 type  1   force =     0.00023083    0.00070717    0.00111800
     atom   44 type  1   force =     0.00050331   -0.00096222    0.00183977
     atom   45 type  2   force =     0.00005674   -0.00009476    0.10318594
     atom   46 type  2   force =    -0.07152510   -0.00011157   -0.02769239
     atom   47 type  2   force =     0.07143231    0.00031715   -0.02772564
     atom   48 type  3   force =     0.00043026    0.00020043   -0.01031036
     atom   49 type  4   force =    -0.00412721    0.00225235    0.00312490
     atom   50 type  4   force =    -0.00054676   -0.00236921    0.00244162
     atom   51 type  4   force =     0.00258605    0.00098622    0.00265593
     atom   52 type  5   force =    -0.00008701   -0.00018872   -0.00036097
     atom   53 type  4   force =     0.00065380   -0.00002394   -0.00037458
     atom   54 type  4   force =     0.00005424    0.00018880   -0.00011238
     atom   55 type  4   force =    -0.00029443    0.00011715   -0.00006639

     Total force =     0.368570     Total SCF correction =     0.000370
  @ DRIVER MODE: Message from server: STATUS
  @ DRIVER MODE: Message from server: GETFORCE
  @ DRIVER MODE: Returning v,forces,stress,ensemble

     Writing output data file ./calc.save/
  @ DRIVER MODE: Message from server: EXIT
  @ DRIVE MODE: Exiting

     General routines

     Parallel routines

   This run was terminated on:  14:16:19   2Aug2021

   JOB DONE.