     Program PWSCF v.6.7GPU starts on 22Sep2021 at 22:18:10

     R & G space division:  proc/nbgrp/npool/nimage =      10
     Reading input from /storage/home/hcoda1/3/ntian30/research/carbon/CxH_vib/H2O_calc/ads_slab/CH3NNH3HO_a/out_0017/pw.inp
Warning: card &CELL ignored
Warning: card   CELL_DYNAMICS='IPI', ignored
Warning: card / ignored

     Current dimensions of program PWSCF are:
     Max number of different atomic species (ntypx) = 10
     Max number of k-points (npk) =  40000
     Max angular momentum in pseudopotentials (lmaxx) =  3
     Presently no symmetry can be used with electric field

     Message from routine cell_base_init:
     DEPRECATED: use true lattice parameter, not A to a.u. conversion factor

     IMPORTANT: XC functional enforced from input :
     Exchange-correlation= BEEF-VDW
                           (   1   4  43  14   2   0   0)
     Any further DFT definition will be discarded
     Please, verify this is what you really want

  @ DRIVER MODE: Connecting to
 qe_1139763_2937318.sched-torque.pace.gatech.edu9zv260k8_scratch
  using UNIX socket
  @ DRIVER MODE: Message from server: STATUS
  @ DRIVER MODE: Message from server: INIT
  @ DRIVER MODE: Receiving replica           0          -1
  @ DRIVER MODE: Receiving encoded integer          25
  @ DRIVER MODE:  SCF:  T  FORCE:  T  STRESS:  F  VC:  F  ENSEMBLE:  F
  @ DRIVER MODE:  SCF:  T  FORCE:  T  STRESS:  F  VC:  F  ENSEMBLE:  F

     Using Slab Decomposition

     bravais-lattice index     =            0
     lattice parameter (alat)  =       1.8897  a.u.
     unit-cell volume          =    6658.9804 (a.u.)^3
     number of atoms/cell      =           58
     number of atomic types    =            5
     number of electrons       =       405.00
     number of Kohn-Sham states=          212
     kinetic-energy cutoff     =      29.3995  Ry
     charge density cutoff     =     293.9946  Ry
     scf convergence threshold =      7.3E-08
     mixing beta               =       0.0500
     number of iterations used =            8  plain     mixing
     Exchange-correlation= BEEF-VDW
                           (   1   4  43  14   2   0   0)

     celldm(1)=   1.889726  celldm(2)=   0.000000  celldm(3)=   0.000000
     celldm(4)=   0.000000  celldm(5)=   0.000000  celldm(6)=   0.000000

     crystal axes: (cart. coord. in units of alat)
               a(1) = (   6.579727   0.000000   0.000000 )
               a(2) = (  -0.000775   5.961596   0.000000 )
               a(3) = (   0.000000   0.000000  25.155947 )

     reciprocal axes: (cart. coord. in units 2 pi/alat)
               b(1) = (  0.151982  0.000020  0.000000 )
               b(2) = (  0.000000  0.167740  0.000000 )
               b(3) = (  0.000000  0.000000  0.039752 )

     PseudoPot. # 1 for Ti read from file:
     /storage/coda1/p-amedford6/0/shared/rich_project_chbe-medford/medford-share/data/pseudos_module/espresso/nninc/pbe/van/Ti.UPF
     MD5 check sum: 8e4df49b7f0d34bbd5052bf3f5ea0213
     Pseudo is Ultrasoft, Zval = 12.0
     Generated by new atomic code, or converted to UPF format
     Using radial grid of  851 points,  6 beta functions with:
                l(1) =   0
                l(2) =   0
                l(3) =   1
                l(4) =   1
                l(5) =   2
                l(6) =   2
     Q(r) pseudized with  8 coefficients,  rinner =    1.000   1.000   1.000
                                                       1.000   1.000

     PseudoPot. # 2 for O  read from file:
     /storage/coda1/p-amedford6/0/shared/rich_project_chbe-medford/medford-share/data/pseudos_module/espresso/nninc/pbe/van/O.UPF
     MD5 check sum: 78c19812648e8988a0fe644b0f25305e
     Pseudo is Ultrasoft, Zval =  6.0
     Generated by new atomic code, or converted to UPF format
     Using radial grid of  737 points,  4 beta functions with:
                l(1) =   0
                l(2) =   0
                l(3) =   1
                l(4) =   1
     Q(r) pseudized with  8 coefficients,  rinner =    0.800   0.800   0.800

     PseudoPot. # 3 for N  read from file:
     /storage/coda1/p-amedford6/0/shared/rich_project_chbe-medford/medford-share/data/pseudos_module/espresso/nninc/pbe/van/N.UPF
     MD5 check sum: 90d10febe142ad51ac9d5be1deb811c4
     Pseudo is Ultrasoft, Zval =  5.0
     Generated by new atomic code, or converted to UPF format
     Using radial grid of  729 points,  4 beta functions with:
                l(1) =   0
                l(2) =   0
                l(3) =   1
                l(4) =   1
     Q(r) pseudized with  8 coefficients,  rinner =    0.800   0.800   0.800

     PseudoPot. # 4 for C  read from file:
     /storage/coda1/p-amedford6/0/shared/rich_project_chbe-medford/medford-share/data/pseudos_module/espresso/nninc/pbe/van/C.UPF
     MD5 check sum: 1a69bf6b8db32088f5b2163dbdb77a27
     Pseudo is Ultrasoft, Zval =  4.0
     Generated by new atomic code, or converted to UPF format
     Using radial grid of  721 points,  4 beta functions with:
                l(1) =   0
                l(2) =   0
                l(3) =   1
                l(4) =   1
     Q(r) pseudized with  8 coefficients,  rinner =    0.800   0.800   0.800

     PseudoPot. # 5 for H  read from file:
     /storage/coda1/p-amedford6/0/shared/rich_project_chbe-medford/medford-share/data/pseudos_module/espresso/nninc/pbe/van/H.UPF
     MD5 check sum: b5ee9d7bfd3a09ee7748110bda690ff7
     Pseudo is Ultrasoft, Zval =  1.0
     Generated by new atomic code, or converted to UPF format
     Using radial grid of  615 points,  1 beta functions with:
                l(1) =   0
     Q(r) pseudized with  8 coefficients,  rinner =    0.800

     atomic species   valence    mass     pseudopotential
        Ti1           12.00    47.86700     Ti( 1.00)
        O1             6.00    15.99900     O ( 1.00)
        N1             5.00    14.00700     N ( 1.00)
        C1             4.00    12.01100     C ( 1.00)
        H1             1.00     1.00800     H ( 1.00)

     No symmetry found

   Cartesian axes

     site n.     atom                  positions (alat units)
         1           Ti1 tau(   1) = (   0.0004258   2.9801865   6.0000000  )
         2           Ti1 tau(   2) = (   3.2906075   1.4906267   6.0002472  )
         3           O1  tau(   3) = (   0.0006271   0.0005054   7.9858123  )
         4           O1  tau(   4) = (   3.2906025   0.0005020   7.3038282  )
         5           O1  tau(   5) = (   4.5942328   1.4918067   9.2879030  )
         6           O1  tau(   6) = (   1.9868534   1.4903216   9.2879459  )
         7           Ti1 tau(   7) = (   3.2907910   2.8959150   9.1758416  )
         8           Ti1 tau(   8) = (   0.0015273   1.4827037   9.2680791  )
         9           O1  tau(   9) = (   3.2949357   5.9297256  11.2770696  )
        10           O1  tau(  10) = (   0.0116148   5.9584955  10.6183126  )
        11           O1  tau(  11) = (   1.2901270   1.4659759  12.6218969  )
        12           O1  tau(  12) = (   5.3029181   1.4690452  12.6271982  )
        13           Ti1 tau(  13) = (   6.5637346   3.0486055  12.7052252  )
        14           Ti1 tau(  14) = (   3.3207578   1.2909511  12.6638180  )
        15           O1  tau(  15) = (   0.0081040   5.9567798  14.6379979  )
        16           O1  tau(  16) = (   3.2944190   0.0149942  13.8863584  )
        17           O1  tau(  17) = (   4.5334936   1.5584448  16.0391558  )
        18           O1  tau(  18) = (   2.0244848   1.5379376  16.0854781  )
        19           Ti1 tau(  19) = (   3.2579824   3.0118882  15.6538344  )
        20           Ti1 tau(  20) = (   6.4918182   1.5199401  15.8876453  )
        21           O1  tau(  21) = (   3.2904802   0.0005063   4.7018136  )
        22           O1  tau(  22) = (   6.5166677   0.0216046  17.1949088  )
        23           O1  tau(  23) = (   1.3043587   1.4918075   6.0039043  )
        24           O1  tau(  24) = (   5.2767064   1.4903225   6.0039473  )
        25           Ti1 tau(  25) = (   0.0000382   5.9609847   6.0000000  )
        26           Ti1 tau(  26) = (   3.2902200   4.4714249   6.0002472  )
        27           O1  tau(  27) = (   0.0002396   2.9813036   7.9858123  )
        28           O1  tau(  28) = (   3.2902150   2.9813002   7.3038282  )
        29           O1  tau(  29) = (   4.5938453   4.4726049   9.2879030  )
        30           O1  tau(  30) = (   1.9864658   4.4711199   9.2879459  )
        31           Ti1 tau(  31) = (   3.2891106   5.8743827   9.1763621  )
        32           Ti1 tau(  32) = (   0.0006254   4.4649316   9.2693709  )
        33           O1  tau(  33) = (   3.2959121   3.0085915  11.2438341  )
        34           O1  tau(  34) = (   0.0092240   2.9805883  10.6323155  )
        35           O1  tau(  35) = (   1.2849535   4.4488585  12.6204231  )
        36           O1  tau(  36) = (   5.2878833   4.4365118  12.6243745  )
        37           Ti1 tau(  37) = (   0.0500071   0.0677371  12.6535751  )
        38           Ti1 tau(  38) = (   3.3027700   4.3871210  12.4110406  )
        39           O1  tau(  39) = (   6.5685058   2.9535060  14.6525041  )
        40           O1  tau(  40) = (   3.2696111   2.9719761  13.8704823  )
        41           O1  tau(  41) = (   4.5209813   4.4409030  16.0696701  )
        42           O1  tau(  42) = (   2.0131998   4.4599944  16.0916020  )
        43           Ti1 tau(  43) = (   3.2138439   0.0230873  16.3295100  )
        44           Ti1 tau(  44) = (   6.5234412   4.6200706  16.0754176  )
        45           O1  tau(  45) = (   3.2900926   2.9813045   4.7018136  )
        46           O1  tau(  46) = (   1.3039711   4.4726057   6.0039043  )
        47           O1  tau(  47) = (   5.2763189   4.4711207   6.0039473  )
        48           N1  tau(  48) = (   0.0251376   2.9556585  17.3246074  )
        49           N1  tau(  49) = (   6.3772498   2.5461882  22.2688425  )
        50           C1  tau(  50) = (   0.2111848   2.8484408  18.7016211  )
        51           H1  tau(  51) = (   0.3920758   3.8074029  19.2116250  )
        52           H1  tau(  52) = (   5.9044209   2.3708277  19.1722604  )
        53           H1  tau(  53) = (   1.0233575   2.1342068  18.9364007  )
        54           H1  tau(  54) = (   6.0930523   3.2289774  22.9628454  )
        55           H1  tau(  55) = (   0.2277240   1.7755739  22.7685771  )
        56           H1  tau(  56) = (   0.5282093   2.9785696  21.7129995  )
        57           O1  tau(  57) = (   3.3838229   0.0530270  18.1522483  )
        58           H1  tau(  58) = (   4.2718821   5.8932998  18.5223319  )

     number of k points=    10  Fermi-Dirac smearing, width (Ry)=  0.0073
                       cart. coord. in units 2pi/alat
        k(    1) = (   0.0000000   0.0000000   0.0000000), wk =   0.1250000
        k(    2) = (   0.0000000   0.0419351   0.0000000), wk =   0.2500000
        k(    3) = (   0.0000000  -0.0838702   0.0000000), wk =   0.1250000
        k(    4) = (   0.0379955   0.0000049   0.0000000), wk =   0.2500000
        k(    5) = (   0.0379955   0.0419400   0.0000000), wk =   0.2500000
        k(    6) = (   0.0379955  -0.0838652   0.0000000), wk =   0.2500000
        k(    7) = (   0.0379955  -0.0419301   0.0000000), wk =   0.2500000
        k(    8) = (  -0.0759910  -0.0000099   0.0000000), wk =   0.1250000
        k(    9) = (  -0.0759910   0.0419252   0.0000000), wk =   0.2500000
        k(   10) = (  -0.0759910  -0.0838800   0.0000000), wk =   0.1250000

     Initial potential from superposition of free atoms

     starting charge  388.99913, renormalised to  405.00000

     negative rho (up, down):  7.828E-03 0.000E+00

     %%%%%%%%%%%%%%%%%%%%%%%%%%%%%%%%%%%%%%%%%%%%%%%%%%%%%%%%%%%%%%%%%%%%%%%%
     %                                                                      %
     % You are using vdW-DF, which was implemented by the Thonhauser group. %
     % Please cite the following two papers that made this development      %
     % possible and the two reviews that describe the various versions:     %
     %                                                                      %
     %   T. Thonhauser et al., PRL 115, 136402 (2015).                      %
     %   T. Thonhauser et al., PRB 76, 125112 (2007).                       %
     %   K. Berland et al., Rep. Prog. Phys. 78, 066501 (2015).             %
     %   D.C. Langreth et al., J. Phys.: Condens. Matter 21, 084203 (2009). %
     %                                                                      %
     %                                                                      %
     % If you are calculating the stress with vdW-DF, please also cite:     %
     %                                                                      %
     %   R. Sabatini et al., J. Phys.: Condens. Matter 24, 424209 (2012).   %
     %                                                                      %
     %%%%%%%%%%%%%%%%%%%%%%%%%%%%%%%%%%%%%%%%%%%%%%%%%%%%%%%%%%%%%%%%%%%%%%%%

     Adding external electric field

     Computed dipole along edir(3) :
        Dipole              -15.1902 Ry au,        -38.6097 Debye
        Dipole field         -0.0287 Ry au,

        Potential amp.        2.6573 Ry
        Total length         46.3494 bohr

     Starting wfcs are  307 atomic wfcs
  @ DRIVER MODE: Message from server: STATUS
  @ DRIVER MODE: Message from server: POSDATA
  @ DRIVER MODE: Reading and sharing cell
  @ DRIVER MODE: Reading and sharing positions
  @ DRIVER MODE: Received positions

     Self-consistent Calculation

     iteration #  1     ecut=    29.40 Ry     beta= 0.05
     Davidson diagonalization with overlap
     c_bands:  5 eigenvalues not converged
     c_bands:  4 eigenvalues not converged
     c_bands:  4 eigenvalues not converged
     c_bands:  1 eigenvalues not converged
     c_bands:  2 eigenvalues not converged
     c_bands:  1 eigenvalues not converged
     c_bands:  2 eigenvalues not converged
     ethr =  1.00E-05,  avg # of iterations = 28.1

[...]

     total energy              =   -2295.33074211 Ry
     estimated scf accuracy    <    7740.76704369 Ry

     iteration #  2     ecut=    29.40 Ry     beta= 0.05
     Davidson diagonalization with overlap
     ethr =  1.00E-02,  avg # of iterations = 24.6

[...]

     iteration # 57     ecut=    29.40 Ry     beta= 0.05
     Davidson diagonalization with overlap
     c_bands:  1 eigenvalues not converged
     ethr =  7.53E-07,  avg # of iterations =  4.4

[...]

     total energy              =   -2976.42338989 Ry
     estimated scf accuracy    <       0.00000019 Ry

     iteration # 92     ecut=    29.40 Ry     beta= 0.05
     Davidson diagonalization with overlap
     ethr =  2.20E-11,  avg # of iterations =  5.0

     negative rho (up, down):  9.586E-03 0.000E+00

     Adding external electric field

     Computed dipole along edir(3) :
        Dipole                0.6357 Ry au,          1.6159 Debye
        Dipole field          0.0012 Ry au,

        Potential amp.       -0.1112 Ry
        Total length         46.3494 bohr

     End of self-consistent calculation

          k = 0.0000 0.0000 0.0000 ( 18029 PWs)   bands (ev):

   -56.5639 -56.5303 -55.6402 -55.6051 -55.4243 -55.3577 -55.2306 -55.1152
   -55.0813 -55.0350 -55.0034 -54.9685 -54.9101 -54.8188 -54.7450 -54.6161
   -32.9826 -32.8344 -32.8063 -32.7432 -32.6530 -32.6097 -32.1219 -31.8991
   -31.8604 -31.8389 -31.7844 -31.7765 -31.7513 -31.6576 -31.6373 -31.5926
   -31.5609 -31.5462 -31.5211 -31.5098 -31.5046 -31.4929 -31.4626 -31.4622
   -31.4377 -31.4202 -31.3550 -31.3192 -31.2983 -31.2944 -31.2389 -31.2328
   -31.2161 -31.1942 -31.1813 -31.1658 -31.1590 -31.1274 -31.1232 -31.0911
   -31.0489 -31.0044 -31.0020 -30.9801 -30.9472 -30.8900 -30.8533 -30.8034
   -16.6673 -16.1096 -16.0873 -15.8805 -15.7579 -15.7532 -15.7097 -15.6421
   -15.4715 -15.4043 -15.3751 -15.3135 -15.1704 -15.0537 -14.9565 -14.7792
   -14.7041 -14.6989 -14.6789 -14.6726 -14.6553 -14.6345 -14.5761 -14.5166
   -14.4746 -14.4095 -14.3665 -14.2202 -14.0222 -13.9945 -13.9545 -13.6126
   -13.5784 -13.5056  -7.7211  -4.2427  -4.0342  -4.0151  -3.6981  -3.5766
    -3.4044  -3.2509  -3.1968  -3.1548  -3.0835  -3.0770  -2.9279  -2.9249
    -2.9138  -2.9093  -2.8274  -2.7863  -2.7037  -2.6171  -2.6016  -2.5073
    -2.4607  -2.3011  -2.2756  -2.1746  -2.1027  -2.0971  -2.0303  -2.0084
    -1.9606  -1.9153  -1.9063  -1.8721  -1.8274  -1.7815  -1.7618  -1.6514
    -1.6446  -1.5802  -1.5773  -1.5503  -1.4389  -1.4188  -1.3465  -1.2020
    -1.1804  -1.1771  -1.1288  -1.1126  -1.0299  -0.9360  -0.8664  -0.8404
    -0.7835  -0.6959  -0.6491  -0.6271  -0.5549  -0.5359  -0.4618  -0.4176
    -0.4039  -0.3842  -0.3419  -0.2275  -0.1405  -0.1082  -0.0540  -0.0285
     0.0042   0.0311   0.0499   0.0984   0.1684   0.2547   0.2751   0.4136
     0.4662   0.5031   0.5784   0.6129   0.6189   0.7084   0.7400   0.7689
     0.8157   0.8905   0.9053   0.9063   0.9648   1.0494   1.1030   1.1536
     1.1678   1.2043   1.2117   1.2623   1.3512   1.3725   1.4423   1.4972
     1.8250   1.8828   2.4879   2.7305   2.9019   3.1787   3.3704   3.6737
     3.7164   3.7342   3.7343   4.0395

[...]

          k = 0.0380-0.0419 0.0000 ( 17876 PWs)   bands (ev):

[...]

          k =-0.0760-0.0000 0.0000 ( 17886 PWs)   bands (ev):

[...]

          k =-0.0760-0.0839 0.0000 ( 17948 PWs)   bands (ev):

   -56.5477 -56.5463 -55.6277 -55.6173 -55.4197 -55.3623 -55.2297 -55.0988
   -55.0976 -55.0302 -55.0040 -54.9731 -54.9085 -54.8173 -54.7466 -54.6174
   -32.8209 -32.8194 -32.8006 -32.7991 -32.6973 -32.6962 -31.9465 -31.9373
   -31.8222 -31.8170 -31.8111 -31.8094 -31.7191 -31.6762 -31.6509 -31.6378
   -31.5882 -31.5864 -31.5015 -31.4743 -31.4645 -31.4512 -31.4503 -31.3695
   -31.3499 -31.3189 -31.3174 -31.3012 -31.2940 -31.2842 -31.2792 -31.2786
   -31.2517 -31.2330 -31.2151 -31.1998 -31.1971 -31.1585 -31.1576 -31.1015
   -31.0902 -31.0519 -31.0060 -30.9974 -30.9614 -30.9519 -30.8554 -30.8389
   -16.0752 -16.0258 -16.0239 -15.9804 -15.9788 -15.7172 -15.7127 -15.4625
   -15.4332 -15.2548 -15.1501 -15.1260 -15.0826 -15.0408 -14.9712 -14.9170
   -14.8866 -14.8550 -14.8287 -14.7667 -14.7375 -14.6322 -14.5994 -14.5521
   -14.5164 -14.4541 -14.4127 -14.3633 -14.1787 -14.1323 -13.9538 -13.6102
   -13.6096 -13.6049  -7.7201  -4.0449  -4.0152  -3.6889  -3.1518  -3.1017
    -3.0974  -3.0651  -3.0580  -2.9797  -2.8512  -2.8492  -2.7890  -2.6464
    -2.6198  -2.5969  -2.5364  -2.5301  -2.4269  -2.3768  -2.3720  -2.3582
    -2.3219  -2.2920  -2.2857  -2.2259  -2.0888  -2.0727  -2.0227  -1.9685
    -1.8947  -1.8851  -1.8757  -1.8394  -1.7974  -1.7725  -1.7618  -1.7343
    -1.7294  -1.7254  -1.6185  -1.5109  -1.4635  -1.3694  -1.3655  -1.3564
    -1.3186  -1.2911  -1.2581  -1.2510  -1.2230  -1.1420  -1.1160  -1.0466
    -0.9328  -0.9154  -0.8732  -0.8251  -0.7219  -0.7033  -0.6132  -0.5766
    -0.5656  -0.5071  -0.4772  -0.4611  -0.4042  -0.3647  -0.2324  -0.1923
    -0.1806  -0.1637  -0.1412  -0.1054  -0.0428   0.0158   0.0492   0.0519
     0.1561   0.2557   0.3446   0.4128   0.4221   0.4452   0.5322   0.6367
     0.6782   0.7028   0.7510   0.8739   0.9918   1.0222   1.1258   1.1517
     1.1613   1.2641   1.2827   1.2877   1.3075   1.3168   1.3517   1.4174
     1.4784   1.7675   2.3219   3.3229   3.3261   3.3842   3.3899   3.7006
     3.7030   3.8140   3.8191   4.1395

     the Fermi energy is     2.3979 ev

!    total energy              =   -2976.42339425 Ry
     estimated scf accuracy    <       0.00000002 Ry
     smearing contrib. (-TS)   =      -0.01085324 Ry
     internal energy E=F+TS    =   -2976.41254101 Ry

     The total energy is F=E-TS. E is the sum of the following terms:
     one-electron contribution =  -22709.48314216 Ry
     hartree contribution      =   11451.09167166 Ry
     xc contribution           =    -495.34520026 Ry
     ewald contribution        =    8777.32336707 Ry
     electric field correction =       0.00076268 Ry

     convergence has been achieved in  92 iterations

     Forces acting on atoms (cartesian axes, Ry/au):

     atom    1 type  1   force =     0.00002405   -0.00052010    0.12627831
     atom    2 type  1   force =    -0.00009121    0.00041700   -0.15471449
     atom    3 type  2   force =     0.00002755    0.00002670   -0.06826471
     atom    4 type  2   force =     0.00006013   -0.00010970    0.01707387
     atom    5 type  2   force =    -0.00487224   -0.00242672   -0.01323552
     atom    6 type  2   force =     0.00655482   -0.00180505   -0.01375452
     atom    7 type  1   force =    -0.00029378   -0.00661875    0.05917542
     atom    8 type  1   force =     0.00038176    0.00687574    0.10025424
     atom    9 type  2   force =    -0.00002268    0.00066612    0.00132785
     atom   10 type  2   force =    -0.00261327   -0.00001575   -0.06333548
     atom   11 type  2   force =     0.00042484   -0.00069528   -0.00026964
     atom   12 type  2   force =    -0.00083803   -0.00113166   -0.00108360
     atom   13 type  1   force =    -0.00030376    0.00072426   -0.00147173
     atom   14 type  1   force =    -0.00032673   -0.00042172   -0.00024364
     atom   15 type  2   force =    -0.00066861   -0.00040377   -0.00038323
     atom   16 type  2   force =     0.00019671    0.00092733   -0.00030524
     atom   17 type  2   force =     0.00089325    0.00008104   -0.00050856
     atom   18 type  2   force =    -0.00026551   -0.00018802   -0.00002132
     atom   19 type  1   force =    -0.00020364   -0.00014096   -0.00096728
     atom   20 type  1   force =     0.00063189    0.00061264   -0.00113520
     atom   21 type  2   force =     0.00006270    0.00015448    0.09780491
     atom   22 type  2   force =     0.00041369   -0.00031198    0.00141950
     atom   23 type  2   force =    -0.08275336    0.00005277   -0.03311597
     atom   24 type  2   force =     0.08269492    0.00050056   -0.03319214
     atom   25 type  1   force =     0.00006810   -0.00035505    0.12643018
     atom   26 type  1   force =    -0.00010968   -0.00149581   -0.15488838
     atom   27 type  2   force =     0.00011551   -0.00046893   -0.06663694
     atom   28 type  2   force =     0.00004868    0.00167154    0.01201122
     atom   29 type  2   force =    -0.00342474    0.00422155   -0.01620976
     atom   30 type  2   force =     0.00505417    0.00456514   -0.01661217
     atom   31 type  1   force =    -0.00015861    0.00217316    0.04250950
     atom   32 type  1   force =     0.00044249   -0.00894233    0.10082895
     atom   33 type  2   force =    -0.00048466   -0.00012411   -0.00036836
     atom   34 type  2   force =    -0.00212633   -0.00026353   -0.07620551
     atom   35 type  2   force =    -0.00011086    0.00069927    0.00087401
     atom   36 type  2   force =    -0.00048190    0.00051490    0.00040026
     atom   37 type  1   force =     0.00042943    0.00061498   -0.00031876
     atom   38 type  1   force =    -0.00042303   -0.00065651   -0.00070339
     atom   39 type  2   force =     0.00044564   -0.00035391   -0.00029249
     atom   40 type  2   force =     0.00036588   -0.00063005    0.00000657
     atom   41 type  2   force =     0.00033864    0.00050801   -0.00001588
     atom   42 type  2   force =    -0.00029059   -0.00018712    0.00015436
     atom   43 type  1   force =     0.00049874    0.00139106   -0.00099921
     atom   44 type  1   force =    -0.00032419   -0.00081317    0.00035623
     atom   45 type  2   force =     0.00009281   -0.00001347    0.09765390
     atom   46 type  2   force =    -0.08280073    0.00003941   -0.03316847
     atom   47 type  2   force =     0.08270930    0.00045824   -0.03317510
     atom   48 type  3   force =    -0.00104057    0.00079121   -0.00831622
     atom   49 type  3   force =     0.00013390   -0.00004445   -0.00104543
     atom   50 type  4   force =     0.00137944    0.00192314    0.01735959
     atom   51 type  5   force =    -0.00069650   -0.00340754   -0.00359844
     atom   52 type  5   force =     0.00251367    0.00178127   -0.00301124
     atom   53 type  5   force =    -0.00139130    0.00065471   -0.00114126
     atom   54 type  5   force =    -0.00009374   -0.00004659    0.00002917
     atom   55 type  5   force =     0.00033466    0.00014002    0.00011283
     atom   56 type  5   force =     0.00013945   -0.00002356    0.00017864
     atom   57 type  2   force =    -0.00181624   -0.00056711    0.00032836
     atom   58 type  5   force =     0.00154970   -0.00000356    0.00014144

     Total force =     0.421108     Total SCF correction =     0.000402
  @ DRIVER MODE: Message from server: STATUS
  @ DRIVER MODE: Message from server: GETFORCE
  @ DRIVER MODE: Returning v,forces,stress,ensemble

     Writing output data file ./calc.save/
  @ DRIVER MODE: Message from server: EXIT
  @ DRIVE MODE: Exiting

     General routines

     Parallel routines

   This run was terminated on:  22:41:29  22Sep2021

   JOB DONE.