     Program PWSCF v.6.7GPU starts on 15Jul2021 at 23: 5:56

     R & G space division:  proc/nbgrp/npool/nimage =      16
     Reading input from /storage/home/hcoda1/3/ntian30/research/carbon/15Jul_vib/ads_slab/CH3NH_b/out_0013/pw.inp
Warning: card &CELL ignored
Warning: card   CELL_DYNAMICS='IPI', ignored
Warning: card / ignored

     Current dimensions of program PWSCF are:
     Max number of different atomic species (ntypx) = 10
     Max number of k-points (npk) =  40000
     Max angular momentum in pseudopotentials (lmaxx) =  3
     Presently no symmetry can be used with electric field

     Message from routine cell_base_init:
     DEPRECATED: use true lattice parameter, not A to a.u. conversion factor

     IMPORTANT: XC functional enforced from input :
     Exchange-correlation= BEEF-VDW
                           (   1   4  43  14   2   0   0)
     Any further DFT definition will be discarded
     Please, verify this is what you really want

  @ DRIVER MODE: Connecting to
 qe_1139763_2351649.sched-torque.pace.gatech.edueuuqalmc_scratch
  using UNIX socket
  @ DRIVER MODE: Message from server: STATUS
  @ DRIVER MODE: Message from server: INIT
  @ DRIVER MODE: Receiving replica           0          -1
  @ DRIVER MODE: Receiving encoded integer          25
  @ DRIVER MODE:  SCF:  T  FORCE:  T  STRESS:  F  VC:  F  ENSEMBLE:  F
  @ DRIVER MODE:  SCF:  T  FORCE:  T  STRESS:  F  VC:  F  ENSEMBLE:  F

     Using Slab Decomposition

     bravais-lattice index     =            0
     lattice parameter (alat)  =       1.8897  a.u.
     unit-cell volume          =    6658.9804 (a.u.)^3
     number of atoms/cell      =           53
     number of atomic types    =            5
     number of electrons       =       391.00
     number of Kohn-Sham states=          205
     kinetic-energy cutoff     =      29.3995  Ry
     charge density cutoff     =     293.9946  Ry
     scf convergence threshold =      7.3E-08
     mixing beta               =       0.0500
     number of iterations used =            8  plain     mixing
     Exchange-correlation= BEEF-VDW
                           (   1   4  43  14   2   0   0)

     celldm(1)=   1.889726  celldm(2)=   0.000000  celldm(3)=   0.000000
     celldm(4)=   0.000000  celldm(5)=   0.000000  celldm(6)=   0.000000

     crystal axes: (cart. coord. in units of alat)
               a(1) = (   6.579727   0.000000   0.000000 )
               a(2) = (  -0.000775   5.961596   0.000000 )
               a(3) = (   0.000000   0.000000  25.155947 )

     reciprocal axes: (cart. coord. in units 2 pi/alat)
               b(1) = (  0.151982  0.000020  0.000000 )
               b(2) = (  0.000000  0.167740  0.000000 )
               b(3) = (  0.000000  0.000000  0.039752 )

     PseudoPot. # 1 for Ti read from file:
     /storage/coda1/p-amedford6/0/shared/rich_project_chbe-medford/medford-share/data/pseudos_module/espresso/nninc/pbe/van/Ti.UPF
     MD5 check sum: 8e4df49b7f0d34bbd5052bf3f5ea0213
     Pseudo is Ultrasoft, Zval = 12.0
     Generated by new atomic code, or converted to UPF format
     Using radial grid of  851 points,  6 beta functions with:
                l(1) =   0
                l(2) =   0
                l(3) =   1
                l(4) =   1
                l(5) =   2
                l(6) =   2
     Q(r) pseudized with  8 coefficients,  rinner =    1.000   1.000   1.000
                                                       1.000   1.000

     PseudoPot. # 2 for O  read from file:
     /storage/coda1/p-amedford6/0/shared/rich_project_chbe-medford/medford-share/data/pseudos_module/espresso/nninc/pbe/van/O.UPF
     MD5 check sum: 78c19812648e8988a0fe644b0f25305e
     Pseudo is Ultrasoft, Zval =  6.0
     Generated by new atomic code, or converted to UPF format
     Using radial grid of  737 points,  4 beta functions with:
                l(1) =   0
                l(2) =   0
                l(3) =   1
                l(4) =   1
     Q(r) pseudized with  8 coefficients,  rinner =    0.800   0.800   0.800

     PseudoPot. # 3 for H  read from file:
     /storage/coda1/p-amedford6/0/shared/rich_project_chbe-medford/medford-share/data/pseudos_module/espresso/nninc/pbe/van/H.UPF
     MD5 check sum: b5ee9d7bfd3a09ee7748110bda690ff7
     Pseudo is Ultrasoft, Zval =  1.0
     Generated by new atomic code, or converted to UPF format
     Using radial grid of  615 points,  1 beta functions with:
                l(1) =   0
     Q(r) pseudized with  8 coefficients,  rinner =    0.800

     PseudoPot. # 4 for N  read from file:
     /storage/coda1/p-amedford6/0/shared/rich_project_chbe-medford/medford-share/data/pseudos_module/espresso/nninc/pbe/van/N.UPF
     MD5 check sum: 90d10febe142ad51ac9d5be1deb811c4
     Pseudo is Ultrasoft, Zval =  5.0
     Generated by new atomic code, or converted to UPF format
     Using radial grid of  729 points,  4 beta functions with:
                l(1) =   0
                l(2) =   0
                l(3) =   1
                l(4) =   1
     Q(r) pseudized with  8 coefficients,  rinner =    0.800   0.800   0.800

     PseudoPot. # 5 for C  read from file:
     /storage/coda1/p-amedford6/0/shared/rich_project_chbe-medford/medford-share/data/pseudos_module/espresso/nninc/pbe/van/C.UPF
     MD5 check sum: 1a69bf6b8db32088f5b2163dbdb77a27
     Pseudo is Ultrasoft, Zval =  4.0
     Generated by new atomic code, or converted to UPF format
     Using radial grid of  721 points,  4 beta functions with:
                l(1) =   0
                l(2) =   0
                l(3) =   1
                l(4) =   1
     Q(r) pseudized with  8 coefficients,  rinner =    0.800   0.800   0.800

     atomic species   valence    mass     pseudopotential
        Ti1           12.00    47.86700     Ti( 1.00)
        O1             6.00    15.99900     O ( 1.00)
        H1             1.00     1.00800     H ( 1.00)
        N1             5.00    14.00700     N ( 1.00)
        C1             4.00    12.01100     C ( 1.00)

     Starting magnetic structure
     atomic species   magnetization
        Ti1          0.000
        O1           0.000
        H1           0.000
        N1           0.000
        C1           0.025

     No symmetry found

   Cartesian axes

     site n.     atom                  positions (alat units)
         1           Ti1 tau(   1) = (   0.0004258   2.9801865   6.0000000  )
         2           Ti1 tau(   2) = (   3.2906075   1.4906267   6.0002472  )
         3           O1  tau(   3) = (   0.0006271   0.0005054   7.9858123  )
         4           O1  tau(   4) = (   3.2906025   0.0005020   7.3038282  )
         5           O1  tau(   5) = (   4.5942328   1.4918067   9.2879030  )
         6           O1  tau(   6) = (   1.9868534   1.4903216   9.2879459  )
         7           Ti1 tau(   7) = (   3.2907910   2.8959150   9.1758416  )
         8           Ti1 tau(   8) = (   0.0015273   1.4827037   9.2680791  )
         9           O1  tau(   9) = (   3.2906183   5.9580730  11.3246990  )
        10           O1  tau(  10) = (   0.0116148   5.9584955  10.6183126  )
        11           O1  tau(  11) = (   1.3160896   1.4863360  12.6200149  )
        12           O1  tau(  12) = (   5.2947061   1.4800608  12.6053981  )
        13           Ti1 tau(  13) = (   6.5224157   2.9421717  12.6196007  )
        14           Ti1 tau(  14) = (   3.2076970   1.4879367  12.4696142  )
        15           O1  tau(  15) = (   6.5517659   0.0158556  14.6493665  )
        16           O1  tau(  16) = (   3.3109316   0.0069331  13.9179417  )
        17           O1  tau(  17) = (   4.5083530   1.5297238  16.0872293  )
        18           O1  tau(  18) = (   2.0274073   1.5273405  16.0409094  )
        19           Ti1 tau(  19) = (   3.2920608   3.0081397  15.6838061  )
        20           Ti1 tau(  20) = (   0.0536170   1.5416865  15.8648894  )
        21           O1  tau(  21) = (   3.2904802   0.0005063   4.7018136  )
        22           O1  tau(  22) = (   0.0122827   0.0301012  17.2134340  )
        23           O1  tau(  23) = (   1.3043587   1.4918075   6.0039043  )
        24           O1  tau(  24) = (   5.2767064   1.4903225   6.0039473  )
        25           Ti1 tau(  25) = (   0.0000382   5.9609847   6.0000000  )
        26           Ti1 tau(  26) = (   3.2902200   4.4714249   6.0002472  )
        27           O1  tau(  27) = (   0.0002396   2.9813036   7.9858123  )
        28           O1  tau(  28) = (   3.2902150   2.9813002   7.3038282  )
        29           O1  tau(  29) = (   4.5938453   4.4726049   9.2879030  )
        30           O1  tau(  30) = (   1.9864658   4.4711199   9.2879459  )
        31           Ti1 tau(  31) = (   3.2891106   5.8743827   9.1763621  )
        32           Ti1 tau(  32) = (   0.0006254   4.4649316   9.2693709  )
        33           O1  tau(  33) = (   3.2866862   2.9837957  11.3234553  )
        34           O1  tau(  34) = (   0.0092240   2.9805883  10.6323155  )
        35           O1  tau(  35) = (   1.3095649   4.4762946  12.6335636  )
        36           O1  tau(  36) = (   5.2963019   4.4650584  12.6194355  )
        37           Ti1 tau(  37) = (   6.5192018   5.9199268  12.5733442  )
        38           Ti1 tau(  38) = (   3.2055211   4.4685508  12.4747853  )
        39           O1  tau(  39) = (   6.5624772   2.9349094  14.6472044  )
        40           O1  tau(  40) = (   3.3065106   2.9879112  13.8942307  )
        41           O1  tau(  41) = (   4.5199725   4.4841037  16.0899424  )
        42           O1  tau(  42) = (   2.0389375   4.4882992  16.0664246  )
        43           Ti1 tau(  43) = (   3.3279474   0.0221627  15.7114356  )
        44           Ti1 tau(  44) = (   0.0314192   4.6578676  16.1055029  )
        45           O1  tau(  45) = (   3.2900926   2.9813045   4.7018136  )
        46           O1  tau(  46) = (   1.3039711   4.4726057   6.0039043  )
        47           O1  tau(  47) = (   5.2763189   4.4711207   6.0039473  )
        48           H1  tau(  48) = (   5.5751926   2.9245997  17.7795037  )
        49           N1  tau(  49) = (   6.5345126   2.9709300  17.4463781  )
        50           C1  tau(  50) = (   0.8105834   2.9192471  18.6315588  )
        51           H1  tau(  51) = (   0.6379014   3.7726647  19.2931901  )
        52           H1  tau(  52) = (   0.6616828   1.9903841  19.1881566  )
        53           H1  tau(  53) = (   1.8691752   2.9530840  18.3388921  )

     number of k points=    10  Fermi-Dirac smearing, width (Ry)=  0.0073
                       cart. coord. in units 2pi/alat
        k(    1) = (   0.0000000   0.0000000   0.0000000), wk =   0.0625000
        k(    2) = (   0.0000000   0.0419351   0.0000000), wk =   0.1250000
        k(    3) = (   0.0000000  -0.0838702   0.0000000), wk =   0.0625000
        k(    4) = (   0.0379955   0.0000049   0.0000000), wk =   0.1250000
        k(    5) = (   0.0379955   0.0419400   0.0000000), wk =   0.1250000
        k(    6) = (   0.0379955  -0.0838652   0.0000000), wk =   0.1250000
        k(    7) = (   0.0379955  -0.0419301   0.0000000), wk =   0.1250000
        k(    8) = (  -0.0759910  -0.0000099   0.0000000), wk =   0.0625000
[...]

     Initial potential from superposition of free atoms

     starting charge  374.99916, renormalised to  391.00000

     negative rho (up, down):  8.890E-03 8.897E-03

     %%%%%%%%%%%%%%%%%%%%%%%%%%%%%%%%%%%%%%%%%%%%%%%%%%%%%%%%%%%%%%%%%%%%%%%%
     %                                                                      %
     % You are using vdW-DF, which was implemented by the Thonhauser group. %
     % Please cite the following two papers that made this development      %
     % possible and the two reviews that describe the various versions:     %
     %                                                                      %
     %   T. Thonhauser et al., PRL 115, 136402 (2015).                      %
     %   T. Thonhauser et al., PRB 76, 125112 (2007).                       %
     %   K. Berland et al., Rep. Prog. Phys. 78, 066501 (2015).             %
     %   D.C. Langreth et al., J. Phys.: Condens. Matter 21, 084203 (2009). %
     %                                                                      %
     %                                                                      %
     % If you are calculating the stress with vdW-DF, please also cite:     %
     %                                                                      %
     %   R. Sabatini et al., J. Phys.: Condens. Matter 24, 424209 (2012).   %
     %                                                                      %
     %%%%%%%%%%%%%%%%%%%%%%%%%%%%%%%%%%%%%%%%%%%%%%%%%%%%%%%%%%%%%%%%%%%%%%%%

     Adding external electric field

     Computed dipole along edir(3) :
        Dipole               -5.8162 Ry au,        -14.7834 Debye
        Dipole field         -0.0110 Ry au,

        Potential amp.        1.0175 Ry
        Total length         46.3494 bohr

[...]

     Starting wfcs are  296 atomic wfcs
  @ DRIVER MODE: Message from server: STATUS
  @ DRIVER MODE: Message from server: POSDATA
  @ DRIVER MODE: Reading and sharing cell
  @ DRIVER MODE: Reading and sharing positions
  @ DRIVER MODE: Received positions

     Self-consistent Calculation

     iteration #  1     ecut=    29.40 Ry     beta= 0.05
     Davidson diagonalization with overlap
     c_bands:  3 eigenvalues not converged
     c_bands:  1 eigenvalues not converged
     c_bands:  1 eigenvalues not converged
     c_bands:  2 eigenvalues not converged
     c_bands:  4 eigenvalues not converged
     c_bands:  2 eigenvalues not converged
     c_bands:  1 eigenvalues not converged
     c_bands:  1 eigenvalues not converged
     c_bands:  2 eigenvalues not converged
     c_bands:  3 eigenvalues not converged
     c_bands:  1 eigenvalues not converged
     c_bands:  1 eigenvalues not converged
     c_bands:  3 eigenvalues not converged
     c_bands:  4 eigenvalues not converged
     c_bands:  3 eigenvalues not converged
     c_bands:  1 eigenvalues not converged
     c_bands:  1 eigenvalues not converged
     c_bands:  2 eigenvalues not converged
     ethr =  1.00E-05,  avg # of iterations = 19.6

[...]

     total energy              =   -2770.87521675 Ry
     estimated scf accuracy    <    1639.29035355 Ry

     total magnetization       =     0.01 Bohr mag/cell
     absolute magnetization    =     0.03 Bohr mag/cell

[...]

     iteration #  3     ecut=    29.40 Ry     beta= 0.05
     Davidson diagonalization with overlap
     ethr =  1.00E-02,  avg # of iterations = 15.4

[...]

     iteration # 75     ecut=    29.40 Ry     beta= 0.05
     Davidson diagonalization with overlap
     c_bands:  1 eigenvalues not converged
     ethr =  3.34E-11,  avg # of iterations = 10.7

[...]

     total energy              =   -2920.42443732 Ry
     estimated scf accuracy    <       0.00000010 Ry

[...]

     iteration # 80     ecut=    29.40 Ry     beta= 0.05
     Davidson diagonalization with overlap
     ethr =  2.68E-11,  avg # of iterations = 10.3

     negative rho (up, down):  9.093E-03 9.093E-03

[...]

     Adding external electric field

     Computed dipole along edir(3) :
        Dipole                0.6823 Ry au,          1.7343 Debye
        Dipole field          0.0013 Ry au,

        Potential amp.       -0.1194 Ry
        Total length         46.3494 bohr

     Magnetic moment per site  (integrated on atomic sphere of radius R)
     atom   1 (R=0.715)  charge=  7.8451  magn=  0.0004
     atom   2 (R=0.715)  charge=  7.8287  magn=  0.0002
     atom   3 (R=0.715)  charge=  4.8552  magn= -0.0000
     atom   4 (R=0.715)  charge=  4.8904  magn= -0.0000
     atom   5 (R=0.715)  charge=  4.8609  magn= -0.0000
     atom   6 (R=0.715)  charge=  4.8616  magn= -0.0000
     atom   7 (R=0.715)  charge=  7.8276  magn=  0.0000
     atom   8 (R=0.715)  charge=  7.8194  magn=  0.0001
     atom   9 (R=0.715)  charge=  4.8766  magn=  0.0000
     atom  10 (R=0.715)  charge=  4.8485  magn= -0.0000
     atom  11 (R=0.715)  charge=  4.8624  magn=  0.0000
     atom  12 (R=0.715)  charge=  4.8618  magn=  0.0000
     atom  13 (R=0.715)  charge=  7.8170  magn=  0.0000
     atom  14 (R=0.715)  charge=  7.8304  magn= -0.0000
     atom  15 (R=0.715)  charge=  4.8497  magn=  0.0000
     atom  16 (R=0.715)  charge=  4.8722  magn=  0.0000
     atom  17 (R=0.715)  charge=  4.8476  magn=  0.0000
     atom  18 (R=0.715)  charge=  4.8545  magn=  0.0000
     atom  19 (R=0.715)  charge=  7.8557  magn= -0.0001
     atom  20 (R=0.715)  charge=  7.8308  magn= -0.0000
     atom  21 (R=0.715)  charge=  4.7478  magn= -0.0004
     atom  22 (R=0.715)  charge=  4.8258  magn= -0.0000
     atom  23 (R=0.715)  charge=  4.8532  magn= -0.0000
     atom  24 (R=0.715)  charge=  4.8532  magn= -0.0000
     atom  25 (R=0.715)  charge=  7.8452  magn=  0.0003
     atom  26 (R=0.715)  charge=  7.8288  magn=  0.0002
     atom  27 (R=0.715)  charge=  4.8545  magn= -0.0000
     atom  28 (R=0.715)  charge=  4.8906  magn= -0.0000
     atom  29 (R=0.715)  charge=  4.8616  magn= -0.0000
     atom  30 (R=0.715)  charge=  4.8623  magn= -0.0000
     atom  31 (R=0.715)  charge=  7.8277  magn=  0.0000
     atom  32 (R=0.715)  charge=  7.8194  magn=  0.0001
     atom  33 (R=0.715)  charge=  4.8755  magn=  0.0000
     atom  34 (R=0.715)  charge=  4.8372  magn= -0.0000
     atom  35 (R=0.715)  charge=  4.8620  magn=  0.0000
     atom  36 (R=0.715)  charge=  4.8623  magn=  0.0000
     atom  37 (R=0.715)  charge=  7.8196  magn=  0.0000
     atom  38 (R=0.715)  charge=  7.8303  magn= -0.0000
     atom  39 (R=0.715)  charge=  4.8445  magn=  0.0000
     atom  40 (R=0.715)  charge=  4.8783  magn=  0.0000
     atom  41 (R=0.715)  charge=  4.8509  magn=  0.0000
     atom  42 (R=0.715)  charge=  4.8518  magn=  0.0000
     atom  43 (R=0.715)  charge=  7.8536  magn= -0.0001
     atom  44 (R=0.715)  charge=  7.8555  magn= -0.0000
     atom  45 (R=0.715)  charge=  4.7478  magn= -0.0004
     atom  46 (R=0.715)  charge=  4.8532  magn= -0.0000
     atom  47 (R=0.715)  charge=  4.8532  magn= -0.0000
     atom  48 (R=0.419)  charge=  0.4546  magn=  0.0000
     atom  49 (R=0.419)  charge=  1.3297  magn= -0.0000
     atom  50 (R=0.451)  charge=  0.8543  magn=  0.0000
     atom  51 (R=0.419)  charge=  0.4429  magn= -0.0000
     atom  52 (R=0.419)  charge=  0.4420  magn= -0.0000
     atom  53 (R=0.419)  charge=  0.4425  magn= -0.0000

     End of self-consistent calculation

 ------ SPIN UP ------------

          k = 0.0000 0.0000 0.0000 ( 18029 PWs)   bands (ev):

   -55.9978 -55.9898 -55.9638 -55.9536 -55.9040 -55.8399 -55.8395 -55.8055
   -55.8010 -55.7671 -55.7614 -55.7277 -55.5424 -55.2753 -54.9700 -54.9360
   -32.5486 -32.4789 -32.3512 -32.3415 -32.3168 -32.3005 -32.2907 -32.2523
   -32.2385 -32.2372 -32.2133 -32.2058 -32.1723 -32.1498 -32.1417 -32.1353
   -32.1321 -32.1009 -32.0793 -32.0548 -32.0503 -32.0428 -32.0268 -32.0003
   -31.9935 -31.9929 -31.9872 -31.9794 -31.9646 -31.9586 -31.9555 -31.9463
   -31.9376 -31.9307 -31.9145 -31.9082 -31.8739 -31.8112 -31.7136 -31.5499
   -31.5447 -31.4705 -31.3766 -31.2890 -31.2665 -31.1934 -31.1069 -30.9959
   -16.7576 -16.4742 -16.2943 -16.1517 -16.1197 -16.0340 -15.8331 -15.7064
   -15.6942 -15.5905 -15.5575 -15.5312 -15.5240 -15.4974 -15.4931 -15.4325
   -15.4304 -15.4172 -15.4076 -15.3504 -15.3259 -15.2731 -15.1926 -15.1603
   -15.1547 -15.1271 -15.0452 -15.0403 -14.5881 -14.2134 -13.4712 -13.3549
    -8.9048  -4.3711  -4.1287  -3.9546  -3.9157  -3.8996  -3.8495  -3.5958
    -3.5803  -3.3460  -3.2279  -3.1970  -3.1799  -3.1707  -3.1506  -3.1396
    -2.8932  -2.8269  -2.8114  -2.7890  -2.7814  -2.7753  -2.7632  -2.7628
    -2.7231  -2.6589  -2.5348  -2.4910  -2.4215  -2.3846  -2.3482  -2.3067
    -2.2622  -2.2552  -2.2427  -2.2244  -2.2094  -2.1875  -2.1729  -2.0392
    -1.9722  -1.8384  -1.8030  -1.7828  -1.5975  -1.5385  -1.4738  -1.4347
    -1.4221  -1.4152  -1.3834  -1.3017  -1.2110  -1.1542  -1.1417  -1.0878
    -1.0100  -0.9986  -0.8900  -0.8842  -0.8558  -0.7678  -0.7578  -0.7464
    -0.7273  -0.6542  -0.5578  -0.4817  -0.4363  -0.4056  -0.3753  -0.3064
    -0.2764  -0.1735  -0.1585  -0.1100  -0.1053  -0.0635  -0.0185  -0.0090
    -0.0001   0.0076   0.0328   0.1755   0.2863   0.3408   0.3812   0.3873
     0.5420   0.5694   0.6667   0.7550   0.9801   1.0530   1.1457   1.2457
     1.3194   1.6239   1.6692   3.1458   3.2246   3.2785   3.2875   3.3900
     3.3960   3.5954   3.6055   3.6183   3.6860

[...]

          k =-0.0760-0.0000 0.0000 ( 17886 PWs)   bands (ev):

[...]

 ------ SPIN DOWN ----------

[...]

          k = 0.0380-0.0419 0.0000 ( 17876 PWs)   bands (ev):

[...]

          k =-0.0760-0.0839 0.0000 ( 17948 PWs)   bands (ev):

   -55.9805 -55.9797 -55.9730 -55.9704 -55.8991 -55.8446 -55.8234 -55.8219
   -55.7845 -55.7827 -55.7451 -55.7440 -55.5415 -55.2762 -54.9522 -54.9521
   -32.3536 -32.3500 -32.2941 -32.2935 -32.2827 -32.2759 -32.2750 -32.2618
   -32.2001 -32.1991 -32.1943 -32.1899 -32.1661 -32.1350 -32.1206 -32.1164
   -32.1030 -32.1009 -32.0996 -32.0988 -32.0956 -32.0847 -32.0823 -32.0505
   -32.0430 -32.0418 -32.0122 -32.0012 -31.9814 -31.9810 -31.9776 -31.9766
   -31.9598 -31.9592 -31.9576 -31.9547 -31.8809 -31.8138 -31.7091 -31.6145
   -31.5466 -31.4950 -31.2785 -31.2784 -31.1887 -31.1885 -31.1494 -31.1494
   -16.2111 -16.1761 -15.9393 -15.9283 -15.9214 -15.9060 -15.7601 -15.7129
   -15.7015 -15.6945 -15.6714 -15.6480 -15.5905 -15.5617 -15.5332 -15.5245
   -15.5185 -15.5164 -15.4546 -15.4495 -15.4264 -15.4195 -15.3058 -15.3020
   -15.2928 -15.2169 -15.1623 -15.0229 -14.7489 -14.2378 -13.4582 -13.4580
    -8.9095  -4.3835  -3.5052  -3.4651  -3.2984  -3.2433  -3.1801  -3.1636
    -3.1396  -3.0702  -2.9070  -2.8901  -2.8788  -2.8630  -2.8214  -2.8151
    -2.8046  -2.7919  -2.7854  -2.7661  -2.7330  -2.6997  -2.6613  -2.6539
    -2.6452  -2.6210  -2.6098  -2.5881  -2.5759  -2.5453  -2.5360  -2.5191
    -2.4895  -2.2276  -2.2078  -2.1957  -2.1257  -2.1191  -2.0853  -2.0674
    -2.0579  -2.0449  -1.9867  -1.8829  -1.7270  -1.6952  -1.6749  -1.6682
    -1.5843  -1.5741  -1.4241  -1.4025  -1.3828  -1.3432  -1.2894  -1.2691
    -1.2287  -1.1685  -1.1527  -1.0887  -1.0716  -1.0127  -0.9573  -0.9557
    -0.9337  -0.8588  -0.7771  -0.7622  -0.7488  -0.7097  -0.6997  -0.6128
    -0.5892  -0.4959  -0.4817  -0.4205  -0.3978  -0.2972  -0.1369  -0.0129
     0.0407   0.0665   0.1245   0.2226   0.2668   0.2783   0.3228   0.3289
     0.3905   0.4311   0.5442   0.5501   0.6248   0.7161   1.2564   1.4165
     1.4171   1.4878   1.4879   3.4096   3.4147   3.4618   3.4911   3.6465
     3.6510   3.6729   3.6740   3.7987   3.8156

     the Fermi energy is     3.1392 ev

!    total energy              =   -2920.42444272 Ry
     estimated scf accuracy    <       0.00000004 Ry
     smearing contrib. (-TS)   =      -0.02202911 Ry
     internal energy E=F+TS    =   -2920.40241361 Ry

     The total energy is F=E-TS. E is the sum of the following terms:
     one-electron contribution =  -24701.81303552 Ry
     hartree contribution      =   12435.49502478 Ry
     xc contribution           =    -480.87198756 Ry
     ewald contribution        =    9826.78670610 Ry
     electric field correction =       0.00087858 Ry

     total magnetization       =     0.00 Bohr mag/cell
     absolute magnetization    =     0.00 Bohr mag/cell

     convergence has been achieved in  80 iterations

     Forces acting on atoms (cartesian axes, Ry/au):

     atom    1 type  1   force =     0.00010904   -0.00026295    0.09688075
     atom    2 type  1   force =     0.00001170   -0.00055286   -0.17509825
     atom    3 type  2   force =     0.00013510   -0.00007822   -0.02546115
     atom    4 type  2   force =    -0.00000593   -0.00137090    0.05231165
     atom    5 type  2   force =    -0.01235571   -0.00013470    0.00302699
     atom    6 type  2   force =     0.01377459    0.00023244    0.00239091
     atom    7 type  1   force =     0.00060090    0.00032668   -0.01266814
     atom    8 type  1   force =     0.00047306    0.00593763    0.03105406
     atom    9 type  2   force =    -0.00033306    0.00024032    0.00041801
     atom   10 type  2   force =    -0.00269551    0.00069387   -0.01621925
     atom   11 type  2   force =    -0.00041749    0.00012739    0.00017894
     atom   12 type  2   force =     0.00014554    0.00013762    0.00020703
     atom   13 type  1   force =    -0.00013233    0.00022223    0.00018318
     atom   14 type  1   force =    -0.00001641   -0.00020082   -0.00011860
     atom   15 type  2   force =     0.00022947    0.00013534    0.00044445
     atom   16 type  2   force =    -0.00006332    0.00027405    0.00019297
     atom   17 type  2   force =    -0.00007218   -0.00025341   -0.00029708
     atom   18 type  2   force =     0.00023790   -0.00013837    0.00016410
     atom   19 type  1   force =    -0.00012170    0.00020897    0.00025474
     atom   20 type  1   force =    -0.00000466   -0.00026374   -0.00053182
     atom   21 type  2   force =     0.00006633   -0.00005591    0.10308151
     atom   22 type  2   force =    -0.00012108   -0.00004699    0.00020380
     atom   23 type  2   force =    -0.07163715   -0.00015656   -0.02784133
     atom   24 type  2   force =     0.07156409    0.00032782   -0.02790287
     atom   25 type  1   force =     0.00012006   -0.00024057    0.09666011
     atom   26 type  1   force =     0.00012063   -0.00031940   -0.17526442
     atom   27 type  2   force =     0.00013372   -0.00023280   -0.02453977
     atom   28 type  2   force =     0.00002817   -0.00112959    0.05222875
     atom   29 type  2   force =    -0.01247756    0.00014612    0.00268000
     atom   30 type  2   force =     0.01378480    0.00069206    0.00202646
     atom   31 type  1   force =     0.00050219    0.00289140   -0.01338109
     atom   32 type  1   force =     0.00030504   -0.00821227    0.03147038
     atom   33 type  2   force =    -0.00005570   -0.00006248   -0.00009305
     atom   34 type  2   force =    -0.00184145    0.00056008   -0.02453427
     atom   35 type  2   force =    -0.00014532    0.00010133    0.00005724
     atom   36 type  2   force =    -0.00023891    0.00020464    0.00013355
     atom   37 type  1   force =    -0.00007296    0.00027737    0.00017857
     atom   38 type  1   force =    -0.00022803   -0.00003735   -0.00014069
     atom   39 type  2   force =     0.00004739    0.00019840   -0.00000785
     atom   40 type  2   force =    -0.00016549    0.00027214   -0.00019193
     atom   41 type  2   force =     0.00006913    0.00009806    0.00017490
     atom   42 type  2   force =    -0.00018350    0.00002606    0.00030985
     atom   43 type  1   force =    -0.00021322   -0.00018135    0.00059613
     atom   44 type  1   force =     0.00036892    0.00002405    0.00002984
     atom   45 type  2   force =     0.00004926   -0.00006352    0.10309322
     atom   46 type  2   force =    -0.07164645   -0.00008939   -0.02783912
     atom   47 type  2   force =     0.07157884    0.00033471   -0.02791372
     atom   48 type  3   force =    -0.00140552    0.00025163   -0.00134708
     atom   49 type  4   force =    -0.00399906   -0.00042712   -0.00165387
     atom   50 type  5   force =     0.02095438    0.00052771   -0.00210754
     atom   51 type  3   force =    -0.00267130    0.00020054    0.00070282
     atom   52 type  3   force =    -0.00174434   -0.00069488    0.00075106
     atom   53 type  3   force =    -0.01034493   -0.00046450    0.00306693

     Total force =     0.369179     Total SCF correction =     0.000857
  @ DRIVER MODE: Message from server: STATUS
  @ DRIVER MODE: Message from server: GETFORCE
  @ DRIVER MODE: Returning v,forces,stress,ensemble

     Writing output data file ./calc.save/
  @ DRIVER MODE: Message from server: EXIT
  @ DRIVE MODE: Exiting

     General routines

     Parallel routines

   This run was terminated on:  23:38:30  15Jul2021

   JOB DONE.