     Program PWSCF v.6.7GPU starts on 23Sep2021 at  6:21:48

     R & G space division:  proc/nbgrp/npool/nimage =      10
     Reading input from /storage/home/hcoda1/3/ntian30/research/carbon/CxH_vib/H2O_calc/ads_slab/CHNNHHHO_a/out_0043/pw.inp
Warning: card &CELL ignored
Warning: card   CELL_DYNAMICS='IPI', ignored
Warning: card / ignored

     Current dimensions of program PWSCF are:
     Max number of different atomic species (ntypx) = 10
     Max number of k-points (npk) =  40000
     Max angular momentum in pseudopotentials (lmaxx) =  3
     Presently no symmetry can be used with electric field

     Message from routine cell_base_init:
     DEPRECATED: use true lattice parameter, not A to a.u. conversion factor

     IMPORTANT: XC functional enforced from input :
     Exchange-correlation= BEEF-VDW
                           (   1   4  43  14   2   0   0)
     Any further DFT definition will be discarded
     Please, verify this is what you really want

  @ DRIVER MODE: Connecting to
 qe_1139763_2937315.sched-torque.pace.gatech.eduk4wjrsiu_scratch
  using UNIX socket
  @ DRIVER MODE: Message from server: STATUS
  @ DRIVER MODE: Message from server: INIT
  @ DRIVER MODE: Receiving replica           0          -1
  @ DRIVER MODE: Receiving encoded integer          25
  @ DRIVER MODE:  SCF:  T  FORCE:  T  STRESS:  F  VC:  F  ENSEMBLE:  F
  @ DRIVER MODE:  SCF:  T  FORCE:  T  STRESS:  F  VC:  F  ENSEMBLE:  F

     Using Slab Decomposition

     bravais-lattice index     =            0
     lattice parameter (alat)  =       1.8897  a.u.
     unit-cell volume          =    6658.9804 (a.u.)^3
     number of atoms/cell      =           55
     number of atomic types    =            5
     number of electrons       =       402.00
     number of Kohn-Sham states=          211
     kinetic-energy cutoff     =      29.3995  Ry
     charge density cutoff     =     293.9946  Ry
     scf convergence threshold =      7.3E-08
     mixing beta               =       0.0500
     number of iterations used =            8  plain     mixing
     Exchange-correlation= BEEF-VDW
                           (   1   4  43  14   2   0   0)

     celldm(1)=   1.889726  celldm(2)=   0.000000  celldm(3)=   0.000000
     celldm(4)=   0.000000  celldm(5)=   0.000000  celldm(6)=   0.000000

     crystal axes: (cart. coord. in units of alat)
               a(1) = (   6.579727   0.000000   0.000000 )
               a(2) = (  -0.000775   5.961596   0.000000 )
               a(3) = (   0.000000   0.000000  25.155947 )

     reciprocal axes: (cart. coord. in units 2 pi/alat)
               b(1) = (  0.151982  0.000020  0.000000 )
               b(2) = (  0.000000  0.167740  0.000000 )
               b(3) = (  0.000000  0.000000  0.039752 )

     PseudoPot. # 1 for Ti read from file:
     /storage/coda1/p-amedford6/0/shared/rich_project_chbe-medford/medford-share/data/pseudos_module/espresso/nninc/pbe/van/Ti.UPF
     MD5 check sum: 8e4df49b7f0d34bbd5052bf3f5ea0213
     Pseudo is Ultrasoft, Zval = 12.0
     Generated by new atomic code, or converted to UPF format
     Using radial grid of  851 points,  6 beta functions with:
                l(1) =   0
                l(2) =   0
                l(3) =   1
                l(4) =   1
                l(5) =   2
                l(6) =   2
     Q(r) pseudized with  8 coefficients,  rinner =    1.000   1.000   1.000
                                                       1.000   1.000

     PseudoPot. # 2 for O  read from file:
     /storage/coda1/p-amedford6/0/shared/rich_project_chbe-medford/medford-share/data/pseudos_module/espresso/nninc/pbe/van/O.UPF
     MD5 check sum: 78c19812648e8988a0fe644b0f25305e
     Pseudo is Ultrasoft, Zval =  6.0
     Generated by new atomic code, or converted to UPF format
     Using radial grid of  737 points,  4 beta functions with:
                l(1) =   0
                l(2) =   0
                l(3) =   1
                l(4) =   1
     Q(r) pseudized with  8 coefficients,  rinner =    0.800   0.800   0.800

     PseudoPot. # 3 for N  read from file:
     /storage/coda1/p-amedford6/0/shared/rich_project_chbe-medford/medford-share/data/pseudos_module/espresso/nninc/pbe/van/N.UPF
     MD5 check sum: 90d10febe142ad51ac9d5be1deb811c4
     Pseudo is Ultrasoft, Zval =  5.0
     Generated by new atomic code, or converted to UPF format
     Using radial grid of  729 points,  4 beta functions with:
                l(1) =   0
                l(2) =   0
                l(3) =   1
                l(4) =   1
     Q(r) pseudized with  8 coefficients,  rinner =    0.800   0.800   0.800

     PseudoPot. # 4 for C  read from file:
     /storage/coda1/p-amedford6/0/shared/rich_project_chbe-medford/medford-share/data/pseudos_module/espresso/nninc/pbe/van/C.UPF
     MD5 check sum: 1a69bf6b8db32088f5b2163dbdb77a27
     Pseudo is Ultrasoft, Zval =  4.0
     Generated by new atomic code, or converted to UPF format
     Using radial grid of  721 points,  4 beta functions with:
                l(1) =   0
                l(2) =   0
                l(3) =   1
                l(4) =   1
     Q(r) pseudized with  8 coefficients,  rinner =    0.800   0.800   0.800

     PseudoPot. # 5 for H  read from file:
     /storage/coda1/p-amedford6/0/shared/rich_project_chbe-medford/medford-share/data/pseudos_module/espresso/nninc/pbe/van/H.UPF
     MD5 check sum: b5ee9d7bfd3a09ee7748110bda690ff7
     Pseudo is Ultrasoft, Zval =  1.0
     Generated by new atomic code, or converted to UPF format
     Using radial grid of  615 points,  1 beta functions with:
                l(1) =   0
     Q(r) pseudized with  8 coefficients,  rinner =    0.800

     atomic species   valence    mass     pseudopotential
        Ti1           12.00    47.86700     Ti( 1.00)
        O1             6.00    15.99900     O ( 1.00)
        N1             5.00    14.00700     N ( 1.00)
        C1             4.00    12.01100     C ( 1.00)
        H1             1.00     1.00800     H ( 1.00)

     No symmetry found

   Cartesian axes

     site n.     atom                  positions (alat units)
         1           Ti1 tau(   1) = (   0.0004258   2.9801865   6.0000000  )
         2           Ti1 tau(   2) = (   3.2906075   1.4906267   6.0002472  )
         3           O1  tau(   3) = (   0.0006271   0.0005054   7.9858123  )
         4           O1  tau(   4) = (   3.2906025   0.0005020   7.3038282  )
         5           O1  tau(   5) = (   4.5942328   1.4918067   9.2879030  )
         6           O1  tau(   6) = (   1.9868534   1.4903216   9.2879459  )
         7           Ti1 tau(   7) = (   3.2907910   2.8959150   9.1758416  )
         8           Ti1 tau(   8) = (   0.0015273   1.4827037   9.2680791  )
         9           O1  tau(   9) = (   3.3019041   5.9340972  11.2780832  )
        10           O1  tau(  10) = (   0.0116148   5.9584955  10.6183126  )
        11           O1  tau(  11) = (   1.2869077   1.4717189  12.6473688  )
        12           O1  tau(  12) = (   5.3188397   1.4655789  12.6430575  )
        13           Ti1 tau(  13) = (   0.0521173   3.0639968  12.7333969  )
        14           Ti1 tau(  14) = (   3.2906581   1.3001642  12.6471297  )
        15           O1  tau(  15) = (   0.0021475   5.9326859  14.6872502  )
        16           O1  tau(  16) = (   3.3040199   0.0265785  13.8678754  )
        17           O1  tau(  17) = (   4.6240569   1.6264218  16.1080407  )
        18           O1  tau(  18) = (   2.0715169   1.5429601  15.9546445  )
        19           Ti1 tau(  19) = (   3.3363059   2.9874148  15.6109769  )
        20           Ti1 tau(  20) = (   0.0492893   1.4028208  15.7974426  )
        21           O1  tau(  21) = (   3.2904802   0.0005063   4.7018136  )
        22           O1  tau(  22) = (   0.0944532   0.0627470  17.1934044  )
        23           O1  tau(  23) = (   1.3043587   1.4918075   6.0039043  )
        24           O1  tau(  24) = (   5.2767064   1.4903225   6.0039473  )
        25           Ti1 tau(  25) = (   0.0000382   5.9609847   6.0000000  )
        26           Ti1 tau(  26) = (   3.2902200   4.4714249   6.0002472  )
        27           O1  tau(  27) = (   0.0002396   2.9813036   7.9858123  )
        28           O1  tau(  28) = (   3.2902150   2.9813002   7.3038282  )
        29           O1  tau(  29) = (   4.5938453   4.4726049   9.2879030  )
        30           O1  tau(  30) = (   1.9864658   4.4711199   9.2879459  )
        31           Ti1 tau(  31) = (   3.2891106   5.8743827   9.1763621  )
        32           Ti1 tau(  32) = (   0.0006254   4.4649316   9.2693709  )
        33           O1  tau(  33) = (   3.3033179   3.0104581  11.2528581  )
        34           O1  tau(  34) = (   0.0092240   2.9805883  10.6323155  )
        35           O1  tau(  35) = (   1.3074756   4.4469578  12.6382572  )
        36           O1  tau(  36) = (   5.3202433   4.4545580  12.6357595  )
        37           Ti1 tau(  37) = (   6.5572640   0.0741000  12.5519234  )
        38           Ti1 tau(  38) = (   3.3179412   4.3950854  12.4030220  )
        39           O1  tau(  39) = (   0.0383827   2.9948909  14.7437145  )
        40           O1  tau(  40) = (   3.3238341   2.9662938  13.8354460  )
        41           O1  tau(  41) = (   4.5722604   4.5101538  15.9256862  )
        42           O1  tau(  42) = (   2.0839069   4.4665637  16.0501180  )
        43           Ti1 tau(  43) = (   3.2507700   5.9423238  16.2547716  )
        44           Ti1 tau(  44) = (   6.5063516   4.5631136  16.2071476  )
        45           O1  tau(  45) = (   3.2900926   2.9813045   4.7018136  )
        46           O1  tau(  46) = (   1.3039711   4.4726057   6.0039043  )
        47           O1  tau(  47) = (   5.2763189   4.4711207   6.0039473  )
        48           N1  tau(  48) = (   0.4124544   2.9287237  17.8391456  )
        49           C1  tau(  49) = (   1.3780350   3.0145335  18.6736463  )
        50           H1  tau(  50) = (   2.3027514   2.5668077  18.2879847  )
        51           N1  tau(  51) = (   5.7762606   3.6115528  18.1636368  )
        52           H1  tau(  52) = (   5.8537390   4.1179332  19.0469945  )
        53           H1  tau(  53) = (   5.0130290   2.9392956  18.1702355  )
        54           O1  tau(  54) = (   3.2882145   0.0116813  18.0866318  )
        55           H1  tau(  55) = (   2.5850809   5.5738040  18.6371346  )

     number of k points=    10  Fermi-Dirac smearing, width (Ry)=  0.0073
                       cart. coord. in units 2pi/alat
        k(    1) = (   0.0000000   0.0000000   0.0000000), wk =   0.1250000
        k(    2) = (   0.0000000   0.0419351   0.0000000), wk =   0.2500000
        k(    3) = (   0.0000000  -0.0838702   0.0000000), wk =   0.1250000
        k(    4) = (   0.0379955   0.0000049   0.0000000), wk =   0.2500000
        k(    5) = (   0.0379955   0.0419400   0.0000000), wk =   0.2500000
        k(    6) = (   0.0379955  -0.0838652   0.0000000), wk =   0.2500000
        k(    7) = (   0.0379955  -0.0419301   0.0000000), wk =   0.2500000
        k(    8) = (  -0.0759910  -0.0000099   0.0000000), wk =   0.1250000
        k(    9) = (  -0.0759910   0.0419252   0.0000000), wk =   0.2500000
        k(   10) = (  -0.0759910  -0.0838800   0.0000000), wk =   0.1250000

     Initial potential from superposition of free atoms

     starting charge  385.99915, renormalised to  402.00000

     negative rho (up, down):  1.703E-02 0.000E+00

     %%%%%%%%%%%%%%%%%%%%%%%%%%%%%%%%%%%%%%%%%%%%%%%%%%%%%%%%%%%%%%%%%%%%%%%%
     %                                                                      %
     % You are using vdW-DF, which was implemented by the Thonhauser group. %
     % Please cite the following two papers that made this development      %
     % possible and the two reviews that describe the various versions:     %
     %                                                                      %
     %   T. Thonhauser et al., PRL 115, 136402 (2015).                      %
     %   T. Thonhauser et al., PRB 76, 125112 (2007).                       %
     %   K. Berland et al., Rep. Prog. Phys. 78, 066501 (2015).             %
     %   D.C. Langreth et al., J. Phys.: Condens. Matter 21, 084203 (2009). %
     %                                                                      %
     %                                                                      %
     % If you are calculating the stress with vdW-DF, please also cite:     %
     %                                                                      %
     %   R. Sabatini et al., J. Phys.: Condens. Matter 24, 424209 (2012).   %
     %                                                                      %
     %%%%%%%%%%%%%%%%%%%%%%%%%%%%%%%%%%%%%%%%%%%%%%%%%%%%%%%%%%%%%%%%%%%%%%%%

     Adding external electric field

     Computed dipole along edir(3) :
        Dipole              -11.1544 Ry au,        -28.3516 Debye
        Dipole field         -0.0210 Ry au,

        Potential amp.        1.9513 Ry
        Total length         46.3494 bohr

     Starting wfcs are  304 atomic wfcs
  @ DRIVER MODE: Message from server: STATUS
  @ DRIVER MODE: Message from server: POSDATA
  @ DRIVER MODE: Reading and sharing cell
  @ DRIVER MODE: Reading and sharing positions
  @ DRIVER MODE: Received positions

     Self-consistent Calculation

     iteration #  1     ecut=    29.40 Ry     beta= 0.05
     Davidson diagonalization with overlap
     c_bands:  2 eigenvalues not converged
     c_bands:  3 eigenvalues not converged
     c_bands:  1 eigenvalues not converged
     c_bands:  5 eigenvalues not converged
     c_bands:  1 eigenvalues not converged
     c_bands:  5 eigenvalues not converged
     c_bands:  3 eigenvalues not converged
     ethr =  1.00E-05,  avg # of iterations = 27.6

[...]

     total energy              =   -2400.33154402 Ry
     estimated scf accuracy    <    6416.22156070 Ry

     iteration #  2     ecut=    29.40 Ry     beta= 0.05
     Davidson diagonalization with overlap
     ethr =  1.00E-02,  avg # of iterations = 23.8

[...]

     iteration # 49     ecut=    29.40 Ry     beta= 0.05
     Davidson diagonalization with overlap
     c_bands:  1 eigenvalues not converged
     ethr =  4.42E-07,  avg # of iterations = 12.1

[...]

     total energy              =   -2972.60992487 Ry
     estimated scf accuracy    <       0.00000044 Ry

     iteration # 87     ecut=    29.40 Ry     beta= 0.05
     Davidson diagonalization with overlap
     ethr =  5.81E-11,  avg # of iterations =  6.0

     negative rho (up, down):  1.638E-02 0.000E+00

     Adding external electric field

     Computed dipole along edir(3) :
        Dipole                0.2186 Ry au,          0.5557 Debye
        Dipole field          0.0004 Ry au,

        Potential amp.       -0.0382 Ry
        Total length         46.3494 bohr

     End of self-consistent calculation

          k = 0.0000 0.0000 0.0000 ( 18029 PWs)   bands (ev):

   -56.4675 -56.4337 -56.0104 -55.9745 -55.7587 -55.7042 -55.6454 -55.6334
   -55.6036 -55.5145 -55.5052 -55.4503 -55.4067 -55.2821 -55.2115 -55.1776
   -32.9139 -32.7588 -32.7315 -32.6274 -32.5384 -32.5351 -32.4919 -32.2420
   -32.2281 -32.2060 -32.1593 -32.1542 -32.1279 -32.1090 -32.0257 -32.0092
   -31.9931 -31.9799 -31.9616 -31.9234 -31.9156 -31.9094 -31.9066 -31.8831
   -31.8651 -31.8625 -31.8560 -31.8055 -31.7893 -31.7692 -31.7464 -31.7221
   -31.7101 -31.6945 -31.6782 -31.6714 -31.6448 -31.6067 -31.5960 -31.5772
   -31.5470 -31.5465 -31.5228 -31.5137 -31.4902 -31.4258 -31.3415 -31.2294
   -17.9080 -16.7391 -16.4390 -16.3959 -16.2012 -16.0131 -15.9200 -15.9025
   -15.8855 -15.7643 -15.7641 -15.6130 -15.5325 -15.4774 -15.4145 -15.4027
   -15.3341 -15.3171 -15.2532 -15.2257 -15.2129 -15.1867 -15.1379 -15.0763
   -15.0657 -15.0397 -14.8520 -14.8282 -14.8119 -14.6278 -14.5337 -13.7089
   -13.5972 -13.2150  -7.8378  -6.1742  -4.2567  -4.2497  -4.1143  -3.9339
    -3.7348  -3.6727  -3.5762  -3.4349  -3.4036  -3.1618  -3.1467  -3.1053
    -3.0164  -2.9882  -2.9611  -2.9016  -2.8433  -2.8238  -2.7634  -2.6859
    -2.6840  -2.6734  -2.6416  -2.6190  -2.5153  -2.4754  -2.4132  -2.3742
    -2.3479  -2.3377  -2.2983  -2.2432  -2.2157  -2.1633  -2.1452  -2.0643
    -2.0347  -1.9477  -1.8875  -1.8696  -1.8161  -1.7596  -1.7545  -1.6986
    -1.5674  -1.4577  -1.3909  -1.3490  -1.2946  -1.2395  -1.2092  -1.1541
    -1.0897  -1.0661  -1.0428  -1.0056  -0.9451  -0.9166  -0.8704  -0.8153
    -0.7377  -0.6721  -0.6260  -0.6051  -0.4998  -0.4345  -0.3963  -0.3804
    -0.3439  -0.2898  -0.2344  -0.1944  -0.1839  -0.1609  -0.1004   0.0238
     0.0352   0.0934   0.1484   0.1822   0.1949   0.2097   0.2718   0.3390
     0.4128   0.4556   0.4686   0.5262   0.5915   0.6294   0.7448   0.8130
     0.8383   0.8803   0.9565   1.0317   1.0476   1.3542   1.3679   1.3967
     2.5146   2.7678   2.8986   3.0781   3.1988   3.3341   3.6534   3.6697
     3.6814   3.7042   3.7577

[...]

          k = 0.0380-0.0419 0.0000 ( 17876 PWs)   bands (ev):

[...]

          k =-0.0760-0.0000 0.0000 ( 17886 PWs)   bands (ev):

[...]

          k =-0.0760-0.0839 0.0000 ( 17948 PWs)   bands (ev):

   -56.4507 -56.4503 -55.9987 -55.9860 -55.7528 -55.7100 -55.6367 -55.6319
   -55.6121 -55.5123 -55.5067 -55.4487 -55.4087 -55.2837 -55.1950 -55.1939
   -32.7446 -32.7441 -32.7302 -32.7300 -32.5799 -32.5790 -32.3207 -32.3097
   -32.1906 -32.1843 -32.1762 -32.1746 -32.0606 -32.0281 -31.9816 -31.9745
   -31.9598 -31.9559 -31.9474 -31.9391 -31.9365 -31.9286 -31.9058 -31.8681
   -31.8626 -31.8551 -31.8538 -31.8397 -31.8204 -31.7953 -31.7816 -31.7719
   -31.7259 -31.7082 -31.7010 -31.6819 -31.6506 -31.6322 -31.6297 -31.6004
   -31.5492 -31.5361 -31.5353 -31.4943 -31.4224 -31.4211 -31.3842 -31.3834
   -17.8987 -16.4103 -16.1447 -16.1339 -16.0162 -16.0106 -15.8572 -15.8381
   -15.8200 -15.7459 -15.6814 -15.6605 -15.5124 -15.4996 -15.4630 -15.4276
   -15.3994 -15.3625 -15.3577 -15.3343 -15.3008 -15.2356 -15.2143 -15.1894
   -15.1789 -15.1022 -14.9228 -14.9003 -14.8967 -14.8224 -14.6831 -13.7008
   -13.7000 -13.2262  -7.8021  -6.1042  -4.3698  -4.0608  -3.3152  -3.2513
    -3.1759  -3.1401  -3.1297  -3.0569  -3.0418  -2.9267  -2.8988  -2.8599
    -2.8333  -2.8229  -2.8025  -2.7518  -2.7294  -2.6847  -2.6680  -2.6661
    -2.6347  -2.5940  -2.5739  -2.5507  -2.5401  -2.4703  -2.4405  -2.3977
    -2.3816  -2.3694  -2.3218  -2.2609  -2.2426  -2.1864  -2.1744  -2.1420
    -2.1052  -2.0443  -2.0048  -1.9632  -1.8651  -1.8441  -1.7756  -1.6584
    -1.6373  -1.5533  -1.5254  -1.5038  -1.4816  -1.4042  -1.3717  -1.3383
    -1.2511  -1.2245  -1.2161  -1.1898  -1.1564  -1.1317  -1.0742  -1.0126
    -0.9175  -0.8540  -0.8415  -0.8233  -0.7834  -0.7575  -0.7162  -0.6243
    -0.6031  -0.5680  -0.5580  -0.5161  -0.4042  -0.3779  -0.2283  -0.1912
    -0.1014  -0.0743  -0.0547  -0.0127   0.1098   0.1368   0.1862   0.2070
     0.2657   0.3106   0.3613   0.4523   0.5533   0.5659   0.6974   0.7244
     0.7449   0.8185   0.9509   0.9928   1.2073   1.2119   1.2135   1.2158
     2.4939   3.3205   3.3229   3.3562   3.3685   3.5717   3.5919   3.7180
     3.8023   3.8100   3.8114

     the Fermi energy is     2.6943 ev

!    total energy              =   -2972.60992810 Ry
     estimated scf accuracy    <       0.00000007 Ry
     smearing contrib. (-TS)   =      -0.01174143 Ry
     internal energy E=F+TS    =   -2972.59818666 Ry

     The total energy is F=E-TS. E is the sum of the following terms:
     one-electron contribution =  -24036.53103393 Ry
     hartree contribution      =   12109.67003158 Ry
     xc contribution           =    -493.06969184 Ry
     ewald contribution        =    9447.33241732 Ry
     electric field correction =       0.00009021 Ry

     convergence has been achieved in  87 iterations

     Forces acting on atoms (cartesian axes, Ry/au):

     atom    1 type  1   force =    -0.00003673   -0.00046281    0.10839700
     atom    2 type  1   force =     0.00002027    0.00008650   -0.16405920
     atom    3 type  2   force =     0.00013294    0.00046835   -0.04120258
     atom    4 type  2   force =     0.00009394   -0.00056512    0.03214252
     atom    5 type  2   force =    -0.00380726   -0.00332642   -0.00776346
     atom    6 type  2   force =     0.00586816   -0.00273409   -0.00758848
     atom    7 type  1   force =     0.00017140   -0.00552324    0.03633908
     atom    8 type  1   force =     0.00012994    0.02544091    0.06351945
     atom    9 type  2   force =     0.00013836    0.00039427    0.00011232
     atom   10 type  2   force =    -0.00195163    0.00076207   -0.03778711
     atom   11 type  2   force =     0.00009186   -0.00015624   -0.00018505
     atom   12 type  2   force =    -0.00073055    0.00020326   -0.00019033
     atom   13 type  1   force =     0.00044771    0.00045415    0.00086763
     atom   14 type  1   force =    -0.00056387   -0.00028385    0.00019233
     atom   15 type  2   force =    -0.00013218    0.00001124    0.00080167
     atom   16 type  2   force =    -0.00012233    0.00031015   -0.00020816
     atom   17 type  2   force =    -0.00100363    0.00047332    0.00003453
     atom   18 type  2   force =     0.00052233   -0.00002172   -0.00031674
     atom   19 type  1   force =     0.00026747   -0.00073049    0.00003076
     atom   20 type  1   force =    -0.00044500    0.00002971   -0.00027425
     atom   21 type  2   force =     0.00009624    0.00018815    0.10012836
     atom   22 type  2   force =    -0.00008270   -0.00033564    0.00047891
     atom   23 type  2   force =    -0.07741154    0.00001548   -0.03032588
     atom   24 type  2   force =     0.07740348    0.00043290   -0.03036676
     atom   25 type  1   force =    -0.00000667   -0.00032046    0.10857843
     atom   26 type  1   force =    -0.00004102   -0.00110548   -0.16409191
     atom   27 type  2   force =     0.00011726   -0.00017693   -0.03921413
     atom   28 type  2   force =     0.00011674    0.00118044    0.02836048
     atom   29 type  2   force =    -0.00230819    0.00468155   -0.01049699
     atom   30 type  2   force =     0.00438530    0.00496356   -0.01045684
     atom   31 type  1   force =     0.00005626    0.00318048    0.01916486
     atom   32 type  1   force =     0.00036534   -0.02766191    0.06525737
     atom   33 type  2   force =    -0.00003342   -0.00078243   -0.00043232
     atom   34 type  2   force =    -0.00062721    0.00085896   -0.05568683
     atom   35 type  2   force =    -0.00036395   -0.00023460   -0.00027765
     atom   36 type  2   force =    -0.00005488   -0.00003794   -0.00020126
     atom   37 type  1   force =     0.00029571   -0.00052580    0.00011532
     atom   38 type  1   force =    -0.00037142   -0.00013105    0.00029970
     atom   39 type  2   force =    -0.00017202    0.00034034   -0.00013770
     atom   40 type  2   force =    -0.00016428   -0.00026628   -0.00033171
     atom   41 type  2   force =    -0.00021522    0.00014263    0.00001434
     atom   42 type  2   force =    -0.00056989   -0.00005122    0.00004170
     atom   43 type  1   force =     0.00031745    0.00027892   -0.00003607
     atom   44 type  1   force =    -0.00044042    0.00017153   -0.00073546
     atom   45 type  2   force =     0.00010301    0.00001366    0.09993825
     atom   46 type  2   force =    -0.07744539   -0.00001124   -0.03033570
     atom   47 type  2   force =     0.07746498    0.00041917   -0.03037369
     atom   48 type  3   force =    -0.00030035   -0.00001637   -0.00006810
     atom   49 type  4   force =     0.00006039   -0.00007177   -0.00066915
     atom   50 type  5   force =    -0.00023228   -0.00012901   -0.00016566
     atom   51 type  3   force =     0.00102155   -0.00081753   -0.00003404
     atom   52 type  5   force =     0.00020532    0.00023166   -0.00036221
     atom   53 type  5   force =     0.00009750    0.00072228    0.00004087
     atom   54 type  2   force =    -0.00875262   -0.00465882    0.00622121
     atom   55 type  5   force =     0.00839572    0.00468278   -0.00670169

     Total force =     0.383236     Total SCF correction =     0.001026
  @ DRIVER MODE: Message from server: STATUS
  @ DRIVER MODE: Message from server: GETFORCE
  @ DRIVER MODE: Returning v,forces,stress,ensemble

     Writing output data file ./calc.save/
  @ DRIVER MODE: Message from server: EXIT
  @ DRIVE MODE: Exiting

     General routines

     Parallel routines

   This run was terminated on:   6:44:24  23Sep2021

   JOB DONE.