     Program PWSCF v.6.7GPU starts on 27Jul2021 at  2:23:10

     R & G space division:  proc/nbgrp/npool/nimage =      16
     Reading input from /storage/home/hcoda1/3/ntian30/research/carbon/15Jul_vib/ads_slab/CH3NHHH_a/out_0006/pw.inp
Warning: card &CELL ignored
Warning: card   CELL_DYNAMICS='IPI', ignored
Warning: card / ignored

     Current dimensions of program PWSCF are:
     Max number of different atomic species (ntypx) = 10
     Max number of k-points (npk) =  40000
     Max angular momentum in pseudopotentials (lmaxx) =  3
     Presently no symmetry can be used with electric field

     Message from routine cell_base_init:
     DEPRECATED: use true lattice parameter, not A to a.u. conversion factor

     IMPORTANT: XC functional enforced from input :
     Exchange-correlation= BEEF-VDW
                           (   1   4  43  14   2   0   0)
     Any further DFT definition will be discarded
     Please, verify this is what you really want

  @ DRIVER MODE: Connecting to
 qe_1139763_2431568.sched-torque.pace.gatech.edubdhjf56q_scratch
  using UNIX socket
  @ DRIVER MODE: Message from server: STATUS
  @ DRIVER MODE: Message from server: INIT
  @ DRIVER MODE: Receiving replica           0          -1
  @ DRIVER MODE: Receiving encoded integer          25
  @ DRIVER MODE:  SCF:  T  FORCE:  T  STRESS:  F  VC:  F  ENSEMBLE:  F
  @ DRIVER MODE:  SCF:  T  FORCE:  T  STRESS:  F  VC:  F  ENSEMBLE:  F

     Using Slab Decomposition

     bravais-lattice index     =            0
     lattice parameter (alat)  =       1.8897  a.u.
     unit-cell volume          =    6658.9804 (a.u.)^3
     number of atoms/cell      =           55
     number of atomic types    =            5
     number of electrons       =       393.00
     number of Kohn-Sham states=          206
     kinetic-energy cutoff     =      29.3995  Ry
     charge density cutoff     =     293.9946  Ry
     scf convergence threshold =      7.3E-08
     mixing beta               =       0.0500
     number of iterations used =            8  plain     mixing
     Exchange-correlation= BEEF-VDW
                           (   1   4  43  14   2   0   0)

     celldm(1)=   1.889726  celldm(2)=   0.000000  celldm(3)=   0.000000
     celldm(4)=   0.000000  celldm(5)=   0.000000  celldm(6)=   0.000000

     crystal axes: (cart. coord. in units of alat)
               a(1) = (   6.579727   0.000000   0.000000 )
               a(2) = (  -0.000775   5.961596   0.000000 )
               a(3) = (   0.000000   0.000000  25.155947 )

     reciprocal axes: (cart. coord. in units 2 pi/alat)
               b(1) = (  0.151982  0.000020  0.000000 )
               b(2) = (  0.000000  0.167740  0.000000 )
               b(3) = (  0.000000  0.000000  0.039752 )

     PseudoPot. # 1 for Ti read from file:
     /storage/coda1/p-amedford6/0/shared/rich_project_chbe-medford/medford-share/data/pseudos_module/espresso/nninc/pbe/van/Ti.UPF
     MD5 check sum: 8e4df49b7f0d34bbd5052bf3f5ea0213
     Pseudo is Ultrasoft, Zval = 12.0
     Generated by new atomic code, or converted to UPF format
     Using radial grid of  851 points,  6 beta functions with:
                l(1) =   0
                l(2) =   0
                l(3) =   1
                l(4) =   1
                l(5) =   2
                l(6) =   2
     Q(r) pseudized with  8 coefficients,  rinner =    1.000   1.000   1.000
                                                       1.000   1.000

     PseudoPot. # 2 for O  read from file:
     /storage/coda1/p-amedford6/0/shared/rich_project_chbe-medford/medford-share/data/pseudos_module/espresso/nninc/pbe/van/O.UPF
     MD5 check sum: 78c19812648e8988a0fe644b0f25305e
     Pseudo is Ultrasoft, Zval =  6.0
     Generated by new atomic code, or converted to UPF format
     Using radial grid of  737 points,  4 beta functions with:
                l(1) =   0
                l(2) =   0
                l(3) =   1
                l(4) =   1
     Q(r) pseudized with  8 coefficients,  rinner =    0.800   0.800   0.800

     PseudoPot. # 3 for N  read from file:
     /storage/coda1/p-amedford6/0/shared/rich_project_chbe-medford/medford-share/data/pseudos_module/espresso/nninc/pbe/van/N.UPF
     MD5 check sum: 90d10febe142ad51ac9d5be1deb811c4
     Pseudo is Ultrasoft, Zval =  5.0
     Generated by new atomic code, or converted to UPF format
     Using radial grid of  729 points,  4 beta functions with:
                l(1) =   0
                l(2) =   0
                l(3) =   1
                l(4) =   1
     Q(r) pseudized with  8 coefficients,  rinner =    0.800   0.800   0.800

     PseudoPot. # 4 for C  read from file:
     /storage/coda1/p-amedford6/0/shared/rich_project_chbe-medford/medford-share/data/pseudos_module/espresso/nninc/pbe/van/C.UPF
     MD5 check sum: 1a69bf6b8db32088f5b2163dbdb77a27
     Pseudo is Ultrasoft, Zval =  4.0
     Generated by new atomic code, or converted to UPF format
     Using radial grid of  721 points,  4 beta functions with:
                l(1) =   0
                l(2) =   0
                l(3) =   1
                l(4) =   1
     Q(r) pseudized with  8 coefficients,  rinner =    0.800   0.800   0.800

     PseudoPot. # 5 for H  read from file:
     /storage/coda1/p-amedford6/0/shared/rich_project_chbe-medford/medford-share/data/pseudos_module/espresso/nninc/pbe/van/H.UPF
     MD5 check sum: b5ee9d7bfd3a09ee7748110bda690ff7
     Pseudo is Ultrasoft, Zval =  1.0
     Generated by new atomic code, or converted to UPF format
     Using radial grid of  615 points,  1 beta functions with:
                l(1) =   0
     Q(r) pseudized with  8 coefficients,  rinner =    0.800

     atomic species   valence    mass     pseudopotential
        Ti1           12.00    47.86700     Ti( 1.00)
        O1             6.00    15.99900     O ( 1.00)
        N1             5.00    14.00700     N ( 1.00)
        C1             4.00    12.01100     C ( 1.00)
        H1             1.00     1.00800     H ( 1.00)

     Starting magnetic structure
     atomic species   magnetization
        Ti1          0.000
        O1           0.000
        N1           0.040
        C1           0.025
        H1           0.000

     No symmetry found

   Cartesian axes

     site n.     atom                  positions (alat units)
         1           Ti1 tau(   1) = (   0.0004258   2.9801865   6.0000000  )
         2           Ti1 tau(   2) = (   3.2906075   1.4906267   6.0002472  )
         3           O1  tau(   3) = (   0.0006271   0.0005054   7.9858123  )
         4           O1  tau(   4) = (   3.2906025   0.0005020   7.3038282  )
         5           O1  tau(   5) = (   4.5942328   1.4918067   9.2879030  )
         6           O1  tau(   6) = (   1.9868534   1.4903216   9.2879459  )
         7           Ti1 tau(   7) = (   3.2907910   2.8959150   9.1758416  )
         8           Ti1 tau(   8) = (   0.0015273   1.4827037   9.2680791  )
         9           O1  tau(   9) = (   3.2636084   5.9406443  11.4082010  )
        10           O1  tau(  10) = (   0.0116148   5.9584955  10.6183126  )
        11           O1  tau(  11) = (   1.2642105   1.4849797  12.6947803  )
        12           O1  tau(  12) = (   5.2691575   1.4821021  12.6650678  )
        13           Ti1 tau(  13) = (   6.5574234   2.9640577  12.4921542  )
        14           Ti1 tau(  14) = (   3.2619390   1.4709553  12.5527290  )
        15           O1  tau(  15) = (   6.5247406   5.9594380  14.6832748  )
        16           O1  tau(  16) = (   3.2695906   5.9428997  14.0562986  )
        17           O1  tau(  17) = (   4.5175969   1.4707097  16.2986306  )
        18           O1  tau(  18) = (   1.9406912   1.4777946  16.2473769  )
        19           Ti1 tau(  19) = (   3.2491105   2.9422209  15.8109686  )
        20           Ti1 tau(  20) = (   6.5361480   1.3378720  15.9626387  )
        21           O1  tau(  21) = (   3.2904802   0.0005063   4.7018136  )
        22           O1  tau(  22) = (   6.5280740   5.8897732  17.4332532  )
        23           O1  tau(  23) = (   1.3043587   1.4918075   6.0039043  )
        24           O1  tau(  24) = (   5.2767064   1.4903225   6.0039473  )
        25           Ti1 tau(  25) = (   0.0000382   5.9609847   6.0000000  )
        26           Ti1 tau(  26) = (   3.2902200   4.4714249   6.0002472  )
        27           O1  tau(  27) = (   0.0002396   2.9813036   7.9858123  )
        28           O1  tau(  28) = (   3.2902150   2.9813002   7.3038282  )
        29           O1  tau(  29) = (   4.5938453   4.4726049   9.2879030  )
        30           O1  tau(  30) = (   1.9864658   4.4711199   9.2879459  )
        31           Ti1 tau(  31) = (   3.2891106   5.8743827   9.1763621  )
        32           Ti1 tau(  32) = (   0.0006254   4.4649316   9.2693709  )
        33           O1  tau(  33) = (   3.2649920   2.9642658  11.3997388  )
        34           O1  tau(  34) = (   0.0092240   2.9805883  10.6323155  )
        35           O1  tau(  35) = (   1.2634527   4.4478426  12.7061968  )
        36           O1  tau(  36) = (   5.2693862   4.4495813  12.6755241  )
        37           Ti1 tau(  37) = (   6.5522441   5.9483113  12.5008436  )
        38           Ti1 tau(  38) = (   3.2626494   4.4468850  12.5575576  )
        39           O1  tau(  39) = (   6.4970557   2.9363996  15.0046851  )
        40           O1  tau(  40) = (   3.2722650   2.9529576  14.0194401  )
        41           O1  tau(  41) = (   4.5170401   4.4205294  16.2730734  )
        42           O1  tau(  42) = (   1.9466746   4.4191161  16.2235312  )
        43           Ti1 tau(  43) = (   3.2419262   5.9323414  15.8513663  )
        44           Ti1 tau(  44) = (   6.5549466   4.5556212  15.8889459  )
        45           O1  tau(  45) = (   3.2900926   2.9813045   4.7018136  )
        46           O1  tau(  46) = (   1.3039711   4.4726057   6.0039043  )
        47           O1  tau(  47) = (   5.2763189   4.4711207   6.0039473  )
        48           N1  tau(  48) = (   4.8657738   4.5798987  19.4896958  )
        49           C1  tau(  49) = (   5.7271871   3.4329544  19.8049648  )
        50           H1  tau(  50) = (   6.3241292   3.1721029  18.9298488  )
        51           H1  tau(  51) = (   6.4229137   3.7195585  20.5942015  )
        52           H1  tau(  52) = (   5.1874390   2.5328885  20.1195193  )
        53           H1  tau(  53) = (   5.9066942   5.7389963  18.1772939  )
        54           H1  tau(  54) = (   4.2103208   4.3266459  18.7469397  )
        55           H1  tau(  55) = (   4.3187305   4.8545830  20.2870342  )

     number of k points=    10  Fermi-Dirac smearing, width (Ry)=  0.0073
                       cart. coord. in units 2pi/alat
        k(    1) = (   0.0000000   0.0000000   0.0000000), wk =   0.0625000
        k(    2) = (   0.0000000   0.0419351   0.0000000), wk =   0.1250000
        k(    3) = (   0.0000000  -0.0838702   0.0000000), wk =   0.0625000
        k(    4) = (   0.0379955   0.0000049   0.0000000), wk =   0.1250000
        k(    5) = (   0.0379955   0.0419400   0.0000000), wk =   0.1250000
        k(    6) = (   0.0379955  -0.0838652   0.0000000), wk =   0.1250000
[...]

     starting charge  376.99914, renormalised to  393.00000

     negative rho (up, down):  6.647E-03 6.649E-03

     %%%%%%%%%%%%%%%%%%%%%%%%%%%%%%%%%%%%%%%%%%%%%%%%%%%%%%%%%%%%%%%%%%%%%%%%
     %                                                                      %
     % You are using vdW-DF, which was implemented by the Thonhauser group. %
     % Please cite the following two papers that made this development      %
     % possible and the two reviews that describe the various versions:     %
     %                                                                      %
     %   T. Thonhauser et al., PRL 115, 136402 (2015).                      %
     %   T. Thonhauser et al., PRB 76, 125112 (2007).                       %
     %   K. Berland et al., Rep. Prog. Phys. 78, 066501 (2015).             %
     %   D.C. Langreth et al., J. Phys.: Condens. Matter 21, 084203 (2009). %
     %                                                                      %
     %                                                                      %
     % If you are calculating the stress with vdW-DF, please also cite:     %
     %                                                                      %
     %   R. Sabatini et al., J. Phys.: Condens. Matter 24, 424209 (2012).   %
     %                                                                      %
     %%%%%%%%%%%%%%%%%%%%%%%%%%%%%%%%%%%%%%%%%%%%%%%%%%%%%%%%%%%%%%%%%%%%%%%%

     Adding external electric field

     Computed dipole along edir(3) :
        Dipole               -9.4958 Ry au,        -24.1358 Debye
        Dipole field         -0.0179 Ry au,

        Potential amp.        1.6611 Ry
        Total length         46.3494 bohr

[...]

     Starting wfcs are  298 atomic wfcs
  @ DRIVER MODE: Message from server: STATUS
  @ DRIVER MODE: Message from server: POSDATA
  @ DRIVER MODE: Reading and sharing cell
  @ DRIVER MODE: Reading and sharing positions
  @ DRIVER MODE: Received positions

     Self-consistent Calculation

     iteration #  1     ecut=    29.40 Ry     beta= 0.05
     Davidson diagonalization with overlap
     c_bands:  2 eigenvalues not converged
     c_bands:  1 eigenvalues not converged
     c_bands:  2 eigenvalues not converged
     c_bands:  3 eigenvalues not converged
     c_bands:  3 eigenvalues not converged
     c_bands:  1 eigenvalues not converged
     c_bands:  2 eigenvalues not converged
     c_bands:  1 eigenvalues not converged
     c_bands:  2 eigenvalues not converged
     c_bands:  3 eigenvalues not converged
     c_bands:  3 eigenvalues not converged
     c_bands:  1 eigenvalues not converged
     ethr =  1.00E-05,  avg # of iterations = 18.9

[...]

     total energy              =   -2620.50883231 Ry
     estimated scf accuracy    <    3389.68297507 Ry

     total magnetization       =     0.00 Bohr mag/cell
     absolute magnetization    =     0.01 Bohr mag/cell

[...]

     iteration #  3     ecut=    29.40 Ry     beta= 0.05
     Davidson diagonalization with overlap
     ethr =  1.00E-02,  avg # of iterations = 15.1

[...]

     iteration #126     ecut=    29.40 Ry     beta= 0.05
     Davidson diagonalization with overlap
     ethr =  2.03E-11,  avg # of iterations =  1.1

[...]

     total energy              =   -2922.77402992 Ry
     estimated scf accuracy    <       0.00000009 Ry

[...]

     iteration #127     ecut=    29.40 Ry     beta= 0.05
     Davidson diagonalization with overlap
     c_bands:  1 eigenvalues not converged
     c_bands:  1 eigenvalues not converged
     c_bands:  1 eigenvalues not converged
     ethr =  2.03E-11,  avg # of iterations = 14.9

     negative rho (up, down):  7.252E-03 7.254E-03

[...]

     Adding external electric field

     Computed dipole along edir(3) :
        Dipole                1.3995 Ry au,          3.5572 Debye
        Dipole field          0.0026 Ry au,

        Potential amp.       -0.2448 Ry
        Total length         46.3494 bohr

     Magnetic moment per site  (integrated on atomic sphere of radius R)
     atom   1 (R=0.739)  charge=  8.0547  magn=  0.0056
     atom   2 (R=0.739)  charge=  8.0361  magn=  0.0002
     atom   3 (R=0.405)  charge=  2.0075  magn= -0.0004
     atom   4 (R=0.405)  charge=  2.0190  magn= -0.0000
     atom   5 (R=0.405)  charge=  2.0104  magn= -0.0001
     atom   6 (R=0.405)  charge=  2.0107  magn= -0.0001
     atom   7 (R=0.739)  charge=  8.0371  magn=  0.0005
     atom   8 (R=0.739)  charge=  8.0393  magn=  0.0066
     atom   9 (R=0.405)  charge=  2.0112  magn=  0.0001
     atom  10 (R=0.405)  charge=  2.0118  magn= -0.0002
     atom  11 (R=0.405)  charge=  2.0092  magn=  0.0000
     atom  12 (R=0.405)  charge=  2.0092  magn=  0.0000
     atom  13 (R=0.739)  charge=  8.0500  magn=  0.0010
     atom  14 (R=0.739)  charge=  8.0432  magn= -0.0006
     atom  15 (R=0.405)  charge=  2.0128  magn= -0.0000
     atom  16 (R=0.405)  charge=  2.0108  magn= -0.0000
     atom  17 (R=0.405)  charge=  2.0009  magn= -0.0000
     atom  18 (R=0.405)  charge=  2.0012  magn= -0.0000
     atom  19 (R=0.739)  charge=  8.0824  magn=  0.0003
     atom  20 (R=0.739)  charge=  8.1004  magn=  0.0007
     atom  21 (R=0.405)  charge=  1.9825  magn= -0.0000
     atom  22 (R=0.405)  charge=  2.0201  magn= -0.0000
     atom  23 (R=0.405)  charge=  2.0078  magn= -0.0002
     atom  24 (R=0.405)  charge=  2.0078  magn= -0.0002
     atom  25 (R=0.739)  charge=  8.0548  magn=  0.0056
     atom  26 (R=0.739)  charge=  8.0362  magn=  0.0002
     atom  27 (R=0.405)  charge=  2.0075  magn= -0.0004
     atom  28 (R=0.405)  charge=  2.0191  magn= -0.0000
     atom  29 (R=0.405)  charge=  2.0107  magn= -0.0001
     atom  30 (R=0.405)  charge=  2.0109  magn= -0.0001
     atom  31 (R=0.739)  charge=  8.0372  magn=  0.0005
     atom  32 (R=0.739)  charge=  8.0393  magn=  0.0066
     atom  33 (R=0.405)  charge=  2.0120  magn=  0.0001
     atom  34 (R=0.405)  charge=  2.0122  magn= -0.0002
     atom  35 (R=0.405)  charge=  2.0082  magn=  0.0000
     atom  36 (R=0.405)  charge=  2.0092  magn=  0.0000
     atom  37 (R=0.739)  charge=  8.0419  magn=  0.0010
     atom  38 (R=0.739)  charge=  8.0432  magn= -0.0006
     atom  39 (R=0.405)  charge=  2.0116  magn= -0.0000
     atom  40 (R=0.405)  charge=  2.0126  magn=  0.0000
     atom  41 (R=0.405)  charge=  2.0020  magn= -0.0000
     atom  42 (R=0.405)  charge=  2.0020  magn= -0.0000
     atom  43 (R=0.739)  charge=  8.0813  magn=  0.0005
     atom  44 (R=0.739)  charge=  8.1024  magn=  0.0009
     atom  45 (R=0.405)  charge=  1.9825  magn= -0.0000
     atom  46 (R=0.405)  charge=  2.0078  magn= -0.0002
     atom  47 (R=0.405)  charge=  2.0078  magn= -0.0002
     atom  48 (R=0.415)  charge=  1.2995  magn=  0.0000
     atom  49 (R=0.450)  charge=  0.8494  magn=  0.0000
     atom  50 (R=0.405)  charge=  0.4137  magn= -0.0000
     atom  51 (R=0.405)  charge=  0.4141  magn= -0.0000
     atom  52 (R=0.405)  charge=  0.4129  magn= -0.0000
     atom  53 (R=0.405)  charge=  0.3971  magn=  0.0000
     atom  54 (R=0.405)  charge=  0.4157  magn= -0.0000
     atom  55 (R=0.405)  charge=  0.4313  magn= -0.0000

     End of self-consistent calculation

 ------ SPIN UP ------------

          k = 0.0000 0.0000 0.0000 ( 18029 PWs)   bands (ev):

   -55.3111 -55.2753 -55.2651 -55.2310 -55.1766 -55.1524 -55.1512 -55.1422
   -55.1180 -55.0930 -55.0768 -55.0591 -55.0351 -54.9772 -54.3041 -54.2700
   -31.8784 -31.7564 -31.6927 -31.6644 -31.6401 -31.6185 -31.6000 -31.5541
   -31.5540 -31.5491 -31.5186 -31.5098 -31.5079 -31.4786 -31.4684 -31.4652
   -31.4496 -31.4418 -31.4184 -31.4058 -31.4007 -31.3845 -31.3777 -31.3587
   -31.3563 -31.3228 -31.3202 -31.3088 -31.3062 -31.2945 -31.2934 -31.2882
   -31.2800 -31.2792 -31.2640 -31.2610 -31.2285 -31.2213 -31.2043 -31.2038
   -31.1855 -31.1108 -30.7141 -30.6178 -30.5958 -30.5301 -30.4432 -30.3326
   -16.8291 -16.1508 -15.8944 -15.7736 -15.6644 -15.5924 -15.5237 -15.4448
   -15.3610 -15.2603 -15.1985 -15.0939 -15.0590 -15.0197 -15.0051 -14.9860
   -14.9591 -14.8789 -14.8678 -14.8575 -14.8314 -14.8131 -14.7852 -14.7760
   -14.7695 -14.7302 -14.6927 -14.5807 -14.4900 -14.4044 -12.8072 -12.6895
   -10.0074  -5.8572  -4.7392  -4.4308  -3.5243  -3.4782  -3.3469  -3.2420
    -3.2084  -3.1997  -3.0796  -2.8961  -2.8013  -2.7740  -2.6809  -2.6325
    -2.5370  -2.5332  -2.4930  -2.3927  -2.3550  -2.3283  -2.2449  -2.2181
    -2.1718  -2.1212  -2.1108  -2.1076  -2.0871  -2.0467  -2.0078  -1.8890
    -1.8044  -1.7823  -1.7088  -1.6925  -1.6864  -1.6583  -1.6153  -1.5964
    -1.5468  -1.5297  -1.4891  -1.4202  -1.3592  -1.2766  -1.2399  -1.2027
    -0.9970  -0.9679  -0.9173  -0.9150  -0.8864  -0.8181  -0.7887  -0.7591
    -0.6931  -0.6906  -0.6621  -0.5557  -0.5130  -0.3922  -0.3215  -0.2420
    -0.1200  -0.1071  -0.0833  -0.0334  -0.0098   0.0500   0.1098   0.1465
     0.1859   0.1985   0.2858   0.3157   0.3940   0.4094   0.4511   0.5087
     0.5263   0.5517   0.5743   0.5813   0.6147   0.6306   0.6647   0.7313
     0.7636   0.8646   0.9135   1.1974   1.2825   1.5918   1.6149   1.7182
     1.8995   2.2967   2.3457   3.7765   3.8424   3.8838   3.9246   3.9250
     4.0095   4.1426   4.2862   4.2925   4.3066   4.3127

[...]

          k =-0.0760-0.0000 0.0000 ( 17886 PWs)   bands (ev):

[...]

 ------ SPIN DOWN ----------

[...]

          k = 0.0380-0.0419 0.0000 ( 17876 PWs)   bands (ev):

[...]

          k =-0.0760-0.0839 0.0000 ( 17948 PWs)   bands (ev):

   -55.2962 -55.2934 -55.2391 -55.2382 -55.1585 -55.1576 -55.1465 -55.1363
   -55.1319 -55.0803 -55.0659 -55.0634 -55.0274 -54.9832 -54.2869 -54.2867
   -31.6871 -31.6820 -31.5914 -31.5854 -31.5680 -31.5674 -31.5607 -31.5282
   -31.5274 -31.5127 -31.5084 -31.5061 -31.4929 -31.4659 -31.4609 -31.4588
   -31.4349 -31.4324 -31.4272 -31.4062 -31.3793 -31.3773 -31.3713 -31.3677
   -31.3666 -31.3578 -31.3569 -31.3528 -31.3511 -31.3447 -31.3409 -31.3264
   -31.3236 -31.3083 -31.3052 -31.2968 -31.2681 -31.2468 -31.2446 -31.2426
   -31.2290 -31.1760 -30.6082 -30.6081 -30.5266 -30.5264 -30.4865 -30.4864
   -16.7677 -15.8236 -15.5934 -15.5433 -15.5025 -15.4080 -15.3343 -15.3031
   -15.2931 -15.2799 -15.1539 -15.1256 -15.1165 -15.0884 -15.0565 -15.0320
   -15.0282 -14.9932 -14.9360 -14.9299 -14.9219 -14.9137 -14.8502 -14.8420
   -14.8382 -14.8314 -14.7661 -14.7637 -14.6815 -14.6795 -12.7908 -12.7908
   -10.0171  -5.8571  -4.8672  -4.4113  -3.5372  -2.8267  -2.7996  -2.7472
    -2.6977  -2.6156  -2.5304  -2.5033  -2.4669  -2.4086  -2.3567  -2.3095
    -2.3074  -2.2716  -2.2520  -2.2332  -2.1896  -2.1680  -2.1455  -2.1274
    -2.1126  -2.0589  -2.0559  -2.0467  -2.0226  -1.9884  -1.9710  -1.9578
    -1.9414  -1.9231  -1.8976  -1.8784  -1.7353  -1.7145  -1.6739  -1.5565
    -1.5388  -1.5353  -1.5023  -1.4585  -1.4336  -1.4260  -1.3523  -1.3452
    -1.3131  -1.1555  -1.0832  -1.0815  -1.0582  -1.0342  -0.9391  -0.8877
    -0.8472  -0.7973  -0.7214  -0.6902  -0.6714  -0.5989  -0.5721  -0.4806
    -0.3911  -0.3643  -0.3561  -0.2789  -0.2774  -0.2438  -0.2307  -0.1617
    -0.1013  -0.0499  -0.0459  -0.0417   0.0869   0.1238   0.2039   0.3179
     0.3983   0.4066   0.4591   0.5183   0.6135   0.6490   0.6716   0.7850
     0.7869   0.9732   0.9765   1.0247   1.0398   1.1203   1.1255   2.0724
     2.0731   2.1656   2.1659   3.7586   3.9412   3.9955   4.0682   4.0933
     4.1922   4.2785   4.3122   4.3413   4.3638   4.3699

     the Fermi energy is     3.8511 ev

!    total energy              =   -2922.77403018 Ry
     estimated scf accuracy    <       0.00000006 Ry
     smearing contrib. (-TS)   =      -0.04551036 Ry
     internal energy E=F+TS    =   -2922.72851982 Ry

     The total energy is F=E-TS. E is the sum of the following terms:
     one-electron contribution =  -23199.62603238 Ry
     hartree contribution      =   11690.07034001 Ry
     xc contribution           =    -482.55091637 Ry
     ewald contribution        =    9069.37439267 Ry
     electric field correction =       0.00369624 Ry

     total magnetization       =     0.04 Bohr mag/cell
     absolute magnetization    =     0.06 Bohr mag/cell

     convergence has been achieved in 127 iterations

     Forces acting on atoms (cartesian axes, Ry/au):

     atom    1 type  1   force =     0.00017546   -0.00008878    0.09305582
     atom    2 type  1   force =     0.00001256   -0.00015373   -0.17884611
     atom    3 type  2   force =     0.00002242   -0.00029843   -0.02023439
     atom    4 type  2   force =    -0.00000058   -0.00223785    0.06097529
     atom    5 type  2   force =    -0.01149954   -0.00127762    0.01054425
     atom    6 type  2   force =     0.01241291   -0.00058358    0.00810933
     atom    7 type  1   force =    -0.00122994    0.00344306   -0.01490549
     atom    8 type  1   force =     0.00122833   -0.00357935   -0.00843991
     atom    9 type  2   force =     0.00001208   -0.00005375   -0.00025483
     atom   10 type  2   force =    -0.00281544   -0.00048146    0.00154031
     atom   11 type  2   force =     0.00011792   -0.00023729   -0.00028517
     atom   12 type  2   force =     0.00000314    0.00008638   -0.00009601
     atom   13 type  1   force =    -0.00018673   -0.00030800   -0.00063765
     atom   14 type  1   force =    -0.00005194   -0.00004753    0.00023870
     atom   15 type  2   force =    -0.00011664   -0.00024334   -0.00013297
     atom   16 type  2   force =     0.00033012    0.00034948   -0.00009417
     atom   17 type  2   force =     0.00078899    0.00026923   -0.00027990
     atom   18 type  2   force =     0.00008505   -0.00028295   -0.00006737
     atom   19 type  1   force =     0.00022920    0.00040125   -0.00040883
     atom   20 type  1   force =     0.00011709    0.00011445    0.00045584
     atom   21 type  2   force =     0.00012682   -0.00002981    0.10424826
     atom   22 type  2   force =    -0.00082196   -0.00005277    0.00051811
     atom   23 type  2   force =    -0.06991531   -0.00011330   -0.02678380
     atom   24 type  2   force =     0.06988766    0.00034807   -0.02678340
     atom   25 type  1   force =     0.00018366   -0.00019877    0.09238398
     atom   26 type  1   force =    -0.00006854   -0.00035815   -0.17903054
     atom   27 type  2   force =     0.00004226   -0.00025426   -0.01896618
     atom   28 type  2   force =     0.00006475   -0.00192979    0.06023196
     atom   29 type  2   force =    -0.01169064   -0.00162608    0.01033954
     atom   30 type  2   force =     0.01247523   -0.00120951    0.00786995
     atom   31 type  1   force =    -0.00101179    0.00609815   -0.01577065
     atom   32 type  1   force =     0.00118222    0.00333608   -0.00865338
     atom   33 type  2   force =     0.00002709    0.00020335   -0.00024240
     atom   34 type  2   force =    -0.00240750   -0.00053900    0.00059772
     atom   35 type  2   force =     0.00000282    0.00000342    0.00005504
     atom   36 type  2   force =     0.00003547   -0.00006989    0.00037056
     atom   37 type  1   force =     0.00034569   -0.00004677   -0.00007053
     atom   38 type  1   force =    -0.00035929   -0.00031606    0.00048983
     atom   39 type  2   force =     0.00035619   -0.00016058    0.00062919
     atom   40 type  2   force =     0.00025322   -0.00017233    0.00005487
     atom   41 type  2   force =     0.00007745    0.00037646   -0.00031501
     atom   42 type  2   force =     0.00049495    0.00022862   -0.00021702
     atom   43 type  1   force =     0.00021020   -0.00019237   -0.00035178
     atom   44 type  1   force =     0.00020058   -0.00129473    0.00060797
     atom   45 type  2   force =     0.00012079   -0.00005160    0.10420155
     atom   46 type  2   force =    -0.06992452   -0.00004964   -0.02677302
     atom   47 type  2   force =     0.06991385    0.00035222   -0.02679034
     atom   48 type  3   force =    -0.00002817   -0.00501621   -0.02495179
     atom   49 type  4   force =     0.00103073    0.00081909    0.00321790
     atom   50 type  5   force =    -0.00050990    0.00092635   -0.00043544
     atom   51 type  5   force =    -0.00001948   -0.00126698    0.00039380
     atom   52 type  5   force =     0.00017582   -0.00070655    0.00027951
     atom   53 type  5   force =     0.00037060    0.00096866   -0.00111677
     atom   54 type  5   force =     0.00647008    0.00399392    0.00797375
     atom   55 type  5   force =    -0.00692549    0.00321054    0.01255184

     Total force =     0.368992     Total SCF correction =     0.000459
  @ DRIVER MODE: Message from server: STATUS
  @ DRIVER MODE: Message from server: GETFORCE
  @ DRIVER MODE: Returning v,forces,stress,ensemble

     Writing output data file ./calc.save/
  @ DRIVER MODE: Message from server: EXIT
  @ DRIVE MODE: Exiting

     General routines

     Parallel routines

   This run was terminated on:   3:14:33  27Jul2021

   JOB DONE.