     Program PWSCF v.6.7GPU starts on 16Sep2021 at  4:15:12

     R & G space division:  proc/nbgrp/npool/nimage =      10
     Reading input from /storage/home/hcoda1/3/ntian30/research/carbon/CxH_vib/H2O_calc/ads_slab/CHNHHH2O_a/out_0039/pw.inp
Warning: card &CELL ignored
Warning: card   CELL_DYNAMICS='IPI', ignored
Warning: card / ignored

     Current dimensions of program PWSCF are:
     Max number of different atomic species (ntypx) = 10
     Max number of k-points (npk) =  40000
     Max angular momentum in pseudopotentials (lmaxx) =  3
     Presently no symmetry can be used with electric field

     Message from routine cell_base_init:
     DEPRECATED: use true lattice parameter, not A to a.u. conversion factor

     IMPORTANT: XC functional enforced from input :
     Exchange-correlation= BEEF-VDW
                           (   1   4  43  14   2   0   0)
     Any further DFT definition will be discarded
     Please, verify this is what you really want

  @ DRIVER MODE: Connecting to
 qe_1139763_2852629.sched-torque.pace.gatech.eduu8lrll7n_scratch
  using UNIX socket
  @ DRIVER MODE: Message from server: STATUS
  @ DRIVER MODE: Message from server: INIT
  @ DRIVER MODE: Receiving replica           0          -1
  @ DRIVER MODE: Receiving encoded integer          25
  @ DRIVER MODE:  SCF:  T  FORCE:  T  STRESS:  F  VC:  F  ENSEMBLE:  F
  @ DRIVER MODE:  SCF:  T  FORCE:  T  STRESS:  F  VC:  F  ENSEMBLE:  F

     Using Slab Decomposition

     bravais-lattice index     =            0
     lattice parameter (alat)  =       1.8897  a.u.
     unit-cell volume          =    6658.9804 (a.u.)^3
     number of atoms/cell      =           55
     number of atomic types    =            5
     number of electrons       =       398.00
     number of Kohn-Sham states=          209
     kinetic-energy cutoff     =      29.3995  Ry
     charge density cutoff     =     293.9946  Ry
     scf convergence threshold =      7.3E-08
     mixing beta               =       0.0500
     number of iterations used =            8  plain     mixing
     Exchange-correlation= BEEF-VDW
                           (   1   4  43  14   2   0   0)

     celldm(1)=   1.889726  celldm(2)=   0.000000  celldm(3)=   0.000000
     celldm(4)=   0.000000  celldm(5)=   0.000000  celldm(6)=   0.000000

     crystal axes: (cart. coord. in units of alat)
               a(1) = (   6.579727   0.000000   0.000000 )
               a(2) = (  -0.000775   5.961596   0.000000 )
               a(3) = (   0.000000   0.000000  25.155947 )

     reciprocal axes: (cart. coord. in units 2 pi/alat)
               b(1) = (  0.151982  0.000020  0.000000 )
               b(2) = (  0.000000  0.167740  0.000000 )
               b(3) = (  0.000000  0.000000  0.039752 )

     PseudoPot. # 1 for Ti read from file:
     /storage/coda1/p-amedford6/0/shared/rich_project_chbe-medford/medford-share/data/pseudos_module/espresso/nninc/pbe/van/Ti.UPF
     MD5 check sum: 8e4df49b7f0d34bbd5052bf3f5ea0213
     Pseudo is Ultrasoft, Zval = 12.0
     Generated by new atomic code, or converted to UPF format
     Using radial grid of  851 points,  6 beta functions with:
                l(1) =   0
                l(2) =   0
                l(3) =   1
                l(4) =   1
                l(5) =   2
                l(6) =   2
     Q(r) pseudized with  8 coefficients,  rinner =    1.000   1.000   1.000
                                                       1.000   1.000

     PseudoPot. # 2 for O  read from file:
     /storage/coda1/p-amedford6/0/shared/rich_project_chbe-medford/medford-share/data/pseudos_module/espresso/nninc/pbe/van/O.UPF
     MD5 check sum: 78c19812648e8988a0fe644b0f25305e
     Pseudo is Ultrasoft, Zval =  6.0
     Generated by new atomic code, or converted to UPF format
     Using radial grid of  737 points,  4 beta functions with:
                l(1) =   0
                l(2) =   0
                l(3) =   1
                l(4) =   1
     Q(r) pseudized with  8 coefficients,  rinner =    0.800   0.800   0.800

     PseudoPot. # 3 for N  read from file:
     /storage/coda1/p-amedford6/0/shared/rich_project_chbe-medford/medford-share/data/pseudos_module/espresso/nninc/pbe/van/N.UPF
     MD5 check sum: 90d10febe142ad51ac9d5be1deb811c4
     Pseudo is Ultrasoft, Zval =  5.0
     Generated by new atomic code, or converted to UPF format
     Using radial grid of  729 points,  4 beta functions with:
                l(1) =   0
                l(2) =   0
                l(3) =   1
                l(4) =   1
     Q(r) pseudized with  8 coefficients,  rinner =    0.800   0.800   0.800

     PseudoPot. # 4 for C  read from file:
     /storage/coda1/p-amedford6/0/shared/rich_project_chbe-medford/medford-share/data/pseudos_module/espresso/nninc/pbe/van/C.UPF
     MD5 check sum: 1a69bf6b8db32088f5b2163dbdb77a27
     Pseudo is Ultrasoft, Zval =  4.0
     Generated by new atomic code, or converted to UPF format
     Using radial grid of  721 points,  4 beta functions with:
                l(1) =   0
                l(2) =   0
                l(3) =   1
                l(4) =   1
     Q(r) pseudized with  8 coefficients,  rinner =    0.800   0.800   0.800

     PseudoPot. # 5 for H  read from file:
     /storage/coda1/p-amedford6/0/shared/rich_project_chbe-medford/medford-share/data/pseudos_module/espresso/nninc/pbe/van/H.UPF
     MD5 check sum: b5ee9d7bfd3a09ee7748110bda690ff7
     Pseudo is Ultrasoft, Zval =  1.0
     Generated by new atomic code, or converted to UPF format
     Using radial grid of  615 points,  1 beta functions with:
                l(1) =   0
     Q(r) pseudized with  8 coefficients,  rinner =    0.800

     atomic species   valence    mass     pseudopotential
        Ti1           12.00    47.86700     Ti( 1.00)
        O1             6.00    15.99900     O ( 1.00)
        N1             5.00    14.00700     N ( 1.00)
        C1             4.00    12.01100     C ( 1.00)
        H1             1.00     1.00800     H ( 1.00)

     No symmetry found

   Cartesian axes

     site n.     atom                  positions (alat units)
         1           Ti1 tau(   1) = (   0.0004258   2.9801865   6.0000000  )
         2           Ti1 tau(   2) = (   3.2906075   1.4906267   6.0002472  )
         3           O1  tau(   3) = (   0.0006271   0.0005054   7.9858123  )
         4           O1  tau(   4) = (   3.2906025   0.0005020   7.3038282  )
         5           O1  tau(   5) = (   4.5942328   1.4918067   9.2879030  )
         6           O1  tau(   6) = (   1.9868534   1.4903216   9.2879459  )
         7           Ti1 tau(   7) = (   3.2907910   2.8959150   9.1758416  )
         8           Ti1 tau(   8) = (   0.0015273   1.4827037   9.2680791  )
         9           O1  tau(   9) = (   3.2943807   5.9438157  11.3430345  )
        10           O1  tau(  10) = (   0.0116148   5.9584955  10.6183126  )
        11           O1  tau(  11) = (   1.2953376   1.4759649  12.6292060  )
        12           O1  tau(  12) = (   5.2846356   1.4785235  12.6176154  )
        13           Ti1 tau(  13) = (   0.0556596   2.9564334  12.6140783  )
        14           Ti1 tau(  14) = (   3.3658323   1.4657407  12.4949608  )
        15           O1  tau(  15) = (   6.5664030   0.0209144  14.6477191  )
        16           O1  tau(  16) = (   3.3113265   5.9542485  13.9698242  )
        17           O1  tau(  17) = (   4.5454210   1.5146250  16.1225105  )
        18           O1  tau(  18) = (   2.0305911   1.5113983  16.0894517  )
        19           Ti1 tau(  19) = (   3.2587399   2.9544808  15.6767922  )
        20           Ti1 tau(  20) = (   6.5654577   1.5458692  15.9193722  )
        21           O1  tau(  21) = (   3.2904802   0.0005063   4.7018136  )
        22           O1  tau(  22) = (   0.0418464   5.8849155  17.2380659  )
        23           O1  tau(  23) = (   1.3043587   1.4918075   6.0039043  )
        24           O1  tau(  24) = (   5.2767064   1.4903225   6.0039473  )
        25           Ti1 tau(  25) = (   0.0000382   5.9609847   6.0000000  )
        26           Ti1 tau(  26) = (   3.2902200   4.4714249   6.0002472  )
        27           O1  tau(  27) = (   0.0002396   2.9813036   7.9858123  )
        28           O1  tau(  28) = (   3.2902150   2.9813002   7.3038282  )
        29           O1  tau(  29) = (   4.5938453   4.4726049   9.2879030  )
        30           O1  tau(  30) = (   1.9864658   4.4711199   9.2879459  )
        31           Ti1 tau(  31) = (   3.2891106   5.8743827   9.1763621  )
        32           Ti1 tau(  32) = (   0.0006254   4.4649316   9.2693709  )
        33           O1  tau(  33) = (   3.2978316   2.9705197  11.3397625  )
        34           O1  tau(  34) = (   0.0092240   2.9805883  10.6323155  )
        35           O1  tau(  35) = (   1.2936985   4.4655287  12.6460247  )
        36           O1  tau(  36) = (   5.2856521   4.4646452  12.6308247  )
        37           Ti1 tau(  37) = (   0.0515089   5.9379728  12.5308627  )
        38           Ti1 tau(  38) = (   3.3654372   4.4547101  12.4935900  )
        39           O1  tau(  39) = (   6.5748852   2.9443291  14.6951209  )
        40           O1  tau(  40) = (   3.2957406   2.9584624  13.8938737  )
        41           O1  tau(  41) = (   4.5486474   4.4154460  16.0876977  )
        42           O1  tau(  42) = (   2.0388008   4.4257786  16.0448984  )
        43           Ti1 tau(  43) = (   3.3137362   5.9209902  15.7922403  )
        44           Ti1 tau(  44) = (   0.0032603   4.6697478  15.9558853  )
        45           O1  tau(  45) = (   3.2900926   2.9813045   4.7018136  )
        46           O1  tau(  46) = (   1.3039711   4.4726057   6.0039043  )
        47           O1  tau(  47) = (   5.2763189   4.4711207   6.0039473  )
        48           N1  tau(  48) = (   5.6270067   3.1633449  18.6203826  )
        49           C1  tau(  49) = (   0.0237924   2.7940403  17.7774691  )
        50           H1  tau(  50) = (   0.9584034   2.6460975  18.3247808  )
        51           H1  tau(  51) = (   4.7713523   3.5531088  18.2436842  )
        52           H1  tau(  52) = (   5.8168525   3.4166350  19.5804594  )
        53           O1  tau(  53) = (   3.2115967   5.9081562  18.2546127  )
        54           H1  tau(  54) = (   3.8106726   0.6755978  18.4519937  )
        55           H1  tau(  55) = (   2.3006756   0.2828797  18.3268221  )

     number of k points=    10  Fermi-Dirac smearing, width (Ry)=  0.0073
                       cart. coord. in units 2pi/alat
        k(    1) = (   0.0000000   0.0000000   0.0000000), wk =   0.1250000
        k(    2) = (   0.0000000   0.0419351   0.0000000), wk =   0.2500000
        k(    3) = (   0.0000000  -0.0838702   0.0000000), wk =   0.1250000
        k(    4) = (   0.0379955   0.0000049   0.0000000), wk =   0.2500000
        k(    5) = (   0.0379955   0.0419400   0.0000000), wk =   0.2500000
        k(    6) = (   0.0379955  -0.0838652   0.0000000), wk =   0.2500000
        k(    7) = (   0.0379955  -0.0419301   0.0000000), wk =   0.2500000
        k(    8) = (  -0.0759910  -0.0000099   0.0000000), wk =   0.1250000
        k(    9) = (  -0.0759910   0.0419252   0.0000000), wk =   0.2500000
        k(   10) = (  -0.0759910  -0.0838800   0.0000000), wk =   0.1250000

     Initial potential from superposition of free atoms

     starting charge  381.99915, renormalised to  398.00000

     negative rho (up, down):  1.708E-02 0.000E+00

     %%%%%%%%%%%%%%%%%%%%%%%%%%%%%%%%%%%%%%%%%%%%%%%%%%%%%%%%%%%%%%%%%%%%%%%%
     %                                                                      %
     % You are using vdW-DF, which was implemented by the Thonhauser group. %
     % Please cite the following two papers that made this development      %
     % possible and the two reviews that describe the various versions:     %
     %                                                                      %
     %   T. Thonhauser et al., PRL 115, 136402 (2015).                      %
     %   T. Thonhauser et al., PRB 76, 125112 (2007).                       %
     %   K. Berland et al., Rep. Prog. Phys. 78, 066501 (2015).             %
     %   D.C. Langreth et al., J. Phys.: Condens. Matter 21, 084203 (2009). %
     %                                                                      %
     %                                                                      %
     % If you are calculating the stress with vdW-DF, please also cite:     %
     %                                                                      %
     %   R. Sabatini et al., J. Phys.: Condens. Matter 24, 424209 (2012).   %
     %                                                                      %
     %%%%%%%%%%%%%%%%%%%%%%%%%%%%%%%%%%%%%%%%%%%%%%%%%%%%%%%%%%%%%%%%%%%%%%%%

     Adding external electric field

     Computed dipole along edir(3) :
        Dipole              -10.1352 Ry au,        -25.7611 Debye
        Dipole field         -0.0191 Ry au,

        Potential amp.        1.7730 Ry
        Total length         46.3494 bohr

     Starting wfcs are  301 atomic wfcs
  @ DRIVER MODE: Message from server: STATUS
  @ DRIVER MODE: Message from server: POSDATA
  @ DRIVER MODE: Reading and sharing cell
  @ DRIVER MODE: Reading and sharing positions
  @ DRIVER MODE: Received positions

     Self-consistent Calculation

     iteration #  1     ecut=    29.40 Ry     beta= 0.05
     Davidson diagonalization with overlap
     c_bands:  2 eigenvalues not converged
     c_bands:  1 eigenvalues not converged
     c_bands:  1 eigenvalues not converged
     c_bands:  3 eigenvalues not converged
     c_bands:  1 eigenvalues not converged
     c_bands:  3 eigenvalues not converged
     c_bands:  3 eigenvalues not converged
     c_bands:  3 eigenvalues not converged
     c_bands:  1 eigenvalues not converged
     ethr =  1.00E-05,  avg # of iterations = 19.8

[...]

     total energy              =   -2497.69332327 Ry
     estimated scf accuracy    <    5094.10057752 Ry

     iteration #  2     ecut=    29.40 Ry     beta= 0.05
     Davidson diagonalization with overlap
     ethr =  1.00E-02,  avg # of iterations = 26.1

[...]

     iteration # 45     ecut=    29.40 Ry     beta= 0.05
     Davidson diagonalization with overlap
     c_bands:  1 eigenvalues not converged
     c_bands:  2 eigenvalues not converged
     c_bands:  1 eigenvalues not converged
     ethr =  5.95E-07,  avg # of iterations = 14.5

[...]

     total energy              =   -2953.88241944 Ry
     estimated scf accuracy    <       0.00000012 Ry

     iteration # 65     ecut=    29.40 Ry     beta= 0.05
     Davidson diagonalization with overlap
     ethr =  2.99E-11,  avg # of iterations =  9.1

     negative rho (up, down):  1.666E-02 0.000E+00

     Adding external electric field

     Computed dipole along edir(3) :
        Dipole                1.2966 Ry au,          3.2956 Debye
        Dipole field          0.0024 Ry au,

        Potential amp.       -0.2268 Ry
        Total length         46.3494 bohr

     End of self-consistent calculation

          k = 0.0000 0.0000 0.0000 ( 18029 PWs)   bands (ev):

   -55.4415 -55.4353 -55.4161 -55.4074 -55.3991 -55.2979 -55.2561 -55.2495
   -55.2342 -55.2320 -55.2149 -55.1986 -54.8585 -54.7664 -54.4283 -54.3943
   -31.9913 -31.9254 -31.8170 -31.7929 -31.7525 -31.7483 -31.7328 -31.7226
   -31.6846 -31.6827 -31.6530 -31.6372 -31.6259 -31.6154 -31.5944 -31.5819
   -31.5727 -31.5472 -31.5431 -31.5079 -31.4993 -31.4966 -31.4623 -31.4510
   -31.4445 -31.4422 -31.4339 -31.4332 -31.4331 -31.4073 -31.4071 -31.4014
   -31.3846 -31.3808 -31.3563 -31.3494 -31.3417 -31.1905 -31.0760 -31.0240
   -30.9646 -30.9283 -30.8358 -30.7465 -30.7241 -30.6525 -30.5660 -30.4549
   -19.1017 -16.4574 -16.1991 -15.9378 -15.7542 -15.6249 -15.5975 -15.4236
   -15.2886 -15.1866 -15.1244 -15.0681 -15.0477 -14.9998 -14.9973 -14.9852
   -14.9822 -14.9513 -14.9029 -14.8821 -14.8624 -14.8211 -14.8120 -14.7950
   -14.7461 -14.7073 -14.6124 -14.5806 -14.5543 -14.5141 -14.0309 -12.9306
   -12.8140  -9.0180  -6.9237  -6.6931  -4.2578  -3.5700  -3.4077  -3.3535
    -3.3437  -3.3192  -3.2267  -3.0905  -2.9528  -2.7199  -2.6578  -2.6221
    -2.5895  -2.5521  -2.4362  -2.3849  -2.3737  -2.3080  -2.2604  -2.2524
    -2.2394  -2.2180  -2.2029  -2.1421  -2.1288  -2.0290  -1.9868  -1.9173
    -1.8561  -1.8242  -1.7736  -1.7585  -1.7152  -1.7119  -1.6970  -1.6780
    -1.6642  -1.6492  -1.5921  -1.5289  -1.4510  -1.2661  -1.2339  -1.1173
    -1.0893  -1.0573  -1.0134  -0.9294  -0.9025  -0.8802  -0.8408  -0.7500
    -0.7245  -0.6775  -0.5887  -0.4992  -0.4543  -0.4276  -0.3478  -0.3128
    -0.2846  -0.2178  -0.2104  -0.1988  -0.1230  -0.0683   0.0390   0.0755
     0.1099   0.1254   0.1398   0.2247   0.2633   0.3205   0.3646   0.4174
     0.4537   0.4685   0.5045   0.5257   0.5405   0.5675   0.5795   0.7621
     0.8035   0.8326   0.8628   0.9479   1.0498   1.1159   1.2000   1.2693
     1.5167   1.5941   1.6472   1.7846   2.1663   2.2125   3.6295   3.7580
     3.7762   3.7945   3.8258   3.8884   3.9515   4.1406   4.1631   4.1845
     4.2133

[...]

          k = 0.0380-0.0419 0.0000 ( 17876 PWs)   bands (ev):

[...]

          k =-0.0760-0.0000 0.0000 ( 17886 PWs)   bands (ev):

[...]

          k =-0.0760-0.0839 0.0000 ( 17948 PWs)   bands (ev):

   -55.4250 -55.4239 -55.4189 -55.4158 -55.4139 -55.2890 -55.2648 -55.2357
   -55.2343 -55.2293 -55.2171 -55.2141 -54.8554 -54.7694 -54.4114 -54.4111
   -31.8008 -31.7902 -31.7410 -31.7403 -31.7259 -31.7187 -31.7176 -31.7015
   -31.6864 -31.6453 -31.6379 -31.6326 -31.6228 -31.6043 -31.5685 -31.5582
   -31.5535 -31.5534 -31.5509 -31.5450 -31.5446 -31.5438 -31.5406 -31.5016
   -31.4807 -31.4749 -31.4637 -31.4498 -31.4447 -31.4406 -31.4389 -31.4385
   -31.4316 -31.4284 -31.4095 -31.4041 -31.2514 -31.1923 -31.0693 -31.0421
   -31.0252 -30.9647 -30.7369 -30.7366 -30.6486 -30.6483 -30.6094 -30.6091
   -19.1007 -16.4470 -15.6891 -15.5596 -15.4310 -15.3733 -15.3678 -15.3094
   -15.3054 -15.1919 -15.1823 -15.1538 -15.1288 -15.1120 -15.0838 -15.0645
   -15.0025 -14.9820 -14.9785 -14.9484 -14.9191 -14.9063 -14.9017 -14.8867
   -14.8829 -14.8287 -14.7728 -14.7697 -14.6586 -14.5559 -14.1877 -12.9158
   -12.9156  -9.0275  -6.9112  -6.7086  -4.2252  -3.2313  -2.9732  -2.7915
    -2.6864  -2.6303  -2.5669  -2.5481  -2.3820  -2.3669  -2.3571  -2.3202
    -2.3039  -2.2825  -2.2720  -2.2672  -2.2411  -2.2291  -2.2110  -2.1799
    -2.1467  -2.1282  -2.1201  -2.1136  -2.0974  -2.0787  -2.0557  -2.0347
    -2.0305  -2.0035  -1.9637  -1.9401  -1.8808  -1.7466  -1.7078  -1.6672
    -1.5971  -1.5906  -1.5371  -1.5209  -1.4940  -1.4662  -1.4046  -1.3797
    -1.2319  -1.1670  -1.1508  -1.1348  -1.1205  -0.9993  -0.9584  -0.8892
    -0.8628  -0.7940  -0.7633  -0.7511  -0.7047  -0.6034  -0.5902  -0.5384
    -0.5270  -0.4302  -0.4071  -0.3963  -0.3614  -0.3167  -0.2484  -0.2074
    -0.1927  -0.1833  -0.1496  -0.1427  -0.1024   0.0178   0.0778   0.1393
     0.2104   0.3131   0.4249   0.4374   0.5863   0.6129   0.6269   0.7325
     0.8188   0.8494   0.8694   0.8968   0.8999   1.0236   1.0721   1.0818
     1.0834   1.2341   1.9563   1.9577   2.0321   2.0325   3.7373   3.9375
     3.9587   4.0008   4.0473   4.1788   4.1877   4.2220   4.2232   4.3071
     4.3397

     the Fermi energy is     3.6889 ev

!    total energy              =   -2953.88245239 Ry
     estimated scf accuracy    <       0.00000006 Ry
     smearing contrib. (-TS)   =      -0.03290790 Ry
     internal energy E=F+TS    =   -2953.84954448 Ry

     The total energy is F=E-TS. E is the sum of the following terms:
     one-electron contribution =  -24258.54881206 Ry
     hartree contribution      =   12222.83205267 Ry
     xc contribution           =    -488.85022523 Ry
     ewald contribution        =    9570.71426764 Ry
     electric field correction =       0.00317249 Ry

     convergence has been achieved in  65 iterations

     Forces acting on atoms (cartesian axes, Ry/au):

     atom    1 type  1   force =     0.00021473   -0.00019849    0.09617513
     atom    2 type  1   force =    -0.00011073   -0.00027281   -0.17605278
     atom    3 type  2   force =     0.00002825    0.00002146   -0.02487912
     atom    4 type  2   force =     0.00003392   -0.00160415    0.05415871
     atom    5 type  2   force =    -0.01178428   -0.00148318    0.00428368
     atom    6 type  2   force =     0.01354926   -0.00070577    0.00349231
     atom    7 type  1   force =    -0.00084392    0.00087486   -0.01025279
     atom    8 type  1   force =     0.00025147    0.01222859    0.02352277
     atom    9 type  2   force =    -0.00035782   -0.00008284   -0.00023627
     atom   10 type  2   force =    -0.00088096   -0.00045114   -0.01485320
     atom   11 type  2   force =     0.00041223    0.00008501    0.00016353
     atom   12 type  2   force =    -0.00040194   -0.00007343    0.00001269
     atom   13 type  1   force =    -0.00066006   -0.00007032   -0.00161678
     atom   14 type  1   force =     0.00058434    0.00018535    0.00030065
     atom   15 type  2   force =     0.00058141    0.00041331    0.00009296
     atom   16 type  2   force =    -0.00028204    0.00005241    0.00037161
     atom   17 type  2   force =    -0.00015736   -0.00031352   -0.00043788
     atom   18 type  2   force =     0.00010360   -0.00014671   -0.00003624
     atom   19 type  1   force =     0.00079957    0.00002585    0.00065068
     atom   20 type  1   force =    -0.00042033   -0.00058174    0.00009905
     atom   21 type  2   force =     0.00006078    0.00004423    0.10334561
     atom   22 type  2   force =     0.00038121    0.00079128   -0.00015134
     atom   23 type  2   force =    -0.07132446   -0.00007844   -0.02764635
     atom   24 type  2   force =     0.07128182    0.00035693   -0.02768193
     atom   25 type  1   force =    -0.00005821   -0.00014905    0.09570142
     atom   26 type  1   force =    -0.00019798   -0.00030958   -0.17599648
     atom   27 type  2   force =     0.00012345   -0.00040138   -0.02388454
     atom   28 type  2   force =     0.00009740   -0.00126306    0.05362315
     atom   29 type  2   force =    -0.01201690    0.00045718    0.00380847
     atom   30 type  2   force =     0.01366299    0.00070148    0.00309196
     atom   31 type  1   force =    -0.00061294    0.00370115   -0.01329214
     atom   32 type  1   force =     0.00020699   -0.01325470    0.02338839
     atom   33 type  2   force =    -0.00007903   -0.00005444   -0.00029536
     atom   34 type  2   force =    -0.00008538    0.00021905   -0.01832823
     atom   35 type  2   force =     0.00033153   -0.00048609    0.00023916
     atom   36 type  2   force =    -0.00030941   -0.00016053    0.00010207
     atom   37 type  1   force =    -0.00083749   -0.00023667   -0.00012810
     atom   38 type  1   force =     0.00047293    0.00009136    0.00063203
     atom   39 type  2   force =    -0.00001811    0.00084020   -0.00000887
     atom   40 type  2   force =    -0.00023287   -0.00017899   -0.00065453
     atom   41 type  2   force =     0.00037013    0.00045887    0.00006765
     atom   42 type  2   force =    -0.00081202    0.00019486    0.00005516
     atom   43 type  1   force =     0.00076124    0.00017876   -0.00018446
     atom   44 type  1   force =    -0.00035226   -0.00099517    0.00040073
     atom   45 type  2   force =     0.00006080    0.00003810    0.10329707
     atom   46 type  2   force =    -0.07130607   -0.00001898   -0.02761644
     atom   47 type  2   force =     0.07125181    0.00040494   -0.02763639
     atom   48 type  3   force =    -0.00024324    0.00107268   -0.00035510
     atom   49 type  4   force =    -0.00010976    0.00087134   -0.00051811
     atom   50 type  5   force =     0.00067031   -0.00002725    0.00097214
     atom   51 type  5   force =     0.00052657    0.00032966    0.00007768
     atom   52 type  5   force =    -0.00009711    0.00011295    0.00029002
     atom   53 type  2   force =    -0.01077269   -0.01296582   -0.00389120
     atom   54 type  5   force =     0.00793170    0.01242483    0.00365642
     atom   55 type  5   force =     0.00061497   -0.00061244    0.00056171

     Total force =     0.368320     Total SCF correction =     0.000802
  @ DRIVER MODE: Message from server: STATUS
  @ DRIVER MODE: Message from server: GETFORCE
  @ DRIVER MODE: Returning v,forces,stress,ensemble

     Writing output data file ./calc.save/
  @ DRIVER MODE: Message from server: EXIT
  @ DRIVE MODE: Exiting

     General routines

     Parallel routines

   This run was terminated on:   4:32:21  16Sep2021

   JOB DONE.