     Program PWSCF v.6.7GPU starts on 29Sep2021 at  0:27:35

     R & G space division:  proc/nbgrp/npool/nimage =       8
     Reading input from /storage/home/hcoda1/3/ntian30/research/carbon/CxH_vib/H2O_calc/ads_slab/CH3OHN2H2O_a/out_0061/pw.inp
Warning: card &CELL ignored
Warning: card   CELL_DYNAMICS='IPI', ignored
Warning: card / ignored

     Current dimensions of program PWSCF are:
     Max number of different atomic species (ntypx) = 10
     Max number of k-points (npk) =  40000
     Max angular momentum in pseudopotentials (lmaxx) =  3
     Presently no symmetry can be used with electric field

     Message from routine cell_base_init:
     DEPRECATED: use true lattice parameter, not A to a.u. conversion factor

     IMPORTANT: XC functional enforced from input :
     Exchange-correlation= BEEF-VDW
                           (   1   4  43  14   2   0   0)
     Any further DFT definition will be discarded
     Please, verify this is what you really want

  @ DRIVER MODE: Connecting to
 qe_1139763_3000313.sched-torque.pace.gatech.edub0c8lfnl_scratch
  using UNIX socket
  @ DRIVER MODE: Message from server: STATUS
  @ DRIVER MODE: Message from server: INIT
  @ DRIVER MODE: Receiving replica           0          -1
  @ DRIVER MODE: Receiving encoded integer          25
  @ DRIVER MODE:  SCF:  T  FORCE:  T  STRESS:  F  VC:  F  ENSEMBLE:  F
  @ DRIVER MODE:  SCF:  T  FORCE:  T  STRESS:  F  VC:  F  ENSEMBLE:  F

     Using Slab Decomposition

     bravais-lattice index     =            0
     lattice parameter (alat)  =       1.8897  a.u.
     unit-cell volume          =    6658.9804 (a.u.)^3
     number of atoms/cell      =           58
     number of atomic types    =            5
     number of electrons       =       410.00
     number of Kohn-Sham states=          215
     kinetic-energy cutoff     =      29.3995  Ry
     charge density cutoff     =     293.9946  Ry
     scf convergence threshold =      7.3E-08
     mixing beta               =       0.0500
     number of iterations used =            8  plain     mixing
     Exchange-correlation= BEEF-VDW
                           (   1   4  43  14   2   0   0)

     celldm(1)=   1.889726  celldm(2)=   0.000000  celldm(3)=   0.000000
     celldm(4)=   0.000000  celldm(5)=   0.000000  celldm(6)=   0.000000

     crystal axes: (cart. coord. in units of alat)
               a(1) = (   6.579727   0.000000   0.000000 )
               a(2) = (  -0.000775   5.961596   0.000000 )
               a(3) = (   0.000000   0.000000  25.155947 )

     reciprocal axes: (cart. coord. in units 2 pi/alat)
               b(1) = (  0.151982  0.000020  0.000000 )
               b(2) = (  0.000000  0.167740  0.000000 )
               b(3) = (  0.000000  0.000000  0.039752 )

     PseudoPot. # 1 for Ti read from file:
     /storage/coda1/p-amedford6/0/shared/rich_project_chbe-medford/medford-share/data/pseudos_module/espresso/nninc/pbe/van/Ti.UPF
     MD5 check sum: 8e4df49b7f0d34bbd5052bf3f5ea0213
     Pseudo is Ultrasoft, Zval = 12.0
     Generated by new atomic code, or converted to UPF format
     Using radial grid of  851 points,  6 beta functions with:
                l(1) =   0
                l(2) =   0
                l(3) =   1
                l(4) =   1
                l(5) =   2
                l(6) =   2
     Q(r) pseudized with  8 coefficients,  rinner =    1.000   1.000   1.000
                                                       1.000   1.000

     PseudoPot. # 2 for O  read from file:
     /storage/coda1/p-amedford6/0/shared/rich_project_chbe-medford/medford-share/data/pseudos_module/espresso/nninc/pbe/van/O.UPF
     MD5 check sum: 78c19812648e8988a0fe644b0f25305e
     Pseudo is Ultrasoft, Zval =  6.0
     Generated by new atomic code, or converted to UPF format
     Using radial grid of  737 points,  4 beta functions with:
                l(1) =   0
                l(2) =   0
                l(3) =   1
                l(4) =   1
     Q(r) pseudized with  8 coefficients,  rinner =    0.800   0.800   0.800

     PseudoPot. # 3 for C  read from file:
     /storage/coda1/p-amedford6/0/shared/rich_project_chbe-medford/medford-share/data/pseudos_module/espresso/nninc/pbe/van/C.UPF
     MD5 check sum: 1a69bf6b8db32088f5b2163dbdb77a27
     Pseudo is Ultrasoft, Zval =  4.0
     Generated by new atomic code, or converted to UPF format
     Using radial grid of  721 points,  4 beta functions with:
                l(1) =   0
                l(2) =   0
                l(3) =   1
                l(4) =   1
     Q(r) pseudized with  8 coefficients,  rinner =    0.800   0.800   0.800

     PseudoPot. # 4 for H  read from file:
     /storage/coda1/p-amedford6/0/shared/rich_project_chbe-medford/medford-share/data/pseudos_module/espresso/nninc/pbe/van/H.UPF
     MD5 check sum: b5ee9d7bfd3a09ee7748110bda690ff7
     Pseudo is Ultrasoft, Zval =  1.0
     Generated by new atomic code, or converted to UPF format
     Using radial grid of  615 points,  1 beta functions with:
                l(1) =   0
     Q(r) pseudized with  8 coefficients,  rinner =    0.800

     PseudoPot. # 5 for N  read from file:
     /storage/coda1/p-amedford6/0/shared/rich_project_chbe-medford/medford-share/data/pseudos_module/espresso/nninc/pbe/van/N.UPF
     MD5 check sum: 90d10febe142ad51ac9d5be1deb811c4
     Pseudo is Ultrasoft, Zval =  5.0
     Generated by new atomic code, or converted to UPF format
     Using radial grid of  729 points,  4 beta functions with:
                l(1) =   0
                l(2) =   0
                l(3) =   1
                l(4) =   1
     Q(r) pseudized with  8 coefficients,  rinner =    0.800   0.800   0.800

     atomic species   valence    mass     pseudopotential
        Ti1           12.00    47.86700     Ti( 1.00)
        O1             6.00    15.99900     O ( 1.00)
        C1             4.00    12.01100     C ( 1.00)
        H1             1.00     1.00800     H ( 1.00)
        N1             5.00    14.00700     N ( 1.00)

     No symmetry found

   Cartesian axes

     site n.     atom                  positions (alat units)
         1           Ti1 tau(   1) = (   0.0004258   2.9801865   6.0000000  )
         2           Ti1 tau(   2) = (   3.2906075   1.4906267   6.0002472  )
         3           O1  tau(   3) = (   0.0006271   0.0005054   7.9858123  )
         4           O1  tau(   4) = (   3.2906025   0.0005020   7.3038282  )
         5           O1  tau(   5) = (   4.5942328   1.4918067   9.2879030  )
         6           O1  tau(   6) = (   1.9868534   1.4903216   9.2879459  )
         7           Ti1 tau(   7) = (   3.3250738   2.9918783   9.1599549  )
         8           Ti1 tau(   8) = (   0.0412716   1.4903975   9.2658274  )
         9           O1  tau(   9) = (   3.2852344   0.0116916  11.3753809  )
        10           O1  tau(  10) = (   6.5701620   0.0027176  10.6052010  )
        11           O1  tau(  11) = (   1.2758103   1.4969824  12.6410148  )
        12           O1  tau(  12) = (   5.2796941   1.4985041  12.6691897  )
        13           Ti1 tau(  13) = (   6.5531116   2.9870417  12.5348353  )
        14           Ti1 tau(  14) = (   3.2504356   1.4995581  12.5215122  )
        15           O1  tau(  15) = (   0.0383206   0.0046779  14.6787597  )
        16           O1  tau(  16) = (   3.2537876   0.0095675  14.0320577  )
        17           O1  tau(  17) = (   4.5855444   1.5609978  16.0639115  )
        18           O1  tau(  18) = (   2.0343745   1.5440679  16.2001998  )
        19           Ti1 tau(  19) = (   3.3058624   3.0043567  15.7064231  )
        20           Ti1 tau(  20) = (   6.5549511   1.4266458  15.8675638  )
        21           O1  tau(  21) = (   3.2904802   0.0005063   4.7018136  )
        22           O1  tau(  22) = (   6.4974171   0.0126247  17.2237355  )
        23           O1  tau(  23) = (   1.3043587   1.4918075   6.0039043  )
        24           O1  tau(  24) = (   5.2767064   1.4903225   6.0039473  )
        25           Ti1 tau(  25) = (   0.0000382   5.9609847   6.0000000  )
        26           Ti1 tau(  26) = (   3.2902200   4.4714249   6.0002472  )
        27           O1  tau(  27) = (   0.0002396   2.9813036   7.9858123  )
        28           O1  tau(  28) = (   3.2902150   2.9813002   7.3038282  )
        29           O1  tau(  29) = (   4.5938453   4.4726049   9.2879030  )
        30           O1  tau(  30) = (   1.9864658   4.4711199   9.2879459  )
        31           Ti1 tau(  31) = (   3.3194574   0.0113313   9.1541029  )
        32           Ti1 tau(  32) = (   0.0414074   4.4589881   9.2683624  )
        33           O1  tau(  33) = (   3.2821265   2.9896323  11.3676027  )
        34           O1  tau(  34) = (   6.5712111   2.9825298  10.6251173  )
        35           O1  tau(  35) = (   1.2751242   4.4805681  12.6359318  )
        36           O1  tau(  36) = (   5.2791817   4.4782367  12.6627471  )
        37           Ti1 tau(  37) = (   6.5506445   0.0032150  12.4806913  )
        38           Ti1 tau(  38) = (   3.2507345   4.4881811  12.5195668  )
        39           O1  tau(  39) = (   0.0469291   2.9928743  14.8464778  )
        40           O1  tau(  40) = (   3.2514374   2.9975957  13.9281162  )
        41           O1  tau(  41) = (   4.5866068   4.4203933  16.0984022  )
        42           O1  tau(  42) = (   2.0418857   4.4579080  16.2200674  )
        43           Ti1 tau(  43) = (   3.2648600   0.0292614  15.8571223  )
        44           Ti1 tau(  44) = (   6.5763064   4.6169283  15.9626260  )
        45           O1  tau(  45) = (   3.2900926   2.9813045   4.7018136  )
        46           O1  tau(  46) = (   1.3039711   4.4726057   6.0039043  )
        47           O1  tau(  47) = (   5.2763189   4.4711207   6.0039473  )
        48           C1  tau(  48) = (   6.0301898   2.9050411  18.9351799  )
        49           O1  tau(  49) = (   0.1575529   2.9516393  17.6723866  )
        50           H1  tau(  50) = (   4.9714676   2.8818909  18.6991823  )
        51           H1  tau(  51) = (   1.1132637   2.8218831  17.8130049  )
        52           H1  tau(  52) = (   6.2985093   1.9952365  19.4696065  )
        53           H1  tau(  53) = (   6.2732381   3.7939772  19.5169533  )
        54           N1  tau(  54) = (   4.8840950   3.1052494  22.6850861  )
        55           N1  tau(  55) = (   4.2680757   3.3403818  21.7970487  )
        56           O1  tau(  56) = (   3.8772584   0.1141246  18.3039653  )
        57           H1  tau(  57) = (   4.8407149   0.0692883  18.0716375  )
        58           H1  tau(  58) = (   3.6580196   5.2122673  18.6877519  )

     number of k points=    10  Fermi-Dirac smearing, width (Ry)=  0.0073
                       cart. coord. in units 2pi/alat
        k(    1) = (   0.0000000   0.0000000   0.0000000), wk =   0.1250000
        k(    2) = (   0.0000000   0.0419351   0.0000000), wk =   0.2500000
        k(    3) = (   0.0000000  -0.0838702   0.0000000), wk =   0.1250000
        k(    4) = (   0.0379955   0.0000049   0.0000000), wk =   0.2500000
        k(    5) = (   0.0379955   0.0419400   0.0000000), wk =   0.2500000
        k(    6) = (   0.0379955  -0.0838652   0.0000000), wk =   0.2500000
        k(    7) = (   0.0379955  -0.0419301   0.0000000), wk =   0.2500000
        k(    8) = (  -0.0759910  -0.0000099   0.0000000), wk =   0.1250000
        k(    9) = (  -0.0759910   0.0419252   0.0000000), wk =   0.2500000
        k(   10) = (  -0.0759910  -0.0838800   0.0000000), wk =   0.1250000

     Initial potential from superposition of free atoms

     starting charge  393.99913, renormalised to  410.00000

     negative rho (up, down):  9.553E-03 0.000E+00

     %%%%%%%%%%%%%%%%%%%%%%%%%%%%%%%%%%%%%%%%%%%%%%%%%%%%%%%%%%%%%%%%%%%%%%%%
     %                                                                      %
     % You are using vdW-DF, which was implemented by the Thonhauser group. %
     % Please cite the following two papers that made this development      %
     % possible and the two reviews that describe the various versions:     %
     %                                                                      %
     %   T. Thonhauser et al., PRL 115, 136402 (2015).                      %
     %   T. Thonhauser et al., PRB 76, 125112 (2007).                       %
     %   K. Berland et al., Rep. Prog. Phys. 78, 066501 (2015).             %
     %   D.C. Langreth et al., J. Phys.: Condens. Matter 21, 084203 (2009). %
     %                                                                      %
     %                                                                      %
     % If you are calculating the stress with vdW-DF, please also cite:     %
     %                                                                      %
     %   R. Sabatini et al., J. Phys.: Condens. Matter 24, 424209 (2012).   %
     %                                                                      %
     %%%%%%%%%%%%%%%%%%%%%%%%%%%%%%%%%%%%%%%%%%%%%%%%%%%%%%%%%%%%%%%%%%%%%%%%

     Adding external electric field

     Computed dipole along edir(3) :
        Dipole              -20.0784 Ry au,        -51.0342 Debye
        Dipole field         -0.0379 Ry au,

        Potential amp.        3.5124 Ry
        Total length         46.3494 bohr

     Starting wfcs are  310 atomic wfcs
  @ DRIVER MODE: Message from server: STATUS
  @ DRIVER MODE: Message from server: POSDATA
  @ DRIVER MODE: Reading and sharing cell
  @ DRIVER MODE: Reading and sharing positions
  @ DRIVER MODE: Received positions

     Self-consistent Calculation

     iteration #  1     ecut=    29.40 Ry     beta= 0.05
     Davidson diagonalization with overlap
     c_bands:  1 eigenvalues not converged
     c_bands:  1 eigenvalues not converged
     c_bands:  5 eigenvalues not converged
     c_bands:  1 eigenvalues not converged
     c_bands:  4 eigenvalues not converged
     c_bands:  3 eigenvalues not converged
     ethr =  1.00E-05,  avg # of iterations = 32.1

[...]

     total energy              =   -2098.62231567 Ry
     estimated scf accuracy    <   10668.28836684 Ry

     iteration #  2     ecut=    29.40 Ry     beta= 0.05
     Davidson diagonalization with overlap
     ethr =  1.00E-02,  avg # of iterations = 30.3

[...]

     iteration # 87     ecut=    29.40 Ry     beta= 0.05
     Davidson diagonalization with overlap
     ethr =  9.38E-11,  avg # of iterations =  9.2

[...]

     total energy              =   -3007.66320899 Ry
     estimated scf accuracy    <       0.00000010 Ry

     iteration # 89     ecut=    29.40 Ry     beta= 0.05
     Davidson diagonalization with overlap
     c_bands:  1 eigenvalues not converged
     ethr =  2.46E-11,  avg # of iterations =  8.6

     negative rho (up, down):  1.050E-02 0.000E+00

     Adding external electric field

     Computed dipole along edir(3) :
        Dipole                1.2308 Ry au,          3.1283 Debye
        Dipole field          0.0023 Ry au,

        Potential amp.       -0.2153 Ry
        Total length         46.3494 bohr

     End of self-consistent calculation

          k = 0.0000 0.0000 0.0000 ( 18029 PWs)   bands (ev):

   -54.9356 -54.9116 -54.8995 -54.8773 -54.8622 -54.8567 -54.8297 -54.8104
   -54.7825 -54.7797 -54.7452 -54.7246 -54.6933 -54.6906 -53.9996 -53.9656
   -31.5014 -31.4752 -31.4074 -31.3144 -31.2553 -31.2495 -31.2375 -31.2356
   -31.2002 -31.1656 -31.1565 -31.1543 -31.1500 -31.1269 -31.1201 -31.1143
   -31.0978 -31.0793 -31.0734 -31.0716 -31.0648 -31.0570 -31.0343 -31.0283
   -31.0277 -31.0219 -31.0071 -31.0048 -31.0039 -30.9679 -30.9510 -30.9308
   -30.9294 -30.9285 -30.9202 -30.9190 -30.9090 -30.8788 -30.8647 -30.8602
   -30.8557 -30.8362 -30.4116 -30.3093 -30.2877 -30.2278 -30.1414 -30.0304
   -21.6228 -19.8083 -18.2547 -15.7687 -15.5226 -15.3834 -15.2860 -15.1623
   -15.0322 -14.9583 -14.8379 -14.7659 -14.6721 -14.6585 -14.6406 -14.6193
   -14.5860 -14.5599 -14.5030 -14.4978 -14.4432 -14.4397 -14.4290 -14.4183
   -14.3854 -14.3695 -14.3390 -14.3297 -14.1674 -14.1017 -14.0420 -13.8979
   -12.5003 -12.3809 -10.8221  -6.8734  -6.5538  -6.0489  -4.8536  -4.7805
    -4.7251  -4.6313  -3.5454  -3.1019  -2.9507  -2.9139  -2.8918  -2.8716
    -2.7453  -2.6502  -2.6191  -2.4601  -2.3728  -2.2373  -2.2100  -2.1774
    -2.1390  -2.0717  -2.0162  -1.9290  -1.8995  -1.8585  -1.8395  -1.8157
    -1.8008  -1.7739  -1.7438  -1.6716  -1.6339  -1.5494  -1.5329  -1.4452
    -1.3927  -1.3842  -1.3412  -1.2782  -1.2749  -1.2644  -1.2239  -1.2105
    -1.2023  -1.1920  -1.1854  -1.0237  -0.9790  -0.9453  -0.8217  -0.7117
    -0.6192  -0.6098  -0.5060  -0.4926  -0.4297  -0.4253  -0.3856  -0.3461
    -0.2840  -0.1874  -0.1288  -0.0825  -0.0699   0.0407   0.1067   0.1217
     0.1825   0.2577   0.2728   0.2944   0.3237   0.4108   0.4786   0.5206
     0.5548   0.6198   0.6295   0.6768   0.7058   0.7468   0.8325   0.8861
     0.8899   0.9768   0.9940   1.0073   1.0327   1.0382   1.1364   1.1704
     1.2146   1.2424   1.3938   1.4289   1.6201   1.6556   1.9158   2.0142
     2.0262   2.1874   2.6120   2.6665   4.1545   4.2224   4.2590   4.2662
     4.2808   4.3604   4.6426   4.6534   4.6628   4.6745   4.6825

[...]

          k = 0.0380-0.0419 0.0000 ( 17876 PWs)   bands (ev):

[...]

          k =-0.0760-0.0000 0.0000 ( 17886 PWs)   bands (ev):

[...]

          k =-0.0760-0.0839 0.0000 ( 17948 PWs)   bands (ev):

   -54.9185 -54.9164 -54.8961 -54.8926 -54.8572 -54.8522 -54.8224 -54.8179
   -54.7898 -54.7647 -54.7598 -54.7090 -54.7063 -54.6949 -53.9825 -53.9825
   -31.3879 -31.3103 -31.3000 -31.2240 -31.2207 -31.1979 -31.1908 -31.1889
   -31.1822 -31.1592 -31.1446 -31.1429 -31.1352 -31.1291 -31.1102 -31.0961
   -31.0807 -31.0786 -31.0696 -31.0686 -31.0667 -31.0658 -31.0602 -31.0545
   -31.0298 -31.0247 -31.0203 -31.0151 -31.0148 -31.0123 -31.0115 -31.0110
   -31.0109 -30.9822 -30.9735 -30.9627 -30.9614 -30.9342 -30.9318 -30.8959
   -30.8927 -30.8783 -30.3003 -30.3003 -30.2244 -30.2240 -30.1847 -30.1845
   -21.6227 -19.8047 -18.2536 -15.3438 -15.2304 -15.0646 -14.9560 -14.9462
   -14.9177 -14.8586 -14.8154 -14.7846 -14.7441 -14.7341 -14.7046 -14.6867
   -14.6815 -14.6238 -14.5397 -14.5341 -14.5203 -14.4851 -14.4579 -14.4439
   -14.4419 -14.4277 -14.3905 -14.3887 -14.3696 -14.3584 -14.3018 -14.2097
   -12.4822 -12.4816 -10.8247  -6.8725  -6.5560  -6.0512  -4.8509  -4.7873
    -4.7192  -4.6190  -3.5370  -2.7561  -2.5259  -2.4974  -2.4242  -2.2575
    -2.1793  -2.1585  -2.0826  -2.0586  -2.0234  -1.9450  -1.9412  -1.9071
    -1.8673  -1.8427  -1.8369  -1.8187  -1.8000  -1.7670  -1.7467  -1.7255
    -1.7118  -1.6961  -1.6501  -1.6412  -1.6054  -1.6019  -1.5871  -1.5754
    -1.5559  -1.5452  -1.4646  -1.4366  -1.3948  -1.3099  -1.2933  -1.1637
    -1.1581  -1.1121  -1.0757  -1.0374  -1.0183  -0.9966  -0.9720  -0.9413
    -0.9100  -0.7379  -0.7168  -0.6738  -0.6225  -0.6166  -0.5434  -0.5278
    -0.4734  -0.4411  -0.3515  -0.3104  -0.2709  -0.1624  -0.1355  -0.1232
     0.0154   0.0211   0.0661   0.0677   0.1102   0.1484   0.1612   0.1679
     0.2428   0.2752   0.3116   0.3376   0.3612   0.5393   0.5756   0.6343
     0.7239   0.7420   0.9203   0.9506   0.9947   1.0754   1.1370   1.1907
     1.2131   1.3213   1.3288   1.3523   1.4438   1.4922   1.4934   1.5235
     2.3774   2.3804   2.4810   2.4838   4.2789   4.4097   4.4159   4.4958
     4.5696   4.6623   4.6682   4.6776   4.7072   4.7186   4.7226

     the Fermi energy is     4.2106 ev

!    total energy              =   -3007.66321718 Ry
     estimated scf accuracy    <       0.00000006 Ry
     smearing contrib. (-TS)   =      -0.03683247 Ry
     internal energy E=F+TS    =   -3007.62638470 Ry

     The total energy is F=E-TS. E is the sum of the following terms:
     one-electron contribution =  -22339.05503422 Ry
     hartree contribution      =   11271.32193338 Ry
     xc contribution           =    -502.07853565 Ry
     ewald contribution        =    8562.18239320 Ry
     electric field correction =       0.00285859 Ry

     convergence has been achieved in  89 iterations

     Forces acting on atoms (cartesian axes, Ry/au):

     atom    1 type  1   force =    -0.00027264   -0.00000963    0.09251494
     atom    2 type  1   force =    -0.00013583    0.00114433   -0.18322697
     atom    3 type  2   force =     0.00055025   -0.00040154   -0.02389579
     atom    4 type  2   force =     0.00079619    0.00021254    0.05084669
     atom    5 type  2   force =    -0.01548474   -0.00013954    0.00437575
     atom    6 type  2   force =     0.01419803   -0.00032442    0.00505929
     atom    7 type  1   force =    -0.00011396    0.00020594    0.00004730
     atom    8 type  1   force =    -0.00006513    0.00016377    0.00001276
     atom    9 type  2   force =     0.00007207    0.00004315    0.00012050
     atom   10 type  2   force =     0.00000020    0.00001841   -0.00005945
     atom   11 type  2   force =     0.00016738    0.00002421   -0.00013894
     atom   12 type  2   force =     0.00004174    0.00004462   -0.00006292
     atom   13 type  1   force =     0.00017121    0.00011479   -0.00003504
     atom   14 type  1   force =     0.00026911    0.00016699   -0.00011531
     atom   15 type  2   force =     0.00028250    0.00039194    0.00000882
     atom   16 type  2   force =     0.00015088   -0.00001927    0.00017175
     atom   17 type  2   force =     0.00001550    0.00012743    0.00010220
     atom   18 type  2   force =     0.00017825    0.00001285    0.00026917
     atom   19 type  1   force =     0.00014854   -0.00017114    0.00010188
     atom   20 type  1   force =     0.00018598   -0.00004733   -0.00017376
     atom   21 type  2   force =     0.00002964    0.00001670    0.10488877
     atom   22 type  2   force =    -0.00025843    0.00000676    0.00014067
     atom   23 type  2   force =    -0.06801787   -0.00011077   -0.02684674
     atom   24 type  2   force =     0.06787944    0.00034781   -0.02689041
     atom   25 type  1   force =    -0.00012080   -0.00002802    0.09597659
     atom   26 type  1   force =    -0.00011524   -0.00144253   -0.18314136
     atom   27 type  2   force =     0.00050025   -0.00019503   -0.02270800
     atom   28 type  2   force =     0.00086297    0.00017824    0.05124002
     atom   29 type  2   force =    -0.01540041    0.00049955    0.00454826
     atom   30 type  2   force =     0.01415374    0.00077926    0.00524755
     atom   31 type  1   force =    -0.00010387    0.00005452   -0.00000898
     atom   32 type  1   force =    -0.00007015    0.00016483   -0.00002702
     atom   33 type  2   force =     0.00012316   -0.00002800    0.00017292
     atom   34 type  2   force =     0.00000021    0.00007367    0.00003432
     atom   35 type  2   force =     0.00012645   -0.00001288   -0.00003691
     atom   36 type  2   force =     0.00008411   -0.00001452    0.00008790
     atom   37 type  1   force =     0.00016326    0.00006448   -0.00011592
     atom   38 type  1   force =     0.00015759   -0.00003902    0.00003449
     atom   39 type  2   force =     0.00017259   -0.00008480   -0.00019584
     atom   40 type  2   force =     0.00002119   -0.00018132    0.00002681
     atom   41 type  2   force =     0.00019094    0.00000459   -0.00000257
     atom   42 type  2   force =    -0.00004282    0.00003100    0.00019793
     atom   43 type  1   force =     0.00002462   -0.00010736    0.00117167
     atom   44 type  1   force =    -0.00000661    0.00011333    0.00035901
     atom   45 type  2   force =     0.00003429    0.00001669    0.10482263
     atom   46 type  2   force =    -0.06802621   -0.00051492   -0.02683669
     atom   47 type  2   force =     0.06788802   -0.00009221   -0.02691473
     atom   48 type  3   force =    -0.00013757   -0.00007874   -0.00019410
     atom   49 type  2   force =    -0.00026564   -0.00011616    0.00003713
     atom   50 type  4   force =    -0.00007947   -0.00039386    0.00009452
     atom   51 type  4   force =     0.00009070   -0.00014454    0.00006940
     atom   52 type  4   force =     0.00030755   -0.00036788    0.00006200
     atom   53 type  4   force =     0.00006707    0.00016275   -0.00019378
     atom   54 type  5   force =    -0.00077640   -0.00001851   -0.00086981
     atom   55 type  5   force =     0.00022000   -0.00002765    0.00000108
     atom   56 type  2   force =    -0.00108773   -0.00184230    0.00053923
     atom   57 type  4   force =    -0.00128743   -0.00200534    0.00089889
     atom   58 type  4   force =     0.00154330    0.00377409   -0.00159178

     Total force =     0.368163     Total SCF correction =     0.000642
  @ DRIVER MODE: Message from server: STATUS
  @ DRIVER MODE: Message from server: GETFORCE
  @ DRIVER MODE: Returning v,forces,stress,ensemble

     Writing output data file ./calc.save/
  @ DRIVER MODE: Message from server: EXIT
  @ DRIVE MODE: Exiting

     General routines

     Parallel routines

   This run was terminated on:   0:57:54  29Sep2021

   JOB DONE.