     Program PWSCF v.6.7GPU starts on 15Jul2021 at 18:31:10

     R & G space division:  proc/nbgrp/npool/nimage =      16
     Reading input from /storage/home/hcoda1/3/ntian30/research/carbon/15Jul_vib/ads_slab/CH3NNH3_a/out_0004/pw.inp
Warning: card &CELL ignored
Warning: card   CELL_DYNAMICS='IPI', ignored
Warning: card / ignored

     Current dimensions of program PWSCF are:
     Max number of different atomic species (ntypx) = 10
     Max number of k-points (npk) =  40000
     Max angular momentum in pseudopotentials (lmaxx) =  3
     Presently no symmetry can be used with electric field

     Message from routine cell_base_init:
     DEPRECATED: use true lattice parameter, not A to a.u. conversion factor

     IMPORTANT: XC functional enforced from input :
     Exchange-correlation= BEEF-VDW
                           (   1   4  43  14   2   0   0)
     Any further DFT definition will be discarded
     Please, verify this is what you really want

  @ DRIVER MODE: Connecting to
 qe_1139763_2351650.sched-torque.pace.gatech.edu7bovu543_scratch
  using UNIX socket
  @ DRIVER MODE: Message from server: STATUS
  @ DRIVER MODE: Message from server: INIT
  @ DRIVER MODE: Receiving replica           0          -1
  @ DRIVER MODE: Receiving encoded integer          25
  @ DRIVER MODE:  SCF:  T  FORCE:  T  STRESS:  F  VC:  F  ENSEMBLE:  F
  @ DRIVER MODE:  SCF:  T  FORCE:  T  STRESS:  F  VC:  F  ENSEMBLE:  F

     Using Slab Decomposition

     bravais-lattice index     =            0
     lattice parameter (alat)  =       1.8897  a.u.
     unit-cell volume          =    6658.9804 (a.u.)^3
     number of atoms/cell      =           56
     number of atomic types    =            5
     number of electrons       =       398.00
     number of Kohn-Sham states=          209
     kinetic-energy cutoff     =      29.3995  Ry
     charge density cutoff     =     293.9946  Ry
     scf convergence threshold =      7.3E-08
     mixing beta               =       0.0500
     number of iterations used =            8  plain     mixing
     Exchange-correlation= BEEF-VDW
                           (   1   4  43  14   2   0   0)

     celldm(1)=   1.889726  celldm(2)=   0.000000  celldm(3)=   0.000000
     celldm(4)=   0.000000  celldm(5)=   0.000000  celldm(6)=   0.000000

     crystal axes: (cart. coord. in units of alat)
               a(1) = (   6.579727   0.000000   0.000000 )
               a(2) = (  -0.000775   5.961596   0.000000 )
               a(3) = (   0.000000   0.000000  25.155947 )

     reciprocal axes: (cart. coord. in units 2 pi/alat)
               b(1) = (  0.151982  0.000020  0.000000 )
               b(2) = (  0.000000  0.167740  0.000000 )
               b(3) = (  0.000000  0.000000  0.039752 )

     PseudoPot. # 1 for Ti read from file:
     /storage/coda1/p-amedford6/0/shared/rich_project_chbe-medford/medford-share/data/pseudos_module/espresso/nninc/pbe/van/Ti.UPF
     MD5 check sum: 8e4df49b7f0d34bbd5052bf3f5ea0213
     Pseudo is Ultrasoft, Zval = 12.0
     Generated by new atomic code, or converted to UPF format
     Using radial grid of  851 points,  6 beta functions with:
                l(1) =   0
                l(2) =   0
                l(3) =   1
                l(4) =   1
                l(5) =   2
                l(6) =   2
     Q(r) pseudized with  8 coefficients,  rinner =    1.000   1.000   1.000
                                                       1.000   1.000

     PseudoPot. # 2 for O  read from file:
     /storage/coda1/p-amedford6/0/shared/rich_project_chbe-medford/medford-share/data/pseudos_module/espresso/nninc/pbe/van/O.UPF
     MD5 check sum: 78c19812648e8988a0fe644b0f25305e
     Pseudo is Ultrasoft, Zval =  6.0
     Generated by new atomic code, or converted to UPF format
     Using radial grid of  737 points,  4 beta functions with:
                l(1) =   0
                l(2) =   0
                l(3) =   1
                l(4) =   1
     Q(r) pseudized with  8 coefficients,  rinner =    0.800   0.800   0.800

     PseudoPot. # 3 for N  read from file:
     /storage/coda1/p-amedford6/0/shared/rich_project_chbe-medford/medford-share/data/pseudos_module/espresso/nninc/pbe/van/N.UPF
     MD5 check sum: 90d10febe142ad51ac9d5be1deb811c4
     Pseudo is Ultrasoft, Zval =  5.0
     Generated by new atomic code, or converted to UPF format
     Using radial grid of  729 points,  4 beta functions with:
                l(1) =   0
                l(2) =   0
                l(3) =   1
                l(4) =   1
     Q(r) pseudized with  8 coefficients,  rinner =    0.800   0.800   0.800

     PseudoPot. # 4 for C  read from file:
     /storage/coda1/p-amedford6/0/shared/rich_project_chbe-medford/medford-share/data/pseudos_module/espresso/nninc/pbe/van/C.UPF
     MD5 check sum: 1a69bf6b8db32088f5b2163dbdb77a27
     Pseudo is Ultrasoft, Zval =  4.0
     Generated by new atomic code, or converted to UPF format
     Using radial grid of  721 points,  4 beta functions with:
                l(1) =   0
                l(2) =   0
                l(3) =   1
                l(4) =   1
     Q(r) pseudized with  8 coefficients,  rinner =    0.800   0.800   0.800

     PseudoPot. # 5 for H  read from file:
     /storage/coda1/p-amedford6/0/shared/rich_project_chbe-medford/medford-share/data/pseudos_module/espresso/nninc/pbe/van/H.UPF
     MD5 check sum: b5ee9d7bfd3a09ee7748110bda690ff7
     Pseudo is Ultrasoft, Zval =  1.0
     Generated by new atomic code, or converted to UPF format
     Using radial grid of  615 points,  1 beta functions with:
                l(1) =   0
     Q(r) pseudized with  8 coefficients,  rinner =    0.800

     atomic species   valence    mass     pseudopotential
        Ti1           12.00    47.86700     Ti( 1.00)
        O1             6.00    15.99900     O ( 1.00)
        N1             5.00    14.00700     N ( 1.00)
        C1             4.00    12.01100     C ( 1.00)
        H1             1.00     1.00800     H ( 1.00)

     Starting magnetic structure
     atomic species   magnetization
        Ti1          0.000
        O1           0.000
        N1           0.000
        C1           0.025
        H1           0.000

     No symmetry found

   Cartesian axes

     site n.     atom                  positions (alat units)
         1           Ti1 tau(   1) = (   0.0004258   2.9801865   6.0000000  )
         2           Ti1 tau(   2) = (   3.2906075   1.4906267   6.0002472  )
         3           O1  tau(   3) = (   0.0006271   0.0005054   7.9858123  )
         4           O1  tau(   4) = (   3.2906025   0.0005020   7.3038282  )
         5           O1  tau(   5) = (   4.5942328   1.4918067   9.2879030  )
         6           O1  tau(   6) = (   1.9868534   1.4903216   9.2879459  )
         7           Ti1 tau(   7) = (   3.2907910   2.8959150   9.1758416  )
         8           Ti1 tau(   8) = (   0.0015273   1.4827037   9.2680791  )
         9           O1  tau(   9) = (   3.3019049   5.9598586  11.2958584  )
        10           O1  tau(  10) = (   0.0116148   5.9584955  10.6183126  )
        11           O1  tau(  11) = (   1.3346742   1.4914638  12.6145280  )
        12           O1  tau(  12) = (   5.3113054   1.4894223  12.6320738  )
        13           Ti1 tau(  13) = (   6.4919192   2.9607050  12.7581921  )
        14           Ti1 tau(  14) = (   3.1808934   1.4809541  12.4628303  )
        15           O1  tau(  15) = (   0.0259758   5.9327586  14.5948705  )
        16           O1  tau(  16) = (   3.3179433   0.0111293  13.8771559  )
        17           O1  tau(  17) = (   4.5450242   1.5254396  16.0425357  )
        18           O1  tau(  18) = (   2.0945915   1.5254857  16.0466093  )
        19           Ti1 tau(  19) = (   3.3175380   3.0118254  15.6854273  )
        20           Ti1 tau(  20) = (   0.0287691   1.6153805  16.0968480  )
        21           O1  tau(  21) = (   3.2904802   0.0005063   4.7018136  )
        22           O1  tau(  22) = (   0.0272082   0.0527987  17.2096484  )
        23           O1  tau(  23) = (   1.3043587   1.4918075   6.0039043  )
        24           O1  tau(  24) = (   5.2767064   1.4903225   6.0039473  )
        25           Ti1 tau(  25) = (   0.0000382   5.9609847   6.0000000  )
        26           Ti1 tau(  26) = (   3.2902200   4.4714249   6.0002472  )
        27           O1  tau(  27) = (   0.0002396   2.9813036   7.9858123  )
        28           O1  tau(  28) = (   3.2902150   2.9813002   7.3038282  )
        29           O1  tau(  29) = (   4.5938453   4.4726049   9.2879030  )
        30           O1  tau(  30) = (   1.9864658   4.4711199   9.2879459  )
        31           Ti1 tau(  31) = (   3.2891106   5.8743827   9.1763621  )
        32           Ti1 tau(  32) = (   0.0006254   4.4649316   9.2693709  )
        33           O1  tau(  33) = (   3.3007599   2.9794320  11.2948048  )
        34           O1  tau(  34) = (   0.0092240   2.9805883  10.6323155  )
        35           O1  tau(  35) = (   1.3367187   4.4652043  12.6121808  )
        36           O1  tau(  36) = (   5.3110114   4.4536366  12.6300246  )
        37           Ti1 tau(  37) = (   6.5175235   5.9394146  12.7678677  )
        38           Ti1 tau(  38) = (   3.1810223   4.4618757  12.4682998  )
        39           O1  tau(  39) = (   0.0141956   2.9656780  14.6533049  )
        40           O1  tau(  40) = (   3.3125561   2.9946134  13.8784269  )
        41           O1  tau(  41) = (   4.5469694   4.5079638  16.0550352  )
        42           O1  tau(  42) = (   2.0896055   4.5089645  16.0567747  )
        43           Ti1 tau(  43) = (   3.3249511   0.0336637  15.6879192  )
        44           Ti1 tau(  44) = (   0.0309337   4.5948497  16.1324869  )
        45           O1  tau(  45) = (   3.2900926   2.9813045   4.7018136  )
        46           O1  tau(  46) = (   1.3039711   4.4726057   6.0039043  )
        47           O1  tau(  47) = (   5.2763189   4.4711207   6.0039473  )
        48           N1  tau(  48) = (   0.0510883   3.0200077  17.3315927  )
        49           C1  tau(  49) = (   0.2149723   3.0659314  18.7643681  )
        50           H1  tau(  50) = (   6.1109748   3.7957518  19.2115106  )
        51           H1  tau(  51) = (   0.0391147   2.0919789  19.2277120  )
        52           H1  tau(  52) = (   1.2341903   3.3897193  19.0223879  )
        53           N1  tau(  53) = (   4.7717085   1.8344328  21.5424420  )
        54           H1  tau(  54) = (   4.4711387   2.7986659  21.4441960  )
        55           H1  tau(  55) = (   4.1840297   1.2822813  20.9257432  )
        56           H1  tau(  56) = (   4.5427024   1.5537098  22.4892962  )

     number of k points=    10  Fermi-Dirac smearing, width (Ry)=  0.0073
                       cart. coord. in units 2pi/alat
        k(    1) = (   0.0000000   0.0000000   0.0000000), wk =   0.0625000
        k(    2) = (   0.0000000   0.0419351   0.0000000), wk =   0.1250000
        k(    3) = (   0.0000000  -0.0838702   0.0000000), wk =   0.0625000
        k(    4) = (   0.0379955   0.0000049   0.0000000), wk =   0.1250000
        k(    5) = (   0.0379955   0.0419400   0.0000000), wk =   0.1250000
[...]
     % You are using vdW-DF, which was implemented by the Thonhauser group. %
     % Please cite the following two papers that made this development      %
     % possible and the two reviews that describe the various versions:     %
     %                                                                      %
     %   T. Thonhauser et al., PRL 115, 136402 (2015).                      %
     %   T. Thonhauser et al., PRB 76, 125112 (2007).                       %
     %   K. Berland et al., Rep. Prog. Phys. 78, 066501 (2015).             %
     %   D.C. Langreth et al., J. Phys.: Condens. Matter 21, 084203 (2009). %
     %                                                                      %
     %                                                                      %
     % If you are calculating the stress with vdW-DF, please also cite:     %
     %                                                                      %
     %   R. Sabatini et al., J. Phys.: Condens. Matter 24, 424209 (2012).   %
     %                                                                      %
     %%%%%%%%%%%%%%%%%%%%%%%%%%%%%%%%%%%%%%%%%%%%%%%%%%%%%%%%%%%%%%%%%%%%%%%%

     Adding external electric field

     Computed dipole along edir(3) :
        Dipole              -11.2917 Ry au,        -28.7007 Debye
        Dipole field         -0.0213 Ry au,

        Potential amp.        1.9753 Ry
        Total length         46.3494 bohr

[...]

     Starting wfcs are  302 atomic wfcs
  @ DRIVER MODE: Message from server: STATUS
  @ DRIVER MODE: Message from server: POSDATA
  @ DRIVER MODE: Reading and sharing cell
  @ DRIVER MODE: Reading and sharing positions
  @ DRIVER MODE: Received positions

     Self-consistent Calculation

     iteration #  1     ecut=    29.40 Ry     beta= 0.05
     Davidson diagonalization with overlap
     c_bands:  1 eigenvalues not converged
     c_bands:  1 eigenvalues not converged
     c_bands:  2 eigenvalues not converged
     c_bands:  1 eigenvalues not converged
     c_bands:  1 eigenvalues not converged
     c_bands:  1 eigenvalues not converged
     c_bands:  2 eigenvalues not converged
     c_bands:  2 eigenvalues not converged
     c_bands:  1 eigenvalues not converged
     c_bands:  1 eigenvalues not converged
     c_bands:  2 eigenvalues not converged
     c_bands:  1 eigenvalues not converged
     c_bands:  1 eigenvalues not converged
     c_bands:  1 eigenvalues not converged
     c_bands:  2 eigenvalues not converged
     c_bands:  2 eigenvalues not converged
     ethr =  1.00E-05,  avg # of iterations = 19.6

[...]

     total energy              =   -2520.82873370 Ry
     estimated scf accuracy    <    4704.40993645 Ry

     total magnetization       =     0.00 Bohr mag/cell
     absolute magnetization    =     0.01 Bohr mag/cell

     iteration #  2     ecut=    29.40 Ry     beta= 0.05
     Davidson diagonalization with overlap
     ethr =  1.00E-02,  avg # of iterations = 21.9

[...]

     iteration # 53     ecut=    29.40 Ry     beta= 0.05
     Davidson diagonalization with overlap
     c_bands:  1 eigenvalues not converged
     ethr =  4.71E-07,  avg # of iterations =  8.8

[...]

     total energy              =   -2942.90775743 Ry
     estimated scf accuracy    <       0.00000010 Ry

[...]

     iteration # 76     ecut=    29.40 Ry     beta= 0.05
     Davidson diagonalization with overlap
     ethr =  2.46E-11,  avg # of iterations =  4.3

     negative rho (up, down):  5.677E-03 5.677E-03

[...]

     Adding external electric field

     Computed dipole along edir(3) :
        Dipole                0.4189 Ry au,          1.0648 Debye
        Dipole field          0.0008 Ry au,

        Potential amp.       -0.0733 Ry
        Total length         46.3494 bohr

     Magnetic moment per site  (integrated on atomic sphere of radius R)
     atom   1 (R=0.735)  charge=  8.0053  magn= -0.0001
     atom   2 (R=0.735)  charge=  8.0011  magn= -0.0002
     atom   3 (R=0.735)  charge=  4.9959  magn= -0.0000
     atom   4 (R=0.735)  charge=  5.0345  magn=  0.0000
     atom   5 (R=0.735)  charge=  4.9982  magn= -0.0000
     atom   6 (R=0.735)  charge=  4.9994  magn= -0.0000
     atom   7 (R=0.735)  charge=  7.9947  magn=  0.0000
     atom   8 (R=0.735)  charge=  7.9823  magn=  0.0000
     atom   9 (R=0.735)  charge=  5.0127  magn= -0.0000
     atom  10 (R=0.735)  charge=  4.9434  magn= -0.0000
     atom  11 (R=0.735)  charge=  4.9999  magn= -0.0000
     atom  12 (R=0.735)  charge=  5.0035  magn= -0.0000
     atom  13 (R=0.735)  charge=  7.9932  magn=  0.0000
     atom  14 (R=0.735)  charge=  8.0007  magn=  0.0000
     atom  15 (R=0.735)  charge=  4.9895  magn= -0.0000
     atom  16 (R=0.735)  charge=  5.0146  magn=  0.0000
     atom  17 (R=0.735)  charge=  4.9901  magn=  0.0000
     atom  18 (R=0.735)  charge=  4.9889  magn=  0.0000
     atom  19 (R=0.735)  charge=  8.0209  magn= -0.0000
     atom  20 (R=0.735)  charge=  8.0227  magn= -0.0000
     atom  21 (R=0.735)  charge=  4.8827  magn=  0.0004
     atom  22 (R=0.735)  charge=  4.9721  magn=  0.0000
     atom  23 (R=0.735)  charge=  4.9884  magn=  0.0001
     atom  24 (R=0.735)  charge=  4.9885  magn=  0.0001
     atom  25 (R=0.735)  charge=  8.0054  magn= -0.0001
     atom  26 (R=0.735)  charge=  8.0011  magn= -0.0002
     atom  27 (R=0.735)  charge=  4.9957  magn= -0.0000
     atom  28 (R=0.735)  charge=  5.0347  magn= -0.0000
     atom  29 (R=0.735)  charge=  4.9989  magn= -0.0000
     atom  30 (R=0.735)  charge=  5.0001  magn= -0.0000
     atom  31 (R=0.735)  charge=  7.9948  magn=  0.0000
     atom  32 (R=0.735)  charge=  7.9826  magn=  0.0000
     atom  33 (R=0.735)  charge=  5.0125  magn= -0.0000
     atom  34 (R=0.735)  charge=  4.9424  magn= -0.0000
     atom  35 (R=0.735)  charge=  5.0005  magn= -0.0000
     atom  36 (R=0.735)  charge=  5.0043  magn= -0.0000
     atom  37 (R=0.735)  charge=  7.9991  magn=  0.0000
     atom  38 (R=0.735)  charge=  8.0004  magn=  0.0000
     atom  39 (R=0.735)  charge=  4.9852  magn= -0.0000
     atom  40 (R=0.735)  charge=  5.0160  magn=  0.0000
     atom  41 (R=0.735)  charge=  4.9884  magn=  0.0000
     atom  42 (R=0.735)  charge=  4.9878  magn=  0.0000
     atom  43 (R=0.735)  charge=  8.0214  magn= -0.0000
     atom  44 (R=0.735)  charge=  8.0223  magn= -0.0000
     atom  45 (R=0.735)  charge=  4.8827  magn=  0.0003
     atom  46 (R=0.735)  charge=  4.9884  magn=  0.0001
     atom  47 (R=0.735)  charge=  4.9885  magn=  0.0001
     atom  48 (R=0.418)  charge=  1.3133  magn=  0.0000
     atom  49 (R=0.451)  charge=  0.8534  magn=  0.0000
     atom  50 (R=0.418)  charge=  0.4372  magn= -0.0000
     atom  51 (R=0.418)  charge=  0.4391  magn= -0.0000
     atom  52 (R=0.418)  charge=  0.4339  magn= -0.0000
     atom  53 (R=0.418)  charge=  1.3298  magn=  0.0000
     atom  54 (R=0.418)  charge=  0.4522  magn= -0.0000
     atom  55 (R=0.418)  charge=  0.4511  magn= -0.0000
     atom  56 (R=0.418)  charge=  0.4538  magn= -0.0000

     End of self-consistent calculation

 ------ SPIN UP ------------

          k = 0.0000 0.0000 0.0000 ( 18029 PWs)   bands (ev):

   -56.6289 -56.5953 -55.7551 -55.7431 -55.7201 -55.7102 -55.6110 -55.5757
   -55.3944 -55.3586 -55.2948 -55.2930 -55.2609 -55.1931 -54.7143 -54.6390
   -33.0569 -32.9036 -32.8755 -32.8046 -32.7135 -32.6828 -32.2257 -32.2195
   -32.1537 -32.0390 -31.9931 -31.9687 -31.9502 -31.9290 -31.8953 -31.8910
   -31.8909 -31.8841 -31.8584 -31.8582 -31.8444 -31.8186 -31.7938 -31.7789
   -31.7659 -31.7473 -31.7387 -31.7140 -31.6871 -31.6331 -31.6251 -31.6089
   -31.5355 -31.5326 -31.5057 -31.4690 -31.4604 -31.4222 -31.4214 -31.3966
   -31.3752 -31.3113 -31.2351 -30.9639 -30.9435 -30.8910 -30.8609 -30.7574
   -16.7945 -16.3637 -16.1334 -15.9924 -15.9276 -15.8706 -15.8282 -15.7054
   -15.6356 -15.6266 -15.5844 -15.5588 -15.4866 -15.3462 -15.2476 -15.1962
   -15.1519 -15.0314 -14.9689 -14.9384 -14.9285 -14.8867 -14.8766 -14.6812
   -14.6574 -14.5634 -14.5443 -14.4214 -14.1896 -13.7943 -13.7030 -13.6842
   -12.8042  -7.4982  -4.3596  -3.8593  -3.7698  -3.7451  -3.6215  -3.5344
    -3.4279  -3.4126  -3.3290  -3.2110  -3.1677  -3.1196  -3.0034  -3.0027
    -2.8538  -2.8083  -2.8053  -2.8030  -2.7520  -2.6971  -2.6773  -2.6417
    -2.6318  -2.6082  -2.4770  -2.3793  -2.3092  -2.2849  -2.2797  -2.2430
    -2.1690  -2.1393  -2.1293  -2.1256  -2.0206  -1.8722  -1.8688  -1.8452
    -1.8030  -1.7957  -1.7542  -1.7432  -1.6244  -1.5332  -1.4284  -1.4144
    -1.3703  -1.3131  -1.3049  -1.2118  -1.1379  -1.0500  -1.0459  -0.9352
    -0.8891  -0.8727  -0.7835  -0.7229  -0.6828  -0.6578  -0.6445  -0.5447
    -0.5200  -0.5120  -0.4278  -0.4161  -0.3661  -0.2777  -0.2546  -0.2453
    -0.1638  -0.1609  -0.0665  -0.0235   0.0157   0.0511   0.1667   0.1836
     0.2830   0.3115   0.3391   0.4525   0.4669   0.5328   0.6066   0.6707
     0.6981   0.7260   0.7542   0.7739   0.8465   0.9601   0.9702   1.0707
     1.1028   1.2786   1.3176   1.3909   1.6020   1.6359   2.3086   2.6456
     2.8048   3.1033   3.2898   3.4027   3.6196   3.6360   3.6409   3.8073
     3.8615

[...]

          k =-0.0760-0.0000 0.0000 ( 17886 PWs)   bands (ev):

[...]

 ------ SPIN DOWN ----------

[...]

          k = 0.0380-0.0419 0.0000 ( 17876 PWs)   bands (ev):

[...]

          k =-0.0760-0.0839 0.0000 ( 17948 PWs)   bands (ev):

   -56.6126 -56.6122 -55.7398 -55.7341 -55.7274 -55.7268 -55.5936 -55.5929
   -55.3807 -55.3722 -55.2899 -55.2785 -55.2784 -55.1960 -54.7099 -54.6434
   -32.8898 -32.8896 -32.8741 -32.8739 -32.7580 -32.7577 -32.0556 -32.0532
   -32.0440 -32.0374 -31.9848 -31.9838 -31.9415 -31.9412 -31.9382 -31.9371
   -31.9293 -31.9263 -31.9243 -31.9226 -31.8462 -31.8442 -31.7952 -31.7923
   -31.7313 -31.7209 -31.6623 -31.6542 -31.6226 -31.6225 -31.6188 -31.5791
   -31.5748 -31.5463 -31.5118 -31.5039 -31.5038 -31.4648 -31.4647 -31.4644
   -31.4385 -31.3987 -31.1069 -31.0103 -30.9424 -30.9133 -30.8642 -30.8240
   -16.1432 -16.1411 -16.1081 -16.1078 -15.8398 -15.8362 -15.7948 -15.7923
   -15.6190 -15.6127 -15.4053 -15.3968 -15.3904 -15.3891 -15.2610 -15.2553
   -15.1911 -15.1801 -15.0951 -15.0798 -15.0254 -15.0191 -14.9787 -14.9551
   -14.6475 -14.6349 -14.5160 -14.4967 -14.3319 -13.7864 -13.7863 -13.7021
   -12.8203  -7.4881  -3.7770  -3.7532  -3.2423  -3.2420  -3.1785  -3.1774
    -3.0574  -3.0533  -2.9726  -2.9719  -2.8754  -2.8742  -2.7573  -2.7315
    -2.7285  -2.7279  -2.7100  -2.6650  -2.5747  -2.5732  -2.5617  -2.5464
    -2.4873  -2.4853  -2.4675  -2.3996  -2.3860  -2.3542  -2.3164  -2.2030
    -2.1922  -2.1812  -2.1495  -2.0846  -2.0770  -2.0643  -2.0219  -1.9898
    -1.9139  -1.8424  -1.8006  -1.6882  -1.6832  -1.6721  -1.6606  -1.5063
    -1.4648  -1.4360  -1.4272  -1.4223  -1.3756  -1.2783  -1.2711  -1.1399
    -1.1381  -1.0649  -0.9835  -0.9617  -0.9330  -0.8044  -0.7606  -0.7260
    -0.7181  -0.6907  -0.6708  -0.6494  -0.6056  -0.4698  -0.4569  -0.4196
    -0.3848  -0.3639  -0.3284  -0.2698  -0.1837  -0.1043  -0.1041  -0.0488
     0.0167   0.0780   0.1652   0.1761   0.1810   0.4619   0.5416   0.6304
     0.7051   0.7719   0.8340   0.8666   0.9222   0.9659   1.1045   1.1081
     1.1280   1.1284   1.1858   1.1894   1.3736   1.6404   2.1989   3.2178
     3.2181   3.2849   3.2853   3.6089   3.6148   3.7228   3.7321   3.8375
     3.8420

     the Fermi energy is     2.4865 ev

!    total energy              =   -2942.90777047 Ry
     estimated scf accuracy    <       0.00000003 Ry
     smearing contrib. (-TS)   =      -0.00490579 Ry
     internal energy E=F+TS    =   -2942.90286468 Ry

     The total energy is F=E-TS. E is the sum of the following terms:
     one-electron contribution =  -23242.36002046 Ry
     hartree contribution      =   11711.37717511 Ry
     xc contribution           =    -487.47136012 Ry
     ewald contribution        =    9075.55100962 Ry
     electric field correction =       0.00033117 Ry

     total magnetization       =     0.00 Bohr mag/cell
     absolute magnetization    =     0.00 Bohr mag/cell

     convergence has been achieved in  76 iterations

     Forces acting on atoms (cartesian axes, Ry/au):

     atom    1 type  1   force =     0.00004054   -0.00041219    0.12401680
     atom    2 type  1   force =    -0.00010588   -0.00057349   -0.16067115
     atom    3 type  2   force =     0.00023536   -0.00026826   -0.06791099
     atom    4 type  2   force =     0.00001248   -0.00029512    0.02764004
     atom    5 type  2   force =    -0.01616050    0.00175512   -0.00935312
     atom    6 type  2   force =     0.01819315    0.00219385   -0.00897532
     atom    7 type  1   force =     0.00114871   -0.00377733    0.02162383
     atom    8 type  1   force =    -0.00057255   -0.00292656    0.11100069
     atom    9 type  2   force =    -0.00018282    0.00030084   -0.00039621
     atom   10 type  2   force =    -0.00195933    0.00130252   -0.07319416
     atom   11 type  2   force =     0.00021857   -0.00006358    0.00018671
     atom   12 type  2   force =    -0.00024507    0.00030266    0.00023122
     atom   13 type  1   force =    -0.00012981    0.00008249   -0.00081603
     atom   14 type  1   force =    -0.00058855    0.00044089    0.00035611
     atom   15 type  2   force =     0.00027529    0.00117889   -0.00035540
     atom   16 type  2   force =    -0.00048988   -0.00032977    0.00061825
     atom   17 type  2   force =     0.00006491    0.00041274    0.00033426
     atom   18 type  2   force =    -0.00063795    0.00041593    0.00033979
     atom   19 type  1   force =     0.00037675    0.00028070   -0.00004402
     atom   20 type  1   force =    -0.00004392    0.00103115    0.00202251
     atom   21 type  2   force =     0.00004845   -0.00000604    0.09972786
     atom   22 type  2   force =     0.00027050    0.00203774   -0.00039238
     atom   23 type  2   force =    -0.07913785    0.00000180   -0.03242312
     atom   24 type  2   force =     0.07902420    0.00044012   -0.03244554
     atom   25 type  1   force =     0.00002102   -0.00041230    0.12353675
     atom   26 type  1   force =    -0.00010006   -0.00046451   -0.16080956
     atom   27 type  2   force =     0.00033060   -0.00048080   -0.06695810
     atom   28 type  2   force =     0.00002758   -0.00012152    0.02736609
     atom   29 type  2   force =    -0.01663559    0.00127749   -0.00945985
     atom   30 type  2   force =     0.01856581    0.00165487   -0.00909430
     atom   31 type  1   force =     0.00116666   -0.00137962    0.02104207
     atom   32 type  1   force =    -0.00053254    0.00037150    0.11163087
     atom   33 type  2   force =    -0.00016271   -0.00023982    0.00012732
     atom   34 type  2   force =    -0.00132967    0.00066791   -0.07256366
     atom   35 type  2   force =    -0.00079573   -0.00046460    0.00000879
     atom   36 type  2   force =     0.00011573   -0.00009573    0.00013953
     atom   37 type  1   force =     0.00009524    0.00065160    0.00030948
     atom   38 type  1   force =    -0.00021610    0.00004498   -0.00023695
     atom   39 type  2   force =     0.00013314   -0.00070099    0.00147567
     atom   40 type  2   force =    -0.00018086   -0.00050533    0.00039489
     atom   41 type  2   force =    -0.00053149    0.00003779   -0.00022100
     atom   42 type  2   force =     0.00103630    0.00015283   -0.00025292
     atom   43 type  1   force =    -0.00023865   -0.00089366   -0.00000122
     atom   44 type  1   force =    -0.00030141    0.00065080   -0.00033935
     atom   45 type  2   force =     0.00002459   -0.00003074    0.09975365
     atom   46 type  2   force =    -0.07914259    0.00005457   -0.03242509
     atom   47 type  2   force =     0.07902316    0.00047758   -0.03243812
     atom   48 type  3   force =     0.00083394   -0.00505086   -0.00302697
     atom   49 type  4   force =     0.00007043    0.00107878    0.00028434
     atom   50 type  5   force =     0.00008082    0.00069511    0.00151403
     atom   51 type  5   force =     0.00013278    0.00026642   -0.00096064
     atom   52 type  5   force =    -0.00024560   -0.00027715    0.00033345
     atom   53 type  3   force =     0.00004039   -0.00087270   -0.00010436
     atom   54 type  5   force =    -0.00002399    0.00021254   -0.00054970
     atom   55 type  5   force =     0.00014604    0.00031680   -0.00082564
     atom   56 type  5   force =    -0.00106205   -0.00014637    0.00122987

     Total force =     0.424302     Total SCF correction =     0.000328
  @ DRIVER MODE: Message from server: STATUS
  @ DRIVER MODE: Message from server: GETFORCE
  @ DRIVER MODE: Returning v,forces,stress,ensemble

     Writing output data file ./calc.save/
  @ DRIVER MODE: Message from server: EXIT
  @ DRIVE MODE: Exiting

     General routines

     Parallel routines

   This run was terminated on:  19: 3:41  15Jul2021

   JOB DONE.