     Program PWSCF v.6.7GPU starts on 27Sep2021 at 19:16:29

     R & G space division:  proc/nbgrp/npool/nimage =       8
     Reading input from /storage/home/hcoda1/3/ntian30/research/carbon/CxH_vib/CH_calc/ads_slab/CHONHH_a/out_0026/pw.inp
Warning: card &CELL ignored
Warning: card   CELL_DYNAMICS='IPI', ignored
Warning: card / ignored

     Current dimensions of program PWSCF are:
     Max number of different atomic species (ntypx) = 10
     Max number of k-points (npk) =  40000
     Max angular momentum in pseudopotentials (lmaxx) =  3
     Presently no symmetry can be used with electric field

     Message from routine cell_base_init:
     DEPRECATED: use true lattice parameter, not A to a.u. conversion factor

     IMPORTANT: XC functional enforced from input :
     Exchange-correlation= BEEF-VDW
                           (   1   4  43  14   2   0   0)
     Any further DFT definition will be discarded
     Please, verify this is what you really want

  @ DRIVER MODE: Connecting to
 qe_1139763_2982670.sched-torque.pace.gatech.edu2adkiv0c_scratch
  using UNIX socket
  @ DRIVER MODE: Message from server: STATUS
  @ DRIVER MODE: Message from server: INIT
  @ DRIVER MODE: Receiving replica           0          -1
  @ DRIVER MODE: Receiving encoded integer          25
  @ DRIVER MODE:  SCF:  T  FORCE:  T  STRESS:  F  VC:  F  ENSEMBLE:  F
  @ DRIVER MODE:  SCF:  T  FORCE:  T  STRESS:  F  VC:  F  ENSEMBLE:  F

     Using Slab Decomposition

     bravais-lattice index     =            0
     lattice parameter (alat)  =       1.8897  a.u.
     unit-cell volume          =    6658.9804 (a.u.)^3
     number of atoms/cell      =           53
     number of atomic types    =            5
     number of electrons       =       396.00
     number of Kohn-Sham states=          208
     kinetic-energy cutoff     =      29.3995  Ry
     charge density cutoff     =     293.9946  Ry
     scf convergence threshold =      7.3E-08
     mixing beta               =       0.0500
     number of iterations used =            8  plain     mixing
     Exchange-correlation= BEEF-VDW
                           (   1   4  43  14   2   0   0)

     celldm(1)=   1.889726  celldm(2)=   0.000000  celldm(3)=   0.000000
     celldm(4)=   0.000000  celldm(5)=   0.000000  celldm(6)=   0.000000

     crystal axes: (cart. coord. in units of alat)
               a(1) = (   6.579727   0.000000   0.000000 )
               a(2) = (  -0.000775   5.961596   0.000000 )
               a(3) = (   0.000000   0.000000  25.155947 )

     reciprocal axes: (cart. coord. in units 2 pi/alat)
               b(1) = (  0.151982  0.000020  0.000000 )
               b(2) = (  0.000000  0.167740  0.000000 )
               b(3) = (  0.000000  0.000000  0.039752 )

     PseudoPot. # 1 for O  read from file:
     /storage/coda1/p-amedford6/0/shared/rich_project_chbe-medford/medford-share/data/pseudos_module/espresso/nninc/pbe/van/O.UPF
     MD5 check sum: 78c19812648e8988a0fe644b0f25305e
     Pseudo is Ultrasoft, Zval =  6.0
     Generated by new atomic code, or converted to UPF format
     Using radial grid of  737 points,  4 beta functions with:
                l(1) =   0
                l(2) =   0
                l(3) =   1
                l(4) =   1
     Q(r) pseudized with  8 coefficients,  rinner =    0.800   0.800   0.800

     PseudoPot. # 2 for Ti read from file:
     /storage/coda1/p-amedford6/0/shared/rich_project_chbe-medford/medford-share/data/pseudos_module/espresso/nninc/pbe/van/Ti.UPF
     MD5 check sum: 8e4df49b7f0d34bbd5052bf3f5ea0213
     Pseudo is Ultrasoft, Zval = 12.0
     Generated by new atomic code, or converted to UPF format
     Using radial grid of  851 points,  6 beta functions with:
                l(1) =   0
                l(2) =   0
                l(3) =   1
                l(4) =   1
                l(5) =   2
                l(6) =   2
     Q(r) pseudized with  8 coefficients,  rinner =    1.000   1.000   1.000
                                                       1.000   1.000

     PseudoPot. # 3 for C  read from file:
     /storage/coda1/p-amedford6/0/shared/rich_project_chbe-medford/medford-share/data/pseudos_module/espresso/nninc/pbe/van/C.UPF
     MD5 check sum: 1a69bf6b8db32088f5b2163dbdb77a27
     Pseudo is Ultrasoft, Zval =  4.0
     Generated by new atomic code, or converted to UPF format
     Using radial grid of  721 points,  4 beta functions with:
                l(1) =   0
                l(2) =   0
                l(3) =   1
                l(4) =   1
     Q(r) pseudized with  8 coefficients,  rinner =    0.800   0.800   0.800

     PseudoPot. # 4 for H  read from file:
     /storage/coda1/p-amedford6/0/shared/rich_project_chbe-medford/medford-share/data/pseudos_module/espresso/nninc/pbe/van/H.UPF
     MD5 check sum: b5ee9d7bfd3a09ee7748110bda690ff7
     Pseudo is Ultrasoft, Zval =  1.0
     Generated by new atomic code, or converted to UPF format
     Using radial grid of  615 points,  1 beta functions with:
                l(1) =   0
     Q(r) pseudized with  8 coefficients,  rinner =    0.800

     PseudoPot. # 5 for N  read from file:
     /storage/coda1/p-amedford6/0/shared/rich_project_chbe-medford/medford-share/data/pseudos_module/espresso/nninc/pbe/van/N.UPF
     MD5 check sum: 90d10febe142ad51ac9d5be1deb811c4
     Pseudo is Ultrasoft, Zval =  5.0
     Generated by new atomic code, or converted to UPF format
     Using radial grid of  729 points,  4 beta functions with:
                l(1) =   0
                l(2) =   0
                l(3) =   1
                l(4) =   1
     Q(r) pseudized with  8 coefficients,  rinner =    0.800   0.800   0.800

     atomic species   valence    mass     pseudopotential
        O1             6.00    15.99900     O ( 1.00)
        Ti1           12.00    47.86700     Ti( 1.00)
        C1             4.00    12.01100     C ( 1.00)
        H1             1.00     1.00800     H ( 1.00)
        N1             5.00    14.00700     N ( 1.00)

     No symmetry found

   Cartesian axes

     site n.     atom                  positions (alat units)
         1           O1  tau(   1) = (   3.2904802   0.0005063   4.7018136  )
         2           O1  tau(   2) = (   3.2900926   2.9813045   4.7018136  )
         3           Ti1 tau(   3) = (   0.0004258   2.9801865   6.0000000  )
         4           Ti1 tau(   4) = (   0.0000382   5.9609847   6.0000000  )
         5           Ti1 tau(   5) = (   3.2906075   1.4906267   6.0002472  )
         6           Ti1 tau(   6) = (   3.2902200   4.4714249   6.0002472  )
         7           O1  tau(   7) = (   1.3043587   1.4918075   6.0039043  )
         8           O1  tau(   8) = (   1.3039711   4.4726057   6.0039043  )
         9           O1  tau(   9) = (   5.2767064   1.4903225   6.0039473  )
        10           O1  tau(  10) = (   5.2763189   4.4711207   6.0039473  )
        11           O1  tau(  11) = (   3.2906025   0.0005020   7.3038282  )
        12           O1  tau(  12) = (   3.2902150   2.9813002   7.3038282  )
        13           O1  tau(  13) = (   0.0006271   0.0005054   7.9858123  )
        14           O1  tau(  14) = (   0.0002396   2.9813036   7.9858123  )
        15           Ti1 tau(  15) = (   3.2907910   2.8959150   9.1758416  )
        16           Ti1 tau(  16) = (   3.2891106   5.8743827   9.1763621  )
        17           Ti1 tau(  17) = (   0.0015273   1.4827037   9.2680791  )
        18           Ti1 tau(  18) = (   0.0006254   4.4649316   9.2693709  )
        19           O1  tau(  19) = (   4.5942328   1.4918067   9.2879030  )
        20           O1  tau(  20) = (   4.5938453   4.4726049   9.2879030  )
        21           O1  tau(  21) = (   1.9868534   1.4903216   9.2879459  )
        22           O1  tau(  22) = (   1.9864658   4.4711199   9.2879459  )
        23           O1  tau(  23) = (   0.0116148   5.9584955  10.6183126  )
        24           O1  tau(  24) = (   0.0092240   2.9805883  10.6323155  )
        25           O1  tau(  25) = (   3.2982867   2.9605634  11.3629554  )
        26           O1  tau(  26) = (   3.2970280   5.9418052  11.3670498  )
        27           Ti1 tau(  27) = (   3.3197620   1.4647166  12.5186485  )
        28           Ti1 tau(  28) = (   3.3197371   4.4442548  12.5174675  )
        29           Ti1 tau(  29) = (   0.0247145   5.9392298  12.5050521  )
        30           Ti1 tau(  30) = (   0.0207888   2.9549252  12.5325712  )
        31           O1  tau(  31) = (   5.2994564   1.4737048  12.6581032  )
        32           O1  tau(  32) = (   5.2987173   4.4536623  12.6588755  )
        33           O1  tau(  33) = (   1.2980767   1.4735271  12.6640466  )
        34           O1  tau(  34) = (   1.2983722   4.4539272  12.6649509  )
        35           O1  tau(  35) = (   3.3003782   2.9593424  13.9572071  )
        36           O1  tau(  36) = (   3.3054355   5.9407569  13.9837565  )
        37           O1  tau(  37) = (   0.0046088   5.9251545  14.7309831  )
        38           O1  tau(  38) = (   0.0006132   2.9575759  14.8603695  )
        39           Ti1 tau(  39) = (   3.2921441   2.9479593  15.7473734  )
        40           Ti1 tau(  40) = (   3.3096684   5.9297328  15.7786280  )
        41           Ti1 tau(  41) = (   0.0292748   4.4653737  15.8834615  )
        42           Ti1 tau(  42) = (   0.0203033   1.2983705  16.0532229  )
        43           O1  tau(  43) = (   2.0312177   4.4313956  16.1584376  )
        44           O1  tau(  44) = (   2.0329186   1.4682422  16.1585226  )
        45           O1  tau(  45) = (   4.5395334   1.4708069  16.1744780  )
        46           O1  tau(  46) = (   4.5451706   4.4284814  16.1696510  )
        47           O1  tau(  47) = (   6.5626888   5.9521290  17.2995914  )
        48           C1  tau(  48) = (   6.0895709   3.0833951  18.7413599  )
        49           H1  tau(  49) = (   6.1064821   5.1028269  18.6976294  )
        50           H1  tau(  50) = (   5.8218695   2.1931775  19.3174373  )
        51           N1  tau(  51) = (   5.9176545   4.2705979  19.3036562  )
        52           H1  tau(  52) = (   5.4785665   4.3395963  20.1994452  )
        53           O1  tau(  53) = (   6.5488429   2.9572365  17.5815492  )

     number of k points=    10  Fermi-Dirac smearing, width (Ry)=  0.0073
                       cart. coord. in units 2pi/alat
        k(    1) = (   0.0000000   0.0000000   0.0000000), wk =   0.1250000
        k(    2) = (   0.0000000   0.0419351   0.0000000), wk =   0.2500000
        k(    3) = (   0.0000000  -0.0838702   0.0000000), wk =   0.1250000
        k(    4) = (   0.0379955   0.0000049   0.0000000), wk =   0.2500000
        k(    5) = (   0.0379955   0.0419400   0.0000000), wk =   0.2500000
        k(    6) = (   0.0379955  -0.0838652   0.0000000), wk =   0.2500000
        k(    7) = (   0.0379955  -0.0419301   0.0000000), wk =   0.2500000
        k(    8) = (  -0.0759910  -0.0000099   0.0000000), wk =   0.1250000
        k(    9) = (  -0.0759910   0.0419252   0.0000000), wk =   0.2500000
        k(   10) = (  -0.0759910  -0.0838800   0.0000000), wk =   0.1250000

     Initial potential from superposition of free atoms

     starting charge  379.99917, renormalised to  396.00000

     negative rho (up, down):  1.603E-02 0.000E+00

     %%%%%%%%%%%%%%%%%%%%%%%%%%%%%%%%%%%%%%%%%%%%%%%%%%%%%%%%%%%%%%%%%%%%%%%%
     %                                                                      %
     % You are using vdW-DF, which was implemented by the Thonhauser group. %
     % Please cite the following two papers that made this development      %
     % possible and the two reviews that describe the various versions:     %
     %                                                                      %
     %   T. Thonhauser et al., PRL 115, 136402 (2015).                      %
     %   T. Thonhauser et al., PRB 76, 125112 (2007).                       %
     %   K. Berland et al., Rep. Prog. Phys. 78, 066501 (2015).             %
     %   D.C. Langreth et al., J. Phys.: Condens. Matter 21, 084203 (2009). %
     %                                                                      %
     %                                                                      %
     % If you are calculating the stress with vdW-DF, please also cite:     %
     %                                                                      %
     %   R. Sabatini et al., J. Phys.: Condens. Matter 24, 424209 (2012).   %
     %                                                                      %
     %%%%%%%%%%%%%%%%%%%%%%%%%%%%%%%%%%%%%%%%%%%%%%%%%%%%%%%%%%%%%%%%%%%%%%%%

     Adding external electric field

     Computed dipole along edir(3) :
        Dipole               -9.7756 Ry au,        -24.8472 Debye
        Dipole field         -0.0184 Ry au,

        Potential amp.        1.7101 Ry
        Total length         46.3494 bohr

     Starting wfcs are  299 atomic wfcs
  @ DRIVER MODE: Message from server: STATUS
  @ DRIVER MODE: Message from server: POSDATA
  @ DRIVER MODE: Reading and sharing cell
  @ DRIVER MODE: Reading and sharing positions
  @ DRIVER MODE: Received positions

     Self-consistent Calculation

     iteration #  1     ecut=    29.40 Ry     beta= 0.05
     Davidson diagonalization with overlap
     c_bands:  1 eigenvalues not converged
     c_bands:  1 eigenvalues not converged
     c_bands:  2 eigenvalues not converged
     c_bands:  3 eigenvalues not converged
     c_bands:  2 eigenvalues not converged
     c_bands:  1 eigenvalues not converged
     c_bands:  2 eigenvalues not converged
     c_bands:  1 eigenvalues not converged
     c_bands:  2 eigenvalues not converged
     c_bands:  2 eigenvalues not converged
     ethr =  1.00E-05,  avg # of iterations = 20.0

[...]

     total energy              =   -2552.98060679 Ry
     estimated scf accuracy    <    4457.95050802 Ry

     iteration #  2     ecut=    29.40 Ry     beta= 0.05
     Davidson diagonalization with overlap
     ethr =  1.00E-02,  avg # of iterations = 25.4

[...]

     iteration # 78     ecut=    29.40 Ry     beta= 0.05
     Davidson diagonalization with overlap
     ethr =  7.03E-11,  avg # of iterations =  9.3

[...]

     total energy              =   -2951.54895295 Ry
     estimated scf accuracy    <       0.00000011 Ry

     iteration # 80     ecut=    29.40 Ry     beta= 0.05
     Davidson diagonalization with overlap
     c_bands:  1 eigenvalues not converged
     ethr =  2.68E-11,  avg # of iterations = 13.9

     negative rho (up, down):  1.478E-02 0.000E+00

     Adding external electric field

     Computed dipole along edir(3) :
        Dipole                1.7568 Ry au,          4.4653 Debye
        Dipole field          0.0033 Ry au,

        Potential amp.       -0.3073 Ry
        Total length         46.3494 bohr

     End of self-consistent calculation

          k = 0.0000 0.0000 0.0000 ( 18029 PWs)   bands (ev):

   -55.1173 -55.0814 -55.0735 -55.0394 -54.9995 -54.9957 -54.9883 -54.9588
   -54.9429 -54.9291 -54.9193 -54.9006 -54.8947 -54.8671 -54.0952 -54.0612
   -31.6859 -31.5865 -31.5647 -31.4846 -31.4335 -31.4255 -31.4187 -31.4045
   -31.3627 -31.3574 -31.3271 -31.3227 -31.3178 -31.2990 -31.2896 -31.2722
   -31.2555 -31.2539 -31.2385 -31.2290 -31.2249 -31.2130 -31.1966 -31.1862
   -31.1745 -31.1595 -31.1422 -31.1314 -31.1308 -31.1284 -31.1259 -31.1149
   -31.1004 -31.0987 -31.0938 -31.0865 -31.0815 -31.0781 -31.0435 -31.0386
   -31.0293 -31.0104 -30.5042 -30.4110 -30.3889 -30.3207 -30.2340 -30.1229
   -20.4256 -16.9038 -15.9345 -15.6636 -15.5182 -15.3828 -15.3069 -15.1842
   -15.1362 -15.0295 -14.9294 -14.8378 -14.7991 -14.7717 -14.7572 -14.7469
   -14.7295 -14.6518 -14.6482 -14.6174 -14.6062 -14.5753 -14.5448 -14.5221
   -14.5041 -14.4886 -14.4568 -14.3446 -14.2650 -14.2020 -14.1215 -12.5979
   -12.4806  -9.5184  -8.0012  -6.3825  -5.0786  -4.2715  -3.2788  -3.1229
    -3.0291  -3.0269  -3.0090  -2.8447  -2.7165  -2.5221  -2.3958  -2.3757
    -2.3304  -2.3109  -2.2905  -2.1840  -2.0963  -2.0524  -2.0106  -1.9647
    -1.9257  -1.9007  -1.8925  -1.8780  -1.8588  -1.8581  -1.7556  -1.6509
    -1.5886  -1.5715  -1.5513  -1.5125  -1.4528  -1.4192  -1.3991  -1.3960
    -1.3601  -1.3464  -1.3254  -1.2983  -1.1493  -1.0560  -1.0367  -0.9738
    -0.8525  -0.8096  -0.7478  -0.6749  -0.6726  -0.5928  -0.5905  -0.5520
    -0.5308  -0.4957  -0.4527  -0.3178  -0.2114  -0.1954  -0.1503  -0.1061
    -0.0667  -0.0486   0.1037   0.1083   0.1198   0.1389   0.3191   0.3217
     0.3780   0.3979   0.4543   0.4610   0.4932   0.5599   0.6315   0.6635
     0.6955   0.7764   0.8263   0.8295   0.8371   0.8451   0.8768   0.9615
     0.9914   1.0123   1.0536   1.1920   1.3083   1.4980   1.5040   1.8364
     1.8512   1.9274   2.1121   2.5027   2.5505   3.9815   4.0554   4.1230
     4.1352   4.1406   4.2201   4.3436   4.4608   4.4709   4.4827   4.4896

[...]

          k = 0.0380-0.0419 0.0000 ( 17876 PWs)   bands (ev):

[...]

          k =-0.0760-0.0000 0.0000 ( 17886 PWs)   bands (ev):

[...]

          k =-0.0760-0.0839 0.0000 ( 17948 PWs)   bands (ev):

   -55.0995 -55.0990 -55.0566 -55.0562 -54.9948 -54.9839 -54.9812 -54.9705
   -54.9508 -54.9231 -54.9127 -54.9105 -54.8846 -54.8833 -54.0782 -54.0780
   -31.4896 -31.4893 -31.4881 -31.4029 -31.3800 -31.3796 -31.3757 -31.3481
   -31.3478 -31.3264 -31.3192 -31.3167 -31.3095 -31.2778 -31.2674 -31.2476
   -31.2467 -31.2434 -31.2418 -31.2404 -31.2371 -31.2298 -31.2200 -31.1963
   -31.1928 -31.1893 -31.1816 -31.1800 -31.1762 -31.1761 -31.1634 -31.1464
   -31.1454 -31.1434 -31.1321 -31.1264 -31.1238 -31.1114 -31.1107 -31.1095
   -31.0655 -31.0636 -30.4016 -30.4015 -30.3168 -30.3166 -30.2774 -30.2773
   -20.4214 -16.9067 -15.3674 -15.3545 -15.3217 -15.1065 -15.1062 -15.0902
   -15.0802 -14.9354 -14.9037 -14.8870 -14.8754 -14.8252 -14.8151 -14.8138
   -14.8072 -14.7031 -14.6999 -14.6981 -14.6912 -14.6228 -14.6156 -14.6058
   -14.5748 -14.5632 -14.5590 -14.4625 -14.4616 -14.4598 -14.4030 -12.5822
   -12.5820  -9.5482  -7.9928  -6.3474  -5.0472  -4.2740  -2.6270  -2.5874
    -2.5196  -2.3232  -2.3146  -2.2875  -2.2018  -2.1673  -2.1061  -2.0915
    -2.0777  -2.0361  -1.9971  -1.9893  -1.9510  -1.9419  -1.9321  -1.9108
    -1.8924  -1.8571  -1.8359  -1.8260  -1.7955  -1.7742  -1.7668  -1.7558
    -1.7257  -1.7020  -1.6892  -1.6758  -1.6003  -1.5075  -1.4651  -1.3947
    -1.3110  -1.3087  -1.3033  -1.2153  -1.1921  -1.1635  -1.1495  -1.1023
    -1.0474  -0.9700  -0.8882  -0.8562  -0.8488  -0.8204  -0.7210  -0.6933
    -0.6465  -0.6094  -0.5983  -0.5468  -0.4306  -0.4280  -0.3876  -0.3237
    -0.3050  -0.2423  -0.1327  -0.1043  -0.0724  -0.0699  -0.0286   0.0046
     0.0188   0.0837   0.1165   0.1506   0.1679   0.2302   0.3926   0.4014
     0.4927   0.5213   0.5903   0.7570   0.7866   0.8075   0.9318   0.9644
     0.9981   1.0488   1.0937   1.1906   1.1981   1.2873   1.3369   1.3514
     1.3578   2.2852   2.2857   2.3705   2.3706   4.1078   4.2343   4.2554
     4.2940   4.3379   4.5037   4.5113   4.5654   4.5667   4.6008   4.6443

     the Fermi energy is     4.0417 ev

!    total energy              =   -2951.54896066 Ry
     estimated scf accuracy    <       0.00000006 Ry
     smearing contrib. (-TS)   =      -0.03720012 Ry
     internal energy E=F+TS    =   -2951.51176055 Ry

     The total energy is F=E-TS. E is the sum of the following terms:
     one-electron contribution =  -23930.87781260 Ry
     hartree contribution      =   12059.72341180 Ry
     xc contribution           =    -487.46369472 Ry
     ewald contribution        =    9407.10051061 Ry
     electric field correction =       0.00582436 Ry

     convergence has been achieved in  80 iterations

     Forces acting on atoms (cartesian axes, Ry/au):

     atom    1 type  1   force =     0.00000208    0.00001976    0.10372286
     atom    2 type  1   force =    -0.00000554    0.00001593    0.10373335
     atom    3 type  2   force =     0.00003413   -0.00018398    0.09363833
     atom    4 type  2   force =    -0.00001328   -0.00013776    0.09331602
     atom    5 type  2   force =    -0.00020048   -0.00036762   -0.17781455
     atom    6 type  2   force =    -0.00018729   -0.00031088   -0.17790185
     atom    7 type  1   force =    -0.07060042   -0.00005797   -0.02702896
     atom    8 type  1   force =    -0.07060976   -0.00004841   -0.02701425
     atom    9 type  1   force =     0.07042630    0.00038929   -0.02706826
     atom   10 type  1   force =     0.07041431    0.00039243   -0.02703174
     atom   11 type  1   force =    -0.00003833   -0.00187078    0.05771100
     atom   12 type  1   force =     0.00001712   -0.00159477    0.05727440
     atom   13 type  1   force =     0.00003425   -0.00022088   -0.02104670
     atom   14 type  1   force =     0.00006281   -0.00034849   -0.02012791
     atom   15 type  2   force =    -0.00034365    0.00219078   -0.01415101
     atom   16 type  2   force =    -0.00014802    0.00521164   -0.01499915
     atom   17 type  2   force =    -0.00009588    0.00330182    0.00054935
     atom   18 type  2   force =     0.00004312   -0.00379618    0.00040307
     atom   19 type  1   force =    -0.01055681   -0.00136170    0.00706444
     atom   20 type  1   force =    -0.01085595   -0.00104946    0.00700297
     atom   21 type  1   force =     0.01218028   -0.00075445    0.00659203
     atom   22 type  1   force =     0.01237294   -0.00067863    0.00651171
     atom   23 type  1   force =    -0.00110488   -0.00065457   -0.00093522
     atom   24 type  1   force =    -0.00064500   -0.00141418   -0.00125489
     atom   25 type  1   force =     0.00001675    0.00022059    0.00026577
     atom   26 type  1   force =     0.00001649    0.00003542   -0.00011255
     atom   27 type  2   force =     0.00000224    0.00034937   -0.00004384
     atom   28 type  2   force =     0.00006065   -0.00014321    0.00006213
     atom   29 type  2   force =    -0.00000958    0.00008806   -0.00026483
     atom   30 type  2   force =     0.00009436   -0.00003856   -0.00020140
     atom   31 type  1   force =    -0.00010549   -0.00011352    0.00003597
     atom   32 type  1   force =    -0.00026166    0.00003125   -0.00001929
     atom   33 type  1   force =     0.00008771   -0.00002698   -0.00006918
     atom   34 type  1   force =     0.00012389   -0.00004430   -0.00004589
     atom   35 type  1   force =    -0.00000435   -0.00004017    0.00011510
     atom   36 type  1   force =    -0.00012056   -0.00020410   -0.00007103
     atom   37 type  1   force =     0.00011727   -0.00003411   -0.00026612
     atom   38 type  1   force =    -0.00019118    0.00025554   -0.00052023
     atom   39 type  2   force =     0.00015768    0.00001612    0.00026915
     atom   40 type  2   force =     0.00001412    0.00034604    0.00003322
     atom   41 type  2   force =    -0.00010323    0.00052641    0.00008503
     atom   42 type  2   force =     0.00005845    0.00009775    0.00033425
     atom   43 type  1   force =     0.00010939    0.00023658   -0.00012252
     atom   44 type  1   force =     0.00002434    0.00037856   -0.00009633
     atom   45 type  1   force =    -0.00007101    0.00036476   -0.00016297
     atom   46 type  1   force =    -0.00012872    0.00020059    0.00005290
     atom   47 type  1   force =    -0.00023408    0.00022233   -0.00017519
     atom   48 type  3   force =     0.00032931   -0.00012276   -0.00120501
     atom   49 type  4   force =     0.00041083    0.00119649   -0.00001395
     atom   50 type  4   force =     0.00049107   -0.00034854    0.00021903
     atom   51 type  5   force =     0.00332499   -0.00090260   -0.00879686
     atom   52 type  4   force =    -0.00402793    0.00067534    0.00862578
     atom   53 type  1   force =    -0.00036379    0.00010670    0.00094380

     Total force =     0.365973     Total SCF correction =     0.000872
  @ DRIVER MODE: Message from server: STATUS
  @ DRIVER MODE: Message from server: GETFORCE
  @ DRIVER MODE: Returning v,forces,stress,ensemble

     Writing output data file ./calc.save/
  @ DRIVER MODE: Message from server: EXIT
  @ DRIVE MODE: Exiting

     General routines

     Parallel routines

   This run was terminated on:  19:51:11  27Sep2021

   JOB DONE.