     Program PWSCF v.6.7GPU starts on 19Oct2021 at  4:35:33

     R & G space division:  proc/nbgrp/npool/nimage =       8
     Reading input from /storage/home/hcoda1/3/ntian30/research/carbon/CxH_vib/Thiel_calc/ads_slab/NH3NH2H_perslab/out_0034/pw.inp
Warning: card &CELL ignored
Warning: card   CELL_DYNAMICS='IPI', ignored
Warning: card / ignored

     Current dimensions of program PWSCF are:
     Max number of different atomic species (ntypx) = 10
     Max number of k-points (npk) =  40000
     Max angular momentum in pseudopotentials (lmaxx) =  3
     Presently no symmetry can be used with electric field

     Message from routine cell_base_init:
     DEPRECATED: use true lattice parameter, not A to a.u. conversion factor

     IMPORTANT: XC functional enforced from input :
     Exchange-correlation= BEEF-VDW
                           (   1   4  43  14   2   0   0)
     Any further DFT definition will be discarded
     Please, verify this is what you really want

  @ DRIVER MODE: Connecting to
 qe_1139763_3255139.sched-torque.pace.gatech.edum7xtr1lg_scratch
  using UNIX socket
  @ DRIVER MODE: Message from server: STATUS
  @ DRIVER MODE: Message from server: INIT
  @ DRIVER MODE: Receiving replica           0          -1
  @ DRIVER MODE: Receiving encoded integer          25
  @ DRIVER MODE:  SCF:  T  FORCE:  T  STRESS:  F  VC:  F  ENSEMBLE:  F
  @ DRIVER MODE:  SCF:  T  FORCE:  T  STRESS:  F  VC:  F  ENSEMBLE:  F

     Using Slab Decomposition

     bravais-lattice index     =            0
     lattice parameter (alat)  =       1.8897  a.u.
     unit-cell volume          =    9988.4706 (a.u.)^3
     number of atoms/cell      =           61
     number of atomic types    =            4
     number of electrons       =       442.00
     number of Kohn-Sham states=          231
     kinetic-energy cutoff     =      29.3995  Ry
     charge density cutoff     =     293.9946  Ry
     scf convergence threshold =      7.3E-08
     mixing beta               =       0.0500
     number of iterations used =            8  plain     mixing
     Exchange-correlation= BEEF-VDW
                           (   1   4  43  14   2   0   0)

     celldm(1)=   1.889726  celldm(2)=   0.000000  celldm(3)=   0.000000
     celldm(4)=   0.000000  celldm(5)=   0.000000  celldm(6)=   0.000000

     crystal axes: (cart. coord. in units of alat)
               a(1) = (   6.579727   0.000000   0.000000 )
               a(2) = (  -0.001163   8.942395   0.000000 )
               a(3) = (   0.000000   0.000000  25.155947 )

     reciprocal axes: (cart. coord. in units 2 pi/alat)
               b(1) = (  0.151982  0.000020  0.000000 )
               b(2) = (  0.000000  0.111827  0.000000 )
               b(3) = (  0.000000  0.000000  0.039752 )

     PseudoPot. # 1 for O  read from file:
     /storage/coda1/p-amedford6/0/shared/rich_project_chbe-medford/medford-share/data/pseudos_module/espresso/nninc/pbe/van/O.UPF
     MD5 check sum: 78c19812648e8988a0fe644b0f25305e
     Pseudo is Ultrasoft, Zval =  6.0
     Generated by new atomic code, or converted to UPF format
     Using radial grid of  737 points,  4 beta functions with:
                l(1) =   0
                l(2) =   0
                l(3) =   1
                l(4) =   1
     Q(r) pseudized with  8 coefficients,  rinner =    0.800   0.800   0.800

     PseudoPot. # 2 for Ti read from file:
     /storage/coda1/p-amedford6/0/shared/rich_project_chbe-medford/medford-share/data/pseudos_module/espresso/nninc/pbe/van/Ti.UPF
     MD5 check sum: 8e4df49b7f0d34bbd5052bf3f5ea0213
     Pseudo is Ultrasoft, Zval = 12.0
     Generated by new atomic code, or converted to UPF format
     Using radial grid of  851 points,  6 beta functions with:
                l(1) =   0
                l(2) =   0
                l(3) =   1
                l(4) =   1
                l(5) =   2
                l(6) =   2
     Q(r) pseudized with  8 coefficients,  rinner =    1.000   1.000   1.000
                                                       1.000   1.000

     PseudoPot. # 3 for H  read from file:
     /storage/coda1/p-amedford6/0/shared/rich_project_chbe-medford/medford-share/data/pseudos_module/espresso/nninc/pbe/van/H.UPF
     MD5 check sum: b5ee9d7bfd3a09ee7748110bda690ff7
     Pseudo is Ultrasoft, Zval =  1.0
     Generated by new atomic code, or converted to UPF format
     Using radial grid of  615 points,  1 beta functions with:
                l(1) =   0
     Q(r) pseudized with  8 coefficients,  rinner =    0.800

     PseudoPot. # 4 for N  read from file:
     /storage/coda1/p-amedford6/0/shared/rich_project_chbe-medford/medford-share/data/pseudos_module/espresso/nninc/pbe/van/N.UPF
     MD5 check sum: 90d10febe142ad51ac9d5be1deb811c4
     Pseudo is Ultrasoft, Zval =  5.0
     Generated by new atomic code, or converted to UPF format
     Using radial grid of  729 points,  4 beta functions with:
                l(1) =   0
                l(2) =   0
                l(3) =   1
                l(4) =   1
     Q(r) pseudized with  8 coefficients,  rinner =    0.800   0.800   0.800

     atomic species   valence    mass     pseudopotential
        O1             6.00    15.99900     O ( 1.00)
        Ti1           12.00    47.86700     Ti( 1.00)
        H1             1.00     1.00800     H ( 1.00)
        N1             5.00    14.00700     N ( 1.00)

     No symmetry found

   Cartesian axes

     site n.     atom                  positions (alat units)
         1           O1  tau(   1) = (   0.0007354   0.0005023  10.5931620  )
         2           O1  tau(   2) = (   3.2892937   8.9423630  13.8814308  )
         3           O1  tau(   3) = (   6.5785080   0.0907754  17.2996570  )
         4           O1  tau(   4) = (   0.0006271   0.0005054   7.9858123  )
         5           O1  tau(   5) = (   3.2892617   8.9274694  11.1867540  )
         6           O1  tau(   6) = (   0.0001068   0.0384811  14.5856928  )
         7           O1  tau(   7) = (   1.9868534   1.4903216   9.2879459  )
         8           O1  tau(   8) = (   5.2392332   1.6199063  12.5840971  )
         9           O1  tau(   9) = (   2.0046145   1.5651943  16.0652335  )
        10           Ti1 tau(  10) = (   0.0007404   1.4906270   9.2895810  )
        11           Ti1 tau(  11) = (   3.2903033   1.3475644  12.4784176  )
        12           Ti1 tau(  12) = (   0.0002083   1.2954417  15.7753146  )
        13           O1  tau(  13) = (   4.5942328   1.4918067   9.2879030  )
        14           O1  tau(  14) = (   1.3408909   1.6195689  12.5841697  )
        15           O1  tau(  15) = (   4.5747373   1.5650701  16.0650860  )
        16           Ti1 tau(  16) = (   3.2902859   2.9801868   9.2893338  )
        17           Ti1 tau(  17) = (   0.0003213   2.8429885  12.4272127  )
        18           Ti1 tau(  18) = (   3.2894782   2.8703589  15.6911549  )
        19           O1  tau(  19) = (   0.0003479   2.9813005  10.5931620  )
        20           O1  tau(  20) = (   3.2897922   2.9583395  13.9032781  )
        21           O1  tau(  21) = (   0.0002396   2.9813036   7.9858123  )
        22           O1  tau(  22) = (   3.2900450   2.9730570  11.1907869  )
        23           O1  tau(  23) = (   0.0001206   2.9807552  14.9070210  )
        24           O1  tau(  24) = (   1.9864658   4.4711199   9.2879459  )
        25           O1  tau(  25) = (   5.2482068   4.5640541  12.6028892  )
        26           O1  tau(  26) = (   2.0118887   4.5193519  16.0312246  )
        27           Ti1 tau(  27) = (   0.0003529   4.4714252   9.2895810  )
        28           Ti1 tau(  28) = (   3.2901403   4.3402809  12.5217819  )
        29           Ti1 tau(  29) = (   0.0009811   4.3515161  16.1888847  )
        30           O1  tau(  30) = (   4.5938453   4.4726049   9.2879030  )
        31           O1  tau(  31) = (   1.3314901   4.5639303  12.6028828  )
        32           O1  tau(  32) = (   4.5682806   4.5188618  16.0312494  )
        33           Ti1 tau(  33) = (   3.2898983   5.9609850   9.2893338  )
        34           Ti1 tau(  34) = (   0.0001002   5.8006911  12.4939615  )
        35           Ti1 tau(  35) = (   3.2910898   5.8128663  15.8108673  )
        36           O1  tau(  36) = (  -0.0000397   5.9620987  10.5931620  )
        37           O1  tau(  37) = (   3.2898758   5.9691391  13.9384534  )
        38           O1  tau(  38) = (   0.0001572   5.9906873  17.2924393  )
        39           O1  tau(  39) = (  -0.0001480   5.9621018   7.9858123  )
        40           O1  tau(  40) = (   3.2897271   5.9334558  11.2049738  )
        41           O1  tau(  41) = (   0.0000685   5.9641935  14.6703060  )
        42           O1  tau(  42) = (   1.9860782   7.4519181   9.2879459  )
        43           O1  tau(  43) = (   5.2398882   7.5535610  12.5750285  )
        44           O1  tau(  44) = (   1.9879998   7.5809304  16.0172394  )
        45           Ti1 tau(  45) = (  -0.0000347   7.4522234   9.2895810  )
        46           Ti1 tau(  46) = (   3.2896426   7.2731609  12.5447809  )
        47           Ti1 tau(  47) = (   0.0002275   7.1890881  15.9781391  )
        48           O1  tau(  48) = (   4.5934577   7.4534031   9.2879030  )
        49           O1  tau(  49) = (   1.3388943   7.5534522  12.5751898  )
        50           O1  tau(  50) = (   4.5903976   7.5792304  16.0166626  )
        51           Ti1 tau(  51) = (   3.2895107   8.9417832   9.2893338  )
        52           Ti1 tau(  52) = (  -0.0003648   8.7758640  12.4444508  )
        53           Ti1 tau(  53) = (   3.2897763   8.8353469  15.6829021  )
        54           H1  tau(  54) = (   0.0028024   0.0378429  18.2586218  )
        55           N1  tau(  55) = (   0.0000016   3.3024973  17.8430138  )
        56           H1  tau(  56) = (   6.5772996   2.3364033  18.1430564  )
        57           H1  tau(  57) = (   6.5785254   3.8921159  18.6668881  )
        58           N1  tau(  58) = (   3.2892544   5.9906839  18.1401779  )
        59           H1  tau(  59) = (   3.2890604   5.0759402  18.5578254  )
        60           H1  tau(  60) = (   2.4549486   6.4784715  18.4500629  )
        61           H1  tau(  61) = (   4.1227990   6.4789769  18.4516084  )

     number of k points=    10  Fermi-Dirac smearing, width (Ry)=  0.0073
                       cart. coord. in units 2pi/alat
        k(    1) = (   0.0000000   0.0000000   0.0000000), wk =   0.1250000
        k(    2) = (   0.0000000   0.0279567   0.0000000), wk =   0.2500000
        k(    3) = (   0.0000000  -0.0559134   0.0000000), wk =   0.1250000
        k(    4) = (   0.0379955   0.0000049   0.0000000), wk =   0.2500000
        k(    5) = (   0.0379955   0.0279617   0.0000000), wk =   0.2500000
        k(    6) = (   0.0379955  -0.0559085   0.0000000), wk =   0.2500000
        k(    7) = (   0.0379955  -0.0279518   0.0000000), wk =   0.2500000
        k(    8) = (  -0.0759910  -0.0000099   0.0000000), wk =   0.1250000
        k(    9) = (  -0.0759910   0.0279468   0.0000000), wk =   0.2500000
        k(   10) = (  -0.0759910  -0.0559233   0.0000000), wk =   0.1250000

     Initial potential from superposition of free atoms

     starting charge  423.99908, renormalised to  442.00000

     negative rho (up, down):  3.654E-02 0.000E+00

     %%%%%%%%%%%%%%%%%%%%%%%%%%%%%%%%%%%%%%%%%%%%%%%%%%%%%%%%%%%%%%%%%%%%%%%%
     %                                                                      %
     % You are using vdW-DF, which was implemented by the Thonhauser group. %
     % Please cite the following two papers that made this development      %
     % possible and the two reviews that describe the various versions:     %
     %                                                                      %
     %   T. Thonhauser et al., PRL 115, 136402 (2015).                      %
     %   T. Thonhauser et al., PRB 76, 125112 (2007).                       %
     %   K. Berland et al., Rep. Prog. Phys. 78, 066501 (2015).             %
     %   D.C. Langreth et al., J. Phys.: Condens. Matter 21, 084203 (2009). %
     %                                                                      %
     %                                                                      %
     % If you are calculating the stress with vdW-DF, please also cite:     %
     %                                                                      %
     %   R. Sabatini et al., J. Phys.: Condens. Matter 24, 424209 (2012).   %
     %                                                                      %
     %%%%%%%%%%%%%%%%%%%%%%%%%%%%%%%%%%%%%%%%%%%%%%%%%%%%%%%%%%%%%%%%%%%%%%%%

     Adding external electric field

     Computed dipole along edir(3) :
        Dipole               -6.3674 Ry au,        -16.1843 Debye
        Dipole field         -0.0080 Ry au,

        Potential amp.        0.7426 Ry
        Total length         46.3494 bohr

     Starting wfcs are  334 atomic wfcs
  @ DRIVER MODE: Message from server: STATUS
  @ DRIVER MODE: Message from server: POSDATA
  @ DRIVER MODE: Reading and sharing cell
  @ DRIVER MODE: Reading and sharing positions
  @ DRIVER MODE: Received positions

     Self-consistent Calculation

     iteration #  1     ecut=    29.40 Ry     beta= 0.05
     Davidson diagonalization with overlap
     c_bands:  2 eigenvalues not converged
     c_bands:  3 eigenvalues not converged
     c_bands:  3 eigenvalues not converged
     c_bands:  2 eigenvalues not converged
     c_bands:  1 eigenvalues not converged
     c_bands:  4 eigenvalues not converged
     c_bands:  1 eigenvalues not converged
     c_bands:  1 eigenvalues not converged
     c_bands:  1 eigenvalues not converged
     c_bands:  5 eigenvalues not converged
     ethr =  1.00E-05,  avg # of iterations = 20.0

[...]

     total energy              =   -3277.30669976 Ry
     estimated scf accuracy    <     250.03366896 Ry

     iteration #  2     ecut=    29.40 Ry     beta= 0.05
     Davidson diagonalization with overlap
     ethr =  1.00E-02,  avg # of iterations = 16.1

[...]

     iteration # 76     ecut=    29.40 Ry     beta= 0.05
     Davidson diagonalization with overlap
     c_bands:  1 eigenvalues not converged
     c_bands:  1 eigenvalues not converged
     c_bands:  1 eigenvalues not converged
     ethr =  1.68E-10,  avg # of iterations = 15.9

[...]

     total energy              =   -3295.81872997 Ry
     estimated scf accuracy    <       0.00000036 Ry

     iteration # 84     ecut=    29.40 Ry     beta= 0.05
     Davidson diagonalization with overlap
     ethr =  7.10E-11,  avg # of iterations =  9.2

     negative rho (up, down):  3.515E-02 0.000E+00

     Adding external electric field

     Computed dipole along edir(3) :
        Dipole                2.0114 Ry au,          5.1123 Debye
        Dipole field          0.0025 Ry au,

        Potential amp.       -0.2346 Ry
        Total length         46.3494 bohr

     End of self-consistent calculation

          k = 0.0000 0.0000 0.0000 ( 26871 PWs)   bands (ev):

   -57.4450 -57.4219 -57.4135 -57.4062 -57.3630 -57.3518 -57.3113 -57.3061
   -57.2919 -57.2623 -57.2419 -57.2335 -57.2246 -57.1897 -57.0100 -56.5101
   -56.4834 -56.4668 -33.8428 -33.8312 -33.8244 -33.8200 -33.8106 -33.7783
   -33.7672 -33.7607 -33.7520 -33.7377 -33.7339 -33.7136 -33.6927 -33.6794
   -33.6520 -33.6489 -33.6367 -33.6332 -33.6133 -33.6117 -33.5913 -33.5797
   -33.5564 -33.5532 -33.5522 -33.5429 -33.5393 -33.5368 -33.5346 -33.5255
   -33.5170 -33.5045 -33.4892 -33.4735 -33.4661 -33.4549 -33.4401 -33.4381
   -33.4338 -33.4311 -33.4026 -33.3793 -33.3398 -33.3042 -33.2315 -32.8296
   -32.8223 -32.8087 -32.8016 -32.7874 -32.7345 -32.6756 -32.6556 -32.5307
   -19.1393 -18.3001 -17.9749 -17.7573 -17.7095 -17.6869 -17.6124 -17.5469
   -17.5393 -17.4755 -17.3840 -17.3050 -17.2761 -17.2728 -17.2365 -17.2088
   -17.1896 -17.1654 -17.1641 -17.1238 -17.1131 -17.0936 -17.0669 -17.0194
   -16.9462 -16.9335 -16.8991 -16.8919 -16.8863 -16.8863 -16.7426 -16.6649
   -16.5838 -15.2656 -14.9704 -14.9140 -14.9067  -7.7099  -7.6792  -7.2334
    -6.7457  -5.6238  -5.4635  -5.3780  -5.2760  -4.9373  -4.8712  -4.8498
    -4.8363  -4.7910  -4.7523  -4.7511  -4.6935  -4.6845  -4.6660  -4.5850
    -4.5713  -4.5486  -4.4971  -4.4747  -4.4245  -4.4239  -4.3741  -4.3197
    -4.2692  -4.2608  -4.2598  -4.2339  -4.2332  -4.2105  -4.2062  -4.0937
    -4.0880  -4.0130  -3.9053  -3.8975  -3.8484  -3.7758  -3.7667  -3.7403
    -3.7125  -3.6516  -3.6039  -3.5503  -3.5425  -3.5292  -3.4657  -3.4410
    -3.3617  -3.2557  -3.2438  -3.2112  -3.1663  -3.1527  -3.1058  -3.0750
    -3.0023  -2.9271  -2.8479  -2.8215  -2.7170  -2.6711  -2.6518  -2.6188
    -2.6116  -2.5380  -2.5345  -2.5090  -2.3568  -2.2543  -2.2434  -2.2239
    -2.2127  -2.1855  -2.1821  -2.1544  -2.0894  -2.0434  -2.0357  -2.0195
    -2.0005  -1.9877  -1.8983  -1.8393  -1.8120  -1.7832  -1.7673  -1.6734
    -1.6346  -1.5988  -1.5881  -1.4832  -1.4285  -1.3220  -1.3173  -1.3031
    -1.2322  -1.1859  -1.1137  -0.7965  -0.6267  -0.5554  -0.2683  -0.2103
    -0.2023   0.0577   0.0701   0.1982   1.5438   1.7750   1.9756   1.9778
     1.9935   2.0643   2.1322   2.1454   2.2098   2.2624   2.2783

[...]

          k = 0.0380-0.0280 0.0000 ( 26873 PWs)   bands (ev):

[...]

          k =-0.0760-0.0000 0.0000 ( 26902 PWs)   bands (ev):

[...]

          k =-0.0760-0.0559 0.0000 ( 26868 PWs)   bands (ev):

   -57.4394 -57.4324 -57.4085 -57.4055 -57.3639 -57.3520 -57.3103 -57.3067
   -57.2910 -57.2608 -57.2446 -57.2354 -57.2229 -57.1891 -57.0100 -56.5075
   -56.4887 -56.4641 -33.9216 -33.9038 -33.8532 -33.8223 -33.8061 -33.7822
   -33.7733 -33.7648 -33.7231 -33.7072 -33.6933 -33.6636 -33.6405 -33.6366
   -33.6324 -33.6119 -33.5982 -33.5979 -33.5967 -33.5885 -33.5865 -33.5807
   -33.5689 -33.5602 -33.5559 -33.5520 -33.5352 -33.5288 -33.5225 -33.5168
   -33.5160 -33.5128 -33.5039 -33.5010 -33.4940 -33.4860 -33.4557 -33.4548
   -33.4465 -33.4346 -33.4329 -33.3940 -33.3608 -33.3037 -33.2349 -32.9110
   -32.8251 -32.8076 -32.7846 -32.7226 -32.7014 -32.6457 -32.6360 -32.6170
   -19.1328 -17.9935 -17.9230 -17.6959 -17.6265 -17.6144 -17.5987 -17.5652
   -17.5073 -17.4766 -17.4512 -17.4117 -17.3718 -17.3317 -17.3128 -17.2385
   -17.2337 -17.2301 -17.1638 -17.1619 -17.1444 -17.0994 -17.0860 -17.0634
   -17.0142 -16.9734 -16.9596 -16.8805 -16.8554 -16.8150 -16.7202 -16.6517
   -16.6171 -15.2631 -14.9718 -14.9614 -14.8485  -7.6920  -7.6777  -7.2238
    -6.7483  -5.2456  -5.2142  -5.1798  -5.1510  -5.0460  -4.8606  -4.7842
    -4.7511  -4.7471  -4.6820  -4.6618  -4.6553  -4.6110  -4.5988  -4.5739
    -4.5509  -4.5213  -4.4869  -4.4789  -4.4433  -4.4109  -4.3957  -4.3743
    -4.3566  -4.3511  -4.3371  -4.2488  -4.1867  -4.1735  -4.1178  -4.0890
    -4.0634  -4.0206  -4.0078  -3.9666  -3.9389  -3.7117  -3.6245  -3.6088
    -3.6077  -3.5814  -3.5454  -3.4895  -3.4313  -3.4029  -3.3695  -3.2435
    -3.2042  -3.1905  -3.1858  -3.1509  -3.0673  -3.0414  -3.0119  -2.9793
    -2.9639  -2.9144  -2.9017  -2.8613  -2.8210  -2.7508  -2.7056  -2.6684
    -2.6362  -2.6028  -2.5917  -2.5652  -2.5360  -2.5316  -2.5048  -2.4855
    -2.4136  -2.4112  -2.3722  -2.3155  -2.2424  -2.2088  -2.1908  -2.1121
    -2.0338  -1.9827  -1.9591  -1.9387  -1.8610  -1.7441  -1.7183  -1.7094
    -1.6758  -1.6276  -1.5766  -1.5428  -1.4926  -1.4021  -1.2700  -1.2497
    -1.1814  -1.0853  -1.0643  -1.0441  -0.8231  -0.7316  -0.4192  -0.1603
    -0.1155  -0.0963   0.0627   0.0703   1.7044   1.7714   1.8341   1.8673
     1.8836   1.9149   1.9176   1.9867   2.0423   2.1113   2.1298

     the Fermi energy is     1.6434 ev

!    total energy              =   -3295.81873342 Ry
     estimated scf accuracy    <       0.00000005 Ry
     smearing contrib. (-TS)   =      -0.03294680 Ry
     internal energy E=F+TS    =   -3295.78578662 Ry

     The total energy is F=E-TS. E is the sum of the following terms:
     one-electron contribution =  -34382.90519932 Ry
     hartree contribution      =   17260.74936041 Ry
     xc contribution           =    -543.90391984 Ry
     ewald contribution        =   14370.26888250 Ry
     electric field correction =       0.00508963 Ry

     convergence has been achieved in  84 iterations

     Forces acting on atoms (cartesian axes, Ry/au):

     atom    1 type  1   force =     0.00000500    0.00790943    0.05044502
     atom    2 type  1   force =    -0.00000885    0.00034421   -0.00969814
     atom    3 type  1   force =    -0.00002617   -0.00471789   -0.00052447
     atom    4 type  1   force =     0.00005777    0.00282392    0.10762440
     atom    5 type  1   force =     0.00000469    0.00070061    0.00922292
     atom    6 type  1   force =    -0.00000683   -0.00160732    0.00013755
     atom    7 type  1   force =     0.06464382    0.00006753   -0.02898181
     atom    8 type  1   force =     0.00391012   -0.02785966    0.00323095
     atom    9 type  1   force =     0.00825870   -0.01832083    0.00240375
     atom   10 type  2   force =    -0.00004891   -0.00798995   -0.19370378
     atom   11 type  2   force =    -0.00002691    0.02062021   -0.00637048
     atom   12 type  2   force =    -0.00005366    0.02209285   -0.00301358
     atom   13 type  1   force =    -0.06473736   -0.00038591   -0.02892789
     atom   14 type  1   force =    -0.00390890   -0.02784025    0.00322638
     atom   15 type  1   force =    -0.00824965   -0.01830546    0.00239161
     atom   16 type  2   force =     0.00010089    0.00058134    0.06676065
     atom   17 type  2   force =     0.00002465    0.03326224    0.00614666
     atom   18 type  2   force =     0.00000348    0.02089949    0.00190512
     atom   19 type  1   force =     0.00000440    0.00225331    0.05630462
     atom   20 type  1   force =    -0.00000466   -0.00132339   -0.00686996
     atom   21 type  1   force =     0.00006000   -0.00139533    0.10884558
     atom   22 type  1   force =     0.00000767   -0.00024353    0.00986900
     atom   23 type  1   force =     0.00000957   -0.00481728    0.00114962
     atom   24 type  1   force =     0.06620504   -0.00051053   -0.02948056
     atom   25 type  1   force =     0.00419984   -0.03008811    0.00218919
     atom   26 type  1   force =     0.00997291   -0.02413828    0.00224692
     atom   27 type  2   force =    -0.00006676    0.01375282   -0.18652075
     atom   28 type  2   force =    -0.00001880    0.02334027   -0.00583022
     atom   29 type  2   force =    -0.00004413    0.01730032   -0.00913555
     atom   30 type  1   force =    -0.06631259   -0.00096100   -0.02943587
     atom   31 type  1   force =    -0.00419426   -0.03005900    0.00218885
     atom   32 type  1   force =    -0.00990874   -0.02411494    0.00223959
     atom   33 type  2   force =     0.00009723   -0.00141099    0.06833842
     atom   34 type  2   force =     0.00002168    0.03781938    0.00401819
     atom   35 type  2   force =    -0.00002581    0.03579290    0.00769790
     atom   36 type  1   force =     0.00001541    0.00056565    0.06526088
     atom   37 type  1   force =    -0.00001029    0.00226407   -0.01097564
     atom   38 type  1   force =    -0.00000141   -0.00085917    0.00175548
     atom   39 type  1   force =     0.00005885   -0.00143522    0.10680117
     atom   40 type  1   force =     0.00000088   -0.00039344    0.00776463
     atom   41 type  1   force =    -0.00000108   -0.00029634    0.00574453
     atom   42 type  1   force =     0.06733605   -0.00096957   -0.02904822
     atom   43 type  1   force =     0.00313293   -0.02830018    0.00236623
     atom   44 type  1   force =     0.00712618   -0.02150612    0.00454639
     atom   45 type  2   force =    -0.00006709   -0.00849538   -0.18086906
     atom   46 type  2   force =    -0.00000513    0.01746024   -0.00235664
     atom   47 type  2   force =    -0.00004461    0.02045316   -0.00638138
     atom   48 type  1   force =    -0.06743033   -0.00141717   -0.02900322
     atom   49 type  1   force =    -0.00310073   -0.02829828    0.00236332
     atom   50 type  1   force =    -0.00709864   -0.02146765    0.00451664
     atom   51 type  2   force =     0.00012417   -0.00305448    0.06677740
     atom   52 type  2   force =     0.00000398    0.03510520    0.00726700
     atom   53 type  2   force =    -0.00002351    0.02414303    0.00297967
     atom   54 type  3   force =     0.00011047   -0.00017637    0.00058041
     atom   55 type  4   force =    -0.00001664   -0.00012874    0.00091245
     atom   56 type  3   force =    -0.00003543    0.00070430    0.00034185
     atom   57 type  3   force =     0.00000252    0.00051872    0.00078625
     atom   58 type  4   force =     0.00012659    0.01432434   -0.00646284
     atom   59 type  3   force =    -0.00000458   -0.01479052    0.00581229
     atom   60 type  3   force =    -0.00042999    0.00132610   -0.00076480
     atom   61 type  3   force =     0.00028697    0.00125266   -0.00080463

     Total force =     0.462130     Total SCF correction =     0.000849
  @ DRIVER MODE: Message from server: STATUS
  @ DRIVER MODE: Message from server: GETFORCE
  @ DRIVER MODE: Returning v,forces,stress,ensemble

     Writing output data file ./calc.save/
  @ DRIVER MODE: Message from server: EXIT
  @ DRIVE MODE: Exiting

     General routines

     Parallel routines

   This run was terminated on:   5:16:54  19Oct2021

   JOB DONE.