     Program PWSCF v.6.7GPU starts on 15Sep2021 at 15:53:40

     R & G space division:  proc/nbgrp/npool/nimage =      10
     Reading input from /storage/home/hcoda1/3/ntian30/research/carbon/CxH_vib/H2O_calc/ads_slab/CHNHH2O_a/out_0001/pw.inp
Warning: card &CELL ignored
Warning: card   CELL_DYNAMICS='IPI', ignored
Warning: card / ignored

     Current dimensions of program PWSCF are:
     Max number of different atomic species (ntypx) = 10
     Max number of k-points (npk) =  40000
     Max angular momentum in pseudopotentials (lmaxx) =  3
     Presently no symmetry can be used with electric field

     Message from routine cell_base_init:
     DEPRECATED: use true lattice parameter, not A to a.u. conversion factor

     IMPORTANT: XC functional enforced from input :
     Exchange-correlation= BEEF-VDW
                           (   1   4  43  14   2   0   0)
     Any further DFT definition will be discarded
     Please, verify this is what you really want

  @ DRIVER MODE: Connecting to
 qe_1139763_2852628.sched-torque.pace.gatech.edunvzj0lyi_scratch
  using UNIX socket
  @ DRIVER MODE: Message from server: STATUS
  @ DRIVER MODE: Message from server: INIT
  @ DRIVER MODE: Receiving replica           0          -1
  @ DRIVER MODE: Receiving encoded integer          25
  @ DRIVER MODE:  SCF:  T  FORCE:  T  STRESS:  F  VC:  F  ENSEMBLE:  F
  @ DRIVER MODE:  SCF:  T  FORCE:  T  STRESS:  F  VC:  F  ENSEMBLE:  F

     Using Slab Decomposition

     bravais-lattice index     =            0
     lattice parameter (alat)  =       1.8897  a.u.
     unit-cell volume          =    6658.9804 (a.u.)^3
     number of atoms/cell      =           54
     number of atomic types    =            5
     number of electrons       =       397.00
     number of Kohn-Sham states=          208
     kinetic-energy cutoff     =      29.3995  Ry
     charge density cutoff     =     293.9946  Ry
     scf convergence threshold =      7.3E-08
     mixing beta               =       0.0500
     number of iterations used =            8  plain     mixing
     Exchange-correlation= BEEF-VDW
                           (   1   4  43  14   2   0   0)

     celldm(1)=   1.889726  celldm(2)=   0.000000  celldm(3)=   0.000000
     celldm(4)=   0.000000  celldm(5)=   0.000000  celldm(6)=   0.000000

     crystal axes: (cart. coord. in units of alat)
               a(1) = (   6.579727   0.000000   0.000000 )
               a(2) = (  -0.000775   5.961596   0.000000 )
               a(3) = (   0.000000   0.000000  25.155947 )

     reciprocal axes: (cart. coord. in units 2 pi/alat)
               b(1) = (  0.151982  0.000020  0.000000 )
               b(2) = (  0.000000  0.167740  0.000000 )
               b(3) = (  0.000000  0.000000  0.039752 )

     PseudoPot. # 1 for Ti read from file:
     /storage/coda1/p-amedford6/0/shared/rich_project_chbe-medford/medford-share/data/pseudos_module/espresso/nninc/pbe/van/Ti.UPF
     MD5 check sum: 8e4df49b7f0d34bbd5052bf3f5ea0213
     Pseudo is Ultrasoft, Zval = 12.0
     Generated by new atomic code, or converted to UPF format
     Using radial grid of  851 points,  6 beta functions with:
                l(1) =   0
                l(2) =   0
                l(3) =   1
                l(4) =   1
                l(5) =   2
                l(6) =   2
     Q(r) pseudized with  8 coefficients,  rinner =    1.000   1.000   1.000
                                                       1.000   1.000

     PseudoPot. # 2 for O  read from file:
     /storage/coda1/p-amedford6/0/shared/rich_project_chbe-medford/medford-share/data/pseudos_module/espresso/nninc/pbe/van/O.UPF
     MD5 check sum: 78c19812648e8988a0fe644b0f25305e
     Pseudo is Ultrasoft, Zval =  6.0
     Generated by new atomic code, or converted to UPF format
     Using radial grid of  737 points,  4 beta functions with:
                l(1) =   0
                l(2) =   0
                l(3) =   1
                l(4) =   1
     Q(r) pseudized with  8 coefficients,  rinner =    0.800   0.800   0.800

     PseudoPot. # 3 for N  read from file:
     /storage/coda1/p-amedford6/0/shared/rich_project_chbe-medford/medford-share/data/pseudos_module/espresso/nninc/pbe/van/N.UPF
     MD5 check sum: 90d10febe142ad51ac9d5be1deb811c4
     Pseudo is Ultrasoft, Zval =  5.0
     Generated by new atomic code, or converted to UPF format
     Using radial grid of  729 points,  4 beta functions with:
                l(1) =   0
                l(2) =   0
                l(3) =   1
                l(4) =   1
     Q(r) pseudized with  8 coefficients,  rinner =    0.800   0.800   0.800

     PseudoPot. # 4 for C  read from file:
     /storage/coda1/p-amedford6/0/shared/rich_project_chbe-medford/medford-share/data/pseudos_module/espresso/nninc/pbe/van/C.UPF
     MD5 check sum: 1a69bf6b8db32088f5b2163dbdb77a27
     Pseudo is Ultrasoft, Zval =  4.0
     Generated by new atomic code, or converted to UPF format
     Using radial grid of  721 points,  4 beta functions with:
                l(1) =   0
                l(2) =   0
                l(3) =   1
                l(4) =   1
     Q(r) pseudized with  8 coefficients,  rinner =    0.800   0.800   0.800

     PseudoPot. # 5 for H  read from file:
     /storage/coda1/p-amedford6/0/shared/rich_project_chbe-medford/medford-share/data/pseudos_module/espresso/nninc/pbe/van/H.UPF
     MD5 check sum: b5ee9d7bfd3a09ee7748110bda690ff7
     Pseudo is Ultrasoft, Zval =  1.0
     Generated by new atomic code, or converted to UPF format
     Using radial grid of  615 points,  1 beta functions with:
                l(1) =   0
     Q(r) pseudized with  8 coefficients,  rinner =    0.800

     atomic species   valence    mass     pseudopotential
        Ti1           12.00    47.86700     Ti( 1.00)
        O1             6.00    15.99900     O ( 1.00)
        N1             5.00    14.00700     N ( 1.00)
        C1             4.00    12.01100     C ( 1.00)
        H1             1.00     1.00800     H ( 1.00)

     No symmetry found

   Cartesian axes

     site n.     atom                  positions (alat units)
         1           Ti1 tau(   1) = (   0.0004258   2.9801865   6.0000000  )
         2           Ti1 tau(   2) = (   3.2906075   1.4906267   6.0002472  )
         3           O1  tau(   3) = (   0.0006271   0.0005054   7.9858123  )
         4           O1  tau(   4) = (   3.2906025   0.0005020   7.3038282  )
         5           O1  tau(   5) = (   4.5942328   1.4918067   9.2879030  )
         6           O1  tau(   6) = (   1.9868534   1.4903216   9.2879459  )
         7           Ti1 tau(   7) = (   3.2907910   2.8959150   9.1758416  )
         8           Ti1 tau(   8) = (   0.0015273   1.4827037   9.2680791  )
         9           O1  tau(   9) = (   3.2914171   5.9475995  11.3455371  )
        10           O1  tau(  10) = (   0.0116148   5.9584955  10.6183126  )
        11           O1  tau(  11) = (   1.3057669   1.4807986  12.6390077  )
        12           O1  tau(  12) = (   5.3035249   1.4749620  12.6227664  )
        13           Ti1 tau(  13) = (   6.5294082   2.9362577  12.6231083  )
        14           Ti1 tau(  14) = (   3.2175537   1.4615748  12.5070279  )
        15           O1  tau(  15) = (   6.5585639   5.9474800  14.6380151  )
        16           O1  tau(  16) = (   3.3125803   5.9531145  13.9695519  )
        17           O1  tau(  17) = (   4.5393379   1.5011389  16.1071157  )
        18           O1  tau(  18) = (   2.0094023   1.5044898  16.0307267  )
        19           Ti1 tau(  19) = (   3.2760958   2.9523363  15.6877793  )
        20           Ti1 tau(  20) = (   0.0277933   1.3451898  16.0452527  )
        21           O1  tau(  21) = (   3.2904802   0.0005063   4.7018136  )
        22           O1  tau(  22) = (   0.0198929   5.9263875  17.1601691  )
        23           O1  tau(  23) = (   1.3043587   1.4918075   6.0039043  )
        24           O1  tau(  24) = (   5.2767064   1.4903225   6.0039473  )
        25           Ti1 tau(  25) = (   0.0000382   5.9609847   6.0000000  )
        26           Ti1 tau(  26) = (   3.2902200   4.4714249   6.0002472  )
        27           O1  tau(  27) = (   0.0002396   2.9813036   7.9858123  )
        28           O1  tau(  28) = (   3.2902150   2.9813002   7.3038282  )
        29           O1  tau(  29) = (   4.5938453   4.4726049   9.2879030  )
        30           O1  tau(  30) = (   1.9864658   4.4711199   9.2879459  )
        31           Ti1 tau(  31) = (   3.2891106   5.8743827   9.1763621  )
        32           Ti1 tau(  32) = (   0.0006254   4.4649316   9.2693709  )
        33           O1  tau(  33) = (   3.2862706   2.9662616  11.3468726  )
        34           O1  tau(  34) = (   0.0092240   2.9805883  10.6323155  )
        35           O1  tau(  35) = (   1.3102706   4.4726941  12.6361575  )
        36           O1  tau(  36) = (   5.3014905   4.4644878  12.6181669  )
        37           Ti1 tau(  37) = (   6.5311680   5.9227251  12.5202533  )
        38           Ti1 tau(  38) = (   3.2191334   4.4553394  12.5017427  )
        39           O1  tau(  39) = (   6.5614274   2.9920157  14.6796082  )
        40           O1  tau(  40) = (   3.3146075   2.9603188  13.8993185  )
        41           O1  tau(  41) = (   4.5484517   4.4144432  16.0509510  )
        42           O1  tau(  42) = (   2.0146171   4.4214036  15.9967612  )
        43           Ti1 tau(  43) = (   3.3303817   5.9274347  15.8100502  )
        44           Ti1 tau(  44) = (   0.0273359   4.4939047  15.8144843  )
        45           O1  tau(  45) = (   3.2900926   2.9813045   4.7018136  )
        46           O1  tau(  46) = (   1.3039711   4.4726057   6.0039043  )
        47           O1  tau(  47) = (   5.2763189   4.4711207   6.0039473  )
        48           N1  tau(  48) = (   6.5034970   2.9613368  17.6459670  )
        49           C1  tau(  49) = (   0.7931072   3.0267964  18.6255283  )
        50           H1  tau(  50) = (   1.8307262   2.9311331  18.2395185  )
        51           H1  tau(  51) = (   5.5494773   3.0666896  17.9713127  )
        52           O1  tau(  52) = (   3.1855344   5.8058271  18.1612476  )
        53           H1  tau(  53) = (   3.8461454   0.3022996  18.7034462  )
        54           H1  tau(  54) = (   2.3120581   0.0053998  18.5533318  )

     number of k points=    10  Fermi-Dirac smearing, width (Ry)=  0.0073
                       cart. coord. in units 2pi/alat
        k(    1) = (   0.0000000   0.0000000   0.0000000), wk =   0.1250000
        k(    2) = (   0.0000000   0.0419351   0.0000000), wk =   0.2500000
        k(    3) = (   0.0000000  -0.0838702   0.0000000), wk =   0.1250000
        k(    4) = (   0.0379955   0.0000049   0.0000000), wk =   0.2500000
        k(    5) = (   0.0379955   0.0419400   0.0000000), wk =   0.2500000
        k(    6) = (   0.0379955  -0.0838652   0.0000000), wk =   0.2500000
        k(    7) = (   0.0379955  -0.0419301   0.0000000), wk =   0.2500000
        k(    8) = (  -0.0759910  -0.0000099   0.0000000), wk =   0.1250000
        k(    9) = (  -0.0759910   0.0419252   0.0000000), wk =   0.2500000
        k(   10) = (  -0.0759910  -0.0838800   0.0000000), wk =   0.1250000

     Initial potential from superposition of free atoms

     starting charge  380.99916, renormalised to  397.00000

     negative rho (up, down):  1.754E-02 0.000E+00

     %%%%%%%%%%%%%%%%%%%%%%%%%%%%%%%%%%%%%%%%%%%%%%%%%%%%%%%%%%%%%%%%%%%%%%%%
     %                                                                      %
     % You are using vdW-DF, which was implemented by the Thonhauser group. %
     % Please cite the following two papers that made this development      %
     % possible and the two reviews that describe the various versions:     %
     %                                                                      %
     %   T. Thonhauser et al., PRL 115, 136402 (2015).                      %
     %   T. Thonhauser et al., PRB 76, 125112 (2007).                       %
     %   K. Berland et al., Rep. Prog. Phys. 78, 066501 (2015).             %
     %   D.C. Langreth et al., J. Phys.: Condens. Matter 21, 084203 (2009). %
     %                                                                      %
     %                                                                      %
     % If you are calculating the stress with vdW-DF, please also cite:     %
     %                                                                      %
     %   R. Sabatini et al., J. Phys.: Condens. Matter 24, 424209 (2012).   %
     %                                                                      %
     %%%%%%%%%%%%%%%%%%%%%%%%%%%%%%%%%%%%%%%%%%%%%%%%%%%%%%%%%%%%%%%%%%%%%%%%

     Adding external electric field

     Computed dipole along edir(3) :
        Dipole               -9.1667 Ry au,        -23.2993 Debye
        Dipole field         -0.0173 Ry au,

        Potential amp.        1.6036 Ry
        Total length         46.3494 bohr

     Starting wfcs are  300 atomic wfcs
  @ DRIVER MODE: Message from server: STATUS
  @ DRIVER MODE: Message from server: POSDATA
  @ DRIVER MODE: Reading and sharing cell
  @ DRIVER MODE: Reading and sharing positions
  @ DRIVER MODE: Received positions

     Self-consistent Calculation

     iteration #  1     ecut=    29.40 Ry     beta= 0.05
     Davidson diagonalization with overlap
     c_bands:  1 eigenvalues not converged
     c_bands:  1 eigenvalues not converged
     c_bands:  1 eigenvalues not converged
     c_bands:  1 eigenvalues not converged
     c_bands:  1 eigenvalues not converged
     c_bands:  1 eigenvalues not converged
     c_bands:  1 eigenvalues not converged
     c_bands:  1 eigenvalues not converged
     c_bands:  1 eigenvalues not converged
     ethr =  1.00E-05,  avg # of iterations = 19.8

[...]

     total energy              =   -2547.25574793 Ry
     estimated scf accuracy    <    4505.02217217 Ry

     iteration #  2     ecut=    29.40 Ry     beta= 0.05
     Davidson diagonalization with overlap
     ethr =  1.00E-02,  avg # of iterations = 25.1

[...]

     iteration # 71     ecut=    29.40 Ry     beta= 0.05
     Davidson diagonalization with overlap
     c_bands:  1 eigenvalues not converged
     ethr =  1.05E-10,  avg # of iterations = 14.5

[...]

     total energy              =   -2952.61546841 Ry
     estimated scf accuracy    <       0.00000013 Ry

     iteration # 72     ecut=    29.40 Ry     beta= 0.05
     Davidson diagonalization with overlap
     ethr =  3.24E-11,  avg # of iterations =  8.1

     negative rho (up, down):  1.616E-02 0.000E+00

     Adding external electric field

     Computed dipole along edir(3) :
        Dipole                0.4047 Ry au,          1.0287 Debye
        Dipole field          0.0008 Ry au,

        Potential amp.       -0.0708 Ry
        Total length         46.3494 bohr

     End of self-consistent calculation

          k = 0.0000 0.0000 0.0000 ( 18029 PWs)   bands (ev):

   -56.0246 -56.0003 -55.9930 -55.9905 -55.9640 -55.8707 -55.8384 -55.8295
   -55.8255 -55.8128 -55.8041 -55.7793 -55.7470 -55.5771 -55.0103 -54.9763
   -32.5461 -32.5085 -32.4014 -32.3702 -32.3372 -32.3167 -32.3076 -32.3028
   -32.2681 -32.2372 -32.2256 -32.2188 -32.2073 -32.1970 -32.1792 -32.1771
   -32.1525 -32.1303 -32.1291 -32.1264 -32.0933 -32.0820 -32.0733 -32.0411
   -32.0304 -32.0282 -32.0242 -32.0206 -32.0175 -32.0125 -31.9972 -31.9852
   -31.9849 -31.9833 -31.9713 -31.9656 -31.9598 -31.9431 -31.9239 -31.8381
   -31.8203 -31.7342 -31.4178 -31.3285 -31.3061 -31.2344 -31.1479 -31.0369
   -19.2329 -16.7571 -16.5169 -16.3407 -16.2019 -16.1711 -15.9546 -15.8525
   -15.7813 -15.7256 -15.6585 -15.6064 -15.5728 -15.5637 -15.5471 -15.5218
   -15.4993 -15.4811 -15.4577 -15.4438 -15.4372 -15.3905 -15.3748 -15.3666
   -15.3543 -15.2473 -15.1851 -15.1609 -15.1155 -15.0927 -14.7364 -13.5125
   -13.3959  -7.8971  -7.0850  -4.1546  -4.0569  -3.9859  -3.9444  -3.9299
    -3.7734  -3.6943  -3.5361  -3.5192  -3.3100  -3.2896  -3.2221  -3.1960
    -3.1353  -3.0727  -2.9772  -2.9334  -2.8564  -2.8411  -2.8284  -2.8060
    -2.7866  -2.7695  -2.7279  -2.6648  -2.5939  -2.5620  -2.4408  -2.4210
    -2.4134  -2.3455  -2.3402  -2.3248  -2.3139  -2.2842  -2.2617  -2.2589
    -2.1862  -2.1532  -2.0851  -2.0322  -1.9639  -1.8538  -1.7023  -1.6407
    -1.5886  -1.5260  -1.5035  -1.4689  -1.4464  -1.4225  -1.3547  -1.3050
    -1.2399  -1.2276  -1.1581  -1.0659  -0.9941  -0.9558  -0.8852  -0.8246
    -0.8023  -0.7749  -0.7664  -0.7575  -0.7072  -0.5359  -0.4786  -0.4662
    -0.4255  -0.3437  -0.3098  -0.3035  -0.2540  -0.2463  -0.2060  -0.1178
    -0.0988  -0.0633  -0.0455  -0.0315   0.0009   0.0228   0.1758   0.1967
     0.2382   0.2598   0.3652   0.4692   0.5360   0.6227   0.7175   0.9359
     1.0121   1.0892   1.2030   1.5841   1.6302   2.7781   3.1033   3.1921
     3.2303   3.2363   3.2706   3.3407   3.5575   3.5885   3.6060   3.6615

[...]

          k = 0.0380-0.0419 0.0000 ( 17876 PWs)   bands (ev):

[...]

          k =-0.0760-0.0000 0.0000 ( 17886 PWs)   bands (ev):

[...]

          k =-0.0760-0.0839 0.0000 ( 17948 PWs)   bands (ev):

   -56.0083 -56.0067 -55.9916 -55.9841 -55.9795 -55.8614 -55.8389 -55.8271
   -55.8218 -55.8199 -55.7967 -55.7957 -55.7454 -55.5786 -54.9933 -54.9932
   -32.3599 -32.3440 -32.3243 -32.3232 -32.3028 -32.3014 -32.2803 -32.2725
   -32.2532 -32.2205 -32.2057 -32.2008 -32.1964 -32.1752 -32.1474 -32.1424
   -32.1376 -32.1358 -32.1344 -32.1322 -32.1313 -32.1280 -32.1279 -32.1262
   -32.0794 -32.0604 -32.0518 -32.0397 -32.0283 -32.0260 -32.0247 -32.0228
   -32.0217 -32.0117 -32.0099 -31.9986 -31.9929 -31.9771 -31.9712 -31.8424
   -31.8252 -31.8206 -31.3189 -31.3188 -31.2306 -31.2304 -31.1912 -31.1912
   -19.2320 -16.2160 -16.0966 -16.0415 -15.9491 -15.9229 -15.9091 -15.8348
   -15.7790 -15.7290 -15.7197 -15.6951 -15.6810 -15.6693 -15.6147 -15.5863
   -15.5624 -15.5515 -15.5072 -15.4953 -15.4873 -15.4737 -15.4717 -15.4655
   -15.4219 -15.3569 -15.3537 -15.3497 -15.2096 -15.1002 -15.0082 -13.4978
   -13.4975  -7.9063  -7.0865  -3.9144  -3.6311  -3.4938  -3.3169  -3.2664
    -3.1710  -3.1675  -3.1244  -3.1050  -2.9947  -2.9357  -2.9226  -2.9005
    -2.8602  -2.8505  -2.8438  -2.8388  -2.8041  -2.8026  -2.7652  -2.7470
    -2.7153  -2.7025  -2.6961  -2.6899  -2.6662  -2.6472  -2.6103  -2.5918
    -2.5754  -2.5456  -2.5079  -2.3688  -2.3046  -2.2277  -2.2180  -2.1805
    -2.1678  -2.1467  -2.1039  -2.0867  -2.0578  -1.9718  -1.9029  -1.7482
    -1.7304  -1.7055  -1.6754  -1.6114  -1.5205  -1.4980  -1.4676  -1.4238
    -1.4039  -1.3431  -1.3275  -1.2962  -1.2419  -1.1784  -1.1418  -1.1142
    -1.0682  -1.0044  -0.9840  -0.9627  -0.9484  -0.8867  -0.7800  -0.7735
    -0.7677  -0.7179  -0.7025  -0.6729  -0.6526  -0.5600  -0.4808  -0.4201
    -0.3235  -0.1591  -0.0733   0.0185   0.0553   0.1003   0.1446   0.1871
     0.2831   0.2851   0.3599   0.3887   0.4068   0.4876   0.4984   0.5219
     0.6822   1.3746   1.3758   1.4497   1.4503   2.8110   3.3627   3.4072
     3.4415   3.4879   3.5908   3.6108   3.6395   3.6414   3.7202   3.7681

     the Fermi energy is     3.1065 ev

!    total energy              =   -2952.61549980 Ry
     estimated scf accuracy    <       0.00000007 Ry
     smearing contrib. (-TS)   =      -0.02575952 Ry
     internal energy E=F+TS    =   -2952.58974028 Ry

     The total energy is F=E-TS. E is the sum of the following terms:
     one-electron contribution =  -24509.40260457 Ry
     hartree contribution      =   12341.88505632 Ry
     xc contribution           =    -487.96149974 Ry
     ewald contribution        =    9702.88899863 Ry
     electric field correction =       0.00030909 Ry

     convergence has been achieved in  72 iterations

     Forces acting on atoms (cartesian axes, Ry/au):

     atom    1 type  1   force =    -0.00003954   -0.00029903    0.09593201
     atom    2 type  1   force =     0.00004869   -0.00049188   -0.17610461
     atom    3 type  2   force =     0.00009919   -0.00009175   -0.02430527
     atom    4 type  2   force =     0.00000926   -0.00163025    0.05393531
     atom    5 type  2   force =    -0.01180331   -0.00142038    0.00392166
     atom    6 type  2   force =     0.01322982   -0.00102590    0.00316719
     atom    7 type  1   force =     0.00033551    0.00068084   -0.00764158
     atom    8 type  1   force =     0.00026447    0.01496742    0.02334724
     atom    9 type  2   force =    -0.00005281    0.00018816    0.00009863
     atom   10 type  2   force =    -0.00220183    0.00050182   -0.01746207
     atom   11 type  2   force =     0.00047914   -0.00027502   -0.00022342
     atom   12 type  2   force =    -0.00085748   -0.00017687   -0.00002666
     atom   13 type  1   force =     0.00043839    0.00044333    0.00016389
     atom   14 type  1   force =    -0.00017783    0.00002795    0.00091296
     atom   15 type  2   force =    -0.00040904   -0.00000411   -0.00079312
     atom   16 type  2   force =    -0.00000510    0.00051104   -0.00032560
     atom   17 type  2   force =    -0.00085813    0.00012117   -0.00010261
     atom   18 type  2   force =     0.00026526    0.00022165   -0.00025608
     atom   19 type  1   force =     0.00081958    0.00053689   -0.00046549
     atom   20 type  1   force =    -0.00064389    0.00079789    0.00055125
     atom   21 type  2   force =     0.00006238   -0.00000102    0.10334567
     atom   22 type  2   force =    -0.00022438   -0.00018662    0.00055447
     atom   23 type  2   force =    -0.07135935   -0.00011022   -0.02762848
     atom   24 type  2   force =     0.07127801    0.00034346   -0.02769949
     atom   25 type  1   force =     0.00022375   -0.00029011    0.09575327
     atom   26 type  1   force =     0.00011965   -0.00028949   -0.17604017
     atom   27 type  2   force =     0.00013805   -0.00029021   -0.02320113
     atom   28 type  2   force =     0.00000190   -0.00132820    0.05369383
     atom   29 type  2   force =    -0.01214842    0.00038972    0.00377373
     atom   30 type  2   force =     0.01353431    0.00100648    0.00301618
     atom   31 type  1   force =     0.00024033    0.00375488   -0.01142387
     atom   32 type  1   force =     0.00043228   -0.01661137    0.02316008
     atom   33 type  2   force =     0.00017115    0.00009765   -0.00033654
     atom   34 type  2   force =    -0.00190522   -0.00010216   -0.02074920
     atom   35 type  2   force =     0.00047428    0.00006859    0.00005578
     atom   36 type  2   force =    -0.00090474   -0.00000750    0.00030121
     atom   37 type  1   force =     0.00079620    0.00004781   -0.00020302
     atom   38 type  1   force =     0.00001145    0.00014764    0.00042316
     atom   39 type  2   force =    -0.00008607    0.00042009   -0.00069767
     atom   40 type  2   force =    -0.00038615   -0.00007012   -0.00022458
     atom   41 type  2   force =    -0.00087095    0.00044393    0.00009149
     atom   42 type  2   force =    -0.00000013    0.00014818    0.00016612
     atom   43 type  1   force =     0.00051715   -0.00008711    0.00041433
     atom   44 type  1   force =    -0.00018672   -0.00061254    0.00082431
     atom   45 type  2   force =     0.00006864   -0.00000047    0.10330842
     atom   46 type  2   force =    -0.07135236   -0.00005087   -0.02761175
     atom   47 type  2   force =     0.07126926    0.00038283   -0.02768696
     atom   48 type  3   force =     0.02534864   -0.00016756    0.00233355
     atom   49 type  4   force =    -0.00946465   -0.00037208   -0.00681523
     atom   50 type  5   force =    -0.00140810   -0.00075974   -0.00117470
     atom   51 type  5   force =    -0.01243330    0.00086265    0.00532408
     atom   52 type  2   force =    -0.00020692   -0.00019002    0.00135510
     atom   53 type  5   force =    -0.00078659   -0.00026836   -0.00021839
     atom   54 type  5   force =     0.00009628    0.00009889   -0.00050724

     Total force =     0.369151     Total SCF correction =     0.000621
  @ DRIVER MODE: Message from server: STATUS
  @ DRIVER MODE: Message from server: GETFORCE
  @ DRIVER MODE: Returning v,forces,stress,ensemble

     Writing output data file ./calc.save/
  @ DRIVER MODE: Message from server: EXIT
  @ DRIVE MODE: Exiting

     General routines

     Parallel routines

   This run was terminated on:  16:13: 1  15Sep2021

   JOB DONE.