     Program PWSCF v.6.7GPU starts on 23Aug2021 at 16: 3:36

     R & G space division:  proc/nbgrp/npool/nimage =       6
     Reading input from /storage/home/hcoda1/3/ntian30/research/carbon/CH_vib/ads_slab/CHNH_a/out_0007/pw.inp
Warning: card &CELL ignored
Warning: card   CELL_DYNAMICS='IPI', ignored
Warning: card / ignored

     Current dimensions of program PWSCF are:
     Max number of different atomic species (ntypx) = 10
     Max number of k-points (npk) =  40000
     Max angular momentum in pseudopotentials (lmaxx) =  3
     Presently no symmetry can be used with electric field

     Message from routine cell_base_init:
     DEPRECATED: use true lattice parameter, not A to a.u. conversion factor

     IMPORTANT: XC functional enforced from input :
     Exchange-correlation= BEEF-VDW
                           (   1   4  43  14   2   0   0)
     Any further DFT definition will be discarded
     Please, verify this is what you really want

  @ DRIVER MODE: Connecting to
 qe_1139763_2632799.sched-torque.pace.gatech.edul6yxpmff_scratch
  using UNIX socket
  @ DRIVER MODE: Message from server: STATUS
  @ DRIVER MODE: Message from server: INIT
  @ DRIVER MODE: Receiving replica           0          -1
  @ DRIVER MODE: Receiving encoded integer          25
  @ DRIVER MODE:  SCF:  T  FORCE:  T  STRESS:  F  VC:  F  ENSEMBLE:  F
  @ DRIVER MODE:  SCF:  T  FORCE:  T  STRESS:  F  VC:  F  ENSEMBLE:  F

     Using Slab Decomposition

     bravais-lattice index     =            0
     lattice parameter (alat)  =       1.8897  a.u.
     unit-cell volume          =    6658.9804 (a.u.)^3
     number of atoms/cell      =           51
     number of atomic types    =            5
     number of electrons       =       389.00
     number of Kohn-Sham states=          204
     kinetic-energy cutoff     =      29.3995  Ry
     charge density cutoff     =     293.9946  Ry
     scf convergence threshold =      7.3E-08
     mixing beta               =       0.0500
     number of iterations used =            8  plain     mixing
     Exchange-correlation= BEEF-VDW
                           (   1   4  43  14   2   0   0)

     celldm(1)=   1.889726  celldm(2)=   0.000000  celldm(3)=   0.000000
     celldm(4)=   0.000000  celldm(5)=   0.000000  celldm(6)=   0.000000

     crystal axes: (cart. coord. in units of alat)
               a(1) = (   6.579727   0.000000   0.000000 )
               a(2) = (  -0.000775   5.961596   0.000000 )
               a(3) = (   0.000000   0.000000  25.155947 )

     reciprocal axes: (cart. coord. in units 2 pi/alat)
               b(1) = (  0.151982  0.000020  0.000000 )
               b(2) = (  0.000000  0.167740  0.000000 )
               b(3) = (  0.000000  0.000000  0.039752 )

     PseudoPot. # 1 for Ti read from file:
     /storage/coda1/p-amedford6/0/shared/rich_project_chbe-medford/medford-share/data/pseudos_module/espresso/nninc/pbe/van/Ti.UPF
     MD5 check sum: 8e4df49b7f0d34bbd5052bf3f5ea0213
     Pseudo is Ultrasoft, Zval = 12.0
     Generated by new atomic code, or converted to UPF format
     Using radial grid of  851 points,  6 beta functions with:
                l(1) =   0
                l(2) =   0
                l(3) =   1
                l(4) =   1
                l(5) =   2
                l(6) =   2
     Q(r) pseudized with  8 coefficients,  rinner =    1.000   1.000   1.000
                                                       1.000   1.000

     PseudoPot. # 2 for O  read from file:
     /storage/coda1/p-amedford6/0/shared/rich_project_chbe-medford/medford-share/data/pseudos_module/espresso/nninc/pbe/van/O.UPF
     MD5 check sum: 78c19812648e8988a0fe644b0f25305e
     Pseudo is Ultrasoft, Zval =  6.0
     Generated by new atomic code, or converted to UPF format
     Using radial grid of  737 points,  4 beta functions with:
                l(1) =   0
                l(2) =   0
                l(3) =   1
                l(4) =   1
     Q(r) pseudized with  8 coefficients,  rinner =    0.800   0.800   0.800

     PseudoPot. # 3 for N  read from file:
     /storage/coda1/p-amedford6/0/shared/rich_project_chbe-medford/medford-share/data/pseudos_module/espresso/nninc/pbe/van/N.UPF
     MD5 check sum: 90d10febe142ad51ac9d5be1deb811c4
     Pseudo is Ultrasoft, Zval =  5.0
     Generated by new atomic code, or converted to UPF format
     Using radial grid of  729 points,  4 beta functions with:
                l(1) =   0
                l(2) =   0
                l(3) =   1
                l(4) =   1
     Q(r) pseudized with  8 coefficients,  rinner =    0.800   0.800   0.800

     PseudoPot. # 4 for C  read from file:
     /storage/coda1/p-amedford6/0/shared/rich_project_chbe-medford/medford-share/data/pseudos_module/espresso/nninc/pbe/van/C.UPF
     MD5 check sum: 1a69bf6b8db32088f5b2163dbdb77a27
     Pseudo is Ultrasoft, Zval =  4.0
     Generated by new atomic code, or converted to UPF format
     Using radial grid of  721 points,  4 beta functions with:
                l(1) =   0
                l(2) =   0
                l(3) =   1
                l(4) =   1
     Q(r) pseudized with  8 coefficients,  rinner =    0.800   0.800   0.800

     PseudoPot. # 5 for H  read from file:
     /storage/coda1/p-amedford6/0/shared/rich_project_chbe-medford/medford-share/data/pseudos_module/espresso/nninc/pbe/van/H.UPF
     MD5 check sum: b5ee9d7bfd3a09ee7748110bda690ff7
     Pseudo is Ultrasoft, Zval =  1.0
     Generated by new atomic code, or converted to UPF format
     Using radial grid of  615 points,  1 beta functions with:
                l(1) =   0
     Q(r) pseudized with  8 coefficients,  rinner =    0.800

     atomic species   valence    mass     pseudopotential
        Ti1           12.00    47.86700     Ti( 1.00)
        O1             6.00    15.99900     O ( 1.00)
        N1             5.00    14.00700     N ( 1.00)
        C1             4.00    12.01100     C ( 1.00)
        H1             1.00     1.00800     H ( 1.00)

     No symmetry found

   Cartesian axes

     site n.     atom                  positions (alat units)
         1           Ti1 tau(   1) = (   0.0004258   2.9801865   6.0000000  )
         2           Ti1 tau(   2) = (   3.2906075   1.4906267   6.0002472  )
         3           O1  tau(   3) = (   0.0006271   0.0005054   7.9858123  )
         4           O1  tau(   4) = (   3.2906025   0.0005020   7.3038282  )
         5           O1  tau(   5) = (   4.5942328   1.4918067   9.2879030  )
         6           O1  tau(   6) = (   1.9868534   1.4903216   9.2879459  )
         7           Ti1 tau(   7) = (   3.2907910   2.8959150   9.1758416  )
         8           Ti1 tau(   8) = (   0.0015273   1.4827037   9.2680791  )
         9           O1  tau(   9) = (   3.3107583   5.9394213  11.3440837  )
        10           O1  tau(  10) = (   0.0116148   5.9584955  10.6183126  )
        11           O1  tau(  11) = (   1.3209705   1.4681434  12.6387851  )
        12           O1  tau(  12) = (   5.3117763   1.4689694  12.6372993  )
        13           Ti1 tau(  13) = (   6.5586693   2.9297660  12.6634068  )
        14           Ti1 tau(  14) = (   3.2703198   1.4638114  12.4955107  )
        15           O1  tau(  15) = (   0.0083729   5.9498784  14.6531507  )
        16           O1  tau(  16) = (   3.3267446   5.9373244  13.9471573  )
        17           O1  tau(  17) = (   4.5400383   1.4607670  16.1300196  )
        18           O1  tau(  18) = (   2.0562451   1.4605895  16.0859588  )
        19           Ti1 tau(  19) = (   3.3219294   2.9366742  15.7081325  )
        20           Ti1 tau(  20) = (   0.0794022   1.3719971  16.1804440  )
        21           O1  tau(  21) = (   3.2904802   0.0005063   4.7018136  )
        22           O1  tau(  22) = (   0.0048811   5.8540159  17.1722642  )
        23           O1  tau(  23) = (   1.3043587   1.4918075   6.0039043  )
        24           O1  tau(  24) = (   5.2767064   1.4903225   6.0039473  )
        25           Ti1 tau(  25) = (   0.0000382   5.9609847   6.0000000  )
        26           Ti1 tau(  26) = (   3.2902200   4.4714249   6.0002472  )
        27           O1  tau(  27) = (   0.0002396   2.9813036   7.9858123  )
        28           O1  tau(  28) = (   3.2902150   2.9813002   7.3038282  )
        29           O1  tau(  29) = (   4.5938453   4.4726049   9.2879030  )
        30           O1  tau(  30) = (   1.9864658   4.4711199   9.2879459  )
        31           Ti1 tau(  31) = (   3.2891106   5.8743827   9.1763621  )
        32           Ti1 tau(  32) = (   0.0006254   4.4649316   9.2693709  )
        33           O1  tau(  33) = (   3.3036409   2.9595551  11.3414423  )
        34           O1  tau(  34) = (   0.0092240   2.9805883  10.6323155  )
        35           O1  tau(  35) = (   1.3251634   4.4629088  12.6456700  )
        36           O1  tau(  36) = (   5.3099897   4.4533368  12.6426351  )
        37           Ti1 tau(  37) = (   0.0071655   5.9203210  12.5194715  )
        38           Ti1 tau(  38) = (   3.2774562   4.4456010  12.4944480  )
        39           O1  tau(  39) = (   0.0172281   2.9510719  14.7337574  )
        40           O1  tau(  40) = (   3.3230371   2.9488945  13.9167408  )
        41           O1  tau(  41) = (   4.5572773   4.4147185  16.0816828  )
        42           O1  tau(  42) = (   2.0601761   4.4202290  16.0727324  )
        43           Ti1 tau(  43) = (   3.3574729   5.9210026  15.7440268  )
        44           Ti1 tau(  44) = (   0.0706454   4.5402764  15.7844247  )
        45           O1  tau(  45) = (   3.2900926   2.9813045   4.7018136  )
        46           O1  tau(  46) = (   1.3039711   4.4726057   6.0039043  )
        47           O1  tau(  47) = (   5.2763189   4.4711207   6.0039473  )
        48           N1  tau(  48) = (   6.3928749   2.8496863  17.7411295  )
        49           C1  tau(  49) = (   0.6135525   2.6789418  18.7295412  )
        50           H1  tau(  50) = (   1.5351458   2.1120716  18.4733693  )
        51           H1  tau(  51) = (   5.5197072   3.3230476  17.9821812  )

     number of k points=    10  Fermi-Dirac smearing, width (Ry)=  0.0073
                       cart. coord. in units 2pi/alat
        k(    1) = (   0.0000000   0.0000000   0.0000000), wk =   0.1250000
        k(    2) = (   0.0000000   0.0419351   0.0000000), wk =   0.2500000
        k(    3) = (   0.0000000  -0.0838702   0.0000000), wk =   0.1250000
        k(    4) = (   0.0379955   0.0000049   0.0000000), wk =   0.2500000
        k(    5) = (   0.0379955   0.0419400   0.0000000), wk =   0.2500000
        k(    6) = (   0.0379955  -0.0838652   0.0000000), wk =   0.2500000
        k(    7) = (   0.0379955  -0.0419301   0.0000000), wk =   0.2500000
        k(    8) = (  -0.0759910  -0.0000099   0.0000000), wk =   0.1250000
        k(    9) = (  -0.0759910   0.0419252   0.0000000), wk =   0.2500000
        k(   10) = (  -0.0759910  -0.0838800   0.0000000), wk =   0.1250000

     Initial potential from superposition of free atoms

     starting charge  372.99918, renormalised to  389.00000

     negative rho (up, down):  1.910E-02 0.000E+00

     %%%%%%%%%%%%%%%%%%%%%%%%%%%%%%%%%%%%%%%%%%%%%%%%%%%%%%%%%%%%%%%%%%%%%%%%
     %                                                                      %
     % You are using vdW-DF, which was implemented by the Thonhauser group. %
     % Please cite the following two papers that made this development      %
     % possible and the two reviews that describe the various versions:     %
     %                                                                      %
     %   T. Thonhauser et al., PRL 115, 136402 (2015).                      %
     %   T. Thonhauser et al., PRB 76, 125112 (2007).                       %
     %   K. Berland et al., Rep. Prog. Phys. 78, 066501 (2015).             %
     %   D.C. Langreth et al., J. Phys.: Condens. Matter 21, 084203 (2009). %
     %                                                                      %
     %                                                                      %
     % If you are calculating the stress with vdW-DF, please also cite:     %
     %                                                                      %
     %   R. Sabatini et al., J. Phys.: Condens. Matter 24, 424209 (2012).   %
     %                                                                      %
     %%%%%%%%%%%%%%%%%%%%%%%%%%%%%%%%%%%%%%%%%%%%%%%%%%%%%%%%%%%%%%%%%%%%%%%%

     Adding external electric field

     Computed dipole along edir(3) :
        Dipole               -4.7381 Ry au,        -12.0430 Debye
        Dipole field         -0.0089 Ry au,

        Potential amp.        0.8289 Ry
        Total length         46.3494 bohr

     Starting wfcs are  294 atomic wfcs
  @ DRIVER MODE: Message from server: STATUS
  @ DRIVER MODE: Message from server: POSDATA
  @ DRIVER MODE: Reading and sharing cell
  @ DRIVER MODE: Reading and sharing positions
  @ DRIVER MODE: Received positions

     Self-consistent Calculation

     iteration #  1     ecut=    29.40 Ry     beta= 0.05
     Davidson diagonalization with overlap
     c_bands:  4 eigenvalues not converged
     c_bands:  2 eigenvalues not converged
     c_bands:  1 eigenvalues not converged
     c_bands:  3 eigenvalues not converged
     c_bands:  2 eigenvalues not converged
     c_bands:  2 eigenvalues not converged
     c_bands:  2 eigenvalues not converged
     c_bands:  2 eigenvalues not converged
     c_bands:  1 eigenvalues not converged
     c_bands:  1 eigenvalues not converged
     ethr =  1.00E-05,  avg # of iterations = 20.0

[...]

     total energy              =   -2847.42495268 Ry
     estimated scf accuracy    <     788.84801855 Ry

     iteration #  2     ecut=    29.40 Ry     beta= 0.05
     Davidson diagonalization with overlap
     ethr =  1.00E-02,  avg # of iterations = 15.4

[...]

     iteration # 61     ecut=    29.40 Ry     beta= 0.05
     Davidson diagonalization with overlap
     ethr =  2.05E-10,  avg # of iterations =  9.7

[...]

     total energy              =   -2917.76264026 Ry
     estimated scf accuracy    <       0.00000106 Ry

     iteration # 63     ecut=    29.40 Ry     beta= 0.05
     Davidson diagonalization with overlap
     c_bands:  1 eigenvalues not converged
     ethr =  6.19E-11,  avg # of iterations = 14.5

     negative rho (up, down):  1.798E-02 0.000E+00

     Adding external electric field

     Computed dipole along edir(3) :
        Dipole                0.1191 Ry au,          0.3028 Debye
        Dipole field          0.0002 Ry au,

        Potential amp.       -0.0208 Ry
        Total length         46.3494 bohr

     End of self-consistent calculation

          k = 0.0000 0.0000 0.0000 ( 18029 PWs)   bands (ev):

   -56.3234 -56.3177 -56.2870 -56.2835 -56.2184 -56.1841 -56.1587 -56.1432
   -56.1255 -56.1061 -56.0911 -56.0726 -55.9230 -55.7662 -55.3028 -55.2687
   -32.8853 -32.8011 -32.6701 -32.6665 -32.6381 -32.6259 -32.6098 -32.5963
   -32.5600 -32.5537 -32.5321 -32.5290 -32.5018 -32.4702 -32.4691 -32.4588
   -32.4551 -32.4245 -32.4229 -32.4162 -32.3909 -32.3795 -32.3750 -32.3441
   -32.3375 -32.3245 -32.3238 -32.3171 -32.3128 -32.3089 -32.2900 -32.2756
   -32.2745 -32.2622 -32.2581 -32.2281 -32.2235 -32.2151 -32.1360 -32.0506
   -32.0005 -31.8971 -31.7105 -31.6209 -31.5986 -31.5270 -31.4404 -31.3295
   -17.0836 -16.8170 -16.6533 -16.4974 -16.4626 -16.3514 -16.1864 -16.0672
   -16.0309 -16.0081 -15.9210 -15.8987 -15.8883 -15.8655 -15.8564 -15.8351
   -15.8325 -15.7747 -15.7523 -15.7355 -15.7112 -15.6906 -15.6669 -15.6338
   -15.5359 -15.4785 -15.4540 -15.3862 -15.3176 -14.9890 -13.8057 -13.6891
    -8.2641  -4.4494  -4.3652  -4.2727  -4.2279  -4.1855  -3.9707  -3.8947
    -3.8872  -3.6989  -3.5635  -3.5154  -3.4999  -3.4588  -3.4576  -3.2445
    -3.2061  -3.1422  -3.1369  -3.1200  -3.1155  -3.0879  -3.0795  -3.0582
    -3.0119  -2.9355  -2.8690  -2.7703  -2.7385  -2.6823  -2.6617  -2.6330
    -2.5970  -2.5885  -2.5782  -2.5594  -2.5448  -2.5306  -2.4443  -2.3969
    -2.2919  -2.1659  -2.1430  -2.1248  -1.9373  -1.8859  -1.8117  -1.7872
    -1.7581  -1.7495  -1.7154  -1.6307  -1.5570  -1.5209  -1.4511  -1.4469
    -1.3586  -1.3159  -1.2271  -1.1992  -1.1663  -1.0866  -1.0772  -1.0707
    -1.0215  -0.8302  -0.8011  -0.7939  -0.7728  -0.7125  -0.6528  -0.6159
    -0.5581  -0.5302  -0.4894  -0.4042  -0.3968  -0.3628  -0.3412  -0.3258
    -0.2969  -0.2919  -0.1027  -0.0983  -0.0532  -0.0407   0.0436   0.1984
     0.2912   0.3300   0.4029   0.6404   0.7188   0.7958   0.9097   1.2914
     1.3375   2.5469   2.8139   2.8859   2.9017   2.9431   3.0369   3.0490
     3.2654   3.2752   3.3015   3.3211

[...]

          k = 0.0380-0.0419 0.0000 ( 17876 PWs)   bands (ev):

[...]

          k =-0.0760-0.0000 0.0000 ( 17886 PWs)   bands (ev):

[...]

          k =-0.0760-0.0839 0.0000 ( 17948 PWs)   bands (ev):

   -56.3079 -56.3023 -56.3015 -56.2995 -56.2129 -56.1752 -56.1640 -56.1521
   -56.1097 -56.1062 -56.0912 -56.0881 -55.9214 -55.7676 -55.2858 -55.2856
   -32.6918 -32.6849 -32.6170 -32.6157 -32.5990 -32.5961 -32.5945 -32.5854
   -32.5264 -32.5217 -32.5213 -32.5094 -32.4841 -32.4552 -32.4486 -32.4387
   -32.4321 -32.4276 -32.4240 -32.4223 -32.4212 -32.4209 -32.4190 -32.3893
   -32.3855 -32.3681 -32.3551 -32.3439 -32.3326 -32.3230 -32.3214 -32.3133
   -32.3115 -32.3044 -32.3030 -32.2853 -32.2812 -32.2126 -32.1385 -32.0717
   -32.0040 -31.9492 -31.6114 -31.6112 -31.5233 -31.5230 -31.4838 -31.4837
   -16.5299 -16.4893 -16.3196 -16.2568 -16.2457 -16.2333 -16.1915 -16.1069
   -16.0482 -16.0292 -16.0073 -15.9978 -15.9797 -15.9643 -15.8692 -15.8577
   -15.8531 -15.8308 -15.8124 -15.7912 -15.7867 -15.7745 -15.7588 -15.7564
   -15.7215 -15.6471 -15.6428 -15.4240 -15.3326 -15.2669 -13.7910 -13.7906
    -8.2673  -4.0664  -3.8191  -3.7685  -3.6483  -3.5561  -3.4918  -3.4713
    -3.3960  -3.2769  -3.2180  -3.2108  -3.2010  -3.1703  -3.1637  -3.1426
    -3.1322  -3.1197  -3.0773  -3.0568  -3.0412  -3.0306  -3.0043  -2.9908
    -2.9686  -2.9585  -2.9461  -2.9225  -2.8865  -2.8840  -2.8555  -2.8479
    -2.6271  -2.6092  -2.5458  -2.5016  -2.4734  -2.4640  -2.4589  -2.4024
    -2.3803  -2.3609  -2.2636  -2.1980  -2.0438  -2.0262  -2.0183  -1.9796
    -1.9473  -1.8211  -1.7557  -1.7378  -1.7044  -1.6556  -1.6454  -1.5841
    -1.5666  -1.5300  -1.4600  -1.4222  -1.3783  -1.3572  -1.2816  -1.2751
    -1.2436  -1.1900  -1.1117  -1.0893  -1.0717  -1.0598  -1.0047  -0.9650
    -0.9208  -0.8674  -0.7960  -0.7018  -0.6214  -0.4716  -0.4147  -0.3097
    -0.2480  -0.2101  -0.1560  -0.1274  -0.0423  -0.0088  -0.0064   0.0530
     0.0902   0.1906   0.1958   0.2135   0.4415   1.0812   1.0824   1.1568
     1.1575   2.5527   3.0793   3.0931   3.1045   3.1530   3.3110   3.3171
     3.3445   3.3469   3.4347   3.4691

     the Fermi energy is     2.8150 ev

!    total energy              =   -2917.76266802 Ry
     estimated scf accuracy    <       0.00000007 Ry
     smearing contrib. (-TS)   =      -0.02769409 Ry
     internal energy E=F+TS    =   -2917.73497393 Ry

     The total energy is F=E-TS. E is the sum of the following terms:
     one-electron contribution =  -24684.05330360 Ry
     hartree contribution      =   12421.83108649 Ry
     xc contribution           =    -479.08710872 Ry
     ewald contribution        =    9823.57432512 Ry
     electric field correction =       0.00002678 Ry

     convergence has been achieved in  63 iterations

     Forces acting on atoms (cartesian axes, Ry/au):

     atom    1 type  1   force =     0.00012373   -0.00024942    0.09635672
     atom    2 type  1   force =    -0.00005633   -0.00048360   -0.17578617
     atom    3 type  2   force =     0.00009053   -0.00008003   -0.02480575
     atom    4 type  2   force =     0.00006487   -0.00165875    0.05385909
     atom    5 type  2   force =    -0.01232345   -0.00181698    0.00350436
     atom    6 type  2   force =     0.01430323   -0.00152857    0.00391138
     atom    7 type  1   force =     0.00060856    0.00062019   -0.01169749
     atom    8 type  1   force =    -0.00020146    0.02055890    0.02642281
     atom    9 type  2   force =    -0.00054908    0.00047563   -0.00021690
     atom   10 type  2   force =    -0.00145429   -0.00067320   -0.01374305
     atom   11 type  2   force =     0.00038925    0.00026625   -0.00016608
     atom   12 type  2   force =    -0.00052460    0.00054110   -0.00039945
     atom   13 type  1   force =     0.00051959   -0.00032992   -0.00089919
     atom   14 type  1   force =    -0.00116030    0.00108329   -0.00116960
     atom   15 type  2   force =     0.00004200   -0.00004183    0.00080462
     atom   16 type  2   force =     0.00022726    0.00068292   -0.00029096
     atom   17 type  2   force =    -0.00046205    0.00047863   -0.00077571
     atom   18 type  2   force =     0.00098374    0.00077715    0.00041975
     atom   19 type  1   force =    -0.00036502    0.00075174   -0.00110707
     atom   20 type  1   force =     0.00001020   -0.00014066   -0.00111593
     atom   21 type  2   force =     0.00004693    0.00002433    0.10339467
     atom   22 type  2   force =     0.00035507   -0.00078189    0.00077849
     atom   23 type  2   force =    -0.07128026   -0.00005236   -0.02761895
     atom   24 type  2   force =     0.07124415    0.00034007   -0.02772091
     atom   25 type  1   force =     0.00019804   -0.00035589    0.09606877
     atom   26 type  1   force =     0.00000913   -0.00025936   -0.17593337
     atom   27 type  2   force =     0.00021902   -0.00036881   -0.02359146
     atom   28 type  2   force =     0.00006493   -0.00138070    0.05392073
     atom   29 type  2   force =    -0.01264526    0.00047802    0.00326923
     atom   30 type  2   force =     0.01459698    0.00113402    0.00365276
     atom   31 type  1   force =     0.00071880    0.00351343   -0.01312345
     atom   32 type  1   force =     0.00000123   -0.02244294    0.02631638
     atom   33 type  2   force =     0.00005884   -0.00002055    0.00098060
     atom   34 type  2   force =    -0.00088565   -0.00054111   -0.01871596
     atom   35 type  2   force =    -0.00026998   -0.00023072    0.00020267
     atom   36 type  2   force =     0.00012504   -0.00033240   -0.00001591
     atom   37 type  1   force =     0.00038722    0.00060643   -0.00055110
     atom   38 type  1   force =    -0.00131824   -0.00095340   -0.00052564
     atom   39 type  2   force =     0.00000698    0.00110892   -0.00041881
     atom   40 type  2   force =    -0.00013192   -0.00011809   -0.00023887
     atom   41 type  2   force =     0.00059286    0.00027880    0.00013173
     atom   42 type  2   force =    -0.00086086    0.00003096   -0.00027546
     atom   43 type  1   force =    -0.00046771   -0.00027507   -0.00071931
     atom   44 type  1   force =    -0.00017455    0.00069660   -0.00102036
     atom   45 type  2   force =     0.00006611   -0.00000926    0.10337786
     atom   46 type  2   force =    -0.07126713   -0.00005632   -0.02762569
     atom   47 type  2   force =     0.07124242    0.00043241   -0.02769179
     atom   48 type  3   force =    -0.01104126    0.00363048   -0.00802840
     atom   49 type  4   force =     0.01760715   -0.00682666    0.00709183
     atom   50 type  5   force =    -0.00741337    0.00417514    0.00258821
     atom   51 type  5   force =    -0.00005111   -0.00067693   -0.00106386

     Total force =     0.369846     Total SCF correction =     0.000940
  @ DRIVER MODE: Message from server: STATUS
  @ DRIVER MODE: Message from server: GETFORCE
  @ DRIVER MODE: Returning v,forces,stress,ensemble

     Writing output data file ./calc.save/
  @ DRIVER MODE: Message from server: EXIT
  @ DRIVE MODE: Exiting

     General routines

     Parallel routines

   This run was terminated on:  16:31:25  23Aug2021

   JOB DONE.