     Program PWSCF v.6.7GPU starts on 16Sep2021 at  5:32:40

     R & G space division:  proc/nbgrp/npool/nimage =      10
     Reading input from /storage/home/hcoda1/3/ntian30/research/carbon/CxH_vib/H2O_calc/ads_slab/CH3NNH3H2O_a/out_0039/pw.inp
Warning: card &CELL ignored
Warning: card   CELL_DYNAMICS='IPI', ignored
Warning: card / ignored

     Current dimensions of program PWSCF are:
     Max number of different atomic species (ntypx) = 10
     Max number of k-points (npk) =  40000
     Max angular momentum in pseudopotentials (lmaxx) =  3
     Presently no symmetry can be used with electric field

     Message from routine cell_base_init:
     DEPRECATED: use true lattice parameter, not A to a.u. conversion factor

     IMPORTANT: XC functional enforced from input :
     Exchange-correlation= BEEF-VDW
                           (   1   4  43  14   2   0   0)
     Any further DFT definition will be discarded
     Please, verify this is what you really want

  @ DRIVER MODE: Connecting to
 qe_1139763_2852621.sched-torque.pace.gatech.edut_gotst7_scratch
  using UNIX socket
  @ DRIVER MODE: Message from server: STATUS
  @ DRIVER MODE: Message from server: INIT
  @ DRIVER MODE: Receiving replica           0          -1
  @ DRIVER MODE: Receiving encoded integer          25
  @ DRIVER MODE:  SCF:  T  FORCE:  T  STRESS:  F  VC:  F  ENSEMBLE:  F
  @ DRIVER MODE:  SCF:  T  FORCE:  T  STRESS:  F  VC:  F  ENSEMBLE:  F

     Using Slab Decomposition

     bravais-lattice index     =            0
     lattice parameter (alat)  =       1.8897  a.u.
     unit-cell volume          =    6658.9804 (a.u.)^3
     number of atoms/cell      =           59
     number of atomic types    =            5
     number of electrons       =       406.00
     number of Kohn-Sham states=          213
     kinetic-energy cutoff     =      29.3995  Ry
     charge density cutoff     =     293.9946  Ry
     scf convergence threshold =      7.3E-08
     mixing beta               =       0.0500
     number of iterations used =            8  plain     mixing
     Exchange-correlation= BEEF-VDW
                           (   1   4  43  14   2   0   0)

     celldm(1)=   1.889726  celldm(2)=   0.000000  celldm(3)=   0.000000
     celldm(4)=   0.000000  celldm(5)=   0.000000  celldm(6)=   0.000000

     crystal axes: (cart. coord. in units of alat)
               a(1) = (   6.579727   0.000000   0.000000 )
               a(2) = (  -0.000775   5.961596   0.000000 )
               a(3) = (   0.000000   0.000000  25.155947 )

     reciprocal axes: (cart. coord. in units 2 pi/alat)
               b(1) = (  0.151982  0.000020  0.000000 )
               b(2) = (  0.000000  0.167740  0.000000 )
               b(3) = (  0.000000  0.000000  0.039752 )

     PseudoPot. # 1 for Ti read from file:
     /storage/coda1/p-amedford6/0/shared/rich_project_chbe-medford/medford-share/data/pseudos_module/espresso/nninc/pbe/van/Ti.UPF
     MD5 check sum: 8e4df49b7f0d34bbd5052bf3f5ea0213
     Pseudo is Ultrasoft, Zval = 12.0
     Generated by new atomic code, or converted to UPF format
     Using radial grid of  851 points,  6 beta functions with:
                l(1) =   0
                l(2) =   0
                l(3) =   1
                l(4) =   1
                l(5) =   2
                l(6) =   2
     Q(r) pseudized with  8 coefficients,  rinner =    1.000   1.000   1.000
                                                       1.000   1.000

     PseudoPot. # 2 for O  read from file:
     /storage/coda1/p-amedford6/0/shared/rich_project_chbe-medford/medford-share/data/pseudos_module/espresso/nninc/pbe/van/O.UPF
     MD5 check sum: 78c19812648e8988a0fe644b0f25305e
     Pseudo is Ultrasoft, Zval =  6.0
     Generated by new atomic code, or converted to UPF format
     Using radial grid of  737 points,  4 beta functions with:
                l(1) =   0
                l(2) =   0
                l(3) =   1
                l(4) =   1
     Q(r) pseudized with  8 coefficients,  rinner =    0.800   0.800   0.800

     PseudoPot. # 3 for N  read from file:
     /storage/coda1/p-amedford6/0/shared/rich_project_chbe-medford/medford-share/data/pseudos_module/espresso/nninc/pbe/van/N.UPF
     MD5 check sum: 90d10febe142ad51ac9d5be1deb811c4
     Pseudo is Ultrasoft, Zval =  5.0
     Generated by new atomic code, or converted to UPF format
     Using radial grid of  729 points,  4 beta functions with:
                l(1) =   0
                l(2) =   0
                l(3) =   1
                l(4) =   1
     Q(r) pseudized with  8 coefficients,  rinner =    0.800   0.800   0.800

     PseudoPot. # 4 for C  read from file:
     /storage/coda1/p-amedford6/0/shared/rich_project_chbe-medford/medford-share/data/pseudos_module/espresso/nninc/pbe/van/C.UPF
     MD5 check sum: 1a69bf6b8db32088f5b2163dbdb77a27
     Pseudo is Ultrasoft, Zval =  4.0
     Generated by new atomic code, or converted to UPF format
     Using radial grid of  721 points,  4 beta functions with:
                l(1) =   0
                l(2) =   0
                l(3) =   1
                l(4) =   1
     Q(r) pseudized with  8 coefficients,  rinner =    0.800   0.800   0.800

     PseudoPot. # 5 for H  read from file:
     /storage/coda1/p-amedford6/0/shared/rich_project_chbe-medford/medford-share/data/pseudos_module/espresso/nninc/pbe/van/H.UPF
     MD5 check sum: b5ee9d7bfd3a09ee7748110bda690ff7
     Pseudo is Ultrasoft, Zval =  1.0
     Generated by new atomic code, or converted to UPF format
     Using radial grid of  615 points,  1 beta functions with:
                l(1) =   0
     Q(r) pseudized with  8 coefficients,  rinner =    0.800

     atomic species   valence    mass     pseudopotential
        Ti1           12.00    47.86700     Ti( 1.00)
        O1             6.00    15.99900     O ( 1.00)
        N1             5.00    14.00700     N ( 1.00)
        C1             4.00    12.01100     C ( 1.00)
        H1             1.00     1.00800     H ( 1.00)

     No symmetry found

   Cartesian axes

     site n.     atom                  positions (alat units)
         1           Ti1 tau(   1) = (   0.0004258   2.9801865   6.0000000  )
         2           Ti1 tau(   2) = (   3.2906075   1.4906267   6.0002472  )
         3           O1  tau(   3) = (   0.0006271   0.0005054   7.9858123  )
         4           O1  tau(   4) = (   3.2906025   0.0005020   7.3038282  )
         5           O1  tau(   5) = (   4.5942328   1.4918067   9.2879030  )
         6           O1  tau(   6) = (   1.9868534   1.4903216   9.2879459  )
         7           Ti1 tau(   7) = (   3.2907910   2.8959150   9.1758416  )
         8           Ti1 tau(   8) = (   0.0015273   1.4827037   9.2680791  )
         9           O1  tau(   9) = (   3.2954490   0.0159868  11.2922163  )
        10           O1  tau(  10) = (   0.0116148   5.9584955  10.6183126  )
        11           O1  tau(  11) = (   1.3242731   1.5050266  12.6143764  )
        12           O1  tau(  12) = (   5.3073597   1.5103589  12.6267567  )
        13           Ti1 tau(  13) = (   6.4831477   3.0011104  12.7364612  )
        14           Ti1 tau(  14) = (   3.1751638   1.4975352  12.4748964  )
        15           O1  tau(  15) = (   0.0212859   5.9607631  14.5987152  )
        16           O1  tau(  16) = (   3.3058086   0.0238703  13.8910224  )
        17           O1  tau(  17) = (   4.5539421   1.5574750  15.9960573  )
        18           O1  tau(  18) = (   2.0731809   1.5597727  15.9888445  )
        19           Ti1 tau(  19) = (   3.3176354   3.0289328  15.6523405  )
        20           Ti1 tau(  20) = (   0.0198791   1.6227889  16.0606591  )
        21           O1  tau(  21) = (   3.2904802   0.0005063   4.7018136  )
        22           O1  tau(  22) = (   0.0290054   0.0533443  17.2129705  )
        23           O1  tau(  23) = (   1.3043587   1.4918075   6.0039043  )
        24           O1  tau(  24) = (   5.2767064   1.4903225   6.0039473  )
        25           Ti1 tau(  25) = (   0.0000382   5.9609847   6.0000000  )
        26           Ti1 tau(  26) = (   3.2902200   4.4714249   6.0002472  )
        27           O1  tau(  27) = (   0.0002396   2.9813036   7.9858123  )
        28           O1  tau(  28) = (   3.2902150   2.9813002   7.3038282  )
        29           O1  tau(  29) = (   4.5938453   4.4726049   9.2879030  )
        30           O1  tau(  30) = (   1.9864658   4.4711199   9.2879459  )
        31           Ti1 tau(  31) = (   3.2891106   5.8743827   9.1763621  )
        32           Ti1 tau(  32) = (   0.0006254   4.4649316   9.2693709  )
        33           O1  tau(  33) = (   3.2918316   2.9938763  11.2915017  )
        34           O1  tau(  34) = (   0.0092240   2.9805883  10.6323155  )
        35           O1  tau(  35) = (   1.3226278   4.4784642  12.6110361  )
        36           O1  tau(  36) = (   5.3078083   4.4770455  12.6250823  )
        37           Ti1 tau(  37) = (   6.5141033   0.0190828  12.7620745  )
        38           Ti1 tau(  38) = (   3.1722404   4.4939287  12.4712879  )
        39           O1  tau(  39) = (   0.0035410   2.9850241  14.6487316  )
        40           O1  tau(  40) = (   3.3118331   3.0109266  13.8519036  )
        41           O1  tau(  41) = (   4.5522870   4.5059159  16.0259181  )
        42           O1  tau(  42) = (   2.0778134   4.5048723  16.0185459  )
        43           Ti1 tau(  43) = (   3.3116469   0.0596163  15.7453941  )
        44           Ti1 tau(  44) = (   0.0183239   4.5967015  16.1059876  )
        45           O1  tau(  45) = (   3.2900926   2.9813045   4.7018136  )
        46           O1  tau(  46) = (   1.3039711   4.4726057   6.0039043  )
        47           O1  tau(  47) = (   5.2763189   4.4711207   6.0039473  )
        48           N1  tau(  48) = (   0.0600715   3.0265251  17.3188267  )
        49           N1  tau(  49) = (   6.2826239   2.5295367  22.6224490  )
        50           C1  tau(  50) = (   0.2859397   3.0149959  18.7399364  )
        51           H1  tau(  51) = (   0.1411154   4.0060466  19.1894648  )
        52           H1  tau(  52) = (   6.1913215   2.3105648  19.2421896  )
        53           H1  tau(  53) = (   1.3125146   2.6868920  18.9691123  )
        54           H1  tau(  54) = (   6.1000088   3.2391606  23.3142794  )
        55           H1  tau(  55) = (   0.1456284   1.7586669  23.1118534  )
        56           H1  tau(  56) = (   0.3974265   2.9048463  21.9856970  )
        57           O1  tau(  57) = (   3.2908421   0.1144680  18.1630233  )
        58           H1  tau(  58) = (   4.0679411   5.5688996  18.4486002  )
        59           H1  tau(  59) = (   2.5060966   5.5711546  18.4327789  )

     number of k points=    10  Fermi-Dirac smearing, width (Ry)=  0.0073
                       cart. coord. in units 2pi/alat
        k(    1) = (   0.0000000   0.0000000   0.0000000), wk =   0.1250000
        k(    2) = (   0.0000000   0.0419351   0.0000000), wk =   0.2500000
        k(    3) = (   0.0000000  -0.0838702   0.0000000), wk =   0.1250000
        k(    4) = (   0.0379955   0.0000049   0.0000000), wk =   0.2500000
        k(    5) = (   0.0379955   0.0419400   0.0000000), wk =   0.2500000
        k(    6) = (   0.0379955  -0.0838652   0.0000000), wk =   0.2500000
        k(    7) = (   0.0379955  -0.0419301   0.0000000), wk =   0.2500000
        k(    8) = (  -0.0759910  -0.0000099   0.0000000), wk =   0.1250000
        k(    9) = (  -0.0759910   0.0419252   0.0000000), wk =   0.2500000
        k(   10) = (  -0.0759910  -0.0838800   0.0000000), wk =   0.1250000

     Initial potential from superposition of free atoms

     starting charge  389.99912, renormalised to  406.00000

     negative rho (up, down):  6.921E-03 0.000E+00

     %%%%%%%%%%%%%%%%%%%%%%%%%%%%%%%%%%%%%%%%%%%%%%%%%%%%%%%%%%%%%%%%%%%%%%%%
     %                                                                      %
     % You are using vdW-DF, which was implemented by the Thonhauser group. %
     % Please cite the following two papers that made this development      %
     % possible and the two reviews that describe the various versions:     %
     %                                                                      %
     %   T. Thonhauser et al., PRL 115, 136402 (2015).                      %
     %   T. Thonhauser et al., PRB 76, 125112 (2007).                       %
     %   K. Berland et al., Rep. Prog. Phys. 78, 066501 (2015).             %
     %   D.C. Langreth et al., J. Phys.: Condens. Matter 21, 084203 (2009). %
     %                                                                      %
     %                                                                      %
     % If you are calculating the stress with vdW-DF, please also cite:     %
     %                                                                      %
     %   R. Sabatini et al., J. Phys.: Condens. Matter 24, 424209 (2012).   %
     %                                                                      %
     %%%%%%%%%%%%%%%%%%%%%%%%%%%%%%%%%%%%%%%%%%%%%%%%%%%%%%%%%%%%%%%%%%%%%%%%

     Adding external electric field

     Computed dipole along edir(3) :
        Dipole              -16.2336 Ry au,        -41.2616 Debye
        Dipole field         -0.0306 Ry au,

        Potential amp.        2.8398 Ry
        Total length         46.3494 bohr

     Starting wfcs are  308 atomic wfcs
  @ DRIVER MODE: Message from server: STATUS
  @ DRIVER MODE: Message from server: POSDATA
  @ DRIVER MODE: Reading and sharing cell
  @ DRIVER MODE: Reading and sharing positions
  @ DRIVER MODE: Received positions

     Self-consistent Calculation

     iteration #  1     ecut=    29.40 Ry     beta= 0.05
     Davidson diagonalization with overlap
     c_bands:  2 eigenvalues not converged
     c_bands:  3 eigenvalues not converged
     c_bands:  5 eigenvalues not converged
     c_bands:  3 eigenvalues not converged
     c_bands:  3 eigenvalues not converged
     c_bands:  3 eigenvalues not converged
     c_bands:  1 eigenvalues not converged
     c_bands:  5 eigenvalues not converged
     c_bands:  3 eigenvalues not converged
     ethr =  1.00E-05,  avg # of iterations = 20.6

[...]

     total energy              =   -2253.44689587 Ry
     estimated scf accuracy    <    8262.99799848 Ry

     iteration #  2     ecut=    29.40 Ry     beta= 0.05
     Davidson diagonalization with overlap
     ethr =  1.00E-02,  avg # of iterations = 27.2

[...]

     iteration # 59     ecut=    29.40 Ry     beta= 0.05
     Davidson diagonalization with overlap
     c_bands:  1 eigenvalues not converged
     ethr =  1.41E-06,  avg # of iterations =  9.5

[...]

     total energy              =   -2977.74432644 Ry
     estimated scf accuracy    <       0.00000007 Ry

     iteration # 91     ecut=    29.40 Ry     beta= 0.05
     Davidson diagonalization with overlap
     ethr =  1.83E-11,  avg # of iterations =  5.0

     negative rho (up, down):  8.796E-03 0.000E+00

     Adding external electric field

     Computed dipole along edir(3) :
        Dipole                0.7662 Ry au,          1.9476 Debye
        Dipole field          0.0014 Ry au,

        Potential amp.       -0.1340 Ry
        Total length         46.3494 bohr

     End of self-consistent calculation

          k = 0.0000 0.0000 0.0000 ( 18029 PWs)   bands (ev):

   -56.2617 -56.2281 -55.3789 -55.3449 -55.3367 -55.3017 -55.1541 -55.1188
   -55.0317 -54.9115 -54.8933 -54.8915 -54.8776 -54.8068 -54.3907 -54.3411
   -32.6885 -32.5361 -32.5079 -32.4380 -32.3471 -32.3146 -31.8467 -31.8189
   -31.6895 -31.6447 -31.5958 -31.5780 -31.5478 -31.5387 -31.5096 -31.5047
   -31.4861 -31.4797 -31.4573 -31.4431 -31.4300 -31.3806 -31.3705 -31.3318
   -31.3193 -31.3024 -31.2935 -31.2804 -31.2559 -31.2551 -31.2510 -31.2268
   -31.1321 -31.1215 -31.0814 -31.0712 -31.0434 -31.0384 -31.0296 -31.0110
   -30.9803 -30.9275 -30.9054 -30.6344 -30.6122 -30.5810 -30.5602 -30.4514
   -18.4456 -16.4175 -15.9514 -15.7080 -15.6184 -15.5352 -15.4964 -15.4524
   -15.3002 -15.2328 -15.2102 -15.2098 -15.1391 -14.9910 -14.9438 -14.8458
   -14.7522 -14.6173 -14.6003 -14.5670 -14.5491 -14.5163 -14.5091 -14.4574
   -14.2941 -14.2585 -14.2103 -14.1472 -14.0662 -14.0620 -13.8367 -13.4099
   -13.3002 -12.6435  -7.4496  -6.2360  -4.1439  -4.0828  -3.9849  -3.4510
    -3.1818  -3.1541  -3.0256  -3.0209  -2.9754  -2.8355  -2.8276  -2.7541
    -2.7304  -2.6929  -2.6169  -2.5838  -2.5348  -2.4454  -2.4327  -2.4128
    -2.3993  -2.3837  -2.2621  -2.2205  -2.1684  -2.0647  -1.9565  -1.9135
    -1.8865  -1.8426  -1.8046  -1.7574  -1.7452  -1.7304  -1.7238  -1.6125
    -1.4983  -1.4655  -1.4507  -1.4044  -1.3862  -1.3774  -1.3555  -1.2703
    -1.1607  -1.0672  -0.9999  -0.9877  -0.9202  -0.9123  -0.8531  -0.7372
    -0.6765  -0.6719  -0.6560  -0.5524  -0.5257  -0.4544  -0.3915  -0.3335
    -0.2789  -0.2161  -0.1660  -0.1433  -0.1305  -0.0315   0.0401   0.0634
     0.1147   0.1241   0.1330   0.1537   0.2503   0.2861   0.3599   0.4044
     0.4406   0.4849   0.5679   0.6181   0.6858   0.7356   0.7585   0.8202
     0.8736   0.9291   1.0243   1.0716   1.0786   1.0871   1.1101   1.1704
     1.1842   1.2604   1.3434   1.3587   1.4312   1.4995   1.6602   1.6993
     1.9493   2.0207   2.6472   3.0155   3.1767   3.4719   3.6618   3.7992
     3.9946   4.0051   4.0121   4.2383   4.2618

[...]

          k = 0.0380-0.0419 0.0000 ( 17876 PWs)   bands (ev):

[...]

          k =-0.0760-0.0000 0.0000 ( 17886 PWs)   bands (ev):

[...]

          k =-0.0760-0.0839 0.0000 ( 17948 PWs)   bands (ev):

   -56.2451 -56.2446 -55.3639 -55.3595 -55.3242 -55.3144 -55.1375 -55.1352
   -55.0295 -54.8946 -54.8944 -54.8936 -54.8896 -54.8104 -54.3836 -54.3481
   -32.5220 -32.5216 -32.5055 -32.5052 -32.3912 -32.3908 -31.6703 -31.6645
   -31.6547 -31.6473 -31.5709 -31.5559 -31.5539 -31.5496 -31.5433 -31.5418
   -31.5361 -31.5274 -31.4956 -31.4791 -31.3830 -31.3809 -31.3473 -31.3415
   -31.3220 -31.2858 -31.2475 -31.2399 -31.2398 -31.2390 -31.2147 -31.1924
   -31.1498 -31.1193 -31.1191 -31.1158 -31.0926 -31.0802 -31.0801 -31.0655
   -31.0485 -31.0131 -30.7661 -30.7034 -30.6100 -30.5857 -30.5681 -30.5219
   -18.4448 -15.7681 -15.7661 -15.7310 -15.7302 -15.4633 -15.4600 -15.3666
   -15.3613 -15.2268 -15.1099 -15.0083 -14.9955 -14.9600 -14.9328 -14.8209
   -14.8001 -14.7909 -14.7808 -14.6692 -14.6491 -14.6037 -14.5926 -14.5763
   -14.5661 -14.2722 -14.2591 -14.1561 -14.1323 -14.0655 -13.9899 -13.4038
   -13.4038 -12.6621  -7.4433  -6.2285  -4.1469  -4.0915  -2.8646  -2.8575
    -2.8211  -2.8030  -2.8021  -2.7434  -2.6378  -2.5981  -2.5962  -2.5950
    -2.5138  -2.4465  -2.4386  -2.3671  -2.3343  -2.3150  -2.2568  -2.2461
    -2.1808  -2.1545  -2.1463  -2.1297  -2.1062  -2.1049  -2.0089  -1.9462
    -1.8943  -1.8909  -1.8235  -1.8054  -1.7413  -1.7206  -1.7091  -1.6773
    -1.6358  -1.6129  -1.5811  -1.5473  -1.5064  -1.4467  -1.2800  -1.2710
    -1.2617  -1.2401  -1.1149  -1.1081  -1.0769  -1.0468  -1.0410  -0.9672
    -0.9174  -0.8823  -0.8249  -0.7413  -0.7189  -0.6170  -0.5660  -0.5198
    -0.4636  -0.3575  -0.3400  -0.3293  -0.3200  -0.2897  -0.2235  -0.1943
    -0.1787  -0.0580  -0.0385   0.0147   0.0357   0.0920   0.1182   0.1827
     0.2097   0.2814   0.2931   0.3322   0.4062   0.4874   0.5217   0.5698
     0.5745   0.8507   0.9245   1.0543   1.0624   1.1224   1.1811   1.2525
     1.3121   1.3446   1.3712   1.4944   1.4987   1.5080   1.5085   1.5799
     1.5850   1.9270   2.5245   3.5913   3.5916   3.6581   3.6588   3.9796
     3.9858   4.0928   4.1031   4.2638   4.2789

     the Fermi energy is     2.8433 ev

!    total energy              =   -2977.74433135 Ry
     estimated scf accuracy    <       0.00000004 Ry
     smearing contrib. (-TS)   =      -0.00445493 Ry
     internal energy E=F+TS    =   -2977.73987641 Ry

     The total energy is F=E-TS. E is the sum of the following terms:
     one-electron contribution =  -22876.02045813 Ry
     hartree contribution      =   11535.72155553 Ry
     xc contribution           =    -496.33293629 Ry
     ewald contribution        =    8858.89085449 Ry
     electric field correction =       0.00110799 Ry

     convergence has been achieved in  91 iterations

     Forces acting on atoms (cartesian axes, Ry/au):

     atom    1 type  1   force =    -0.00003330   -0.00046358    0.12450774
     atom    2 type  1   force =    -0.00008777   -0.00048193   -0.15980562
     atom    3 type  2   force =     0.00019187   -0.00024303   -0.06792091
     atom    4 type  2   force =    -0.00000731   -0.00011498    0.02621810
     atom    5 type  2   force =    -0.01448315    0.00181947   -0.00990740
     atom    6 type  2   force =     0.01626202    0.00224404   -0.01025094
     atom    7 type  1   force =     0.00071116   -0.00388171    0.02888206
     atom    8 type  1   force =    -0.00035052   -0.00439745    0.10954057
     atom    9 type  2   force =     0.00023769   -0.00029120   -0.00053057
     atom   10 type  2   force =    -0.00231370    0.00256467   -0.07334368
     atom   11 type  2   force =    -0.00002641   -0.00033554   -0.00000568
     atom   12 type  2   force =    -0.00015417   -0.00082458    0.00001843
     atom   13 type  1   force =     0.00107181   -0.00040578    0.00012375
     atom   14 type  1   force =    -0.00065199    0.00065001   -0.00011156
     atom   15 type  2   force =    -0.00028792   -0.00039209   -0.00075429
     atom   16 type  2   force =    -0.00001409   -0.00011044    0.00068835
     atom   17 type  2   force =     0.00015457   -0.00091641   -0.00019958
     atom   18 type  2   force =     0.00050050   -0.00052539    0.00013161
     atom   19 type  1   force =    -0.00113607   -0.00009886   -0.00095233
     atom   20 type  1   force =     0.00080860   -0.00014945   -0.00044161
     atom   21 type  2   force =     0.00004632   -0.00003531    0.09943517
     atom   22 type  2   force =     0.00002654   -0.00023649   -0.00041334
     atom   23 type  2   force =    -0.07968075   -0.00005719   -0.03247907
     atom   24 type  2   force =     0.07952491    0.00038194   -0.03252842
     atom   25 type  1   force =    -0.00000535   -0.00057360    0.12416504
     atom   26 type  1   force =    -0.00008702   -0.00062634   -0.15995708
     atom   27 type  2   force =     0.00030071   -0.00036254   -0.06697211
     atom   28 type  2   force =    -0.00002013    0.00015049    0.02513575
     atom   29 type  2   force =    -0.01510579    0.00192801   -0.00984221
     atom   30 type  2   force =     0.01678150    0.00242747   -0.01015721
     atom   31 type  1   force =     0.00074242   -0.00076183    0.02405998
     atom   32 type  1   force =    -0.00027971    0.00204861    0.11015958
     atom   33 type  2   force =     0.00007690    0.00029321    0.00056862
     atom   34 type  2   force =    -0.00193628    0.00199990   -0.07165769
     atom   35 type  2   force =    -0.00001985    0.00034444   -0.00001862
     atom   36 type  2   force =    -0.00053379    0.00061138   -0.00005825
     atom   37 type  1   force =     0.00121155    0.00043369    0.00029957
     atom   38 type  1   force =    -0.00054659   -0.00088143   -0.00023108
     atom   39 type  2   force =    -0.00027489   -0.00014635    0.00088255
     atom   40 type  2   force =     0.00018122   -0.00012738    0.00025124
     atom   41 type  2   force =     0.00102452    0.00015750    0.00017122
     atom   42 type  2   force =    -0.00048851   -0.00022973    0.00054430
     atom   43 type  1   force =    -0.00159333    0.00001143   -0.00027737
     atom   44 type  1   force =     0.00091422   -0.00012827   -0.00037816
     atom   45 type  2   force =     0.00002012   -0.00004830    0.09939662
     atom   46 type  2   force =    -0.07969762    0.00000398   -0.03249111
     atom   47 type  2   force =     0.07954841    0.00043852   -0.03251712
     atom   48 type  3   force =    -0.00087153   -0.00076468   -0.00043894
     atom   49 type  3   force =     0.00216574   -0.00956465   -0.00521829
     atom   50 type  4   force =    -0.00024682   -0.00009676    0.00005081
     atom   51 type  5   force =    -0.00021001    0.00038713    0.00027545
     atom   52 type  5   force =    -0.00006803   -0.00054262    0.00072775
     atom   53 type  5   force =     0.00051688   -0.00014707    0.00020154
     atom   54 type  5   force =    -0.00227189    0.00929473    0.00645505
     atom   55 type  5   force =     0.00012596   -0.00052695   -0.00128178
     atom   56 type  5   force =     0.00002226    0.00075385   -0.00136649
     atom   57 type  2   force =     0.00158978   -0.00049291   -0.00037783
     atom   58 type  5   force =    -0.00047204    0.00090493    0.00002886
     atom   59 type  5   force =    -0.00080185    0.00013341   -0.00003335

     Total force =     0.423821     Total SCF correction =     0.000446
  @ DRIVER MODE: Message from server: STATUS
  @ DRIVER MODE: Message from server: GETFORCE
  @ DRIVER MODE: Returning v,forces,stress,ensemble

     Writing output data file ./calc.save/
  @ DRIVER MODE: Message from server: EXIT
  @ DRIVE MODE: Exiting

     General routines

     Parallel routines

   This run was terminated on:   5:55:53  16Sep2021

   JOB DONE.