     Program PWSCF v.6.7GPU starts on 22Sep2021 at  8:48:49

     R & G space division:  proc/nbgrp/npool/nimage =      10
     Reading input from /storage/home/hcoda1/3/ntian30/research/carbon/CxH_vib/CH_calc/ads_slab/CHNHNH2H2O_b/out_0030/pw.inp
Warning: card &CELL ignored
Warning: card   CELL_DYNAMICS='IPI', ignored
Warning: card / ignored

     Current dimensions of program PWSCF are:
     Max number of different atomic species (ntypx) = 10
     Max number of k-points (npk) =  40000
     Max angular momentum in pseudopotentials (lmaxx) =  3
     Presently no symmetry can be used with electric field

     Message from routine cell_base_init:
     DEPRECATED: use true lattice parameter, not A to a.u. conversion factor

     IMPORTANT: XC functional enforced from input :
     Exchange-correlation= BEEF-VDW
                           (   1   4  43  14   2   0   0)
     Any further DFT definition will be discarded
     Please, verify this is what you really want

  @ DRIVER MODE: Connecting to
 qe_1139763_2927425.sched-torque.pace.gatech.edu6jrlo_2l_scratch
  using UNIX socket
  @ DRIVER MODE: Message from server: STATUS
  @ DRIVER MODE: Message from server: INIT
  @ DRIVER MODE: Receiving replica           0          -1
  @ DRIVER MODE: Receiving encoded integer          25
  @ DRIVER MODE:  SCF:  T  FORCE:  T  STRESS:  F  VC:  F  ENSEMBLE:  F
  @ DRIVER MODE:  SCF:  T  FORCE:  T  STRESS:  F  VC:  F  ENSEMBLE:  F

     Using Slab Decomposition

     bravais-lattice index     =            0
     lattice parameter (alat)  =       1.8897  a.u.
     unit-cell volume          =    6658.9804 (a.u.)^3
     number of atoms/cell      =           57
     number of atomic types    =            5
     number of electrons       =       404.00
     number of Kohn-Sham states=          212
     kinetic-energy cutoff     =      29.3995  Ry
     charge density cutoff     =     293.9946  Ry
     scf convergence threshold =      7.3E-08
     mixing beta               =       0.0500
     number of iterations used =            8  plain     mixing
     Exchange-correlation= BEEF-VDW
                           (   1   4  43  14   2   0   0)

     celldm(1)=   1.889726  celldm(2)=   0.000000  celldm(3)=   0.000000
     celldm(4)=   0.000000  celldm(5)=   0.000000  celldm(6)=   0.000000

     crystal axes: (cart. coord. in units of alat)
               a(1) = (   6.579727   0.000000   0.000000 )
               a(2) = (  -0.000775   5.961596   0.000000 )
               a(3) = (   0.000000   0.000000  25.155947 )

     reciprocal axes: (cart. coord. in units 2 pi/alat)
               b(1) = (  0.151982  0.000020  0.000000 )
               b(2) = (  0.000000  0.167740  0.000000 )
               b(3) = (  0.000000  0.000000  0.039752 )

     PseudoPot. # 1 for Ti read from file:
     /storage/coda1/p-amedford6/0/shared/rich_project_chbe-medford/medford-share/data/pseudos_module/espresso/nninc/pbe/van/Ti.UPF
     MD5 check sum: 8e4df49b7f0d34bbd5052bf3f5ea0213
     Pseudo is Ultrasoft, Zval = 12.0
     Generated by new atomic code, or converted to UPF format
     Using radial grid of  851 points,  6 beta functions with:
                l(1) =   0
                l(2) =   0
                l(3) =   1
                l(4) =   1
                l(5) =   2
                l(6) =   2
     Q(r) pseudized with  8 coefficients,  rinner =    1.000   1.000   1.000
                                                       1.000   1.000

     PseudoPot. # 2 for O  read from file:
     /storage/coda1/p-amedford6/0/shared/rich_project_chbe-medford/medford-share/data/pseudos_module/espresso/nninc/pbe/van/O.UPF
     MD5 check sum: 78c19812648e8988a0fe644b0f25305e
     Pseudo is Ultrasoft, Zval =  6.0
     Generated by new atomic code, or converted to UPF format
     Using radial grid of  737 points,  4 beta functions with:
                l(1) =   0
                l(2) =   0
                l(3) =   1
                l(4) =   1
     Q(r) pseudized with  8 coefficients,  rinner =    0.800   0.800   0.800

     PseudoPot. # 3 for N  read from file:
     /storage/coda1/p-amedford6/0/shared/rich_project_chbe-medford/medford-share/data/pseudos_module/espresso/nninc/pbe/van/N.UPF
     MD5 check sum: 90d10febe142ad51ac9d5be1deb811c4
     Pseudo is Ultrasoft, Zval =  5.0
     Generated by new atomic code, or converted to UPF format
     Using radial grid of  729 points,  4 beta functions with:
                l(1) =   0
                l(2) =   0
                l(3) =   1
                l(4) =   1
     Q(r) pseudized with  8 coefficients,  rinner =    0.800   0.800   0.800

     PseudoPot. # 4 for C  read from file:
     /storage/coda1/p-amedford6/0/shared/rich_project_chbe-medford/medford-share/data/pseudos_module/espresso/nninc/pbe/van/C.UPF
     MD5 check sum: 1a69bf6b8db32088f5b2163dbdb77a27
     Pseudo is Ultrasoft, Zval =  4.0
     Generated by new atomic code, or converted to UPF format
     Using radial grid of  721 points,  4 beta functions with:
                l(1) =   0
                l(2) =   0
                l(3) =   1
                l(4) =   1
     Q(r) pseudized with  8 coefficients,  rinner =    0.800   0.800   0.800

     PseudoPot. # 5 for H  read from file:
     /storage/coda1/p-amedford6/0/shared/rich_project_chbe-medford/medford-share/data/pseudos_module/espresso/nninc/pbe/van/H.UPF
     MD5 check sum: b5ee9d7bfd3a09ee7748110bda690ff7
     Pseudo is Ultrasoft, Zval =  1.0
     Generated by new atomic code, or converted to UPF format
     Using radial grid of  615 points,  1 beta functions with:
                l(1) =   0
     Q(r) pseudized with  8 coefficients,  rinner =    0.800

     atomic species   valence    mass     pseudopotential
        Ti1           12.00    47.86700     Ti( 1.00)
        O1             6.00    15.99900     O ( 1.00)
        N1             5.00    14.00700     N ( 1.00)
        C1             4.00    12.01100     C ( 1.00)
        H1             1.00     1.00800     H ( 1.00)

     No symmetry found

   Cartesian axes

     site n.     atom                  positions (alat units)
         1           Ti1 tau(   1) = (   0.0004258   2.9801865   6.0000000  )
         2           Ti1 tau(   2) = (   3.2906075   1.4906267   6.0002472  )
         3           O1  tau(   3) = (   0.0006271   0.0005054   7.9858123  )
         4           O1  tau(   4) = (   3.2906025   0.0005020   7.3038282  )
         5           O1  tau(   5) = (   4.5942328   1.4918067   9.2879030  )
         6           O1  tau(   6) = (   1.9868534   1.4903216   9.2879459  )
         7           Ti1 tau(   7) = (   3.2907910   2.8959150   9.1758416  )
         8           Ti1 tau(   8) = (   0.0015273   1.4827037   9.2680791  )
         9           O1  tau(   9) = (   3.3066417   5.9496923  11.3845403  )
        10           O1  tau(  10) = (   0.0116148   5.9584955  10.6183126  )
        11           O1  tau(  11) = (   1.3010148   1.4986442  12.6442229  )
        12           O1  tau(  12) = (   5.3085967   1.5001388  12.6592367  )
        13           Ti1 tau(  13) = (   0.0282779   2.9853959  12.5065338  )
        14           Ti1 tau(  14) = (   3.3279724   1.4707331  12.5413945  )
        15           O1  tau(  15) = (   0.0378505   0.0859181  14.6860672  )
        16           O1  tau(  16) = (   3.3018867   0.0259462  14.0338077  )
        17           O1  tau(  17) = (   4.5998927   1.5484098  16.1661054  )
        18           O1  tau(  18) = (   2.0454451   1.5021798  16.2221046  )
        19           Ti1 tau(  19) = (   3.3206312   2.9825829  15.7321521  )
        20           Ti1 tau(  20) = (   0.0140791   1.4435866  15.9983415  )
        21           O1  tau(  21) = (   3.2904802   0.0005063   4.7018136  )
        22           O1  tau(  22) = (   6.5273045   5.8164216  17.2577718  )
        23           O1  tau(  23) = (   1.3043587   1.4918075   6.0039043  )
        24           O1  tau(  24) = (   5.2767064   1.4903225   6.0039473  )
        25           Ti1 tau(  25) = (   0.0000382   5.9609847   6.0000000  )
        26           Ti1 tau(  26) = (   3.2902200   4.4714249   6.0002472  )
        27           O1  tau(  27) = (   0.0002396   2.9813036   7.9858123  )
        28           O1  tau(  28) = (   3.2902150   2.9813002   7.3038282  )
        29           O1  tau(  29) = (   4.5938453   4.4726049   9.2879030  )
        30           O1  tau(  30) = (   1.9864658   4.4711199   9.2879459  )
        31           Ti1 tau(  31) = (   3.2891106   5.8743827   9.1763621  )
        32           Ti1 tau(  32) = (   0.0006254   4.4649316   9.2693709  )
        33           O1  tau(  33) = (   3.3068470   2.9864458  11.3814114  )
        34           O1  tau(  34) = (   0.0092240   2.9805883  10.6323155  )
        35           O1  tau(  35) = (   1.2982948   4.4740332  12.6840172  )
        36           O1  tau(  36) = (   5.3097620   4.4704985  12.6972095  )
        37           Ti1 tau(  37) = (   0.0348817   0.0130325  12.4954113  )
        38           Ti1 tau(  38) = (   3.3270268   4.4633798  12.5435021  )
        39           O1  tau(  39) = (   0.0563025   2.9439880  14.9425960  )
        40           O1  tau(  40) = (   3.2900316   2.9661073  13.9503945  )
        41           O1  tau(  41) = (   4.5967999   4.4093095  16.0633277  )
        42           O1  tau(  42) = (   2.0412097   4.4536800  16.1303113  )
        43           Ti1 tau(  43) = (   3.2964201   5.9600488  15.8742613  )
        44           Ti1 tau(  44) = (   0.0241369   4.6516137  15.8518307  )
        45           O1  tau(  45) = (   3.2900926   2.9813045   4.7018136  )
        46           O1  tau(  46) = (   1.3039711   4.4726057   6.0039043  )
        47           O1  tau(  47) = (   5.2763189   4.4711207   6.0039473  )
        48           N1  tau(  48) = (   1.4509408   2.7109095  18.7602185  )
        49           N1  tau(  49) = (   0.0917387   2.5303350  18.2207845  )
        50           C1  tau(  50) = (   1.9503960   3.7723240  19.2784661  )
        51           H1  tau(  51) = (   1.1612915   4.5273475  19.4152495  )
        52           H1  tau(  52) = (   2.0208952   1.9183395  18.4764618  )
        53           H1  tau(  53) = (   6.1377449   3.3539424  18.4987646  )
        54           H1  tau(  54) = (   6.2616785   1.7135167  18.6767212  )
        55           O1  tau(  55) = (   3.7012217   5.9496235  18.2853534  )
        56           H1  tau(  56) = (   4.6684668   5.8470116  18.1670174  )
        57           H1  tau(  57) = (   3.3852657   5.1278045  18.7338684  )

     number of k points=    10  Fermi-Dirac smearing, width (Ry)=  0.0073
                       cart. coord. in units 2pi/alat
        k(    1) = (   0.0000000   0.0000000   0.0000000), wk =   0.1250000
        k(    2) = (   0.0000000   0.0419351   0.0000000), wk =   0.2500000
        k(    3) = (   0.0000000  -0.0838702   0.0000000), wk =   0.1250000
        k(    4) = (   0.0379955   0.0000049   0.0000000), wk =   0.2500000
        k(    5) = (   0.0379955   0.0419400   0.0000000), wk =   0.2500000
        k(    6) = (   0.0379955  -0.0838652   0.0000000), wk =   0.2500000
        k(    7) = (   0.0379955  -0.0419301   0.0000000), wk =   0.2500000
        k(    8) = (  -0.0759910  -0.0000099   0.0000000), wk =   0.1250000
        k(    9) = (  -0.0759910   0.0419252   0.0000000), wk =   0.2500000
        k(   10) = (  -0.0759910  -0.0838800   0.0000000), wk =   0.1250000

     Initial potential from superposition of free atoms

     starting charge  387.99913, renormalised to  404.00000

     negative rho (up, down):  1.598E-02 0.000E+00

     %%%%%%%%%%%%%%%%%%%%%%%%%%%%%%%%%%%%%%%%%%%%%%%%%%%%%%%%%%%%%%%%%%%%%%%%
     %                                                                      %
     % You are using vdW-DF, which was implemented by the Thonhauser group. %
     % Please cite the following two papers that made this development      %
     % possible and the two reviews that describe the various versions:     %
     %                                                                      %
     %   T. Thonhauser et al., PRL 115, 136402 (2015).                      %
     %   T. Thonhauser et al., PRB 76, 125112 (2007).                       %
     %   K. Berland et al., Rep. Prog. Phys. 78, 066501 (2015).             %
     %   D.C. Langreth et al., J. Phys.: Condens. Matter 21, 084203 (2009). %
     %                                                                      %
     %                                                                      %
     % If you are calculating the stress with vdW-DF, please also cite:     %
     %                                                                      %
     %   R. Sabatini et al., J. Phys.: Condens. Matter 24, 424209 (2012).   %
     %                                                                      %
     %%%%%%%%%%%%%%%%%%%%%%%%%%%%%%%%%%%%%%%%%%%%%%%%%%%%%%%%%%%%%%%%%%%%%%%%

     Adding external electric field

     Computed dipole along edir(3) :
        Dipole              -14.3593 Ry au,        -36.4977 Debye
        Dipole field         -0.0271 Ry au,

        Potential amp.        2.5119 Ry
        Total length         46.3494 bohr

     Starting wfcs are  306 atomic wfcs
  @ DRIVER MODE: Message from server: STATUS
  @ DRIVER MODE: Message from server: POSDATA
  @ DRIVER MODE: Reading and sharing cell
  @ DRIVER MODE: Reading and sharing positions
  @ DRIVER MODE: Received positions

     Self-consistent Calculation

     iteration #  1     ecut=    29.40 Ry     beta= 0.05
     Davidson diagonalization with overlap
     c_bands:  3 eigenvalues not converged
     c_bands:  4 eigenvalues not converged
     c_bands:  4 eigenvalues not converged
     c_bands:  4 eigenvalues not converged
     c_bands:  5 eigenvalues not converged
     c_bands:  3 eigenvalues not converged
     c_bands:  2 eigenvalues not converged
     c_bands:  4 eigenvalues not converged
     ethr =  1.00E-05,  avg # of iterations = 21.9

[...]

     total energy              =   -2220.92789337 Ry
     estimated scf accuracy    <    8587.45022915 Ry

     iteration #  2     ecut=    29.40 Ry     beta= 0.05
     Davidson diagonalization with overlap
     ethr =  1.00E-02,  avg # of iterations = 29.0

[...]

     iteration # 61     ecut=    29.40 Ry     beta= 0.05
     Davidson diagonalization with overlap
     ethr =  4.89E-11,  avg # of iterations =  2.0

[...]

     total energy              =   -2975.10522718 Ry
     estimated scf accuracy    <       0.00000015 Ry

     iteration # 62     ecut=    29.40 Ry     beta= 0.05
     Davidson diagonalization with overlap
     c_bands:  1 eigenvalues not converged
     ethr =  3.62E-11,  avg # of iterations = 11.6

     negative rho (up, down):  1.579E-02 0.000E+00

     Adding external electric field

     Computed dipole along edir(3) :
        Dipole                1.0257 Ry au,          2.6071 Debye
        Dipole field          0.0019 Ry au,

        Potential amp.       -0.1794 Ry
        Total length         46.3494 bohr

     End of self-consistent calculation

          k = 0.0000 0.0000 0.0000 ( 18029 PWs)   bands (ev):

   -55.3830 -55.3472 -55.3430 -55.3089 -55.3058 -55.3003 -55.2650 -55.2297
   -55.2145 -55.1797 -55.1730 -55.1576 -55.1393 -55.1102 -54.3742 -54.3402
   -31.9419 -31.8781 -31.8357 -31.7546 -31.7057 -31.7031 -31.6789 -31.6759
   -31.6319 -31.5960 -31.5890 -31.5877 -31.5808 -31.5771 -31.5590 -31.5570
   -31.5323 -31.5243 -31.5213 -31.5100 -31.4957 -31.4892 -31.4703 -31.4657
   -31.4570 -31.4441 -31.4435 -31.4147 -31.4003 -31.3966 -31.3935 -31.3714
   -31.3674 -31.3634 -31.3598 -31.3386 -31.3276 -31.3155 -31.3007 -31.3007
   -31.2906 -31.2840 -30.7837 -30.6892 -30.6671 -30.6001 -30.5133 -30.4024
   -18.8886 -18.4580 -16.2176 -15.9703 -15.8343 -15.7295 -15.5925 -15.4943
   -15.3851 -15.2719 -15.2489 -15.1552 -15.0807 -15.0760 -15.0394 -15.0139
   -14.9513 -14.9300 -14.9062 -14.9002 -14.8857 -14.8755 -14.8390 -14.8280
   -14.7960 -14.7841 -14.7668 -14.6551 -14.6246 -14.5495 -14.4790 -14.3430
   -12.8766 -12.7592  -9.8469  -7.0118  -6.3803  -6.0930  -4.4258  -3.7434
    -3.5418  -3.4079  -3.3300  -3.3019  -3.2833  -3.1517  -3.0605  -2.9002
    -2.8613  -2.8052  -2.6713  -2.5954  -2.5892  -2.5011  -2.4287  -2.4053
    -2.3724  -2.2631  -2.2568  -2.2072  -2.1897  -2.1665  -2.1573  -2.1106
    -2.0648  -2.0375  -1.9524  -1.8510  -1.8072  -1.7873  -1.7510  -1.7285
    -1.7238  -1.6799  -1.6738  -1.6497  -1.6113  -1.5870  -1.5417  -1.4296
    -1.3892  -1.2293  -1.1919  -1.0377  -1.0175  -0.9781  -0.9576  -0.9227
    -0.8912  -0.8748  -0.8605  -0.7698  -0.7115  -0.6454  -0.5813  -0.4911
    -0.4801  -0.4055  -0.3803  -0.3150  -0.2283  -0.1830  -0.1734  -0.1486
    -0.1454  -0.0315   0.0134   0.0736   0.0927   0.1498   0.1656   0.1877
     0.2578   0.3116   0.3808   0.4115   0.4906   0.5087   0.5439   0.5531
     0.5854   0.5959   0.6721   0.6869   0.7151   0.8178   0.9154   1.0079
     1.2182   1.2208   1.2503   1.5533   1.5555   1.6488   1.8321   2.2251
     2.2735   3.7068   3.7852   3.8348   3.8524   3.8570   3.9418   4.1963
     4.2106   4.2233   4.2295   4.2702

[...]

          k = 0.0380-0.0419 0.0000 ( 17876 PWs)   bands (ev):

[...]

          k =-0.0760-0.0000 0.0000 ( 17886 PWs)   bands (ev):

[...]

          k =-0.0760-0.0839 0.0000 ( 17948 PWs)   bands (ev):

   -55.3662 -55.3638 -55.3261 -55.3257 -55.3029 -55.2994 -55.2512 -55.2434
   -55.2002 -55.1936 -55.1594 -55.1571 -55.1553 -55.1120 -54.3571 -54.3571
   -31.7928 -31.7544 -31.7403 -31.6509 -31.6506 -31.6363 -31.6243 -31.6173
   -31.6169 -31.5961 -31.5911 -31.5880 -31.5651 -31.5574 -31.5454 -31.5316
   -31.5284 -31.5258 -31.5218 -31.5137 -31.5090 -31.5070 -31.5060 -31.4984
   -31.4665 -31.4650 -31.4458 -31.4455 -31.4453 -31.4402 -31.4376 -31.4331
   -31.4237 -31.4123 -31.4066 -31.3899 -31.3881 -31.3784 -31.3370 -31.3358
   -31.3353 -31.3166 -30.6798 -30.6798 -30.5962 -30.5961 -30.5567 -30.5567
   -18.8828 -18.4604 -15.8372 -15.6504 -15.4991 -15.4274 -15.4071 -15.3238
   -15.2684 -15.2649 -15.1917 -15.1739 -15.1616 -15.1396 -15.1306 -15.0831
   -15.0459 -15.0093 -14.9906 -14.9679 -14.9247 -14.9021 -14.9004 -14.8937
   -14.8859 -14.8456 -14.8405 -14.8372 -14.7454 -14.7435 -14.7130 -14.5620
   -12.8606 -12.8606  -9.8562  -7.0005  -6.3554  -6.0691  -4.4390  -3.6738
    -3.0240  -2.9086  -2.8982  -2.6695  -2.6509  -2.5896  -2.5773  -2.4892
    -2.4736  -2.4131  -2.3894  -2.3393  -2.3165  -2.2787  -2.2647  -2.2430
    -2.2219  -2.2081  -2.1815  -2.1655  -2.1486  -2.1287  -2.1179  -2.1065
    -2.0514  -2.0459  -2.0368  -2.0114  -1.9883  -1.9522  -1.9424  -1.9259
    -1.7705  -1.7549  -1.7334  -1.5979  -1.5936  -1.5600  -1.5195  -1.4920
    -1.4342  -1.4254  -1.3973  -1.3387  -1.1450  -1.1343  -1.1221  -1.1046
    -1.0333  -0.9779  -0.9639  -0.9458  -0.8920  -0.8143  -0.7808  -0.7278
    -0.6393  -0.5866  -0.5769  -0.5513  -0.4301  -0.4073  -0.3646  -0.3466
    -0.3304  -0.2960  -0.2944  -0.2372  -0.1846  -0.1488  -0.1259  -0.1116
    -0.0745   0.0804   0.1321   0.1485   0.2625   0.2922   0.4706   0.5131
     0.5346   0.6398   0.7231   0.7514   0.7656   0.8907   0.9130   0.9155
     0.9839   1.0061   1.0662   1.0719   1.2065   2.0048   2.0061   2.0933
     2.0936   3.8319   3.9545   3.9990   4.0347   4.1105   4.1636   4.2206
     4.2797   4.2913   4.2949   4.3623

     the Fermi energy is     3.7689 ev

!    total energy              =   -2975.10528657 Ry
     estimated scf accuracy    <       0.00000006 Ry
     smearing contrib. (-TS)   =      -0.03671998 Ry
     internal energy E=F+TS    =   -2975.06856660 Ry

     The total energy is F=E-TS. E is the sum of the following terms:
     one-electron contribution =  -23505.01446273 Ry
     hartree contribution      =   11848.54782268 Ry
     xc contribution           =    -494.92018994 Ry
     ewald contribution        =    9176.31627796 Ry
     electric field correction =       0.00198543 Ry

     convergence has been achieved in  62 iterations

     Forces acting on atoms (cartesian axes, Ry/au):

     atom    1 type  1   force =     0.00002762   -0.00025407    0.09309892
     atom    2 type  1   force =    -0.00017819   -0.00031889   -0.17837760
     atom    3 type  2   force =     0.00006049   -0.00017455   -0.02024294
     atom    4 type  2   force =     0.00001737   -0.00203942    0.05925672
     atom    5 type  2   force =    -0.01034312   -0.00110179    0.00808573
     atom    6 type  2   force =     0.01218951   -0.00054709    0.00816360
     atom    7 type  1   force =     0.00014679    0.00329307   -0.01112301
     atom    8 type  1   force =    -0.00030221    0.00051950   -0.00561012
     atom    9 type  2   force =     0.00004177    0.00017852   -0.00015603
     atom   10 type  2   force =    -0.00146401   -0.00003989   -0.00172900
     atom   11 type  2   force =     0.00037090   -0.00003050   -0.00006913
     atom   12 type  2   force =    -0.00009206    0.00010572   -0.00009751
     atom   13 type  1   force =    -0.00010492   -0.00017177   -0.00023681
     atom   14 type  1   force =    -0.00021567   -0.00036050    0.00036112
     atom   15 type  2   force =     0.00005635   -0.00049606    0.00008443
     atom   16 type  2   force =     0.00022770    0.00008018    0.00023919
     atom   17 type  2   force =     0.00039079   -0.00017343    0.00020945
     atom   18 type  2   force =    -0.00003687   -0.00016728   -0.00030796
     atom   19 type  1   force =    -0.00042397   -0.00059288    0.00005055
     atom   20 type  1   force =     0.00030027    0.00024552    0.00049159
     atom   21 type  2   force =    -0.00000199   -0.00007659    0.10406161
     atom   22 type  2   force =    -0.00014093   -0.00003972   -0.00000257
     atom   23 type  2   force =    -0.07035044   -0.00015648   -0.02684722
     atom   24 type  2   force =     0.07022000    0.00028955   -0.02692440
     atom   25 type  1   force =     0.00001757   -0.00015173    0.09275979
     atom   26 type  1   force =    -0.00016022   -0.00039633   -0.17832229
     atom   27 type  2   force =     0.00011248   -0.00030704   -0.01918166
     atom   28 type  2   force =     0.00004827   -0.00163545    0.05840786
     atom   29 type  2   force =    -0.01029171   -0.00063945    0.00728988
     atom   30 type  2   force =     0.01203298   -0.00030842    0.00742557
     atom   31 type  1   force =     0.00007277    0.00516026   -0.01466237
     atom   32 type  1   force =    -0.00013811   -0.00050591   -0.00595586
     atom   33 type  2   force =     0.00012819   -0.00039648   -0.00023885
     atom   34 type  2   force =    -0.00078747    0.00260942   -0.00105243
     atom   35 type  2   force =    -0.00007528   -0.00012025   -0.00013083
     atom   36 type  2   force =     0.00024351   -0.00000441   -0.00015793
     atom   37 type  1   force =    -0.00045338    0.00007283    0.00003044
     atom   38 type  1   force =    -0.00002287   -0.00024809   -0.00022362
     atom   39 type  2   force =    -0.00031934   -0.00016986   -0.00015759
     atom   40 type  2   force =    -0.00012845   -0.00005381   -0.00006127
     atom   41 type  2   force =    -0.00010931   -0.00015046    0.00040843
     atom   42 type  2   force =    -0.00007226   -0.00024374    0.00016045
     atom   43 type  1   force =    -0.00011877   -0.00015828    0.00008054
     atom   44 type  1   force =     0.00002147   -0.00001733    0.00008462
     atom   45 type  2   force =     0.00000900   -0.00011249    0.10403224
     atom   46 type  2   force =    -0.07037702   -0.00012355   -0.02687149
     atom   47 type  2   force =     0.07022271    0.00030862   -0.02693424
     atom   48 type  3   force =    -0.00200451    0.00435515    0.00264847
     atom   49 type  3   force =    -0.00036008   -0.00119800    0.00019735
     atom   50 type  4   force =     0.00016618    0.00143459    0.00109563
     atom   51 type  5   force =     0.00010019   -0.00046024   -0.00084005
     atom   52 type  5   force =     0.00167003   -0.00452823   -0.00251111
     atom   53 type  5   force =     0.00004791    0.00009060    0.00002685
     atom   54 type  5   force =     0.00019890    0.00050195   -0.00008307
     atom   55 type  2   force =     0.00004798   -0.00010633    0.00069447
     atom   56 type  5   force =     0.00026449   -0.00037188   -0.00043943
     atom   57 type  5   force =    -0.00038102   -0.00009683    0.00010287

     Total force =     0.366310     Total SCF correction =     0.000651
  @ DRIVER MODE: Message from server: STATUS
  @ DRIVER MODE: Message from server: GETFORCE
  @ DRIVER MODE: Returning v,forces,stress,ensemble

     Writing output data file ./calc.save/
  @ DRIVER MODE: Message from server: EXIT
  @ DRIVE MODE: Exiting

     General routines

     Parallel routines

   This run was terminated on:   9: 7:12  22Sep2021

   JOB DONE.