     Program PWSCF v.6.7GPU starts on  8Sep2021 at 23:49:43

     R & G space division:  proc/nbgrp/npool/nimage =      10
     Reading input from /storage/home/hcoda1/3/ntian30/research/carbon/CxH_vib/CH_calc/ads_slab/CH_a/out_0008/pw.inp
Warning: card &CELL ignored
Warning: card   CELL_DYNAMICS='IPI', ignored
Warning: card / ignored

     Current dimensions of program PWSCF are:
     Max number of different atomic species (ntypx) = 10
     Max number of k-points (npk) =  40000
     Max angular momentum in pseudopotentials (lmaxx) =  3
     Presently no symmetry can be used with electric field

     Message from routine cell_base_init:
     DEPRECATED: use true lattice parameter, not A to a.u. conversion factor

     IMPORTANT: XC functional enforced from input :
     Exchange-correlation= BEEF-VDW
                           (   1   4  43  14   2   0   0)
     Any further DFT definition will be discarded
     Please, verify this is what you really want

  @ DRIVER MODE: Connecting to
 qe_1139763_2767381.sched-torque.pace.gatech.edu60ufs9b5_scratch
  using UNIX socket
  @ DRIVER MODE: Message from server: STATUS
  @ DRIVER MODE: Message from server: INIT
  @ DRIVER MODE: Receiving replica           0          -1
  @ DRIVER MODE: Receiving encoded integer          25
  @ DRIVER MODE:  SCF:  T  FORCE:  T  STRESS:  F  VC:  F  ENSEMBLE:  F
  @ DRIVER MODE:  SCF:  T  FORCE:  T  STRESS:  F  VC:  F  ENSEMBLE:  F

     Using Slab Decomposition

     bravais-lattice index     =            0
     lattice parameter (alat)  =       1.8897  a.u.
     unit-cell volume          =    6658.9804 (a.u.)^3
     number of atoms/cell      =           49
     number of atomic types    =            4
     number of electrons       =       383.00
     number of Kohn-Sham states=          201
     kinetic-energy cutoff     =      29.3995  Ry
     charge density cutoff     =     293.9946  Ry
     scf convergence threshold =      7.3E-08
     mixing beta               =       0.0500
     number of iterations used =            8  plain     mixing
     Exchange-correlation= BEEF-VDW
                           (   1   4  43  14   2   0   0)

     celldm(1)=   1.889726  celldm(2)=   0.000000  celldm(3)=   0.000000
     celldm(4)=   0.000000  celldm(5)=   0.000000  celldm(6)=   0.000000

     crystal axes: (cart. coord. in units of alat)
               a(1) = (   6.579727   0.000000   0.000000 )
               a(2) = (  -0.000775   5.961596   0.000000 )
               a(3) = (   0.000000   0.000000  25.155947 )

     reciprocal axes: (cart. coord. in units 2 pi/alat)
               b(1) = (  0.151982  0.000020  0.000000 )
               b(2) = (  0.000000  0.167740  0.000000 )
               b(3) = (  0.000000  0.000000  0.039752 )

     PseudoPot. # 1 for Ti read from file:
     /storage/coda1/p-amedford6/0/shared/rich_project_chbe-medford/medford-share/data/pseudos_module/espresso/nninc/pbe/van/Ti.UPF
     MD5 check sum: 8e4df49b7f0d34bbd5052bf3f5ea0213
     Pseudo is Ultrasoft, Zval = 12.0
     Generated by new atomic code, or converted to UPF format
     Using radial grid of  851 points,  6 beta functions with:
                l(1) =   0
                l(2) =   0
                l(3) =   1
                l(4) =   1
                l(5) =   2
                l(6) =   2
     Q(r) pseudized with  8 coefficients,  rinner =    1.000   1.000   1.000
                                                       1.000   1.000

     PseudoPot. # 2 for O  read from file:
     /storage/coda1/p-amedford6/0/shared/rich_project_chbe-medford/medford-share/data/pseudos_module/espresso/nninc/pbe/van/O.UPF
     MD5 check sum: 78c19812648e8988a0fe644b0f25305e
     Pseudo is Ultrasoft, Zval =  6.0
     Generated by new atomic code, or converted to UPF format
     Using radial grid of  737 points,  4 beta functions with:
                l(1) =   0
                l(2) =   0
                l(3) =   1
                l(4) =   1
     Q(r) pseudized with  8 coefficients,  rinner =    0.800   0.800   0.800

     PseudoPot. # 3 for C  read from file:
     /storage/coda1/p-amedford6/0/shared/rich_project_chbe-medford/medford-share/data/pseudos_module/espresso/nninc/pbe/van/C.UPF
     MD5 check sum: 1a69bf6b8db32088f5b2163dbdb77a27
     Pseudo is Ultrasoft, Zval =  4.0
     Generated by new atomic code, or converted to UPF format
     Using radial grid of  721 points,  4 beta functions with:
                l(1) =   0
                l(2) =   0
                l(3) =   1
                l(4) =   1
     Q(r) pseudized with  8 coefficients,  rinner =    0.800   0.800   0.800

     PseudoPot. # 4 for H  read from file:
     /storage/coda1/p-amedford6/0/shared/rich_project_chbe-medford/medford-share/data/pseudos_module/espresso/nninc/pbe/van/H.UPF
     MD5 check sum: b5ee9d7bfd3a09ee7748110bda690ff7
     Pseudo is Ultrasoft, Zval =  1.0
     Generated by new atomic code, or converted to UPF format
     Using radial grid of  615 points,  1 beta functions with:
                l(1) =   0
     Q(r) pseudized with  8 coefficients,  rinner =    0.800

     atomic species   valence    mass     pseudopotential
        Ti1           12.00    47.86700     Ti( 1.00)
        O1             6.00    15.99900     O ( 1.00)
        C1             4.00    12.01100     C ( 1.00)
        H1             1.00     1.00800     H ( 1.00)

     No symmetry found

   Cartesian axes

     site n.     atom                  positions (alat units)
         1           Ti1 tau(   1) = (   0.0004258   2.9801865   6.0000000  )
         2           Ti1 tau(   2) = (   3.2906075   1.4906267   6.0002472  )
         3           O1  tau(   3) = (   0.0006271   0.0005054   7.9858123  )
         4           O1  tau(   4) = (   3.2906025   0.0005020   7.3038282  )
         5           O1  tau(   5) = (   4.5942328   1.4918067   9.2879030  )
         6           O1  tau(   6) = (   1.9868534   1.4903216   9.2879459  )
         7           Ti1 tau(   7) = (   3.2921849   2.8658251   9.1648892  )
         8           Ti1 tau(   8) = (   0.0073351   1.4983988   9.3831490  )
         9           O1  tau(   9) = (   3.2842540   0.0070318  11.3521760  )
        10           O1  tau(  10) = (   0.0010487   0.0043113  10.5580200  )
        11           O1  tau(  11) = (   1.2736759   1.5124129  12.6486185  )
        12           O1  tau(  12) = (   5.2630300   1.5084811  12.6300625  )
        13           Ti1 tau(  13) = (   0.0799159   2.9885021  12.8537609  )
        14           Ti1 tau(  14) = (   3.3962166   1.4899997  12.4930974  )
        15           O1  tau(  15) = (   6.5670857   5.9608082  14.6055349  )
        16           O1  tau(  16) = (   3.2779887   0.0262294  13.9455360  )
        17           O1  tau(  17) = (   4.5047259   1.5524619  16.1062024  )
        18           O1  tau(  18) = (   2.0328015   1.5482461  16.0993997  )
        19           Ti1 tau(  19) = (   3.2588990   3.0258902  15.7259251  )
        20           Ti1 tau(  20) = (   6.5443225   1.5921241  16.1654916  )
        21           O1  tau(  21) = (   3.2904802   0.0005063   4.7018136  )
        22           O1  tau(  22) = (   6.5577444   0.0567680  17.2452940  )
        23           O1  tau(  23) = (   1.3043587   1.4918075   6.0039043  )
        24           O1  tau(  24) = (   5.2767064   1.4903225   6.0039473  )
        25           Ti1 tau(  25) = (   0.0000382   5.9609847   6.0000000  )
        26           Ti1 tau(  26) = (   3.2902200   4.4714249   6.0002472  )
        27           O1  tau(  27) = (   0.0002396   2.9813036   7.9858123  )
        28           O1  tau(  28) = (   3.2902150   2.9813002   7.3038282  )
        29           O1  tau(  29) = (   4.5938453   4.4726049   9.2879030  )
        30           O1  tau(  30) = (   1.9864658   4.4711199   9.2879459  )
        31           Ti1 tau(  31) = (   3.2960881   5.8478476   9.1648656  )
        32           Ti1 tau(  32) = (   0.0086818   4.4758218   9.3788328  )
        33           O1  tau(  33) = (   3.2854246   2.9850844  11.3450670  )
        34           O1  tau(  34) = (   0.0004502   2.9836692  10.5560002  )
        35           O1  tau(  35) = (   1.2751814   4.4662498  12.6462591  )
        36           O1  tau(  36) = (   5.2612828   4.4711168  12.6263095  )
        37           Ti1 tau(  37) = (   0.0650160   0.0072273  12.8037121  )
        38           Ti1 tau(  38) = (   3.3952379   4.4681493  12.4860303  )
        39           O1  tau(  39) = (   6.5700874   2.9943110  14.6990684  )
        40           O1  tau(  40) = (   3.2774739   3.0059374  13.9302241  )
        41           O1  tau(  41) = (   4.5038310   4.5165569  16.1051355  )
        42           O1  tau(  42) = (   2.0336826   4.5180826  16.0999700  )
        43           Ti1 tau(  43) = (   3.2582433   0.0441072  15.7465997  )
        44           Ti1 tau(  44) = (   6.5393581   4.6163053  16.1595090  )
        45           O1  tau(  45) = (   3.2900926   2.9813045   4.7018136  )
        46           O1  tau(  46) = (   1.3039711   4.4726057   6.0039043  )
        47           O1  tau(  47) = (   5.2763189   4.4711207   6.0039473  )
        48           C1  tau(  48) = (   6.5669965   3.0274956  17.5143990  )
        49           H1  tau(  49) = (   0.0136594   3.1884539  18.5931066  )

     number of k points=    10  Fermi-Dirac smearing, width (Ry)=  0.0073
                       cart. coord. in units 2pi/alat
        k(    1) = (   0.0000000   0.0000000   0.0000000), wk =   0.1250000
        k(    2) = (   0.0000000   0.0419351   0.0000000), wk =   0.2500000
        k(    3) = (   0.0000000  -0.0838702   0.0000000), wk =   0.1250000
        k(    4) = (   0.0379955   0.0000049   0.0000000), wk =   0.2500000
        k(    5) = (   0.0379955   0.0419400   0.0000000), wk =   0.2500000
        k(    6) = (   0.0379955  -0.0838652   0.0000000), wk =   0.2500000
        k(    7) = (   0.0379955  -0.0419301   0.0000000), wk =   0.2500000
        k(    8) = (  -0.0759910  -0.0000099   0.0000000), wk =   0.1250000
        k(    9) = (  -0.0759910   0.0419252   0.0000000), wk =   0.2500000
        k(   10) = (  -0.0759910  -0.0838800   0.0000000), wk =   0.1250000

     Initial potential from superposition of free atoms

     starting charge  366.99920, renormalised to  383.00000

     negative rho (up, down):  2.156E-02 0.000E+00

     %%%%%%%%%%%%%%%%%%%%%%%%%%%%%%%%%%%%%%%%%%%%%%%%%%%%%%%%%%%%%%%%%%%%%%%%
     %                                                                      %
     % You are using vdW-DF, which was implemented by the Thonhauser group. %
     % Please cite the following two papers that made this development      %
     % possible and the two reviews that describe the various versions:     %
     %                                                                      %
     %   T. Thonhauser et al., PRL 115, 136402 (2015).                      %
     %   T. Thonhauser et al., PRB 76, 125112 (2007).                       %
     %   K. Berland et al., Rep. Prog. Phys. 78, 066501 (2015).             %
     %   D.C. Langreth et al., J. Phys.: Condens. Matter 21, 084203 (2009). %
     %                                                                      %
     %                                                                      %
     % If you are calculating the stress with vdW-DF, please also cite:     %
     %                                                                      %
     %   R. Sabatini et al., J. Phys.: Condens. Matter 24, 424209 (2012).   %
     %                                                                      %
     %%%%%%%%%%%%%%%%%%%%%%%%%%%%%%%%%%%%%%%%%%%%%%%%%%%%%%%%%%%%%%%%%%%%%%%%

     Adding external electric field

     Computed dipole along edir(3) :
        Dipole                0.0501 Ry au,          0.1273 Debye
        Dipole field          0.0001 Ry au,

        Potential amp.       -0.0088 Ry
        Total length         46.3494 bohr

     Starting wfcs are  289 atomic wfcs
  @ DRIVER MODE: Message from server: STATUS
  @ DRIVER MODE: Message from server: POSDATA
  @ DRIVER MODE: Reading and sharing cell
  @ DRIVER MODE: Reading and sharing positions
  @ DRIVER MODE: Received positions

     Self-consistent Calculation

     iteration #  1     ecut=    29.40 Ry     beta= 0.05
     Davidson diagonalization with overlap
     c_bands:  1 eigenvalues not converged
     c_bands:  1 eigenvalues not converged
     c_bands:  1 eigenvalues not converged
     c_bands:  1 eigenvalues not converged
     c_bands:  1 eigenvalues not converged
     c_bands:  1 eigenvalues not converged
     ethr =  1.00E-05,  avg # of iterations = 19.5

[...]

     total energy              =   -2897.80965994 Ry
     estimated scf accuracy    <      11.75325577 Ry

     iteration #  2     ecut=    29.40 Ry     beta= 0.05
     Davidson diagonalization with overlap
     ethr =  3.07E-03,  avg # of iterations =  1.0

[...]

     iteration # 54     ecut=    29.40 Ry     beta= 0.05
     Davidson diagonalization with overlap
     c_bands:  1 eigenvalues not converged
     c_bands:  1 eigenvalues not converged
     ethr =  5.80E-08,  avg # of iterations = 10.3

[...]

     total energy              =   -2896.37514035 Ry
     estimated scf accuracy    <       0.00000008 Ry

     iteration # 71     ecut=    29.40 Ry     beta= 0.05
     Davidson diagonalization with overlap
     ethr =  2.16E-11,  avg # of iterations =  2.0

     negative rho (up, down):  2.069E-02 0.000E+00

     Adding external electric field

     Computed dipole along edir(3) :
        Dipole                0.3696 Ry au,          0.9393 Debye
        Dipole field          0.0007 Ry au,

        Potential amp.       -0.0647 Ry
        Total length         46.3494 bohr

     End of self-consistent calculation

          k = 0.0000 0.0000 0.0000 ( 18029 PWs)   bands (ev):

   -56.6405 -56.6067 -56.3425 -56.3057 -56.2270 -56.1659 -56.0428 -56.0400
   -56.0057 -55.9454 -55.9357 -55.9090 -55.4378 -55.4038 -55.3535 -55.2680
   -33.0689 -32.8869 -32.8858 -32.8585 -32.8326 -32.7413 -32.6957 -32.6798
   -32.6493 -32.5572 -32.5446 -32.5375 -32.5231 -32.5197 -32.5126 -32.4957
   -32.4726 -32.4549 -32.4449 -32.3490 -32.3118 -32.2887 -32.2863 -32.2762
   -32.2624 -32.2592 -32.1973 -32.1938 -32.1678 -32.1617 -32.1544 -32.1304
   -32.1224 -32.1125 -32.0992 -32.0415 -31.8960 -31.8381 -31.7630 -31.7393
   -31.6566 -31.6254 -31.5869 -31.5717 -31.5604 -31.4850 -31.4595 -31.3415
   -16.9973 -16.8094 -16.5769 -16.4419 -16.3518 -16.2788 -16.0124 -16.0100
   -15.9637 -15.8917 -15.8635 -15.8007 -15.7978 -15.7714 -15.7606 -15.7507
   -15.7324 -15.6843 -15.6681 -15.6403 -15.6073 -15.5660 -15.4436 -15.4241
   -15.4078 -15.2939 -15.2443 -15.2061 -15.0225 -13.9310 -13.8169  -7.7763
    -4.4001  -4.3413  -4.1870  -4.1625  -4.0708  -3.8265  -3.6995  -3.4770
    -3.4357  -3.4051  -3.3901  -3.3241  -3.2650  -3.1576  -3.1414  -3.1197
    -3.0796  -3.0711  -3.0493  -3.0353  -3.0103  -2.9699  -2.8873  -2.8484
    -2.8295  -2.7497  -2.7226  -2.6454  -2.6190  -2.5745  -2.5492  -2.4901
    -2.4836  -2.4200  -2.3489  -2.2909  -2.1394  -2.0989  -2.0906  -2.0834
    -2.0130  -1.9041  -1.7624  -1.7281  -1.6618  -1.6599  -1.6423  -1.6054
    -1.5140  -1.4950  -1.4104  -1.3042  -1.2944  -1.2435  -1.1909  -1.1502
    -1.1331  -1.1326  -1.0756  -1.0434  -1.0072  -0.8801  -0.8528  -0.7336
    -0.7163  -0.6812  -0.6441  -0.6392  -0.5886  -0.5304  -0.4771  -0.4466
    -0.4254  -0.3783  -0.3680  -0.3327  -0.3099  -0.2551  -0.1403  -0.1167
    -0.1062  -0.0413   0.1437   0.1692   0.2123   0.3011   0.3497   0.5116
     0.5320   0.5906   0.7987   0.8357   1.1811   1.2612   1.5400   2.2808
     2.6272   2.8221   3.0829   3.1191   3.1362   3.1678   3.3428   3.3772
     3.3957

[...]

          k = 0.0380-0.0419 0.0000 ( 17876 PWs)   bands (ev):

[...]

          k =-0.0760-0.0000 0.0000 ( 17886 PWs)   bands (ev):

[...]

          k =-0.0760-0.0839 0.0000 ( 17948 PWs)   bands (ev):

   -56.6257 -56.6214 -56.3285 -56.3196 -56.2216 -56.1712 -56.0399 -56.0252
   -56.0202 -55.9385 -55.9316 -55.9227 -55.4207 -55.4207 -55.3498 -55.2715
   -32.8881 -32.8845 -32.8751 -32.8697 -32.7870 -32.7834 -32.6936 -32.6868
   -32.6048 -32.5939 -32.5369 -32.5267 -32.5246 -32.5165 -32.4911 -32.4639
   -32.4274 -32.3731 -32.3604 -32.3528 -32.3490 -32.2845 -32.2757 -32.2698
   -32.2675 -32.2589 -32.2517 -32.2431 -32.2314 -32.2260 -32.1834 -32.1748
   -32.1429 -32.1417 -32.1346 -32.1336 -31.7938 -31.7522 -31.7522 -31.6523
   -31.6522 -31.6347 -31.6238 -31.6143 -31.6142 -31.5637 -31.5055 -31.3815
   -16.4530 -16.4343 -16.2206 -16.2114 -16.1129 -16.1125 -16.1115 -16.1091
   -16.0088 -16.0060 -15.9338 -15.9196 -15.8636 -15.8559 -15.8207 -15.8189
   -15.7975 -15.7942 -15.7523 -15.7456 -15.6172 -15.6151 -15.5091 -15.5054
   -15.4665 -15.4258 -15.3862 -15.3757 -15.1589 -13.9193 -13.9190  -7.7786
    -3.7510  -3.7202  -3.4358  -3.4320  -3.2497  -3.2473  -3.2458  -3.2265
    -3.1824  -3.1525  -3.1428  -3.1174  -3.0858  -3.0434  -3.0326  -3.0129
    -3.0082  -3.0025  -2.9896  -2.9884  -2.9652  -2.9562  -2.9040  -2.8826
    -2.8723  -2.8627  -2.8134  -2.8120  -2.7086  -2.5859  -2.5382  -2.5341
    -2.4846  -2.4506  -2.3670  -2.3643  -2.3356  -2.3194  -2.2726  -2.1694
    -2.0377  -2.0351  -1.9891  -1.9593  -1.8934  -1.8180  -1.7158  -1.6500
    -1.6187  -1.5891  -1.5227  -1.4650  -1.4573  -1.4383  -1.4276  -1.4197
    -1.4055  -1.3093  -1.2970  -1.2256  -1.1885  -1.1783  -1.1681  -1.1356
    -1.1104  -1.0461  -0.9509  -0.9482  -0.9360  -0.9083  -0.8032  -0.7594
    -0.7026  -0.6516  -0.6054  -0.3580  -0.3556  -0.2012  -0.0924  -0.0301
     0.0349   0.0589   0.1016   0.1670   0.2287   0.2339   0.2610   0.2635
     0.3592   0.3617   0.9768   0.9772   1.0358   1.0369   1.7716   2.2237
     3.1077   3.1507   3.1680   3.1733   3.1985   3.2263   3.2446   3.2551
     3.5819

     the Fermi energy is     2.1460 ev

!    total energy              =   -2896.37515339 Ry
     estimated scf accuracy    <       0.00000007 Ry
     smearing contrib. (-TS)   =      -0.01052778 Ry
     internal energy E=F+TS    =   -2896.36462561 Ry

     The total energy is F=E-TS. E is the sum of the following terms:
     one-electron contribution =  -24783.60852458 Ry
     hartree contribution      =   12469.82967307 Ry
     xc contribution           =    -472.98103440 Ry
     ewald contribution        =    9890.39500256 Ry
     electric field correction =       0.00025775 Ry

     convergence has been achieved in  71 iterations

     Forces acting on atoms (cartesian axes, Ry/au):

     atom    1 type  1   force =     0.00019029   -0.00055724    0.14916488
     atom    2 type  1   force =    -0.00002580   -0.00030906   -0.17023113
     atom    3 type  2   force =     0.00005910    0.00011892   -0.06123017
     atom    4 type  2   force =     0.00010911   -0.00167324    0.04073050
     atom    5 type  2   force =    -0.02328014    0.00030725    0.00411179
     atom    6 type  2   force =     0.02299913    0.00151611    0.00331780
     atom    7 type  1   force =    -0.00054866    0.00074507    0.00019955
     atom    8 type  1   force =     0.00020442    0.00084557   -0.00019238
     atom    9 type  2   force =    -0.00006019    0.00009702   -0.00049409
     atom   10 type  2   force =    -0.00003098   -0.00051034    0.00033492
     atom   11 type  2   force =    -0.00023118    0.00047264    0.00028980
     atom   12 type  2   force =     0.00033606    0.00012279    0.00023690
     atom   13 type  1   force =     0.00033679    0.00065288   -0.00096964
     atom   14 type  1   force =    -0.00045331    0.00097401   -0.00029382
     atom   15 type  2   force =     0.00014479   -0.00005428   -0.00019779
     atom   16 type  2   force =     0.00013266   -0.00026128   -0.00007131
     atom   17 type  2   force =     0.00069398    0.00015107    0.00005322
     atom   18 type  2   force =    -0.00070631    0.00029271    0.00011685
     atom   19 type  1   force =     0.00005784   -0.00106876    0.00059282
     atom   20 type  1   force =    -0.00014397   -0.00059455    0.00075608
     atom   21 type  2   force =     0.00008115   -0.00018382    0.10244688
     atom   22 type  2   force =    -0.00001061    0.00043202   -0.00037263
     atom   23 type  2   force =    -0.07442002    0.00019452   -0.03477556
     atom   24 type  2   force =     0.07437622    0.00062311   -0.03482526
     atom   25 type  1   force =    -0.00003882   -0.00050821    0.15020389
     atom   26 type  1   force =    -0.00002108   -0.00070516   -0.17018066
     atom   27 type  2   force =     0.00007242    0.00063722   -0.06043934
     atom   28 type  2   force =     0.00002907   -0.00161827    0.04017637
     atom   29 type  2   force =    -0.02285670    0.00144076    0.00428686
     atom   30 type  2   force =     0.02312743    0.00223668    0.00348542
     atom   31 type  1   force =    -0.00054493    0.00012913   -0.00077448
     atom   32 type  1   force =     0.00023045   -0.00110856    0.00052761
     atom   33 type  2   force =     0.00025807   -0.00007994    0.00119972
     atom   34 type  2   force =    -0.00004397    0.00059093   -0.00022728
     atom   35 type  2   force =    -0.00096916   -0.00042686    0.00003736
     atom   36 type  2   force =     0.00100286   -0.00023024    0.00011078
     atom   37 type  1   force =    -0.00004904   -0.00007296   -0.00023111
     atom   38 type  1   force =    -0.00070238   -0.00077099    0.00032638
     atom   39 type  2   force =    -0.00006116   -0.00018580   -0.00012474
     atom   40 type  2   force =     0.00009729   -0.00016142   -0.00078751
     atom   41 type  2   force =     0.00069405   -0.00034162    0.00042528
     atom   42 type  2   force =    -0.00077316   -0.00047072    0.00052779
     atom   43 type  1   force =     0.00003703    0.00082144   -0.00088716
     atom   44 type  1   force =     0.00003696   -0.00034276    0.00066799
     atom   45 type  2   force =     0.00007213   -0.00018382    0.10243686
     atom   46 type  2   force =    -0.07440922   -0.00013516   -0.03478138
     atom   47 type  2   force =     0.07436239    0.00030935   -0.03483421
     atom   48 type  3   force =     0.00069355   -0.00080474    0.00123423
     atom   49 type  4   force =    -0.00005446   -0.00035141   -0.00107689

     Total force =     0.404508     Total SCF correction =     0.000836
  @ DRIVER MODE: Message from server: STATUS
  @ DRIVER MODE: Message from server: GETFORCE
  @ DRIVER MODE: Returning v,forces,stress,ensemble

     Writing output data file ./calc.save/
  @ DRIVER MODE: Message from server: EXIT
  @ DRIVE MODE: Exiting

     General routines

     Parallel routines

   This run was terminated on:   0: 6:11   9Sep2021

   JOB DONE.