     Program PWSCF v.6.7GPU starts on 18Aug2021 at 19:32:33

     R & G space division:  proc/nbgrp/npool/nimage =       6
     Reading input from /storage/home/hcoda1/3/ntian30/research/carbon/CH3_vib_side_on/ads_slab/CH3_a/out_0022/pw.inp
Warning: card &CELL ignored
Warning: card   CELL_DYNAMICS='IPI', ignored
Warning: card / ignored

     Current dimensions of program PWSCF are:
     Max number of different atomic species (ntypx) = 10
     Max number of k-points (npk) =  40000
     Max angular momentum in pseudopotentials (lmaxx) =  3
     Presently no symmetry can be used with electric field

     Message from routine cell_base_init:
     DEPRECATED: use true lattice parameter, not A to a.u. conversion factor

     IMPORTANT: XC functional enforced from input :
     Exchange-correlation= BEEF-VDW
                           (   1   4  43  14   2   0   0)
     Any further DFT definition will be discarded
     Please, verify this is what you really want

  @ DRIVER MODE: Connecting to
 qe_1139763_2594175.sched-torque.pace.gatech.edufnuc4m89_scratch
  using UNIX socket
  @ DRIVER MODE: Message from server: STATUS
  @ DRIVER MODE: Message from server: INIT
  @ DRIVER MODE: Receiving replica           0          -1
  @ DRIVER MODE: Receiving encoded integer          25
  @ DRIVER MODE:  SCF:  T  FORCE:  T  STRESS:  F  VC:  F  ENSEMBLE:  F
  @ DRIVER MODE:  SCF:  T  FORCE:  T  STRESS:  F  VC:  F  ENSEMBLE:  F

     Using Slab Decomposition

     bravais-lattice index     =            0
     lattice parameter (alat)  =       1.8897  a.u.
     unit-cell volume          =    6658.9804 (a.u.)^3
     number of atoms/cell      =           51
     number of atomic types    =            4
     number of electrons       =       385.00
     number of Kohn-Sham states=          202
     kinetic-energy cutoff     =      29.3995  Ry
     charge density cutoff     =     293.9946  Ry
     scf convergence threshold =      7.3E-08
     mixing beta               =       0.0500
     number of iterations used =            8  plain     mixing
     Exchange-correlation= BEEF-VDW
                           (   1   4  43  14   2   0   0)

     celldm(1)=   1.889726  celldm(2)=   0.000000  celldm(3)=   0.000000
     celldm(4)=   0.000000  celldm(5)=   0.000000  celldm(6)=   0.000000

     crystal axes: (cart. coord. in units of alat)
               a(1) = (   6.579727   0.000000   0.000000 )
               a(2) = (  -0.000775   5.961596   0.000000 )
               a(3) = (   0.000000   0.000000  25.155947 )

     reciprocal axes: (cart. coord. in units 2 pi/alat)
               b(1) = (  0.151982  0.000020  0.000000 )
               b(2) = (  0.000000  0.167740  0.000000 )
               b(3) = (  0.000000  0.000000  0.039752 )

     PseudoPot. # 1 for Ti read from file:
     /storage/coda1/p-amedford6/0/shared/rich_project_chbe-medford/medford-share/data/pseudos_module/espresso/nninc/pbe/van/Ti.UPF
     MD5 check sum: 8e4df49b7f0d34bbd5052bf3f5ea0213
     Pseudo is Ultrasoft, Zval = 12.0
     Generated by new atomic code, or converted to UPF format
     Using radial grid of  851 points,  6 beta functions with:
                l(1) =   0
                l(2) =   0
                l(3) =   1
                l(4) =   1
                l(5) =   2
                l(6) =   2
     Q(r) pseudized with  8 coefficients,  rinner =    1.000   1.000   1.000
                                                       1.000   1.000

     PseudoPot. # 2 for O  read from file:
     /storage/coda1/p-amedford6/0/shared/rich_project_chbe-medford/medford-share/data/pseudos_module/espresso/nninc/pbe/van/O.UPF
     MD5 check sum: 78c19812648e8988a0fe644b0f25305e
     Pseudo is Ultrasoft, Zval =  6.0
     Generated by new atomic code, or converted to UPF format
     Using radial grid of  737 points,  4 beta functions with:
                l(1) =   0
                l(2) =   0
                l(3) =   1
                l(4) =   1
     Q(r) pseudized with  8 coefficients,  rinner =    0.800   0.800   0.800

     PseudoPot. # 3 for C  read from file:
     /storage/coda1/p-amedford6/0/shared/rich_project_chbe-medford/medford-share/data/pseudos_module/espresso/nninc/pbe/van/C.UPF
     MD5 check sum: 1a69bf6b8db32088f5b2163dbdb77a27
     Pseudo is Ultrasoft, Zval =  4.0
     Generated by new atomic code, or converted to UPF format
     Using radial grid of  721 points,  4 beta functions with:
                l(1) =   0
                l(2) =   0
                l(3) =   1
                l(4) =   1
     Q(r) pseudized with  8 coefficients,  rinner =    0.800   0.800   0.800

     PseudoPot. # 4 for H  read from file:
     /storage/coda1/p-amedford6/0/shared/rich_project_chbe-medford/medford-share/data/pseudos_module/espresso/nninc/pbe/van/H.UPF
     MD5 check sum: b5ee9d7bfd3a09ee7748110bda690ff7
     Pseudo is Ultrasoft, Zval =  1.0
     Generated by new atomic code, or converted to UPF format
     Using radial grid of  615 points,  1 beta functions with:
                l(1) =   0
     Q(r) pseudized with  8 coefficients,  rinner =    0.800

     atomic species   valence    mass     pseudopotential
        Ti1           12.00    47.86700     Ti( 1.00)
        O1             6.00    15.99900     O ( 1.00)
        C1             4.00    12.01100     C ( 1.00)
        H1             1.00     1.00800     H ( 1.00)

     No symmetry found

   Cartesian axes

     site n.     atom                  positions (alat units)
         1           Ti1 tau(   1) = (   0.0004258   2.9801865   6.0000000  )
         2           Ti1 tau(   2) = (   3.2906075   1.4906267   6.0002472  )
         3           O1  tau(   3) = (   0.0006271   0.0005054   7.9858123  )
         4           O1  tau(   4) = (   3.2906025   0.0005020   7.3038282  )
         5           O1  tau(   5) = (   4.5942328   1.4918067   9.2879030  )
         6           O1  tau(   6) = (   1.9868534   1.4903216   9.2879459  )
         7           Ti1 tau(   7) = (   3.3226903   2.9514341   9.1576891  )
         8           Ti1 tau(   8) = (   0.0343464   1.5915341   9.3698150  )
         9           O1  tau(   9) = (   3.2914246   5.9565917  11.3520874  )
        10           O1  tau(  10) = (   0.0056322   0.0001635  10.6062760  )
        11           O1  tau(  11) = (   1.2817320   1.4815673  12.6483243  )
        12           O1  tau(  12) = (   5.2831613   1.4908443  12.6423163  )
        13           Ti1 tau(  13) = (   0.0382653   2.9371430  12.8126397  )
        14           Ti1 tau(  14) = (   3.3532929   1.4821923  12.4951370  )
        15           O1  tau(  15) = (   6.5662424   5.9331786  14.6600200  )
        16           O1  tau(  16) = (   3.2816364   5.9551084  13.9465949  )
        17           O1  tau(  17) = (   4.5315606   1.5040344  16.0986503  )
        18           O1  tau(  18) = (   2.0287349   1.4998145  16.0995964  )
        19           Ti1 tau(  19) = (   3.2668404   2.9769305  15.7222481  )
        20           Ti1 tau(  20) = (   6.5415330   1.4777109  16.1743724  )
        21           O1  tau(  21) = (   3.2904802   0.0005063   4.7018136  )
        22           O1  tau(  22) = (   6.5659521   0.0029676  17.1944956  )
        23           O1  tau(  23) = (   1.3043587   1.4918075   6.0039043  )
        24           O1  tau(  24) = (   5.2767064   1.4903225   6.0039473  )
        25           Ti1 tau(  25) = (   0.0000382   5.9609847   6.0000000  )
        26           Ti1 tau(  26) = (   3.2902200   4.4714249   6.0002472  )
        27           O1  tau(  27) = (   0.0002396   2.9813036   7.9858123  )
        28           O1  tau(  28) = (   3.2902150   2.9813002   7.3038282  )
        29           O1  tau(  29) = (   4.5938453   4.4726049   9.2879030  )
        30           O1  tau(  30) = (   1.9864658   4.4711199   9.2879459  )
        31           Ti1 tau(  31) = (   3.3086233   5.9367107   9.1526142  )
        32           Ti1 tau(  32) = (   0.0357814   4.5182409   9.2638332  )
        33           O1  tau(  33) = (   3.2921447   2.9709340  11.3500156  )
        34           O1  tau(  34) = (   0.0064783   2.9842416  10.5732297  )
        35           O1  tau(  35) = (   1.2836142   4.4569143  12.6423601  )
        36           O1  tau(  36) = (   5.2821634   4.4598214  12.6376843  )
        37           Ti1 tau(  37) = (   0.0453433   5.9192801  12.5257453  )
        38           Ti1 tau(  38) = (   3.3504828   4.4607682  12.4868234  )
        39           O1  tau(  39) = (   0.0004961   2.9772524  14.7247240  )
        40           O1  tau(  40) = (   3.2810368   2.9729593  13.9290527  )
        41           O1  tau(  41) = (   4.5304642   4.4591278  16.0913236  )
        42           O1  tau(  42) = (   2.0231910   4.4609068  16.0933517  )
        43           Ti1 tau(  43) = (   3.2586866   5.9546939  15.7393459  )
        44           Ti1 tau(  44) = (   6.5465221   4.6060206  15.8931146  )
        45           O1  tau(  45) = (   3.2900926   2.9813045   4.7018136  )
        46           O1  tau(  46) = (   1.3039711   4.4726057   6.0039043  )
        47           O1  tau(  47) = (   5.2763189   4.4711207   6.0039473  )
        48           C1  tau(  48) = (   6.5676456   2.8990966  17.8516705  )
        49           H1  tau(  49) = (   6.5659762   3.9554521  18.1205428  )
        50           H1  tau(  50) = (   0.8773746   2.4756544  18.3284787  )
        51           H1  tau(  51) = (   5.6845275   2.4819798  18.3396978  )

     number of k points=    10  Fermi-Dirac smearing, width (Ry)=  0.0073
                       cart. coord. in units 2pi/alat
        k(    1) = (   0.0000000   0.0000000   0.0000000), wk =   0.1250000
        k(    2) = (   0.0000000   0.0419351   0.0000000), wk =   0.2500000
        k(    3) = (   0.0000000  -0.0838702   0.0000000), wk =   0.1250000
        k(    4) = (   0.0379955   0.0000049   0.0000000), wk =   0.2500000
        k(    5) = (   0.0379955   0.0419400   0.0000000), wk =   0.2500000
        k(    6) = (   0.0379955  -0.0838652   0.0000000), wk =   0.2500000
        k(    7) = (   0.0379955  -0.0419301   0.0000000), wk =   0.2500000
        k(    8) = (  -0.0759910  -0.0000099   0.0000000), wk =   0.1250000
        k(    9) = (  -0.0759910   0.0419252   0.0000000), wk =   0.2500000
        k(   10) = (  -0.0759910  -0.0838800   0.0000000), wk =   0.1250000

     Initial potential from superposition of free atoms

     starting charge  368.99918, renormalised to  385.00000

     negative rho (up, down):  2.032E-02 0.000E+00

     %%%%%%%%%%%%%%%%%%%%%%%%%%%%%%%%%%%%%%%%%%%%%%%%%%%%%%%%%%%%%%%%%%%%%%%%
     %                                                                      %
     % You are using vdW-DF, which was implemented by the Thonhauser group. %
     % Please cite the following two papers that made this development      %
     % possible and the two reviews that describe the various versions:     %
     %                                                                      %
     %   T. Thonhauser et al., PRL 115, 136402 (2015).                      %
     %   T. Thonhauser et al., PRB 76, 125112 (2007).                       %
     %   K. Berland et al., Rep. Prog. Phys. 78, 066501 (2015).             %
     %   D.C. Langreth et al., J. Phys.: Condens. Matter 21, 084203 (2009). %
     %                                                                      %
     %                                                                      %
     % If you are calculating the stress with vdW-DF, please also cite:     %
     %                                                                      %
     %   R. Sabatini et al., J. Phys.: Condens. Matter 24, 424209 (2012).   %
     %                                                                      %
     %%%%%%%%%%%%%%%%%%%%%%%%%%%%%%%%%%%%%%%%%%%%%%%%%%%%%%%%%%%%%%%%%%%%%%%%

     Adding external electric field

     Computed dipole along edir(3) :
        Dipole               -1.9974 Ry au,         -5.0769 Debye
        Dipole field         -0.0038 Ry au,

        Potential amp.        0.3494 Ry
        Total length         46.3494 bohr

     Starting wfcs are  291 atomic wfcs
  @ DRIVER MODE: Message from server: STATUS
  @ DRIVER MODE: Message from server: POSDATA
  @ DRIVER MODE: Reading and sharing cell
  @ DRIVER MODE: Reading and sharing positions
  @ DRIVER MODE: Received positions

     Self-consistent Calculation

     iteration #  1     ecut=    29.40 Ry     beta= 0.05
     Davidson diagonalization with overlap
     c_bands:  2 eigenvalues not converged
     c_bands:  1 eigenvalues not converged
     c_bands:  3 eigenvalues not converged
     c_bands:  1 eigenvalues not converged
     ethr =  1.00E-05,  avg # of iterations = 18.5

[...]

     total energy              =   -2900.52606648 Ry
     estimated scf accuracy    <      12.60475801 Ry

     iteration #  2     ecut=    29.40 Ry     beta= 0.05
     Davidson diagonalization with overlap
     ethr =  3.27E-03,  avg # of iterations =  1.0

[...]

     iteration # 50     ecut=    29.40 Ry     beta= 0.05
     Davidson diagonalization with overlap
     c_bands:  1 eigenvalues not converged
     ethr =  1.63E-10,  avg # of iterations = 11.8

[...]

     total energy              =   -2899.02574455 Ry
     estimated scf accuracy    <       0.00000009 Ry

     iteration # 56     ecut=    29.40 Ry     beta= 0.05
     Davidson diagonalization with overlap
     ethr =  2.21E-11,  avg # of iterations =  7.2

     negative rho (up, down):  1.951E-02 0.000E+00

     Adding external electric field

     Computed dipole along edir(3) :
        Dipole                0.4676 Ry au,          1.1884 Debye
        Dipole field          0.0009 Ry au,

        Potential amp.       -0.0818 Ry
        Total length         46.3494 bohr

     End of self-consistent calculation

          k = 0.0000 0.0000 0.0000 ( 18029 PWs)   bands (ev):

   -56.2366 -56.2157 -56.2000 -56.1795 -56.1264 -56.1250 -56.0886 -56.0732
   -56.0035 -55.9972 -55.9647 -55.9610 -55.8918 -55.8699 -55.2531 -55.2190
   -32.7803 -32.7042 -32.6036 -32.5745 -32.5417 -32.5275 -32.5039 -32.4734
   -32.4638 -32.4594 -32.4448 -32.4420 -32.4380 -32.3982 -32.3972 -32.3630
   -32.3600 -32.3574 -32.3422 -32.3264 -32.3060 -32.3021 -32.2911 -32.2756
   -32.2738 -32.2540 -32.2495 -32.2399 -32.2320 -32.2249 -32.2171 -32.1891
   -32.1651 -32.1563 -32.1385 -32.1311 -32.1097 -32.0979 -32.0903 -32.0798
   -32.0756 -31.9721 -31.6634 -31.5653 -31.5430 -31.4798 -31.3937 -31.2827
   -16.9847 -16.6858 -16.5417 -16.3930 -16.3651 -16.2463 -16.0644 -15.9287
   -15.9144 -15.8397 -15.8119 -15.8065 -15.7762 -15.7581 -15.7498 -15.7430
   -15.6896 -15.6856 -15.6502 -15.6398 -15.6101 -15.5361 -15.5126 -15.4528
   -15.4115 -15.3548 -15.2596 -15.2314 -15.1976 -13.7540 -13.6356  -9.4964
    -4.3414  -4.1725  -4.1471  -4.1280  -4.0437  -3.8051  -3.7872  -3.5382
    -3.4182  -3.3972  -3.3728  -3.3677  -3.3175  -3.1797  -3.0907  -3.0654
    -3.0630  -3.0510  -3.0223  -3.0163  -2.9826  -2.9802  -2.9463  -2.9258
    -2.8993  -2.7304  -2.6537  -2.6474  -2.5925  -2.5377  -2.5225  -2.5041
    -2.4678  -2.4577  -2.4426  -2.4274  -2.3749  -2.2863  -2.2446  -2.1462
    -2.0666  -2.0362  -1.9450  -1.8539  -1.7794  -1.6888  -1.6617  -1.6360
    -1.5594  -1.5536  -1.4864  -1.4408  -1.4246  -1.3313  -1.2667  -1.2347
    -1.1351  -1.0950  -1.0039  -0.9918  -0.9751  -0.9586  -0.9463  -0.7691
    -0.7215  -0.6989  -0.6904  -0.5704  -0.5575  -0.5326  -0.5016  -0.4431
    -0.4035  -0.3492  -0.3182  -0.2724  -0.2545  -0.2484  -0.2320  -0.2084
    -0.1282  -0.0490  -0.0304   0.0630   0.1148   0.2364   0.3025   0.4078
     0.4947   0.6734   0.7713   0.8109   0.8485   0.9393   1.3610   1.4234
     2.9524   2.9943   3.0191   3.0538   3.0659   3.2229   3.3285   3.4054
     3.4073   3.4471

[...]

          k = 0.0380-0.0419 0.0000 ( 17876 PWs)   bands (ev):

[...]

          k =-0.0760-0.0000 0.0000 ( 17886 PWs)   bands (ev):

[...]

          k =-0.0760-0.0839 0.0000 ( 17948 PWs)   bands (ev):

   -56.2250 -56.2114 -56.1983 -56.1967 -56.1200 -56.1150 -56.0986 -56.0793
   -55.9993 -55.9819 -55.9812 -55.9582 -55.8944 -55.8726 -55.2365 -55.2355
   -32.5838 -32.5811 -32.5277 -32.5168 -32.5130 -32.5095 -32.4952 -32.4883
   -32.4526 -32.4365 -32.4252 -32.4213 -32.3914 -32.3721 -32.3652 -32.3565
   -32.3541 -32.3516 -32.3429 -32.3400 -32.3258 -32.3197 -32.3144 -32.3101
   -32.2993 -32.2989 -32.2970 -32.2765 -32.2429 -32.2407 -32.2354 -32.2273
   -32.2009 -32.1845 -32.1835 -32.1750 -32.1632 -32.1347 -32.1267 -32.1191
   -32.0893 -32.0208 -31.5563 -31.5550 -31.4767 -31.4759 -31.4373 -31.4364
   -16.4199 -16.3949 -16.1657 -16.1564 -16.1487 -16.0841 -15.9988 -15.9769
   -15.9601 -15.9559 -15.9014 -15.8826 -15.8740 -15.8376 -15.7798 -15.7716
   -15.7642 -15.7406 -15.6893 -15.6831 -15.6280 -15.6026 -15.5874 -15.5836
   -15.5653 -15.5610 -15.4632 -15.4196 -15.3864 -13.7378 -13.7357  -9.5120
    -3.7125  -3.6809  -3.4169  -3.3710  -3.3657  -3.2868  -3.2033  -3.1731
    -3.1481  -3.1377  -3.0860  -3.0752  -3.0731  -3.0704  -3.0363  -3.0283
    -3.0036  -2.9925  -2.9868  -2.9749  -2.9297  -2.8658  -2.8573  -2.8568
    -2.8453  -2.7999  -2.7899  -2.7829  -2.7636  -2.7630  -2.7086  -2.5113
    -2.4911  -2.4411  -2.3776  -2.3592  -2.3310  -2.3214  -2.2955  -2.2711
    -2.2052  -2.1376  -2.0170  -1.9793  -1.9560  -1.9413  -1.8875  -1.8379
    -1.7222  -1.6819  -1.6553  -1.6370  -1.5711  -1.4977  -1.4736  -1.4578
    -1.3743  -1.3478  -1.3049  -1.2409  -1.2039  -1.1907  -1.1396  -1.1266
    -1.0406  -0.9804  -0.9447  -0.9050  -0.8905  -0.8572  -0.8087  -0.7578
    -0.7448  -0.6840  -0.6220  -0.5231  -0.3154  -0.2299  -0.2206  -0.1785
    -0.1212  -0.0953   0.0125   0.0467   0.0612   0.1552   0.2213   0.2873
     0.3046   0.3298   0.3975   0.8865   1.1313   1.1322   1.2239   1.2343
     3.1566   3.1668   3.1964   3.2637   3.4100   3.4160   3.4352   3.4409
     3.5335   3.5841

     the Fermi energy is     2.9196 ev

!    total energy              =   -2899.02579634 Ry
     estimated scf accuracy    <       0.00000005 Ry
     smearing contrib. (-TS)   =      -0.02330230 Ry
     internal energy E=F+TS    =   -2899.00249404 Ry

     The total energy is F=E-TS. E is the sum of the following terms:
     one-electron contribution =  -24814.67090522 Ry
     hartree contribution      =   12486.28955509 Ry
     xc contribution           =    -474.70350603 Ry
     ewald contribution        =    9904.08194959 Ry
     electric field correction =       0.00041254 Ry

     convergence has been achieved in  56 iterations

     Forces acting on atoms (cartesian axes, Ry/au):

     atom    1 type  1   force =    -0.00012624   -0.00193990    0.10690342
     atom    2 type  1   force =    -0.00037551    0.00069498   -0.18022694
     atom    3 type  2   force =     0.00034950   -0.00662504   -0.03352269
     atom    4 type  2   force =     0.00056762   -0.00063015    0.04567913
     atom    5 type  2   force =    -0.01960323   -0.00121829    0.00434929
     atom    6 type  2   force =     0.02144286   -0.00007124    0.00423302
     atom    7 type  1   force =    -0.00028942    0.00033956   -0.00014660
     atom    8 type  1   force =    -0.00048952    0.00047223    0.00014266
     atom    9 type  2   force =    -0.00004974   -0.00039684   -0.00058503
     atom   10 type  2   force =     0.00009872    0.00046546   -0.00036790
     atom   11 type  2   force =     0.00016828   -0.00002625   -0.00003474
     atom   12 type  2   force =     0.00025418   -0.00014997   -0.00003674
     atom   13 type  1   force =    -0.00055675    0.00008264    0.00068798
     atom   14 type  1   force =    -0.00057994    0.00015842    0.00003677
     atom   15 type  2   force =    -0.00005336    0.00031991   -0.00027281
     atom   16 type  2   force =    -0.00003248   -0.00003805    0.00049892
     atom   17 type  2   force =    -0.00084332   -0.00087229   -0.00013693
     atom   18 type  2   force =     0.00069909   -0.00075625   -0.00035393
     atom   19 type  1   force =    -0.00023584    0.00045104   -0.00035510
     atom   20 type  1   force =     0.00046854    0.00061465    0.00045649
     atom   21 type  2   force =     0.00000221    0.00003555    0.10433019
     atom   22 type  2   force =    -0.00013527   -0.00009643   -0.00067859
     atom   23 type  2   force =    -0.06877478    0.00084280   -0.02965891
     atom   24 type  2   force =     0.06852992    0.00129717   -0.02972952
     atom   25 type  1   force =    -0.00009874    0.00130926    0.11804868
     atom   26 type  1   force =    -0.00020504   -0.00066164   -0.18054524
     atom   27 type  2   force =     0.00055418    0.00239850   -0.02743074
     atom   28 type  2   force =     0.00072849   -0.00048872    0.04719466
     atom   29 type  2   force =    -0.01933924    0.00075282    0.00375265
     atom   30 type  2   force =     0.01929457    0.00249058    0.00343598
     atom   31 type  1   force =    -0.00007993   -0.00074687    0.00034496
     atom   32 type  1   force =    -0.00042470    0.00003023    0.00035598
     atom   33 type  2   force =    -0.00013682    0.00036732   -0.00076875
     atom   34 type  2   force =    -0.00007907    0.00005786   -0.00010707
     atom   35 type  2   force =     0.00044707    0.00022502   -0.00041874
     atom   36 type  2   force =    -0.00080371    0.00001846   -0.00040649
     atom   37 type  1   force =    -0.00055405    0.00050987    0.00064609
     atom   38 type  1   force =     0.00014873   -0.00042815    0.00035371
     atom   39 type  2   force =    -0.00030163   -0.00014370   -0.00019356
     atom   40 type  2   force =    -0.00004471    0.00078060    0.00060004
     atom   41 type  2   force =    -0.00018681    0.00122093   -0.00015797
     atom   42 type  2   force =     0.00041455    0.00128240   -0.00045410
     atom   43 type  1   force =    -0.00018160    0.00060910   -0.00023319
     atom   44 type  1   force =     0.00046135   -0.00001000    0.00021757
     atom   45 type  2   force =    -0.00000580    0.00006109    0.10433850
     atom   46 type  2   force =    -0.06831020   -0.00103281   -0.02972034
     atom   47 type  2   force =     0.06815954   -0.00065251   -0.02976028
     atom   48 type  3   force =     0.00205883    0.00153762   -0.00104850
     atom   49 type  4   force =     0.00101138   -0.00024577   -0.00061837
     atom   50 type  4   force =    -0.00068991    0.00029853   -0.00000800
     atom   51 type  4   force =    -0.00227221   -0.00249375    0.00137105

     Total force =     0.377410     Total SCF correction =     0.000783
  @ DRIVER MODE: Message from server: STATUS
  @ DRIVER MODE: Message from server: GETFORCE
  @ DRIVER MODE: Returning v,forces,stress,ensemble

     Writing output data file ./calc.save/
  @ DRIVER MODE: Message from server: EXIT
  @ DRIVE MODE: Exiting

     General routines

     Parallel routines

   This run was terminated on:  19:55:20  18Aug2021

   JOB DONE.