     Program PWSCF v.6.7GPU starts on  9Sep2021 at  1:30:59

     R & G space division:  proc/nbgrp/npool/nimage =      10
     Reading input from /storage/home/hcoda1/3/ntian30/research/carbon/CxH_vib/CH2_calc/ads_slab/CH2O_a/out_0011/pw.inp
Warning: card &CELL ignored
Warning: card   CELL_DYNAMICS='IPI', ignored
Warning: card / ignored

     Current dimensions of program PWSCF are:
     Max number of different atomic species (ntypx) = 10
     Max number of k-points (npk) =  40000
     Max angular momentum in pseudopotentials (lmaxx) =  3
     Presently no symmetry can be used with electric field

     Message from routine cell_base_init:
     DEPRECATED: use true lattice parameter, not A to a.u. conversion factor

     IMPORTANT: XC functional enforced from input :
     Exchange-correlation= BEEF-VDW
                           (   1   4  43  14   2   0   0)
     Any further DFT definition will be discarded
     Please, verify this is what you really want

  @ DRIVER MODE: Connecting to
 qe_1139763_2767394.sched-torque.pace.gatech.edujnk0u13f_scratch
  using UNIX socket
  @ DRIVER MODE: Message from server: STATUS
  @ DRIVER MODE: Message from server: INIT
  @ DRIVER MODE: Receiving replica           0          -1
  @ DRIVER MODE: Receiving encoded integer          25
  @ DRIVER MODE:  SCF:  T  FORCE:  T  STRESS:  F  VC:  F  ENSEMBLE:  F
  @ DRIVER MODE:  SCF:  T  FORCE:  T  STRESS:  F  VC:  F  ENSEMBLE:  F

     Using Slab Decomposition

     bravais-lattice index     =            0
     lattice parameter (alat)  =       1.8897  a.u.
     unit-cell volume          =    6658.9804 (a.u.)^3
     number of atoms/cell      =           51
     number of atomic types    =            4
     number of electrons       =       390.00
     number of Kohn-Sham states=          205
     kinetic-energy cutoff     =      29.3995  Ry
     charge density cutoff     =     293.9946  Ry
     scf convergence threshold =      7.3E-08
     mixing beta               =       0.0500
     number of iterations used =            8  plain     mixing
     Exchange-correlation= BEEF-VDW
                           (   1   4  43  14   2   0   0)

     celldm(1)=   1.889726  celldm(2)=   0.000000  celldm(3)=   0.000000
     celldm(4)=   0.000000  celldm(5)=   0.000000  celldm(6)=   0.000000

     crystal axes: (cart. coord. in units of alat)
               a(1) = (   6.579727   0.000000   0.000000 )
               a(2) = (  -0.000775   5.961596   0.000000 )
               a(3) = (   0.000000   0.000000  25.155947 )

     reciprocal axes: (cart. coord. in units 2 pi/alat)
               b(1) = (  0.151982  0.000020  0.000000 )
               b(2) = (  0.000000  0.167740  0.000000 )
               b(3) = (  0.000000  0.000000  0.039752 )

     PseudoPot. # 1 for O  read from file:
     /storage/coda1/p-amedford6/0/shared/rich_project_chbe-medford/medford-share/data/pseudos_module/espresso/nninc/pbe/van/O.UPF
     MD5 check sum: 78c19812648e8988a0fe644b0f25305e
     Pseudo is Ultrasoft, Zval =  6.0
     Generated by new atomic code, or converted to UPF format
     Using radial grid of  737 points,  4 beta functions with:
                l(1) =   0
                l(2) =   0
                l(3) =   1
                l(4) =   1
     Q(r) pseudized with  8 coefficients,  rinner =    0.800   0.800   0.800

     PseudoPot. # 2 for Ti read from file:
     /storage/coda1/p-amedford6/0/shared/rich_project_chbe-medford/medford-share/data/pseudos_module/espresso/nninc/pbe/van/Ti.UPF
     MD5 check sum: 8e4df49b7f0d34bbd5052bf3f5ea0213
     Pseudo is Ultrasoft, Zval = 12.0
     Generated by new atomic code, or converted to UPF format
     Using radial grid of  851 points,  6 beta functions with:
                l(1) =   0
                l(2) =   0
                l(3) =   1
                l(4) =   1
                l(5) =   2
                l(6) =   2
     Q(r) pseudized with  8 coefficients,  rinner =    1.000   1.000   1.000
                                                       1.000   1.000

     PseudoPot. # 3 for C  read from file:
     /storage/coda1/p-amedford6/0/shared/rich_project_chbe-medford/medford-share/data/pseudos_module/espresso/nninc/pbe/van/C.UPF
     MD5 check sum: 1a69bf6b8db32088f5b2163dbdb77a27
     Pseudo is Ultrasoft, Zval =  4.0
     Generated by new atomic code, or converted to UPF format
     Using radial grid of  721 points,  4 beta functions with:
                l(1) =   0
                l(2) =   0
                l(3) =   1
                l(4) =   1
     Q(r) pseudized with  8 coefficients,  rinner =    0.800   0.800   0.800

     PseudoPot. # 4 for H  read from file:
     /storage/coda1/p-amedford6/0/shared/rich_project_chbe-medford/medford-share/data/pseudos_module/espresso/nninc/pbe/van/H.UPF
     MD5 check sum: b5ee9d7bfd3a09ee7748110bda690ff7
     Pseudo is Ultrasoft, Zval =  1.0
     Generated by new atomic code, or converted to UPF format
     Using radial grid of  615 points,  1 beta functions with:
                l(1) =   0
     Q(r) pseudized with  8 coefficients,  rinner =    0.800

     atomic species   valence    mass     pseudopotential
        O1             6.00    15.99900     O ( 1.00)
        Ti1           12.00    47.86700     Ti( 1.00)
        C1             4.00    12.01100     C ( 1.00)
        H1             1.00     1.00800     H ( 1.00)

     No symmetry found

   Cartesian axes

     site n.     atom                  positions (alat units)
         1           O1  tau(   1) = (   3.2904802   0.0005063   4.7018136  )
         2           O1  tau(   2) = (   3.2900926   2.9813045   4.7018136  )
         3           Ti1 tau(   3) = (   0.0004258   2.9801865   6.0000000  )
         4           Ti1 tau(   4) = (   0.0000382   5.9609847   6.0000000  )
         5           Ti1 tau(   5) = (   3.2906075   1.4906267   6.0002472  )
         6           Ti1 tau(   6) = (   3.2902200   4.4714249   6.0002472  )
         7           O1  tau(   7) = (   1.3043587   1.4918075   6.0039043  )
         8           O1  tau(   8) = (   1.3039711   4.4726057   6.0039043  )
         9           O1  tau(   9) = (   5.2767064   1.4903225   6.0039473  )
        10           O1  tau(  10) = (   5.2763189   4.4711207   6.0039473  )
        11           O1  tau(  11) = (   3.2906025   0.0005020   7.3038282  )
        12           O1  tau(  12) = (   3.2902150   2.9813002   7.3038282  )
        13           O1  tau(  13) = (   0.0006271   0.0005054   7.9858123  )
        14           O1  tau(  14) = (   0.0002396   2.9813036   7.9858123  )
        15           Ti1 tau(  15) = (   3.3042095   0.0533388   9.1528587  )
        16           Ti1 tau(  16) = (   3.3174724   3.0316863   9.1560957  )
        17           Ti1 tau(  17) = (   0.0293802   4.5322946   9.2552644  )
        18           Ti1 tau(  18) = (   0.0259946   1.6073196   9.3627105  )
        19           O1  tau(  19) = (   4.5942328   1.4918067   9.2879030  )
        20           O1  tau(  20) = (   4.5938453   4.4726049   9.2879030  )
        21           O1  tau(  21) = (   1.9868534   1.4903216   9.2879459  )
        22           O1  tau(  22) = (   1.9864658   4.4711199   9.2879459  )
        23           O1  tau(  23) = (   0.0064038   0.0081980  10.6024552  )
        24           O1  tau(  24) = (   0.0073862   2.9894728  10.5866593  )
        25           O1  tau(  25) = (   3.3023414   2.9953748  11.3432802  )
        26           O1  tau(  26) = (   3.3032852   0.0099373  11.3464837  )
        27           Ti1 tau(  27) = (   0.0309755   0.0166663  12.4994564  )
        28           Ti1 tau(  28) = (   3.3310982   4.4887825  12.4897803  )
        29           Ti1 tau(  29) = (   3.3310371   1.5113328  12.4846922  )
        30           Ti1 tau(  30) = (   0.0327574   2.9992265  12.7695683  )
        31           O1  tau(  31) = (   1.3002707   4.4821552  12.6388042  )
        32           O1  tau(  32) = (   1.3007223   1.5002113  12.6333963  )
        33           O1  tau(  33) = (   5.2991570   4.4805309  12.6421864  )
        34           O1  tau(  34) = (   5.3000174   1.5011411  12.6364809  )
        35           O1  tau(  35) = (   3.3018339   2.9879062  13.9210104  )
        36           O1  tau(  36) = (   3.3040464   0.0111531  13.9455706  )
        37           O1  tau(  37) = (   0.0204374   0.0165334  14.6791819  )
        38           O1  tau(  38) = (   0.0263865   2.9938028  14.7196832  )
        39           Ti1 tau(  39) = (   3.3100843   2.9899001  15.7147585  )
        40           Ti1 tau(  40) = (   3.3190225   0.0114617  15.7368552  )
        41           Ti1 tau(  41) = (   0.0307220   4.5758675  15.9389875  )
        42           Ti1 tau(  42) = (   0.0306600   1.3860070  15.9976826  )
        43           O1  tau(  43) = (   4.5579467   4.4706051  16.0879179  )
        44           O1  tau(  44) = (   4.5582295   1.5117582  16.0998906  )
        45           O1  tau(  45) = (   2.0559277   1.5139458  16.1062704  )
        46           O1  tau(  46) = (   2.0563840   4.4680477  16.0963298  )
        47           O1  tau(  47) = (   0.0152972   0.0023678  17.1988758  )
        48           O1  tau(  48) = (   6.5645367   3.0020129  17.4248639  )
        49           C1  tau(  49) = (   6.3846989   3.0744571  18.6768163  )
        50           H1  tau(  50) = (   6.3100824   4.0552778  19.1474226  )
        51           H1  tau(  51) = (   6.3122094   2.1591535  19.2648898  )

     number of k points=    10  Fermi-Dirac smearing, width (Ry)=  0.0073
                       cart. coord. in units 2pi/alat
        k(    1) = (   0.0000000   0.0000000   0.0000000), wk =   0.1250000
        k(    2) = (   0.0000000   0.0419351   0.0000000), wk =   0.2500000
        k(    3) = (   0.0000000  -0.0838702   0.0000000), wk =   0.1250000
        k(    4) = (   0.0379955   0.0000049   0.0000000), wk =   0.2500000
        k(    5) = (   0.0379955   0.0419400   0.0000000), wk =   0.2500000
        k(    6) = (   0.0379955  -0.0838652   0.0000000), wk =   0.2500000
        k(    7) = (   0.0379955  -0.0419301   0.0000000), wk =   0.2500000
        k(    8) = (  -0.0759910  -0.0000099   0.0000000), wk =   0.1250000
        k(    9) = (  -0.0759910   0.0419252   0.0000000), wk =   0.2500000
        k(   10) = (  -0.0759910  -0.0838800   0.0000000), wk =   0.1250000

     Initial potential from superposition of free atoms

     starting charge  373.99919, renormalised to  390.00000

     negative rho (up, down):  1.843E-02 0.000E+00

     %%%%%%%%%%%%%%%%%%%%%%%%%%%%%%%%%%%%%%%%%%%%%%%%%%%%%%%%%%%%%%%%%%%%%%%%
     %                                                                      %
     % You are using vdW-DF, which was implemented by the Thonhauser group. %
     % Please cite the following two papers that made this development      %
     % possible and the two reviews that describe the various versions:     %
     %                                                                      %
     %   T. Thonhauser et al., PRL 115, 136402 (2015).                      %
     %   T. Thonhauser et al., PRB 76, 125112 (2007).                       %
     %   K. Berland et al., Rep. Prog. Phys. 78, 066501 (2015).             %
     %   D.C. Langreth et al., J. Phys.: Condens. Matter 21, 084203 (2009). %
     %                                                                      %
     %                                                                      %
     % If you are calculating the stress with vdW-DF, please also cite:     %
     %                                                                      %
     %   R. Sabatini et al., J. Phys.: Condens. Matter 24, 424209 (2012).   %
     %                                                                      %
     %%%%%%%%%%%%%%%%%%%%%%%%%%%%%%%%%%%%%%%%%%%%%%%%%%%%%%%%%%%%%%%%%%%%%%%%

     Adding external electric field

     Computed dipole along edir(3) :
        Dipole               -5.1820 Ry au,        -13.1714 Debye
        Dipole field         -0.0098 Ry au,

        Potential amp.        0.9065 Ry
        Total length         46.3494 bohr

     Starting wfcs are  294 atomic wfcs
  @ DRIVER MODE: Message from server: STATUS
  @ DRIVER MODE: Message from server: POSDATA
  @ DRIVER MODE: Reading and sharing cell
  @ DRIVER MODE: Reading and sharing positions
  @ DRIVER MODE: Received positions

     Self-consistent Calculation

     iteration #  1     ecut=    29.40 Ry     beta= 0.05
     Davidson diagonalization with overlap
     c_bands:  3 eigenvalues not converged
     c_bands:  4 eigenvalues not converged
     c_bands:  2 eigenvalues not converged
     c_bands:  1 eigenvalues not converged
     c_bands:  2 eigenvalues not converged
     c_bands:  2 eigenvalues not converged
     c_bands:  3 eigenvalues not converged
     c_bands:  2 eigenvalues not converged
     ethr =  1.00E-05,  avg # of iterations = 21.6

[...]

     total energy              =   -2822.29861793 Ry
     estimated scf accuracy    <    1189.45082808 Ry

     iteration #  2     ecut=    29.40 Ry     beta= 0.05
     Davidson diagonalization with overlap
     ethr =  1.00E-02,  avg # of iterations = 16.6

[...]

     iteration # 69     ecut=    29.40 Ry     beta= 0.05
     Davidson diagonalization with overlap
     c_bands:  1 eigenvalues not converged
     ethr =  3.08E-09,  avg # of iterations = 12.5

[...]

     total energy              =   -2930.16702526 Ry
     estimated scf accuracy    <       0.00000020 Ry

     iteration # 80     ecut=    29.40 Ry     beta= 0.05
     Davidson diagonalization with overlap
     ethr =  3.26E-11,  avg # of iterations =  8.1

     negative rho (up, down):  1.727E-02 0.000E+00

     Adding external electric field

     Computed dipole along edir(3) :
        Dipole                0.9411 Ry au,          2.3919 Debye
        Dipole field          0.0018 Ry au,

        Potential amp.       -0.1646 Ry
        Total length         46.3494 bohr

     End of self-consistent calculation

          k = 0.0000 0.0000 0.0000 ( 18029 PWs)   bands (ev):

   -55.8126 -55.8011 -55.7763 -55.7648 -55.7030 -55.6909 -55.6640 -55.5977
   -55.5933 -55.5821 -55.5721 -55.5488 -55.5102 -55.4935 -54.8408 -54.8067
   -32.3701 -32.2854 -32.1808 -32.1585 -32.1193 -32.1173 -32.1077 -32.0903
   -32.0618 -32.0457 -32.0429 -32.0159 -31.9878 -31.9823 -31.9712 -31.9492
   -31.9338 -31.9316 -31.9254 -31.9072 -31.8818 -31.8785 -31.8758 -31.8658
   -31.8544 -31.8370 -31.8355 -31.8122 -31.8084 -31.8067 -31.7850 -31.7556
   -31.7460 -31.7285 -31.7267 -31.7252 -31.7106 -31.6928 -31.6889 -31.6804
   -31.6738 -31.6672 -31.2508 -31.1531 -31.1308 -31.0677 -30.9817 -30.8702
   -20.0137 -16.5848 -16.2907 -16.1448 -16.0126 -15.9615 -15.8437 -15.6881
   -15.6143 -15.5356 -15.4846 -15.4352 -15.3987 -15.3956 -15.3695 -15.3559
   -15.3467 -15.3423 -15.2674 -15.2632 -15.2285 -15.2116 -15.2007 -15.1125
   -15.0534 -14.9904 -14.9436 -14.8898 -14.8329 -14.8096 -13.3410 -13.2225
    -9.3004  -5.6099  -5.5797  -3.9340  -3.7581  -3.7168  -3.7097  -3.6473
    -3.6195  -3.4237  -3.3891  -3.1050  -3.0158  -2.9814  -2.9720  -2.9602
    -2.8221  -2.7726  -2.6589  -2.6540  -2.6447  -2.6402  -2.6208  -2.5867
    -2.5726  -2.5324  -2.5092  -2.4056  -2.3603  -2.2491  -2.2342  -2.2090
    -2.1533  -2.1236  -2.0951  -2.0832  -2.0541  -2.0517  -2.0450  -1.9997
    -1.9028  -1.8080  -1.7457  -1.6607  -1.6238  -1.5335  -1.3762  -1.3051
    -1.2653  -1.2263  -1.1763  -1.1609  -1.1319  -1.1059  -1.0884  -1.0704
    -0.9758  -0.8601  -0.8577  -0.7558  -0.6937  -0.6726  -0.6606  -0.5711
    -0.5521  -0.5428  -0.4530  -0.3062  -0.2998  -0.2934  -0.1758  -0.1438
    -0.1231  -0.0736  -0.0525  -0.0161   0.0142   0.0677   0.1146   0.1270
     0.1720   0.1910   0.2125   0.3189   0.3731   0.3839   0.4341   0.4729
     0.6589   0.6766   0.8141   0.8801   1.0863   1.1843   1.2405   1.3522
     1.7721   1.8304   3.3511   3.3842   3.4080   3.4602   3.4993   3.5505
     3.5948   3.7975   3.8111   3.8218   3.8424

[...]

          k = 0.0380-0.0419 0.0000 ( 17876 PWs)   bands (ev):

[...]

          k =-0.0760-0.0000 0.0000 ( 17886 PWs)   bands (ev):

[...]

          k =-0.0760-0.0839 0.0000 ( 17948 PWs)   bands (ev):

   -55.8006 -55.7881 -55.7833 -55.7823 -55.6941 -55.6875 -55.6728 -55.6009
   -55.5895 -55.5672 -55.5669 -55.5643 -55.5154 -55.4964 -54.8244 -54.8230
   -32.1721 -32.1711 -32.1086 -32.0952 -32.0934 -32.0897 -32.0738 -32.0631
   -32.0545 -32.0268 -32.0155 -32.0028 -31.9878 -31.9513 -31.9377 -31.9303
   -31.9278 -31.9250 -31.9171 -31.9144 -31.8972 -31.8930 -31.8907 -31.8900
   -31.8882 -31.8841 -31.8680 -31.8493 -31.8269 -31.8220 -31.8207 -31.8006
   -31.7933 -31.7762 -31.7718 -31.7654 -31.7640 -31.7602 -31.7373 -31.7199
   -31.6935 -31.6906 -31.1443 -31.1426 -31.0643 -31.0632 -31.0253 -31.0241
   -20.0063 -16.0130 -15.9862 -15.8759 -15.7540 -15.7443 -15.6995 -15.6611
   -15.6044 -15.5521 -15.5481 -15.5013 -15.4828 -15.4785 -15.4331 -15.4012
   -15.3526 -15.3448 -15.3360 -15.3322 -15.2793 -15.2743 -15.2317 -15.2126
   -15.1993 -15.1636 -15.1585 -15.0900 -15.0383 -15.0106 -13.3249 -13.3227
    -9.3016  -5.5875  -5.5632  -3.6528  -3.3020  -3.2713  -3.1094  -2.9744
    -2.9642  -2.9068  -2.8225  -2.7871  -2.7417  -2.6913  -2.6879  -2.6653
    -2.6534  -2.6417  -2.6337  -2.6271  -2.5803  -2.5617  -2.5220  -2.4751
    -2.4668  -2.4551  -2.4477  -2.4081  -2.3927  -2.3810  -2.3743  -2.3683
    -2.3077  -2.2279  -2.1471  -2.0680  -2.0199  -1.9967  -1.9728  -1.9349
    -1.9022  -1.8823  -1.8656  -1.7450  -1.7188  -1.5705  -1.5535  -1.5328
    -1.5217  -1.4709  -1.4613  -1.3388  -1.2687  -1.2618  -1.1919  -1.1681
    -1.1442  -1.0907  -1.0687  -0.9899  -0.9485  -0.9065  -0.8517  -0.7880
    -0.7777  -0.7129  -0.7047  -0.6153  -0.6061  -0.5786  -0.5749  -0.5062
    -0.4732  -0.3874  -0.3805  -0.3572  -0.2488  -0.1876  -0.1845   0.0087
     0.1825   0.1852   0.2086   0.3082   0.3363   0.3781   0.4423   0.4525
     0.5417   0.5911   0.6824   0.7028   0.7127   0.7933   1.5431   1.5440
     1.6354   1.6456   3.3063   3.5718   3.6082   3.6101   3.6723   3.8255
     3.8285   3.8452   3.8553   3.9815   3.9903

     the Fermi energy is     3.3370 ev

!    total energy              =   -2930.16703117 Ry
     estimated scf accuracy    <       0.00000005 Ry
     smearing contrib. (-TS)   =      -0.03349598 Ry
     internal energy E=F+TS    =   -2930.13353519 Ry

     The total energy is F=E-TS. E is the sum of the following terms:
     one-electron contribution =  -24705.67433762 Ry
     hartree contribution      =   12438.34681676 Ry
     xc contribution           =    -481.28208656 Ry
     ewald contribution        =    9818.47440101 Ry
     electric field correction =       0.00167123 Ry

     convergence has been achieved in  80 iterations

     Forces acting on atoms (cartesian axes, Ry/au):

     atom    1 type  1   force =    -0.00009892    0.00004599    0.10431371
     atom    2 type  1   force =    -0.00009034    0.00004610    0.10437039
     atom    3 type  2   force =    -0.00026448   -0.00202550    0.10308209
     atom    4 type  2   force =    -0.00013575    0.00163270    0.11355847
     atom    5 type  2   force =    -0.00036093    0.00049716   -0.18060960
     atom    6 type  2   force =    -0.00018882   -0.00002417   -0.18099253
     atom    7 type  1   force =    -0.06890713    0.00060703   -0.02907704
     atom    8 type  1   force =    -0.06843324   -0.00116623   -0.02911061
     atom    9 type  1   force =     0.06854292    0.00109678   -0.02915075
     atom   10 type  1   force =     0.06816117   -0.00076358   -0.02919097
     atom   11 type  1   force =     0.00041428    0.00044932    0.04545869
     atom   12 type  1   force =     0.00057412    0.00075125    0.04657406
     atom   13 type  1   force =     0.00030227   -0.00542745   -0.03231658
     atom   14 type  1   force =     0.00033951    0.00325305   -0.02500933
     atom   15 type  2   force =     0.00002535    0.00033876    0.00052207
     atom   16 type  2   force =     0.00007933   -0.00033256    0.00079501
     atom   17 type  2   force =    -0.00021109   -0.00110687    0.00028560
     atom   18 type  2   force =    -0.00023543    0.00071882   -0.00051506
     atom   19 type  1   force =    -0.01760799    0.00012648    0.00384550
     atom   20 type  1   force =    -0.01644193    0.00133901    0.00292499
     atom   21 type  1   force =     0.01897223   -0.00112689    0.00432596
     atom   22 type  1   force =     0.01762891    0.00110127    0.00323760
     atom   23 type  1   force =     0.00009683    0.00020049   -0.00064170
     atom   24 type  1   force =    -0.00008387   -0.00015139   -0.00040834
     atom   25 type  1   force =     0.00003872   -0.00061543    0.00025208
     atom   26 type  1   force =    -0.00018854    0.00041912    0.00010606
     atom   27 type  2   force =     0.00000843    0.00074100    0.00018454
     atom   28 type  2   force =    -0.00001176   -0.00021035   -0.00031197
     atom   29 type  2   force =     0.00006543   -0.00017960    0.00005664
     atom   30 type  2   force =    -0.00021884   -0.00025287    0.00009072
     atom   31 type  1   force =    -0.00014807   -0.00020327    0.00010108
     atom   32 type  1   force =     0.00028008    0.00036332    0.00023673
     atom   33 type  1   force =     0.00016381   -0.00014343    0.00011529
     atom   34 type  1   force =    -0.00053910    0.00023916    0.00023939
     atom   35 type  1   force =    -0.00004847   -0.00011763   -0.00000817
     atom   36 type  1   force =    -0.00000133    0.00025775   -0.00018554
     atom   37 type  1   force =    -0.00013623   -0.00035070   -0.00002215
     atom   38 type  1   force =    -0.00014643    0.00058260    0.00013108
     atom   39 type  2   force =    -0.00037749    0.00065283   -0.00059547
     atom   40 type  2   force =    -0.00039358   -0.00039452   -0.00026563
     atom   41 type  2   force =     0.00005200    0.00101464   -0.00179388
     atom   42 type  2   force =     0.00006067   -0.00094789   -0.00183801
     atom   43 type  1   force =     0.00088977   -0.00014546    0.00075481
     atom   44 type  1   force =     0.00017348    0.00051820    0.00052363
     atom   45 type  1   force =    -0.00023003    0.00042817    0.00067410
     atom   46 type  1   force =    -0.00117917   -0.00008270    0.00077797
     atom   47 type  1   force =    -0.00038965   -0.00012433    0.00129840
     atom   48 type  1   force =     0.00188184   -0.00053775   -0.01530390
     atom   49 type  3   force =    -0.00233592    0.00087596    0.02543875
     atom   50 type  4   force =     0.00033000   -0.00417850   -0.00275828
     atom   51 type  4   force =     0.00032333    0.00231214   -0.00416990

     Total force =     0.375596     Total SCF correction =     0.000545
  @ DRIVER MODE: Message from server: STATUS
  @ DRIVER MODE: Message from server: GETFORCE
  @ DRIVER MODE: Returning v,forces,stress,ensemble

     Writing output data file ./calc.save/
  @ DRIVER MODE: Message from server: EXIT
  @ DRIVE MODE: Exiting

     General routines

     Parallel routines

   This run was terminated on:   1:50:23   9Sep2021

   JOB DONE.