     Program PWSCF v.6.7GPU starts on 24Aug2021 at 21:38:13

     R & G space division:  proc/nbgrp/npool/nimage =      72
     Reading input from /storage/home/hcoda1/3/ntian30/research/carbon/CH2_vib/ads_slab/CH2NHH_a/out_0033/pw.inp
Warning: card &CELL ignored
Warning: card   CELL_DYNAMICS='IPI', ignored
Warning: card / ignored

     Current dimensions of program PWSCF are:
     Max number of different atomic species (ntypx) = 10
     Max number of k-points (npk) =  40000
     Max angular momentum in pseudopotentials (lmaxx) =  3
     Presently no symmetry can be used with electric field

     Message from routine cell_base_init:
     DEPRECATED: use true lattice parameter, not A to a.u. conversion factor

     IMPORTANT: XC functional enforced from input :
     Exchange-correlation= BEEF-VDW
                           (   1   4  43  14   2   0   0)
     Any further DFT definition will be discarded
     Please, verify this is what you really want

  @ DRIVER MODE: Connecting to
 qe_1139763_2641439.sched-torque.pace.gatech.eduiibn70uy_scratch
  using UNIX socket
  @ DRIVER MODE: Message from server: STATUS
  @ DRIVER MODE: Message from server: INIT
  @ DRIVER MODE: Receiving replica           0          -1
  @ DRIVER MODE: Receiving encoded integer          25
  @ DRIVER MODE:  SCF:  T  FORCE:  T  STRESS:  F  VC:  F  ENSEMBLE:  F
  @ DRIVER MODE:  SCF:  T  FORCE:  T  STRESS:  F  VC:  F  ENSEMBLE:  F

     Using Slab Decomposition

     bravais-lattice index     =            0
     lattice parameter (alat)  =       1.8897  a.u.
     unit-cell volume          =    6658.9804 (a.u.)^3
     number of atoms/cell      =           53
     number of atomic types    =            5
     number of electrons       =       391.00
     number of Kohn-Sham states=          205
     kinetic-energy cutoff     =      29.3995  Ry
     charge density cutoff     =     293.9946  Ry
     scf convergence threshold =      7.3E-08
     mixing beta               =       0.0500
     number of iterations used =            8  plain     mixing
     Exchange-correlation= BEEF-VDW
                           (   1   4  43  14   2   0   0)

     celldm(1)=   1.889726  celldm(2)=   0.000000  celldm(3)=   0.000000
     celldm(4)=   0.000000  celldm(5)=   0.000000  celldm(6)=   0.000000

     crystal axes: (cart. coord. in units of alat)
               a(1) = (   6.579727   0.000000   0.000000 )
               a(2) = (  -0.000775   5.961596   0.000000 )
               a(3) = (   0.000000   0.000000  25.155947 )

     reciprocal axes: (cart. coord. in units 2 pi/alat)
               b(1) = (  0.151982  0.000020  0.000000 )
               b(2) = (  0.000000  0.167740  0.000000 )
               b(3) = (  0.000000  0.000000  0.039752 )

     PseudoPot. # 1 for Ti read from file:
     /storage/coda1/p-amedford6/0/shared/rich_project_chbe-medford/medford-share/data/pseudos_module/espresso/nninc/pbe/van/Ti.UPF
     MD5 check sum: 8e4df49b7f0d34bbd5052bf3f5ea0213
     Pseudo is Ultrasoft, Zval = 12.0
     Generated by new atomic code, or converted to UPF format
     Using radial grid of  851 points,  6 beta functions with:
                l(1) =   0
                l(2) =   0
                l(3) =   1
                l(4) =   1
                l(5) =   2
                l(6) =   2
     Q(r) pseudized with  8 coefficients,  rinner =    1.000   1.000   1.000
                                                       1.000   1.000

     PseudoPot. # 2 for O  read from file:
     /storage/coda1/p-amedford6/0/shared/rich_project_chbe-medford/medford-share/data/pseudos_module/espresso/nninc/pbe/van/O.UPF
     MD5 check sum: 78c19812648e8988a0fe644b0f25305e
     Pseudo is Ultrasoft, Zval =  6.0
     Generated by new atomic code, or converted to UPF format
     Using radial grid of  737 points,  4 beta functions with:
                l(1) =   0
                l(2) =   0
                l(3) =   1
                l(4) =   1
     Q(r) pseudized with  8 coefficients,  rinner =    0.800   0.800   0.800

     PseudoPot. # 3 for N  read from file:
     /storage/coda1/p-amedford6/0/shared/rich_project_chbe-medford/medford-share/data/pseudos_module/espresso/nninc/pbe/van/N.UPF
     MD5 check sum: 90d10febe142ad51ac9d5be1deb811c4
     Pseudo is Ultrasoft, Zval =  5.0
     Generated by new atomic code, or converted to UPF format
     Using radial grid of  729 points,  4 beta functions with:
                l(1) =   0
                l(2) =   0
                l(3) =   1
                l(4) =   1
     Q(r) pseudized with  8 coefficients,  rinner =    0.800   0.800   0.800

     PseudoPot. # 4 for C  read from file:
     /storage/coda1/p-amedford6/0/shared/rich_project_chbe-medford/medford-share/data/pseudos_module/espresso/nninc/pbe/van/C.UPF
     MD5 check sum: 1a69bf6b8db32088f5b2163dbdb77a27
     Pseudo is Ultrasoft, Zval =  4.0
     Generated by new atomic code, or converted to UPF format
     Using radial grid of  721 points,  4 beta functions with:
                l(1) =   0
                l(2) =   0
                l(3) =   1
                l(4) =   1
     Q(r) pseudized with  8 coefficients,  rinner =    0.800   0.800   0.800

     PseudoPot. # 5 for H  read from file:
     /storage/coda1/p-amedford6/0/shared/rich_project_chbe-medford/medford-share/data/pseudos_module/espresso/nninc/pbe/van/H.UPF
     MD5 check sum: b5ee9d7bfd3a09ee7748110bda690ff7
     Pseudo is Ultrasoft, Zval =  1.0
     Generated by new atomic code, or converted to UPF format
     Using radial grid of  615 points,  1 beta functions with:
                l(1) =   0
     Q(r) pseudized with  8 coefficients,  rinner =    0.800

     atomic species   valence    mass     pseudopotential
        Ti1           12.00    47.86700     Ti( 1.00)
        O1             6.00    15.99900     O ( 1.00)
        N1             5.00    14.00700     N ( 1.00)
        C1             4.00    12.01100     C ( 1.00)
        H1             1.00     1.00800     H ( 1.00)

     No symmetry found

   Cartesian axes

     site n.     atom                  positions (alat units)
         1           Ti1 tau(   1) = (   0.0004258   2.9801865   6.0000000  )
         2           Ti1 tau(   2) = (   3.2906075   1.4906267   6.0002472  )
         3           O1  tau(   3) = (   0.0006271   0.0005054   7.9858123  )
         4           O1  tau(   4) = (   3.2906025   0.0005020   7.3038282  )
         5           O1  tau(   5) = (   4.5942328   1.4918067   9.2879030  )
         6           O1  tau(   6) = (   1.9868534   1.4903216   9.2879459  )
         7           Ti1 tau(   7) = (   3.2907910   2.8959150   9.1758416  )
         8           Ti1 tau(   8) = (   0.0015273   1.4827037   9.2680791  )
         9           O1  tau(   9) = (   3.2941312   5.9515177  11.3840049  )
        10           O1  tau(  10) = (   0.0116148   5.9584955  10.6183126  )
        11           O1  tau(  11) = (   1.2915503   1.4777401  12.6967708  )
        12           O1  tau(  12) = (   5.3002239   1.4803738  12.6794006  )
        13           Ti1 tau(  13) = (   0.0161863   2.9610389  12.5056540  )
        14           Ti1 tau(  14) = (   3.3199580   1.4690355  12.5397617  )
        15           O1  tau(  15) = (   6.5577523   5.8663973  14.6994336  )
        16           O1  tau(  16) = (   3.3105950   5.9380289  14.0083265  )
        17           O1  tau(  17) = (   4.5355139   1.5078041  16.1868020  )
        18           O1  tau(  18) = (   2.0231344   1.4922588  16.1350940  )
        19           Ti1 tau(  19) = (   3.2781988   2.9761027  15.7713632  )
        20           Ti1 tau(  20) = (   0.0162001   1.2772015  15.8797579  )
        21           O1  tau(  21) = (   3.2904802   0.0005063   4.7018136  )
        22           O1  tau(  22) = (   6.5682446   0.1140876  17.2519115  )
        23           O1  tau(  23) = (   1.3043587   1.4918075   6.0039043  )
        24           O1  tau(  24) = (   5.2767064   1.4903225   6.0039473  )
        25           Ti1 tau(  25) = (   0.0000382   5.9609847   6.0000000  )
        26           Ti1 tau(  26) = (   3.2902200   4.4714249   6.0002472  )
        27           O1  tau(  27) = (   0.0002396   2.9813036   7.9858123  )
        28           O1  tau(  28) = (   3.2902150   2.9813002   7.3038282  )
        29           O1  tau(  29) = (   4.5938453   4.4726049   9.2879030  )
        30           O1  tau(  30) = (   1.9864658   4.4711199   9.2879459  )
        31           Ti1 tau(  31) = (   3.2891106   5.8743827   9.1763621  )
        32           Ti1 tau(  32) = (   0.0006254   4.4649316   9.2693709  )
        33           O1  tau(  33) = (   3.2958891   2.9587481  11.3780895  )
        34           O1  tau(  34) = (   0.0092240   2.9805883  10.6323155  )
        35           O1  tau(  35) = (   1.2947421   4.4484190  12.6652604  )
        36           O1  tau(  36) = (   5.2996063   4.4466420  12.6515021  )
        37           Ti1 tau(  37) = (   0.0283143   5.9336383  12.5061025  )
        38           Ti1 tau(  38) = (   3.3214233   4.4478814  12.5310514  )
        39           O1  tau(  39) = (   6.5589476   3.0029366  14.9874712  )
        40           O1  tau(  40) = (   3.3011147   2.9794859  13.9794371  )
        41           O1  tau(  41) = (   4.5155863   4.4560770  16.2359875  )
        42           O1  tau(  42) = (   2.0187475   4.4548860  16.2131175  )
        43           Ti1 tau(  43) = (   3.3138217   5.9556645  15.8088081  )
        44           Ti1 tau(  44) = (   0.0451788   4.5003401  16.0524233  )
        45           O1  tau(  45) = (   3.2900926   2.9813045   4.7018136  )
        46           O1  tau(  46) = (   1.3039711   4.4726057   6.0039043  )
        47           O1  tau(  47) = (   5.2763189   4.4711207   6.0039473  )
        48           N1  tau(  48) = (   6.2013940   3.4221407  18.2524812  )
        49           C1  tau(  49) = (   0.6861764   3.1362451  19.0985974  )
        50           H1  tau(  50) = (   1.2250757   3.9700495  19.5149693  )
        51           H1  tau(  51) = (   1.1126790   2.1486344  19.0481404  )
        52           H1  tau(  52) = (   5.7034377   4.2789310  18.4761913  )
        53           H1  tau(  53) = (   5.5430662   2.6452022  18.1284619  )

     number of k points=    10  Fermi-Dirac smearing, width (Ry)=  0.0073
                       cart. coord. in units 2pi/alat
        k(    1) = (   0.0000000   0.0000000   0.0000000), wk =   0.1250000
        k(    2) = (   0.0000000   0.0419351   0.0000000), wk =   0.2500000
        k(    3) = (   0.0000000  -0.0838702   0.0000000), wk =   0.1250000
        k(    4) = (   0.0379955   0.0000049   0.0000000), wk =   0.2500000
        k(    5) = (   0.0379955   0.0419400   0.0000000), wk =   0.2500000
        k(    6) = (   0.0379955  -0.0838652   0.0000000), wk =   0.2500000
        k(    7) = (   0.0379955  -0.0419301   0.0000000), wk =   0.2500000
        k(    8) = (  -0.0759910  -0.0000099   0.0000000), wk =   0.1250000
        k(    9) = (  -0.0759910   0.0419252   0.0000000), wk =   0.2500000
        k(   10) = (  -0.0759910  -0.0838800   0.0000000), wk =   0.1250000

     Initial potential from superposition of free atoms

     starting charge  374.99916, renormalised to  391.00000

     negative rho (up, down):  1.684E-02 0.000E+00

     %%%%%%%%%%%%%%%%%%%%%%%%%%%%%%%%%%%%%%%%%%%%%%%%%%%%%%%%%%%%%%%%%%%%%%%%
     %                                                                      %
     % You are using vdW-DF, which was implemented by the Thonhauser group. %
     % Please cite the following two papers that made this development      %
     % possible and the two reviews that describe the various versions:     %
     %                                                                      %
     %   T. Thonhauser et al., PRL 115, 136402 (2015).                      %
     %   T. Thonhauser et al., PRB 76, 125112 (2007).                       %
     %   K. Berland et al., Rep. Prog. Phys. 78, 066501 (2015).             %
     %   D.C. Langreth et al., J. Phys.: Condens. Matter 21, 084203 (2009). %
     %                                                                      %
     %                                                                      %
     % If you are calculating the stress with vdW-DF, please also cite:     %
     %                                                                      %
     %   R. Sabatini et al., J. Phys.: Condens. Matter 24, 424209 (2012).   %
     %                                                                      %
     %%%%%%%%%%%%%%%%%%%%%%%%%%%%%%%%%%%%%%%%%%%%%%%%%%%%%%%%%%%%%%%%%%%%%%%%

     Adding external electric field

     Computed dipole along edir(3) :
        Dipole               -6.9321 Ry au,        -17.6197 Debye
        Dipole field         -0.0131 Ry au,

        Potential amp.        1.2127 Ry
        Total length         46.3494 bohr

     Starting wfcs are  296 atomic wfcs
  @ DRIVER MODE: Message from server: STATUS
  @ DRIVER MODE: Message from server: POSDATA
  @ DRIVER MODE: Reading and sharing cell
  @ DRIVER MODE: Reading and sharing positions
  @ DRIVER MODE: Received positions

     Self-consistent Calculation

     iteration #  1     ecut=    29.40 Ry     beta= 0.05
     Davidson diagonalization with overlap
     c_bands:  1 eigenvalues not converged
     ethr =  1.00E-05,  avg # of iterations = 15.4

[...]

     total energy              =   -2713.45153177 Ry
     estimated scf accuracy    <    2282.72401030 Ry

     iteration #  2     ecut=    29.40 Ry     beta= 0.05
     Davidson diagonalization with overlap
     ethr =  1.00E-02,  avg # of iterations = 18.3

[...]

     iteration # 85     ecut=    29.40 Ry     beta= 0.05
     Davidson diagonalization with overlap
     c_bands:  2 eigenvalues not converged
     c_bands:  2 eigenvalues not converged
     c_bands:  2 eigenvalues not converged
     c_bands:  1 eigenvalues not converged
     ethr =  2.10E-11,  avg # of iterations = 18.2

[...]

     total energy              =   -2920.25686837 Ry
     estimated scf accuracy    <       0.00000034 Ry

     iteration # 86     ecut=    29.40 Ry     beta= 0.05
     Davidson diagonalization with overlap
     ethr =  2.10E-11,  avg # of iterations = 11.1

     negative rho (up, down):  1.610E-02 0.000E+00

     Adding external electric field

     Computed dipole along edir(3) :
        Dipole                0.8936 Ry au,          2.2712 Debye
        Dipole field          0.0017 Ry au,

        Potential amp.       -0.1563 Ry
        Total length         46.3494 bohr

     End of self-consistent calculation

          k = 0.0000 0.0000 0.0000 ( 18029 PWs)   bands (ev):

   -55.7219 -55.6860 -55.6737 -55.6396 -55.6113 -55.6022 -55.5678 -55.5462
   -55.5386 -55.5117 -55.5054 -55.4717 -55.4651 -55.3049 -54.7055 -54.6714
   -32.2873 -32.1668 -32.0902 -32.0577 -32.0428 -32.0352 -32.0320 -32.0114
   -31.9627 -31.9569 -31.9338 -31.9282 -31.9187 -31.8909 -31.8755 -31.8737
   -31.8607 -31.8496 -31.8417 -31.8263 -31.8209 -31.7881 -31.7808 -31.7768
   -31.7485 -31.7450 -31.7343 -31.7309 -31.7251 -31.7209 -31.7048 -31.7030
   -31.6947 -31.6918 -31.6717 -31.6596 -31.6573 -31.6426 -31.6333 -31.6169
   -31.5255 -31.4728 -31.1150 -31.0205 -30.9984 -30.9314 -30.8446 -30.7337
   -16.6563 -16.5269 -16.2728 -16.1128 -16.0185 -15.9217 -15.7904 -15.7626
   -15.6465 -15.5698 -15.4283 -15.3980 -15.3822 -15.3605 -15.3433 -15.3315
   -15.2695 -15.2635 -15.2437 -15.2181 -15.2148 -15.1679 -15.1632 -15.1226
   -15.0987 -15.0461 -14.9682 -14.8837 -14.8109 -14.4906 -13.2083 -13.0908
    -9.5026  -6.8490  -4.9338  -3.8864  -3.7429  -3.6743  -3.6246  -3.6157
    -3.4743  -3.3004  -3.1567  -3.1396  -3.0889  -2.9947  -2.9271  -2.9132
    -2.8888  -2.7474  -2.7335  -2.6797  -2.6517  -2.5747  -2.5701  -2.5270
    -2.5078  -2.4734  -2.4693  -2.4392  -2.2998  -2.2921  -2.2516  -2.1904
    -2.1314  -2.1284  -2.0733  -2.0540  -2.0127  -2.0035  -1.9946  -1.9517
    -1.9470  -1.9130  -1.8182  -1.7476  -1.6208  -1.5842  -1.4421  -1.3631
    -1.3156  -1.2954  -1.2147  -1.2076  -1.1483  -1.1034  -1.1013  -1.0610
    -0.9496  -0.8680  -0.8157  -0.7580  -0.7243  -0.7075  -0.6228  -0.5254
    -0.5017  -0.4892  -0.4535  -0.3536  -0.3284  -0.2677  -0.2034  -0.1911
    -0.1782  -0.0936  -0.0557   0.0169   0.0666   0.0867   0.1639   0.1860
     0.2098   0.2157   0.2463   0.2621   0.3334   0.3530   0.3780   0.4653
     0.5860   0.8278   0.8873   0.8953   1.2161   1.2213   1.3170   1.5001
     1.8935   1.9419   3.3709   3.3883   3.4527   3.5209   3.5247   3.5866
     3.6117   3.8582   3.8775   3.8855   3.9031

[...]

          k = 0.0380-0.0419 0.0000 ( 17876 PWs)   bands (ev):

[...]

          k =-0.0760-0.0000 0.0000 ( 17886 PWs)   bands (ev):

[...]

          k =-0.0760-0.0839 0.0000 ( 17948 PWs)   bands (ev):

   -55.7053 -55.7024 -55.6566 -55.6566 -55.6070 -55.5858 -55.5841 -55.5427
   -55.5307 -55.5268 -55.4889 -55.4883 -55.4629 -55.3069 -54.6885 -54.6883
   -32.0929 -32.0904 -31.9998 -31.9819 -31.9818 -31.9788 -31.9695 -31.9481
   -31.9478 -31.9317 -31.9252 -31.9182 -31.9137 -31.8743 -31.8660 -31.8629
   -31.8587 -31.8539 -31.8495 -31.8447 -31.8311 -31.8118 -31.8001 -31.7992
   -31.7808 -31.7770 -31.7764 -31.7762 -31.7637 -31.7597 -31.7434 -31.7417
   -31.7394 -31.7302 -31.7219 -31.7191 -31.6858 -31.6692 -31.6687 -31.6503
   -31.5651 -31.5276 -31.0111 -31.0110 -30.9275 -30.9274 -30.8880 -30.8880
   -16.6201 -16.0385 -15.9456 -15.9076 -15.7596 -15.7219 -15.6869 -15.6746
   -15.5521 -15.5261 -15.5008 -15.4792 -15.4441 -15.4277 -15.4207 -15.3729
   -15.3413 -15.3218 -15.3162 -15.3041 -15.2412 -15.2332 -15.2293 -15.2223
   -15.1729 -15.1693 -15.0783 -15.0753 -15.0632 -14.7764 -13.1923 -13.1922
    -9.5041  -6.8314  -4.9146  -3.2148  -3.1903  -3.1607  -3.1323  -2.9782
    -2.9101  -2.8968  -2.8744  -2.7968  -2.7557  -2.7345  -2.6940  -2.6828
    -2.6306  -2.6040  -2.5764  -2.5605  -2.5559  -2.5395  -2.5185  -2.4844
    -2.4556  -2.4527  -2.4422  -2.4022  -2.3749  -2.3610  -2.3270  -2.3175
    -2.3099  -2.2804  -2.2210  -2.1146  -2.0908  -2.0587  -1.9644  -1.9311
    -1.9263  -1.8462  -1.8159  -1.7576  -1.7547  -1.7436  -1.5971  -1.5151
    -1.4717  -1.4691  -1.4472  -1.3202  -1.3107  -1.2261  -1.2036  -1.1940
    -1.1069  -1.0806  -1.0430  -1.0176  -0.9350  -0.9098  -0.8439  -0.7556
    -0.7193  -0.7114  -0.6796  -0.6769  -0.6277  -0.6162  -0.5352  -0.4928
    -0.4566  -0.4465  -0.4055  -0.2209  -0.2038  -0.1609  -0.0322   0.0129
     0.1455   0.1630   0.2274   0.3040   0.3365   0.3908   0.4269   0.5729
     0.5828   0.6142   0.6594   0.6688   0.7286   0.7378   1.6732   1.6738
     1.7617   1.7620   3.3934   3.6194   3.6262   3.6653   3.6880   3.8406
     3.8914   3.9294   3.9550   3.9602   3.9759

     the Fermi energy is     3.4388 ev

!    total energy              =   -2920.25687218 Ry
     estimated scf accuracy    <       0.00000007 Ry
     smearing contrib. (-TS)   =      -0.04301708 Ry
     internal energy E=F+TS    =   -2920.21385511 Ry

     The total energy is F=E-TS. E is the sum of the following terms:
     one-electron contribution =  -24043.95345244 Ry
     hartree contribution      =   12108.11666007 Ry
     xc contribution           =    -480.85121975 Ry
     ewald contribution        =    9496.47265020 Ry
     electric field correction =       0.00150681 Ry

     convergence has been achieved in  86 iterations

     Forces acting on atoms (cartesian axes, Ry/au):

     atom    1 type  1   force =     0.00008668   -0.00016265    0.09317420
     atom    2 type  1   force =    -0.00020435   -0.00024893   -0.17847830
     atom    3 type  2   force =     0.00003756   -0.00036830   -0.02006640
     atom    4 type  2   force =    -0.00001970   -0.00199520    0.05918407
     atom    5 type  2   force =    -0.01040311   -0.00113837    0.00789068
     atom    6 type  2   force =     0.01196241   -0.00052160    0.00731523
     atom    7 type  1   force =    -0.00041749    0.00230092   -0.01388208
     atom    8 type  1   force =     0.00003893   -0.00144440   -0.00478096
     atom    9 type  2   force =     0.00000295   -0.00028565   -0.00034869
     atom   10 type  2   force =    -0.00082640    0.00065963    0.00151357
     atom   11 type  2   force =     0.00009822   -0.00004018    0.00025134
     atom   12 type  2   force =    -0.00007546    0.00008518    0.00033804
     atom   13 type  1   force =    -0.00056778    0.00062134   -0.00010907
     atom   14 type  1   force =     0.00025537    0.00021468    0.00008213
     atom   15 type  2   force =    -0.00015802    0.00056420    0.00042801
     atom   16 type  2   force =    -0.00016028   -0.00005857   -0.00009933
     atom   17 type  2   force =    -0.00006354   -0.00007555    0.00002679
     atom   18 type  2   force =    -0.00021260   -0.00014027   -0.00043586
     atom   19 type  1   force =    -0.00004414    0.00014880   -0.00009215
     atom   20 type  1   force =    -0.00003121   -0.00005560   -0.00031354
     atom   21 type  2   force =     0.00001349   -0.00001470    0.10400196
     atom   22 type  2   force =    -0.00006033    0.00037278    0.00086741
     atom   23 type  2   force =    -0.07037943   -0.00010098   -0.02688170
     atom   24 type  2   force =     0.07019439    0.00032958   -0.02694147
     atom   25 type  1   force =    -0.00001010   -0.00012192    0.09256949
     atom   26 type  1   force =    -0.00017979   -0.00038780   -0.17852246
     atom   27 type  2   force =     0.00009514   -0.00026975   -0.01915739
     atom   28 type  2   force =     0.00002805   -0.00176533    0.05850370
     atom   29 type  2   force =    -0.01089294   -0.00133248    0.00842435
     atom   30 type  2   force =     0.01234626   -0.00099321    0.00777459
     atom   31 type  1   force =    -0.00022631    0.00598615   -0.01475719
     atom   32 type  1   force =     0.00005775    0.00099133   -0.00536131
     atom   33 type  2   force =    -0.00030705    0.00023869    0.00014858
     atom   34 type  2   force =    -0.00022413   -0.00291346    0.00009720
     atom   35 type  2   force =     0.00060238    0.00021643   -0.00004290
     atom   36 type  2   force =    -0.00065058    0.00017792   -0.00026931
     atom   37 type  1   force =    -0.00054882   -0.00047859   -0.00011061
     atom   38 type  1   force =     0.00016496   -0.00049924    0.00010262
     atom   39 type  2   force =     0.00003005   -0.00026128    0.00038452
     atom   40 type  2   force =    -0.00001000    0.00044537   -0.00056386
     atom   41 type  2   force =    -0.00006044    0.00053971   -0.00022813
     atom   42 type  2   force =     0.00007391    0.00055521   -0.00012417
     atom   43 type  1   force =    -0.00011078    0.00023146   -0.00069875
     atom   44 type  1   force =    -0.00057255   -0.00032994    0.00005670
     atom   45 type  2   force =     0.00000356   -0.00002616    0.10397020
     atom   46 type  2   force =    -0.07035770   -0.00005664   -0.02684794
     atom   47 type  2   force =     0.07019237    0.00037245   -0.02689623
     atom   48 type  3   force =    -0.00645650   -0.00979459   -0.00109083
     atom   49 type  4   force =     0.00144392    0.00012407   -0.00101334
     atom   50 type  5   force =     0.00032032   -0.00009742   -0.00040075
     atom   51 type  5   force =    -0.00028483    0.00062730    0.00008422
     atom   52 type  5   force =    -0.00030499   -0.00088803    0.00019839
     atom   53 type  5   force =     0.00677264    0.01106359    0.00112673

     Total force =     0.366835     Total SCF correction =     0.000574
  @ DRIVER MODE: Message from server: STATUS
  @ DRIVER MODE: Message from server: GETFORCE
  @ DRIVER MODE: Returning v,forces,stress,ensemble

     Writing output data file ./calc.save/
  @ DRIVER MODE: Message from server: EXIT
  @ DRIVE MODE: Exiting

     General routines

     Parallel routines

   This run was terminated on:  22: 1:51  24Aug2021

   JOB DONE.