     Program PWSCF v.6.7GPU starts on 27Jul2021 at 17: 0:19

     R & G space division:  proc/nbgrp/npool/nimage =      16
     Reading input from /storage/home/hcoda1/3/ntian30/research/carbon/15Jul_vib/ads_slab/CH3NHHH_a/out_0016/pw.inp
Warning: card &CELL ignored
Warning: card   CELL_DYNAMICS='IPI', ignored
Warning: card / ignored

     Current dimensions of program PWSCF are:
     Max number of different atomic species (ntypx) = 10
     Max number of k-points (npk) =  40000
     Max angular momentum in pseudopotentials (lmaxx) =  3
     Presently no symmetry can be used with electric field

     Message from routine cell_base_init:
     DEPRECATED: use true lattice parameter, not A to a.u. conversion factor

     IMPORTANT: XC functional enforced from input :
     Exchange-correlation= BEEF-VDW
                           (   1   4  43  14   2   0   0)
     Any further DFT definition will be discarded
     Please, verify this is what you really want

  @ DRIVER MODE: Connecting to
 qe_1139763_2431568.sched-torque.pace.gatech.educf9mejl7_scratch
  using UNIX socket
  @ DRIVER MODE: Message from server: STATUS
  @ DRIVER MODE: Message from server: INIT
  @ DRIVER MODE: Receiving replica           0          -1
  @ DRIVER MODE: Receiving encoded integer          25
  @ DRIVER MODE:  SCF:  T  FORCE:  T  STRESS:  F  VC:  F  ENSEMBLE:  F
  @ DRIVER MODE:  SCF:  T  FORCE:  T  STRESS:  F  VC:  F  ENSEMBLE:  F

     Using Slab Decomposition

     bravais-lattice index     =            0
     lattice parameter (alat)  =       1.8897  a.u.
     unit-cell volume          =    6658.9804 (a.u.)^3
     number of atoms/cell      =           55
     number of atomic types    =            5
     number of electrons       =       393.00
     number of Kohn-Sham states=          206
     kinetic-energy cutoff     =      29.3995  Ry
     charge density cutoff     =     293.9946  Ry
     scf convergence threshold =      7.3E-08
     mixing beta               =       0.0500
     number of iterations used =            8  plain     mixing
     Exchange-correlation= BEEF-VDW
                           (   1   4  43  14   2   0   0)

     celldm(1)=   1.889726  celldm(2)=   0.000000  celldm(3)=   0.000000
     celldm(4)=   0.000000  celldm(5)=   0.000000  celldm(6)=   0.000000

     crystal axes: (cart. coord. in units of alat)
               a(1) = (   6.579727   0.000000   0.000000 )
               a(2) = (  -0.000775   5.961596   0.000000 )
               a(3) = (   0.000000   0.000000  25.155947 )

     reciprocal axes: (cart. coord. in units 2 pi/alat)
               b(1) = (  0.151982  0.000020  0.000000 )
               b(2) = (  0.000000  0.167740  0.000000 )
               b(3) = (  0.000000  0.000000  0.039752 )

     PseudoPot. # 1 for Ti read from file:
     /storage/coda1/p-amedford6/0/shared/rich_project_chbe-medford/medford-share/data/pseudos_module/espresso/nninc/pbe/van/Ti.UPF
     MD5 check sum: 8e4df49b7f0d34bbd5052bf3f5ea0213
     Pseudo is Ultrasoft, Zval = 12.0
     Generated by new atomic code, or converted to UPF format
     Using radial grid of  851 points,  6 beta functions with:
                l(1) =   0
                l(2) =   0
                l(3) =   1
                l(4) =   1
                l(5) =   2
                l(6) =   2
     Q(r) pseudized with  8 coefficients,  rinner =    1.000   1.000   1.000
                                                       1.000   1.000

     PseudoPot. # 2 for O  read from file:
     /storage/coda1/p-amedford6/0/shared/rich_project_chbe-medford/medford-share/data/pseudos_module/espresso/nninc/pbe/van/O.UPF
     MD5 check sum: 78c19812648e8988a0fe644b0f25305e
     Pseudo is Ultrasoft, Zval =  6.0
     Generated by new atomic code, or converted to UPF format
     Using radial grid of  737 points,  4 beta functions with:
                l(1) =   0
                l(2) =   0
                l(3) =   1
                l(4) =   1
     Q(r) pseudized with  8 coefficients,  rinner =    0.800   0.800   0.800

     PseudoPot. # 3 for N  read from file:
     /storage/coda1/p-amedford6/0/shared/rich_project_chbe-medford/medford-share/data/pseudos_module/espresso/nninc/pbe/van/N.UPF
     MD5 check sum: 90d10febe142ad51ac9d5be1deb811c4
     Pseudo is Ultrasoft, Zval =  5.0
     Generated by new atomic code, or converted to UPF format
     Using radial grid of  729 points,  4 beta functions with:
                l(1) =   0
                l(2) =   0
                l(3) =   1
                l(4) =   1
     Q(r) pseudized with  8 coefficients,  rinner =    0.800   0.800   0.800

     PseudoPot. # 4 for C  read from file:
     /storage/coda1/p-amedford6/0/shared/rich_project_chbe-medford/medford-share/data/pseudos_module/espresso/nninc/pbe/van/C.UPF
     MD5 check sum: 1a69bf6b8db32088f5b2163dbdb77a27
     Pseudo is Ultrasoft, Zval =  4.0
     Generated by new atomic code, or converted to UPF format
     Using radial grid of  721 points,  4 beta functions with:
                l(1) =   0
                l(2) =   0
                l(3) =   1
                l(4) =   1
     Q(r) pseudized with  8 coefficients,  rinner =    0.800   0.800   0.800

     PseudoPot. # 5 for H  read from file:
     /storage/coda1/p-amedford6/0/shared/rich_project_chbe-medford/medford-share/data/pseudos_module/espresso/nninc/pbe/van/H.UPF
     MD5 check sum: b5ee9d7bfd3a09ee7748110bda690ff7
     Pseudo is Ultrasoft, Zval =  1.0
     Generated by new atomic code, or converted to UPF format
     Using radial grid of  615 points,  1 beta functions with:
                l(1) =   0
     Q(r) pseudized with  8 coefficients,  rinner =    0.800

     atomic species   valence    mass     pseudopotential
        Ti1           12.00    47.86700     Ti( 1.00)
        O1             6.00    15.99900     O ( 1.00)
        N1             5.00    14.00700     N ( 1.00)
        C1             4.00    12.01100     C ( 1.00)
        H1             1.00     1.00800     H ( 1.00)

     Starting magnetic structure
     atomic species   magnetization
        Ti1          0.000
        O1           0.000
        N1           0.040
        C1           0.025
        H1           0.000

     No symmetry found

   Cartesian axes

     site n.     atom                  positions (alat units)
         1           Ti1 tau(   1) = (   0.0004258   2.9801865   6.0000000  )
         2           Ti1 tau(   2) = (   3.2906075   1.4906267   6.0002472  )
         3           O1  tau(   3) = (   0.0006271   0.0005054   7.9858123  )
         4           O1  tau(   4) = (   3.2906025   0.0005020   7.3038282  )
         5           O1  tau(   5) = (   4.5942328   1.4918067   9.2879030  )
         6           O1  tau(   6) = (   1.9868534   1.4903216   9.2879459  )
         7           Ti1 tau(   7) = (   3.2907910   2.8959150   9.1758416  )
         8           Ti1 tau(   8) = (   0.0015273   1.4827037   9.2680791  )
         9           O1  tau(   9) = (   3.2636084   5.9406443  11.4082010  )
        10           O1  tau(  10) = (   0.0116148   5.9584955  10.6183126  )
        11           O1  tau(  11) = (   1.2642105   1.4849797  12.6947803  )
        12           O1  tau(  12) = (   5.2691575   1.4821021  12.6650678  )
        13           Ti1 tau(  13) = (   6.5574234   2.9640577  12.4921542  )
        14           Ti1 tau(  14) = (   3.2619390   1.4709553  12.5527290  )
        15           O1  tau(  15) = (   6.5247406   5.9594380  14.6832748  )
        16           O1  tau(  16) = (   3.2695906   5.9428997  14.0562986  )
        17           O1  tau(  17) = (   4.5175969   1.4707097  16.2986306  )
        18           O1  tau(  18) = (   1.9406912   1.4777946  16.2473769  )
        19           Ti1 tau(  19) = (   3.2491105   2.9422209  15.8109686  )
        20           Ti1 tau(  20) = (   6.5361480   1.3378720  15.9626387  )
        21           O1  tau(  21) = (   3.2904802   0.0005063   4.7018136  )
        22           O1  tau(  22) = (   6.5280740   5.8897732  17.4332532  )
        23           O1  tau(  23) = (   1.3043587   1.4918075   6.0039043  )
        24           O1  tau(  24) = (   5.2767064   1.4903225   6.0039473  )
        25           Ti1 tau(  25) = (   0.0000382   5.9609847   6.0000000  )
        26           Ti1 tau(  26) = (   3.2902200   4.4714249   6.0002472  )
        27           O1  tau(  27) = (   0.0002396   2.9813036   7.9858123  )
        28           O1  tau(  28) = (   3.2902150   2.9813002   7.3038282  )
        29           O1  tau(  29) = (   4.5938453   4.4726049   9.2879030  )
        30           O1  tau(  30) = (   1.9864658   4.4711199   9.2879459  )
        31           Ti1 tau(  31) = (   3.2891106   5.8743827   9.1763621  )
        32           Ti1 tau(  32) = (   0.0006254   4.4649316   9.2693709  )
        33           O1  tau(  33) = (   3.2649920   2.9642658  11.3997388  )
        34           O1  tau(  34) = (   0.0092240   2.9805883  10.6323155  )
        35           O1  tau(  35) = (   1.2634527   4.4478426  12.7061968  )
        36           O1  tau(  36) = (   5.2693862   4.4495813  12.6755241  )
        37           Ti1 tau(  37) = (   6.5522441   5.9483113  12.5008436  )
        38           Ti1 tau(  38) = (   3.2626494   4.4468850  12.5575576  )
        39           O1  tau(  39) = (   6.4970557   2.9363996  15.0046851  )
        40           O1  tau(  40) = (   3.2722650   2.9529576  14.0194401  )
        41           O1  tau(  41) = (   4.5170401   4.4205294  16.2730734  )
        42           O1  tau(  42) = (   1.9466746   4.4191161  16.2235312  )
        43           Ti1 tau(  43) = (   3.2419262   5.9323414  15.8513663  )
        44           Ti1 tau(  44) = (   6.5549466   4.5556212  15.8889459  )
        45           O1  tau(  45) = (   3.2900926   2.9813045   4.7018136  )
        46           O1  tau(  46) = (   1.3039711   4.4726057   6.0039043  )
        47           O1  tau(  47) = (   5.2763189   4.4711207   6.0039473  )
        48           N1  tau(  48) = (   4.8657738   4.5798987  19.4796958  )
        49           C1  tau(  49) = (   5.7271871   3.4329544  19.8049648  )
        50           H1  tau(  50) = (   6.3241292   3.1821029  18.9298488  )
        51           H1  tau(  51) = (   6.4229137   3.7195585  20.5942015  )
        52           H1  tau(  52) = (   5.1874390   2.5328885  20.1195193  )
        53           H1  tau(  53) = (   5.9066942   5.7389963  18.1772939  )
        54           H1  tau(  54) = (   4.2103208   4.3266459  18.7469397  )
        55           H1  tau(  55) = (   4.3187305   4.8545830  20.2870342  )

     number of k points=    10  Fermi-Dirac smearing, width (Ry)=  0.0073
                       cart. coord. in units 2pi/alat
        k(    1) = (   0.0000000   0.0000000   0.0000000), wk =   0.0625000
        k(    2) = (   0.0000000   0.0419351   0.0000000), wk =   0.1250000
        k(    3) = (   0.0000000  -0.0838702   0.0000000), wk =   0.0625000
        k(    4) = (   0.0379955   0.0000049   0.0000000), wk =   0.1250000
        k(    5) = (   0.0379955   0.0419400   0.0000000), wk =   0.1250000
        k(    6) = (   0.0379955  -0.0838652   0.0000000), wk =   0.1250000
[...]

     Initial potential from superposition of free atoms

     starting charge  376.99914, renormalised to  393.00000

     negative rho (up, down):  6.647E-03 6.649E-03

     %%%%%%%%%%%%%%%%%%%%%%%%%%%%%%%%%%%%%%%%%%%%%%%%%%%%%%%%%%%%%%%%%%%%%%%%
     %                                                                      %
     % You are using vdW-DF, which was implemented by the Thonhauser group. %
     % Please cite the following two papers that made this development      %
     % possible and the two reviews that describe the various versions:     %
     %                                                                      %
     %   T. Thonhauser et al., PRL 115, 136402 (2015).                      %
     %   T. Thonhauser et al., PRB 76, 125112 (2007).                       %
     %   K. Berland et al., Rep. Prog. Phys. 78, 066501 (2015).             %
     %   D.C. Langreth et al., J. Phys.: Condens. Matter 21, 084203 (2009). %
     %                                                                      %
     %                                                                      %
     % If you are calculating the stress with vdW-DF, please also cite:     %
     %                                                                      %
     %   R. Sabatini et al., J. Phys.: Condens. Matter 24, 424209 (2012).   %
     %                                                                      %
     %%%%%%%%%%%%%%%%%%%%%%%%%%%%%%%%%%%%%%%%%%%%%%%%%%%%%%%%%%%%%%%%%%%%%%%%

     Adding external electric field

     Computed dipole along edir(3) :
        Dipole               -9.4918 Ry au,        -24.1257 Debye
        Dipole field         -0.0179 Ry au,

        Potential amp.        1.6604 Ry
        Total length         46.3494 bohr

[...]

     Starting wfcs are  298 atomic wfcs
  @ DRIVER MODE: Message from server: STATUS
  @ DRIVER MODE: Message from server: POSDATA
  @ DRIVER MODE: Reading and sharing cell
  @ DRIVER MODE: Reading and sharing positions
  @ DRIVER MODE: Received positions

     Self-consistent Calculation

     iteration #  1     ecut=    29.40 Ry     beta= 0.05
     Davidson diagonalization with overlap
     c_bands:  2 eigenvalues not converged
     c_bands:  1 eigenvalues not converged
     c_bands:  2 eigenvalues not converged
     c_bands:  3 eigenvalues not converged
     c_bands:  3 eigenvalues not converged
     c_bands:  1 eigenvalues not converged
     c_bands:  2 eigenvalues not converged
     c_bands:  1 eigenvalues not converged
     c_bands:  2 eigenvalues not converged
     c_bands:  3 eigenvalues not converged
     c_bands:  3 eigenvalues not converged
     c_bands:  1 eigenvalues not converged
     ethr =  1.00E-05,  avg # of iterations = 18.9

[...]

     total energy              =   -2620.50797365 Ry
     estimated scf accuracy    <    3389.61946367 Ry

     total magnetization       =     0.00 Bohr mag/cell
     absolute magnetization    =     0.01 Bohr mag/cell

     iteration #  2     ecut=    29.40 Ry     beta= 0.05
     Davidson diagonalization with overlap
     ethr =  1.00E-02,  avg # of iterations = 23.5

[...]

     iteration #152     ecut=    29.40 Ry     beta= 0.05
     Davidson diagonalization with overlap
     c_bands:  1 eigenvalues not converged
     c_bands:  1 eigenvalues not converged
     ethr =  2.73E-11,  avg # of iterations = 15.2

[...]

     total energy              =   -2922.77425238 Ry
     estimated scf accuracy    <       0.00000010 Ry

[...]

     iteration #155     ecut=    29.40 Ry     beta= 0.05
     Davidson diagonalization with overlap
     ethr =  2.05E-11,  avg # of iterations = 10.4

     negative rho (up, down):  7.249E-03 7.250E-03

[...]

     Adding external electric field

     Computed dipole along edir(3) :
        Dipole                1.4054 Ry au,          3.5722 Debye
        Dipole field          0.0027 Ry au,

        Potential amp.       -0.2459 Ry
        Total length         46.3494 bohr

     Magnetic moment per site  (integrated on atomic sphere of radius R)
     atom   1 (R=0.739)  charge=  8.0547  magn=  0.0086
     atom   2 (R=0.739)  charge=  8.0362  magn=  0.0005
     atom   3 (R=0.405)  charge=  2.0075  magn= -0.0004
     atom   4 (R=0.405)  charge=  2.0190  magn= -0.0001
     atom   5 (R=0.405)  charge=  2.0104  magn= -0.0001
     atom   6 (R=0.405)  charge=  2.0107  magn= -0.0001
     atom   7 (R=0.739)  charge=  8.0371  magn=  0.0006
     atom   8 (R=0.739)  charge=  8.0393  magn=  0.0057
     atom   9 (R=0.405)  charge=  2.0112  magn=  0.0000
     atom  10 (R=0.405)  charge=  2.0117  magn= -0.0002
     atom  11 (R=0.405)  charge=  2.0092  magn= -0.0000
     atom  12 (R=0.405)  charge=  2.0092  magn= -0.0000
     atom  13 (R=0.739)  charge=  8.0500  magn=  0.0013
     atom  14 (R=0.739)  charge=  8.0432  magn=  0.0002
     atom  15 (R=0.405)  charge=  2.0128  magn= -0.0001
     atom  16 (R=0.405)  charge=  2.0108  magn= -0.0000
     atom  17 (R=0.405)  charge=  2.0009  magn= -0.0000
     atom  18 (R=0.405)  charge=  2.0012  magn= -0.0000
     atom  19 (R=0.739)  charge=  8.0824  magn= -0.0014
     atom  20 (R=0.739)  charge=  8.1004  magn=  0.0002
     atom  21 (R=0.405)  charge=  1.9825  magn= -0.0003
     atom  22 (R=0.405)  charge=  2.0201  magn= -0.0000
     atom  23 (R=0.405)  charge=  2.0078  magn= -0.0005
     atom  24 (R=0.405)  charge=  2.0078  magn= -0.0005
     atom  25 (R=0.739)  charge=  8.0548  magn=  0.0088
     atom  26 (R=0.739)  charge=  8.0362  magn=  0.0005
     atom  27 (R=0.405)  charge=  2.0075  magn= -0.0004
     atom  28 (R=0.405)  charge=  2.0191  magn= -0.0001
     atom  29 (R=0.405)  charge=  2.0107  magn= -0.0001
     atom  30 (R=0.405)  charge=  2.0109  magn= -0.0001
     atom  31 (R=0.739)  charge=  8.0372  magn=  0.0006
     atom  32 (R=0.739)  charge=  8.0393  magn=  0.0057
     atom  33 (R=0.405)  charge=  2.0120  magn=  0.0000
     atom  34 (R=0.405)  charge=  2.0122  magn= -0.0002
     atom  35 (R=0.405)  charge=  2.0082  magn= -0.0000
     atom  36 (R=0.405)  charge=  2.0092  magn= -0.0000
     atom  37 (R=0.739)  charge=  8.0419  magn=  0.0013
     atom  38 (R=0.739)  charge=  8.0432  magn=  0.0002
     atom  39 (R=0.405)  charge=  2.0115  magn= -0.0000
     atom  40 (R=0.405)  charge=  2.0126  magn= -0.0000
     atom  41 (R=0.405)  charge=  2.0020  magn= -0.0000
     atom  42 (R=0.405)  charge=  2.0020  magn= -0.0000
     atom  43 (R=0.739)  charge=  8.0813  magn= -0.0013
     atom  44 (R=0.739)  charge=  8.1024  magn=  0.0002
     atom  45 (R=0.405)  charge=  1.9825  magn= -0.0002
     atom  46 (R=0.405)  charge=  2.0078  magn= -0.0005
     atom  47 (R=0.405)  charge=  2.0078  magn= -0.0005
     atom  48 (R=0.418)  charge=  1.3245  magn= -0.0000
     atom  49 (R=0.449)  charge=  0.8456  magn= -0.0000
     atom  50 (R=0.405)  charge=  0.4151  magn=  0.0000
     atom  51 (R=0.405)  charge=  0.4140  magn=  0.0000
     atom  52 (R=0.405)  charge=  0.4127  magn=  0.0000
     atom  53 (R=0.405)  charge=  0.3971  magn=  0.0000
     atom  54 (R=0.405)  charge=  0.4210  magn=  0.0000
     atom  55 (R=0.405)  charge=  0.4256  magn=  0.0000

     End of self-consistent calculation

 ------ SPIN UP ------------

          k = 0.0000 0.0000 0.0000 ( 18029 PWs)   bands (ev):

   -55.3085 -55.2727 -55.2644 -55.2303 -55.1733 -55.1489 -55.1467 -55.1389
   -55.1145 -55.0884 -55.0722 -55.0545 -55.0312 -54.9731 -54.3011 -54.2671
   -31.8753 -31.7540 -31.6888 -31.6611 -31.6366 -31.6153 -31.5959 -31.5535
   -31.5493 -31.5458 -31.5160 -31.5089 -31.5042 -31.4760 -31.4654 -31.4617
   -31.4472 -31.4384 -31.4184 -31.4024 -31.3964 -31.3811 -31.3754 -31.3557
   -31.3529 -31.3229 -31.3167 -31.3055 -31.3023 -31.2910 -31.2883 -31.2847
   -31.2762 -31.2753 -31.2605 -31.2568 -31.2237 -31.2159 -31.2000 -31.1992
   -31.1807 -31.1068 -30.7111 -30.6149 -30.5929 -30.5271 -30.4403 -30.3296
   -16.8240 -16.1471 -15.8907 -15.7699 -15.6607 -15.5886 -15.5199 -15.4411
   -15.3574 -15.2567 -15.1950 -15.0902 -15.0556 -15.0161 -15.0013 -14.9824
   -14.9554 -14.8754 -14.8643 -14.8538 -14.8278 -14.8093 -14.7815 -14.7724
   -14.7659 -14.7267 -14.6888 -14.5770 -14.4865 -14.4006 -12.8031 -12.6853
   -10.0143  -5.8547  -4.7415  -4.4216  -3.5259  -3.4756  -3.3434  -3.2386
    -3.2050  -3.1962  -3.0760  -2.8925  -2.7976  -2.7705  -2.6886  -2.6293
    -2.5336  -2.5298  -2.4894  -2.3891  -2.3515  -2.3248  -2.2413  -2.2147
    -2.1682  -2.1178  -2.1073  -2.1041  -2.0835  -2.0429  -2.0043  -1.8854
    -1.8008  -1.7788  -1.7052  -1.6889  -1.6829  -1.6547  -1.6118  -1.5931
    -1.5433  -1.5263  -1.4855  -1.4165  -1.3556  -1.2731  -1.2363  -1.1990
    -0.9931  -0.9645  -0.9138  -0.9114  -0.8829  -0.8146  -0.7849  -0.7553
    -0.6896  -0.6868  -0.6586  -0.5522  -0.5094  -0.3888  -0.3178  -0.2383
    -0.1163  -0.1034  -0.0795  -0.0298  -0.0061   0.0535   0.1134   0.1500
     0.1896   0.2021   0.2895   0.3190   0.3961   0.4105   0.4485   0.5119
     0.5283   0.5544   0.5715   0.5840   0.6182   0.6341   0.6685   0.7347
     0.7671   0.8683   0.9171   1.2011   1.2863   1.5954   1.6187   1.7221
     1.9034   2.3008   2.3496   3.7810   3.8463   3.8888   3.9246   3.9279
     4.0124   4.1460   4.2889   4.2945   4.3098   4.3159

[...]

          k =-0.0760-0.0000 0.0000 ( 17886 PWs)   bands (ev):

[...]

 ------ SPIN DOWN ----------

[...]

          k = 0.0380-0.0419 0.0000 ( 17876 PWs)   bands (ev):

[...]

          k =-0.0760-0.0839 0.0000 ( 17948 PWs)   bands (ev):

   -55.2918 -55.2889 -55.2327 -55.2314 -55.1545 -55.1535 -55.1440 -55.1328
   -55.1283 -55.0778 -55.0635 -55.0610 -55.0239 -54.9799 -54.2831 -54.2830
   -31.6831 -31.6780 -31.5880 -31.5820 -31.5634 -31.5623 -31.5568 -31.5217
   -31.5204 -31.5084 -31.5041 -31.5018 -31.4891 -31.4624 -31.4574 -31.4550
   -31.4305 -31.4286 -31.4231 -31.4037 -31.3764 -31.3744 -31.3678 -31.3649
   -31.3629 -31.3506 -31.3494 -31.3487 -31.3471 -31.3413 -31.3375 -31.3235
   -31.3209 -31.3048 -31.3017 -31.2937 -31.2649 -31.2444 -31.2429 -31.2408
   -31.2256 -31.1726 -30.6045 -30.6044 -30.5229 -30.5227 -30.4828 -30.4827
   -16.7627 -15.8200 -15.5899 -15.5399 -15.4991 -15.4044 -15.3307 -15.2997
   -15.2895 -15.2765 -15.1505 -15.1223 -15.1130 -15.0848 -15.0529 -15.0287
   -15.0248 -14.9896 -14.9325 -14.9264 -14.9185 -14.9103 -14.8467 -14.8385
   -14.8347 -14.8279 -14.7628 -14.7604 -14.6782 -14.6762 -12.7880 -12.7879
   -10.0240  -5.8549  -4.8688  -4.4037  -3.5393  -2.8232  -2.7961  -2.7440
    -2.7049  -2.6121  -2.5269  -2.5000  -2.4634  -2.4051  -2.3532  -2.3059
    -2.3039  -2.2684  -2.2485  -2.2298  -2.1862  -2.1645  -2.1421  -2.1238
    -2.1091  -2.0555  -2.0524  -2.0432  -2.0192  -1.9849  -1.9675  -1.9544
    -1.9379  -1.9196  -1.8941  -1.8748  -1.7318  -1.7109  -1.6706  -1.5534
    -1.5352  -1.5317  -1.4988  -1.4551  -1.4302  -1.4226  -1.3488  -1.3417
    -1.3092  -1.1521  -1.0797  -1.0780  -1.0548  -1.0308  -0.9356  -0.8841
    -0.8437  -0.7938  -0.7181  -0.6867  -0.6681  -0.5955  -0.5686  -0.4771
    -0.3877  -0.3608  -0.3526  -0.2754  -0.2740  -0.2403  -0.2271  -0.1582
    -0.0977  -0.0466  -0.0426  -0.0380   0.0903   0.1273   0.2074   0.3214
     0.4018   0.4102   0.4614   0.5218   0.6052   0.6508   0.6666   0.7883
     0.7903   0.9766   0.9798   1.0281   1.0432   1.1238   1.1290   2.0755
     2.0762   2.1686   2.1689   3.7619   3.9436   3.9981   4.0724   4.0976
     4.1958   4.2824   4.3163   4.3452   4.3683   4.3744

     the Fermi energy is     3.8546 ev

!    total energy              =   -2922.77425271 Ry
     estimated scf accuracy    <       0.00000007 Ry
     smearing contrib. (-TS)   =      -0.04550732 Ry
     internal energy E=F+TS    =   -2922.72874539 Ry

     The total energy is F=E-TS. E is the sum of the following terms:
     one-electron contribution =  -23201.69886085 Ry
     hartree contribution      =   11691.14068866 Ry
     xc contribution           =    -482.55064975 Ry
     ewald contribution        =    9070.37634920 Ry
     electric field correction =       0.00372735 Ry

     total magnetization       =     0.04 Bohr mag/cell
     absolute magnetization    =     0.07 Bohr mag/cell

     convergence has been achieved in 155 iterations

     Forces acting on atoms (cartesian axes, Ry/au):

     atom    1 type  1   force =     0.00017032   -0.00008987    0.09304480
     atom    2 type  1   force =     0.00001406   -0.00015974   -0.17886332
     atom    3 type  2   force =     0.00002387   -0.00029734   -0.02022264
     atom    4 type  2   force =    -0.00000070   -0.00223833    0.06097744
     atom    5 type  2   force =    -0.01150090   -0.00128193    0.01054722
     atom    6 type  2   force =     0.01241408   -0.00058791    0.00811140
     atom    7 type  1   force =    -0.00122254    0.00343865   -0.01490455
     atom    8 type  1   force =     0.00122975   -0.00357506   -0.00843442
     atom    9 type  2   force =     0.00001173   -0.00005066   -0.00025262
     atom   10 type  2   force =    -0.00281425   -0.00048064    0.00154058
     atom   11 type  2   force =     0.00012872   -0.00023511   -0.00027830
     atom   12 type  2   force =    -0.00000728    0.00008827   -0.00009047
     atom   13 type  1   force =    -0.00019751   -0.00031718   -0.00063846
     atom   14 type  1   force =    -0.00005041   -0.00005367    0.00024068
     atom   15 type  2   force =    -0.00011121   -0.00022642   -0.00011189
     atom   16 type  2   force =     0.00032779    0.00035341   -0.00009252
     atom   17 type  2   force =     0.00077736    0.00028294   -0.00026299
     atom   18 type  2   force =     0.00009992   -0.00027602   -0.00005428
     atom   19 type  1   force =     0.00026138    0.00042278   -0.00045444
     atom   20 type  1   force =     0.00011269    0.00004877    0.00051044
     atom   21 type  2   force =     0.00012784   -0.00003062    0.10424650
     atom   22 type  2   force =    -0.00050722    0.00012839    0.00017020
     atom   23 type  2   force =    -0.06991113   -0.00010639   -0.02678979
     atom   24 type  2   force =     0.06988437    0.00035436   -0.02678860
     atom   25 type  1   force =     0.00018274   -0.00019559    0.09234570
     atom   26 type  1   force =    -0.00006688   -0.00035889   -0.17903984
     atom   27 type  2   force =     0.00004300   -0.00025695   -0.01896753
     atom   28 type  2   force =     0.00006498   -0.00192820    0.06023574
     atom   29 type  2   force =    -0.01169115   -0.00162109    0.01034309
     atom   30 type  2   force =     0.01247665   -0.00120504    0.00787307
     atom   31 type  1   force =    -0.00101488    0.00609395   -0.01576600
     atom   32 type  1   force =     0.00118496    0.00333387   -0.00865066
     atom   33 type  2   force =     0.00002776    0.00020056   -0.00024348
     atom   34 type  2   force =    -0.00240695   -0.00053828    0.00060178
     atom   35 type  2   force =     0.00000996    0.00000380    0.00006469
     atom   36 type  2   force =     0.00002763   -0.00006954    0.00037757
     atom   37 type  1   force =     0.00034958   -0.00004450   -0.00007894
     atom   38 type  1   force =    -0.00035900   -0.00031795    0.00048149
     atom   39 type  2   force =     0.00036328   -0.00014386    0.00063528
     atom   40 type  2   force =     0.00025196   -0.00017465    0.00005407
     atom   41 type  2   force =     0.00005438    0.00035926   -0.00040685
     atom   42 type  2   force =     0.00050427    0.00021941   -0.00017507
     atom   43 type  1   force =     0.00024576   -0.00019681   -0.00038625
     atom   44 type  1   force =     0.00014803   -0.00124893    0.00057728
     atom   45 type  2   force =     0.00012072   -0.00004843    0.10419547
     atom   46 type  2   force =    -0.06992672   -0.00005544   -0.02677992
     atom   47 type  2   force =     0.06991626    0.00034593   -0.02679877
     atom   48 type  3   force =     0.00057715    0.00061137   -0.00046559
     atom   49 type  4   force =    -0.00040334    0.00335572    0.00094000
     atom   50 type  5   force =     0.00152054   -0.00245813   -0.00186823
     atom   51 type  5   force =    -0.00085771   -0.00023312    0.00049425
     atom   52 type  5   force =     0.00036071   -0.00053632   -0.00052038
     atom   53 type  5   force =     0.00011202    0.00076436   -0.00099805
     atom   54 type  5   force =    -0.00029350    0.00020337   -0.00046139
     atom   55 type  5   force =    -0.00078294    0.00102944    0.00123752

     Total force =     0.367673     Total SCF correction =     0.000423
  @ DRIVER MODE: Message from server: STATUS
  @ DRIVER MODE: Message from server: GETFORCE
  @ DRIVER MODE: Returning v,forces,stress,ensemble

     Writing output data file ./calc.save/
  @ DRIVER MODE: Message from server: EXIT
  @ DRIVE MODE: Exiting

     General routines

     Parallel routines

   This run was terminated on:  17:55:56  27Jul2021

   JOB DONE.