     Program PWSCF v.6.7GPU starts on 16Sep2021 at  2:27:30

     R & G space division:  proc/nbgrp/npool/nimage =      10
     Reading input from /storage/home/hcoda1/3/ntian30/research/carbon/CxH_vib/H2O_calc/ads_slab/CH2NHHH2O_a/out_0032/pw.inp
Warning: card &CELL ignored
Warning: card   CELL_DYNAMICS='IPI', ignored
Warning: card / ignored

     Current dimensions of program PWSCF are:
     Max number of different atomic species (ntypx) = 10
     Max number of k-points (npk) =  40000
     Max angular momentum in pseudopotentials (lmaxx) =  3
     Presently no symmetry can be used with electric field

     Message from routine cell_base_init:
     DEPRECATED: use true lattice parameter, not A to a.u. conversion factor

     IMPORTANT: XC functional enforced from input :
     Exchange-correlation= BEEF-VDW
                           (   1   4  43  14   2   0   0)
     Any further DFT definition will be discarded
     Please, verify this is what you really want

  @ DRIVER MODE: Connecting to
 qe_1139763_2852609.sched-torque.pace.gatech.edu8ckq9b12_scratch
  using UNIX socket
  @ DRIVER MODE: Message from server: STATUS
  @ DRIVER MODE: Message from server: INIT
  @ DRIVER MODE: Receiving replica           0          -1
  @ DRIVER MODE: Receiving encoded integer          25
  @ DRIVER MODE:  SCF:  T  FORCE:  T  STRESS:  F  VC:  F  ENSEMBLE:  F
  @ DRIVER MODE:  SCF:  T  FORCE:  T  STRESS:  F  VC:  F  ENSEMBLE:  F

     Using Slab Decomposition

     bravais-lattice index     =            0
     lattice parameter (alat)  =       1.8897  a.u.
     unit-cell volume          =    6658.9804 (a.u.)^3
     number of atoms/cell      =           56
     number of atomic types    =            5
     number of electrons       =       399.00
     number of Kohn-Sham states=          209
     kinetic-energy cutoff     =      29.3995  Ry
     charge density cutoff     =     293.9946  Ry
     scf convergence threshold =      7.3E-08
     mixing beta               =       0.0500
     number of iterations used =            8  plain     mixing
     Exchange-correlation= BEEF-VDW
                           (   1   4  43  14   2   0   0)

     celldm(1)=   1.889726  celldm(2)=   0.000000  celldm(3)=   0.000000
     celldm(4)=   0.000000  celldm(5)=   0.000000  celldm(6)=   0.000000

     crystal axes: (cart. coord. in units of alat)
               a(1) = (   6.579727   0.000000   0.000000 )
               a(2) = (  -0.000775   5.961596   0.000000 )
               a(3) = (   0.000000   0.000000  25.155947 )

     reciprocal axes: (cart. coord. in units 2 pi/alat)
               b(1) = (  0.151982  0.000020  0.000000 )
               b(2) = (  0.000000  0.167740  0.000000 )
               b(3) = (  0.000000  0.000000  0.039752 )

     PseudoPot. # 1 for Ti read from file:
     /storage/coda1/p-amedford6/0/shared/rich_project_chbe-medford/medford-share/data/pseudos_module/espresso/nninc/pbe/van/Ti.UPF
     MD5 check sum: 8e4df49b7f0d34bbd5052bf3f5ea0213
     Pseudo is Ultrasoft, Zval = 12.0
     Generated by new atomic code, or converted to UPF format
     Using radial grid of  851 points,  6 beta functions with:
                l(1) =   0
                l(2) =   0
                l(3) =   1
                l(4) =   1
                l(5) =   2
                l(6) =   2
     Q(r) pseudized with  8 coefficients,  rinner =    1.000   1.000   1.000
                                                       1.000   1.000

     PseudoPot. # 2 for O  read from file:
     /storage/coda1/p-amedford6/0/shared/rich_project_chbe-medford/medford-share/data/pseudos_module/espresso/nninc/pbe/van/O.UPF
     MD5 check sum: 78c19812648e8988a0fe644b0f25305e
     Pseudo is Ultrasoft, Zval =  6.0
     Generated by new atomic code, or converted to UPF format
     Using radial grid of  737 points,  4 beta functions with:
                l(1) =   0
                l(2) =   0
                l(3) =   1
                l(4) =   1
     Q(r) pseudized with  8 coefficients,  rinner =    0.800   0.800   0.800

     PseudoPot. # 3 for N  read from file:
     /storage/coda1/p-amedford6/0/shared/rich_project_chbe-medford/medford-share/data/pseudos_module/espresso/nninc/pbe/van/N.UPF
     MD5 check sum: 90d10febe142ad51ac9d5be1deb811c4
     Pseudo is Ultrasoft, Zval =  5.0
     Generated by new atomic code, or converted to UPF format
     Using radial grid of  729 points,  4 beta functions with:
                l(1) =   0
                l(2) =   0
                l(3) =   1
                l(4) =   1
     Q(r) pseudized with  8 coefficients,  rinner =    0.800   0.800   0.800

     PseudoPot. # 4 for C  read from file:
     /storage/coda1/p-amedford6/0/shared/rich_project_chbe-medford/medford-share/data/pseudos_module/espresso/nninc/pbe/van/C.UPF
     MD5 check sum: 1a69bf6b8db32088f5b2163dbdb77a27
     Pseudo is Ultrasoft, Zval =  4.0
     Generated by new atomic code, or converted to UPF format
     Using radial grid of  721 points,  4 beta functions with:
                l(1) =   0
                l(2) =   0
                l(3) =   1
                l(4) =   1
     Q(r) pseudized with  8 coefficients,  rinner =    0.800   0.800   0.800

     PseudoPot. # 5 for H  read from file:
     /storage/coda1/p-amedford6/0/shared/rich_project_chbe-medford/medford-share/data/pseudos_module/espresso/nninc/pbe/van/H.UPF
     MD5 check sum: b5ee9d7bfd3a09ee7748110bda690ff7
     Pseudo is Ultrasoft, Zval =  1.0
     Generated by new atomic code, or converted to UPF format
     Using radial grid of  615 points,  1 beta functions with:
                l(1) =   0
     Q(r) pseudized with  8 coefficients,  rinner =    0.800

     atomic species   valence    mass     pseudopotential
        Ti1           12.00    47.86700     Ti( 1.00)
        O1             6.00    15.99900     O ( 1.00)
        N1             5.00    14.00700     N ( 1.00)
        C1             4.00    12.01100     C ( 1.00)
        H1             1.00     1.00800     H ( 1.00)

     No symmetry found

   Cartesian axes

     site n.     atom                  positions (alat units)
         1           Ti1 tau(   1) = (   0.0004258   2.9801865   6.0000000  )
         2           Ti1 tau(   2) = (   3.2906075   1.4906267   6.0002472  )
         3           O1  tau(   3) = (   0.0006271   0.0005054   7.9858123  )
         4           O1  tau(   4) = (   3.2906025   0.0005020   7.3038282  )
         5           O1  tau(   5) = (   4.5942328   1.4918067   9.2879030  )
         6           O1  tau(   6) = (   1.9868534   1.4903216   9.2879459  )
         7           Ti1 tau(   7) = (   3.2907910   2.8959150   9.1758416  )
         8           Ti1 tau(   8) = (   0.0015273   1.4827037   9.2680791  )
         9           O1  tau(   9) = (   3.2861202   0.0128588  11.3777969  )
        10           O1  tau(  10) = (   0.0116148   5.9584955  10.6183126  )
        11           O1  tau(  11) = (   1.2831632   1.4993340  12.6921085  )
        12           O1  tau(  12) = (   5.2921761   1.5015178  12.6679780  )
        13           Ti1 tau(  13) = (   0.0111066   2.9912061  12.5123142  )
        14           Ti1 tau(  14) = (   3.3187119   1.4875497  12.5412637  )
        15           O1  tau(  15) = (   6.5416963   5.9006142  14.6662030  )
        16           O1  tau(  16) = (   3.3066524   0.0016155  14.0179881  )
        17           O1  tau(  17) = (   4.5377470   1.5714702  16.1207712  )
        18           O1  tau(  18) = (   1.9925948   1.5577299  16.0387284  )
        19           Ti1 tau(  19) = (   3.2598466   3.0207798  15.7337896  )
        20           Ti1 tau(  20) = (   0.0086319   1.3133152  15.8444473  )
        21           O1  tau(  21) = (   3.2904802   0.0005063   4.7018136  )
        22           O1  tau(  22) = (   6.5660721   0.1678205  17.2271563  )
        23           O1  tau(  23) = (   1.3043587   1.4918075   6.0039043  )
        24           O1  tau(  24) = (   5.2767064   1.4903225   6.0039473  )
        25           Ti1 tau(  25) = (   0.0000382   5.9609847   6.0000000  )
        26           Ti1 tau(  26) = (   3.2902200   4.4714249   6.0002472  )
        27           O1  tau(  27) = (   0.0002396   2.9813036   7.9858123  )
        28           O1  tau(  28) = (   3.2902150   2.9813002   7.3038282  )
        29           O1  tau(  29) = (   4.5938453   4.4726049   9.2879030  )
        30           O1  tau(  30) = (   1.9864658   4.4711199   9.2879459  )
        31           Ti1 tau(  31) = (   3.2891106   5.8743827   9.1763621  )
        32           Ti1 tau(  32) = (   0.0006254   4.4649316   9.2693709  )
        33           O1  tau(  33) = (   3.2870289   2.9785969  11.3746142  )
        34           O1  tau(  34) = (   0.0092240   2.9805883  10.6323155  )
        35           O1  tau(  35) = (   1.2865429   4.4729593  12.6568099  )
        36           O1  tau(  36) = (   5.2907978   4.4713399  12.6331247  )
        37           Ti1 tau(  37) = (   0.0245089   0.0029545  12.5000319  )
        38           Ti1 tau(  38) = (   3.3192338   4.4773935  12.5310228  )
        39           O1  tau(  39) = (   6.5398775   3.0461246  14.9162120  )
        40           O1  tau(  40) = (   3.2968145   3.0151409  13.9465962  )
        41           O1  tau(  41) = (   4.5189833   4.4812017  16.2068643  )
        42           O1  tau(  42) = (   1.9905864   4.4756957  16.1679402  )
        43           Ti1 tau(  43) = (   3.3140030   0.0507474  15.8534526  )
        44           Ti1 tau(  44) = (   0.0184218   4.5194176  15.9927436  )
        45           O1  tau(  45) = (   3.2900926   2.9813045   4.7018136  )
        46           O1  tau(  46) = (   1.3039711   4.4726057   6.0039043  )
        47           O1  tau(  47) = (   5.2763189   4.4711207   6.0039473  )
        48           N1  tau(  48) = (   6.2908993   3.4294391  18.1752670  )
        49           C1  tau(  49) = (   0.7550536   3.1452864  19.0745941  )
        50           H1  tau(  50) = (   1.1396299   3.9643166  19.6610198  )
        51           H1  tau(  51) = (   1.3301158   2.2513941  18.9084762  )
        52           H1  tau(  52) = (   5.7550451   4.2450011  18.4501662  )
        53           H1  tau(  53) = (   5.6563078   2.6497838  18.0429669  )
        54           O1  tau(  54) = (   3.1180431   0.1968263  18.2683150  )
        55           H1  tau(  55) = (   3.8687171   5.7182160  18.6922429  )
        56           H1  tau(  56) = (   2.3371514   5.6040609  18.4451484  )

     number of k points=    10  Fermi-Dirac smearing, width (Ry)=  0.0073
                       cart. coord. in units 2pi/alat
        k(    1) = (   0.0000000   0.0000000   0.0000000), wk =   0.1250000
        k(    2) = (   0.0000000   0.0419351   0.0000000), wk =   0.2500000
        k(    3) = (   0.0000000  -0.0838702   0.0000000), wk =   0.1250000
        k(    4) = (   0.0379955   0.0000049   0.0000000), wk =   0.2500000
        k(    5) = (   0.0379955   0.0419400   0.0000000), wk =   0.2500000
        k(    6) = (   0.0379955  -0.0838652   0.0000000), wk =   0.2500000
        k(    7) = (   0.0379955  -0.0419301   0.0000000), wk =   0.2500000
        k(    8) = (  -0.0759910  -0.0000099   0.0000000), wk =   0.1250000
        k(    9) = (  -0.0759910   0.0419252   0.0000000), wk =   0.2500000
        k(   10) = (  -0.0759910  -0.0838800   0.0000000), wk =   0.1250000

     Initial potential from superposition of free atoms

     starting charge  382.99914, renormalised to  399.00000

     negative rho (up, down):  1.613E-02 0.000E+00

     %%%%%%%%%%%%%%%%%%%%%%%%%%%%%%%%%%%%%%%%%%%%%%%%%%%%%%%%%%%%%%%%%%%%%%%%
     %                                                                      %
     % You are using vdW-DF, which was implemented by the Thonhauser group. %
     % Please cite the following two papers that made this development      %
     % possible and the two reviews that describe the various versions:     %
     %                                                                      %
     %   T. Thonhauser et al., PRL 115, 136402 (2015).                      %
     %   T. Thonhauser et al., PRB 76, 125112 (2007).                       %
     %   K. Berland et al., Rep. Prog. Phys. 78, 066501 (2015).             %
     %   D.C. Langreth et al., J. Phys.: Condens. Matter 21, 084203 (2009). %
     %                                                                      %
     %                                                                      %
     % If you are calculating the stress with vdW-DF, please also cite:     %
     %                                                                      %
     %   R. Sabatini et al., J. Phys.: Condens. Matter 24, 424209 (2012).   %
     %                                                                      %
     %%%%%%%%%%%%%%%%%%%%%%%%%%%%%%%%%%%%%%%%%%%%%%%%%%%%%%%%%%%%%%%%%%%%%%%%

     Adding external electric field

     Computed dipole along edir(3) :
        Dipole              -11.3169 Ry au,        -28.7647 Debye
        Dipole field         -0.0214 Ry au,

        Potential amp.        1.9797 Ry
        Total length         46.3494 bohr

     Starting wfcs are  302 atomic wfcs
  @ DRIVER MODE: Message from server: STATUS
  @ DRIVER MODE: Message from server: POSDATA
  @ DRIVER MODE: Reading and sharing cell
  @ DRIVER MODE: Reading and sharing positions
  @ DRIVER MODE: Received positions

     Self-consistent Calculation

     iteration #  1     ecut=    29.40 Ry     beta= 0.05
     Davidson diagonalization with overlap
     c_bands:  3 eigenvalues not converged
     c_bands:  3 eigenvalues not converged
     c_bands:  1 eigenvalues not converged
     c_bands:  4 eigenvalues not converged
     c_bands:  1 eigenvalues not converged
     c_bands:  1 eigenvalues not converged
     c_bands:  1 eigenvalues not converged
     c_bands:  2 eigenvalues not converged
     c_bands:  3 eigenvalues not converged
     ethr =  1.00E-05,  avg # of iterations = 24.0

[...]

     total energy              =   -2437.55480038 Ry
     estimated scf accuracy    <    5825.82436185 Ry

     iteration #  2     ecut=    29.40 Ry     beta= 0.05
     Davidson diagonalization with overlap
     ethr =  1.00E-02,  avg # of iterations = 27.4

[...]

     iteration # 75     ecut=    29.40 Ry     beta= 0.05
     Davidson diagonalization with overlap
     c_bands:  2 eigenvalues not converged
     ethr =  6.86E-11,  avg # of iterations = 11.6

[...]

     total energy              =   -2955.08677162 Ry
     estimated scf accuracy    <       0.00000008 Ry

     iteration # 78     ecut=    29.40 Ry     beta= 0.05
     Davidson diagonalization with overlap
     ethr =  1.99E-11,  avg # of iterations = 10.0

     negative rho (up, down):  1.530E-02 0.000E+00

     Adding external electric field

     Computed dipole along edir(3) :
        Dipole                0.9577 Ry au,          2.4342 Debye
        Dipole field          0.0018 Ry au,

        Potential amp.       -0.1675 Ry
        Total length         46.3494 bohr

     End of self-consistent calculation

          k = 0.0000 0.0000 0.0000 ( 18029 PWs)   bands (ev):

   -55.5431 -55.5095 -55.5065 -55.4888 -55.4754 -55.4270 -55.3906 -55.3711
   -55.3543 -55.3415 -55.3363 -55.3079 -55.2962 -55.1141 -54.5354 -54.5013
   -32.0990 -32.0016 -31.9152 -31.9001 -31.8754 -31.8600 -31.8462 -31.8414
   -31.7985 -31.7634 -31.7577 -31.7544 -31.7445 -31.7202 -31.7148 -31.6941
   -31.6845 -31.6818 -31.6702 -31.6617 -31.6407 -31.6230 -31.6060 -31.5999
   -31.5708 -31.5666 -31.5622 -31.5596 -31.5572 -31.5447 -31.5355 -31.5286
   -31.5244 -31.5192 -31.5086 -31.4964 -31.4849 -31.4695 -31.4679 -31.4524
   -31.3394 -31.2951 -30.9446 -30.8508 -30.8287 -30.7610 -30.6742 -30.5633
   -19.2381 -16.4127 -16.3186 -16.0885 -15.9238 -15.8434 -15.7464 -15.6060
   -15.5345 -15.4239 -15.3878 -15.2289 -15.2046 -15.1979 -15.1630 -15.1455
   -15.1064 -15.0881 -15.0592 -15.0477 -15.0460 -15.0243 -14.9877 -14.9838
   -14.9412 -14.9281 -14.8692 -14.7731 -14.7050 -14.6409 -14.3296 -13.0377
   -12.9204  -9.2192  -7.0109  -6.5966  -4.6030  -3.7164  -3.5847  -3.5614
    -3.5031  -3.4477  -3.4070  -3.2995  -3.0697  -3.0251  -2.9784  -2.9332
    -2.8111  -2.7397  -2.7357  -2.6563  -2.5809  -2.5391  -2.4849  -2.4754
    -2.3974  -2.3636  -2.3458  -2.3223  -2.2793  -2.2512  -2.2098  -2.1187
    -2.0980  -2.0234  -1.9900  -1.9456  -1.9419  -1.8942  -1.8762  -1.8373
    -1.8362  -1.8265  -1.8057  -1.7683  -1.7257  -1.6704  -1.5791  -1.5529
    -1.3859  -1.2741  -1.2093  -1.1820  -1.1297  -1.0980  -1.0325  -0.9842
    -0.9707  -0.9337  -0.8670  -0.7645  -0.6985  -0.6864  -0.6261  -0.5347
    -0.4769  -0.4388  -0.3567  -0.3309  -0.3122  -0.3068  -0.2436  -0.1750
    -0.1287  -0.0545  -0.0383   0.0173   0.0399   0.0895   0.1209   0.1877
     0.2433   0.2834   0.3354   0.3896   0.3913   0.4062   0.4413   0.4429
     0.5428   0.5549   0.5771   0.6779   0.7769   0.9643   1.0631   1.0980
     1.3956   1.4110   1.4876   1.6720   2.0632   2.1112   3.5185   3.5482
     3.6320   3.6874   3.6964   3.7262   3.7828   4.0360   4.0476   4.0696
     4.0827

[...]

          k = 0.0380-0.0419 0.0000 ( 17876 PWs)   bands (ev):

[...]

          k =-0.0760-0.0000 0.0000 ( 17886 PWs)   bands (ev):

[...]

          k =-0.0760-0.0839 0.0000 ( 17948 PWs)   bands (ev):

   -55.5286 -55.5207 -55.4924 -55.4924 -55.4866 -55.4147 -55.4029 -55.3564
   -55.3563 -55.3504 -55.3251 -55.3246 -55.2944 -55.1159 -54.5183 -54.5183
   -31.9107 -31.8984 -31.8167 -31.8166 -31.8001 -31.7990 -31.7880 -31.7839
   -31.7838 -31.7676 -31.7564 -31.7491 -31.7317 -31.7141 -31.6949 -31.6889
   -31.6859 -31.6837 -31.6792 -31.6724 -31.6697 -31.6599 -31.6321 -31.6311
   -31.6120 -31.6119 -31.6092 -31.5996 -31.5885 -31.5802 -31.5698 -31.5641
   -31.5548 -31.5546 -31.5519 -31.5425 -31.5130 -31.5047 -31.5041 -31.4819
   -31.3788 -31.3424 -30.8413 -30.8413 -30.7571 -30.7571 -30.7176 -30.7176
   -19.2372 -16.3519 -15.8844 -15.7848 -15.6549 -15.5720 -15.5493 -15.4759
   -15.4176 -15.3842 -15.3275 -15.3049 -15.2908 -15.2756 -15.2407 -15.2152
   -15.1952 -15.1519 -15.1346 -15.1165 -15.0851 -15.0599 -15.0490 -15.0437
   -15.0381 -15.0034 -14.9990 -14.9140 -14.9043 -14.9008 -14.5716 -13.0219
   -13.0218  -9.2183  -7.0447  -6.5344  -4.5860  -3.5486  -3.0987  -3.0484
    -2.9956  -2.8543  -2.7946  -2.7287  -2.6934  -2.6501  -2.5999  -2.5664
    -2.5482  -2.4970  -2.4899  -2.4243  -2.4089  -2.3935  -2.3746  -2.3719
    -2.3629  -2.3256  -2.2907  -2.2770  -2.2700  -2.2608  -2.2472  -2.2002
    -2.1848  -2.1535  -2.1439  -2.1103  -2.0812  -2.0513  -1.9390  -1.9064
    -1.8814  -1.8192  -1.7528  -1.7471  -1.6657  -1.6439  -1.5876  -1.5838
    -1.5643  -1.5259  -1.3994  -1.2921  -1.2808  -1.2297  -1.1970  -1.1732
    -1.1105  -1.0600  -1.0052  -1.0025  -0.9121  -0.8650  -0.8390  -0.7369
    -0.7065  -0.6988  -0.5819  -0.5570  -0.5184  -0.5071  -0.5009  -0.4417
    -0.4342  -0.4098  -0.3277  -0.3089  -0.2819  -0.2703  -0.2079  -0.0474
    -0.0167   0.0275   0.1554   0.1941   0.3582   0.3892   0.4212   0.5275
     0.5725   0.6200   0.6245   0.7474   0.7573   0.8444   0.8556   0.8736
     0.9096   0.9213   1.8445   1.8458   1.9311   1.9314   3.5335   3.7773
     3.8428   3.8500   3.8872   4.0235   4.0673   4.1259   4.1293   4.1391
     4.1572

     the Fermi energy is     3.6044 ev

!    total energy              =   -2955.08678450 Ry
     estimated scf accuracy    <       0.00000003 Ry
     smearing contrib. (-TS)   =      -0.04072246 Ry
     internal energy E=F+TS    =   -2955.04606204 Ry

     The total energy is F=E-TS. E is the sum of the following terms:
     one-electron contribution =  -23873.38099991 Ry
     hartree contribution      =   12028.86612196 Ry
     xc contribution           =    -489.73814245 Ry
     ewald contribution        =    9379.20522748 Ry
     electric field correction =       0.00173088 Ry

     convergence has been achieved in  78 iterations

     Forces acting on atoms (cartesian axes, Ry/au):

     atom    1 type  1   force =    -0.00000323   -0.00025834    0.09337254
     atom    2 type  1   force =    -0.00015687   -0.00040202   -0.17806479
     atom    3 type  2   force =     0.00001224   -0.00034697   -0.02032631
     atom    4 type  2   force =    -0.00003566   -0.00190059    0.05857575
     atom    5 type  2   force =    -0.01018075   -0.00085016    0.00744423
     atom    6 type  2   force =     0.01151888   -0.00017724    0.00624472
     atom    7 type  1   force =    -0.00076596    0.00202564   -0.01057542
     atom    8 type  1   force =     0.00031889    0.00073597   -0.00335040
     atom    9 type  2   force =     0.00024404    0.00042466    0.00014526
     atom   10 type  2   force =    -0.00108436    0.00267720   -0.00407560
     atom   11 type  2   force =    -0.00027401    0.00005081    0.00001530
     atom   12 type  2   force =    -0.00004108   -0.00003203    0.00011620
     atom   13 type  1   force =     0.00074876    0.00071903    0.00040121
     atom   14 type  1   force =    -0.00093249   -0.00011601   -0.00006887
     atom   15 type  2   force =    -0.00013023   -0.00024277    0.00059593
     atom   16 type  2   force =     0.00031404    0.00055042    0.00001899
     atom   17 type  2   force =     0.00015833   -0.00029612    0.00025686
     atom   18 type  2   force =     0.00057807    0.00021810    0.00008060
     atom   19 type  1   force =    -0.00073184   -0.00065043    0.00011924
     atom   20 type  1   force =     0.00020964   -0.00063706   -0.00065686
     atom   21 type  2   force =     0.00002240   -0.00011163    0.10392812
     atom   22 type  2   force =    -0.00003887   -0.00127259    0.00070337
     atom   23 type  2   force =    -0.07054865   -0.00021283   -0.02693721
     atom   24 type  2   force =     0.07036750    0.00022589   -0.02698196
     atom   25 type  1   force =     0.00003516   -0.00021894    0.09299254
     atom   26 type  1   force =    -0.00023499   -0.00043358   -0.17803110
     atom   27 type  2   force =     0.00006948   -0.00024817   -0.01930909
     atom   28 type  2   force =     0.00002412   -0.00163132    0.05767504
     atom   29 type  2   force =    -0.01076532   -0.00046569    0.00807362
     atom   30 type  2   force =     0.01198455   -0.00007562    0.00683524
     atom   31 type  1   force =    -0.00063409    0.00609746   -0.01380926
     atom   32 type  1   force =     0.00028227   -0.00084957   -0.00340863
     atom   33 type  2   force =     0.00014254    0.00006664    0.00000686
     atom   34 type  2   force =    -0.00051172   -0.00107323   -0.00267782
     atom   35 type  2   force =    -0.00041219    0.00006272    0.00004007
     atom   36 type  2   force =     0.00004571    0.00001655    0.00026049
     atom   37 type  1   force =     0.00082895   -0.00081936    0.00024586
     atom   38 type  1   force =    -0.00088875    0.00034277   -0.00052658
     atom   39 type  2   force =    -0.00022885   -0.00015300   -0.00007948
     atom   40 type  2   force =     0.00033092    0.00014367    0.00041747
     atom   41 type  2   force =     0.00006220   -0.00027701   -0.00005437
     atom   42 type  2   force =     0.00051237   -0.00013493   -0.00044649
     atom   43 type  1   force =    -0.00101508    0.00005983    0.00039826
     atom   44 type  1   force =     0.00129865   -0.00042964   -0.00046988
     atom   45 type  2   force =     0.00000838   -0.00012563    0.10392202
     atom   46 type  2   force =    -0.07054402   -0.00017096   -0.02691506
     atom   47 type  2   force =     0.07037101    0.00026795   -0.02698614
     atom   48 type  3   force =     0.00769585    0.00629340    0.00179122
     atom   49 type  4   force =     0.00135322    0.00198770    0.00035030
     atom   50 type  5   force =    -0.00039233   -0.00095962   -0.00061612
     atom   51 type  5   force =     0.00016608    0.00005433    0.00027062
     atom   52 type  5   force =    -0.00023549   -0.00085808   -0.00045548
     atom   53 type  5   force =    -0.00757154   -0.00668696   -0.00079576
     atom   54 type  2   force =    -0.00002146    0.00019666    0.00028741
     atom   55 type  5   force =    -0.00066825   -0.00019123   -0.00010820
     atom   56 type  5   force =    -0.00065617    0.00009193    0.00014150

     Total force =     0.366085     Total SCF correction =     0.000505
  @ DRIVER MODE: Message from server: STATUS
  @ DRIVER MODE: Message from server: GETFORCE
  @ DRIVER MODE: Returning v,forces,stress,ensemble

     Writing output data file ./calc.save/
  @ DRIVER MODE: Message from server: EXIT
  @ DRIVE MODE: Exiting

     General routines

     Parallel routines

   This run was terminated on:   2:47:27  16Sep2021

   JOB DONE.