     Program PWSCF v.6.7GPU starts on 16Jul2021 at  2:23:43

     R & G space division:  proc/nbgrp/npool/nimage =      16
     Reading input from /storage/home/hcoda1/3/ntian30/research/carbon/15Jul_vib/ads_slab/CH3NNHHH_a/out_0012/pw.inp
Warning: card &CELL ignored
Warning: card   CELL_DYNAMICS='IPI', ignored
Warning: card / ignored

     Current dimensions of program PWSCF are:
     Max number of different atomic species (ntypx) = 10
     Max number of k-points (npk) =  40000
     Max angular momentum in pseudopotentials (lmaxx) =  3
     Presently no symmetry can be used with electric field

     Message from routine cell_base_init:
     DEPRECATED: use true lattice parameter, not A to a.u. conversion factor

     IMPORTANT: XC functional enforced from input :
     Exchange-correlation= BEEF-VDW
                           (   1   4  43  14   2   0   0)
     Any further DFT definition will be discarded
     Please, verify this is what you really want

  @ DRIVER MODE: Connecting to
 qe_1139763_2351652.sched-torque.pace.gatech.eduln4hcdg1_scratch
  using UNIX socket
  @ DRIVER MODE: Message from server: STATUS
  @ DRIVER MODE: Message from server: INIT
  @ DRIVER MODE: Receiving replica           0          -1
  @ DRIVER MODE: Receiving encoded integer          25
  @ DRIVER MODE:  SCF:  T  FORCE:  T  STRESS:  F  VC:  F  ENSEMBLE:  F
  @ DRIVER MODE:  SCF:  T  FORCE:  T  STRESS:  F  VC:  F  ENSEMBLE:  F

     Using Slab Decomposition

     bravais-lattice index     =            0
     lattice parameter (alat)  =       1.8897  a.u.
     unit-cell volume          =    6658.9804 (a.u.)^3
     number of atoms/cell      =           56
     number of atomic types    =            5
     number of electrons       =       398.00
     number of Kohn-Sham states=          209
     kinetic-energy cutoff     =      29.3995  Ry
     charge density cutoff     =     293.9946  Ry
     scf convergence threshold =      7.3E-08
     mixing beta               =       0.0500
     number of iterations used =            8  plain     mixing
     Exchange-correlation= BEEF-VDW
                           (   1   4  43  14   2   0   0)

     celldm(1)=   1.889726  celldm(2)=   0.000000  celldm(3)=   0.000000
     celldm(4)=   0.000000  celldm(5)=   0.000000  celldm(6)=   0.000000

     crystal axes: (cart. coord. in units of alat)
               a(1) = (   6.579727   0.000000   0.000000 )
               a(2) = (  -0.000775   5.961596   0.000000 )
               a(3) = (   0.000000   0.000000  25.155947 )

     reciprocal axes: (cart. coord. in units 2 pi/alat)
               b(1) = (  0.151982  0.000020  0.000000 )
               b(2) = (  0.000000  0.167740  0.000000 )
               b(3) = (  0.000000  0.000000  0.039752 )

     PseudoPot. # 1 for Ti read from file:
     /storage/coda1/p-amedford6/0/shared/rich_project_chbe-medford/medford-share/data/pseudos_module/espresso/nninc/pbe/van/Ti.UPF
     MD5 check sum: 8e4df49b7f0d34bbd5052bf3f5ea0213
     Pseudo is Ultrasoft, Zval = 12.0
     Generated by new atomic code, or converted to UPF format
     Using radial grid of  851 points,  6 beta functions with:
                l(1) =   0
                l(2) =   0
                l(3) =   1
                l(4) =   1
                l(5) =   2
                l(6) =   2
     Q(r) pseudized with  8 coefficients,  rinner =    1.000   1.000   1.000
                                                       1.000   1.000

     PseudoPot. # 2 for O  read from file:
     /storage/coda1/p-amedford6/0/shared/rich_project_chbe-medford/medford-share/data/pseudos_module/espresso/nninc/pbe/van/O.UPF
     MD5 check sum: 78c19812648e8988a0fe644b0f25305e
     Pseudo is Ultrasoft, Zval =  6.0
     Generated by new atomic code, or converted to UPF format
     Using radial grid of  737 points,  4 beta functions with:
                l(1) =   0
                l(2) =   0
                l(3) =   1
                l(4) =   1
     Q(r) pseudized with  8 coefficients,  rinner =    0.800   0.800   0.800

     PseudoPot. # 3 for N  read from file:
     /storage/coda1/p-amedford6/0/shared/rich_project_chbe-medford/medford-share/data/pseudos_module/espresso/nninc/pbe/van/N.UPF
     MD5 check sum: 90d10febe142ad51ac9d5be1deb811c4
     Pseudo is Ultrasoft, Zval =  5.0
     Generated by new atomic code, or converted to UPF format
     Using radial grid of  729 points,  4 beta functions with:
                l(1) =   0
                l(2) =   0
                l(3) =   1
                l(4) =   1
     Q(r) pseudized with  8 coefficients,  rinner =    0.800   0.800   0.800

     PseudoPot. # 4 for C  read from file:
     /storage/coda1/p-amedford6/0/shared/rich_project_chbe-medford/medford-share/data/pseudos_module/espresso/nninc/pbe/van/C.UPF
     MD5 check sum: 1a69bf6b8db32088f5b2163dbdb77a27
     Pseudo is Ultrasoft, Zval =  4.0
     Generated by new atomic code, or converted to UPF format
     Using radial grid of  721 points,  4 beta functions with:
                l(1) =   0
                l(2) =   0
                l(3) =   1
                l(4) =   1
     Q(r) pseudized with  8 coefficients,  rinner =    0.800   0.800   0.800

     PseudoPot. # 5 for H  read from file:
     /storage/coda1/p-amedford6/0/shared/rich_project_chbe-medford/medford-share/data/pseudos_module/espresso/nninc/pbe/van/H.UPF
     MD5 check sum: b5ee9d7bfd3a09ee7748110bda690ff7
     Pseudo is Ultrasoft, Zval =  1.0
     Generated by new atomic code, or converted to UPF format
     Using radial grid of  615 points,  1 beta functions with:
                l(1) =   0
     Q(r) pseudized with  8 coefficients,  rinner =    0.800

     atomic species   valence    mass     pseudopotential
        Ti1           12.00    47.86700     Ti( 1.00)
        O1             6.00    15.99900     O ( 1.00)
        N1             5.00    14.00700     N ( 1.00)
        C1             4.00    12.01100     C ( 1.00)
        H1             1.00     1.00800     H ( 1.00)

     Starting magnetic structure
     atomic species   magnetization
        Ti1          0.000
        O1           0.000
        N1           0.000
        C1           0.025
        H1           0.000

     No symmetry found

   Cartesian axes

     site n.     atom                  positions (alat units)
         1           Ti1 tau(   1) = (   0.0004258   2.9801865   6.0000000  )
         2           Ti1 tau(   2) = (   3.2906075   1.4906267   6.0002472  )
         3           O1  tau(   3) = (   0.0006271   0.0005054   7.9858123  )
         4           O1  tau(   4) = (   3.2906025   0.0005020   7.3038282  )
         5           O1  tau(   5) = (   4.5942328   1.4918067   9.2879030  )
         6           O1  tau(   6) = (   1.9868534   1.4903216   9.2879459  )
         7           Ti1 tau(   7) = (   3.2907910   2.8959150   9.1758416  )
         8           Ti1 tau(   8) = (   0.0015273   1.4827037   9.2680791  )
         9           O1  tau(   9) = (   3.2969863   5.9453513  11.3493076  )
        10           O1  tau(  10) = (   0.0116148   5.9584955  10.6183126  )
        11           O1  tau(  11) = (   1.3059050   1.4736943  12.6642453  )
        12           O1  tau(  12) = (   5.3003793   1.4775083  12.6459419  )
        13           Ti1 tau(  13) = (   0.0167275   2.9625105  12.5508078  )
        14           Ti1 tau(  14) = (   3.3131340   1.4712512  12.4909780  )
        15           O1  tau(  15) = (   6.5517612   5.9325698  14.7566896  )
        16           O1  tau(  16) = (   3.3302114   5.9429442  13.9823395  )
        17           O1  tau(  17) = (   4.5243935   1.5056208  16.2316672  )
        18           O1  tau(  18) = (   2.0170937   1.4633510  16.1378485  )
        19           Ti1 tau(  19) = (   3.2500237   2.9242626  15.6920970  )
        20           Ti1 tau(  20) = (   6.5441017   1.2779805  16.1516014  )
        21           O1  tau(  21) = (   3.2904802   0.0005063   4.7018136  )
        22           O1  tau(  22) = (   6.5540411   5.9581837  17.3465722  )
        23           O1  tau(  23) = (   1.3043587   1.4918075   6.0039043  )
        24           O1  tau(  24) = (   5.2767064   1.4903225   6.0039473  )
        25           Ti1 tau(  25) = (   0.0000382   5.9609847   6.0000000  )
        26           Ti1 tau(  26) = (   3.2902200   4.4714249   6.0002472  )
        27           O1  tau(  27) = (   0.0002396   2.9813036   7.9858123  )
        28           O1  tau(  28) = (   3.2902150   2.9813002   7.3038282  )
        29           O1  tau(  29) = (   4.5938453   4.4726049   9.2879030  )
        30           O1  tau(  30) = (   1.9864658   4.4711199   9.2879459  )
        31           Ti1 tau(  31) = (   3.2891106   5.8743827   9.1763621  )
        32           Ti1 tau(  32) = (   0.0006254   4.4649316   9.2693709  )
        33           O1  tau(  33) = (   3.2962403   2.9651072  11.3429128  )
        34           O1  tau(  34) = (   0.0092240   2.9805883  10.6323155  )
        35           O1  tau(  35) = (   1.3076126   4.4641214  12.6643835  )
        36           O1  tau(  36) = (   5.2981430   4.4591552  12.6429889  )
        37           Ti1 tau(  37) = (   0.0194730   5.9489450  12.5196332  )
        38           Ti1 tau(  38) = (   3.3150505   4.4522436  12.4946186  )
        39           O1  tau(  39) = (   6.5702761   2.9869041  14.8038460  )
        40           O1  tau(  40) = (   3.3119818   2.9576719  13.9204832  )
        41           O1  tau(  41) = (   4.5223198   4.3950437  16.2490866  )
        42           O1  tau(  42) = (   2.0356696   4.4339808  16.1311045  )
        43           Ti1 tau(  43) = (   3.3057863   5.9493229  15.7677403  )
        44           Ti1 tau(  44) = (   0.0958844   4.4293496  15.8701971  )
        45           O1  tau(  45) = (   3.2900926   2.9813045   4.7018136  )
        46           O1  tau(  46) = (   1.3039711   4.4726057   6.0039043  )
        47           O1  tau(  47) = (   5.2763189   4.4711207   6.0039473  )
        48           N1  tau(  48) = (   0.0620580   3.0375546  17.6897758  )
        49           C1  tau(  49) = (   1.1116374   2.9693208  18.7084743  )
        50           H1  tau(  50) = (   1.2951007   3.9532040  19.1583453  )
        51           H1  tau(  51) = (   0.8627774   2.2426413  19.4871689  )
        52           H1  tau(  52) = (   2.0263963   2.6228967  18.2308865  )
        53           N1  tau(  53) = (   5.4279256   3.3744730  18.4033390  )
        54           H1  tau(  54) = (   5.6103604   4.1199394  19.0852601  )
        55           H1  tau(  55) = (   4.7934260   3.8076565  17.6395878  )
        56           H1  tau(  56) = (   5.0090149   2.5598412  18.8678436  )

     number of k points=    10  Fermi-Dirac smearing, width (Ry)=  0.0073
                       cart. coord. in units 2pi/alat
        k(    1) = (   0.0000000   0.0000000   0.0000000), wk =   0.0625000
        k(    2) = (   0.0000000   0.0419351   0.0000000), wk =   0.1250000
        k(    3) = (   0.0000000  -0.0838702   0.0000000), wk =   0.0625000
        k(    4) = (   0.0379955   0.0000049   0.0000000), wk =   0.1250000
        k(    5) = (   0.0379955   0.0419400   0.0000000), wk =   0.1250000
[...]
     % possible and the two reviews that describe the various versions:     %
     %                                                                      %
     %   T. Thonhauser et al., PRL 115, 136402 (2015).                      %
     %   T. Thonhauser et al., PRB 76, 125112 (2007).                       %
     %   K. Berland et al., Rep. Prog. Phys. 78, 066501 (2015).             %
     %   D.C. Langreth et al., J. Phys.: Condens. Matter 21, 084203 (2009). %
     %                                                                      %
     %                                                                      %
     % If you are calculating the stress with vdW-DF, please also cite:     %
     %                                                                      %
     %   R. Sabatini et al., J. Phys.: Condens. Matter 24, 424209 (2012).   %
     %                                                                      %
     %%%%%%%%%%%%%%%%%%%%%%%%%%%%%%%%%%%%%%%%%%%%%%%%%%%%%%%%%%%%%%%%%%%%%%%%

     Adding external electric field

     Computed dipole along edir(3) :
        Dipole              -10.5760 Ry au,        -26.8816 Debye
        Dipole field         -0.0200 Ry au,

        Potential amp.        1.8501 Ry
        Total length         46.3494 bohr

[...]

     Starting wfcs are  302 atomic wfcs
  @ DRIVER MODE: Message from server: STATUS
  @ DRIVER MODE: Message from server: POSDATA
  @ DRIVER MODE: Reading and sharing cell
  @ DRIVER MODE: Reading and sharing positions
  @ DRIVER MODE: Received positions

     Self-consistent Calculation

     iteration #  1     ecut=    29.40 Ry     beta= 0.05
     Davidson diagonalization with overlap
     c_bands:  4 eigenvalues not converged
     c_bands:  2 eigenvalues not converged
     c_bands:  1 eigenvalues not converged
     c_bands:  4 eigenvalues not converged
     c_bands:  5 eigenvalues not converged
     c_bands:  5 eigenvalues not converged
     c_bands:  5 eigenvalues not converged
     c_bands:  3 eigenvalues not converged
     c_bands:  4 eigenvalues not converged
     c_bands:  2 eigenvalues not converged
     c_bands:  1 eigenvalues not converged
     c_bands:  4 eigenvalues not converged
     c_bands:  5 eigenvalues not converged
     c_bands:  4 eigenvalues not converged
     c_bands:  1 eigenvalues not converged
     c_bands:  5 eigenvalues not converged
     c_bands:  3 eigenvalues not converged
     ethr =  1.00E-05,  avg # of iterations = 20.0

[...]

     total energy              =   -2443.28060118 Ry
     estimated scf accuracy    <    5586.17455390 Ry

     total magnetization       =     0.00 Bohr mag/cell
     absolute magnetization    =     0.01 Bohr mag/cell

     iteration #  2     ecut=    29.40 Ry     beta= 0.05
     Davidson diagonalization with overlap
     ethr =  1.00E-02,  avg # of iterations = 24.2

[...]

     iteration #124     ecut=    29.40 Ry     beta= 0.05
     Davidson diagonalization with overlap
     ethr =  4.08E-11,  avg # of iterations = 11.3

[...]

     total energy              =   -2942.82537367 Ry
     estimated scf accuracy    <       0.00000009 Ry

[...]

     iteration #127     ecut=    29.40 Ry     beta= 0.05
     Davidson diagonalization with overlap
     c_bands:  1 eigenvalues not converged
     c_bands:  1 eigenvalues not converged
     c_bands:  1 eigenvalues not converged
     ethr =  2.23E-11,  avg # of iterations = 14.6

     negative rho (up, down):  7.248E-03 7.242E-03

[...]

     Adding external electric field

     Computed dipole along edir(3) :
        Dipole                1.6205 Ry au,          4.1190 Debye
        Dipole field          0.0031 Ry au,

        Potential amp.       -0.2835 Ry
        Total length         46.3494 bohr

     Magnetic moment per site  (integrated on atomic sphere of radius R)
     atom   1 (R=0.723)  charge=  7.9140  magn=  0.0021
     atom   2 (R=0.723)  charge=  7.8964  magn=  0.0000
     atom   3 (R=0.633)  charge=  4.2081  magn= -0.0003
     atom   4 (R=0.633)  charge=  4.2373  magn= -0.0001
     atom   5 (R=0.633)  charge=  4.2137  magn= -0.0001
     atom   6 (R=0.633)  charge=  4.2139  magn= -0.0001
     atom   7 (R=0.723)  charge=  7.8964  magn=  0.0002
     atom   8 (R=0.723)  charge=  7.8945  magn=  0.0019
     atom   9 (R=0.633)  charge=  4.2238  magn= -0.0004
     atom  10 (R=0.633)  charge=  4.2125  magn= -0.0002
     atom  11 (R=0.633)  charge=  4.2093  magn= -0.0003
     atom  12 (R=0.633)  charge=  4.2111  magn= -0.0003
     atom  13 (R=0.723)  charge=  7.8926  magn=  0.0017
     atom  14 (R=0.723)  charge=  7.9040  magn=  0.0024
     atom  15 (R=0.633)  charge=  4.2098  magn= -0.0001
     atom  16 (R=0.633)  charge=  4.2161  magn= -0.0002
     atom  17 (R=0.633)  charge=  4.2035  magn= -0.0001
     atom  18 (R=0.633)  charge=  4.2034  magn= -0.0001
     atom  19 (R=0.723)  charge=  7.9504  magn=  0.0006
     atom  20 (R=0.723)  charge=  7.9297  magn=  0.0001
     atom  21 (R=0.633)  charge=  4.1284  magn=  0.0000
     atom  22 (R=0.633)  charge=  4.1764  magn= -0.0000
     atom  23 (R=0.633)  charge=  4.2073  magn= -0.0002
     atom  24 (R=0.633)  charge=  4.2074  magn= -0.0002
     atom  25 (R=0.723)  charge=  7.9141  magn=  0.0021
     atom  26 (R=0.723)  charge=  7.8964  magn=  0.0000
     atom  27 (R=0.633)  charge=  4.2077  magn= -0.0003
     atom  28 (R=0.633)  charge=  4.2375  magn= -0.0000
     atom  29 (R=0.633)  charge=  4.2143  magn= -0.0001
     atom  30 (R=0.633)  charge=  4.2144  magn= -0.0001
     atom  31 (R=0.723)  charge=  7.8969  magn=  0.0002
     atom  32 (R=0.723)  charge=  7.8947  magn=  0.0019
     atom  33 (R=0.633)  charge=  4.2222  magn= -0.0004
     atom  34 (R=0.633)  charge=  4.2053  magn= -0.0002
     atom  35 (R=0.633)  charge=  4.2090  magn= -0.0003
     atom  36 (R=0.633)  charge=  4.2115  magn= -0.0003
     atom  37 (R=0.723)  charge=  7.8964  magn=  0.0016
     atom  38 (R=0.723)  charge=  7.9034  magn=  0.0023
     atom  39 (R=0.633)  charge=  4.1926  magn= -0.0001
     atom  40 (R=0.633)  charge=  4.2343  magn= -0.0002
     atom  41 (R=0.633)  charge=  4.2025  magn= -0.0000
     atom  42 (R=0.633)  charge=  4.2134  magn= -0.0001
     atom  43 (R=0.723)  charge=  7.9399  magn=  0.0004
     atom  44 (R=0.723)  charge=  7.9262  magn=  0.0002
     atom  45 (R=0.633)  charge=  4.1284  magn=  0.0000
     atom  46 (R=0.633)  charge=  4.2073  magn= -0.0002
     atom  47 (R=0.633)  charge=  4.2074  magn= -0.0002
     atom  48 (R=0.423)  charge=  1.3345  magn= -0.0000
     atom  49 (R=0.449)  charge=  0.8476  magn=  0.0000
     atom  50 (R=0.423)  charge=  0.4507  magn= -0.0000
     atom  51 (R=0.423)  charge=  0.4537  magn= -0.0000
     atom  52 (R=0.423)  charge=  0.4526  magn= -0.0000
     atom  53 (R=0.423)  charge=  1.3749  magn=  0.0000
     atom  54 (R=0.423)  charge=  0.4521  magn= -0.0000
     atom  55 (R=0.423)  charge=  0.3989  magn=  0.0000
     atom  56 (R=0.423)  charge=  0.4521  magn= -0.0000

     End of self-consistent calculation

 ------ SPIN UP ------------

          k = 0.0000 0.0000 0.0000 ( 18029 PWs)   bands (ev):

   -55.1364 -55.0998 -55.0971 -55.0630 -55.0181 -55.0012 -54.9799 -54.9357
   -54.9244 -54.9148 -54.9004 -54.8916 -54.8558 -54.7848 -54.1075 -54.0734
   -31.7150 -31.5855 -31.5041 -31.4720 -31.4277 -31.4256 -31.4231 -31.3939
   -31.3902 -31.3873 -31.3596 -31.3459 -31.3422 -31.3140 -31.2953 -31.2712
   -31.2535 -31.2500 -31.2383 -31.2326 -31.2070 -31.2020 -31.1955 -31.1669
   -31.1542 -31.1472 -31.1385 -31.1325 -31.1317 -31.1211 -31.1190 -31.1117
   -31.0949 -31.0857 -31.0803 -31.0549 -31.0512 -31.0384 -31.0331 -31.0270
   -31.0160 -30.9743 -30.5158 -30.4239 -30.4017 -30.3324 -30.2456 -30.1346
   -18.9239 -15.9976 -15.7431 -15.6077 -15.3728 -15.3209 -15.2643 -15.0578
   -15.0555 -14.9842 -14.9691 -14.9203 -14.9007 -14.8333 -14.7487 -14.7282
   -14.6602 -14.6587 -14.6288 -14.6186 -14.6166 -14.5540 -14.5445 -14.5148
   -14.5018 -14.4766 -14.3582 -14.2740 -14.2155 -13.9657 -13.5594 -12.6100
   -12.4929  -9.7608  -7.7149  -7.2052  -5.4376  -3.8620  -3.3353  -3.2371
    -3.1611  -3.1314  -3.0542  -3.0251  -2.8407  -2.8183  -2.4781  -2.4447
    -2.3918  -2.3737  -2.3541  -2.3349  -2.1676  -2.1413  -2.0686  -2.0355
    -2.0169  -1.9762  -1.9594  -1.9492  -1.9155  -1.9104  -1.9007  -1.6936
    -1.6370  -1.5421  -1.5197  -1.5010  -1.4608  -1.4258  -1.4161  -1.4129
    -1.4070  -1.3935  -1.3812  -1.3007  -1.2438  -1.1617  -1.1523  -1.1171
    -1.0135  -0.9670  -0.7651  -0.7511  -0.7054  -0.6633  -0.6003  -0.5800
    -0.5127  -0.4817  -0.4630  -0.3418  -0.3130  -0.2733  -0.2446  -0.1774
    -0.1475  -0.1015  -0.0183   0.0535   0.0894   0.1079   0.1670   0.2966
     0.3084   0.3376   0.3986   0.4624   0.5025   0.5229   0.5414   0.5780
     0.6286   0.7540   0.7986   0.8185   0.8229   0.8567   0.8792   0.9305
     0.9552   1.0155   1.0211   1.1390   1.2082   1.4365   1.4708   1.4953
     1.8275   1.8514   1.9151   2.1012   2.4892   2.5364   3.9687   4.0296
     4.0879   4.1027   4.1230   4.2119   4.2434   4.4319   4.4589   4.4634
     4.4662

[...]

          k =-0.0760-0.0000 0.0000 ( 17886 PWs)   bands (ev):

[...]

 ------ SPIN DOWN ----------

[...]

          k = 0.0380-0.0419 0.0000 ( 17876 PWs)   bands (ev):

[...]

          k =-0.0760-0.0839 0.0000 ( 17948 PWs)   bands (ev):

   -55.1157 -55.1098 -55.0763 -55.0762 -55.0038 -54.9972 -54.9871 -54.9190
   -54.9171 -54.9149 -54.9058 -54.9043 -54.8517 -54.7883 -54.0905 -54.0902
   -31.5158 -31.5129 -31.4366 -31.4143 -31.3992 -31.3991 -31.3683 -31.3680
   -31.3428 -31.3364 -31.3341 -31.3337 -31.3021 -31.2663 -31.2577 -31.2541
   -31.2533 -31.2501 -31.2468 -31.2404 -31.2106 -31.2056 -31.2031 -31.2003
   -31.1953 -31.1951 -31.1835 -31.1797 -31.1535 -31.1488 -31.1335 -31.1294
   -31.1263 -31.1259 -31.1257 -31.1168 -31.0924 -31.0865 -31.0841 -31.0640
   -31.0386 -31.0212 -30.4144 -30.4142 -30.3285 -30.3283 -30.2891 -30.2889
   -18.9191 -15.5049 -15.3953 -15.2868 -15.2217 -15.1794 -15.1276 -15.1103
   -15.0998 -15.0546 -15.0250 -14.9559 -14.8915 -14.8385 -14.8374 -14.8029
   -14.7246 -14.7107 -14.7035 -14.6930 -14.6363 -14.6296 -14.5981 -14.5773
   -14.5742 -14.5443 -14.4704 -14.4680 -14.3818 -14.1747 -13.5946 -12.5945
   -12.5942  -9.7302  -7.7115  -7.1520  -5.4382  -3.8842  -3.3926  -2.7530
    -2.6424  -2.4320  -2.4064  -2.3461  -2.3272  -2.2471  -2.1810  -2.1583
    -2.1349  -2.1011  -2.0981  -2.0748  -2.0525  -1.9988  -1.9704  -1.9583
    -1.9524  -1.9374  -1.9248  -1.9051  -1.8483  -1.8381  -1.8308  -1.7882
    -1.7771  -1.7456  -1.7392  -1.7004  -1.6837  -1.6091  -1.5149  -1.4906
    -1.4321  -1.3307  -1.3161  -1.3105  -1.2180  -1.2090  -1.1796  -1.1486
    -1.0941  -0.9947  -0.9403  -0.8635  -0.8602  -0.8311  -0.7430  -0.6804
    -0.6464  -0.6362  -0.5977  -0.5398  -0.5177  -0.4833  -0.4007  -0.3589
    -0.3324  -0.2982  -0.2036  -0.1414  -0.1186  -0.0867  -0.0832   0.0059
     0.0389   0.0759   0.0967   0.1346   0.1615   0.2260   0.2480   0.3587
     0.4254   0.4587   0.5777   0.6016   0.6654   0.7976   0.8692   0.9094
     0.9625   1.0205   1.0479   1.1783   1.1855   1.2074   1.3041   1.3446
     1.3515   1.3643   2.2740   2.2751   2.3567   2.3569   4.1030   4.1902
     4.2353   4.2729   4.3780   4.4884   4.5071   4.5495   4.5501   4.6261
     4.6323

     the Fermi energy is     4.0231 ev

!    total energy              =   -2942.82537421 Ry
     estimated scf accuracy    <       0.00000006 Ry
     smearing contrib. (-TS)   =      -0.03685057 Ry
     internal energy E=F+TS    =   -2942.78852364 Ry

     The total energy is F=E-TS. E is the sum of the following terms:
     one-electron contribution =  -23970.28920351 Ry
     hartree contribution      =   12080.73595682 Ry
     xc contribution           =    -487.77198319 Ry
     ewald contribution        =    9434.53175035 Ry
     electric field correction =       0.00495590 Ry

     total magnetization       =     0.02 Bohr mag/cell
     absolute magnetization    =     0.04 Bohr mag/cell

     convergence has been achieved in 127 iterations

     Forces acting on atoms (cartesian axes, Ry/au):

     atom    1 type  1   force =     0.00014833   -0.00022300    0.09432253
     atom    2 type  1   force =    -0.00009458   -0.00033007   -0.17738399
     atom    3 type  2   force =     0.00005634   -0.00016602   -0.02137677
     atom    4 type  2   force =    -0.00001497   -0.00172719    0.05658009
     atom    5 type  2   force =    -0.01054035   -0.00127702    0.00624044
     atom    6 type  2   force =     0.01220836   -0.00074344    0.00571157
     atom    7 type  1   force =    -0.00032666    0.00172080   -0.01617409
     atom    8 type  1   force =    -0.00011162    0.00439057    0.00561816
     atom    9 type  2   force =     0.00000962   -0.00004243   -0.00005134
     atom   10 type  2   force =    -0.00074277   -0.00022184   -0.00044826
     atom   11 type  2   force =     0.00034684    0.00012428   -0.00019442
     atom   12 type  2   force =    -0.00051950    0.00000183   -0.00013272
     atom   13 type  1   force =     0.00003983   -0.00035364    0.00014050
     atom   14 type  1   force =     0.00055818    0.00011500   -0.00031255
     atom   15 type  2   force =    -0.00039840    0.00022591   -0.00021639
     atom   16 type  2   force =    -0.00033503    0.00019885   -0.00005187
     atom   17 type  2   force =    -0.00019859    0.00007719    0.00039790
     atom   18 type  2   force =     0.00013209    0.00037245   -0.00000973
     atom   19 type  1   force =     0.00015111    0.00008680    0.00010959
     atom   20 type  1   force =     0.00018050    0.00062279   -0.00019995
     atom   21 type  2   force =     0.00003747    0.00004176    0.10361949
     atom   22 type  2   force =    -0.00001897   -0.00078455   -0.00023170
     atom   23 type  2   force =    -0.07082821   -0.00009902   -0.02718274
     atom   24 type  2   force =     0.07069244    0.00034169   -0.02721175
     atom   25 type  1   force =    -0.00009833   -0.00019661    0.09374001
     atom   26 type  1   force =    -0.00015058   -0.00032376   -0.17731566
     atom   27 type  2   force =     0.00008686   -0.00035103   -0.02048025
     atom   28 type  2   force =     0.00003178   -0.00143876    0.05588950
     atom   29 type  2   force =    -0.01090465   -0.00073683    0.00608870
     atom   30 type  2   force =     0.01245632   -0.00029219    0.00556737
     atom   31 type  1   force =    -0.00017587    0.00462464   -0.01720423
     atom   32 type  1   force =    -0.00003531   -0.00480594    0.00559719
     atom   33 type  2   force =     0.00005663    0.00012106    0.00026914
     atom   34 type  2   force =     0.00005714   -0.00085393   -0.00297806
     atom   35 type  2   force =     0.00023422    0.00003278    0.00007567
     atom   36 type  2   force =    -0.00042931    0.00015692   -0.00007171
     atom   37 type  1   force =    -0.00012772   -0.00010755   -0.00017371
     atom   38 type  1   force =     0.00043074   -0.00028221    0.00038486
     atom   39 type  2   force =    -0.00045765    0.00008573    0.00073812
     atom   40 type  2   force =    -0.00011909    0.00018184   -0.00021873
     atom   41 type  2   force =     0.00007809    0.00032614    0.00013159
     atom   42 type  2   force =     0.00001151    0.00022878   -0.00002785
     atom   43 type  1   force =    -0.00039129    0.00054491   -0.00006165
     atom   44 type  1   force =    -0.00008160    0.00028094    0.00008750
     atom   45 type  2   force =     0.00002696    0.00001157    0.10362693
     atom   46 type  2   force =    -0.07082873   -0.00003721   -0.02717935
     atom   47 type  2   force =     0.07069524    0.00037860   -0.02718548
     atom   48 type  3   force =     0.00330573   -0.00097309    0.00557518
     atom   49 type  4   force =     0.00262873   -0.00034372   -0.01883428
     atom   50 type  5   force =     0.00033833    0.00301837    0.00293589
     atom   51 type  5   force =    -0.00195922   -0.00431313    0.00583850
     atom   52 type  5   force =    -0.00387144    0.00139622    0.00389507
     atom   53 type  3   force =    -0.00059060    0.00093180    0.00093887
     atom   54 type  5   force =    -0.00001427    0.00003474   -0.00033123
     atom   55 type  5   force =    -0.00017502    0.00010745   -0.00062390
     atom   56 type  5   force =    -0.00045907    0.00024179   -0.00025600

     Total force =     0.366268     Total SCF correction =     0.000404
  @ DRIVER MODE: Message from server: STATUS
  @ DRIVER MODE: Message from server: GETFORCE
  @ DRIVER MODE: Returning v,forces,stress,ensemble

     Writing output data file ./calc.save/
  @ DRIVER MODE: Message from server: EXIT
  @ DRIVE MODE: Exiting

     General routines

     Parallel routines

   This run was terminated on:   3:13:31  16Jul2021

   JOB DONE.