     Program PWSCF v.6.7GPU starts on  4Aug2021 at  3:59:32

     R & G space division:  proc/nbgrp/npool/nimage =      16
     Reading input from /storage/home/hcoda1/3/ntian30/research/carbon/02Aug_vib_paired/ads_slab/CH3NH3NH3_a/out_0041/pw.inp
Warning: card &CELL ignored
Warning: card   CELL_DYNAMICS='IPI', ignored
Warning: card / ignored

     Current dimensions of program PWSCF are:
     Max number of different atomic species (ntypx) = 10
     Max number of k-points (npk) =  40000
     Max angular momentum in pseudopotentials (lmaxx) =  3
     Presently no symmetry can be used with electric field

     Message from routine cell_base_init:
     DEPRECATED: use true lattice parameter, not A to a.u. conversion factor

     IMPORTANT: XC functional enforced from input :
     Exchange-correlation= BEEF-VDW
                           (   1   4  43  14   2   0   0)
     Any further DFT definition will be discarded
     Please, verify this is what you really want

  @ DRIVER MODE: Connecting to
 qe_1139763_2492108.sched-torque.pace.gatech.eduryavkxs3_scratch
  using UNIX socket
  @ DRIVER MODE: Message from server: STATUS
  @ DRIVER MODE: Message from server: INIT
  @ DRIVER MODE: Receiving replica           0          -1
  @ DRIVER MODE: Receiving encoded integer          25
  @ DRIVER MODE:  SCF:  T  FORCE:  T  STRESS:  F  VC:  F  ENSEMBLE:  F
  @ DRIVER MODE:  SCF:  T  FORCE:  T  STRESS:  F  VC:  F  ENSEMBLE:  F

     Using Slab Decomposition

     bravais-lattice index     =            0
     lattice parameter (alat)  =       1.8897  a.u.
     unit-cell volume          =    6658.9804 (a.u.)^3
     number of atoms/cell      =           59
     number of atomic types    =            5
     number of electrons       =       401.00
     number of Kohn-Sham states=          210
     kinetic-energy cutoff     =      29.3995  Ry
     charge density cutoff     =     293.9946  Ry
     scf convergence threshold =      7.3E-08
     mixing beta               =       0.0500
     number of iterations used =            8  plain     mixing
     Exchange-correlation= BEEF-VDW
                           (   1   4  43  14   2   0   0)

     celldm(1)=   1.889726  celldm(2)=   0.000000  celldm(3)=   0.000000
     celldm(4)=   0.000000  celldm(5)=   0.000000  celldm(6)=   0.000000

     crystal axes: (cart. coord. in units of alat)
               a(1) = (   6.579727   0.000000   0.000000 )
               a(2) = (  -0.000775   5.961596   0.000000 )
               a(3) = (   0.000000   0.000000  25.155947 )

     reciprocal axes: (cart. coord. in units 2 pi/alat)
               b(1) = (  0.151982  0.000020  0.000000 )
               b(2) = (  0.000000  0.167740  0.000000 )
               b(3) = (  0.000000  0.000000  0.039752 )

     PseudoPot. # 1 for Ti read from file:
     /storage/coda1/p-amedford6/0/shared/rich_project_chbe-medford/medford-share/data/pseudos_module/espresso/nninc/pbe/van/Ti.UPF
     MD5 check sum: 8e4df49b7f0d34bbd5052bf3f5ea0213
     Pseudo is Ultrasoft, Zval = 12.0
     Generated by new atomic code, or converted to UPF format
     Using radial grid of  851 points,  6 beta functions with:
                l(1) =   0
                l(2) =   0
                l(3) =   1
                l(4) =   1
                l(5) =   2
                l(6) =   2
     Q(r) pseudized with  8 coefficients,  rinner =    1.000   1.000   1.000
                                                       1.000   1.000

     PseudoPot. # 2 for O  read from file:
     /storage/coda1/p-amedford6/0/shared/rich_project_chbe-medford/medford-share/data/pseudos_module/espresso/nninc/pbe/van/O.UPF
     MD5 check sum: 78c19812648e8988a0fe644b0f25305e
     Pseudo is Ultrasoft, Zval =  6.0
     Generated by new atomic code, or converted to UPF format
     Using radial grid of  737 points,  4 beta functions with:
                l(1) =   0
                l(2) =   0
                l(3) =   1
                l(4) =   1
     Q(r) pseudized with  8 coefficients,  rinner =    0.800   0.800   0.800

     PseudoPot. # 3 for C  read from file:
     /storage/coda1/p-amedford6/0/shared/rich_project_chbe-medford/medford-share/data/pseudos_module/espresso/nninc/pbe/van/C.UPF
     MD5 check sum: 1a69bf6b8db32088f5b2163dbdb77a27
     Pseudo is Ultrasoft, Zval =  4.0
     Generated by new atomic code, or converted to UPF format
     Using radial grid of  721 points,  4 beta functions with:
                l(1) =   0
                l(2) =   0
                l(3) =   1
                l(4) =   1
     Q(r) pseudized with  8 coefficients,  rinner =    0.800   0.800   0.800

     PseudoPot. # 4 for H  read from file:
     /storage/coda1/p-amedford6/0/shared/rich_project_chbe-medford/medford-share/data/pseudos_module/espresso/nninc/pbe/van/H.UPF
     MD5 check sum: b5ee9d7bfd3a09ee7748110bda690ff7
     Pseudo is Ultrasoft, Zval =  1.0
     Generated by new atomic code, or converted to UPF format
     Using radial grid of  615 points,  1 beta functions with:
                l(1) =   0
     Q(r) pseudized with  8 coefficients,  rinner =    0.800

     PseudoPot. # 5 for N  read from file:
     /storage/coda1/p-amedford6/0/shared/rich_project_chbe-medford/medford-share/data/pseudos_module/espresso/nninc/pbe/van/N.UPF
     MD5 check sum: 90d10febe142ad51ac9d5be1deb811c4
     Pseudo is Ultrasoft, Zval =  5.0
     Generated by new atomic code, or converted to UPF format
     Using radial grid of  729 points,  4 beta functions with:
                l(1) =   0
                l(2) =   0
                l(3) =   1
                l(4) =   1
     Q(r) pseudized with  8 coefficients,  rinner =    0.800   0.800   0.800

     atomic species   valence    mass     pseudopotential
        Ti1           12.00    47.86700     Ti( 1.00)
        O1             6.00    15.99900     O ( 1.00)
        C1             4.00    12.01100     C ( 1.00)
        H1             1.00     1.00800     H ( 1.00)
        N1             5.00    14.00700     N ( 1.00)

     No symmetry found

   Cartesian axes

     site n.     atom                  positions (alat units)
         1           Ti1 tau(   1) = (   0.0004258   2.9801865   6.0000000  )
         2           Ti1 tau(   2) = (   3.2906075   1.4906267   6.0002472  )
         3           O1  tau(   3) = (   0.0006271   0.0005054   7.9858123  )
         4           O1  tau(   4) = (   3.2906025   0.0005020   7.3038282  )
         5           O1  tau(   5) = (   4.5942328   1.4918067   9.2879030  )
         6           O1  tau(   6) = (   1.9868534   1.4903216   9.2879459  )
         7           Ti1 tau(   7) = (   3.2907910   2.8959150   9.1758416  )
         8           Ti1 tau(   8) = (   0.0015273   1.4827037   9.2680791  )
         9           O1  tau(   9) = (   3.3006472   5.9526327  11.3326431  )
        10           O1  tau(  10) = (   0.0116148   5.9584955  10.6183126  )
        11           O1  tau(  11) = (   1.2986171   1.4856602  12.6180737  )
        12           O1  tau(  12) = (   5.2832837   1.4869688  12.6136912  )
        13           Ti1 tau(  13) = (   0.0716907   2.9700601  12.6329626  )
        14           Ti1 tau(  14) = (   3.3921379   1.4824266  12.4783935  )
        15           O1  tau(  15) = (   0.0098915   0.0277142  14.6273811  )
        16           O1  tau(  16) = (   3.2980527   0.0034327  13.9214941  )
        17           O1  tau(  17) = (   4.5491770   1.5035522  16.0668258  )
        18           O1  tau(  18) = (   2.0540802   1.5011373  16.0688643  )
        19           Ti1 tau(  19) = (   3.2973159   2.9845483  15.7023000  )
        20           Ti1 tau(  20) = (   6.5754392   1.4353193  15.8239573  )
        21           O1  tau(  21) = (   3.2904802   0.0005063   4.7018136  )
        22           O1  tau(  22) = (   0.0048264   5.9571524  17.1588256  )
        23           O1  tau(  23) = (   1.3043587   1.4918075   6.0039043  )
        24           O1  tau(  24) = (   5.2767064   1.4903225   6.0039473  )
        25           Ti1 tau(  25) = (   0.0000382   5.9609847   6.0000000  )
        26           Ti1 tau(  26) = (   3.2902200   4.4714249   6.0002472  )
        27           O1  tau(  27) = (   0.0002396   2.9813036   7.9858123  )
        28           O1  tau(  28) = (   3.2902150   2.9813002   7.3038282  )
        29           O1  tau(  29) = (   4.5938453   4.4726049   9.2879030  )
        30           O1  tau(  30) = (   1.9864658   4.4711199   9.2879459  )
        31           Ti1 tau(  31) = (   3.2891106   5.8743827   9.1763621  )
        32           Ti1 tau(  32) = (   0.0006254   4.4649316   9.2693709  )
        33           O1  tau(  33) = (   3.3024910   2.9811918  11.3312481  )
        34           O1  tau(  34) = (   0.0092240   2.9805883  10.6323155  )
        35           O1  tau(  35) = (   1.2967186   4.4682081  12.6345707  )
        36           O1  tau(  36) = (   5.2888097   4.4704914  12.6297389  )
        37           Ti1 tau(  37) = (   0.0778612   5.9457776  12.5489457  )
        38           Ti1 tau(  38) = (   3.3928769   4.4622707  12.4864817  )
        39           O1  tau(  39) = (   0.0140712   2.9461142  14.6842920  )
        40           O1  tau(  40) = (   3.2991745   2.9776924  13.9065265  )
        41           O1  tau(  41) = (   4.5418516   4.4678888  16.0645815  )
        42           O1  tau(  42) = (   2.0574864   4.4691885  16.0636024  )
        43           Ti1 tau(  43) = (   3.2861726   0.0051191  15.7195692  )
        44           Ti1 tau(  44) = (   6.5761434   4.5285208  16.1368719  )
        45           O1  tau(  45) = (   3.2900926   2.9813045   4.7018136  )
        46           O1  tau(  46) = (   1.3039711   4.4726057   6.0039043  )
        47           O1  tau(  47) = (   5.2763189   4.4711207   6.0039473  )
        48           C1  tau(  48) = (   0.0175971   3.0427671  17.7901079  )
        49           H1  tau(  49) = (   5.6823727   3.3959267  18.2745233  )
        50           H1  tau(  50) = (   0.1100020   1.9921885  18.0671921  )
        51           H1  tau(  51) = (   0.8707680   3.5346006  18.2680029  )
        52           N1  tau(  52) = (   6.1495222   1.5591847  21.8098380  )
        53           H1  tau(  53) = (   6.1793786   2.4848735  21.3946126  )
        54           H1  tau(  54) = (   6.2462200   0.9013766  21.0428083  )
        55           H1  tau(  55) = (   5.2088654   1.4380024  22.1828036  )
        56           N1  tau(  56) = (   2.8510371   0.9663425  23.1735989  )
        57           H1  tau(  57) = (   2.8683653   5.9229692  23.1556095  )
        58           H1  tau(  58) = (   1.9074079   1.2374795  22.9038124  )
        59           H1  tau(  59) = (   2.9640119   1.2328864  24.1466208  )

     number of k points=    10  Fermi-Dirac smearing, width (Ry)=  0.0073
                       cart. coord. in units 2pi/alat
        k(    1) = (   0.0000000   0.0000000   0.0000000), wk =   0.1250000
        k(    2) = (   0.0000000   0.0419351   0.0000000), wk =   0.2500000
        k(    3) = (   0.0000000  -0.0838702   0.0000000), wk =   0.1250000
        k(    4) = (   0.0379955   0.0000049   0.0000000), wk =   0.2500000
        k(    5) = (   0.0379955   0.0419400   0.0000000), wk =   0.2500000
        k(    6) = (   0.0379955  -0.0838652   0.0000000), wk =   0.2500000
        k(    7) = (   0.0379955  -0.0419301   0.0000000), wk =   0.2500000
        k(    8) = (  -0.0759910  -0.0000099   0.0000000), wk =   0.1250000
        k(    9) = (  -0.0759910   0.0419252   0.0000000), wk =   0.2500000
        k(   10) = (  -0.0759910  -0.0838800   0.0000000), wk =   0.1250000

     Initial potential from superposition of free atoms

     starting charge  384.99911, renormalised to  401.00000

     negative rho (up, down):  4.924E-03 0.000E+00

     %%%%%%%%%%%%%%%%%%%%%%%%%%%%%%%%%%%%%%%%%%%%%%%%%%%%%%%%%%%%%%%%%%%%%%%%
     %                                                                      %
     % You are using vdW-DF, which was implemented by the Thonhauser group. %
     % Please cite the following two papers that made this development      %
     % possible and the two reviews that describe the various versions:     %
     %                                                                      %
     %   T. Thonhauser et al., PRL 115, 136402 (2015).                      %
     %   T. Thonhauser et al., PRB 76, 125112 (2007).                       %
     %   K. Berland et al., Rep. Prog. Phys. 78, 066501 (2015).             %
     %   D.C. Langreth et al., J. Phys.: Condens. Matter 21, 084203 (2009). %
     %                                                                      %
     %                                                                      %
     % If you are calculating the stress with vdW-DF, please also cite:     %
     %                                                                      %
     %   R. Sabatini et al., J. Phys.: Condens. Matter 24, 424209 (2012).   %
     %                                                                      %
     %%%%%%%%%%%%%%%%%%%%%%%%%%%%%%%%%%%%%%%%%%%%%%%%%%%%%%%%%%%%%%%%%%%%%%%%

     Adding external electric field

     Computed dipole along edir(3) :
        Dipole              -16.7053 Ry au,        -42.4606 Debye
        Dipole field         -0.0315 Ry au,

        Potential amp.        2.9223 Ry
        Total length         46.3494 bohr

     Starting wfcs are  305 atomic wfcs
  @ DRIVER MODE: Message from server: STATUS
  @ DRIVER MODE: Message from server: POSDATA
  @ DRIVER MODE: Reading and sharing cell
  @ DRIVER MODE: Reading and sharing positions
  @ DRIVER MODE: Received positions

     Self-consistent Calculation

     iteration #  1     ecut=    29.40 Ry     beta= 0.05
     Davidson diagonalization with overlap
     c_bands:  2 eigenvalues not converged
     c_bands:  3 eigenvalues not converged
     c_bands:  1 eigenvalues not converged
     c_bands:  4 eigenvalues not converged
     c_bands:  4 eigenvalues not converged
     c_bands:  2 eigenvalues not converged
     c_bands:  3 eigenvalues not converged
     c_bands:  3 eigenvalues not converged
     c_bands:  4 eigenvalues not converged
     ethr =  1.00E-05,  avg # of iterations = 19.8

[...]

     total energy              =   -2364.23251319 Ry
     estimated scf accuracy    <    6692.66069730 Ry

     iteration #  2     ecut=    29.40 Ry     beta= 0.05
     Davidson diagonalization with overlap
     ethr =  1.00E-02,  avg # of iterations = 22.0

[...]

     iteration # 49     ecut=    29.40 Ry     beta= 0.05
     Davidson diagonalization with overlap
     c_bands:  1 eigenvalues not converged
     ethr =  2.34E-08,  avg # of iterations = 13.1

[...]

     total energy              =   -2946.58232948 Ry
     estimated scf accuracy    <       0.00000010 Ry

     iteration # 63     ecut=    29.40 Ry     beta= 0.05
     Davidson diagonalization with overlap
     ethr =  2.51E-11,  avg # of iterations =  7.2

     negative rho (up, down):  7.011E-03 0.000E+00

     Adding external electric field

     Computed dipole along edir(3) :
        Dipole                0.3145 Ry au,          0.7994 Debye
        Dipole field          0.0006 Ry au,

        Potential amp.       -0.0550 Ry
        Total length         46.3494 bohr

     End of self-consistent calculation

          k = 0.0000 0.0000 0.0000 ( 18029 PWs)   bands (ev):

   -55.9982 -55.9880 -55.9641 -55.9508 -55.8787 -55.8540 -55.8333 -55.8151
   -55.8053 -55.7714 -55.7712 -55.7376 -55.6126 -55.3909 -54.9785 -54.9445
   -32.5417 -32.4807 -32.3530 -32.3331 -32.3046 -32.3020 -32.2909 -32.2618
   -32.2402 -32.2167 -32.2097 -32.1953 -32.1677 -32.1503 -32.1409 -32.1269
   -32.1109 -32.1026 -32.0872 -32.0588 -32.0553 -32.0552 -32.0273 -32.0079
   -32.0074 -32.0022 -31.9934 -31.9893 -31.9760 -31.9736 -31.9654 -31.9457
   -31.9437 -31.9373 -31.9242 -31.9109 -31.8833 -31.8659 -31.8284 -31.6676
   -31.6413 -31.5286 -31.3857 -31.2969 -31.2745 -31.2023 -31.1158 -31.0049
   -16.7430 -16.4738 -16.2473 -16.1513 -16.1241 -16.0049 -15.8397 -15.7178
   -15.6694 -15.5691 -15.5597 -15.5351 -15.5021 -15.4783 -15.4776 -15.4433
   -15.4404 -15.4213 -15.4096 -15.3593 -15.3364 -15.3248 -15.2096 -15.1758
   -15.1335 -15.1123 -15.0546 -15.0421 -14.6194 -13.4817 -13.3653 -13.0535
   -12.9485  -9.1020  -4.1162  -3.9594  -3.9052  -3.8601  -3.8294  -3.6125
    -3.5464  -3.2488  -3.1847  -3.1700  -3.1526  -3.1237  -3.1202  -3.0997
    -3.0572  -2.9873  -2.9018  -2.8436  -2.8290  -2.8095  -2.8065  -2.7770
    -2.7674  -2.7551  -2.7145  -2.6889  -2.6628  -2.6127  -2.5578  -2.4958
    -2.4123  -2.3943  -2.3128  -2.2903  -2.2842  -2.2412  -2.2268  -2.2189
    -2.2000  -2.1749  -2.1617  -1.9784  -1.9397  -1.8370  -1.7809  -1.7788
    -1.6073  -1.5075  -1.4658  -1.4548  -1.4255  -1.3918  -1.3850  -1.2987
    -1.1820  -1.1509  -1.1179  -1.0459  -1.0023  -0.9705  -0.8729  -0.8455
    -0.7625  -0.7602  -0.7381  -0.6500  -0.5963  -0.4828  -0.4348  -0.4248
    -0.3869  -0.3577  -0.2884  -0.2741  -0.2173  -0.1449  -0.1241  -0.0613
    -0.0309  -0.0168  -0.0056   0.0112   0.0376   0.0681   0.1721   0.2025
     0.2819   0.3496   0.4450   0.5424   0.6483   0.6573   0.7586   0.9679
     1.0416   1.1398   1.1986   1.2357   1.6147   1.6606   1.7470   2.1857
     3.1390   3.2230   3.2706   3.2814   3.3724   3.3887   3.5892   3.6137
     3.6346   3.6876

[...]

          k = 0.0380-0.0419 0.0000 ( 17876 PWs)   bands (ev):

[...]

          k =-0.0760-0.0000 0.0000 ( 17886 PWs)   bands (ev):

[...]

          k =-0.0760-0.0839 0.0000 ( 17948 PWs)   bands (ev):

   -55.9817 -55.9804 -55.9739 -55.9646 -55.8707 -55.8437 -55.8411 -55.8253
   -55.7894 -55.7867 -55.7558 -55.7533 -55.6115 -55.3919 -54.9615 -54.9614
   -32.3495 -32.3407 -32.2964 -32.2955 -32.2768 -32.2757 -32.2596 -32.2506
   -32.2041 -32.1924 -32.1862 -32.1836 -32.1458 -32.1299 -32.1281 -32.1188
   -32.1085 -32.1012 -32.1009 -32.0998 -32.0941 -32.0912 -32.0707 -32.0605
   -32.0416 -32.0387 -32.0293 -32.0121 -31.9891 -31.9881 -31.9866 -31.9848
   -31.9701 -31.9687 -31.9660 -31.9619 -31.9334 -31.8570 -31.8316 -31.6812
   -31.6695 -31.5730 -31.2872 -31.2872 -31.1985 -31.1984 -31.1591 -31.1590
   -16.1758 -16.1563 -15.9488 -15.9121 -15.9090 -15.8998 -15.7881 -15.7030
   -15.6931 -15.6924 -15.6099 -15.5978 -15.5816 -15.5374 -15.5331 -15.5238
   -15.5141 -15.5022 -15.4590 -15.4541 -15.4352 -15.4277 -15.3457 -15.3153
   -15.3116 -15.2733 -15.1412 -15.0098 -14.8612 -13.4673 -13.4670 -13.0035
   -12.9981  -9.1186  -3.4678  -3.4422  -3.1921  -3.1558  -3.1464  -3.1143
    -3.0948  -3.0825  -2.9896  -2.9544  -2.9221  -2.8958  -2.8810  -2.8763
    -2.8399  -2.8276  -2.8178  -2.8059  -2.7876  -2.7533  -2.7444  -2.7121
    -2.7012  -2.6811  -2.6677  -2.6523  -2.6276  -2.6150  -2.6086  -2.5775
    -2.5633  -2.5465  -2.5258  -2.5029  -2.4198  -2.2307  -2.2008  -2.1362
    -2.1271  -2.0966  -2.0851  -2.0617  -2.0473  -2.0288  -1.9820  -1.8289
    -1.7269  -1.7007  -1.6729  -1.5978  -1.5769  -1.5291  -1.4151  -1.3804
    -1.3530  -1.3272  -1.2771  -1.2260  -1.2086  -1.1857  -1.1167  -1.1031
    -1.0255  -0.9820  -0.9596  -0.9552  -0.8903  -0.8473  -0.7654  -0.7601
    -0.7161  -0.6804  -0.6330  -0.5928  -0.5880  -0.5010  -0.4753  -0.3587
    -0.3040  -0.0443   0.0053   0.0566   0.0829   0.1417   0.1921   0.2069
     0.3159   0.3202   0.3567   0.4004   0.4412   0.5287   0.5479   0.5827
     0.7288   1.3029   1.4062   1.4068   1.4800   1.4804   1.9512   1.9666
     3.4239   3.4392   3.4696   3.5021   3.6435   3.6473   3.6687   3.6705
     3.7965   3.8135

     the Fermi energy is     3.1366 ev

!    total energy              =   -2946.58236418 Ry
     estimated scf accuracy    <       0.00000007 Ry
     smearing contrib. (-TS)   =      -0.02178922 Ry
     internal energy E=F+TS    =   -2946.56057496 Ry

     The total energy is F=E-TS. E is the sum of the following terms:
     one-electron contribution =  -22199.73201384 Ry
     hartree contribution      =   11188.86502307 Ry
     xc contribution           =    -489.85555176 Ry
     ewald contribution        =    8554.16178092 Ry
     electric field correction =       0.00018665 Ry

     convergence has been achieved in  63 iterations

     Forces acting on atoms (cartesian axes, Ry/au):

     atom    1 type  1   force =     0.00013205   -0.00026203    0.09668041
     atom    2 type  1   force =    -0.00014660   -0.00054994   -0.17511036
     atom    3 type  2   force =    -0.00000170   -0.00002885   -0.02502257
     atom    4 type  2   force =     0.00007542   -0.00144009    0.05269487
     atom    5 type  2   force =    -0.01211165   -0.00083648    0.00339577
     atom    6 type  2   force =     0.01402486   -0.00015298    0.00290444
     atom    7 type  1   force =    -0.00082334    0.00069653   -0.01133932
     atom    8 type  1   force =     0.00025937    0.01148800    0.02860053
     atom    9 type  2   force =    -0.00010088    0.00008962   -0.00002405
     atom   10 type  2   force =    -0.00085108    0.00077282   -0.01661870
     atom   11 type  2   force =    -0.00031360    0.00010529    0.00002195
     atom   12 type  2   force =    -0.00000608    0.00021466    0.00004397
     atom   13 type  1   force =    -0.00011053   -0.00020126    0.00010086
     atom   14 type  1   force =    -0.00022350    0.00000597   -0.00004792
     atom   15 type  2   force =    -0.00003198    0.00005434   -0.00011228
     atom   16 type  2   force =    -0.00012366   -0.00003833    0.00001884
     atom   17 type  2   force =    -0.00002257   -0.00015919    0.00000070
     atom   18 type  2   force =    -0.00020598   -0.00017678   -0.00000248
     atom   19 type  1   force =    -0.00000453   -0.00020851    0.00016255
     atom   20 type  1   force =     0.00009808   -0.00036706   -0.00003029
     atom   21 type  2   force =     0.00006305    0.00000804    0.10295637
     atom   22 type  2   force =    -0.00010878   -0.00009192   -0.00041092
     atom   23 type  2   force =    -0.07140457   -0.00010063   -0.02774035
     atom   24 type  2   force =     0.07136437    0.00030754   -0.02777402
     atom   25 type  1   force =     0.00001026   -0.00030605    0.09645780
     atom   26 type  1   force =    -0.00018054   -0.00027398   -0.17529462
     atom   27 type  2   force =     0.00009369   -0.00019920   -0.02392814
     atom   28 type  2   force =     0.00011356   -0.00120028    0.05273309
     atom   29 type  2   force =    -0.01214373    0.00045613    0.00287741
     atom   30 type  2   force =     0.01397604    0.00080047    0.00242410
     atom   31 type  1   force =    -0.00076895    0.00311893   -0.01226674
     atom   32 type  1   force =     0.00027121   -0.01311707    0.02917622
     atom   33 type  2   force =    -0.00009811   -0.00003172    0.00003681
     atom   34 type  2   force =    -0.00028735    0.00077309   -0.02206498
     atom   35 type  2   force =    -0.00016907    0.00007820   -0.00004966
     atom   36 type  2   force =    -0.00010081    0.00019743   -0.00003719
     atom   37 type  1   force =    -0.00000691   -0.00031057   -0.00017533
     atom   38 type  1   force =     0.00002158    0.00000055   -0.00000149
     atom   39 type  2   force =    -0.00008105    0.00013023    0.00027770
     atom   40 type  2   force =    -0.00013557   -0.00001528   -0.00007546
     atom   41 type  2   force =     0.00001048   -0.00021301    0.00002649
     atom   42 type  2   force =    -0.00020432   -0.00021978    0.00019444
     atom   43 type  1   force =     0.00031837   -0.00015995   -0.00015367
     atom   44 type  1   force =     0.00018097   -0.00026195    0.00021895
     atom   45 type  2   force =     0.00006185   -0.00006990    0.10295007
     atom   46 type  2   force =    -0.07141881   -0.00009474   -0.02775056
     atom   47 type  2   force =     0.07137632    0.00036559   -0.02775868
     atom   48 type  3   force =    -0.00018401    0.00038346    0.00004557
     atom   49 type  4   force =    -0.00008579    0.00042249    0.00021904
     atom   50 type  4   force =    -0.00008197    0.00012061    0.00005707
     atom   51 type  4   force =     0.00009313    0.00030048    0.00038955
     atom   52 type  5   force =    -0.00053721   -0.00031524    0.00146913
     atom   53 type  4   force =     0.00008678    0.00055375   -0.00047672
     atom   54 type  4   force =    -0.00043399   -0.00040891   -0.00134506
     atom   55 type  4   force =     0.00064814    0.00024999   -0.00049943
     atom   56 type  5   force =    -0.00031531    0.01644332    0.00027013
     atom   57 type  4   force =     0.00080141   -0.01733219   -0.00034373
     atom   58 type  4   force =    -0.00027599    0.00044137   -0.00060118
     atom   59 type  4   force =     0.00001955    0.00056495   -0.00034891

     Total force =     0.368514     Total SCF correction =     0.000639
  @ DRIVER MODE: Message from server: STATUS
  @ DRIVER MODE: Message from server: GETFORCE
  @ DRIVER MODE: Returning v,forces,stress,ensemble

     Writing output data file ./calc.save/
  @ DRIVER MODE: Message from server: EXIT
  @ DRIVE MODE: Exiting

     General routines

     Parallel routines

   This run was terminated on:   4:14: 6   4Aug2021

   JOB DONE.