     Program PWSCF v.6.7GPU starts on 23Sep2021 at  0:59:55

     R & G space division:  proc/nbgrp/npool/nimage =      10
     Reading input from /storage/home/hcoda1/3/ntian30/research/carbon/CxH_vib/H2O_calc/ads_slab/CH3NNH3HO_a/out_0025/pw.inp
Warning: card &CELL ignored
Warning: card   CELL_DYNAMICS='IPI', ignored
Warning: card / ignored

     Current dimensions of program PWSCF are:
     Max number of different atomic species (ntypx) = 10
     Max number of k-points (npk) =  40000
     Max angular momentum in pseudopotentials (lmaxx) =  3
     Presently no symmetry can be used with electric field

     Message from routine cell_base_init:
     DEPRECATED: use true lattice parameter, not A to a.u. conversion factor

     IMPORTANT: XC functional enforced from input :
     Exchange-correlation= BEEF-VDW
                           (   1   4  43  14   2   0   0)
     Any further DFT definition will be discarded
     Please, verify this is what you really want

  @ DRIVER MODE: Connecting to
 qe_1139763_2937318.sched-torque.pace.gatech.eduqe3ct5ee_scratch
  using UNIX socket
  @ DRIVER MODE: Message from server: STATUS
  @ DRIVER MODE: Message from server: INIT
  @ DRIVER MODE: Receiving replica           0          -1
  @ DRIVER MODE: Receiving encoded integer          25
  @ DRIVER MODE:  SCF:  T  FORCE:  T  STRESS:  F  VC:  F  ENSEMBLE:  F
  @ DRIVER MODE:  SCF:  T  FORCE:  T  STRESS:  F  VC:  F  ENSEMBLE:  F

     Using Slab Decomposition

     bravais-lattice index     =            0
     lattice parameter (alat)  =       1.8897  a.u.
     unit-cell volume          =    6658.9804 (a.u.)^3
     number of atoms/cell      =           58
     number of atomic types    =            5
     number of electrons       =       405.00
     number of Kohn-Sham states=          212
     kinetic-energy cutoff     =      29.3995  Ry
     charge density cutoff     =     293.9946  Ry
     scf convergence threshold =      7.3E-08
     mixing beta               =       0.0500
     number of iterations used =            8  plain     mixing
     Exchange-correlation= BEEF-VDW
                           (   1   4  43  14   2   0   0)

     celldm(1)=   1.889726  celldm(2)=   0.000000  celldm(3)=   0.000000
     celldm(4)=   0.000000  celldm(5)=   0.000000  celldm(6)=   0.000000

     crystal axes: (cart. coord. in units of alat)
               a(1) = (   6.579727   0.000000   0.000000 )
               a(2) = (  -0.000775   5.961596   0.000000 )
               a(3) = (   0.000000   0.000000  25.155947 )

     reciprocal axes: (cart. coord. in units 2 pi/alat)
               b(1) = (  0.151982  0.000020  0.000000 )
               b(2) = (  0.000000  0.167740  0.000000 )
               b(3) = (  0.000000  0.000000  0.039752 )

     PseudoPot. # 1 for Ti read from file:
     /storage/coda1/p-amedford6/0/shared/rich_project_chbe-medford/medford-share/data/pseudos_module/espresso/nninc/pbe/van/Ti.UPF
     MD5 check sum: 8e4df49b7f0d34bbd5052bf3f5ea0213
     Pseudo is Ultrasoft, Zval = 12.0
     Generated by new atomic code, or converted to UPF format
     Using radial grid of  851 points,  6 beta functions with:
                l(1) =   0
                l(2) =   0
                l(3) =   1
                l(4) =   1
                l(5) =   2
                l(6) =   2
     Q(r) pseudized with  8 coefficients,  rinner =    1.000   1.000   1.000
                                                       1.000   1.000

     PseudoPot. # 2 for O  read from file:
     /storage/coda1/p-amedford6/0/shared/rich_project_chbe-medford/medford-share/data/pseudos_module/espresso/nninc/pbe/van/O.UPF
     MD5 check sum: 78c19812648e8988a0fe644b0f25305e
     Pseudo is Ultrasoft, Zval =  6.0
     Generated by new atomic code, or converted to UPF format
     Using radial grid of  737 points,  4 beta functions with:
                l(1) =   0
                l(2) =   0
                l(3) =   1
                l(4) =   1
     Q(r) pseudized with  8 coefficients,  rinner =    0.800   0.800   0.800

     PseudoPot. # 3 for N  read from file:
     /storage/coda1/p-amedford6/0/shared/rich_project_chbe-medford/medford-share/data/pseudos_module/espresso/nninc/pbe/van/N.UPF
     MD5 check sum: 90d10febe142ad51ac9d5be1deb811c4
     Pseudo is Ultrasoft, Zval =  5.0
     Generated by new atomic code, or converted to UPF format
     Using radial grid of  729 points,  4 beta functions with:
                l(1) =   0
                l(2) =   0
                l(3) =   1
                l(4) =   1
     Q(r) pseudized with  8 coefficients,  rinner =    0.800   0.800   0.800

     PseudoPot. # 4 for C  read from file:
     /storage/coda1/p-amedford6/0/shared/rich_project_chbe-medford/medford-share/data/pseudos_module/espresso/nninc/pbe/van/C.UPF
     MD5 check sum: 1a69bf6b8db32088f5b2163dbdb77a27
     Pseudo is Ultrasoft, Zval =  4.0
     Generated by new atomic code, or converted to UPF format
     Using radial grid of  721 points,  4 beta functions with:
                l(1) =   0
                l(2) =   0
                l(3) =   1
                l(4) =   1
     Q(r) pseudized with  8 coefficients,  rinner =    0.800   0.800   0.800

     PseudoPot. # 5 for H  read from file:
     /storage/coda1/p-amedford6/0/shared/rich_project_chbe-medford/medford-share/data/pseudos_module/espresso/nninc/pbe/van/H.UPF
     MD5 check sum: b5ee9d7bfd3a09ee7748110bda690ff7
     Pseudo is Ultrasoft, Zval =  1.0
     Generated by new atomic code, or converted to UPF format
     Using radial grid of  615 points,  1 beta functions with:
                l(1) =   0
     Q(r) pseudized with  8 coefficients,  rinner =    0.800

     atomic species   valence    mass     pseudopotential
        Ti1           12.00    47.86700     Ti( 1.00)
        O1             6.00    15.99900     O ( 1.00)
        N1             5.00    14.00700     N ( 1.00)
        C1             4.00    12.01100     C ( 1.00)
        H1             1.00     1.00800     H ( 1.00)

     No symmetry found

   Cartesian axes

     site n.     atom                  positions (alat units)
         1           Ti1 tau(   1) = (   0.0004258   2.9801865   6.0000000  )
         2           Ti1 tau(   2) = (   3.2906075   1.4906267   6.0002472  )
         3           O1  tau(   3) = (   0.0006271   0.0005054   7.9858123  )
         4           O1  tau(   4) = (   3.2906025   0.0005020   7.3038282  )
         5           O1  tau(   5) = (   4.5942328   1.4918067   9.2879030  )
         6           O1  tau(   6) = (   1.9868534   1.4903216   9.2879459  )
         7           Ti1 tau(   7) = (   3.2907910   2.8959150   9.1758416  )
         8           Ti1 tau(   8) = (   0.0015273   1.4827037   9.2680791  )
         9           O1  tau(   9) = (   3.2949357   5.9297256  11.2770696  )
        10           O1  tau(  10) = (   0.0116148   5.9584955  10.6183126  )
        11           O1  tau(  11) = (   1.2901270   1.4659759  12.6218969  )
        12           O1  tau(  12) = (   5.3029181   1.4690452  12.6271982  )
        13           Ti1 tau(  13) = (   6.5637346   3.0486055  12.7052252  )
        14           Ti1 tau(  14) = (   3.3207578   1.2909511  12.6638180  )
        15           O1  tau(  15) = (   0.0081040   5.9567798  14.6379979  )
        16           O1  tau(  16) = (   3.2944190   0.0149942  13.8863584  )
        17           O1  tau(  17) = (   4.5334936   1.5584448  16.0391558  )
        18           O1  tau(  18) = (   2.0244848   1.5379376  16.0854781  )
        19           Ti1 tau(  19) = (   3.2579824   3.0118882  15.6538344  )
        20           Ti1 tau(  20) = (   6.4918182   1.5199401  15.8876453  )
        21           O1  tau(  21) = (   3.2904802   0.0005063   4.7018136  )
        22           O1  tau(  22) = (   6.5166677   0.0216046  17.1949088  )
        23           O1  tau(  23) = (   1.3043587   1.4918075   6.0039043  )
        24           O1  tau(  24) = (   5.2767064   1.4903225   6.0039473  )
        25           Ti1 tau(  25) = (   0.0000382   5.9609847   6.0000000  )
        26           Ti1 tau(  26) = (   3.2902200   4.4714249   6.0002472  )
        27           O1  tau(  27) = (   0.0002396   2.9813036   7.9858123  )
        28           O1  tau(  28) = (   3.2902150   2.9813002   7.3038282  )
        29           O1  tau(  29) = (   4.5938453   4.4726049   9.2879030  )
        30           O1  tau(  30) = (   1.9864658   4.4711199   9.2879459  )
        31           Ti1 tau(  31) = (   3.2891106   5.8743827   9.1763621  )
        32           Ti1 tau(  32) = (   0.0006254   4.4649316   9.2693709  )
        33           O1  tau(  33) = (   3.2959121   3.0085915  11.2438341  )
        34           O1  tau(  34) = (   0.0092240   2.9805883  10.6323155  )
        35           O1  tau(  35) = (   1.2849535   4.4488585  12.6204231  )
        36           O1  tau(  36) = (   5.2878833   4.4365118  12.6243745  )
        37           Ti1 tau(  37) = (   0.0500071   0.0677371  12.6535751  )
        38           Ti1 tau(  38) = (   3.3027700   4.3871210  12.4110406  )
        39           O1  tau(  39) = (   6.5685058   2.9535060  14.6525041  )
        40           O1  tau(  40) = (   3.2696111   2.9719761  13.8704823  )
        41           O1  tau(  41) = (   4.5209813   4.4409030  16.0696701  )
        42           O1  tau(  42) = (   2.0131998   4.4599944  16.0916020  )
        43           Ti1 tau(  43) = (   3.2138439   0.0230873  16.3295100  )
        44           Ti1 tau(  44) = (   6.5234412   4.6200706  16.0754176  )
        45           O1  tau(  45) = (   3.2900926   2.9813045   4.7018136  )
        46           O1  tau(  46) = (   1.3039711   4.4726057   6.0039043  )
        47           O1  tau(  47) = (   5.2763189   4.4711207   6.0039473  )
        48           N1  tau(  48) = (   0.0251376   2.9556585  17.3246074  )
        49           N1  tau(  49) = (   6.3772498   2.5461882  22.2688425  )
        50           C1  tau(  50) = (   0.2111848   2.8484408  18.7116211  )
        51           H1  tau(  51) = (   0.3920758   3.8074029  19.2116250  )
        52           H1  tau(  52) = (   5.8944209   2.3708277  19.1722604  )
        53           H1  tau(  53) = (   1.0233575   2.1342068  18.9364007  )
        54           H1  tau(  54) = (   6.0930523   3.2289774  22.9628454  )
        55           H1  tau(  55) = (   0.2277240   1.7755739  22.7685771  )
        56           H1  tau(  56) = (   0.5282093   2.9785696  21.7129995  )
        57           O1  tau(  57) = (   3.3838229   0.0530270  18.1522483  )
        58           H1  tau(  58) = (   4.2718821   5.8932998  18.5223319  )

     number of k points=    10  Fermi-Dirac smearing, width (Ry)=  0.0073
                       cart. coord. in units 2pi/alat
        k(    1) = (   0.0000000   0.0000000   0.0000000), wk =   0.1250000
        k(    2) = (   0.0000000   0.0419351   0.0000000), wk =   0.2500000
        k(    3) = (   0.0000000  -0.0838702   0.0000000), wk =   0.1250000
        k(    4) = (   0.0379955   0.0000049   0.0000000), wk =   0.2500000
        k(    5) = (   0.0379955   0.0419400   0.0000000), wk =   0.2500000
        k(    6) = (   0.0379955  -0.0838652   0.0000000), wk =   0.2500000
        k(    7) = (   0.0379955  -0.0419301   0.0000000), wk =   0.2500000
        k(    8) = (  -0.0759910  -0.0000099   0.0000000), wk =   0.1250000
        k(    9) = (  -0.0759910   0.0419252   0.0000000), wk =   0.2500000
        k(   10) = (  -0.0759910  -0.0838800   0.0000000), wk =   0.1250000

     Initial potential from superposition of free atoms

     starting charge  388.99913, renormalised to  405.00000

     negative rho (up, down):  7.828E-03 0.000E+00

     %%%%%%%%%%%%%%%%%%%%%%%%%%%%%%%%%%%%%%%%%%%%%%%%%%%%%%%%%%%%%%%%%%%%%%%%
     %                                                                      %
     % You are using vdW-DF, which was implemented by the Thonhauser group. %
     % Please cite the following two papers that made this development      %
     % possible and the two reviews that describe the various versions:     %
     %                                                                      %
     %   T. Thonhauser et al., PRL 115, 136402 (2015).                      %
     %   T. Thonhauser et al., PRB 76, 125112 (2007).                       %
     %   K. Berland et al., Rep. Prog. Phys. 78, 066501 (2015).             %
     %   D.C. Langreth et al., J. Phys.: Condens. Matter 21, 084203 (2009). %
     %                                                                      %
     %                                                                      %
     % If you are calculating the stress with vdW-DF, please also cite:     %
     %                                                                      %
     %   R. Sabatini et al., J. Phys.: Condens. Matter 24, 424209 (2012).   %
     %                                                                      %
     %%%%%%%%%%%%%%%%%%%%%%%%%%%%%%%%%%%%%%%%%%%%%%%%%%%%%%%%%%%%%%%%%%%%%%%%

     Adding external electric field

     Computed dipole along edir(3) :
        Dipole              -15.1933 Ry au,        -38.6176 Debye
        Dipole field         -0.0287 Ry au,

        Potential amp.        2.6578 Ry
        Total length         46.3494 bohr

     Starting wfcs are  307 atomic wfcs
  @ DRIVER MODE: Message from server: STATUS
  @ DRIVER MODE: Message from server: POSDATA
  @ DRIVER MODE: Reading and sharing cell
  @ DRIVER MODE: Reading and sharing positions
  @ DRIVER MODE: Received positions

     Self-consistent Calculation

     iteration #  1     ecut=    29.40 Ry     beta= 0.05
     Davidson diagonalization with overlap
     c_bands:  5 eigenvalues not converged
     c_bands:  1 eigenvalues not converged
     c_bands:  1 eigenvalues not converged
     c_bands:  2 eigenvalues not converged
     c_bands:  1 eigenvalues not converged
     c_bands:  2 eigenvalues not converged
     ethr =  1.00E-05,  avg # of iterations = 31.5

[...]

     total energy              =   -2295.08253435 Ry
     estimated scf accuracy    <    7743.77775584 Ry

     iteration #  2     ecut=    29.40 Ry     beta= 0.05
     Davidson diagonalization with overlap
     ethr =  1.00E-02,  avg # of iterations = 22.6

[...]

     iteration # 49     ecut=    29.40 Ry     beta= 0.05
     Davidson diagonalization with overlap
     c_bands:  1 eigenvalues not converged
     ethr =  2.61E-07,  avg # of iterations =  6.1

[...]

     total energy              =   -2976.42346797 Ry
     estimated scf accuracy    <       0.00000010 Ry

     iteration # 72     ecut=    29.40 Ry     beta= 0.05
     Davidson diagonalization with overlap
     ethr =  2.56E-11,  avg # of iterations =  4.5

     negative rho (up, down):  9.590E-03 0.000E+00

     Adding external electric field

     Computed dipole along edir(3) :
        Dipole                0.6348 Ry au,          1.6136 Debye
        Dipole field          0.0012 Ry au,

        Potential amp.       -0.1111 Ry
        Total length         46.3494 bohr

     End of self-consistent calculation

          k = 0.0000 0.0000 0.0000 ( 18029 PWs)   bands (ev):

   -56.5655 -56.5320 -55.6413 -55.6062 -55.4254 -55.3589 -55.2305 -55.1167
   -55.0828 -55.0354 -55.0035 -54.9691 -54.9110 -54.8173 -54.7459 -54.6135
   -32.9842 -32.8359 -32.8079 -32.7449 -32.6547 -32.6113 -32.1231 -31.9003
   -31.8616 -31.8401 -31.7855 -31.7777 -31.7524 -31.6588 -31.6385 -31.5938
   -31.5620 -31.5462 -31.5223 -31.5103 -31.5046 -31.4943 -31.4637 -31.4625
   -31.4392 -31.4209 -31.3556 -31.3207 -31.2988 -31.2927 -31.2404 -31.2330
   -31.2162 -31.1944 -31.1819 -31.1666 -31.1594 -31.1289 -31.1238 -31.0920
   -31.0477 -31.0031 -31.0022 -30.9810 -30.9481 -30.8877 -30.8511 -30.8007
   -16.6688 -16.1109 -16.0879 -15.8820 -15.7594 -15.7544 -15.7111 -15.6426
   -15.4730 -15.4047 -15.3760 -15.3148 -15.1709 -15.0550 -14.9578 -14.7781
   -14.7044 -14.6992 -14.6802 -14.6729 -14.6559 -14.6353 -14.5761 -14.5176
   -14.4754 -14.4101 -14.3667 -14.2209 -14.0200 -13.9949 -13.9506 -13.6141
   -13.5071 -13.5005  -7.7183  -4.2442  -4.0306  -4.0113  -3.6986  -3.5776
    -3.4049  -3.2523  -3.1958  -3.1442  -3.0843  -3.0754  -2.9269  -2.9250
    -2.9131  -2.9011  -2.8288  -2.7693  -2.7051  -2.6184  -2.6028  -2.5083
    -2.4617  -2.3023  -2.2764  -2.1754  -2.1032  -2.0978  -2.0315  -2.0088
    -1.9616  -1.9159  -1.9072  -1.8724  -1.8286  -1.7820  -1.7632  -1.6522
    -1.6448  -1.5795  -1.5729  -1.5506  -1.4372  -1.4169  -1.3473  -1.2019
    -1.1806  -1.1774  -1.1300  -1.1129  -1.0311  -0.9349  -0.8678  -0.8412
    -0.7849  -0.6967  -0.6500  -0.6282  -0.5559  -0.5363  -0.4620  -0.4185
    -0.4053  -0.3851  -0.3430  -0.2286  -0.1416  -0.1089  -0.0551  -0.0297
     0.0030   0.0298   0.0491   0.0977   0.1674   0.2540   0.2744   0.4130
     0.4652   0.5020   0.5776   0.6119   0.6182   0.7074   0.7390   0.7685
     0.8150   0.8897   0.9044   0.9052   0.9642   1.0482   1.1030   1.1574
     1.1672   1.2033   1.2114   1.2621   1.3508   1.3714   1.4409   1.4958
     1.8205   1.8819   2.4844   2.7288   2.9002   3.1771   3.3691   3.6725
     3.7147   3.7326   3.7327   4.0383

[...]

          k = 0.0380-0.0419 0.0000 ( 17876 PWs)   bands (ev):

[...]

          k =-0.0760-0.0000 0.0000 ( 17886 PWs)   bands (ev):

[...]

          k =-0.0760-0.0839 0.0000 ( 17948 PWs)   bands (ev):

   -56.5494 -56.5480 -55.6289 -55.6185 -55.4208 -55.3635 -55.2297 -55.1003
   -55.0991 -55.0305 -55.0042 -54.9737 -54.9094 -54.8159 -54.7475 -54.6149
   -32.8225 -32.8209 -32.8022 -32.8008 -32.6990 -32.6979 -31.9476 -31.9385
   -31.8234 -31.8181 -31.8122 -31.8105 -31.7202 -31.6773 -31.6521 -31.6390
   -31.5893 -31.5876 -31.5014 -31.4743 -31.4645 -31.4527 -31.4518 -31.3697
   -31.3503 -31.3204 -31.3189 -31.3018 -31.2946 -31.2847 -31.2806 -31.2801
   -31.2521 -31.2330 -31.2152 -31.2005 -31.1964 -31.1585 -31.1583 -31.1024
   -31.0911 -31.0507 -31.0069 -30.9954 -30.9592 -30.9528 -30.8531 -30.8360
   -16.0759 -16.0272 -16.0254 -15.9818 -15.9803 -15.7186 -15.7141 -15.4638
   -15.4344 -15.2554 -15.1513 -15.1272 -15.0838 -15.0421 -14.9712 -14.9170
   -14.8873 -14.8553 -14.8292 -14.7671 -14.7373 -14.6329 -14.6002 -14.5526
   -14.5164 -14.4545 -14.4134 -14.3643 -14.1765 -14.1332 -13.9500 -13.6117
   -13.6111 -13.5254  -7.7173  -4.0413  -4.0114  -3.6895  -3.1522  -3.1031
    -3.0988  -3.0664  -3.0592  -2.9701  -2.8526  -2.8494  -2.7512  -2.6475
    -2.6210  -2.5981  -2.5376  -2.5279  -2.4281  -2.3782  -2.3733  -2.3592
    -2.3229  -2.2932  -2.2867  -2.2269  -2.0884  -2.0725  -2.0233  -1.9692
    -1.8944  -1.8861  -1.8767  -1.8400  -1.7984  -1.7731  -1.7621  -1.7349
    -1.7301  -1.7257  -1.6165  -1.5113  -1.4640  -1.3704  -1.3662  -1.3572
    -1.3194  -1.2921  -1.2590  -1.2522  -1.2235  -1.1434  -1.1172  -1.0475
    -0.9333  -0.9159  -0.8741  -0.8258  -0.7220  -0.7039  -0.6142  -0.5776
    -0.5664  -0.5068  -0.4780  -0.4619  -0.4039  -0.3647  -0.2330  -0.1931
    -0.1815  -0.1646  -0.1422  -0.1060  -0.0446   0.0167   0.0485   0.0506
     0.1550   0.2548   0.3430   0.4118   0.4211   0.4444   0.5308   0.6359
     0.6772   0.7019   0.7503   0.8739   0.9916   1.0213   1.1267   1.1533
     1.1624   1.2631   1.2811   1.2862   1.3063   1.3155   1.3503   1.4168
     1.4776   1.7650   2.3176   3.3213   3.3245   3.3825   3.3882   3.6990
     3.7013   3.8124   3.8175   4.1357

     the Fermi energy is     2.3943 ev

!    total energy              =   -2976.42349077 Ry
     estimated scf accuracy    <       0.00000006 Ry
     smearing contrib. (-TS)   =      -0.01084225 Ry
     internal energy E=F+TS    =   -2976.41264852 Ry

     The total energy is F=E-TS. E is the sum of the following terms:
     one-electron contribution =  -22707.47571817 Ry
     hartree contribution      =   11450.09248068 Ry
     xc contribution           =    -495.33817603 Ry
     ewald contribution        =    8776.30800444 Ry
     electric field correction =       0.00076056 Ry

     convergence has been achieved in  72 iterations

     Forces acting on atoms (cartesian axes, Ry/au):

     atom    1 type  1   force =     0.00002597   -0.00051962    0.12630077
     atom    2 type  1   force =    -0.00009379    0.00041483   -0.15468967
     atom    3 type  2   force =     0.00002740    0.00002626   -0.06829423
     atom    4 type  2   force =     0.00005897   -0.00010878    0.01703811
     atom    5 type  2   force =    -0.00487336   -0.00242828   -0.01324263
     atom    6 type  2   force =     0.00655514   -0.00180704   -0.01375942
     atom    7 type  1   force =    -0.00029641   -0.00661149    0.05920363
     atom    8 type  1   force =     0.00038499    0.00687006    0.10029274
     atom    9 type  2   force =    -0.00002286    0.00066632    0.00129371
     atom   10 type  2   force =    -0.00261580   -0.00001364   -0.06338118
     atom   11 type  2   force =     0.00044635   -0.00068530   -0.00028053
     atom   12 type  2   force =    -0.00086041   -0.00112463   -0.00109458
     atom   13 type  1   force =    -0.00030143    0.00070638   -0.00139720
     atom   14 type  1   force =    -0.00033197   -0.00039511   -0.00024478
     atom   15 type  2   force =    -0.00065535   -0.00038853   -0.00058360
     atom   16 type  2   force =     0.00019263    0.00092321   -0.00028354
     atom   17 type  2   force =     0.00078398    0.00008434   -0.00051461
     atom   18 type  2   force =    -0.00020733   -0.00016969   -0.00001176
     atom   19 type  1   force =    -0.00018254   -0.00011876   -0.00094052
     atom   20 type  1   force =     0.00070203    0.00081316   -0.00047730
     atom   21 type  2   force =     0.00006167    0.00015690    0.09778372
     atom   22 type  2   force =     0.00041131   -0.00034231    0.00141414
     atom   23 type  2   force =    -0.08275407    0.00005457   -0.03313684
     atom   24 type  2   force =     0.08269616    0.00050248   -0.03321208
     atom   25 type  1   force =     0.00006764   -0.00035215    0.12644792
     atom   26 type  1   force =    -0.00011187   -0.00149337   -0.15486437
     atom   27 type  2   force =     0.00011442   -0.00046880   -0.06667116
     atom   28 type  2   force =     0.00004895    0.00167268    0.01197590
     atom   29 type  2   force =    -0.00342667    0.00422015   -0.01621657
     atom   30 type  2   force =     0.00505455    0.00456323   -0.01662004
     atom   31 type  1   force =    -0.00015813    0.00217672    0.04253485
     atom   32 type  1   force =     0.00044026   -0.00893837    0.10086464
     atom   33 type  2   force =    -0.00048451   -0.00013937   -0.00040548
     atom   34 type  2   force =    -0.00212636   -0.00026246   -0.07624440
     atom   35 type  2   force =    -0.00009163    0.00070452    0.00086305
     atom   36 type  2   force =    -0.00050283    0.00052380    0.00038957
     atom   37 type  1   force =     0.00043500    0.00060653   -0.00018659
     atom   38 type  1   force =    -0.00041921   -0.00067020   -0.00067989
     atom   39 type  2   force =     0.00045334   -0.00031706   -0.00039982
     atom   40 type  2   force =     0.00036837   -0.00062464   -0.00001148
     atom   41 type  2   force =     0.00023700    0.00050540   -0.00002311
     atom   42 type  2   force =    -0.00021602   -0.00018399    0.00015440
     atom   43 type  1   force =     0.00052642    0.00134693   -0.00099167
     atom   44 type  1   force =    -0.00030088   -0.00101261    0.00084103
     atom   45 type  2   force =     0.00009281   -0.00001446    0.09763137
     atom   46 type  2   force =    -0.08280057    0.00003842   -0.03318862
     atom   47 type  2   force =     0.08270837    0.00045666   -0.03319614
     atom   48 type  3   force =     0.00015736    0.00049441    0.00063276
     atom   49 type  3   force =     0.00012770   -0.00001981   -0.00096724
     atom   50 type  4   force =    -0.00573466   -0.00266661    0.00294796
     atom   51 type  5   force =    -0.00020015   -0.00031857   -0.00050604
     atom   52 type  5   force =     0.00755622    0.00418105   -0.00353368
     atom   53 type  5   force =    -0.00106724    0.00002399    0.00076934
     atom   54 type  5   force =    -0.00008044   -0.00005606    0.00004879
     atom   55 type  5   force =     0.00033709    0.00015072    0.00011929
     atom   56 type  5   force =     0.00010308   -0.00006386    0.00018812
     atom   57 type  2   force =    -0.00180585   -0.00055954    0.00039139
     atom   58 type  5   force =     0.00154721   -0.00000860    0.00012357

     Total force =     0.420804     Total SCF correction =     0.000528
  @ DRIVER MODE: Message from server: STATUS
  @ DRIVER MODE: Message from server: GETFORCE
  @ DRIVER MODE: Returning v,forces,stress,ensemble

     Writing output data file ./calc.save/
  @ DRIVER MODE: Message from server: EXIT
  @ DRIVE MODE: Exiting

     General routines

     Parallel routines

   This run was terminated on:   1:18:59  23Sep2021

   JOB DONE.