     Program PWSCF v.6.7GPU starts on 22Sep2021 at  2:40:58

     R & G space division:  proc/nbgrp/npool/nimage =      10
     Reading input from /storage/home/hcoda1/3/ntian30/research/carbon/CxH_vib/CH_calc/ads_slab/CHNHNH2H2O_b/out_0013/pw.inp
Warning: card &CELL ignored
Warning: card   CELL_DYNAMICS='IPI', ignored
Warning: card / ignored

     Current dimensions of program PWSCF are:
     Max number of different atomic species (ntypx) = 10
     Max number of k-points (npk) =  40000
     Max angular momentum in pseudopotentials (lmaxx) =  3
     Presently no symmetry can be used with electric field

     Message from routine cell_base_init:
     DEPRECATED: use true lattice parameter, not A to a.u. conversion factor

     IMPORTANT: XC functional enforced from input :
     Exchange-correlation= BEEF-VDW
                           (   1   4  43  14   2   0   0)
     Any further DFT definition will be discarded
     Please, verify this is what you really want

  @ DRIVER MODE: Connecting to
 qe_1139763_2927425.sched-torque.pace.gatech.eduvz807h3c_scratch
  using UNIX socket
  @ DRIVER MODE: Message from server: STATUS
  @ DRIVER MODE: Message from server: INIT
  @ DRIVER MODE: Receiving replica           0          -1
  @ DRIVER MODE: Receiving encoded integer          25
  @ DRIVER MODE:  SCF:  T  FORCE:  T  STRESS:  F  VC:  F  ENSEMBLE:  F
  @ DRIVER MODE:  SCF:  T  FORCE:  T  STRESS:  F  VC:  F  ENSEMBLE:  F

     Using Slab Decomposition

     bravais-lattice index     =            0
     lattice parameter (alat)  =       1.8897  a.u.
     unit-cell volume          =    6658.9804 (a.u.)^3
     number of atoms/cell      =           57
     number of atomic types    =            5
     number of electrons       =       404.00
     number of Kohn-Sham states=          212
     kinetic-energy cutoff     =      29.3995  Ry
     charge density cutoff     =     293.9946  Ry
     scf convergence threshold =      7.3E-08
     mixing beta               =       0.0500
     number of iterations used =            8  plain     mixing
     Exchange-correlation= BEEF-VDW
                           (   1   4  43  14   2   0   0)

     celldm(1)=   1.889726  celldm(2)=   0.000000  celldm(3)=   0.000000
     celldm(4)=   0.000000  celldm(5)=   0.000000  celldm(6)=   0.000000

     crystal axes: (cart. coord. in units of alat)
               a(1) = (   6.579727   0.000000   0.000000 )
               a(2) = (  -0.000775   5.961596   0.000000 )
               a(3) = (   0.000000   0.000000  25.155947 )

     reciprocal axes: (cart. coord. in units 2 pi/alat)
               b(1) = (  0.151982  0.000020  0.000000 )
               b(2) = (  0.000000  0.167740  0.000000 )
               b(3) = (  0.000000  0.000000  0.039752 )

     PseudoPot. # 1 for Ti read from file:
     /storage/coda1/p-amedford6/0/shared/rich_project_chbe-medford/medford-share/data/pseudos_module/espresso/nninc/pbe/van/Ti.UPF
     MD5 check sum: 8e4df49b7f0d34bbd5052bf3f5ea0213
     Pseudo is Ultrasoft, Zval = 12.0
     Generated by new atomic code, or converted to UPF format
     Using radial grid of  851 points,  6 beta functions with:
                l(1) =   0
                l(2) =   0
                l(3) =   1
                l(4) =   1
                l(5) =   2
                l(6) =   2
     Q(r) pseudized with  8 coefficients,  rinner =    1.000   1.000   1.000
                                                       1.000   1.000

     PseudoPot. # 2 for O  read from file:
     /storage/coda1/p-amedford6/0/shared/rich_project_chbe-medford/medford-share/data/pseudos_module/espresso/nninc/pbe/van/O.UPF
     MD5 check sum: 78c19812648e8988a0fe644b0f25305e
     Pseudo is Ultrasoft, Zval =  6.0
     Generated by new atomic code, or converted to UPF format
     Using radial grid of  737 points,  4 beta functions with:
                l(1) =   0
                l(2) =   0
                l(3) =   1
                l(4) =   1
     Q(r) pseudized with  8 coefficients,  rinner =    0.800   0.800   0.800

     PseudoPot. # 3 for N  read from file:
     /storage/coda1/p-amedford6/0/shared/rich_project_chbe-medford/medford-share/data/pseudos_module/espresso/nninc/pbe/van/N.UPF
     MD5 check sum: 90d10febe142ad51ac9d5be1deb811c4
     Pseudo is Ultrasoft, Zval =  5.0
     Generated by new atomic code, or converted to UPF format
     Using radial grid of  729 points,  4 beta functions with:
                l(1) =   0
                l(2) =   0
                l(3) =   1
                l(4) =   1
     Q(r) pseudized with  8 coefficients,  rinner =    0.800   0.800   0.800

     PseudoPot. # 4 for C  read from file:
     /storage/coda1/p-amedford6/0/shared/rich_project_chbe-medford/medford-share/data/pseudos_module/espresso/nninc/pbe/van/C.UPF
     MD5 check sum: 1a69bf6b8db32088f5b2163dbdb77a27
     Pseudo is Ultrasoft, Zval =  4.0
     Generated by new atomic code, or converted to UPF format
     Using radial grid of  721 points,  4 beta functions with:
                l(1) =   0
                l(2) =   0
                l(3) =   1
                l(4) =   1
     Q(r) pseudized with  8 coefficients,  rinner =    0.800   0.800   0.800

     PseudoPot. # 5 for H  read from file:
     /storage/coda1/p-amedford6/0/shared/rich_project_chbe-medford/medford-share/data/pseudos_module/espresso/nninc/pbe/van/H.UPF
     MD5 check sum: b5ee9d7bfd3a09ee7748110bda690ff7
     Pseudo is Ultrasoft, Zval =  1.0
     Generated by new atomic code, or converted to UPF format
     Using radial grid of  615 points,  1 beta functions with:
                l(1) =   0
     Q(r) pseudized with  8 coefficients,  rinner =    0.800

     atomic species   valence    mass     pseudopotential
        Ti1           12.00    47.86700     Ti( 1.00)
        O1             6.00    15.99900     O ( 1.00)
        N1             5.00    14.00700     N ( 1.00)
        C1             4.00    12.01100     C ( 1.00)
        H1             1.00     1.00800     H ( 1.00)

     No symmetry found

   Cartesian axes

     site n.     atom                  positions (alat units)
         1           Ti1 tau(   1) = (   0.0004258   2.9801865   6.0000000  )
         2           Ti1 tau(   2) = (   3.2906075   1.4906267   6.0002472  )
         3           O1  tau(   3) = (   0.0006271   0.0005054   7.9858123  )
         4           O1  tau(   4) = (   3.2906025   0.0005020   7.3038282  )
         5           O1  tau(   5) = (   4.5942328   1.4918067   9.2879030  )
         6           O1  tau(   6) = (   1.9868534   1.4903216   9.2879459  )
         7           Ti1 tau(   7) = (   3.2907910   2.8959150   9.1758416  )
         8           Ti1 tau(   8) = (   0.0015273   1.4827037   9.2680791  )
         9           O1  tau(   9) = (   3.3066417   5.9496923  11.3845403  )
        10           O1  tau(  10) = (   0.0116148   5.9584955  10.6183126  )
        11           O1  tau(  11) = (   1.3010148   1.4986442  12.6442229  )
        12           O1  tau(  12) = (   5.3085967   1.5001388  12.6592367  )
        13           Ti1 tau(  13) = (   0.0282779   2.9853959  12.5065338  )
        14           Ti1 tau(  14) = (   3.3279724   1.4707331  12.5413945  )
        15           O1  tau(  15) = (   0.0378505   0.0859181  14.6860672  )
        16           O1  tau(  16) = (   3.3018867   0.0259462  14.0338077  )
        17           O1  tau(  17) = (   4.5998927   1.5484098  16.1661054  )
        18           O1  tau(  18) = (   2.0454451   1.5021798  16.2221046  )
        19           Ti1 tau(  19) = (   3.3206312   2.9825829  15.7321521  )
        20           Ti1 tau(  20) = (   0.0140791   1.4435866  15.9983415  )
        21           O1  tau(  21) = (   3.2904802   0.0005063   4.7018136  )
        22           O1  tau(  22) = (   6.5273045   5.8164216  17.2577718  )
        23           O1  tau(  23) = (   1.3043587   1.4918075   6.0039043  )
        24           O1  tau(  24) = (   5.2767064   1.4903225   6.0039473  )
        25           Ti1 tau(  25) = (   0.0000382   5.9609847   6.0000000  )
        26           Ti1 tau(  26) = (   3.2902200   4.4714249   6.0002472  )
        27           O1  tau(  27) = (   0.0002396   2.9813036   7.9858123  )
        28           O1  tau(  28) = (   3.2902150   2.9813002   7.3038282  )
        29           O1  tau(  29) = (   4.5938453   4.4726049   9.2879030  )
        30           O1  tau(  30) = (   1.9864658   4.4711199   9.2879459  )
        31           Ti1 tau(  31) = (   3.2891106   5.8743827   9.1763621  )
        32           Ti1 tau(  32) = (   0.0006254   4.4649316   9.2693709  )
        33           O1  tau(  33) = (   3.3068470   2.9864458  11.3814114  )
        34           O1  tau(  34) = (   0.0092240   2.9805883  10.6323155  )
        35           O1  tau(  35) = (   1.2982948   4.4740332  12.6840172  )
        36           O1  tau(  36) = (   5.3097620   4.4704985  12.6972095  )
        37           Ti1 tau(  37) = (   0.0348817   0.0130325  12.4954113  )
        38           Ti1 tau(  38) = (   3.3270268   4.4633798  12.5435021  )
        39           O1  tau(  39) = (   0.0563025   2.9439880  14.9425960  )
        40           O1  tau(  40) = (   3.2900316   2.9661073  13.9503945  )
        41           O1  tau(  41) = (   4.5967999   4.4093095  16.0633277  )
        42           O1  tau(  42) = (   2.0412097   4.4536800  16.1303113  )
        43           Ti1 tau(  43) = (   3.2964201   5.9600488  15.8742613  )
        44           Ti1 tau(  44) = (   0.0241369   4.6516137  15.8518307  )
        45           O1  tau(  45) = (   3.2900926   2.9813045   4.7018136  )
        46           O1  tau(  46) = (   1.3039711   4.4726057   6.0039043  )
        47           O1  tau(  47) = (   5.2763189   4.4711207   6.0039473  )
        48           N1  tau(  48) = (   1.4509408   2.7109095  18.7602185  )
        49           N1  tau(  49) = (   0.0917387   2.5303350  18.2207845  )
        50           C1  tau(  50) = (   1.9403960   3.7723240  19.2784661  )
        51           H1  tau(  51) = (   1.1612915   4.5273475  19.4152495  )
        52           H1  tau(  52) = (   2.0208952   1.9183395  18.4664618  )
        53           H1  tau(  53) = (   6.1377449   3.3539424  18.4987646  )
        54           H1  tau(  54) = (   6.2616785   1.7135167  18.6767212  )
        55           O1  tau(  55) = (   3.7012217   5.9496235  18.2853534  )
        56           H1  tau(  56) = (   4.6684668   5.8470116  18.1670174  )
        57           H1  tau(  57) = (   3.3852657   5.1278045  18.7338684  )

     number of k points=    10  Fermi-Dirac smearing, width (Ry)=  0.0073
                       cart. coord. in units 2pi/alat
        k(    1) = (   0.0000000   0.0000000   0.0000000), wk =   0.1250000
        k(    2) = (   0.0000000   0.0419351   0.0000000), wk =   0.2500000
        k(    3) = (   0.0000000  -0.0838702   0.0000000), wk =   0.1250000
        k(    4) = (   0.0379955   0.0000049   0.0000000), wk =   0.2500000
        k(    5) = (   0.0379955   0.0419400   0.0000000), wk =   0.2500000
        k(    6) = (   0.0379955  -0.0838652   0.0000000), wk =   0.2500000
        k(    7) = (   0.0379955  -0.0419301   0.0000000), wk =   0.2500000
        k(    8) = (  -0.0759910  -0.0000099   0.0000000), wk =   0.1250000
        k(    9) = (  -0.0759910   0.0419252   0.0000000), wk =   0.2500000
        k(   10) = (  -0.0759910  -0.0838800   0.0000000), wk =   0.1250000

     Initial potential from superposition of free atoms

     starting charge  387.99913, renormalised to  404.00000

     negative rho (up, down):  1.598E-02 0.000E+00

     %%%%%%%%%%%%%%%%%%%%%%%%%%%%%%%%%%%%%%%%%%%%%%%%%%%%%%%%%%%%%%%%%%%%%%%%
     %                                                                      %
     % You are using vdW-DF, which was implemented by the Thonhauser group. %
     % Please cite the following two papers that made this development      %
     % possible and the two reviews that describe the various versions:     %
     %                                                                      %
     %   T. Thonhauser et al., PRL 115, 136402 (2015).                      %
     %   T. Thonhauser et al., PRB 76, 125112 (2007).                       %
     %   K. Berland et al., Rep. Prog. Phys. 78, 066501 (2015).             %
     %   D.C. Langreth et al., J. Phys.: Condens. Matter 21, 084203 (2009). %
     %                                                                      %
     %                                                                      %
     % If you are calculating the stress with vdW-DF, please also cite:     %
     %                                                                      %
     %   R. Sabatini et al., J. Phys.: Condens. Matter 24, 424209 (2012).   %
     %                                                                      %
     %%%%%%%%%%%%%%%%%%%%%%%%%%%%%%%%%%%%%%%%%%%%%%%%%%%%%%%%%%%%%%%%%%%%%%%%

     Adding external electric field

     Computed dipole along edir(3) :
        Dipole              -14.3585 Ry au,        -36.4957 Debye
        Dipole field         -0.0271 Ry au,

        Potential amp.        2.5118 Ry
        Total length         46.3494 bohr

     Starting wfcs are  306 atomic wfcs
  @ DRIVER MODE: Message from server: STATUS
  @ DRIVER MODE: Message from server: POSDATA
  @ DRIVER MODE: Reading and sharing cell
  @ DRIVER MODE: Reading and sharing positions
  @ DRIVER MODE: Received positions

     Self-consistent Calculation

     iteration #  1     ecut=    29.40 Ry     beta= 0.05
     Davidson diagonalization with overlap
     c_bands:  3 eigenvalues not converged
     c_bands:  4 eigenvalues not converged
     c_bands:  4 eigenvalues not converged
     c_bands:  4 eigenvalues not converged
     c_bands:  5 eigenvalues not converged
     c_bands:  3 eigenvalues not converged
     c_bands:  2 eigenvalues not converged
     c_bands:  4 eigenvalues not converged
     ethr =  1.00E-05,  avg # of iterations = 21.9

[...]

     total energy              =   -2220.90350570 Ry
     estimated scf accuracy    <    8587.42322507 Ry

     iteration #  2     ecut=    29.40 Ry     beta= 0.05
     Davidson diagonalization with overlap
     ethr =  1.00E-02,  avg # of iterations = 29.6

[...]

     iteration # 75     ecut=    29.40 Ry     beta= 0.05
     Davidson diagonalization with overlap
     c_bands:  1 eigenvalues not converged
     ethr =  2.72E-10,  avg # of iterations = 10.1

[...]

     total energy              =   -2975.10517809 Ry
     estimated scf accuracy    <       0.00000015 Ry

     iteration # 80     ecut=    29.40 Ry     beta= 0.05
     Davidson diagonalization with overlap
     ethr =  3.76E-11,  avg # of iterations =  5.3

     negative rho (up, down):  1.579E-02 0.000E+00

     Adding external electric field

     Computed dipole along edir(3) :
        Dipole                1.0251 Ry au,          2.6055 Debye
        Dipole field          0.0019 Ry au,

        Potential amp.       -0.1793 Ry
        Total length         46.3494 bohr

     End of self-consistent calculation

          k = 0.0000 0.0000 0.0000 ( 18029 PWs)   bands (ev):

   -55.3844 -55.3486 -55.3444 -55.3103 -55.3073 -55.3017 -55.2663 -55.2310
   -55.2160 -55.1811 -55.1743 -55.1593 -55.1406 -55.1116 -54.3757 -54.3416
   -31.9434 -31.8795 -31.8371 -31.7561 -31.7073 -31.7046 -31.6802 -31.6775
   -31.6332 -31.5975 -31.5906 -31.5890 -31.5822 -31.5789 -31.5607 -31.5584
   -31.5337 -31.5258 -31.5229 -31.5115 -31.4971 -31.4905 -31.4720 -31.4670
   -31.4585 -31.4456 -31.4449 -31.4161 -31.4017 -31.3980 -31.3949 -31.3727
   -31.3689 -31.3648 -31.3613 -31.3403 -31.3291 -31.3172 -31.3023 -31.3020
   -31.2920 -31.2854 -30.7851 -30.6906 -30.6686 -30.6016 -30.5148 -30.4037
   -18.8955 -18.4582 -16.2193 -15.9720 -15.8359 -15.7315 -15.5940 -15.4959
   -15.3867 -15.2735 -15.2504 -15.1568 -15.0823 -15.0787 -15.0415 -15.0156
   -14.9528 -14.9314 -14.9077 -14.9018 -14.8871 -14.8770 -14.8405 -14.8295
   -14.7974 -14.7856 -14.7683 -14.6533 -14.6261 -14.5510 -14.4804 -14.3439
   -12.8782 -12.7607  -9.8579  -6.9942  -6.3800  -6.0922  -4.4845  -3.7442
    -3.5434  -3.4095  -3.3317  -3.3037  -3.2848  -3.1533  -3.0615  -2.9018
    -2.8627  -2.8067  -2.6729  -2.5971  -2.5907  -2.5028  -2.4303  -2.4069
    -2.3739  -2.2651  -2.2585  -2.2093  -2.1913  -2.1681  -2.1589  -2.1125
    -2.0665  -2.0392  -1.9540  -1.8525  -1.8088  -1.7890  -1.7526  -1.7299
    -1.7254  -1.6815  -1.6752  -1.6519  -1.6129  -1.5885  -1.5432  -1.4310
    -1.3903  -1.2316  -1.1938  -1.0392  -1.0189  -0.9797  -0.9594  -0.9260
    -0.8932  -0.8765  -0.8624  -0.7713  -0.7130  -0.6475  -0.5829  -0.4925
    -0.4818  -0.4081  -0.3818  -0.3171  -0.2301  -0.1845  -0.1749  -0.1502
    -0.1469  -0.0332   0.0119   0.0719   0.0905   0.1481   0.1641   0.1861
     0.2561   0.3095   0.3792   0.4099   0.4890   0.5072   0.5423   0.5515
     0.5837   0.5943   0.6704   0.6853   0.7135   0.8162   0.9138   1.0085
     1.2180   1.2193   1.2813   1.5518   1.5540   1.6473   1.8306   2.2235
     2.2719   3.7055   3.7839   3.8333   3.8510   3.8555   3.9404   4.1950
     4.2093   4.2220   4.2281   4.2690

[...]

          k = 0.0380-0.0419 0.0000 ( 17876 PWs)   bands (ev):

[...]

          k =-0.0760-0.0000 0.0000 ( 17886 PWs)   bands (ev):

[...]

          k =-0.0760-0.0839 0.0000 ( 17948 PWs)   bands (ev):

   -55.3676 -55.3653 -55.3275 -55.3271 -55.3044 -55.3008 -55.2526 -55.2447
   -55.2017 -55.1950 -55.1611 -55.1584 -55.1567 -55.1134 -54.3587 -54.3585
   -31.7941 -31.7559 -31.7418 -31.6524 -31.6520 -31.6380 -31.6260 -31.6186
   -31.6183 -31.5977 -31.5927 -31.5895 -31.5666 -31.5589 -31.5471 -31.5330
   -31.5298 -31.5272 -31.5232 -31.5153 -31.5106 -31.5085 -31.5077 -31.4997
   -31.4678 -31.4664 -31.4472 -31.4469 -31.4467 -31.4420 -31.4390 -31.4345
   -31.4251 -31.4138 -31.4081 -31.3913 -31.3895 -31.3798 -31.3383 -31.3374
   -31.3368 -31.3181 -30.6814 -30.6811 -30.5976 -30.5975 -30.5583 -30.5581
   -18.8898 -18.4605 -15.8388 -15.6522 -15.5008 -15.4289 -15.4086 -15.3254
   -15.2702 -15.2670 -15.1939 -15.1759 -15.1634 -15.1419 -15.1320 -15.0846
   -15.0476 -15.0109 -14.9922 -14.9695 -14.9264 -14.9036 -14.9020 -14.8952
   -14.8875 -14.8473 -14.8419 -14.8386 -14.7469 -14.7449 -14.7116 -14.5613
   -12.8622 -12.8621  -9.8673  -6.9832  -6.3545  -6.0683  -4.4960  -3.6749
    -3.0258  -2.9104  -2.8999  -2.6711  -2.6523  -2.5915  -2.5790  -2.4909
    -2.4752  -2.4146  -2.3911  -2.3411  -2.3180  -2.2802  -2.2664  -2.2445
    -2.2234  -2.2097  -2.1835  -2.1671  -2.1506  -2.1307  -2.1194  -2.1081
    -2.0532  -2.0476  -2.0383  -2.0130  -1.9900  -1.9539  -1.9440  -1.9286
    -1.7722  -1.7565  -1.7353  -1.5995  -1.5952  -1.5621  -1.5210  -1.4935
    -1.4358  -1.4269  -1.3991  -1.3405  -1.1468  -1.1360  -1.1236  -1.1063
    -1.0351  -0.9795  -0.9654  -0.9477  -0.8938  -0.8157  -0.7822  -0.7293
    -0.6425  -0.5883  -0.5791  -0.5530  -0.4317  -0.4089  -0.3664  -0.3481
    -0.3321  -0.2975  -0.2959  -0.2396  -0.1863  -0.1504  -0.1274  -0.1131
    -0.0762   0.0784   0.1304   0.1469   0.2610   0.2906   0.4687   0.5112
     0.5331   0.6382   0.7216   0.7498   0.7640   0.8905   0.9120   0.9141
     0.9824   1.0045   1.0647   1.0705   1.2385   2.0033   2.0046   2.0918
     2.0920   3.8307   3.9534   3.9975   4.0335   4.1095   4.1621   4.2192
     4.2782   4.2900   4.2936   4.3615

     the Fermi energy is     3.7675 ev

!    total energy              =   -2975.10518552 Ry
     estimated scf accuracy    <       0.00000004 Ry
     smearing contrib. (-TS)   =      -0.03672052 Ry
     internal energy E=F+TS    =   -2975.06846499 Ry

     The total energy is F=E-TS. E is the sum of the following terms:
     one-electron contribution =  -23505.60143448 Ry
     hartree contribution      =   11848.82685520 Ry
     xc contribution           =    -494.92718183 Ry
     ewald contribution        =    9176.63131313 Ry
     electric field correction =       0.00198298 Ry

     convergence has been achieved in  80 iterations

     Forces acting on atoms (cartesian axes, Ry/au):

     atom    1 type  1   force =     0.00003194   -0.00025489    0.09309196
     atom    2 type  1   force =    -0.00018855   -0.00032723   -0.17838162
     atom    3 type  2   force =     0.00006215   -0.00016745   -0.02024138
     atom    4 type  2   force =     0.00001780   -0.00202733    0.05925513
     atom    5 type  2   force =    -0.01032754   -0.00110415    0.00809371
     atom    6 type  2   force =     0.01217144   -0.00054853    0.00817311
     atom    7 type  1   force =     0.00015225    0.00328501   -0.01112386
     atom    8 type  1   force =    -0.00030220    0.00053387   -0.00560974
     atom    9 type  2   force =     0.00004068    0.00017909   -0.00015293
     atom   10 type  2   force =    -0.00146316   -0.00003333   -0.00172270
     atom   11 type  2   force =     0.00038096   -0.00003489   -0.00005363
     atom   12 type  2   force =    -0.00009804    0.00010768   -0.00008329
     atom   13 type  1   force =    -0.00008752   -0.00017359   -0.00024684
     atom   14 type  1   force =    -0.00021080   -0.00036324    0.00034541
     atom   15 type  2   force =     0.00007174   -0.00051816    0.00008204
     atom   16 type  2   force =     0.00021670    0.00009115    0.00028891
     atom   17 type  2   force =     0.00030018   -0.00020070    0.00014527
     atom   18 type  2   force =    -0.00005508   -0.00011616   -0.00003336
     atom   19 type  1   force =    -0.00023008   -0.00044074   -0.00006199
     atom   20 type  1   force =     0.00004459    0.00043828    0.00069077
     atom   21 type  2   force =    -0.00000264   -0.00007312    0.10402537
     atom   22 type  2   force =    -0.00006143   -0.00010831   -0.00005007
     atom   23 type  2   force =    -0.07034286   -0.00015892   -0.02683273
     atom   24 type  2   force =     0.07021142    0.00028473   -0.02691269
     atom   25 type  1   force =     0.00002668   -0.00015055    0.09275264
     atom   26 type  1   force =    -0.00015815   -0.00039485   -0.17833614
     atom   27 type  2   force =     0.00011200   -0.00031373   -0.01918441
     atom   28 type  2   force =     0.00004668   -0.00164263    0.05840460
     atom   29 type  2   force =    -0.01027974   -0.00063987    0.00730201
     atom   30 type  2   force =     0.01201712   -0.00030853    0.00743662
     atom   31 type  1   force =     0.00007541    0.00514622   -0.01467335
     atom   32 type  1   force =    -0.00013959   -0.00051943   -0.00594935
     atom   33 type  2   force =     0.00012957   -0.00039480   -0.00023992
     atom   34 type  2   force =    -0.00078631    0.00260515   -0.00104164
     atom   35 type  2   force =    -0.00007155   -0.00011421   -0.00011630
     atom   36 type  2   force =     0.00023919    0.00000299   -0.00014313
     atom   37 type  1   force =    -0.00043337    0.00008519    0.00003049
     atom   38 type  1   force =    -0.00003908   -0.00024189   -0.00024227
     atom   39 type  2   force =    -0.00029813   -0.00021946   -0.00018465
     atom   40 type  2   force =    -0.00013723   -0.00005878   -0.00001801
     atom   41 type  2   force =    -0.00016025   -0.00013320    0.00037532
     atom   42 type  2   force =    -0.00007422   -0.00026588    0.00017203
     atom   43 type  1   force =     0.00005404   -0.00032583    0.00000849
     atom   44 type  1   force =    -0.00001852   -0.00005765    0.00015003
     atom   45 type  2   force =     0.00001214   -0.00011014    0.10399416
     atom   46 type  2   force =    -0.07036772   -0.00011790   -0.02685413
     atom   47 type  2   force =     0.07021514    0.00031768   -0.02691148
     atom   48 type  3   force =    -0.00455436   -0.00175459   -0.00142643
     atom   49 type  3   force =    -0.00236956   -0.00234288   -0.00097681
     atom   50 type  4   force =     0.01300924    0.00140684    0.00280728
     atom   51 type  5   force =    -0.00659901    0.00327244    0.00003324
     atom   52 type  5   force =     0.00041651   -0.00074366   -0.00004918
     atom   53 type  5   force =     0.00003468   -0.00005750    0.00000710
     atom   54 type  5   force =     0.00005863    0.00056143   -0.00019428
     atom   55 type  2   force =     0.00002506   -0.00032486    0.00068728
     atom   56 type  5   force =     0.00027479   -0.00034342   -0.00043637
     atom   57 type  5   force =    -0.00059207   -0.00009077    0.00013173

     Total force =     0.366563     Total SCF correction =     0.000470
  @ DRIVER MODE: Message from server: STATUS
  @ DRIVER MODE: Message from server: GETFORCE
  @ DRIVER MODE: Returning v,forces,stress,ensemble

     Writing output data file ./calc.save/
  @ DRIVER MODE: Message from server: EXIT
  @ DRIVE MODE: Exiting

     General routines

     Parallel routines

   This run was terminated on:   3: 2: 0  22Sep2021

   JOB DONE.