     Program PWSCF v.6.7GPU starts on 15Sep2021 at 21:34:16

     R & G space division:  proc/nbgrp/npool/nimage =      10
     Reading input from /storage/home/hcoda1/3/ntian30/research/carbon/CxH_vib/H2O_calc/ads_slab/CH2OHH2O_a/out_0019/pw.inp
Warning: card &CELL ignored
Warning: card   CELL_DYNAMICS='IPI', ignored
Warning: card / ignored

     Current dimensions of program PWSCF are:
     Max number of different atomic species (ntypx) = 10
     Max number of k-points (npk) =  40000
     Max angular momentum in pseudopotentials (lmaxx) =  3
     Presently no symmetry can be used with electric field

     Message from routine cell_base_init:
     DEPRECATED: use true lattice parameter, not A to a.u. conversion factor

     IMPORTANT: XC functional enforced from input :
     Exchange-correlation= BEEF-VDW
                           (   1   4  43  14   2   0   0)
     Any further DFT definition will be discarded
     Please, verify this is what you really want

  @ DRIVER MODE: Connecting to
 qe_1139763_2852615.sched-torque.pace.gatech.edup5oxpf3f_scratch
  using UNIX socket
  @ DRIVER MODE: Message from server: STATUS
  @ DRIVER MODE: Message from server: INIT
  @ DRIVER MODE: Receiving replica           0          -1
  @ DRIVER MODE: Receiving encoded integer          25
  @ DRIVER MODE:  SCF:  T  FORCE:  T  STRESS:  F  VC:  F  ENSEMBLE:  F
  @ DRIVER MODE:  SCF:  T  FORCE:  T  STRESS:  F  VC:  F  ENSEMBLE:  F

     Using Slab Decomposition

     bravais-lattice index     =            0
     lattice parameter (alat)  =       1.8897  a.u.
     unit-cell volume          =    6658.9804 (a.u.)^3
     number of atoms/cell      =           55
     number of atomic types    =            4
     number of electrons       =       399.00
     number of Kohn-Sham states=          209
     kinetic-energy cutoff     =      29.3995  Ry
     charge density cutoff     =     293.9946  Ry
     scf convergence threshold =      7.3E-08
     mixing beta               =       0.0500
     number of iterations used =            8  plain     mixing
     Exchange-correlation= BEEF-VDW
                           (   1   4  43  14   2   0   0)

     celldm(1)=   1.889726  celldm(2)=   0.000000  celldm(3)=   0.000000
     celldm(4)=   0.000000  celldm(5)=   0.000000  celldm(6)=   0.000000

     crystal axes: (cart. coord. in units of alat)
               a(1) = (   6.579727   0.000000   0.000000 )
               a(2) = (  -0.000775   5.961596   0.000000 )
               a(3) = (   0.000000   0.000000  25.155947 )

     reciprocal axes: (cart. coord. in units 2 pi/alat)
               b(1) = (  0.151982  0.000020  0.000000 )
               b(2) = (  0.000000  0.167740  0.000000 )
               b(3) = (  0.000000  0.000000  0.039752 )

     PseudoPot. # 1 for Ti read from file:
     /storage/coda1/p-amedford6/0/shared/rich_project_chbe-medford/medford-share/data/pseudos_module/espresso/nninc/pbe/van/Ti.UPF
     MD5 check sum: 8e4df49b7f0d34bbd5052bf3f5ea0213
     Pseudo is Ultrasoft, Zval = 12.0
     Generated by new atomic code, or converted to UPF format
     Using radial grid of  851 points,  6 beta functions with:
                l(1) =   0
                l(2) =   0
                l(3) =   1
                l(4) =   1
                l(5) =   2
                l(6) =   2
     Q(r) pseudized with  8 coefficients,  rinner =    1.000   1.000   1.000
                                                       1.000   1.000

     PseudoPot. # 2 for O  read from file:
     /storage/coda1/p-amedford6/0/shared/rich_project_chbe-medford/medford-share/data/pseudos_module/espresso/nninc/pbe/van/O.UPF
     MD5 check sum: 78c19812648e8988a0fe644b0f25305e
     Pseudo is Ultrasoft, Zval =  6.0
     Generated by new atomic code, or converted to UPF format
     Using radial grid of  737 points,  4 beta functions with:
                l(1) =   0
                l(2) =   0
                l(3) =   1
                l(4) =   1
     Q(r) pseudized with  8 coefficients,  rinner =    0.800   0.800   0.800

     PseudoPot. # 3 for C  read from file:
     /storage/coda1/p-amedford6/0/shared/rich_project_chbe-medford/medford-share/data/pseudos_module/espresso/nninc/pbe/van/C.UPF
     MD5 check sum: 1a69bf6b8db32088f5b2163dbdb77a27
     Pseudo is Ultrasoft, Zval =  4.0
     Generated by new atomic code, or converted to UPF format
     Using radial grid of  721 points,  4 beta functions with:
                l(1) =   0
                l(2) =   0
                l(3) =   1
                l(4) =   1
     Q(r) pseudized with  8 coefficients,  rinner =    0.800   0.800   0.800

     PseudoPot. # 4 for H  read from file:
     /storage/coda1/p-amedford6/0/shared/rich_project_chbe-medford/medford-share/data/pseudos_module/espresso/nninc/pbe/van/H.UPF
     MD5 check sum: b5ee9d7bfd3a09ee7748110bda690ff7
     Pseudo is Ultrasoft, Zval =  1.0
     Generated by new atomic code, or converted to UPF format
     Using radial grid of  615 points,  1 beta functions with:
                l(1) =   0
     Q(r) pseudized with  8 coefficients,  rinner =    0.800

     atomic species   valence    mass     pseudopotential
        Ti1           12.00    47.86700     Ti( 1.00)
        O1             6.00    15.99900     O ( 1.00)
        C1             4.00    12.01100     C ( 1.00)
        H1             1.00     1.00800     H ( 1.00)

     No symmetry found

   Cartesian axes

     site n.     atom                  positions (alat units)
         1           Ti1 tau(   1) = (   0.0004258   2.9801865   6.0000000  )
         2           Ti1 tau(   2) = (   3.2906075   1.4906267   6.0002472  )
         3           O1  tau(   3) = (   0.0006271   0.0005054   7.9858123  )
         4           O1  tau(   4) = (   3.2906025   0.0005020   7.3038282  )
         5           O1  tau(   5) = (   4.5942328   1.4918067   9.2879030  )
         6           O1  tau(   6) = (   1.9868534   1.4903216   9.2879459  )
         7           Ti1 tau(   7) = (   3.2434587   3.0186650   9.1693953  )
         8           Ti1 tau(   8) = (   6.5248695   1.5265067   9.2859949  )
         9           O1  tau(   9) = (   3.3238096   0.0077392  11.3399147  )
        10           O1  tau(  10) = (   0.0083103   0.0007143  10.5763085  )
        11           O1  tau(  11) = (   1.3076427   1.5153157  12.5877682  )
        12           O1  tau(  12) = (   5.3324098   1.4751673  12.6362968  )
        13           Ti1 tau(  13) = (   0.0822926   2.9518924  12.6100891  )
        14           Ti1 tau(  14) = (   3.3652580   1.6116561  12.6031695  )
        15           O1  tau(  15) = (   0.1623142   0.0003102  14.6136642  )
        16           O1  tau(  16) = (   3.2083997   0.0016335  13.9229753  )
        17           O1  tau(  17) = (   4.6427586   1.3635169  15.8692112  )
        18           O1  tau(  18) = (   2.0707938   1.5934636  16.1317492  )
        19           Ti1 tau(  19) = (   3.4055461   2.9583945  15.9219660  )
        20           Ti1 tau(  20) = (   0.0529163   1.3399360  15.9091509  )
        21           O1  tau(  21) = (   3.2904802   0.0005063   4.7018136  )
        22           O1  tau(  22) = (   0.1143047   5.9459637  17.1421970  )
        23           O1  tau(  23) = (   1.3043587   1.4918075   6.0039043  )
        24           O1  tau(  24) = (   5.2767064   1.4903225   6.0039473  )
        25           Ti1 tau(  25) = (   0.0000382   5.9609847   6.0000000  )
        26           Ti1 tau(  26) = (   3.2902200   4.4714249   6.0002472  )
        27           O1  tau(  27) = (   0.0002396   2.9813036   7.9858123  )
        28           O1  tau(  28) = (   3.2902150   2.9813002   7.3038282  )
        29           O1  tau(  29) = (   4.5938453   4.4726049   9.2879030  )
        30           O1  tau(  30) = (   1.9864658   4.4711199   9.2879459  )
        31           Ti1 tau(  31) = (   3.2519499   0.0415563   9.1803751  )
        32           Ti1 tau(  32) = (   6.5223785   4.4699269   9.2708698  )
        33           O1  tau(  33) = (   3.3249262   3.0006027  11.3427062  )
        34           O1  tau(  34) = (   6.5728067   2.9803724  10.5910131  )
        35           O1  tau(  35) = (   1.3048910   4.4590737  12.5876729  )
        36           O1  tau(  36) = (   5.3248012   4.5079456  12.6396186  )
        37           Ti1 tau(  37) = (   0.0305998   5.9348532  12.4502240  )
        38           Ti1 tau(  38) = (   3.3518916   4.5407868  12.4757475  )
        39           O1  tau(  39) = (   0.0741357   2.9755951  14.7167286  )
        40           O1  tau(  40) = (   3.3703583   2.9475192  13.9294239  )
        41           O1  tau(  41) = (   4.6408928   4.5782690  15.8216857  )
        42           O1  tau(  42) = (   2.0743197   4.3710070  16.0958311  )
        43           Ti1 tau(  43) = (   3.3271525   5.9323444  15.7323421  )
        44           Ti1 tau(  44) = (   0.0603002   4.5335970  15.7939964  )
        45           O1  tau(  45) = (   3.2900926   2.9813045   4.7018136  )
        46           O1  tau(  46) = (   1.3039711   4.4726057   6.0039043  )
        47           O1  tau(  47) = (   5.2763189   4.4711207   6.0039473  )
        48           C1  tau(  48) = (   4.5917920   3.0228413  17.9030398  )
        49           O1  tau(  49) = (   6.0625861   3.0006587  17.4562122  )
        50           H1  tau(  50) = (   0.0503952   3.1075262  18.2373115  )
        51           H1  tau(  51) = (   4.5165887   2.1706275  18.5876854  )
        52           H1  tau(  52) = (   4.4781653   3.9549082  18.4551422  )
        53           O1  tau(  53) = (   2.8659371   5.8926936  18.2031264  )
        54           H1  tau(  54) = (   3.0528466   0.8172038  18.5446680  )
        55           H1  tau(  55) = (   1.8959954   5.8777970  18.0521013  )

     number of k points=    10  Fermi-Dirac smearing, width (Ry)=  0.0073
                       cart. coord. in units 2pi/alat
        k(    1) = (   0.0000000   0.0000000   0.0000000), wk =   0.1250000
        k(    2) = (   0.0000000   0.0419351   0.0000000), wk =   0.2500000
        k(    3) = (   0.0000000  -0.0838702   0.0000000), wk =   0.1250000
        k(    4) = (   0.0379955   0.0000049   0.0000000), wk =   0.2500000
        k(    5) = (   0.0379955   0.0419400   0.0000000), wk =   0.2500000
        k(    6) = (   0.0379955  -0.0838652   0.0000000), wk =   0.2500000
        k(    7) = (   0.0379955  -0.0419301   0.0000000), wk =   0.2500000
        k(    8) = (  -0.0759910  -0.0000099   0.0000000), wk =   0.1250000
        k(    9) = (  -0.0759910   0.0419252   0.0000000), wk =   0.2500000
        k(   10) = (  -0.0759910  -0.0838800   0.0000000), wk =   0.1250000

     Initial potential from superposition of free atoms

     starting charge  382.99916, renormalised to  399.00000

     negative rho (up, down):  1.858E-02 0.000E+00

     %%%%%%%%%%%%%%%%%%%%%%%%%%%%%%%%%%%%%%%%%%%%%%%%%%%%%%%%%%%%%%%%%%%%%%%%
     %                                                                      %
     % You are using vdW-DF, which was implemented by the Thonhauser group. %
     % Please cite the following two papers that made this development      %
     % possible and the two reviews that describe the various versions:     %
     %                                                                      %
     %   T. Thonhauser et al., PRL 115, 136402 (2015).                      %
     %   T. Thonhauser et al., PRB 76, 125112 (2007).                       %
     %   K. Berland et al., Rep. Prog. Phys. 78, 066501 (2015).             %
     %   D.C. Langreth et al., J. Phys.: Condens. Matter 21, 084203 (2009). %
     %                                                                      %
     %                                                                      %
     % If you are calculating the stress with vdW-DF, please also cite:     %
     %                                                                      %
     %   R. Sabatini et al., J. Phys.: Condens. Matter 24, 424209 (2012).   %
     %                                                                      %
     %%%%%%%%%%%%%%%%%%%%%%%%%%%%%%%%%%%%%%%%%%%%%%%%%%%%%%%%%%%%%%%%%%%%%%%%

     Adding external electric field

     Computed dipole along edir(3) :
        Dipole               -9.7304 Ry au,        -24.7321 Debye
        Dipole field         -0.0184 Ry au,

        Potential amp.        1.7022 Ry
        Total length         46.3494 bohr

     Starting wfcs are  301 atomic wfcs
  @ DRIVER MODE: Message from server: STATUS
  @ DRIVER MODE: Message from server: POSDATA
  @ DRIVER MODE: Reading and sharing cell
  @ DRIVER MODE: Reading and sharing positions
  @ DRIVER MODE: Received positions

     Self-consistent Calculation

     iteration #  1     ecut=    29.40 Ry     beta= 0.05
     Davidson diagonalization with overlap
     c_bands:  1 eigenvalues not converged
     c_bands:  2 eigenvalues not converged
     c_bands:  3 eigenvalues not converged
     c_bands:  5 eigenvalues not converged
     c_bands:  3 eigenvalues not converged
     c_bands:  2 eigenvalues not converged
     c_bands:  3 eigenvalues not converged
     c_bands:  2 eigenvalues not converged
     ethr =  1.00E-05,  avg # of iterations = 19.8

[...]

     total energy              =   -2478.52049692 Ry
     estimated scf accuracy    <    5415.87576970 Ry

     iteration #  2     ecut=    29.40 Ry     beta= 0.05
     Davidson diagonalization with overlap
     ethr =  1.00E-02,  avg # of iterations = 24.5

[...]

     iteration # 60     ecut=    29.40 Ry     beta= 0.05
     Davidson diagonalization with overlap
     c_bands:  3 eigenvalues not converged
     c_bands:  1 eigenvalues not converged
     ethr =  1.87E-09,  avg # of iterations = 13.4

[...]

     total energy              =   -2966.15823181 Ry
     estimated scf accuracy    <       0.00000015 Ry

     iteration # 70     ecut=    29.40 Ry     beta= 0.05
     Davidson diagonalization with overlap
     ethr =  3.21E-11,  avg # of iterations =  5.8

     negative rho (up, down):  1.797E-02 0.000E+00

     Adding external electric field

     Computed dipole along edir(3) :
        Dipole                1.0037 Ry au,          2.5512 Debye
        Dipole field          0.0019 Ry au,

        Potential amp.       -0.1756 Ry
        Total length         46.3494 bohr

     End of self-consistent calculation

          k = 0.0000 0.0000 0.0000 ( 18029 PWs)   bands (ev):

   -55.6886 -55.6522 -55.5817 -55.5732 -55.5168 -55.5143 -55.5085 -55.5057
   -55.4778 -55.4603 -55.4533 -55.4424 -55.4268 -55.3363 -54.6582 -54.6242
   -32.1796 -32.1647 -32.0549 -32.0250 -32.0027 -31.9759 -31.9549 -31.9435
   -31.9299 -31.8710 -31.8430 -31.8364 -31.8330 -31.8239 -31.7969 -31.7867
   -31.7836 -31.7640 -31.7589 -31.7477 -31.7369 -31.7318 -31.6978 -31.6924
   -31.6899 -31.6830 -31.6777 -31.6697 -31.6648 -31.6599 -31.6521 -31.6354
   -31.6315 -31.6298 -31.6237 -31.6205 -31.6118 -31.6115 -31.5864 -31.5635
   -31.5514 -31.4228 -31.0650 -30.9768 -30.9543 -30.8820 -30.7956 -30.6842
   -19.3922 -18.7457 -16.3742 -16.1774 -15.9726 -15.8592 -15.8393 -15.6582
   -15.5343 -15.3880 -15.3360 -15.3068 -15.2858 -15.2166 -15.2097 -15.1946
   -15.1596 -15.1546 -15.1182 -15.0985 -15.0924 -15.0647 -15.0132 -14.9916
   -14.9420 -14.8818 -14.8132 -14.7932 -14.7840 -14.7088 -14.6172 -13.1585
   -13.0419  -9.4326  -6.5079  -6.2826  -4.0725  -3.8480  -3.6878  -3.6439
    -3.6112  -3.5749  -3.4161  -3.3036  -3.1240  -3.0201  -2.9525  -2.9030
    -2.8654  -2.7884  -2.7464  -2.6222  -2.5986  -2.5490  -2.5161  -2.4803
    -2.4731  -2.4519  -2.4067  -2.3898  -2.3738  -2.2168  -2.2066  -2.1732
    -2.1081  -2.0768  -2.0494  -2.0125  -1.9906  -1.9636  -1.9453  -1.8989
    -1.8804  -1.8089  -1.8007  -1.7573  -1.6901  -1.6574  -1.3928  -1.3158
    -1.2947  -1.2565  -1.1931  -1.0959  -1.0922  -1.0856  -1.0851  -1.0283
    -1.0120  -0.8626  -0.8482  -0.8333  -0.7534  -0.6744  -0.5951  -0.5585
    -0.4939  -0.4435  -0.4109  -0.3831  -0.3570  -0.3013  -0.2337  -0.2103
    -0.1397  -0.0656  -0.0324   0.0201   0.0459   0.0907   0.1209   0.1974
     0.2363   0.2702   0.2981   0.3161   0.3261   0.3696   0.3895   0.4788
     0.5562   0.5842   0.5909   0.6650   0.7917   0.8740   0.9861   1.0776
     1.3001   1.3662   1.4175   1.5518   1.5588   1.9379   1.9884   3.4527
     3.5217   3.5811   3.5817   3.6165   3.6970   3.8999   3.9473   4.0048
     4.0384

[...]

          k = 0.0380-0.0419 0.0000 ( 17876 PWs)   bands (ev):

[...]

          k =-0.0760-0.0000 0.0000 ( 17886 PWs)   bands (ev):

[...]

          k =-0.0760-0.0839 0.0000 ( 17948 PWs)   bands (ev):

   -55.6769 -55.6637 -55.5764 -55.5684 -55.5213 -55.5130 -55.5109 -55.5021
   -55.4626 -55.4595 -55.4568 -55.4455 -55.4420 -55.3378 -54.6412 -54.6411
   -32.0985 -31.9861 -31.9753 -31.9734 -31.9512 -31.9010 -31.8742 -31.8536
   -31.8461 -31.8415 -31.8382 -31.8152 -31.8142 -31.7995 -31.7977 -31.7884
   -31.7877 -31.7794 -31.7779 -31.7745 -31.7717 -31.7624 -31.7407 -31.7351
   -31.7292 -31.7176 -31.7105 -31.7041 -31.7014 -31.6870 -31.6727 -31.6648
   -31.6645 -31.6620 -31.6602 -31.6536 -31.6523 -31.6503 -31.6484 -31.6457
   -31.6272 -31.4249 -30.9670 -30.9669 -30.8783 -30.8775 -30.8390 -30.8385
   -19.3857 -18.7446 -15.9925 -15.6532 -15.6403 -15.6351 -15.6043 -15.4831
   -15.4589 -15.4366 -15.3910 -15.3609 -15.3552 -15.3320 -15.2877 -15.2311
   -15.2120 -15.2043 -15.1946 -15.1422 -15.1278 -15.1169 -15.0712 -15.0307
   -15.0283 -15.0043 -14.9782 -14.9727 -14.9723 -14.9447 -14.8777 -13.1453
   -13.1421  -9.4388  -6.5080  -6.2627  -4.0285  -3.7392  -3.1608  -3.0415
    -2.8709  -2.8488  -2.7978  -2.7758  -2.7226  -2.6539  -2.6252  -2.6136
    -2.6120  -2.5780  -2.5154  -2.4814  -2.4775  -2.4383  -2.4200  -2.4122
    -2.3919  -2.3667  -2.3420  -2.3233  -2.3169  -2.2813  -2.2690  -2.2540
    -2.2481  -2.2365  -2.2180  -2.1771  -2.0698  -1.9479  -1.9140  -1.8785
    -1.8385  -1.7796  -1.7733  -1.7594  -1.7250  -1.7242  -1.7083  -1.6301
    -1.4662  -1.4049  -1.3423  -1.3204  -1.2471  -1.2346  -1.2190  -1.1753
    -1.1347  -1.0889  -1.0447  -1.0207  -0.9644  -0.9202  -0.7913  -0.7377
    -0.6530  -0.6479  -0.6253  -0.6102  -0.5562  -0.5315  -0.5066  -0.4619
    -0.4274  -0.3834  -0.3513  -0.3425  -0.3203  -0.2592  -0.1592  -0.1102
    -0.0480  -0.0420   0.0399   0.1702   0.3557   0.3860   0.4443   0.4953
     0.5845   0.6070   0.6558   0.6756   0.7331   0.7603   0.8016   0.8618
     0.9225   0.9507   1.5187   1.7296   1.7361   1.7991   1.8085   3.7440
     3.8316   3.9242   3.9380   3.9723   3.9847   3.9902   4.0198   4.0763
     4.1130

     the Fermi energy is     3.4500 ev

!    total energy              =   -2966.15825774 Ry
     estimated scf accuracy    <       0.00000007 Ry
     smearing contrib. (-TS)   =      -0.02139653 Ry
     internal energy E=F+TS    =   -2966.13686120 Ry

     The total energy is F=E-TS. E is the sum of the following terms:
     one-electron contribution =  -24755.61757012 Ry
     hartree contribution      =   12470.32513184 Ry
     xc contribution           =    -490.95858901 Ry
     ewald contribution        =    9810.11226482 Ry
     electric field correction =       0.00190127 Ry

     convergence has been achieved in  70 iterations

     Forces acting on atoms (cartesian axes, Ry/au):

     atom    1 type  1   force =     0.00075766   -0.00018242    0.09536841
     atom    2 type  1   force =     0.00024312   -0.00220256   -0.17569922
     atom    3 type  2   force =    -0.00066031   -0.00040999   -0.03007686
     atom    4 type  2   force =    -0.00085118    0.00063517    0.05234833
     atom    5 type  2   force =    -0.01387325   -0.00099868    0.00145736
     atom    6 type  2   force =     0.01583392    0.00240994    0.00318201
     atom    7 type  1   force =     0.00033633    0.00039117   -0.00029063
     atom    8 type  1   force =    -0.00036576    0.00140047    0.00064519
     atom    9 type  2   force =     0.00011363   -0.00002620    0.00023727
     atom   10 type  2   force =     0.00017530    0.00016900   -0.00058799
     atom   11 type  2   force =    -0.00024486    0.00025125    0.00018557
     atom   12 type  2   force =    -0.00036811    0.00008781    0.00007656
     atom   13 type  1   force =     0.00022479   -0.00018983   -0.00064932
     atom   14 type  1   force =    -0.00102480    0.00003378    0.00029328
     atom   15 type  2   force =     0.00007582   -0.00111905   -0.00007381
     atom   16 type  2   force =    -0.00000815   -0.00006451   -0.00017687
     atom   17 type  2   force =    -0.00036307   -0.00030442   -0.00009145
     atom   18 type  2   force =     0.00033020   -0.00033628    0.00011080
     atom   19 type  1   force =     0.00012265    0.00043475    0.00015337
     atom   20 type  1   force =     0.00025670    0.00079866    0.00024704
     atom   21 type  2   force =     0.00014608    0.00019825    0.10308705
     atom   22 type  2   force =     0.00016871   -0.00113005    0.00016099
     atom   23 type  2   force =    -0.07127205    0.00093977   -0.02829479
     atom   24 type  2   force =     0.07132523    0.00133457   -0.02832977
     atom   25 type  1   force =     0.00022161    0.00038546    0.10641944
     atom   26 type  1   force =     0.00000301    0.00253411   -0.17559056
     atom   27 type  2   force =    -0.00037813    0.00013161   -0.02785594
     atom   28 type  2   force =    -0.00096278    0.00076217    0.05165508
     atom   29 type  2   force =    -0.01302556   -0.00123184    0.00106538
     atom   30 type  2   force =     0.01547882    0.00037023    0.00294759
     atom   31 type  1   force =     0.00051795    0.00002764   -0.00004105
     atom   32 type  1   force =    -0.00041603   -0.00140787    0.00017034
     atom   33 type  2   force =    -0.00016858   -0.00031129    0.00019491
     atom   34 type  2   force =     0.00000722    0.00010455   -0.00016016
     atom   35 type  2   force =    -0.00062977   -0.00019576    0.00066039
     atom   36 type  2   force =     0.00003974   -0.00036745    0.00023262
     atom   37 type  1   force =     0.00059577    0.00027282    0.00050443
     atom   38 type  1   force =    -0.00092309    0.00014085    0.00045219
     atom   39 type  2   force =    -0.00017302    0.00064546    0.00030438
     atom   40 type  2   force =    -0.00001652   -0.00051875   -0.00072002
     atom   41 type  2   force =     0.00120347    0.00005325   -0.00016400
     atom   42 type  2   force =    -0.00091974   -0.00014633    0.00017940
     atom   43 type  1   force =     0.00022277   -0.00105397   -0.00004269
     atom   44 type  1   force =    -0.00039892    0.00041949   -0.00025839
     atom   45 type  2   force =     0.00012345    0.00015728    0.10335908
     atom   46 type  2   force =    -0.07119592   -0.00125670   -0.02829002
     atom   47 type  2   force =     0.07126747   -0.00086155   -0.02832859
     atom   48 type  3   force =    -0.00189251    0.00027823   -0.00030051
     atom   49 type  2   force =    -0.00044677   -0.00098011    0.00101535
     atom   50 type  4   force =     0.00006085   -0.00042511   -0.00011226
     atom   51 type  4   force =     0.00127184    0.00031526   -0.00056655
     atom   52 type  4   force =    -0.00027381    0.00000168   -0.00048154
     atom   53 type  2   force =     0.00151505   -0.00042077    0.00081571
     atom   54 type  4   force =    -0.00030199    0.00034347    0.00008701
     atom   55 type  4   force =    -0.00148447    0.00011332   -0.00043355

     Total force =     0.367397     Total SCF correction =     0.000699
  @ DRIVER MODE: Message from server: STATUS
  @ DRIVER MODE: Message from server: GETFORCE
  @ DRIVER MODE: Returning v,forces,stress,ensemble

     Writing output data file ./calc.save/
  @ DRIVER MODE: Message from server: EXIT
  @ DRIVE MODE: Exiting

     General routines

     Parallel routines

   This run was terminated on:  21:52:37  15Sep2021

   JOB DONE.