     Program PWSCF v.6.7GPU starts on 27Sep2021 at 20:51:51

     R & G space division:  proc/nbgrp/npool/nimage =       8
     Reading input from /storage/home/hcoda1/3/ntian30/research/carbon/CxH_vib/CH_calc/ads_slab/CHONHH_a/out_0029/pw.inp
Warning: card &CELL ignored
Warning: card   CELL_DYNAMICS='IPI', ignored
Warning: card / ignored

     Current dimensions of program PWSCF are:
     Max number of different atomic species (ntypx) = 10
     Max number of k-points (npk) =  40000
     Max angular momentum in pseudopotentials (lmaxx) =  3
     Presently no symmetry can be used with electric field

     Message from routine cell_base_init:
     DEPRECATED: use true lattice parameter, not A to a.u. conversion factor

     IMPORTANT: XC functional enforced from input :
     Exchange-correlation= BEEF-VDW
                           (   1   4  43  14   2   0   0)
     Any further DFT definition will be discarded
     Please, verify this is what you really want

  @ DRIVER MODE: Connecting to
 qe_1139763_2982670.sched-torque.pace.gatech.edufm72k7ot_scratch
  using UNIX socket
  @ DRIVER MODE: Message from server: STATUS
  @ DRIVER MODE: Message from server: INIT
  @ DRIVER MODE: Receiving replica           0          -1
  @ DRIVER MODE: Receiving encoded integer          25
  @ DRIVER MODE:  SCF:  T  FORCE:  T  STRESS:  F  VC:  F  ENSEMBLE:  F
  @ DRIVER MODE:  SCF:  T  FORCE:  T  STRESS:  F  VC:  F  ENSEMBLE:  F

     Using Slab Decomposition

     bravais-lattice index     =            0
     lattice parameter (alat)  =       1.8897  a.u.
     unit-cell volume          =    6658.9804 (a.u.)^3
     number of atoms/cell      =           53
     number of atomic types    =            5
     number of electrons       =       396.00
     number of Kohn-Sham states=          208
     kinetic-energy cutoff     =      29.3995  Ry
     charge density cutoff     =     293.9946  Ry
     scf convergence threshold =      7.3E-08
     mixing beta               =       0.0500
     number of iterations used =            8  plain     mixing
     Exchange-correlation= BEEF-VDW
                           (   1   4  43  14   2   0   0)

     celldm(1)=   1.889726  celldm(2)=   0.000000  celldm(3)=   0.000000
     celldm(4)=   0.000000  celldm(5)=   0.000000  celldm(6)=   0.000000

     crystal axes: (cart. coord. in units of alat)
               a(1) = (   6.579727   0.000000   0.000000 )
               a(2) = (  -0.000775   5.961596   0.000000 )
               a(3) = (   0.000000   0.000000  25.155947 )

     reciprocal axes: (cart. coord. in units 2 pi/alat)
               b(1) = (  0.151982  0.000020  0.000000 )
               b(2) = (  0.000000  0.167740  0.000000 )
               b(3) = (  0.000000  0.000000  0.039752 )

     PseudoPot. # 1 for O  read from file:
     /storage/coda1/p-amedford6/0/shared/rich_project_chbe-medford/medford-share/data/pseudos_module/espresso/nninc/pbe/van/O.UPF
     MD5 check sum: 78c19812648e8988a0fe644b0f25305e
     Pseudo is Ultrasoft, Zval =  6.0
     Generated by new atomic code, or converted to UPF format
     Using radial grid of  737 points,  4 beta functions with:
                l(1) =   0
                l(2) =   0
                l(3) =   1
                l(4) =   1
     Q(r) pseudized with  8 coefficients,  rinner =    0.800   0.800   0.800

     PseudoPot. # 2 for Ti read from file:
     /storage/coda1/p-amedford6/0/shared/rich_project_chbe-medford/medford-share/data/pseudos_module/espresso/nninc/pbe/van/Ti.UPF
     MD5 check sum: 8e4df49b7f0d34bbd5052bf3f5ea0213
     Pseudo is Ultrasoft, Zval = 12.0
     Generated by new atomic code, or converted to UPF format
     Using radial grid of  851 points,  6 beta functions with:
                l(1) =   0
                l(2) =   0
                l(3) =   1
                l(4) =   1
                l(5) =   2
                l(6) =   2
     Q(r) pseudized with  8 coefficients,  rinner =    1.000   1.000   1.000
                                                       1.000   1.000

     PseudoPot. # 3 for C  read from file:
     /storage/coda1/p-amedford6/0/shared/rich_project_chbe-medford/medford-share/data/pseudos_module/espresso/nninc/pbe/van/C.UPF
     MD5 check sum: 1a69bf6b8db32088f5b2163dbdb77a27
     Pseudo is Ultrasoft, Zval =  4.0
     Generated by new atomic code, or converted to UPF format
     Using radial grid of  721 points,  4 beta functions with:
                l(1) =   0
                l(2) =   0
                l(3) =   1
                l(4) =   1
     Q(r) pseudized with  8 coefficients,  rinner =    0.800   0.800   0.800

     PseudoPot. # 4 for H  read from file:
     /storage/coda1/p-amedford6/0/shared/rich_project_chbe-medford/medford-share/data/pseudos_module/espresso/nninc/pbe/van/H.UPF
     MD5 check sum: b5ee9d7bfd3a09ee7748110bda690ff7
     Pseudo is Ultrasoft, Zval =  1.0
     Generated by new atomic code, or converted to UPF format
     Using radial grid of  615 points,  1 beta functions with:
                l(1) =   0
     Q(r) pseudized with  8 coefficients,  rinner =    0.800

     PseudoPot. # 5 for N  read from file:
     /storage/coda1/p-amedford6/0/shared/rich_project_chbe-medford/medford-share/data/pseudos_module/espresso/nninc/pbe/van/N.UPF
     MD5 check sum: 90d10febe142ad51ac9d5be1deb811c4
     Pseudo is Ultrasoft, Zval =  5.0
     Generated by new atomic code, or converted to UPF format
     Using radial grid of  729 points,  4 beta functions with:
                l(1) =   0
                l(2) =   0
                l(3) =   1
                l(4) =   1
     Q(r) pseudized with  8 coefficients,  rinner =    0.800   0.800   0.800

     atomic species   valence    mass     pseudopotential
        O1             6.00    15.99900     O ( 1.00)
        Ti1           12.00    47.86700     Ti( 1.00)
        C1             4.00    12.01100     C ( 1.00)
        H1             1.00     1.00800     H ( 1.00)
        N1             5.00    14.00700     N ( 1.00)

     No symmetry found

   Cartesian axes

     site n.     atom                  positions (alat units)
         1           O1  tau(   1) = (   3.2904802   0.0005063   4.7018136  )
         2           O1  tau(   2) = (   3.2900926   2.9813045   4.7018136  )
         3           Ti1 tau(   3) = (   0.0004258   2.9801865   6.0000000  )
         4           Ti1 tau(   4) = (   0.0000382   5.9609847   6.0000000  )
         5           Ti1 tau(   5) = (   3.2906075   1.4906267   6.0002472  )
         6           Ti1 tau(   6) = (   3.2902200   4.4714249   6.0002472  )
         7           O1  tau(   7) = (   1.3043587   1.4918075   6.0039043  )
         8           O1  tau(   8) = (   1.3039711   4.4726057   6.0039043  )
         9           O1  tau(   9) = (   5.2767064   1.4903225   6.0039473  )
        10           O1  tau(  10) = (   5.2763189   4.4711207   6.0039473  )
        11           O1  tau(  11) = (   3.2906025   0.0005020   7.3038282  )
        12           O1  tau(  12) = (   3.2902150   2.9813002   7.3038282  )
        13           O1  tau(  13) = (   0.0006271   0.0005054   7.9858123  )
        14           O1  tau(  14) = (   0.0002396   2.9813036   7.9858123  )
        15           Ti1 tau(  15) = (   3.2907910   2.8959150   9.1758416  )
        16           Ti1 tau(  16) = (   3.2891106   5.8743827   9.1763621  )
        17           Ti1 tau(  17) = (   0.0015273   1.4827037   9.2680791  )
        18           Ti1 tau(  18) = (   0.0006254   4.4649316   9.2693709  )
        19           O1  tau(  19) = (   4.5942328   1.4918067   9.2879030  )
        20           O1  tau(  20) = (   4.5938453   4.4726049   9.2879030  )
        21           O1  tau(  21) = (   1.9868534   1.4903216   9.2879459  )
        22           O1  tau(  22) = (   1.9864658   4.4711199   9.2879459  )
        23           O1  tau(  23) = (   0.0116148   5.9584955  10.6183126  )
        24           O1  tau(  24) = (   0.0092240   2.9805883  10.6323155  )
        25           O1  tau(  25) = (   3.2982867   2.9605634  11.3629554  )
        26           O1  tau(  26) = (   3.2970280   5.9418052  11.3670498  )
        27           Ti1 tau(  27) = (   3.3197620   1.4647166  12.5186485  )
        28           Ti1 tau(  28) = (   3.3197371   4.4442548  12.5174675  )
        29           Ti1 tau(  29) = (   0.0247145   5.9392298  12.5050521  )
        30           Ti1 tau(  30) = (   0.0207888   2.9549252  12.5325712  )
        31           O1  tau(  31) = (   5.2994564   1.4737048  12.6581032  )
        32           O1  tau(  32) = (   5.2987173   4.4536623  12.6588755  )
        33           O1  tau(  33) = (   1.2980767   1.4735271  12.6640466  )
        34           O1  tau(  34) = (   1.2983722   4.4539272  12.6649509  )
        35           O1  tau(  35) = (   3.3003782   2.9593424  13.9572071  )
        36           O1  tau(  36) = (   3.3054355   5.9407569  13.9837565  )
        37           O1  tau(  37) = (   0.0046088   5.9251545  14.7309831  )
        38           O1  tau(  38) = (   0.0006132   2.9575759  14.8603695  )
        39           Ti1 tau(  39) = (   3.2921441   2.9479593  15.7473734  )
        40           Ti1 tau(  40) = (   3.3096684   5.9297328  15.7786280  )
        41           Ti1 tau(  41) = (   0.0292748   4.4653737  15.8834615  )
        42           Ti1 tau(  42) = (   0.0203033   1.2983705  16.0532229  )
        43           O1  tau(  43) = (   2.0312177   4.4313956  16.1584376  )
        44           O1  tau(  44) = (   2.0329186   1.4682422  16.1585226  )
        45           O1  tau(  45) = (   4.5395334   1.4708069  16.1744780  )
        46           O1  tau(  46) = (   4.5451706   4.4284814  16.1696510  )
        47           O1  tau(  47) = (   6.5626888   5.9521290  17.2995914  )
        48           C1  tau(  48) = (   6.0895709   3.0833951  18.7413599  )
        49           H1  tau(  49) = (   6.1064821   5.1028269  18.6976294  )
        50           H1  tau(  50) = (   5.8218695   2.1931775  19.3174373  )
        51           N1  tau(  51) = (   5.9176545   4.2705979  19.3036562  )
        52           H1  tau(  52) = (   5.4685665   4.3395963  20.1894452  )
        53           O1  tau(  53) = (   6.5488429   2.9572365  17.5815492  )

     number of k points=    10  Fermi-Dirac smearing, width (Ry)=  0.0073
                       cart. coord. in units 2pi/alat
        k(    1) = (   0.0000000   0.0000000   0.0000000), wk =   0.1250000
        k(    2) = (   0.0000000   0.0419351   0.0000000), wk =   0.2500000
        k(    3) = (   0.0000000  -0.0838702   0.0000000), wk =   0.1250000
        k(    4) = (   0.0379955   0.0000049   0.0000000), wk =   0.2500000
        k(    5) = (   0.0379955   0.0419400   0.0000000), wk =   0.2500000
        k(    6) = (   0.0379955  -0.0838652   0.0000000), wk =   0.2500000
        k(    7) = (   0.0379955  -0.0419301   0.0000000), wk =   0.2500000
        k(    8) = (  -0.0759910  -0.0000099   0.0000000), wk =   0.1250000
        k(    9) = (  -0.0759910   0.0419252   0.0000000), wk =   0.2500000
        k(   10) = (  -0.0759910  -0.0838800   0.0000000), wk =   0.1250000

     Initial potential from superposition of free atoms

     starting charge  379.99917, renormalised to  396.00000

     negative rho (up, down):  1.604E-02 0.000E+00

     %%%%%%%%%%%%%%%%%%%%%%%%%%%%%%%%%%%%%%%%%%%%%%%%%%%%%%%%%%%%%%%%%%%%%%%%
     %                                                                      %
     % You are using vdW-DF, which was implemented by the Thonhauser group. %
     % Please cite the following two papers that made this development      %
     % possible and the two reviews that describe the various versions:     %
     %                                                                      %
     %   T. Thonhauser et al., PRL 115, 136402 (2015).                      %
     %   T. Thonhauser et al., PRB 76, 125112 (2007).                       %
     %   K. Berland et al., Rep. Prog. Phys. 78, 066501 (2015).             %
     %   D.C. Langreth et al., J. Phys.: Condens. Matter 21, 084203 (2009). %
     %                                                                      %
     %                                                                      %
     % If you are calculating the stress with vdW-DF, please also cite:     %
     %                                                                      %
     %   R. Sabatini et al., J. Phys.: Condens. Matter 24, 424209 (2012).   %
     %                                                                      %
     %%%%%%%%%%%%%%%%%%%%%%%%%%%%%%%%%%%%%%%%%%%%%%%%%%%%%%%%%%%%%%%%%%%%%%%%

     Adding external electric field

     Computed dipole along edir(3) :
        Dipole               -9.7748 Ry au,        -24.8452 Debye
        Dipole field         -0.0184 Ry au,

        Potential amp.        1.7100 Ry
        Total length         46.3494 bohr

     Starting wfcs are  299 atomic wfcs
  @ DRIVER MODE: Message from server: STATUS
  @ DRIVER MODE: Message from server: POSDATA
  @ DRIVER MODE: Reading and sharing cell
  @ DRIVER MODE: Reading and sharing positions
  @ DRIVER MODE: Received positions

     Self-consistent Calculation

     iteration #  1     ecut=    29.40 Ry     beta= 0.05
     Davidson diagonalization with overlap
     c_bands:  1 eigenvalues not converged
     c_bands:  1 eigenvalues not converged
     c_bands:  2 eigenvalues not converged
     c_bands:  3 eigenvalues not converged
     c_bands:  2 eigenvalues not converged
     c_bands:  1 eigenvalues not converged
     c_bands:  2 eigenvalues not converged
     c_bands:  1 eigenvalues not converged
     c_bands:  2 eigenvalues not converged
     c_bands:  2 eigenvalues not converged
     ethr =  1.00E-05,  avg # of iterations = 20.0

[...]

     total energy              =   -2552.97152743 Ry
     estimated scf accuracy    <    4457.92829422 Ry

     iteration #  2     ecut=    29.40 Ry     beta= 0.05
     Davidson diagonalization with overlap
     ethr =  1.00E-02,  avg # of iterations = 25.6

[...]

     iteration # 32     ecut=    29.40 Ry     beta= 0.05
     Davidson diagonalization with overlap
     ethr =  7.14E-05,  avg # of iterations =  9.6

[...]

     total energy              =   -2951.54878396 Ry
     estimated scf accuracy    <       0.00000010 Ry

     iteration # 60     ecut=    29.40 Ry     beta= 0.05
     Davidson diagonalization with overlap
     c_bands:  1 eigenvalues not converged
     ethr =  2.43E-11,  avg # of iterations =  9.6

     negative rho (up, down):  1.490E-02 0.000E+00

     Adding external electric field

     Computed dipole along edir(3) :
        Dipole                1.7546 Ry au,          4.4598 Debye
        Dipole field          0.0033 Ry au,

        Potential amp.       -0.3069 Ry
        Total length         46.3494 bohr

     End of self-consistent calculation

          k = 0.0000 0.0000 0.0000 ( 18029 PWs)   bands (ev):

   -55.1187 -55.0828 -55.0748 -55.0407 -55.0009 -54.9972 -54.9895 -54.9602
   -54.9440 -54.9307 -54.9208 -54.9020 -54.8963 -54.8685 -54.0967 -54.0627
   -31.6873 -31.5875 -31.5660 -31.4860 -31.4349 -31.4269 -31.4202 -31.4059
   -31.3641 -31.3588 -31.3284 -31.3242 -31.3193 -31.3001 -31.2909 -31.2736
   -31.2568 -31.2552 -31.2399 -31.2304 -31.2263 -31.2140 -31.1980 -31.1874
   -31.1760 -31.1611 -31.1434 -31.1330 -31.1321 -31.1296 -31.1273 -31.1163
   -31.1017 -31.1001 -31.0949 -31.0880 -31.0830 -31.0796 -31.0450 -31.0401
   -31.0307 -31.0118 -30.5057 -30.4124 -30.3903 -30.3222 -30.2355 -30.1244
   -20.4273 -16.9174 -15.9360 -15.6649 -15.5195 -15.3842 -15.3083 -15.1857
   -15.1375 -15.0310 -14.9309 -14.8392 -14.8003 -14.7729 -14.7586 -14.7483
   -14.7309 -14.6533 -14.6496 -14.6189 -14.6076 -14.5768 -14.5462 -14.5237
   -14.5056 -14.4900 -14.4580 -14.3461 -14.2664 -14.2033 -14.1225 -12.5994
   -12.4821  -9.5267  -8.0152  -6.3839  -5.0810  -4.2751  -3.2803  -3.1243
    -3.0302  -3.0284  -3.0103  -2.8461  -2.7179  -2.5234  -2.3971  -2.3771
    -2.3318  -2.3123  -2.2919  -2.1853  -2.0977  -2.0539  -2.0118  -1.9660
    -1.9271  -1.9022  -1.8938  -1.8795  -1.8602  -1.8593  -1.7567  -1.6521
    -1.5900  -1.5725  -1.5527  -1.5139  -1.4541  -1.4206  -1.4003  -1.3974
    -1.3615  -1.3477  -1.3268  -1.2997  -1.1508  -1.0577  -1.0383  -0.9757
    -0.8532  -0.8109  -0.7493  -0.6764  -0.6740  -0.5942  -0.5914  -0.5534
    -0.5320  -0.4970  -0.4542  -0.3193  -0.2127  -0.1970  -0.1514  -0.1076
    -0.0682  -0.0499   0.1023   0.1069   0.1185   0.1377   0.3176   0.3204
     0.3767   0.3966   0.4529   0.4596   0.4919   0.5586   0.6301   0.6621
     0.6943   0.7749   0.8249   0.8281   0.8356   0.8436   0.8755   0.9603
     0.9900   1.0108   1.0522   1.1906   1.3073   1.4966   1.5026   1.8349
     1.8498   1.9259   2.1106   2.5012   2.5491   3.9801   4.0539   4.1215
     4.1338   4.1391   4.2187   4.3502   4.4594   4.4694   4.4813   4.4881

[...]

          k = 0.0380-0.0419 0.0000 ( 17876 PWs)   bands (ev):

[...]

          k =-0.0760-0.0000 0.0000 ( 17886 PWs)   bands (ev):

[...]

          k =-0.0760-0.0839 0.0000 ( 17948 PWs)   bands (ev):

   -55.1008 -55.1004 -55.0578 -55.0576 -54.9962 -54.9855 -54.9823 -54.9718
   -54.9519 -54.9246 -54.9142 -54.9121 -54.8859 -54.8849 -54.0797 -54.0795
   -31.4909 -31.4906 -31.4892 -31.4043 -31.3812 -31.3810 -31.3771 -31.3495
   -31.3494 -31.3278 -31.3206 -31.3181 -31.3109 -31.2789 -31.2687 -31.2488
   -31.2481 -31.2450 -31.2431 -31.2417 -31.2385 -31.2310 -31.2214 -31.1975
   -31.1942 -31.1906 -31.1828 -31.1815 -31.1775 -31.1774 -31.1647 -31.1477
   -31.1468 -31.1450 -31.1332 -31.1278 -31.1254 -31.1129 -31.1120 -31.1110
   -31.0668 -31.0651 -30.4030 -30.4029 -30.3183 -30.3181 -30.2788 -30.2788
   -20.4231 -16.9202 -15.3686 -15.3560 -15.3232 -15.1079 -15.1077 -15.0917
   -15.0816 -14.9367 -14.9051 -14.8882 -14.8768 -14.8265 -14.8165 -14.8152
   -14.8084 -14.7046 -14.7013 -14.6996 -14.6927 -14.6243 -14.6171 -14.6072
   -14.5764 -14.5646 -14.5604 -14.4640 -14.4628 -14.4613 -14.4039 -12.5836
   -12.5835  -9.5563  -8.0070  -6.3489  -5.0493  -4.2776  -2.6284  -2.5889
    -2.5209  -2.3246  -2.3160  -2.2890  -2.2031  -2.1686  -2.1074  -2.0928
    -2.0791  -2.0375  -1.9987  -1.9906  -1.9524  -1.9434  -1.9335  -1.9122
    -1.8937  -1.8589  -1.8373  -1.8274  -1.7967  -1.7755  -1.7672  -1.7568
    -1.7270  -1.7032  -1.6904  -1.6771  -1.6017  -1.5088  -1.4665  -1.3959
    -1.3124  -1.3103  -1.3048  -1.2167  -1.1937  -1.1647  -1.1508  -1.1037
    -1.0485  -0.9721  -0.8896  -0.8576  -0.8502  -0.8220  -0.7221  -0.6942
    -0.6479  -0.6106  -0.5996  -0.5483  -0.4321  -0.4294  -0.3890  -0.3251
    -0.3065  -0.2437  -0.1341  -0.1057  -0.0737  -0.0712  -0.0301   0.0032
     0.0174   0.0823   0.1152   0.1492   0.1665   0.2289   0.3912   0.4001
     0.4913   0.5202   0.5889   0.7556   0.7852   0.8061   0.9304   0.9631
     0.9967   1.0474   1.0927   1.1892   1.1967   1.2858   1.3355   1.3499
     1.3564   2.2837   2.2842   2.3690   2.3692   4.1060   4.2328   4.2539
     4.2925   4.3361   4.5022   4.5098   4.5640   4.5652   4.5997   4.6427

     the Fermi energy is     4.0402 ev

!    total energy              =   -2951.54883073 Ry
     estimated scf accuracy    <       0.00000004 Ry
     smearing contrib. (-TS)   =      -0.03719561 Ry
     internal energy E=F+TS    =   -2951.51163512 Ry

     The total energy is F=E-TS. E is the sum of the following terms:
     one-electron contribution =  -23931.27514674 Ry
     hartree contribution      =   12059.91939450 Ry
     xc contribution           =    -487.46821342 Ry
     ewald contribution        =    9407.30652065 Ry
     electric field correction =       0.00580988 Ry

     convergence has been achieved in  60 iterations

     Forces acting on atoms (cartesian axes, Ry/au):

     atom    1 type  1   force =     0.00000151    0.00001811    0.10374498
     atom    2 type  1   force =    -0.00000803    0.00001157    0.10375680
     atom    3 type  2   force =     0.00003022   -0.00018812    0.09364098
     atom    4 type  2   force =    -0.00000995   -0.00013573    0.09334962
     atom    5 type  2   force =    -0.00020540   -0.00037766   -0.17780484
     atom    6 type  2   force =    -0.00018072   -0.00030294   -0.17790297
     atom    7 type  1   force =    -0.07060412   -0.00006840   -0.02703577
     atom    8 type  1   force =    -0.07061287   -0.00004281   -0.02703113
     atom    9 type  1   force =     0.07042958    0.00037775   -0.02708028
     atom   10 type  1   force =     0.07041591    0.00038999   -0.02704701
     atom   11 type  1   force =    -0.00003808   -0.00187399    0.05772050
     atom   12 type  1   force =     0.00001852   -0.00159676    0.05728551
     atom   13 type  1   force =     0.00003227   -0.00022577   -0.02102759
     atom   14 type  1   force =     0.00006334   -0.00035290   -0.02009806
     atom   15 type  2   force =    -0.00034188    0.00219484   -0.01416927
     atom   16 type  2   force =    -0.00014957    0.00521626   -0.01501345
     atom   17 type  2   force =    -0.00008869    0.00330031    0.00052912
     atom   18 type  2   force =     0.00004685   -0.00378521    0.00038092
     atom   19 type  1   force =    -0.01056521   -0.00135631    0.00705226
     atom   20 type  1   force =    -0.01086449   -0.00104391    0.00699040
     atom   21 type  1   force =     0.01218720   -0.00075110    0.00657700
     atom   22 type  1   force =     0.01238107   -0.00067581    0.00649922
     atom   23 type  1   force =    -0.00110803   -0.00066091   -0.00095770
     atom   24 type  1   force =    -0.00064734   -0.00141421   -0.00127851
     atom   25 type  1   force =     0.00001735    0.00022487    0.00027092
     atom   26 type  1   force =     0.00001580    0.00002970   -0.00010802
     atom   27 type  2   force =     0.00000963    0.00034750   -0.00003224
     atom   28 type  2   force =     0.00006252   -0.00014235    0.00005708
     atom   29 type  2   force =    -0.00001458    0.00009408   -0.00025622
     atom   30 type  2   force =     0.00008325   -0.00003399   -0.00019230
     atom   31 type  1   force =    -0.00009751   -0.00011060    0.00001863
     atom   32 type  1   force =    -0.00025588    0.00002598   -0.00003940
     atom   33 type  1   force =     0.00007526   -0.00002480   -0.00008648
     atom   34 type  1   force =     0.00011488   -0.00004787   -0.00006331
     atom   35 type  1   force =    -0.00000421   -0.00004079    0.00010368
     atom   36 type  1   force =    -0.00012374   -0.00020870   -0.00007504
     atom   37 type  1   force =     0.00011347   -0.00003721   -0.00027415
     atom   38 type  1   force =    -0.00018963    0.00026794   -0.00051573
     atom   39 type  2   force =     0.00014684    0.00001650    0.00028833
     atom   40 type  2   force =    -0.00000298    0.00035288    0.00004701
     atom   41 type  2   force =    -0.00010186    0.00055292    0.00012085
     atom   42 type  2   force =     0.00008879    0.00008828    0.00036566
     atom   43 type  1   force =     0.00014273    0.00023824   -0.00010221
     atom   44 type  1   force =     0.00006900    0.00036899   -0.00008833
     atom   45 type  1   force =    -0.00009604    0.00035788   -0.00013987
     atom   46 type  1   force =    -0.00016509    0.00020742    0.00007852
     atom   47 type  1   force =    -0.00019937    0.00026946   -0.00024041
     atom   48 type  3   force =     0.00017315   -0.00021067   -0.00179217
     atom   49 type  4   force =     0.00029223    0.00093211   -0.00023675
     atom   50 type  4   force =     0.00034958   -0.00035308    0.00017952
     atom   51 type  5   force =     0.00678826   -0.00103869   -0.01576955
     atom   52 type  4   force =    -0.00748431    0.00121901    0.01628053
     atom   53 type  1   force =     0.00001031   -0.00000133    0.00112068

     Total force =     0.366599     Total SCF correction =     0.000675
  @ DRIVER MODE: Message from server: STATUS
  @ DRIVER MODE: Message from server: GETFORCE
  @ DRIVER MODE: Returning v,forces,stress,ensemble

     Writing output data file ./calc.save/
  @ DRIVER MODE: Message from server: EXIT
  @ DRIVE MODE: Exiting

     General routines

     Parallel routines

   This run was terminated on:  21:17:24  27Sep2021

   JOB DONE.