     Program PWSCF v.6.7GPU starts on 23Sep2021 at 10:28:11

     R & G space division:  proc/nbgrp/npool/nimage =       8
     Reading input from /storage/home/hcoda1/3/ntian30/research/carbon/CxH_vib/H2O_calc/ads_slab/CH2OHHO_a/out_0034/pw.inp
Warning: card &CELL ignored
Warning: card   CELL_DYNAMICS='IPI', ignored
Warning: card / ignored

     Current dimensions of program PWSCF are:
     Max number of different atomic species (ntypx) = 10
     Max number of k-points (npk) =  40000
     Max angular momentum in pseudopotentials (lmaxx) =  3
     Presently no symmetry can be used with electric field

     Message from routine cell_base_init:
     DEPRECATED: use true lattice parameter, not A to a.u. conversion factor

     IMPORTANT: XC functional enforced from input :
     Exchange-correlation= BEEF-VDW
                           (   1   4  43  14   2   0   0)
     Any further DFT definition will be discarded
     Please, verify this is what you really want

  @ DRIVER MODE: Connecting to
 qe_1139763_2941013.sched-torque.pace.gatech.eduwaviquaf_scratch
  using UNIX socket
  @ DRIVER MODE: Message from server: STATUS
  @ DRIVER MODE: Message from server: INIT
  @ DRIVER MODE: Receiving replica           0          -1
  @ DRIVER MODE: Receiving encoded integer          25
  @ DRIVER MODE:  SCF:  T  FORCE:  T  STRESS:  F  VC:  F  ENSEMBLE:  F
  @ DRIVER MODE:  SCF:  T  FORCE:  T  STRESS:  F  VC:  F  ENSEMBLE:  F

     Using Slab Decomposition

     bravais-lattice index     =            0
     lattice parameter (alat)  =       1.8897  a.u.
     unit-cell volume          =    6658.9804 (a.u.)^3
     number of atoms/cell      =           54
     number of atomic types    =            4
     number of electrons       =       398.00
     number of Kohn-Sham states=          209
     kinetic-energy cutoff     =      29.3995  Ry
     charge density cutoff     =     293.9946  Ry
     scf convergence threshold =      7.3E-08
     mixing beta               =       0.0500
     number of iterations used =            8  plain     mixing
     Exchange-correlation= BEEF-VDW
                           (   1   4  43  14   2   0   0)

     celldm(1)=   1.889726  celldm(2)=   0.000000  celldm(3)=   0.000000
     celldm(4)=   0.000000  celldm(5)=   0.000000  celldm(6)=   0.000000

     crystal axes: (cart. coord. in units of alat)
               a(1) = (   6.579727   0.000000   0.000000 )
               a(2) = (  -0.000775   5.961596   0.000000 )
               a(3) = (   0.000000   0.000000  25.155947 )

     reciprocal axes: (cart. coord. in units 2 pi/alat)
               b(1) = (  0.151982  0.000020  0.000000 )
               b(2) = (  0.000000  0.167740  0.000000 )
               b(3) = (  0.000000  0.000000  0.039752 )

     PseudoPot. # 1 for Ti read from file:
     /storage/coda1/p-amedford6/0/shared/rich_project_chbe-medford/medford-share/data/pseudos_module/espresso/nninc/pbe/van/Ti.UPF
     MD5 check sum: 8e4df49b7f0d34bbd5052bf3f5ea0213
     Pseudo is Ultrasoft, Zval = 12.0
     Generated by new atomic code, or converted to UPF format
     Using radial grid of  851 points,  6 beta functions with:
                l(1) =   0
                l(2) =   0
                l(3) =   1
                l(4) =   1
                l(5) =   2
                l(6) =   2
     Q(r) pseudized with  8 coefficients,  rinner =    1.000   1.000   1.000
                                                       1.000   1.000

     PseudoPot. # 2 for O  read from file:
     /storage/coda1/p-amedford6/0/shared/rich_project_chbe-medford/medford-share/data/pseudos_module/espresso/nninc/pbe/van/O.UPF
     MD5 check sum: 78c19812648e8988a0fe644b0f25305e
     Pseudo is Ultrasoft, Zval =  6.0
     Generated by new atomic code, or converted to UPF format
     Using radial grid of  737 points,  4 beta functions with:
                l(1) =   0
                l(2) =   0
                l(3) =   1
                l(4) =   1
     Q(r) pseudized with  8 coefficients,  rinner =    0.800   0.800   0.800

     PseudoPot. # 3 for C  read from file:
     /storage/coda1/p-amedford6/0/shared/rich_project_chbe-medford/medford-share/data/pseudos_module/espresso/nninc/pbe/van/C.UPF
     MD5 check sum: 1a69bf6b8db32088f5b2163dbdb77a27
     Pseudo is Ultrasoft, Zval =  4.0
     Generated by new atomic code, or converted to UPF format
     Using radial grid of  721 points,  4 beta functions with:
                l(1) =   0
                l(2) =   0
                l(3) =   1
                l(4) =   1
     Q(r) pseudized with  8 coefficients,  rinner =    0.800   0.800   0.800

     PseudoPot. # 4 for H  read from file:
     /storage/coda1/p-amedford6/0/shared/rich_project_chbe-medford/medford-share/data/pseudos_module/espresso/nninc/pbe/van/H.UPF
     MD5 check sum: b5ee9d7bfd3a09ee7748110bda690ff7
     Pseudo is Ultrasoft, Zval =  1.0
     Generated by new atomic code, or converted to UPF format
     Using radial grid of  615 points,  1 beta functions with:
                l(1) =   0
     Q(r) pseudized with  8 coefficients,  rinner =    0.800

     atomic species   valence    mass     pseudopotential
        Ti1           12.00    47.86700     Ti( 1.00)
        O1             6.00    15.99900     O ( 1.00)
        C1             4.00    12.01100     C ( 1.00)
        H1             1.00     1.00800     H ( 1.00)

     No symmetry found

   Cartesian axes

     site n.     atom                  positions (alat units)
         1           Ti1 tau(   1) = (   0.0004258   2.9801865   6.0000000  )
         2           Ti1 tau(   2) = (   3.2906075   1.4906267   6.0002472  )
         3           O1  tau(   3) = (   0.0006271   0.0005054   7.9858123  )
         4           O1  tau(   4) = (   3.2906025   0.0005020   7.3038282  )
         5           O1  tau(   5) = (   4.5942328   1.4918067   9.2879030  )
         6           O1  tau(   6) = (   1.9868534   1.4903216   9.2879459  )
         7           Ti1 tau(   7) = (   3.2053781   3.0281819   9.2289109  )
         8           Ti1 tau(   8) = (   6.4789090   1.5422439   9.3246958  )
         9           O1  tau(   9) = (   3.3131828   0.0076525  11.3143355  )
        10           O1  tau(  10) = (   0.0036331   0.0073455  10.5537702  )
        11           O1  tau(  11) = (   1.2849538   1.5262321  12.5678262  )
        12           O1  tau(  12) = (   5.3289628   1.4687457  12.6164477  )
        13           Ti1 tau(  13) = (   0.0494698   3.0469090  12.7547230  )
        14           Ti1 tau(  14) = (   3.2845375   1.6334081  12.5308488  )
        15           O1  tau(  15) = (   0.1943872   0.0117586  14.6058021  )
        16           O1  tau(  16) = (   3.1943342   5.9422946  13.9142442  )
        17           O1  tau(  17) = (   4.6623408   1.4089460  15.7678261  )
        18           O1  tau(  18) = (   2.0428328   1.6351894  16.0888801  )
        19           Ti1 tau(  19) = (   3.4388860   2.9458104  15.8736401  )
        20           Ti1 tau(  20) = (   0.1295272   1.3814375  15.8666627  )
        21           O1  tau(  21) = (   3.2904802   0.0005063   4.7018136  )
        22           O1  tau(  22) = (   0.0846747   0.0144810  17.1090220  )
        23           O1  tau(  23) = (   1.3043587   1.4918075   6.0039043  )
        24           O1  tau(  24) = (   5.2767064   1.4903225   6.0039473  )
        25           Ti1 tau(  25) = (   0.0000382   5.9609847   6.0000000  )
        26           Ti1 tau(  26) = (   3.2902200   4.4714249   6.0002472  )
        27           O1  tau(  27) = (   0.0002396   2.9813036   7.9858123  )
        28           O1  tau(  28) = (   3.2902150   2.9813002   7.3038282  )
        29           O1  tau(  29) = (   4.5938453   4.4726049   9.2879030  )
        30           O1  tau(  30) = (   1.9864658   4.4711199   9.2879459  )
        31           Ti1 tau(  31) = (   3.2224821   0.0470802   9.2230333  )
        32           Ti1 tau(  32) = (   6.4759698   4.4664252   9.3127940  )
        33           O1  tau(  33) = (   3.3094535   2.9663607  11.2852029  )
        34           O1  tau(  34) = (   6.5591786   2.9896559  10.5312464  )
        35           O1  tau(  35) = (   1.2916819   4.4480478  12.5709280  )
        36           O1  tau(  36) = (   5.3369627   4.5124161  12.6303246  )
        37           Ti1 tau(  37) = (   6.5569224   0.0640291  12.4639877  )
        38           Ti1 tau(  38) = (   3.2972653   4.6387695  12.6472152  )
        39           O1  tau(  39) = (   0.0654804   2.9943531  14.6628162  )
        40           O1  tau(  40) = (   3.3673531   2.9793459  13.8791815  )
        41           O1  tau(  41) = (   4.6654837   4.5585741  15.7845026  )
        42           O1  tau(  42) = (   2.0434307   4.3527116  16.0649513  )
        43           Ti1 tau(  43) = (   3.4443475   5.9291804  16.0141943  )
        44           Ti1 tau(  44) = (   0.1552736   4.5966999  15.8683145  )
        45           O1  tau(  45) = (   3.2900926   2.9813045   4.7018136  )
        46           O1  tau(  46) = (   1.3039711   4.4726057   6.0039043  )
        47           O1  tau(  47) = (   5.2763189   4.4711207   6.0039473  )
        48           C1  tau(  48) = (   4.6056898   2.9812133  17.8228851  )
        49           O1  tau(  49) = (   6.0966523   2.9907575  17.4046881  )
        50           H1  tau(  50) = (   0.0599730   2.9907033  18.2108262  )
        51           H1  tau(  51) = (   4.4920754   2.0732530  18.4117920  )
        52           H1  tau(  52) = (   4.4771298   3.8877196  18.4106030  )
        53           O1  tau(  53) = (   3.3135712   0.0014964  17.8757943  )
        54           H1  tau(  54) = (   2.4287022   0.1083392  18.2542858  )

     number of k points=    10  Fermi-Dirac smearing, width (Ry)=  0.0073
                       cart. coord. in units 2pi/alat
        k(    1) = (   0.0000000   0.0000000   0.0000000), wk =   0.1250000
        k(    2) = (   0.0000000   0.0419351   0.0000000), wk =   0.2500000
        k(    3) = (   0.0000000  -0.0838702   0.0000000), wk =   0.1250000
        k(    4) = (   0.0379955   0.0000049   0.0000000), wk =   0.2500000
        k(    5) = (   0.0379955   0.0419400   0.0000000), wk =   0.2500000
        k(    6) = (   0.0379955  -0.0838652   0.0000000), wk =   0.2500000
        k(    7) = (   0.0379955  -0.0419301   0.0000000), wk =   0.2500000
        k(    8) = (  -0.0759910  -0.0000099   0.0000000), wk =   0.1250000
        k(    9) = (  -0.0759910   0.0419252   0.0000000), wk =   0.2500000
        k(   10) = (  -0.0759910  -0.0838800   0.0000000), wk =   0.1250000

     Initial potential from superposition of free atoms

     starting charge  381.99917, renormalised to  398.00000

     negative rho (up, down):  1.911E-02 0.000E+00

     %%%%%%%%%%%%%%%%%%%%%%%%%%%%%%%%%%%%%%%%%%%%%%%%%%%%%%%%%%%%%%%%%%%%%%%%
     %                                                                      %
     % You are using vdW-DF, which was implemented by the Thonhauser group. %
     % Please cite the following two papers that made this development      %
     % possible and the two reviews that describe the various versions:     %
     %                                                                      %
     %   T. Thonhauser et al., PRL 115, 136402 (2015).                      %
     %   T. Thonhauser et al., PRB 76, 125112 (2007).                       %
     %   K. Berland et al., Rep. Prog. Phys. 78, 066501 (2015).             %
     %   D.C. Langreth et al., J. Phys.: Condens. Matter 21, 084203 (2009). %
     %                                                                      %
     %                                                                      %
     % If you are calculating the stress with vdW-DF, please also cite:     %
     %                                                                      %
     %   R. Sabatini et al., J. Phys.: Condens. Matter 24, 424209 (2012).   %
     %                                                                      %
     %%%%%%%%%%%%%%%%%%%%%%%%%%%%%%%%%%%%%%%%%%%%%%%%%%%%%%%%%%%%%%%%%%%%%%%%

     Adding external electric field

     Computed dipole along edir(3) :
        Dipole               -7.9392 Ry au,        -20.1794 Debye
        Dipole field         -0.0150 Ry au,

        Potential amp.        1.3888 Ry
        Total length         46.3494 bohr

     Starting wfcs are  300 atomic wfcs
  @ DRIVER MODE: Message from server: STATUS
  @ DRIVER MODE: Message from server: POSDATA
  @ DRIVER MODE: Reading and sharing cell
  @ DRIVER MODE: Reading and sharing positions
  @ DRIVER MODE: Received positions

     Self-consistent Calculation

     iteration #  1     ecut=    29.40 Ry     beta= 0.05
     Davidson diagonalization with overlap
     c_bands:  1 eigenvalues not converged
     c_bands:  2 eigenvalues not converged
     c_bands:  2 eigenvalues not converged
     c_bands:  1 eigenvalues not converged
     c_bands:  1 eigenvalues not converged
     c_bands:  1 eigenvalues not converged
     ethr =  1.00E-05,  avg # of iterations = 18.8

[...]

     total energy              =   -2649.58930710 Ry
     estimated scf accuracy    <    3499.59069750 Ry

[...]

     iteration #  3     ecut=    29.40 Ry     beta= 0.05
     Davidson diagonalization with overlap
     ethr =  1.00E-02,  avg # of iterations = 14.2

[...]

     iteration # 36     ecut=    29.40 Ry     beta= 0.05
     Davidson diagonalization with overlap
     c_bands:  1 eigenvalues not converged
     ethr =  5.98E-07,  avg # of iterations =  4.8

[...]

     total energy              =   -2964.91877319 Ry
     estimated scf accuracy    <       0.00000053 Ry

     iteration # 56     ecut=    29.40 Ry     beta= 0.05
     Davidson diagonalization with overlap
     ethr =  7.91E-11,  avg # of iterations =  5.0

     negative rho (up, down):  1.875E-02 0.000E+00

     Adding external electric field

     Computed dipole along edir(3) :
        Dipole                0.6441 Ry au,          1.6371 Debye
        Dipole field          0.0012 Ry au,

        Potential amp.       -0.1127 Ry
        Total length         46.3494 bohr

     End of self-consistent calculation

          k = 0.0000 0.0000 0.0000 ( 18029 PWs)   bands (ev):

   -56.4311 -56.3663 -55.7976 -55.7953 -55.7496 -55.7455 -55.7418 -55.7016
   -55.6946 -55.6470 -55.4590 -55.4443 -55.3805 -55.3618 -54.9568 -54.9229
   -32.8335 -32.7067 -32.6299 -32.6020 -32.5002 -32.4582 -32.4109 -32.3222
   -32.2153 -32.1834 -32.1046 -32.0617 -32.0412 -32.0046 -32.0032 -31.9954
   -31.9761 -31.9614 -31.9564 -31.9446 -31.9399 -31.9366 -31.9241 -31.9064
   -31.8937 -31.8918 -31.8736 -31.8635 -31.8520 -31.8340 -31.8242 -31.7992
   -31.7601 -31.7044 -31.6615 -31.6479 -31.6230 -31.5937 -31.5908 -31.5602
   -31.5498 -31.4200 -31.3495 -31.3038 -31.2792 -31.1653 -31.0791 -30.9703
   -19.3234 -16.5890 -16.4384 -16.3096 -16.1733 -15.9571 -15.9281 -15.8249
   -15.7236 -15.6822 -15.6013 -15.5724 -15.4345 -15.3849 -15.3565 -15.3350
   -15.3155 -15.2963 -15.2819 -15.2441 -15.2287 -15.1945 -15.1413 -15.0756
   -15.0543 -15.0018 -14.9706 -14.9538 -14.8699 -14.8055 -14.7249 -13.4643
   -13.3584  -9.1610  -6.1927  -4.0869  -3.9756  -3.9312  -3.8861  -3.7857
    -3.7195  -3.6864  -3.6209  -3.3066  -3.1751  -3.0811  -3.0266  -3.0031
    -2.9278  -2.9266  -2.9126  -2.7946  -2.7356  -2.7096  -2.6479  -2.6310
    -2.5880  -2.5532  -2.5486  -2.5341  -2.4920  -2.4518  -2.4119  -2.3924
    -2.3468  -2.2640  -2.2458  -2.1685  -2.1340  -2.1123  -2.0251  -1.9599
    -1.9502  -1.9136  -1.8892  -1.7824  -1.6060  -1.5195  -1.4629  -1.4076
    -1.3861  -1.3182  -1.3090  -1.2499  -1.1934  -1.1690  -1.1653  -1.0491
    -0.9966  -0.9639  -0.9180  -0.8834  -0.8189  -0.7720  -0.7557  -0.7257
    -0.7117  -0.6037  -0.5172  -0.4975  -0.4687  -0.4355  -0.3149  -0.2682
    -0.2358  -0.2085  -0.1916  -0.1505  -0.1064  -0.0383   0.0067   0.0625
     0.1012   0.1721   0.1824   0.2208   0.2561   0.2922   0.3553   0.3710
     0.4743   0.5034   0.5597   0.5965   0.7412   0.7700   0.9313   0.9904
     1.0537   1.1484   1.2744   1.3365   1.5840   1.6234   1.7824   2.8840
     3.0468   3.3145   3.3592   3.4943   3.5647   3.6223   3.7640   3.7910
     3.8445

[...]

          k = 0.0380-0.0419 0.0000 ( 17876 PWs)   bands (ev):

[...]

          k =-0.0760-0.0000 0.0000 ( 17886 PWs)   bands (ev):

[...]

          k =-0.0760-0.0839 0.0000 ( 17948 PWs)   bands (ev):

   -56.4263 -56.3709 -55.7898 -55.7889 -55.7571 -55.7481 -55.7381 -55.7088
   -55.6874 -55.6542 -55.4559 -55.4395 -55.3853 -55.3647 -54.9400 -54.9395
   -32.7036 -32.6724 -32.6319 -32.6267 -32.5736 -32.5258 -32.3332 -32.1613
   -32.1072 -32.0734 -32.0535 -32.0354 -32.0347 -32.0222 -32.0149 -32.0129
   -31.9977 -31.9816 -31.9760 -31.9568 -31.9553 -31.9530 -31.9498 -31.9371
   -31.9243 -31.9039 -31.8929 -31.8841 -31.8677 -31.8386 -31.7862 -31.7680
   -31.7584 -31.7230 -31.7154 -31.6819 -31.6625 -31.6495 -31.6348 -31.6030
   -31.5970 -31.4209 -31.2925 -31.2922 -31.1633 -31.1628 -31.1225 -31.1221
   -19.3159 -16.2466 -16.1288 -15.9404 -15.9048 -15.8285 -15.8268 -15.7774
   -15.7377 -15.6407 -15.5857 -15.5674 -15.4949 -15.4708 -15.4537 -15.4279
   -15.3778 -15.3524 -15.3287 -15.3178 -15.2741 -15.2492 -15.2459 -15.1989
   -15.1454 -15.1198 -15.1017 -15.0502 -14.9945 -14.9355 -14.8828 -13.4657
   -13.4600  -9.1690  -6.1745  -4.0899  -3.6689  -3.6325  -3.3385  -3.1555
    -2.9763  -2.9645  -2.9508  -2.9430  -2.8742  -2.8674  -2.8186  -2.7785
    -2.7228  -2.7026  -2.6753  -2.6701  -2.6640  -2.6225  -2.6120  -2.5858
    -2.5591  -2.5539  -2.5107  -2.5036  -2.4840  -2.4368  -2.4227  -2.3891
    -2.3604  -2.3337  -2.2815  -2.2243  -2.2051  -2.1918  -2.0646  -1.9958
    -1.9913  -1.9156  -1.9014  -1.8727  -1.8334  -1.7570  -1.6961  -1.6564
    -1.5245  -1.5046  -1.4486  -1.4109  -1.3367  -1.3251  -1.2416  -1.2123
    -1.1680  -1.1391  -1.1066  -1.0855  -1.0650  -1.0613  -0.9377  -0.9062
    -0.8516  -0.8388  -0.8064  -0.7734  -0.7500  -0.6936  -0.6247  -0.6167
    -0.5674  -0.5207  -0.4534  -0.4145  -0.3343  -0.2768  -0.2372  -0.1704
    -0.0638   0.0571   0.0958   0.2006   0.2976   0.3053   0.3713   0.4210
     0.4472   0.4926   0.5787   0.5891   0.6551   0.6678   0.7006   0.7579
     0.8070   0.8769   1.4241   1.4400   1.4617   1.4645   1.7204   3.4275
     3.4542   3.4743   3.5170   3.6634   3.7566   3.7833   3.8496   3.8952
     3.9191

     the Fermi energy is     2.4065 ev

!    total energy              =   -2964.91883619 Ry
     estimated scf accuracy    <       0.00000005 Ry
     smearing contrib. (-TS)   =      -0.00043759 Ry
     internal energy E=F+TS    =   -2964.91839861 Ry

     The total energy is F=E-TS. E is the sum of the following terms:
     one-electron contribution =  -24900.69432216 Ry
     hartree contribution      =   12540.71992711 Ry
     xc contribution           =    -490.06932467 Ry
     ewald contribution        =    9885.12453821 Ry
     electric field correction =       0.00078290 Ry

     convergence has been achieved in  56 iterations

     Forces acting on atoms (cartesian axes, Ry/au):

     atom    1 type  1   force =     0.00009540   -0.00022743    0.12246188
     atom    2 type  1   force =     0.00010089    0.00183330   -0.15173616
     atom    3 type  2   force =    -0.00068349   -0.00092534   -0.05775486
     atom    4 type  2   force =    -0.00119366    0.00052146    0.04763324
     atom    5 type  2   force =    -0.01071833   -0.00519355   -0.00144245
     atom    6 type  2   force =     0.01359414    0.00025558   -0.00015354
     atom    7 type  1   force =    -0.00026693    0.00015009    0.00005834
     atom    8 type  1   force =     0.00039620   -0.00013935   -0.00041938
     atom    9 type  2   force =     0.00001437   -0.00023988    0.00041846
     atom   10 type  2   force =    -0.00012616   -0.00005759    0.00012254
     atom   11 type  2   force =    -0.00046548   -0.00026788    0.00026395
     atom   12 type  2   force =     0.00017680    0.00007998   -0.00001220
     atom   13 type  1   force =     0.00040345   -0.00011593   -0.00000119
     atom   14 type  1   force =    -0.00011053   -0.00027171    0.00001534
     atom   15 type  2   force =    -0.00029230   -0.00022729   -0.00022588
     atom   16 type  2   force =     0.00018728    0.00009940   -0.00004562
     atom   17 type  2   force =    -0.00019594   -0.00014747   -0.00011939
     atom   18 type  2   force =    -0.00039459    0.00009026   -0.00034956
     atom   19 type  1   force =    -0.00035842   -0.00022781   -0.00008114
     atom   20 type  1   force =     0.00003487    0.00016388   -0.00042811
     atom   21 type  2   force =     0.00027123    0.00013014    0.09729872
     atom   22 type  2   force =    -0.00031839   -0.00042867   -0.00026828
     atom   23 type  2   force =    -0.08313305    0.00238772   -0.03357890
     atom   24 type  2   force =     0.08318199    0.00267446   -0.03364826
     atom   25 type  1   force =     0.00041615    0.00037670    0.13902908
     atom   26 type  1   force =     0.00005222   -0.00119807   -0.15156259
     atom   27 type  2   force =    -0.00070038    0.00143535   -0.05289651
     atom   28 type  2   force =    -0.00117940    0.00017453    0.04594647
     atom   29 type  2   force =    -0.01132851    0.00058526   -0.00073941
     atom   30 type  2   force =     0.01406131    0.00412608    0.00076079
     atom   31 type  1   force =    -0.00049222   -0.00017077    0.00013420
     atom   32 type  1   force =     0.00034268   -0.00004534   -0.00018627
     atom   33 type  2   force =    -0.00024478    0.00011828    0.00008986
     atom   34 type  2   force =     0.00013682    0.00008282    0.00011045
     atom   35 type  2   force =    -0.00019816    0.00054932    0.00034994
     atom   36 type  2   force =     0.00022708   -0.00000778   -0.00017857
     atom   37 type  1   force =    -0.00062544    0.00028008    0.00025856
     atom   38 type  1   force =    -0.00031772   -0.00041021   -0.00016936
     atom   39 type  2   force =     0.00006531   -0.00005047    0.00030878
     atom   40 type  2   force =    -0.00028956   -0.00008649    0.00029843
     atom   41 type  2   force =    -0.00001847   -0.00049118    0.00008047
     atom   42 type  2   force =     0.00006320    0.00009700    0.00072098
     atom   43 type  1   force =    -0.00016246    0.00058639   -0.00018436
     atom   44 type  1   force =    -0.00040742   -0.00001137    0.00003960
     atom   45 type  2   force =     0.00023313    0.00013391    0.09736796
     atom   46 type  2   force =    -0.08305522   -0.00265450   -0.03359939
     atom   47 type  2   force =     0.08308890   -0.00230718   -0.03370123
     atom   48 type  3   force =    -0.00007938   -0.00005556    0.00003460
     atom   49 type  2   force =     0.00001033    0.00009914   -0.00017715
     atom   50 type  4   force =     0.00029981    0.00004581   -0.00024791
     atom   51 type  4   force =     0.00010012   -0.00005113    0.00018371
     atom   52 type  4   force =    -0.00018798    0.00012401   -0.00007837
     atom   53 type  2   force =     0.00135653   -0.00094466   -0.00023975
     atom   54 type  4   force =    -0.00136587   -0.00024635    0.00023944

     Total force =     0.377705     Total SCF correction =     0.000587
  @ DRIVER MODE: Message from server: STATUS
  @ DRIVER MODE: Message from server: GETFORCE
  @ DRIVER MODE: Returning v,forces,stress,ensemble

     Writing output data file ./calc.save/
  @ DRIVER MODE: Message from server: EXIT
  @ DRIVE MODE: Exiting

     General routines

     Parallel routines

   This run was terminated on:  10:46:25  23Sep2021

   JOB DONE.