     Program PWSCF v.6.7GPU starts on 18Oct2021 at 15: 8:49

     R & G space division:  proc/nbgrp/npool/nimage =       8
     Reading input from /storage/home/hcoda1/3/ntian30/research/carbon/CxH_vib/Thiel_calc/ads_slab/HNNH_perslab/out_0007/pw.inp
Warning: card &CELL ignored
Warning: card   CELL_DYNAMICS='IPI', ignored
Warning: card / ignored

     Current dimensions of program PWSCF are:
     Max number of different atomic species (ntypx) = 10
     Max number of k-points (npk) =  40000
     Max angular momentum in pseudopotentials (lmaxx) =  3
     Presently no symmetry can be used with electric field

     Message from routine cell_base_init:
     DEPRECATED: use true lattice parameter, not A to a.u. conversion factor

     IMPORTANT: XC functional enforced from input :
     Exchange-correlation= BEEF-VDW
                           (   1   4  43  14   2   0   0)
     Any further DFT definition will be discarded
     Please, verify this is what you really want

  @ DRIVER MODE: Connecting to
 qe_1139763_3255131.sched-torque.pace.gatech.eduvbk0vgou_scratch
  using UNIX socket
  @ DRIVER MODE: Message from server: STATUS
  @ DRIVER MODE: Message from server: INIT
  @ DRIVER MODE: Receiving replica           0          -1
  @ DRIVER MODE: Receiving encoded integer          25
  @ DRIVER MODE:  SCF:  T  FORCE:  T  STRESS:  F  VC:  F  ENSEMBLE:  F
  @ DRIVER MODE:  SCF:  T  FORCE:  T  STRESS:  F  VC:  F  ENSEMBLE:  F

     Using Slab Decomposition

     bravais-lattice index     =            0
     lattice parameter (alat)  =       1.8897  a.u.
     unit-cell volume          =    9988.4706 (a.u.)^3
     number of atoms/cell      =           57
     number of atomic types    =            4
     number of electrons       =       438.00
     number of Kohn-Sham states=          229
     kinetic-energy cutoff     =      29.3995  Ry
     charge density cutoff     =     293.9946  Ry
     scf convergence threshold =      7.3E-08
     mixing beta               =       0.0500
     number of iterations used =            8  plain     mixing
     Exchange-correlation= BEEF-VDW
                           (   1   4  43  14   2   0   0)

     celldm(1)=   1.889726  celldm(2)=   0.000000  celldm(3)=   0.000000
     celldm(4)=   0.000000  celldm(5)=   0.000000  celldm(6)=   0.000000

     crystal axes: (cart. coord. in units of alat)
               a(1) = (   6.579727   0.000000   0.000000 )
               a(2) = (  -0.001163   8.942395   0.000000 )
               a(3) = (   0.000000   0.000000  25.155947 )

     reciprocal axes: (cart. coord. in units 2 pi/alat)
               b(1) = (  0.151982  0.000020  0.000000 )
               b(2) = (  0.000000  0.111827  0.000000 )
               b(3) = (  0.000000  0.000000  0.039752 )

     PseudoPot. # 1 for O  read from file:
     /storage/coda1/p-amedford6/0/shared/rich_project_chbe-medford/medford-share/data/pseudos_module/espresso/nninc/pbe/van/O.UPF
     MD5 check sum: 78c19812648e8988a0fe644b0f25305e
     Pseudo is Ultrasoft, Zval =  6.0
     Generated by new atomic code, or converted to UPF format
     Using radial grid of  737 points,  4 beta functions with:
                l(1) =   0
                l(2) =   0
                l(3) =   1
                l(4) =   1
     Q(r) pseudized with  8 coefficients,  rinner =    0.800   0.800   0.800

     PseudoPot. # 2 for Ti read from file:
     /storage/coda1/p-amedford6/0/shared/rich_project_chbe-medford/medford-share/data/pseudos_module/espresso/nninc/pbe/van/Ti.UPF
     MD5 check sum: 8e4df49b7f0d34bbd5052bf3f5ea0213
     Pseudo is Ultrasoft, Zval = 12.0
     Generated by new atomic code, or converted to UPF format
     Using radial grid of  851 points,  6 beta functions with:
                l(1) =   0
                l(2) =   0
                l(3) =   1
                l(4) =   1
                l(5) =   2
                l(6) =   2
     Q(r) pseudized with  8 coefficients,  rinner =    1.000   1.000   1.000
                                                       1.000   1.000

     PseudoPot. # 3 for H  read from file:
     /storage/coda1/p-amedford6/0/shared/rich_project_chbe-medford/medford-share/data/pseudos_module/espresso/nninc/pbe/van/H.UPF
     MD5 check sum: b5ee9d7bfd3a09ee7748110bda690ff7
     Pseudo is Ultrasoft, Zval =  1.0
     Generated by new atomic code, or converted to UPF format
     Using radial grid of  615 points,  1 beta functions with:
                l(1) =   0
     Q(r) pseudized with  8 coefficients,  rinner =    0.800

     PseudoPot. # 4 for N  read from file:
     /storage/coda1/p-amedford6/0/shared/rich_project_chbe-medford/medford-share/data/pseudos_module/espresso/nninc/pbe/van/N.UPF
     MD5 check sum: 90d10febe142ad51ac9d5be1deb811c4
     Pseudo is Ultrasoft, Zval =  5.0
     Generated by new atomic code, or converted to UPF format
     Using radial grid of  729 points,  4 beta functions with:
                l(1) =   0
                l(2) =   0
                l(3) =   1
                l(4) =   1
     Q(r) pseudized with  8 coefficients,  rinner =    0.800   0.800   0.800

     atomic species   valence    mass     pseudopotential
        O1             6.00    15.99900     O ( 1.00)
        Ti1           12.00    47.86700     Ti( 1.00)
        H1             1.00     1.00800     H ( 1.00)
        N1             5.00    14.00700     N ( 1.00)

     No symmetry found

   Cartesian axes

     site n.     atom                  positions (alat units)
         1           O1  tau(   1) = (   0.0007354   0.0005023  10.5931620  )
         2           O1  tau(   2) = (   3.2896598   8.9340738  13.9086047  )
         3           O1  tau(   3) = (   6.5779785   8.9335072  17.2267929  )
         4           O1  tau(   4) = (   0.0006271   0.0005054   7.9858123  )
         5           O1  tau(   5) = (   3.2892818   8.9168625  11.1887994  )
         6           O1  tau(   6) = (   0.0000953   0.0200859  14.6187425  )
         7           O1  tau(   7) = (   1.9868534   1.4903216   9.2879459  )
         8           O1  tau(   8) = (   5.2299496   1.5903429  12.5639559  )
         9           O1  tau(   9) = (   2.0057315   1.6103507  16.0678580  )
        10           Ti1 tau(  10) = (   0.0007404   1.4906270   9.2895810  )
        11           Ti1 tau(  11) = (   3.2903845   1.3415648  12.5012035  )
        12           Ti1 tau(  12) = (   0.0001950   1.2451541  15.9845895  )
        13           O1  tau(  13) = (   4.5942328   1.4918067   9.2879030  )
        14           O1  tau(  14) = (   1.3504490   1.5899334  12.5641350  )
        15           O1  tau(  15) = (   4.5723762   1.6092463  16.0679920  )
        16           Ti1 tau(  16) = (   3.2902859   2.9801868   9.2893338  )
        17           Ti1 tau(  17) = (  -0.0000381   2.8017340  12.4757424  )
        18           Ti1 tau(  18) = (   3.2890522   2.9119407  15.7046117  )
        19           O1  tau(  19) = (   0.0003479   2.9813005  10.5931620  )
        20           O1  tau(  20) = (   3.2896940   2.9634103  13.8950687  )
        21           O1  tau(  21) = (   0.0002396   2.9813036   7.9858123  )
        22           O1  tau(  22) = (   3.2899864   2.9652420  11.1892519  )
        23           O1  tau(  23) = (  -0.0000843   3.0239999  14.5506518  )
        24           O1  tau(  24) = (   1.9864658   4.4711199   9.2879459  )
        25           O1  tau(  25) = (   5.2265999   4.6000300  12.5825491  )
        26           O1  tau(  26) = (   2.0173024   4.5375175  16.0298170  )
        27           Ti1 tau(  27) = (   0.0003529   4.4714252   9.2895810  )
        28           Ti1 tau(  28) = (   3.2900658   4.3228872  12.5050252  )
        29           Ti1 tau(  29) = (   0.0015352   4.3959346  15.6897578  )
        30           O1  tau(  30) = (   4.5938453   4.4726049   9.2879030  )
        31           O1  tau(  31) = (   1.3532953   4.6000771  12.5829012  )
        32           O1  tau(  32) = (   4.5620845   4.5358613  16.0300787  )
        33           Ti1 tau(  33) = (   3.2898983   5.9609850   9.2893338  )
        34           Ti1 tau(  34) = (  -0.0003676   5.8120669  12.4544080  )
        35           Ti1 tau(  35) = (   3.2921900   5.8807914  15.7090278  )
        36           O1  tau(  36) = (  -0.0000397   5.9620987  10.5931620  )
        37           O1  tau(  37) = (   3.2903388   5.9631658  13.9136923  )
        38           O1  tau(  38) = (  -0.0000761   5.9602876  17.3216368  )
        39           O1  tau(  39) = (  -0.0001480   5.9621018   7.9858123  )
        40           O1  tau(  40) = (   3.2896813   5.9437884  11.1873515  )
        41           O1  tau(  41) = (  -0.0004454   6.0514558  14.6911356  )
        42           O1  tau(  42) = (   1.9860782   7.4519181   9.2879459  )
        43           O1  tau(  43) = (   5.2331690   7.5528723  12.5749626  )
        44           O1  tau(  44) = (   2.0197658   7.5481525  16.0489791  )
        45           Ti1 tau(  45) = (  -0.0000347   7.4522234   9.2895810  )
        46           Ti1 tau(  46) = (   3.2899396   7.3045924  12.4973202  )
        47           Ti1 tau(  47) = (   0.0022254   7.3576980  16.0878887  )
        48           O1  tau(  48) = (   4.5934577   7.4534031   9.2879030  )
        49           O1  tau(  49) = (   1.3462119   7.5526743  12.5754142  )
        50           O1  tau(  50) = (   4.5579802   7.5455642  16.0489991  )
        51           Ti1 tau(  51) = (   3.2895107   8.9417832   9.2893338  )
        52           Ti1 tau(  52) = (  -0.0004108   8.7719052  12.5005688  )
        53           Ti1 tau(  53) = (   3.2909707   8.8596889  15.7095313  )
        54           H1  tau(  54) = (   6.5770345   5.6246256  18.2315160  )
        55           N1  tau(  55) = (   6.5673047   3.3138987  18.5316601  )
        56           N1  tau(  56) = (   6.5788436   3.1068121  17.3210979  )
        57           H1  tau(  57) = (   6.5767427   2.4184016  19.0716447  )

     number of k points=    10  Fermi-Dirac smearing, width (Ry)=  0.0073
                       cart. coord. in units 2pi/alat
        k(    1) = (   0.0000000   0.0000000   0.0000000), wk =   0.1250000
        k(    2) = (   0.0000000   0.0279567   0.0000000), wk =   0.2500000
        k(    3) = (   0.0000000  -0.0559134   0.0000000), wk =   0.1250000
        k(    4) = (   0.0379955   0.0000049   0.0000000), wk =   0.2500000
        k(    5) = (   0.0379955   0.0279617   0.0000000), wk =   0.2500000
        k(    6) = (   0.0379955  -0.0559085   0.0000000), wk =   0.2500000
        k(    7) = (   0.0379955  -0.0279518   0.0000000), wk =   0.2500000
        k(    8) = (  -0.0759910  -0.0000099   0.0000000), wk =   0.1250000
        k(    9) = (  -0.0759910   0.0279468   0.0000000), wk =   0.2500000
        k(   10) = (  -0.0759910  -0.0559233   0.0000000), wk =   0.1250000

     Initial potential from superposition of free atoms

     starting charge  419.99912, renormalised to  438.00000

     negative rho (up, down):  3.865E-02 0.000E+00

     %%%%%%%%%%%%%%%%%%%%%%%%%%%%%%%%%%%%%%%%%%%%%%%%%%%%%%%%%%%%%%%%%%%%%%%%
     %                                                                      %
     % You are using vdW-DF, which was implemented by the Thonhauser group. %
     % Please cite the following two papers that made this development      %
     % possible and the two reviews that describe the various versions:     %
     %                                                                      %
     %   T. Thonhauser et al., PRL 115, 136402 (2015).                      %
     %   T. Thonhauser et al., PRB 76, 125112 (2007).                       %
     %   K. Berland et al., Rep. Prog. Phys. 78, 066501 (2015).             %
     %   D.C. Langreth et al., J. Phys.: Condens. Matter 21, 084203 (2009). %
     %                                                                      %
     %                                                                      %
     % If you are calculating the stress with vdW-DF, please also cite:     %
     %                                                                      %
     %   R. Sabatini et al., J. Phys.: Condens. Matter 24, 424209 (2012).   %
     %                                                                      %
     %%%%%%%%%%%%%%%%%%%%%%%%%%%%%%%%%%%%%%%%%%%%%%%%%%%%%%%%%%%%%%%%%%%%%%%%

     Adding external electric field

     Computed dipole along edir(3) :
        Dipole               -4.5407 Ry au,        -11.5413 Debye
        Dipole field         -0.0057 Ry au,

        Potential amp.        0.5296 Ry
        Total length         46.3494 bohr

     Starting wfcs are  330 atomic wfcs
  @ DRIVER MODE: Message from server: STATUS
  @ DRIVER MODE: Message from server: POSDATA
  @ DRIVER MODE: Reading and sharing cell
  @ DRIVER MODE: Reading and sharing positions
  @ DRIVER MODE: Received positions

     Self-consistent Calculation

     iteration #  1     ecut=    29.40 Ry     beta= 0.05
     Davidson diagonalization with overlap
     c_bands:  3 eigenvalues not converged
     c_bands:  2 eigenvalues not converged
     c_bands:  3 eigenvalues not converged
     c_bands:  5 eigenvalues not converged
     c_bands:  5 eigenvalues not converged
     c_bands:  1 eigenvalues not converged
     c_bands:  2 eigenvalues not converged
     ethr =  1.00E-05,  avg # of iterations = 24.8

[...]

     total energy              =   -3289.18015863 Ry
     estimated scf accuracy    <      57.50603987 Ry

     iteration #  2     ecut=    29.40 Ry     beta= 0.05
     Davidson diagonalization with overlap
     ethr =  1.00E-02,  avg # of iterations =  5.5

[...]

     iteration # 37     ecut=    29.40 Ry     beta= 0.05
     Davidson diagonalization with overlap
     c_bands:  1 eigenvalues not converged
     c_bands:  1 eigenvalues not converged
     ethr =  9.45E-07,  avg # of iterations = 12.4

[...]

     total energy              =   -3290.76664882 Ry
     estimated scf accuracy    <       0.00000012 Ry

     iteration # 58     ecut=    29.40 Ry     beta= 0.05
     Davidson diagonalization with overlap
     ethr =  2.63E-11,  avg # of iterations = 10.3

     negative rho (up, down):  3.654E-02 0.000E+00

     Adding external electric field

     Computed dipole along edir(3) :
        Dipole                1.2082 Ry au,          3.0710 Debye
        Dipole field          0.0015 Ry au,

        Potential amp.       -0.1409 Ry
        Total length         46.3494 bohr

     End of self-consistent calculation

          k = 0.0000 0.0000 0.0000 ( 26871 PWs)   bands (ev):

   -57.9818 -57.9777 -57.9744 -57.9572 -57.9548 -57.9170 -57.8545 -57.8135
   -57.7896 -57.7803 -57.7098 -57.6879 -57.6555 -57.3920 -57.3670 -56.9219
   -56.8987 -56.8846 -34.3755 -34.3690 -34.3674 -34.3564 -34.3538 -34.3208
   -34.3104 -34.3024 -34.3007 -34.2937 -34.2540 -34.2488 -34.1931 -34.1879
   -34.1786 -34.1782 -34.1651 -34.1558 -34.1510 -34.1480 -34.1272 -34.1067
   -34.0976 -34.0793 -34.0774 -34.0721 -34.0673 -34.0409 -34.0215 -33.9743
   -33.9734 -33.9631 -33.9461 -33.9386 -33.9346 -33.9299 -33.9023 -33.8782
   -33.8679 -33.8241 -33.6894 -33.6723 -33.6331 -33.6074 -33.5794 -33.2438
   -33.2362 -33.2271 -33.2209 -33.2145 -33.1433 -33.0843 -33.0687 -32.9411
   -20.7908 -19.3908 -18.8141 -18.4153 -18.2279 -18.2116 -18.2028 -18.1456
   -18.0693 -18.0656 -17.8850 -17.7948 -17.7723 -17.7460 -17.7278 -17.6950
   -17.6372 -17.6178 -17.5971 -17.5873 -17.5670 -17.5617 -17.4832 -17.4188
   -17.3935 -17.3865 -17.3788 -17.3751 -17.3054 -17.2199 -17.1296 -17.0707
   -17.0371 -15.3864 -15.3329 -15.3276 -11.2611  -7.6592  -7.1703  -6.1366
    -5.9255  -5.8602  -5.7849  -5.4352  -5.4225  -5.4199  -5.3544  -5.3336
    -5.2970  -5.2842  -5.2342  -5.2143  -5.2136  -5.1853  -5.1103  -5.0874
    -5.0608  -4.9856  -4.9392  -4.9081  -4.8578  -4.8440  -4.7447  -4.7434
    -4.7199  -4.7178  -4.7054  -4.6864  -4.6372  -4.6292  -4.5351  -4.5175
    -4.4741  -4.3545  -4.3306  -4.2711  -4.2545  -4.2252  -4.1416  -4.0785
    -4.0674  -4.0489  -4.0147  -3.9825  -3.9476  -3.9144  -3.8644  -3.7847
    -3.7200  -3.6815  -3.5692  -3.5130  -3.4791  -3.4563  -3.3769  -3.3584
    -3.3183  -3.2463  -3.1988  -3.1581  -3.1228  -3.1202  -3.0850  -2.9876
    -2.9800  -2.9029  -2.8206  -2.7943  -2.7157  -2.7047  -2.6967  -2.6796
    -2.6601  -2.6320  -2.6034  -2.5737  -2.4955  -2.4796  -2.4559  -2.4026
    -2.2958  -2.2790  -2.2744  -2.2575  -2.2528  -2.1867  -2.0878  -1.9785
    -1.9782  -1.9700  -1.8267  -1.8000  -1.7470  -1.7436  -1.6952  -1.6245
    -1.5681  -1.1783  -0.9400  -0.6540  -0.6215  -0.6131  -0.3746  -0.3648
    -0.2466   0.0062   0.9956   1.2646   1.3448   1.4318   1.4817   1.4874
     1.6131   1.6356   1.6689   1.7153   1.7654

[...]

          k = 0.0380-0.0280 0.0000 ( 26873 PWs)   bands (ev):

[...]

          k =-0.0760-0.0000 0.0000 ( 26902 PWs)   bands (ev):

[...]

          k =-0.0760-0.0559 0.0000 ( 26868 PWs)   bands (ev):

   -57.9760 -57.9756 -57.9744 -57.9719 -57.9475 -57.9177 -57.8541 -57.8093
   -57.7980 -57.7758 -57.7077 -57.6912 -57.6544 -57.3921 -57.3668 -56.9180
   -56.9059 -56.8812 -34.4482 -34.4351 -34.3806 -34.3689 -34.3352 -34.3141
   -34.3107 -34.2994 -34.2720 -34.2641 -34.2259 -34.2043 -34.2042 -34.1664
   -34.1659 -34.1650 -34.1629 -34.1441 -34.1239 -34.1218 -34.1170 -34.1067
   -34.1066 -34.0676 -34.0644 -34.0550 -34.0347 -34.0295 -34.0068 -34.0008
   -33.9950 -33.9946 -33.9814 -33.9781 -33.9506 -33.9340 -33.9294 -33.8783
   -33.8611 -33.7792 -33.7307 -33.6754 -33.6345 -33.6094 -33.5806 -33.3204
   -33.2455 -33.2341 -33.2110 -33.1287 -33.1141 -33.0557 -33.0441 -33.0306
   -20.7897 -19.3850 -18.5064 -18.4938 -18.1806 -18.1114 -18.0775 -18.0468
   -18.0066 -17.9709 -17.9412 -17.9288 -17.8999 -17.8059 -17.7962 -17.7250
   -17.7007 -17.6778 -17.6647 -17.6365 -17.6017 -17.5976 -17.5841 -17.4763
   -17.4651 -17.3821 -17.3634 -17.3205 -17.2637 -17.2190 -17.1183 -17.1052
   -17.0050 -15.3888 -15.3811 -15.2674 -11.2586  -7.6422  -7.1525  -5.7654
    -5.7595  -5.7246  -5.6999  -5.6402  -5.3715  -5.3444  -5.2177  -5.2136
    -5.2061  -5.1732  -5.1521  -5.1116  -5.0955  -5.0838  -5.0713  -5.0663
    -5.0008  -4.9985  -4.9456  -4.9151  -4.8682  -4.8617  -4.8527  -4.7965
    -4.7717  -4.7346  -4.7291  -4.6934  -4.5742  -4.5536  -4.5293  -4.4886
    -4.4524  -4.4343  -4.3513  -4.2954  -4.2271  -4.1137  -4.0905  -4.0855
    -4.0306  -3.9881  -3.9280  -3.8783  -3.7238  -3.6884  -3.6628  -3.5968
    -3.5685  -3.5545  -3.5388  -3.5175  -3.5035  -3.4513  -3.4455  -3.3914
    -3.3554  -3.3273  -3.3076  -3.2153  -3.1650  -3.1318  -3.0926  -3.0742
    -3.0635  -3.0521  -3.0252  -3.0187  -3.0170  -2.9518  -2.9419  -2.9009
    -2.8559  -2.7685  -2.7386  -2.6996  -2.6417  -2.5368  -2.5182  -2.4674
    -2.4527  -2.3958  -2.2120  -2.1985  -2.1815  -2.1381  -2.0910  -2.0521
    -2.0432  -2.0229  -1.9751  -1.8662  -1.7321  -1.7129  -1.5519  -1.4836
    -1.4765  -1.4557  -1.2543  -0.8375  -0.5531  -0.5250  -0.5197  -0.3780
    -0.3747   0.0084   1.1560   1.1804   1.2471   1.3188   1.3545   1.3627
     1.3831   1.4857   1.4892   1.5914   1.6561

     the Fermi energy is     1.0948 ev

!    total energy              =   -3290.76670386 Ry
     estimated scf accuracy    <       0.00000005 Ry
     smearing contrib. (-TS)   =      -0.03255785 Ry
     internal energy E=F+TS    =   -3290.73414600 Ry

     The total energy is F=E-TS. E is the sum of the following terms:
     one-electron contribution =  -34499.06372864 Ry
     hartree contribution      =   17310.89458989 Ry
     xc contribution           =    -540.51324695 Ry
     ewald contribution        =   14437.94640313 Ry
     electric field correction =       0.00183656 Ry

     convergence has been achieved in  58 iterations

     Forces acting on atoms (cartesian axes, Ry/au):

     atom    1 type  1   force =    -0.00000142    0.00296067    0.06150577
     atom    2 type  1   force =     0.00005946    0.00057084   -0.00872673
     atom    3 type  1   force =    -0.00000123   -0.00449556    0.00120328
     atom    4 type  1   force =     0.00005342   -0.00105901    0.10513996
     atom    5 type  1   force =     0.00005177   -0.00001099    0.01002113
     atom    6 type  1   force =     0.00000116   -0.00426080    0.00691783
     atom    7 type  1   force =     0.07081945   -0.00017880   -0.02969240
     atom    8 type  1   force =     0.00421727   -0.02882436    0.00202493
     atom    9 type  1   force =     0.00656080   -0.02312226    0.00258814
     atom   10 type  2   force =    -0.00004792   -0.00529950   -0.17415507
     atom   11 type  2   force =    -0.00024202    0.02022078   -0.00521932
     atom   12 type  2   force =     0.00014651    0.02584497   -0.00808808
     atom   13 type  1   force =    -0.07091103   -0.00062865   -0.02963362
     atom   14 type  1   force =    -0.00451084   -0.02852849    0.00200110
     atom   15 type  1   force =    -0.00615590   -0.02309388    0.00270717
     atom   16 type  2   force =     0.00010312   -0.00200509    0.06354709
     atom   17 type  2   force =     0.00046988    0.03496386    0.00376290
     atom   18 type  2   force =    -0.00007928    0.01822539   -0.00078934
     atom   19 type  1   force =    -0.00001205    0.00865215    0.05614860
     atom   20 type  1   force =     0.00004193    0.00030070   -0.00813711
     atom   21 type  1   force =     0.00004662    0.00236759    0.10553105
     atom   22 type  1   force =     0.00004643   -0.00045430    0.00965377
     atom   23 type  1   force =    -0.00006342   -0.00191442    0.00323433
     atom   24 type  1   force =     0.06934322   -0.00028797   -0.02955316
     atom   25 type  1   force =     0.00470349   -0.02810123    0.00244753
     atom   26 type  1   force =     0.00609337   -0.01522778   -0.00025010
     atom   27 type  2   force =    -0.00005333   -0.00797865   -0.18327327
     atom   28 type  2   force =    -0.00027151    0.02039804   -0.00595925
     atom   29 type  2   force =    -0.00013066    0.02371841    0.00535253
     atom   30 type  1   force =    -0.06943793   -0.00074135   -0.02949904
     atom   31 type  1   force =    -0.00497171   -0.02781244    0.00241695
     atom   32 type  1   force =    -0.00603231   -0.01497187   -0.00041711
     atom   33 type  2   force =     0.00007374   -0.00101285    0.06384761
     atom   34 type  2   force =     0.00046266    0.03461777    0.00494303
     atom   35 type  2   force =    -0.00003598    0.02155596    0.00150734
     atom   36 type  1   force =    -0.00001113    0.00377098    0.05851174
     atom   37 type  1   force =     0.00004453   -0.00064055   -0.00668804
     atom   38 type  1   force =     0.00008548   -0.00147145    0.00010550
     atom   39 type  1   force =     0.00005501   -0.00051145    0.10663390
     atom   40 type  1   force =     0.00005081   -0.00049824    0.00897382
     atom   41 type  1   force =    -0.00004790   -0.00417843   -0.00099186
     atom   42 type  1   force =     0.06974322   -0.00120135   -0.02999206
     atom   43 type  1   force =     0.00449556   -0.02931080    0.00149124
     atom   44 type  1   force =     0.00987896   -0.02501010    0.00502743
     atom   45 type  2   force =    -0.00007307    0.00911680   -0.17963709
     atom   46 type  2   force =    -0.00025739    0.02119705   -0.00514717
     atom   47 type  2   force =    -0.00015905    0.02449880   -0.00977636
     atom   48 type  1   force =    -0.06983980   -0.00165265   -0.02994156
     atom   49 type  1   force =    -0.00477159   -0.02900692    0.00145857
     atom   50 type  1   force =    -0.00962218   -0.02492370    0.00504618
     atom   51 type  2   force =     0.00011589   -0.00178791    0.06385537
     atom   52 type  2   force =     0.00048515    0.03633299    0.00328023
     atom   53 type  2   force =    -0.00016939    0.03623026    0.00378222
     atom   54 type  3   force =    -0.00015571   -0.00101654   -0.00095044
     atom   55 type  4   force =     0.00133323    0.00264645    0.00007532
     atom   56 type  4   force =    -0.00076480   -0.00574404    0.00164229
     atom   57 type  3   force =    -0.00075158   -0.00122611    0.00013236

     Total force =     0.453307     Total SCF correction =     0.000891
  @ DRIVER MODE: Message from server: STATUS
  @ DRIVER MODE: Message from server: GETFORCE
  @ DRIVER MODE: Returning v,forces,stress,ensemble

     Writing output data file ./calc.save/
  @ DRIVER MODE: Message from server: EXIT
  @ DRIVE MODE: Exiting

     General routines

     Parallel routines

   This run was terminated on:  15:37:12  18Oct2021

   JOB DONE.