     Program PWSCF v.6.7GPU starts on 23Aug2021 at 13:11: 1

     R & G space division:  proc/nbgrp/npool/nimage =       6
     Reading input from /storage/home/hcoda1/3/ntian30/research/carbon/CH_vib/ads_slab/CHNH_a/out_0001/pw.inp
Warning: card &CELL ignored
Warning: card   CELL_DYNAMICS='IPI', ignored
Warning: card / ignored

     Current dimensions of program PWSCF are:
     Max number of different atomic species (ntypx) = 10
     Max number of k-points (npk) =  40000
     Max angular momentum in pseudopotentials (lmaxx) =  3
     Presently no symmetry can be used with electric field

     Message from routine cell_base_init:
     DEPRECATED: use true lattice parameter, not A to a.u. conversion factor

     IMPORTANT: XC functional enforced from input :
     Exchange-correlation= BEEF-VDW
                           (   1   4  43  14   2   0   0)
     Any further DFT definition will be discarded
     Please, verify this is what you really want

  @ DRIVER MODE: Connecting to
 qe_1139763_2632799.sched-torque.pace.gatech.edu0ovxyvb2_scratch
  using UNIX socket
  @ DRIVER MODE: Message from server: STATUS
  @ DRIVER MODE: Message from server: INIT
  @ DRIVER MODE: Receiving replica           0          -1
  @ DRIVER MODE: Receiving encoded integer          25
  @ DRIVER MODE:  SCF:  T  FORCE:  T  STRESS:  F  VC:  F  ENSEMBLE:  F
  @ DRIVER MODE:  SCF:  T  FORCE:  T  STRESS:  F  VC:  F  ENSEMBLE:  F

     Using Slab Decomposition

     bravais-lattice index     =            0
     lattice parameter (alat)  =       1.8897  a.u.
     unit-cell volume          =    6658.9804 (a.u.)^3
     number of atoms/cell      =           51
     number of atomic types    =            5
     number of electrons       =       389.00
     number of Kohn-Sham states=          204
     kinetic-energy cutoff     =      29.3995  Ry
     charge density cutoff     =     293.9946  Ry
     scf convergence threshold =      7.3E-08
     mixing beta               =       0.0500
     number of iterations used =            8  plain     mixing
     Exchange-correlation= BEEF-VDW
                           (   1   4  43  14   2   0   0)

     celldm(1)=   1.889726  celldm(2)=   0.000000  celldm(3)=   0.000000
     celldm(4)=   0.000000  celldm(5)=   0.000000  celldm(6)=   0.000000

     crystal axes: (cart. coord. in units of alat)
               a(1) = (   6.579727   0.000000   0.000000 )
               a(2) = (  -0.000775   5.961596   0.000000 )
               a(3) = (   0.000000   0.000000  25.155947 )

     reciprocal axes: (cart. coord. in units 2 pi/alat)
               b(1) = (  0.151982  0.000020  0.000000 )
               b(2) = (  0.000000  0.167740  0.000000 )
               b(3) = (  0.000000  0.000000  0.039752 )

     PseudoPot. # 1 for Ti read from file:
     /storage/coda1/p-amedford6/0/shared/rich_project_chbe-medford/medford-share/data/pseudos_module/espresso/nninc/pbe/van/Ti.UPF
     MD5 check sum: 8e4df49b7f0d34bbd5052bf3f5ea0213
     Pseudo is Ultrasoft, Zval = 12.0
     Generated by new atomic code, or converted to UPF format
     Using radial grid of  851 points,  6 beta functions with:
                l(1) =   0
                l(2) =   0
                l(3) =   1
                l(4) =   1
                l(5) =   2
                l(6) =   2
     Q(r) pseudized with  8 coefficients,  rinner =    1.000   1.000   1.000
                                                       1.000   1.000

     PseudoPot. # 2 for O  read from file:
     /storage/coda1/p-amedford6/0/shared/rich_project_chbe-medford/medford-share/data/pseudos_module/espresso/nninc/pbe/van/O.UPF
     MD5 check sum: 78c19812648e8988a0fe644b0f25305e
     Pseudo is Ultrasoft, Zval =  6.0
     Generated by new atomic code, or converted to UPF format
     Using radial grid of  737 points,  4 beta functions with:
                l(1) =   0
                l(2) =   0
                l(3) =   1
                l(4) =   1
     Q(r) pseudized with  8 coefficients,  rinner =    0.800   0.800   0.800

     PseudoPot. # 3 for N  read from file:
     /storage/coda1/p-amedford6/0/shared/rich_project_chbe-medford/medford-share/data/pseudos_module/espresso/nninc/pbe/van/N.UPF
     MD5 check sum: 90d10febe142ad51ac9d5be1deb811c4
     Pseudo is Ultrasoft, Zval =  5.0
     Generated by new atomic code, or converted to UPF format
     Using radial grid of  729 points,  4 beta functions with:
                l(1) =   0
                l(2) =   0
                l(3) =   1
                l(4) =   1
     Q(r) pseudized with  8 coefficients,  rinner =    0.800   0.800   0.800

     PseudoPot. # 4 for C  read from file:
     /storage/coda1/p-amedford6/0/shared/rich_project_chbe-medford/medford-share/data/pseudos_module/espresso/nninc/pbe/van/C.UPF
     MD5 check sum: 1a69bf6b8db32088f5b2163dbdb77a27
     Pseudo is Ultrasoft, Zval =  4.0
     Generated by new atomic code, or converted to UPF format
     Using radial grid of  721 points,  4 beta functions with:
                l(1) =   0
                l(2) =   0
                l(3) =   1
                l(4) =   1
     Q(r) pseudized with  8 coefficients,  rinner =    0.800   0.800   0.800

     PseudoPot. # 5 for H  read from file:
     /storage/coda1/p-amedford6/0/shared/rich_project_chbe-medford/medford-share/data/pseudos_module/espresso/nninc/pbe/van/H.UPF
     MD5 check sum: b5ee9d7bfd3a09ee7748110bda690ff7
     Pseudo is Ultrasoft, Zval =  1.0
     Generated by new atomic code, or converted to UPF format
     Using radial grid of  615 points,  1 beta functions with:
                l(1) =   0
     Q(r) pseudized with  8 coefficients,  rinner =    0.800

     atomic species   valence    mass     pseudopotential
        Ti1           12.00    47.86700     Ti( 1.00)
        O1             6.00    15.99900     O ( 1.00)
        N1             5.00    14.00700     N ( 1.00)
        C1             4.00    12.01100     C ( 1.00)
        H1             1.00     1.00800     H ( 1.00)

     No symmetry found

   Cartesian axes

     site n.     atom                  positions (alat units)
         1           Ti1 tau(   1) = (   0.0004258   2.9801865   6.0000000  )
         2           Ti1 tau(   2) = (   3.2906075   1.4906267   6.0002472  )
         3           O1  tau(   3) = (   0.0006271   0.0005054   7.9858123  )
         4           O1  tau(   4) = (   3.2906025   0.0005020   7.3038282  )
         5           O1  tau(   5) = (   4.5942328   1.4918067   9.2879030  )
         6           O1  tau(   6) = (   1.9868534   1.4903216   9.2879459  )
         7           Ti1 tau(   7) = (   3.2907910   2.8959150   9.1758416  )
         8           Ti1 tau(   8) = (   0.0015273   1.4827037   9.2680791  )
         9           O1  tau(   9) = (   3.3107583   5.9394213  11.3440837  )
        10           O1  tau(  10) = (   0.0116148   5.9584955  10.6183126  )
        11           O1  tau(  11) = (   1.3209705   1.4681434  12.6387851  )
        12           O1  tau(  12) = (   5.3117763   1.4689694  12.6372993  )
        13           Ti1 tau(  13) = (   6.5586693   2.9297660  12.6634068  )
        14           Ti1 tau(  14) = (   3.2703198   1.4638114  12.4955107  )
        15           O1  tau(  15) = (   0.0083729   5.9498784  14.6531507  )
        16           O1  tau(  16) = (   3.3267446   5.9373244  13.9471573  )
        17           O1  tau(  17) = (   4.5400383   1.4607670  16.1300196  )
        18           O1  tau(  18) = (   2.0562451   1.4605895  16.0859588  )
        19           Ti1 tau(  19) = (   3.3219294   2.9366742  15.7081325  )
        20           Ti1 tau(  20) = (   0.0794022   1.3719971  16.1804440  )
        21           O1  tau(  21) = (   3.2904802   0.0005063   4.7018136  )
        22           O1  tau(  22) = (   0.0048811   5.8540159  17.1722642  )
        23           O1  tau(  23) = (   1.3043587   1.4918075   6.0039043  )
        24           O1  tau(  24) = (   5.2767064   1.4903225   6.0039473  )
        25           Ti1 tau(  25) = (   0.0000382   5.9609847   6.0000000  )
        26           Ti1 tau(  26) = (   3.2902200   4.4714249   6.0002472  )
        27           O1  tau(  27) = (   0.0002396   2.9813036   7.9858123  )
        28           O1  tau(  28) = (   3.2902150   2.9813002   7.3038282  )
        29           O1  tau(  29) = (   4.5938453   4.4726049   9.2879030  )
        30           O1  tau(  30) = (   1.9864658   4.4711199   9.2879459  )
        31           Ti1 tau(  31) = (   3.2891106   5.8743827   9.1763621  )
        32           Ti1 tau(  32) = (   0.0006254   4.4649316   9.2693709  )
        33           O1  tau(  33) = (   3.3036409   2.9595551  11.3414423  )
        34           O1  tau(  34) = (   0.0092240   2.9805883  10.6323155  )
        35           O1  tau(  35) = (   1.3251634   4.4629088  12.6456700  )
        36           O1  tau(  36) = (   5.3099897   4.4533368  12.6426351  )
        37           Ti1 tau(  37) = (   0.0071655   5.9203210  12.5194715  )
        38           Ti1 tau(  38) = (   3.2774562   4.4456010  12.4944480  )
        39           O1  tau(  39) = (   0.0172281   2.9510719  14.7337574  )
        40           O1  tau(  40) = (   3.3230371   2.9488945  13.9167408  )
        41           O1  tau(  41) = (   4.5572773   4.4147185  16.0816828  )
        42           O1  tau(  42) = (   2.0601761   4.4202290  16.0727324  )
        43           Ti1 tau(  43) = (   3.3574729   5.9210026  15.7440268  )
        44           Ti1 tau(  44) = (   0.0706454   4.5402764  15.7844247  )
        45           O1  tau(  45) = (   3.2900926   2.9813045   4.7018136  )
        46           O1  tau(  46) = (   1.3039711   4.4726057   6.0039043  )
        47           O1  tau(  47) = (   5.2763189   4.4711207   6.0039473  )
        48           N1  tau(  48) = (   6.3828749   2.8496863  17.7411295  )
        49           C1  tau(  49) = (   0.6235525   2.6789418  18.7295412  )
        50           H1  tau(  50) = (   1.5351458   2.1120716  18.4733693  )
        51           H1  tau(  51) = (   5.5197072   3.3230476  17.9821812  )

     number of k points=    10  Fermi-Dirac smearing, width (Ry)=  0.0073
                       cart. coord. in units 2pi/alat
        k(    1) = (   0.0000000   0.0000000   0.0000000), wk =   0.1250000
        k(    2) = (   0.0000000   0.0419351   0.0000000), wk =   0.2500000
        k(    3) = (   0.0000000  -0.0838702   0.0000000), wk =   0.1250000
        k(    4) = (   0.0379955   0.0000049   0.0000000), wk =   0.2500000
        k(    5) = (   0.0379955   0.0419400   0.0000000), wk =   0.2500000
        k(    6) = (   0.0379955  -0.0838652   0.0000000), wk =   0.2500000
        k(    7) = (   0.0379955  -0.0419301   0.0000000), wk =   0.2500000
        k(    8) = (  -0.0759910  -0.0000099   0.0000000), wk =   0.1250000
        k(    9) = (  -0.0759910   0.0419252   0.0000000), wk =   0.2500000
        k(   10) = (  -0.0759910  -0.0838800   0.0000000), wk =   0.1250000

     Initial potential from superposition of free atoms

     starting charge  372.99918, renormalised to  389.00000

     negative rho (up, down):  1.910E-02 0.000E+00

     %%%%%%%%%%%%%%%%%%%%%%%%%%%%%%%%%%%%%%%%%%%%%%%%%%%%%%%%%%%%%%%%%%%%%%%%
     %                                                                      %
     % You are using vdW-DF, which was implemented by the Thonhauser group. %
     % Please cite the following two papers that made this development      %
     % possible and the two reviews that describe the various versions:     %
     %                                                                      %
     %   T. Thonhauser et al., PRL 115, 136402 (2015).                      %
     %   T. Thonhauser et al., PRB 76, 125112 (2007).                       %
     %   K. Berland et al., Rep. Prog. Phys. 78, 066501 (2015).             %
     %   D.C. Langreth et al., J. Phys.: Condens. Matter 21, 084203 (2009). %
     %                                                                      %
     %                                                                      %
     % If you are calculating the stress with vdW-DF, please also cite:     %
     %                                                                      %
     %   R. Sabatini et al., J. Phys.: Condens. Matter 24, 424209 (2012).   %
     %                                                                      %
     %%%%%%%%%%%%%%%%%%%%%%%%%%%%%%%%%%%%%%%%%%%%%%%%%%%%%%%%%%%%%%%%%%%%%%%%

     Adding external electric field

     Computed dipole along edir(3) :
        Dipole               -4.7381 Ry au,        -12.0430 Debye
        Dipole field         -0.0089 Ry au,

        Potential amp.        0.8289 Ry
        Total length         46.3494 bohr

     Starting wfcs are  294 atomic wfcs
  @ DRIVER MODE: Message from server: STATUS
  @ DRIVER MODE: Message from server: POSDATA
  @ DRIVER MODE: Reading and sharing cell
  @ DRIVER MODE: Reading and sharing positions
  @ DRIVER MODE: Received positions

     Self-consistent Calculation

     iteration #  1     ecut=    29.40 Ry     beta= 0.05
     Davidson diagonalization with overlap
     c_bands:  4 eigenvalues not converged
     c_bands:  2 eigenvalues not converged
     c_bands:  1 eigenvalues not converged
     c_bands:  3 eigenvalues not converged
     c_bands:  2 eigenvalues not converged
     c_bands:  1 eigenvalues not converged
     c_bands:  2 eigenvalues not converged
     c_bands:  2 eigenvalues not converged
     c_bands:  1 eigenvalues not converged
     c_bands:  1 eigenvalues not converged
     ethr =  1.00E-05,  avg # of iterations = 20.0

[...]

     total energy              =   -2847.38357879 Ry
     estimated scf accuracy    <     789.35486171 Ry

     iteration #  2     ecut=    29.40 Ry     beta= 0.05
     Davidson diagonalization with overlap
     ethr =  1.00E-02,  avg # of iterations = 15.0

[...]

     iteration # 66     ecut=    29.40 Ry     beta= 0.05
     Davidson diagonalization with overlap
     c_bands:  1 eigenvalues not converged
     ethr =  5.09E-11,  avg # of iterations = 12.1

[...]

     total energy              =   -2917.76264706 Ry
     estimated scf accuracy    <       0.00000013 Ry

     iteration # 68     ecut=    29.40 Ry     beta= 0.05
     Davidson diagonalization with overlap
     ethr =  3.31E-11,  avg # of iterations = 10.1

     negative rho (up, down):  1.796E-02 0.000E+00

     Adding external electric field

     Computed dipole along edir(3) :
        Dipole                0.1169 Ry au,          0.2971 Debye
        Dipole field          0.0002 Ry au,

        Potential amp.       -0.0204 Ry
        Total length         46.3494 bohr

     End of self-consistent calculation

          k = 0.0000 0.0000 0.0000 ( 18029 PWs)   bands (ev):

   -56.3273 -56.3216 -56.2909 -56.2875 -56.2203 -56.1875 -56.1603 -56.1469
   -56.1293 -56.1099 -56.0949 -56.0764 -55.9210 -55.7596 -55.3065 -55.2725
   -32.8891 -32.8051 -32.6735 -32.6679 -32.6410 -32.6297 -32.6139 -32.6001
   -32.5640 -32.5561 -32.5354 -32.5314 -32.5057 -32.4740 -32.4730 -32.4627
   -32.4566 -32.4269 -32.4231 -32.4200 -32.3934 -32.3831 -32.3788 -32.3457
   -32.3412 -32.3279 -32.3273 -32.3210 -32.3161 -32.3126 -32.2935 -32.2783
   -32.2770 -32.2659 -32.2620 -32.2319 -32.2211 -32.2188 -32.1344 -32.0438
   -31.9935 -31.8914 -31.7142 -31.6247 -31.6023 -31.5308 -31.4442 -31.3333
   -17.0860 -16.8195 -16.6506 -16.5004 -16.4653 -16.3539 -16.1884 -16.0632
   -16.0185 -15.9946 -15.9193 -15.8955 -15.8682 -15.8598 -15.8443 -15.8349
   -15.8213 -15.7784 -15.7556 -15.7389 -15.7107 -15.6932 -15.6704 -15.6328
   -15.5335 -15.4813 -15.4575 -15.3899 -15.3207 -14.9858 -13.8094 -13.6928
    -8.3102  -4.4521  -4.3570  -4.2762  -4.2317  -4.1888  -3.9726  -3.9053
    -3.8959  -3.6973  -3.5663  -3.5183  -3.5029  -3.4618  -3.4598  -3.2470
    -3.2064  -3.1438  -3.1404  -3.1227  -3.1177  -3.0911  -3.0823  -3.0614
    -3.0114  -2.9315  -2.8719  -2.7646  -2.7285  -2.6847  -2.6578  -2.6368
    -2.5993  -2.5868  -2.5815  -2.5628  -2.5472  -2.5334  -2.4428  -2.3991
    -2.2947  -2.1554  -2.1456  -2.1195  -1.9409  -1.8845  -1.8064  -1.7899
    -1.7602  -1.7376  -1.7191  -1.6340  -1.5545  -1.5214  -1.4515  -1.4487
    -1.3611  -1.3183  -1.2297  -1.2013  -1.1657  -1.0896  -1.0803  -1.0736
    -1.0193  -0.8235  -0.8028  -0.7956  -0.7745  -0.7076  -0.6558  -0.6189
    -0.5596  -0.5318  -0.4907  -0.4066  -0.3998  -0.3629  -0.3415  -0.3278
    -0.2991  -0.2943  -0.1046  -0.0994  -0.0563  -0.0439   0.0455   0.1979
     0.2915   0.3264   0.4010   0.6368   0.7151   0.7928   0.9059   1.2877
     1.3337   2.5407   2.8099   2.8825   2.8981   2.9392   3.0367   3.0458
     3.2616   3.2717   3.2984   3.3189

[...]

          k = 0.0380-0.0419 0.0000 ( 17876 PWs)   bands (ev):

[...]

          k =-0.0760-0.0000 0.0000 ( 17886 PWs)   bands (ev):

[...]

          k =-0.0760-0.0839 0.0000 ( 17948 PWs)   bands (ev):

   -56.3118 -56.3062 -56.3054 -56.3035 -56.2148 -56.1785 -56.1656 -56.1558
   -56.1135 -56.1100 -56.0950 -56.0919 -55.9195 -55.7609 -55.2896 -55.2893
   -32.6955 -32.6887 -32.6209 -32.6197 -32.6014 -32.6001 -32.5986 -32.5882
   -32.5299 -32.5249 -32.5237 -32.5130 -32.4859 -32.4565 -32.4523 -32.4423
   -32.4359 -32.4314 -32.4278 -32.4259 -32.4250 -32.4229 -32.4227 -32.3927
   -32.3874 -32.3698 -32.3588 -32.3445 -32.3347 -32.3267 -32.3251 -32.3172
   -32.3154 -32.3083 -32.3068 -32.2889 -32.2848 -32.2099 -32.1369 -32.0662
   -31.9973 -31.9416 -31.6151 -31.6149 -31.5270 -31.5268 -31.4876 -31.4875
   -16.5322 -16.4919 -16.3221 -16.2595 -16.2479 -16.2370 -16.1924 -16.0695
   -16.0481 -16.0303 -16.0097 -15.9958 -15.9696 -15.9589 -15.8709 -15.8589
   -15.8562 -15.8338 -15.7949 -15.7904 -15.7770 -15.7663 -15.7601 -15.7589
   -15.7248 -15.6508 -15.6465 -15.4252 -15.3328 -15.2635 -13.7949 -13.7943
    -8.3134  -4.0651  -3.8217  -3.7711  -3.6477  -3.5587  -3.4954  -3.4745
    -3.3995  -3.2792  -3.2207  -3.2134  -3.2032  -3.1713  -3.1660  -3.1456
    -3.1358  -3.1219  -3.0792  -3.0579  -3.0413  -3.0327  -3.0074  -2.9939
    -2.9716  -2.9617  -2.9490  -2.9232  -2.8885  -2.8870  -2.8578  -2.8499
    -2.6196  -2.6112  -2.5486  -2.4954  -2.4764  -2.4630  -2.4609  -2.4021
    -2.3836  -2.3589  -2.2625  -2.1952  -2.0442  -2.0277  -2.0192  -1.9806
    -1.9472  -1.8094  -1.7567  -1.7369  -1.7067  -1.6543  -1.6461  -1.5837
    -1.5663  -1.5279  -1.4595  -1.4244  -1.3751  -1.3582  -1.2853  -1.2788
    -1.2445  -1.1909  -1.1111  -1.0915  -1.0740  -1.0617  -1.0079  -0.9675
    -0.9231  -0.8696  -0.7990  -0.7029  -0.6231  -0.4726  -0.4051  -0.3093
    -0.2500  -0.2116  -0.1585  -0.1284  -0.0403  -0.0121  -0.0097   0.0547
     0.0889   0.1875   0.1926   0.2102   0.4384   1.0775   1.0787   1.1530
     1.1539   2.5438   3.0769   3.0916   3.1036   3.1497   3.3080   3.3136
     3.3407   3.3430   3.4355   3.4679

     the Fermi energy is     2.8112 ev

!    total energy              =   -2917.76266551 Ry
     estimated scf accuracy    <       0.00000006 Ry
     smearing contrib. (-TS)   =      -0.02748538 Ry
     internal energy E=F+TS    =   -2917.73518013 Ry

     The total energy is F=E-TS. E is the sum of the following terms:
     one-electron contribution =  -24683.80735500 Ry
     hartree contribution      =   12421.69595101 Ry
     xc contribution           =    -479.08208608 Ry
     ewald contribution        =    9823.45828417 Ry
     electric field correction =       0.00002578 Ry

     convergence has been achieved in  68 iterations

     Forces acting on atoms (cartesian axes, Ry/au):

     atom    1 type  1   force =     0.00012797   -0.00024899    0.09634467
     atom    2 type  1   force =    -0.00006739   -0.00047202   -0.17578388
     atom    3 type  2   force =     0.00009103   -0.00007815   -0.02479694
     atom    4 type  2   force =     0.00006564   -0.00165733    0.05387636
     atom    5 type  2   force =    -0.01232755   -0.00181672    0.00350576
     atom    6 type  2   force =     0.01430699   -0.00152861    0.00391471
     atom    7 type  1   force =     0.00061045    0.00061400   -0.01170630
     atom    8 type  1   force =    -0.00019165    0.02055902    0.02641505
     atom    9 type  2   force =    -0.00054838    0.00047763   -0.00023390
     atom   10 type  2   force =    -0.00145352   -0.00066733   -0.01375523
     atom   11 type  2   force =     0.00040289    0.00025393   -0.00021836
     atom   12 type  2   force =    -0.00053155    0.00054259   -0.00045822
     atom   13 type  1   force =     0.00050594   -0.00033774   -0.00068432
     atom   14 type  1   force =    -0.00115977    0.00108540   -0.00105927
     atom   15 type  2   force =    -0.00005776   -0.00005202    0.00073160
     atom   16 type  2   force =     0.00021736    0.00066319   -0.00049047
     atom   17 type  2   force =    -0.00138679    0.00017703   -0.00127747
     atom   18 type  2   force =     0.00148439    0.00079554    0.00029476
     atom   19 type  1   force =    -0.00022906    0.00041275   -0.00097121
     atom   20 type  1   force =    -0.00082155    0.00149460    0.00093343
     atom   21 type  2   force =     0.00004901    0.00002509    0.10335047
     atom   22 type  2   force =     0.00043615   -0.00090907    0.00059440
     atom   23 type  2   force =    -0.07126594   -0.00005200   -0.02761782
     atom   24 type  2   force =     0.07123205    0.00033809   -0.02771923
     atom   25 type  1   force =     0.00019974   -0.00035919    0.09605703
     atom   26 type  1   force =     0.00000497   -0.00025924   -0.17593921
     atom   27 type  2   force =     0.00022192   -0.00036914   -0.02358221
     atom   28 type  2   force =     0.00006576   -0.00138191    0.05394121
     atom   29 type  2   force =    -0.01264749    0.00047706    0.00327436
     atom   30 type  2   force =     0.01460212    0.00113224    0.00365702
     atom   31 type  1   force =     0.00071729    0.00351207   -0.01312217
     atom   32 type  1   force =     0.00000452   -0.02244054    0.02631394
     atom   33 type  2   force =     0.00005866   -0.00002303    0.00096525
     atom   34 type  2   force =    -0.00087844   -0.00053877   -0.01873974
     atom   35 type  2   force =    -0.00025528   -0.00022257    0.00014442
     atom   36 type  2   force =     0.00012227   -0.00032570   -0.00007731
     atom   37 type  1   force =     0.00038183    0.00059659   -0.00037106
     atom   38 type  1   force =    -0.00132172   -0.00095115   -0.00042443
     atom   39 type  2   force =     0.00013390    0.00109107   -0.00068506
     atom   40 type  2   force =    -0.00013618   -0.00008972   -0.00043777
     atom   41 type  2   force =     0.00029042    0.00037534    0.00003403
     atom   42 type  2   force =    -0.00082970   -0.00005818   -0.00025504
     atom   43 type  1   force =    -0.00023786   -0.00000554   -0.00054180
     atom   44 type  1   force =    -0.00026898    0.00051335   -0.00045322
     atom   45 type  2   force =     0.00006385   -0.00001016    0.10334665
     atom   46 type  2   force =    -0.07125178   -0.00005568   -0.02762424
     atom   47 type  2   force =     0.07122621    0.00043131   -0.02769027
     atom   48 type  3   force =     0.02010084   -0.00826582    0.00390027
     atom   49 type  4   force =    -0.00872332    0.00285627   -0.00730965
     atom   50 type  5   force =    -0.00158150   -0.00002105   -0.00158063
     atom   51 type  5   force =    -0.00955102    0.00477321    0.00401103

     Total force =     0.369918     Total SCF correction =     0.000641
  @ DRIVER MODE: Message from server: STATUS
  @ DRIVER MODE: Message from server: GETFORCE
  @ DRIVER MODE: Returning v,forces,stress,ensemble

     Writing output data file ./calc.save/
  @ DRIVER MODE: Message from server: EXIT
  @ DRIVE MODE: Exiting

     General routines

     Parallel routines

   This run was terminated on:  13:39:25  23Aug2021

   JOB DONE.