     Program PWSCF v.6.7GPU starts on 23Aug2021 at 13:41: 5

     R & G space division:  proc/nbgrp/npool/nimage =       6
     Reading input from /storage/home/hcoda1/3/ntian30/research/carbon/CH_vib/ads_slab/CHN2_b/out_0002/pw.inp
Warning: card &CELL ignored
Warning: card   CELL_DYNAMICS='IPI', ignored
Warning: card / ignored

     Current dimensions of program PWSCF are:
     Max number of different atomic species (ntypx) = 10
     Max number of k-points (npk) =  40000
     Max angular momentum in pseudopotentials (lmaxx) =  3
     Presently no symmetry can be used with electric field

     Message from routine cell_base_init:
     DEPRECATED: use true lattice parameter, not A to a.u. conversion factor

     IMPORTANT: XC functional enforced from input :
     Exchange-correlation= BEEF-VDW
                           (   1   4  43  14   2   0   0)
     Any further DFT definition will be discarded
     Please, verify this is what you really want

  @ DRIVER MODE: Connecting to
 qe_1139763_2632794.sched-torque.pace.gatech.eduzlrqno1f_scratch
  using UNIX socket
  @ DRIVER MODE: Message from server: STATUS
  @ DRIVER MODE: Message from server: INIT
  @ DRIVER MODE: Receiving replica           0          -1
  @ DRIVER MODE: Receiving encoded integer          25
  @ DRIVER MODE:  SCF:  T  FORCE:  T  STRESS:  F  VC:  F  ENSEMBLE:  F
  @ DRIVER MODE:  SCF:  T  FORCE:  T  STRESS:  F  VC:  F  ENSEMBLE:  F

     Using Slab Decomposition

     bravais-lattice index     =            0
     lattice parameter (alat)  =       1.8897  a.u.
     unit-cell volume          =    6658.9804 (a.u.)^3
     number of atoms/cell      =           51
     number of atomic types    =            5
     number of electrons       =       393.00
     number of Kohn-Sham states=          206
     kinetic-energy cutoff     =      29.3995  Ry
     charge density cutoff     =     293.9946  Ry
     scf convergence threshold =      7.3E-08
     mixing beta               =       0.0500
     number of iterations used =            8  plain     mixing
     Exchange-correlation= BEEF-VDW
                           (   1   4  43  14   2   0   0)

     celldm(1)=   1.889726  celldm(2)=   0.000000  celldm(3)=   0.000000
     celldm(4)=   0.000000  celldm(5)=   0.000000  celldm(6)=   0.000000

     crystal axes: (cart. coord. in units of alat)
               a(1) = (   6.579727   0.000000   0.000000 )
               a(2) = (  -0.000775   5.961596   0.000000 )
               a(3) = (   0.000000   0.000000  25.155947 )

     reciprocal axes: (cart. coord. in units 2 pi/alat)
               b(1) = (  0.151982  0.000020  0.000000 )
               b(2) = (  0.000000  0.167740  0.000000 )
               b(3) = (  0.000000  0.000000  0.039752 )

     PseudoPot. # 1 for Ti read from file:
     /storage/coda1/p-amedford6/0/shared/rich_project_chbe-medford/medford-share/data/pseudos_module/espresso/nninc/pbe/van/Ti.UPF
     MD5 check sum: 8e4df49b7f0d34bbd5052bf3f5ea0213
     Pseudo is Ultrasoft, Zval = 12.0
     Generated by new atomic code, or converted to UPF format
     Using radial grid of  851 points,  6 beta functions with:
                l(1) =   0
                l(2) =   0
                l(3) =   1
                l(4) =   1
                l(5) =   2
                l(6) =   2
     Q(r) pseudized with  8 coefficients,  rinner =    1.000   1.000   1.000
                                                       1.000   1.000

     PseudoPot. # 2 for O  read from file:
     /storage/coda1/p-amedford6/0/shared/rich_project_chbe-medford/medford-share/data/pseudos_module/espresso/nninc/pbe/van/O.UPF
     MD5 check sum: 78c19812648e8988a0fe644b0f25305e
     Pseudo is Ultrasoft, Zval =  6.0
     Generated by new atomic code, or converted to UPF format
     Using radial grid of  737 points,  4 beta functions with:
                l(1) =   0
                l(2) =   0
                l(3) =   1
                l(4) =   1
     Q(r) pseudized with  8 coefficients,  rinner =    0.800   0.800   0.800

     PseudoPot. # 3 for N  read from file:
     /storage/coda1/p-amedford6/0/shared/rich_project_chbe-medford/medford-share/data/pseudos_module/espresso/nninc/pbe/van/N.UPF
     MD5 check sum: 90d10febe142ad51ac9d5be1deb811c4
     Pseudo is Ultrasoft, Zval =  5.0
     Generated by new atomic code, or converted to UPF format
     Using radial grid of  729 points,  4 beta functions with:
                l(1) =   0
                l(2) =   0
                l(3) =   1
                l(4) =   1
     Q(r) pseudized with  8 coefficients,  rinner =    0.800   0.800   0.800

     PseudoPot. # 4 for C  read from file:
     /storage/coda1/p-amedford6/0/shared/rich_project_chbe-medford/medford-share/data/pseudos_module/espresso/nninc/pbe/van/C.UPF
     MD5 check sum: 1a69bf6b8db32088f5b2163dbdb77a27
     Pseudo is Ultrasoft, Zval =  4.0
     Generated by new atomic code, or converted to UPF format
     Using radial grid of  721 points,  4 beta functions with:
                l(1) =   0
                l(2) =   0
                l(3) =   1
                l(4) =   1
     Q(r) pseudized with  8 coefficients,  rinner =    0.800   0.800   0.800

     PseudoPot. # 5 for H  read from file:
     /storage/coda1/p-amedford6/0/shared/rich_project_chbe-medford/medford-share/data/pseudos_module/espresso/nninc/pbe/van/H.UPF
     MD5 check sum: b5ee9d7bfd3a09ee7748110bda690ff7
     Pseudo is Ultrasoft, Zval =  1.0
     Generated by new atomic code, or converted to UPF format
     Using radial grid of  615 points,  1 beta functions with:
                l(1) =   0
     Q(r) pseudized with  8 coefficients,  rinner =    0.800

     atomic species   valence    mass     pseudopotential
        Ti1           12.00    47.86700     Ti( 1.00)
        O1             6.00    15.99900     O ( 1.00)
        N1             5.00    14.00700     N ( 1.00)
        C1             4.00    12.01100     C ( 1.00)
        H1             1.00     1.00800     H ( 1.00)

     No symmetry found

   Cartesian axes

     site n.     atom                  positions (alat units)
         1           Ti1 tau(   1) = (   0.0004258   2.9801865   6.0000000  )
         2           Ti1 tau(   2) = (   3.2906075   1.4906267   6.0002472  )
         3           O1  tau(   3) = (   0.0006271   0.0005054   7.9858123  )
         4           O1  tau(   4) = (   3.2906025   0.0005020   7.3038282  )
         5           O1  tau(   5) = (   4.5942328   1.4918067   9.2879030  )
         6           O1  tau(   6) = (   1.9868534   1.4903216   9.2879459  )
         7           Ti1 tau(   7) = (   3.2907910   2.8959150   9.1758416  )
         8           Ti1 tau(   8) = (   0.0015273   1.4827037   9.2680791  )
         9           O1  tau(   9) = (   3.2950996   0.0139504  11.3317891  )
        10           O1  tau(  10) = (   0.0116148   5.9584955  10.6183126  )
        11           O1  tau(  11) = (   1.2919129   1.4990403  12.6236220  )
        12           O1  tau(  12) = (   5.2764399   1.5074276  12.6212280  )
        13           Ti1 tau(  13) = (   0.0528816   2.9532107  12.6238214  )
        14           Ti1 tau(  14) = (   3.3640876   1.5054642  12.4823551  )
        15           O1  tau(  15) = (   0.0126464   0.0517330  14.6735668  )
        16           O1  tau(  16) = (   3.2893787   0.0313947  13.9162352  )
        17           O1  tau(  17) = (   4.5455072   1.5470193  16.0571763  )
        18           O1  tau(  18) = (   2.0683839   1.5479149  16.0688871  )
        19           Ti1 tau(  19) = (   3.3004933   3.0285056  15.7062229  )
        20           Ti1 tau(  20) = (   6.5748692   1.5544668  15.8636821  )
        21           O1  tau(  21) = (   3.2904802   0.0005063   4.7018136  )
        22           O1  tau(  22) = (   0.0156978   0.0568370  17.2307755  )
        23           O1  tau(  23) = (   1.3043587   1.4918075   6.0039043  )
        24           O1  tau(  24) = (   5.2767064   1.4903225   6.0039473  )
        25           Ti1 tau(  25) = (   0.0000382   5.9609847   6.0000000  )
        26           Ti1 tau(  26) = (   3.2902200   4.4714249   6.0002472  )
        27           O1  tau(  27) = (   0.0002396   2.9813036   7.9858123  )
        28           O1  tau(  28) = (   3.2902150   2.9813002   7.3038282  )
        29           O1  tau(  29) = (   4.5938453   4.4726049   9.2879030  )
        30           O1  tau(  30) = (   1.9864658   4.4711199   9.2879459  )
        31           Ti1 tau(  31) = (   3.2891106   5.8743827   9.1763621  )
        32           Ti1 tau(  32) = (   0.0006254   4.4649316   9.2693709  )
        33           O1  tau(  33) = (   3.2930415   3.0011583  11.3325650  )
        34           O1  tau(  34) = (   0.0092240   2.9805883  10.6323155  )
        35           O1  tau(  35) = (   1.2898468   4.4882246  12.6384491  )
        36           O1  tau(  36) = (   5.2806636   4.4975927  12.6358184  )
        37           Ti1 tau(  37) = (   0.0525728   5.9296047  12.5528222  )
        38           Ti1 tau(  38) = (   3.3636738   4.4864912  12.4891182  )
        39           O1  tau(  39) = (   0.0107234   2.9627607  14.6747216  )
        40           O1  tau(  40) = (   3.2927234   3.0099296  13.9079960  )
        41           O1  tau(  41) = (   4.5395255   4.5218754  16.0742521  )
        42           O1  tau(  42) = (   2.0629885   4.5199598  16.0715304  )
        43           Ti1 tau(  43) = (   3.2878121   0.0461507  15.7166771  )
        44           Ti1 tau(  44) = (   0.0020781   4.6962996  16.1098215  )
        45           O1  tau(  45) = (   3.2900926   2.9813045   4.7018136  )
        46           O1  tau(  46) = (   1.3039711   4.4726057   6.0039043  )
        47           O1  tau(  47) = (   5.2763189   4.4711207   6.0039473  )
        48           N1  tau(  48) = (   0.1303982   2.9607606  18.6152809  )
        49           N1  tau(  49) = (   0.0157770   3.0106383  17.4001577  )
        50           C1  tau(  50) = (   0.0651646   2.9076078  19.8026698  )
        51           H1  tau(  51) = (   0.7310076   2.8879977  20.6380856  )

     number of k points=    10  Fermi-Dirac smearing, width (Ry)=  0.0073
                       cart. coord. in units 2pi/alat
        k(    1) = (   0.0000000   0.0000000   0.0000000), wk =   0.1250000
        k(    2) = (   0.0000000   0.0419351   0.0000000), wk =   0.2500000
        k(    3) = (   0.0000000  -0.0838702   0.0000000), wk =   0.1250000
        k(    4) = (   0.0379955   0.0000049   0.0000000), wk =   0.2500000
        k(    5) = (   0.0379955   0.0419400   0.0000000), wk =   0.2500000
        k(    6) = (   0.0379955  -0.0838652   0.0000000), wk =   0.2500000
        k(    7) = (   0.0379955  -0.0419301   0.0000000), wk =   0.2500000
        k(    8) = (  -0.0759910  -0.0000099   0.0000000), wk =   0.1250000
        k(    9) = (  -0.0759910   0.0419252   0.0000000), wk =   0.2500000
        k(   10) = (  -0.0759910  -0.0838800   0.0000000), wk =   0.1250000

     Initial potential from superposition of free atoms

     starting charge  376.99918, renormalised to  393.00000

     negative rho (up, down):  1.564E-02 0.000E+00

     %%%%%%%%%%%%%%%%%%%%%%%%%%%%%%%%%%%%%%%%%%%%%%%%%%%%%%%%%%%%%%%%%%%%%%%%
     %                                                                      %
     % You are using vdW-DF, which was implemented by the Thonhauser group. %
     % Please cite the following two papers that made this development      %
     % possible and the two reviews that describe the various versions:     %
     %                                                                      %
     %   T. Thonhauser et al., PRL 115, 136402 (2015).                      %
     %   T. Thonhauser et al., PRB 76, 125112 (2007).                       %
     %   K. Berland et al., Rep. Prog. Phys. 78, 066501 (2015).             %
     %   D.C. Langreth et al., J. Phys.: Condens. Matter 21, 084203 (2009). %
     %                                                                      %
     %                                                                      %
     % If you are calculating the stress with vdW-DF, please also cite:     %
     %                                                                      %
     %   R. Sabatini et al., J. Phys.: Condens. Matter 24, 424209 (2012).   %
     %                                                                      %
     %%%%%%%%%%%%%%%%%%%%%%%%%%%%%%%%%%%%%%%%%%%%%%%%%%%%%%%%%%%%%%%%%%%%%%%%

     Adding external electric field

     Computed dipole along edir(3) :
        Dipole               -7.5501 Ry au,        -19.1904 Debye
        Dipole field         -0.0142 Ry au,

        Potential amp.        1.3208 Ry
        Total length         46.3494 bohr

     Starting wfcs are  297 atomic wfcs
  @ DRIVER MODE: Message from server: STATUS
  @ DRIVER MODE: Message from server: POSDATA
  @ DRIVER MODE: Reading and sharing cell
  @ DRIVER MODE: Reading and sharing positions
  @ DRIVER MODE: Received positions

     Self-consistent Calculation

     iteration #  1     ecut=    29.40 Ry     beta= 0.05
     Davidson diagonalization with overlap
     c_bands:  1 eigenvalues not converged
     c_bands:  1 eigenvalues not converged
     c_bands:  1 eigenvalues not converged
     ethr =  1.00E-05,  avg # of iterations = 18.4

[...]

     total energy              =   -2707.50707148 Ry
     estimated scf accuracy    <    2541.64775288 Ry

[...]

     iteration #  5     ecut=    29.40 Ry     beta= 0.05
     Davidson diagonalization with overlap
     ethr =  1.00E-02,  avg # of iterations = 10.5

[...]

     iteration # 38     ecut=    29.40 Ry     beta= 0.05
     Davidson diagonalization with overlap
     c_bands:  1 eigenvalues not converged
     ethr =  2.95E-07,  avg # of iterations = 10.2

[...]

     total energy              =   -2936.63947040 Ry
     estimated scf accuracy    <       0.00000008 Ry

     iteration # 58     ecut=    29.40 Ry     beta= 0.05
     Davidson diagonalization with overlap
     ethr =  2.11E-11,  avg # of iterations =  8.1

     negative rho (up, down):  1.608E-02 0.000E+00

     Adding external electric field

     Computed dipole along edir(3) :
        Dipole                0.7481 Ry au,          1.9016 Debye
        Dipole field          0.0014 Ry au,

        Potential amp.       -0.1309 Ry
        Total length         46.3494 bohr

     End of self-consistent calculation

          k = 0.0000 0.0000 0.0000 ( 18029 PWs)   bands (ev):

   -55.9107 -55.9095 -55.8766 -55.8728 -55.7698 -55.7567 -55.7345 -55.7200
   -55.7190 -55.6861 -55.6859 -55.6523 -55.4689 -55.2244 -54.8895 -54.8555
   -32.4634 -32.3932 -32.2670 -32.2191 -32.2170 -32.2106 -32.2035 -32.1765
   -32.1535 -32.1282 -32.0975 -32.0879 -32.0830 -32.0630 -32.0557 -32.0492
   -32.0151 -32.0026 -31.9952 -31.9738 -31.9714 -31.9679 -31.9487 -31.9236
   -31.9169 -31.9091 -31.9062 -31.8971 -31.8955 -31.8879 -31.8824 -31.8610
   -31.8509 -31.8392 -31.8266 -31.8241 -31.7980 -31.6902 -31.6826 -31.5020
   -31.4544 -31.4533 -31.2967 -31.2082 -31.1858 -31.1134 -31.0269 -30.9159
   -19.2598 -16.6504 -16.3853 -16.1397 -16.0585 -16.0292 -15.9137 -15.7517
   -15.6345 -15.5736 -15.4733 -15.4675 -15.4473 -15.4144 -15.3841 -15.3595
   -15.3546 -15.3447 -15.3281 -15.2960 -15.2720 -15.2505 -15.2265 -15.1374
   -15.0804 -15.0451 -14.9852 -14.9772 -14.9677 -14.5060 -13.9237 -13.3920
   -13.2756  -6.6512  -5.3132  -4.2155  -4.0247  -3.9173  -3.8658  -3.8172
    -3.7621  -3.6576  -3.5210  -3.4519  -3.1384  -3.0862  -3.0742  -3.0496
    -3.0251  -2.8118  -2.7463  -2.7235  -2.6898  -2.6847  -2.6820  -2.6734
    -2.6565  -2.6240  -2.5026  -2.4464  -2.3743  -2.3344  -2.3051  -2.2977
    -2.2230  -2.1839  -2.1727  -2.1480  -2.1464  -2.1227  -2.1134  -2.0962
    -1.9587  -1.8919  -1.7695  -1.7049  -1.6711  -1.5198  -1.4923  -1.3885
    -1.3629  -1.3396  -1.3034  -1.2723  -1.2135  -1.0797  -1.0715  -1.0608
    -1.0289  -0.9302  -0.8776  -0.8045  -0.7488  -0.7300  -0.6795  -0.6678
    -0.6641  -0.6199  -0.4607  -0.3854  -0.3260  -0.3165  -0.2718  -0.2111
    -0.1812  -0.1028  -0.0606  -0.0307  -0.0169   0.0261   0.0632   0.0870
     0.0974   0.1070   0.1208   0.3063   0.3487   0.3668   0.4248   0.4424
     0.6145   0.6602   0.7447   0.8398   1.0580   1.1326   1.2164   1.3247
     1.3349   1.5776   1.7040   1.7496   3.2206   3.3103   3.3468   3.3556
     3.4627   3.5348   3.6774   3.6893   3.7096   3.7526

[...]

          k = 0.0380-0.0419 0.0000 ( 17876 PWs)   bands (ev):

[...]

          k =-0.0760-0.0000 0.0000 ( 17886 PWs)   bands (ev):

[...]

          k =-0.0760-0.0839 0.0000 ( 17948 PWs)   bands (ev):

   -55.8948 -55.8941 -55.8930 -55.8874 -55.7564 -55.7479 -55.7452 -55.7303
   -55.7039 -55.7016 -55.6708 -55.6677 -55.4677 -55.2254 -54.8725 -54.8724
   -32.2696 -32.2626 -32.2088 -32.2081 -32.1893 -32.1884 -32.1608 -32.1563
   -32.1164 -32.1089 -32.0830 -32.0808 -32.0414 -32.0341 -32.0259 -32.0235
   -32.0162 -32.0159 -32.0137 -32.0126 -32.0089 -32.0059 -31.9725 -31.9616
   -31.9531 -31.9468 -31.9328 -31.9295 -31.9042 -31.9034 -31.9017 -31.8992
   -31.8853 -31.8835 -31.8797 -31.8774 -31.8460 -31.6929 -31.6782 -31.5723
   -31.4754 -31.4562 -31.1986 -31.1985 -31.1095 -31.1094 -31.0703 -31.0702
   -19.2573 -16.0784 -16.0650 -15.8610 -15.8273 -15.8149 -15.8075 -15.6913
   -15.6121 -15.6038 -15.6027 -15.5013 -15.4892 -15.4808 -15.4487 -15.4390
   -15.4194 -15.4179 -15.3796 -15.3726 -15.3666 -15.3493 -15.3417 -15.2558
   -15.2296 -15.2254 -15.1940 -15.0805 -14.9458 -14.6861 -13.9295 -13.3774
   -13.3773  -6.6501  -5.2817  -4.1784  -3.9163  -3.3679  -3.3515  -3.0965
    -3.0651  -3.0560  -3.0007  -2.8285  -2.8112  -2.7874  -2.7655  -2.7349
    -2.7284  -2.7208  -2.7140  -2.6951  -2.6509  -2.6266  -2.5960  -2.5818
    -2.5673  -2.5669  -2.5363  -2.5234  -2.4820  -2.4679  -2.4572  -2.4347
    -2.4100  -2.4000  -2.2468  -2.1537  -2.1224  -2.0500  -2.0433  -2.0019
    -1.9757  -1.9606  -1.9374  -1.9018  -1.7600  -1.6452  -1.6095  -1.5948
    -1.5147  -1.4709  -1.3943  -1.3353  -1.2913  -1.2847  -1.2283  -1.1790
    -1.1180  -1.1071  -1.0436  -1.0106  -0.9726  -0.9403  -0.9000  -0.8696
    -0.8643  -0.7787  -0.7283  -0.7201  -0.6688  -0.6649  -0.6350  -0.5781
    -0.5589  -0.5307  -0.4081  -0.3882  -0.2807  -0.1986  -0.1371   0.0570
     0.1382   0.1630   0.2166   0.2870   0.3768   0.3906   0.4058   0.4116
     0.4600   0.5119   0.6182   0.6292   0.6675   0.7979   1.2550   1.4606
     1.4962   1.4969   1.5693   1.5695   3.5339   3.5434   3.5616   3.5779
     3.7336   3.7364   3.7561   3.7576   3.8919   3.9038

     the Fermi energy is     3.2221 ev

!    total energy              =   -2936.63953027 Ry
     estimated scf accuracy    <       0.00000002 Ry
     smearing contrib. (-TS)   =      -0.02146833 Ry
     internal energy E=F+TS    =   -2936.61806195 Ry

     The total energy is F=E-TS. E is the sum of the following terms:
     one-electron contribution =  -24291.77151585 Ry
     hartree contribution      =   12231.45228779 Ry
     xc contribution           =    -483.56474157 Ry
     ewald contribution        =    9607.26485146 Ry
     electric field correction =       0.00105622 Ry

     convergence has been achieved in  58 iterations

     Forces acting on atoms (cartesian axes, Ry/au):

     atom    1 type  1   force =     0.00009423   -0.00014252    0.09652899
     atom    2 type  1   force =    -0.00015140   -0.00057646   -0.17551678
     atom    3 type  2   force =     0.00000089    0.00005817   -0.02459651
     atom    4 type  2   force =     0.00005496   -0.00130368    0.05297879
     atom    5 type  2   force =    -0.01199507    0.00010137    0.00366822
     atom    6 type  2   force =     0.01365081    0.00069275    0.00267854
     atom    7 type  1   force =    -0.00091589    0.00091401   -0.01121416
     atom    8 type  1   force =     0.00035578    0.00992625    0.02719718
     atom    9 type  2   force =    -0.00018398   -0.00023705    0.00016457
     atom   10 type  2   force =    -0.00142720    0.00227448   -0.01253521
     atom   11 type  2   force =    -0.00012568    0.00025727   -0.00027017
     atom   12 type  2   force =     0.00033147   -0.00000270   -0.00058052
     atom   13 type  1   force =     0.00036089   -0.00123456   -0.00056409
     atom   14 type  1   force =     0.00042083    0.00001333   -0.00002558
     atom   15 type  2   force =     0.00002899   -0.00080757   -0.00042793
     atom   16 type  2   force =     0.00010344   -0.00047904    0.00005761
     atom   17 type  2   force =    -0.00043360   -0.00051214    0.00009931
     atom   18 type  2   force =    -0.00023915   -0.00070236   -0.00016780
     atom   19 type  1   force =     0.00000806   -0.00032100    0.00009669
     atom   20 type  1   force =     0.00012568   -0.00015803   -0.00007874
     atom   21 type  2   force =     0.00003648   -0.00004306    0.10323885
     atom   22 type  2   force =    -0.00030760   -0.00085610   -0.00099815
     atom   23 type  2   force =    -0.07148979   -0.00010516   -0.02769283
     atom   24 type  2   force =     0.07140547    0.00031880   -0.02769821
     atom   25 type  1   force =     0.00007363   -0.00012989    0.09605886
     atom   26 type  1   force =    -0.00023306   -0.00021086   -0.17568593
     atom   27 type  2   force =     0.00006353   -0.00012996   -0.02361584
     atom   28 type  2   force =     0.00005938   -0.00109233    0.05316070
     atom   29 type  2   force =    -0.01212090    0.00087274    0.00327522
     atom   30 type  2   force =     0.01368373    0.00134254    0.00233161
     atom   31 type  1   force =    -0.00082768    0.00333667   -0.01193247
     atom   32 type  1   force =     0.00043721   -0.01206893    0.02751101
     atom   33 type  2   force =     0.00022140    0.00015730    0.00011782
     atom   34 type  2   force =    -0.00107403    0.00252854   -0.02036439
     atom   35 type  2   force =     0.00016100   -0.00087354   -0.00030496
     atom   36 type  2   force =     0.00039150   -0.00059067   -0.00059531
     atom   37 type  1   force =     0.00004914    0.00117783   -0.00030305
     atom   38 type  1   force =     0.00032283    0.00032299   -0.00013515
     atom   39 type  2   force =    -0.00009714    0.00039913   -0.00083520
     atom   40 type  2   force =    -0.00001355    0.00005721   -0.00054633
     atom   41 type  2   force =     0.00048576   -0.00011024   -0.00009018
     atom   42 type  2   force =    -0.00046751    0.00013738    0.00085570
     atom   43 type  1   force =    -0.00013226   -0.00036948    0.00026756
     atom   44 type  1   force =    -0.00009420   -0.00019206    0.00003721
     atom   45 type  2   force =     0.00004966   -0.00005509    0.10324248
     atom   46 type  2   force =    -0.07148474   -0.00006568   -0.02769232
     atom   47 type  2   force =     0.07141764    0.00033967   -0.02770563
     atom   48 type  3   force =    -0.00398968   -0.00049998   -0.00466539
     atom   49 type  3   force =     0.00200891   -0.00056564    0.00239651
     atom   50 type  4   force =     0.00068040   -0.00034672    0.00050953
     atom   51 type  5   force =     0.00072043   -0.00044594    0.00036588

     Total force =     0.367693     Total SCF correction =     0.000608
  @ DRIVER MODE: Message from server: STATUS
  @ DRIVER MODE: Message from server: GETFORCE
  @ DRIVER MODE: Returning v,forces,stress,ensemble

     Writing output data file ./calc.save/
  @ DRIVER MODE: Message from server: EXIT
  @ DRIVE MODE: Exiting

     General routines

     Parallel routines

   This run was terminated on:  14: 9:11  23Aug2021

   JOB DONE.