     Program PWSCF v.6.7GPU starts on 15Sep2021 at 19:41:44

     R & G space division:  proc/nbgrp/npool/nimage =      10
     Reading input from /storage/home/hcoda1/3/ntian30/research/carbon/CxH_vib/H2O_calc/ads_slab/CH2NNHHHH2O_a/out_0012/pw.inp
Warning: card &CELL ignored
Warning: card   CELL_DYNAMICS='IPI', ignored
Warning: card / ignored

     Current dimensions of program PWSCF are:
     Max number of different atomic species (ntypx) = 10
     Max number of k-points (npk) =  40000
     Max angular momentum in pseudopotentials (lmaxx) =  3
     Presently no symmetry can be used with electric field

     Message from routine cell_base_init:
     DEPRECATED: use true lattice parameter, not A to a.u. conversion factor

     IMPORTANT: XC functional enforced from input :
     Exchange-correlation= BEEF-VDW
                           (   1   4  43  14   2   0   0)
     Any further DFT definition will be discarded
     Please, verify this is what you really want

  @ DRIVER MODE: Connecting to
 qe_1139763_2852612.sched-torque.pace.gatech.eduq8m8nwcz_scratch
  using UNIX socket
  @ DRIVER MODE: Message from server: STATUS
  @ DRIVER MODE: Message from server: INIT
  @ DRIVER MODE: Receiving replica           0          -1
  @ DRIVER MODE: Receiving encoded integer          25
  @ DRIVER MODE:  SCF:  T  FORCE:  T  STRESS:  F  VC:  F  ENSEMBLE:  F
  @ DRIVER MODE:  SCF:  T  FORCE:  T  STRESS:  F  VC:  F  ENSEMBLE:  F

     Using Slab Decomposition

     bravais-lattice index     =            0
     lattice parameter (alat)  =       1.8897  a.u.
     unit-cell volume          =    6658.9804 (a.u.)^3
     number of atoms/cell      =           58
     number of atomic types    =            5
     number of electrons       =       405.00
     number of Kohn-Sham states=          212
     kinetic-energy cutoff     =      29.3995  Ry
     charge density cutoff     =     293.9946  Ry
     scf convergence threshold =      7.3E-08
     mixing beta               =       0.0500
     number of iterations used =            8  plain     mixing
     Exchange-correlation= BEEF-VDW
                           (   1   4  43  14   2   0   0)

     celldm(1)=   1.889726  celldm(2)=   0.000000  celldm(3)=   0.000000
     celldm(4)=   0.000000  celldm(5)=   0.000000  celldm(6)=   0.000000

     crystal axes: (cart. coord. in units of alat)
               a(1) = (   6.579727   0.000000   0.000000 )
               a(2) = (  -0.000775   5.961596   0.000000 )
               a(3) = (   0.000000   0.000000  25.155947 )

     reciprocal axes: (cart. coord. in units 2 pi/alat)
               b(1) = (  0.151982  0.000020  0.000000 )
               b(2) = (  0.000000  0.167740  0.000000 )
               b(3) = (  0.000000  0.000000  0.039752 )

     PseudoPot. # 1 for Ti read from file:
     /storage/coda1/p-amedford6/0/shared/rich_project_chbe-medford/medford-share/data/pseudos_module/espresso/nninc/pbe/van/Ti.UPF
     MD5 check sum: 8e4df49b7f0d34bbd5052bf3f5ea0213
     Pseudo is Ultrasoft, Zval = 12.0
     Generated by new atomic code, or converted to UPF format
     Using radial grid of  851 points,  6 beta functions with:
                l(1) =   0
                l(2) =   0
                l(3) =   1
                l(4) =   1
                l(5) =   2
                l(6) =   2
     Q(r) pseudized with  8 coefficients,  rinner =    1.000   1.000   1.000
                                                       1.000   1.000

     PseudoPot. # 2 for O  read from file:
     /storage/coda1/p-amedford6/0/shared/rich_project_chbe-medford/medford-share/data/pseudos_module/espresso/nninc/pbe/van/O.UPF
     MD5 check sum: 78c19812648e8988a0fe644b0f25305e
     Pseudo is Ultrasoft, Zval =  6.0
     Generated by new atomic code, or converted to UPF format
     Using radial grid of  737 points,  4 beta functions with:
                l(1) =   0
                l(2) =   0
                l(3) =   1
                l(4) =   1
     Q(r) pseudized with  8 coefficients,  rinner =    0.800   0.800   0.800

     PseudoPot. # 3 for N  read from file:
     /storage/coda1/p-amedford6/0/shared/rich_project_chbe-medford/medford-share/data/pseudos_module/espresso/nninc/pbe/van/N.UPF
     MD5 check sum: 90d10febe142ad51ac9d5be1deb811c4
     Pseudo is Ultrasoft, Zval =  5.0
     Generated by new atomic code, or converted to UPF format
     Using radial grid of  729 points,  4 beta functions with:
                l(1) =   0
                l(2) =   0
                l(3) =   1
                l(4) =   1
     Q(r) pseudized with  8 coefficients,  rinner =    0.800   0.800   0.800

     PseudoPot. # 4 for C  read from file:
     /storage/coda1/p-amedford6/0/shared/rich_project_chbe-medford/medford-share/data/pseudos_module/espresso/nninc/pbe/van/C.UPF
     MD5 check sum: 1a69bf6b8db32088f5b2163dbdb77a27
     Pseudo is Ultrasoft, Zval =  4.0
     Generated by new atomic code, or converted to UPF format
     Using radial grid of  721 points,  4 beta functions with:
                l(1) =   0
                l(2) =   0
                l(3) =   1
                l(4) =   1
     Q(r) pseudized with  8 coefficients,  rinner =    0.800   0.800   0.800

     PseudoPot. # 5 for H  read from file:
     /storage/coda1/p-amedford6/0/shared/rich_project_chbe-medford/medford-share/data/pseudos_module/espresso/nninc/pbe/van/H.UPF
     MD5 check sum: b5ee9d7bfd3a09ee7748110bda690ff7
     Pseudo is Ultrasoft, Zval =  1.0
     Generated by new atomic code, or converted to UPF format
     Using radial grid of  615 points,  1 beta functions with:
                l(1) =   0
     Q(r) pseudized with  8 coefficients,  rinner =    0.800

     atomic species   valence    mass     pseudopotential
        Ti1           12.00    47.86700     Ti( 1.00)
        O1             6.00    15.99900     O ( 1.00)
        N1             5.00    14.00700     N ( 1.00)
        C1             4.00    12.01100     C ( 1.00)
        H1             1.00     1.00800     H ( 1.00)

     No symmetry found

   Cartesian axes

     site n.     atom                  positions (alat units)
         1           Ti1 tau(   1) = (   0.0004258   2.9801865   6.0000000  )
         2           Ti1 tau(   2) = (   3.2906075   1.4906267   6.0002472  )
         3           O1  tau(   3) = (   0.0006271   0.0005054   7.9858123  )
         4           O1  tau(   4) = (   3.2906025   0.0005020   7.3038282  )
         5           O1  tau(   5) = (   4.5942328   1.4918067   9.2879030  )
         6           O1  tau(   6) = (   1.9868534   1.4903216   9.2879459  )
         7           Ti1 tau(   7) = (   3.2907910   2.8959150   9.1758416  )
         8           Ti1 tau(   8) = (   0.0015273   1.4827037   9.2680791  )
         9           O1  tau(   9) = (   3.2987819   5.9401718  11.3551833  )
        10           O1  tau(  10) = (   0.0116148   5.9584955  10.6183126  )
        11           O1  tau(  11) = (   1.3094369   1.4889762  12.6418845  )
        12           O1  tau(  12) = (   5.3041503   1.4933078  12.6143371  )
        13           Ti1 tau(  13) = (   0.0302489   2.9730182  12.5448133  )
        14           Ti1 tau(  14) = (   3.3273137   1.4751619  12.4920661  )
        15           O1  tau(  15) = (   6.5331299   0.0759724  14.6728253  )
        16           O1  tau(  16) = (   3.3443954   0.0128112  13.9985917  )
        17           O1  tau(  17) = (   4.5384157   1.5150964  16.2525342  )
        18           O1  tau(  18) = (   2.0107438   1.5096167  16.1239609  )
        19           Ti1 tau(  19) = (   3.2468703   2.9375149  15.6823127  )
        20           Ti1 tau(  20) = (   6.5402329   1.3810098  16.1103674  )
        21           O1  tau(  21) = (   3.2904802   0.0005063   4.7018136  )
        22           O1  tau(  22) = (   0.0855018   5.8309792  17.2460454  )
        23           O1  tau(  23) = (   1.3043587   1.4918075   6.0039043  )
        24           O1  tau(  24) = (   5.2767064   1.4903225   6.0039473  )
        25           Ti1 tau(  25) = (   0.0000382   5.9609847   6.0000000  )
        26           Ti1 tau(  26) = (   3.2902200   4.4714249   6.0002472  )
        27           O1  tau(  27) = (   0.0002396   2.9813036   7.9858123  )
        28           O1  tau(  28) = (   3.2902150   2.9813002   7.3038282  )
        29           O1  tau(  29) = (   4.5938453   4.4726049   9.2879030  )
        30           O1  tau(  30) = (   1.9864658   4.4711199   9.2879459  )
        31           Ti1 tau(  31) = (   3.2891106   5.8743827   9.1763621  )
        32           Ti1 tau(  32) = (   0.0006254   4.4649316   9.2693709  )
        33           O1  tau(  33) = (   3.2978634   2.9839445  11.3486163  )
        34           O1  tau(  34) = (   0.0092240   2.9805883  10.6323155  )
        35           O1  tau(  35) = (   1.3057425   4.4725738  12.6940039  )
        36           O1  tau(  36) = (   5.3035974   4.4670288  12.6562451  )
        37           Ti1 tau(  37) = (   0.0240142   0.0094741  12.5095027  )
        38           Ti1 tau(  38) = (   3.3290383   4.4615466  12.5202027  )
        39           O1  tau(  39) = (   6.5484913   2.9337383  14.8377676  )
        40           O1  tau(  40) = (   3.3243726   2.9440003  13.9069550  )
        41           O1  tau(  41) = (   4.5478640   4.3999133  16.1372545  )
        42           O1  tau(  42) = (   2.0209518   4.4226222  15.9786897  )
        43           Ti1 tau(  43) = (   3.3220059   5.9437776  15.8132296  )
        44           Ti1 tau(  44) = (   0.0730556   4.5544523  15.7304118  )
        45           O1  tau(  45) = (   3.2900926   2.9813045   4.7018136  )
        46           O1  tau(  46) = (   1.3039711   4.4726057   6.0039043  )
        47           O1  tau(  47) = (   5.2763189   4.4711207   6.0039473  )
        48           N1  tau(  48) = (   0.0453545   2.8788619  17.9090770  )
        49           C1  tau(  49) = (   1.0089482   2.8008358  18.8531878  )
        50           H1  tau(  50) = (   1.0080222   3.4413729  19.7168629  )
        51           H1  tau(  51) = (   1.8954070   2.2543435  18.5800802  )
        52           N1  tau(  52) = (   5.5320326   3.6725468  18.4365114  )
        53           H1  tau(  53) = (   5.8975581   4.6271042  18.6377988  )
        54           H1  tau(  54) = (   4.8553295   3.8628436  17.6443034  )
        55           H1  tau(  55) = (   5.1025442   3.2364756  19.2632064  )
        56           O1  tau(  56) = (   2.8928424   5.6518753  18.2681889  )
        57           H1  tau(  57) = (   3.0708471   0.5134993  18.7460362  )
        58           H1  tau(  58) = (   1.9180978   5.6479514  18.1114729  )

     number of k points=    10  Fermi-Dirac smearing, width (Ry)=  0.0073
                       cart. coord. in units 2pi/alat
        k(    1) = (   0.0000000   0.0000000   0.0000000), wk =   0.1250000
        k(    2) = (   0.0000000   0.0419351   0.0000000), wk =   0.2500000
        k(    3) = (   0.0000000  -0.0838702   0.0000000), wk =   0.1250000
        k(    4) = (   0.0379955   0.0000049   0.0000000), wk =   0.2500000
        k(    5) = (   0.0379955   0.0419400   0.0000000), wk =   0.2500000
        k(    6) = (   0.0379955  -0.0838652   0.0000000), wk =   0.2500000
        k(    7) = (   0.0379955  -0.0419301   0.0000000), wk =   0.2500000
        k(    8) = (  -0.0759910  -0.0000099   0.0000000), wk =   0.1250000
        k(    9) = (  -0.0759910   0.0419252   0.0000000), wk =   0.2500000
        k(   10) = (  -0.0759910  -0.0838800   0.0000000), wk =   0.1250000

     Initial potential from superposition of free atoms

     starting charge  388.99913, renormalised to  405.00000

     negative rho (up, down):  1.579E-02 0.000E+00

     %%%%%%%%%%%%%%%%%%%%%%%%%%%%%%%%%%%%%%%%%%%%%%%%%%%%%%%%%%%%%%%%%%%%%%%%
     %                                                                      %
     % You are using vdW-DF, which was implemented by the Thonhauser group. %
     % Please cite the following two papers that made this development      %
     % possible and the two reviews that describe the various versions:     %
     %                                                                      %
     %   T. Thonhauser et al., PRL 115, 136402 (2015).                      %
     %   T. Thonhauser et al., PRB 76, 125112 (2007).                       %
     %   K. Berland et al., Rep. Prog. Phys. 78, 066501 (2015).             %
     %   D.C. Langreth et al., J. Phys.: Condens. Matter 21, 084203 (2009). %
     %                                                                      %
     %                                                                      %
     % If you are calculating the stress with vdW-DF, please also cite:     %
     %                                                                      %
     %   R. Sabatini et al., J. Phys.: Condens. Matter 24, 424209 (2012).   %
     %                                                                      %
     %%%%%%%%%%%%%%%%%%%%%%%%%%%%%%%%%%%%%%%%%%%%%%%%%%%%%%%%%%%%%%%%%%%%%%%%

     Adding external electric field

     Computed dipole along edir(3) :
        Dipole              -14.4847 Ry au,        -36.8165 Debye
        Dipole field         -0.0273 Ry au,

        Potential amp.        2.5339 Ry
        Total length         46.3494 bohr

     Starting wfcs are  307 atomic wfcs
  @ DRIVER MODE: Message from server: STATUS
  @ DRIVER MODE: Message from server: POSDATA
  @ DRIVER MODE: Reading and sharing cell
  @ DRIVER MODE: Reading and sharing positions
  @ DRIVER MODE: Received positions

     Self-consistent Calculation

     iteration #  1     ecut=    29.40 Ry     beta= 0.05
     Davidson diagonalization with overlap
     c_bands:  2 eigenvalues not converged
     c_bands:  5 eigenvalues not converged
     c_bands:  1 eigenvalues not converged
     c_bands:  3 eigenvalues not converged
     c_bands:  3 eigenvalues not converged
     c_bands:  4 eigenvalues not converged
     ethr =  1.00E-05,  avg # of iterations = 27.0

[...]

     total energy              =   -2173.24226567 Ry
     estimated scf accuracy    <    9121.86590191 Ry

     iteration #  2     ecut=    29.40 Ry     beta= 0.05
     Davidson diagonalization with overlap
     ethr =  1.00E-02,  avg # of iterations = 27.6

[...]

     iteration # 86     ecut=    29.40 Ry     beta= 0.05
     Davidson diagonalization with overlap
     c_bands:  1 eigenvalues not converged
     c_bands:  3 eigenvalues not converged
     c_bands:  2 eigenvalues not converged
     c_bands:  1 eigenvalues not converged
     ethr =  7.10E-11,  avg # of iterations = 18.7

[...]

     total energy              =   -2976.32705843 Ry
     estimated scf accuracy    <       0.00000031 Ry

     iteration # 88     ecut=    29.40 Ry     beta= 0.05
     Davidson diagonalization with overlap
     ethr =  7.10E-11,  avg # of iterations = 12.4

     negative rho (up, down):  1.322E-02 0.000E+00

     Adding external electric field

     Computed dipole along edir(3) :
        Dipole                1.3320 Ry au,          3.3857 Debye
        Dipole field          0.0025 Ry au,

        Potential amp.       -0.2330 Ry
        Total length         46.3494 bohr

     End of self-consistent calculation

          k = 0.0000 0.0000 0.0000 ( 18029 PWs)   bands (ev):

   -55.1776 -55.1483 -55.1365 -55.1142 -55.0983 -55.0548 -55.0138 -54.9874
   -54.9764 -54.9612 -54.9518 -54.9436 -54.8777 -54.7299 -54.1600 -54.1260
   -31.7442 -31.6381 -31.5422 -31.5085 -31.4871 -31.4796 -31.4765 -31.4381
   -31.4149 -31.3933 -31.3873 -31.3848 -31.3721 -31.3520 -31.3255 -31.3225
   -31.3125 -31.3010 -31.2953 -31.2905 -31.2596 -31.2425 -31.2360 -31.2166
   -31.2052 -31.1876 -31.1856 -31.1848 -31.1756 -31.1732 -31.1567 -31.1474
   -31.1374 -31.1360 -31.1143 -31.1066 -31.1026 -31.0849 -31.0582 -31.0220
   -31.0065 -30.8756 -30.5685 -30.4765 -30.4544 -30.3851 -30.2984 -30.1874
   -19.0571 -18.7937 -16.0137 -15.7550 -15.6280 -15.4513 -15.3720 -15.2182
   -15.1470 -15.0648 -15.0329 -14.9739 -14.9327 -14.9049 -14.7920 -14.7846
   -14.7119 -14.7105 -14.7002 -14.6702 -14.6670 -14.6579 -14.6061 -14.6041
   -14.5647 -14.5535 -14.5409 -14.3989 -14.3242 -14.2672 -14.0579 -13.9466
   -12.6625 -12.5454  -8.9903  -7.6695  -6.9215  -6.5437  -5.7383  -3.7686
    -3.3514  -3.2131  -3.1811  -3.1186  -3.0777  -2.9790  -2.8994  -2.7775
    -2.5596  -2.4825  -2.4424  -2.3932  -2.3853  -2.3382  -2.2473  -2.1651
    -2.1329  -2.0966  -2.0470  -2.0327  -1.9925  -1.9659  -1.9463  -1.9054
    -1.8949  -1.7496  -1.6874  -1.6342  -1.5859  -1.5645  -1.5554  -1.5062
    -1.4914  -1.4717  -1.4690  -1.4580  -1.4261  -1.3896  -1.3840  -1.3294
    -1.2850  -1.1679  -1.0915  -0.9741  -0.9086  -0.8861  -0.8061  -0.7373
    -0.7211  -0.6492  -0.5827  -0.5654  -0.5081  -0.4660  -0.3783  -0.3428
    -0.2924  -0.2690  -0.1603  -0.1477  -0.1304  -0.0596   0.0274   0.0372
     0.0601   0.1121   0.1916   0.2275   0.2786   0.3054   0.4047   0.4358
     0.4786   0.4971   0.5225   0.6022   0.6761   0.7104   0.7710   0.7804
     0.8156   0.8205   0.8444   0.9389   0.9701   0.9735   1.0215   1.1887
     1.2494   1.4443   1.4472   1.7766   1.8124   1.8627   2.0490   2.4367
     2.4839   3.9216   3.9879   4.0373   4.0534   4.0717   4.1280   4.1641
     4.3922   4.4150   4.4291   4.4442

[...]

          k = 0.0380-0.0419 0.0000 ( 17876 PWs)   bands (ev):

[...]

          k =-0.0760-0.0000 0.0000 ( 17886 PWs)   bands (ev):

[...]

          k =-0.0760-0.0839 0.0000 ( 17948 PWs)   bands (ev):

   -55.1669 -55.1470 -55.1312 -55.1311 -55.0961 -55.0455 -55.0231 -54.9718
   -54.9661 -54.9632 -54.9616 -54.9594 -54.8759 -54.7315 -54.1429 -54.1429
   -31.5554 -31.5403 -31.4533 -31.4531 -31.4528 -31.4433 -31.4235 -31.4235
   -31.3891 -31.3836 -31.3741 -31.3723 -31.3421 -31.3136 -31.3065 -31.3044
   -31.3018 -31.2982 -31.2957 -31.2910 -31.2814 -31.2680 -31.2540 -31.2505
   -31.2505 -31.2483 -31.2459 -31.2199 -31.2051 -31.1971 -31.1861 -31.1816
   -31.1810 -31.1803 -31.1613 -31.1604 -31.1415 -31.1387 -31.0761 -31.0143
   -31.0105 -30.9494 -30.4670 -30.4670 -30.3812 -30.3810 -30.3418 -30.3418
   -19.0492 -18.7972 -15.5153 -15.3779 -15.3407 -15.2467 -15.1682 -15.1530
   -15.1448 -15.1089 -15.0571 -14.9971 -14.9534 -14.9182 -14.8788 -14.8770
   -14.8638 -14.7640 -14.7531 -14.7455 -14.7285 -14.6807 -14.6709 -14.6541
   -14.6288 -14.6272 -14.6020 -14.5214 -14.5204 -14.4196 -14.3027 -13.9793
   -12.6471 -12.6468  -8.9780  -7.6852  -6.8780  -6.5329  -5.7524  -3.8508
    -2.9905  -2.7737  -2.5791  -2.5501  -2.4318  -2.3800  -2.3345  -2.3132
    -2.2252  -2.1860  -2.1690  -2.1624  -2.1431  -2.0847  -2.0656  -2.0259
    -2.0069  -1.9925  -1.9822  -1.9591  -1.9549  -1.9213  -1.9053  -1.8885
    -1.8827  -1.8454  -1.8072  -1.7955  -1.7583  -1.7366  -1.7293  -1.6688
    -1.5718  -1.5386  -1.4951  -1.4290  -1.3672  -1.3635  -1.2904  -1.2677
    -1.2463  -1.2353  -1.2010  -1.1890  -1.0457  -1.0167  -0.9149  -0.9023
    -0.8955  -0.7890  -0.7551  -0.7148  -0.6826  -0.6474  -0.5913  -0.5108
    -0.5023  -0.4309  -0.3939  -0.3819  -0.3638  -0.2215  -0.1920  -0.1584
    -0.1355  -0.1306  -0.0728  -0.0334  -0.0034   0.0341   0.0608   0.0937
     0.1096   0.1862   0.3253   0.3549   0.3992   0.5318   0.5577   0.6742
     0.6993   0.8185   0.8919   0.9372   0.9562   1.0345   1.1141   1.1334
     1.1392   1.2491   1.2997   1.3017   1.3194   2.2214   2.2230   2.3040
     2.3042   3.7747   4.0683   4.1926   4.2097   4.2501   4.3747   4.4391
     4.4749   4.4962   4.4991   4.5860

     the Fermi energy is     3.9705 ev

!    total energy              =   -2976.32706389 Ry
     estimated scf accuracy    <       0.00000007 Ry
     smearing contrib. (-TS)   =      -0.04065607 Ry
     internal energy E=F+TS    =   -2976.28640782 Ry

     The total energy is F=E-TS. E is the sum of the following terms:
     one-electron contribution =  -23818.59504833 Ry
     hartree contribution      =   12008.10001407 Ry
     xc contribution           =    -495.75437886 Ry
     ewald contribution        =    9329.95965689 Ry
     electric field correction =       0.00334841 Ry

     convergence has been achieved in  88 iterations

     Forces acting on atoms (cartesian axes, Ry/au):

     atom    1 type  1   force =     0.00015271   -0.00019537    0.09421956
     atom    2 type  1   force =    -0.00011750   -0.00035308   -0.17724573
     atom    3 type  2   force =     0.00008722    0.00004098   -0.02133524
     atom    4 type  2   force =     0.00001900   -0.00174440    0.05667913
     atom    5 type  2   force =    -0.01042829   -0.00127658    0.00673668
     atom    6 type  2   force =     0.01218681   -0.00072195    0.00624831
     atom    7 type  1   force =    -0.00028437    0.00287660   -0.01266972
     atom    8 type  1   force =    -0.00014822    0.00440414    0.00451130
     atom    9 type  2   force =    -0.00036453    0.00008943    0.00076879
     atom   10 type  2   force =    -0.00008394   -0.00088422   -0.00639977
     atom   11 type  2   force =    -0.00040745   -0.00034032    0.00005441
     atom   12 type  2   force =    -0.00033460   -0.00043435    0.00014163
     atom   13 type  1   force =    -0.00033633   -0.00017251   -0.00025776
     atom   14 type  1   force =     0.00003197   -0.00042898   -0.00027940
     atom   15 type  2   force =    -0.00021466   -0.00010295   -0.00003953
     atom   16 type  2   force =    -0.00065992    0.00024455   -0.00041191
     atom   17 type  2   force =    -0.00020557   -0.00000721   -0.00002241
     atom   18 type  2   force =     0.00048972   -0.00011124    0.00017545
     atom   19 type  1   force =     0.00016712   -0.00089919    0.00030105
     atom   20 type  1   force =     0.00037246    0.00003687    0.00165892
     atom   21 type  2   force =     0.00004571    0.00001754    0.10365055
     atom   22 type  2   force =    -0.00034688    0.00024564   -0.00005152
     atom   23 type  2   force =    -0.07082388   -0.00010842   -0.02714814
     atom   24 type  2   force =     0.07072157    0.00032962   -0.02718266
     atom   25 type  1   force =    -0.00006192   -0.00022874    0.09365446
     atom   26 type  1   force =    -0.00013604   -0.00042360   -0.17737814
     atom   27 type  2   force =     0.00014756   -0.00039689   -0.02029993
     atom   28 type  2   force =     0.00005346   -0.00138125    0.05583536
     atom   29 type  2   force =    -0.01030223   -0.00030123    0.00538619
     atom   30 type  2   force =     0.01197440    0.00009821    0.00502314
     atom   31 type  1   force =    -0.00017163    0.00357656   -0.01531043
     atom   32 type  1   force =    -0.00018585   -0.00486870    0.00437364
     atom   33 type  2   force =    -0.00006819   -0.00016723    0.00031995
     atom   34 type  2   force =     0.00120403    0.00258257   -0.00429845
     atom   35 type  2   force =    -0.00069824   -0.00015295    0.00017125
     atom   36 type  2   force =    -0.00002975   -0.00001818    0.00044542
     atom   37 type  1   force =     0.00039088    0.00041353   -0.00025481
     atom   38 type  1   force =    -0.00000470    0.00052469   -0.00152888
     atom   39 type  2   force =     0.00025160   -0.00049434   -0.00037093
     atom   40 type  2   force =     0.00005158    0.00003901    0.00050875
     atom   41 type  2   force =    -0.00034245   -0.00016441   -0.00050488
     atom   42 type  2   force =     0.00062032   -0.00030869   -0.00013571
     atom   43 type  1   force =    -0.00065147    0.00060238    0.00088479
     atom   44 type  1   force =     0.00003514   -0.00012371    0.00062201
     atom   45 type  2   force =     0.00003939   -0.00002450    0.10367054
     atom   46 type  2   force =    -0.07085678   -0.00006388   -0.02714548
     atom   47 type  2   force =     0.07075323    0.00034061   -0.02717813
     atom   48 type  3   force =     0.00625571    0.00049330    0.00739049
     atom   49 type  4   force =    -0.00279566   -0.00920742   -0.01830996
     atom   50 type  5   force =     0.00125382    0.00588650    0.00791651
     atom   51 type  5   force =    -0.00270164    0.00277925    0.00201012
     atom   52 type  3   force =    -0.00004944    0.00015746   -0.00008447
     atom   53 type  5   force =    -0.00154599   -0.00025270    0.00040066
     atom   54 type  5   force =     0.00034594   -0.00040319    0.00102795
     atom   55 type  5   force =    -0.00061993    0.00012402    0.00001023
     atom   56 type  2   force =    -0.00032120    0.00130669   -0.00068320
     atom   57 type  5   force =    -0.00033701   -0.00079200    0.00035806
     atom   58 type  5   force =    -0.00101508    0.00034420    0.00137189

     Total force =     0.366193     Total SCF correction =     0.000565
  @ DRIVER MODE: Message from server: STATUS
  @ DRIVER MODE: Message from server: GETFORCE
  @ DRIVER MODE: Returning v,forces,stress,ensemble

     Writing output data file ./calc.save/
  @ DRIVER MODE: Message from server: EXIT
  @ DRIVE MODE: Exiting

     General routines

     Parallel routines

   This run was terminated on:  20: 6: 3  15Sep2021

   JOB DONE.