     Program PWSCF v.6.7GPU starts on 24Aug2021 at  7:33:21

     R & G space division:  proc/nbgrp/npool/nimage =       6
     Reading input from /storage/home/hcoda1/3/ntian30/research/carbon/CH2_vib/ads_slab/CH2NHN_a/out_0034/pw.inp
Warning: card &CELL ignored
Warning: card   CELL_DYNAMICS='IPI', ignored
Warning: card / ignored

     Current dimensions of program PWSCF are:
     Max number of different atomic species (ntypx) = 10
     Max number of k-points (npk) =  40000
     Max angular momentum in pseudopotentials (lmaxx) =  3
     Presently no symmetry can be used with electric field

     Message from routine cell_base_init:
     DEPRECATED: use true lattice parameter, not A to a.u. conversion factor

     IMPORTANT: XC functional enforced from input :
     Exchange-correlation= BEEF-VDW
                           (   1   4  43  14   2   0   0)
     Any further DFT definition will be discarded
     Please, verify this is what you really want

  @ DRIVER MODE: Connecting to
 qe_1139763_2632804.sched-torque.pace.gatech.eduiisz3bpr_scratch
  using UNIX socket
  @ DRIVER MODE: Message from server: STATUS
  @ DRIVER MODE: Message from server: INIT
  @ DRIVER MODE: Receiving replica           0          -1
  @ DRIVER MODE: Receiving encoded integer          25
  @ DRIVER MODE:  SCF:  T  FORCE:  T  STRESS:  F  VC:  F  ENSEMBLE:  F
  @ DRIVER MODE:  SCF:  T  FORCE:  T  STRESS:  F  VC:  F  ENSEMBLE:  F

     Using Slab Decomposition

     bravais-lattice index     =            0
     lattice parameter (alat)  =       1.8897  a.u.
     unit-cell volume          =    6658.9804 (a.u.)^3
     number of atoms/cell      =           53
     number of atomic types    =            5
     number of electrons       =       395.00
     number of Kohn-Sham states=          207
     kinetic-energy cutoff     =      29.3995  Ry
     charge density cutoff     =     293.9946  Ry
     scf convergence threshold =      7.3E-08
     mixing beta               =       0.0500
     number of iterations used =            8  plain     mixing
     Exchange-correlation= BEEF-VDW
                           (   1   4  43  14   2   0   0)

     celldm(1)=   1.889726  celldm(2)=   0.000000  celldm(3)=   0.000000
     celldm(4)=   0.000000  celldm(5)=   0.000000  celldm(6)=   0.000000

     crystal axes: (cart. coord. in units of alat)
               a(1) = (   6.579727   0.000000   0.000000 )
               a(2) = (  -0.000775   5.961596   0.000000 )
               a(3) = (   0.000000   0.000000  25.155947 )

     reciprocal axes: (cart. coord. in units 2 pi/alat)
               b(1) = (  0.151982  0.000020  0.000000 )
               b(2) = (  0.000000  0.167740  0.000000 )
               b(3) = (  0.000000  0.000000  0.039752 )

     PseudoPot. # 1 for Ti read from file:
     /storage/coda1/p-amedford6/0/shared/rich_project_chbe-medford/medford-share/data/pseudos_module/espresso/nninc/pbe/van/Ti.UPF
     MD5 check sum: 8e4df49b7f0d34bbd5052bf3f5ea0213
     Pseudo is Ultrasoft, Zval = 12.0
     Generated by new atomic code, or converted to UPF format
     Using radial grid of  851 points,  6 beta functions with:
                l(1) =   0
                l(2) =   0
                l(3) =   1
                l(4) =   1
                l(5) =   2
                l(6) =   2
     Q(r) pseudized with  8 coefficients,  rinner =    1.000   1.000   1.000
                                                       1.000   1.000

     PseudoPot. # 2 for O  read from file:
     /storage/coda1/p-amedford6/0/shared/rich_project_chbe-medford/medford-share/data/pseudos_module/espresso/nninc/pbe/van/O.UPF
     MD5 check sum: 78c19812648e8988a0fe644b0f25305e
     Pseudo is Ultrasoft, Zval =  6.0
     Generated by new atomic code, or converted to UPF format
     Using radial grid of  737 points,  4 beta functions with:
                l(1) =   0
                l(2) =   0
                l(3) =   1
                l(4) =   1
     Q(r) pseudized with  8 coefficients,  rinner =    0.800   0.800   0.800

     PseudoPot. # 3 for H  read from file:
     /storage/coda1/p-amedford6/0/shared/rich_project_chbe-medford/medford-share/data/pseudos_module/espresso/nninc/pbe/van/H.UPF
     MD5 check sum: b5ee9d7bfd3a09ee7748110bda690ff7
     Pseudo is Ultrasoft, Zval =  1.0
     Generated by new atomic code, or converted to UPF format
     Using radial grid of  615 points,  1 beta functions with:
                l(1) =   0
     Q(r) pseudized with  8 coefficients,  rinner =    0.800

     PseudoPot. # 4 for N  read from file:
     /storage/coda1/p-amedford6/0/shared/rich_project_chbe-medford/medford-share/data/pseudos_module/espresso/nninc/pbe/van/N.UPF
     MD5 check sum: 90d10febe142ad51ac9d5be1deb811c4
     Pseudo is Ultrasoft, Zval =  5.0
     Generated by new atomic code, or converted to UPF format
     Using radial grid of  729 points,  4 beta functions with:
                l(1) =   0
                l(2) =   0
                l(3) =   1
                l(4) =   1
     Q(r) pseudized with  8 coefficients,  rinner =    0.800   0.800   0.800

     PseudoPot. # 5 for C  read from file:
     /storage/coda1/p-amedford6/0/shared/rich_project_chbe-medford/medford-share/data/pseudos_module/espresso/nninc/pbe/van/C.UPF
     MD5 check sum: 1a69bf6b8db32088f5b2163dbdb77a27
     Pseudo is Ultrasoft, Zval =  4.0
     Generated by new atomic code, or converted to UPF format
     Using radial grid of  721 points,  4 beta functions with:
                l(1) =   0
                l(2) =   0
                l(3) =   1
                l(4) =   1
     Q(r) pseudized with  8 coefficients,  rinner =    0.800   0.800   0.800

     atomic species   valence    mass     pseudopotential
        Ti1           12.00    47.86700     Ti( 1.00)
        O1             6.00    15.99900     O ( 1.00)
        H1             1.00     1.00800     H ( 1.00)
        N1             5.00    14.00700     N ( 1.00)
        C1             4.00    12.01100     C ( 1.00)

     No symmetry found

   Cartesian axes

     site n.     atom                  positions (alat units)
         1           Ti1 tau(   1) = (   0.0004258   2.9801865   6.0000000  )
         2           Ti1 tau(   2) = (   3.2906075   1.4906267   6.0002472  )
         3           O1  tau(   3) = (   0.0006271   0.0005054   7.9858123  )
         4           O1  tau(   4) = (   3.2906025   0.0005020   7.3038282  )
         5           O1  tau(   5) = (   4.5942328   1.4918067   9.2879030  )
         6           O1  tau(   6) = (   1.9868534   1.4903216   9.2879459  )
         7           Ti1 tau(   7) = (   3.2907910   2.8959150   9.1758416  )
         8           Ti1 tau(   8) = (   0.0015273   1.4827037   9.2680791  )
         9           O1  tau(   9) = (   3.2899722   5.9582610  11.3470199  )
        10           O1  tau(  10) = (   0.0116148   5.9584955  10.6183126  )
        11           O1  tau(  11) = (   1.3017974   1.5038179  12.6264390  )
        12           O1  tau(  12) = (   5.3008627   1.4977989  12.6274213  )
        13           Ti1 tau(  13) = (   6.5569486   2.9952213  12.5532680  )
        14           Ti1 tau(  14) = (   3.2411515   1.4937708  12.4940153  )
        15           O1  tau(  15) = (   0.0420230   0.0496738  14.6358928  )
        16           O1  tau(  16) = (   3.2967895   0.0255587  13.9395418  )
        17           O1  tau(  17) = (   4.5559197   1.4885259  16.1071037  )
        18           O1  tau(  18) = (   2.0591626   1.5161495  16.1621771  )
        19           Ti1 tau(  19) = (   3.3530411   3.0041182  15.7164831  )
        20           Ti1 tau(  20) = (   0.0838170   1.4186333  16.1871295  )
        21           O1  tau(  21) = (   3.2904802   0.0005063   4.7018136  )
        22           O1  tau(  22) = (   0.0186128   5.8515937  17.1570623  )
        23           O1  tau(  23) = (   1.3043587   1.4918075   6.0039043  )
        24           O1  tau(  24) = (   5.2767064   1.4903225   6.0039473  )
        25           Ti1 tau(  25) = (   0.0000382   5.9609847   6.0000000  )
        26           Ti1 tau(  26) = (   3.2902200   4.4714249   6.0002472  )
        27           O1  tau(  27) = (   0.0002396   2.9813036   7.9858123  )
        28           O1  tau(  28) = (   3.2902150   2.9813002   7.3038282  )
        29           O1  tau(  29) = (   4.5938453   4.4726049   9.2879030  )
        30           O1  tau(  30) = (   1.9864658   4.4711199   9.2879459  )
        31           Ti1 tau(  31) = (   3.2891106   5.8743827   9.1763621  )
        32           Ti1 tau(  32) = (   0.0006254   4.4649316   9.2693709  )
        33           O1  tau(  33) = (   3.2942209   2.9913469  11.3437431  )
        34           O1  tau(  34) = (   0.0092240   2.9805883  10.6323155  )
        35           O1  tau(  35) = (   1.3035300   4.4624727  12.6575770  )
        36           O1  tau(  36) = (   5.3036227   4.4740614  12.6577195  )
        37           Ti1 tau(  37) = (   6.5462442   0.0298550  12.5256591  )
        38           Ti1 tau(  38) = (   3.2421849   4.4737490  12.5077532  )
        39           O1  tau(  39) = (   0.0112388   2.9415499  14.8853239  )
        40           O1  tau(  40) = (   3.3099764   2.9718378  13.9238501  )
        41           O1  tau(  41) = (   4.5641009   4.4837371  16.0358624  )
        42           O1  tau(  42) = (   2.0725645   4.4682733  16.0457710  )
        43           Ti1 tau(  43) = (   3.3278145   0.0095312  15.7444629  )
        44           Ti1 tau(  44) = (   0.0453891   4.6133464  15.7643304  )
        45           O1  tau(  45) = (   3.2900926   2.9813045   4.7018136  )
        46           O1  tau(  46) = (   1.3039711   4.4726057   6.0039043  )
        47           O1  tau(  47) = (   5.2763189   4.4711207   6.0039473  )
        48           H1  tau(  48) = (   4.6525291   2.0178258  18.2241430  )
        49           N1  tau(  49) = (   6.4431608   2.5827981  18.1004554  )
        50           C1  tau(  50) = (   0.9260493   3.0590344  18.7174074  )
        51           H1  tau(  51) = (   0.8415052   3.4111086  19.7359056  )
        52           H1  tau(  52) = (   1.8727361   3.0611994  18.2151121  )
        53           N1  tau(  53) = (   5.2929592   2.6153404  18.7594781  )

     number of k points=    10  Fermi-Dirac smearing, width (Ry)=  0.0073
                       cart. coord. in units 2pi/alat
        k(    1) = (   0.0000000   0.0000000   0.0000000), wk =   0.1250000
        k(    2) = (   0.0000000   0.0419351   0.0000000), wk =   0.2500000
        k(    3) = (   0.0000000  -0.0838702   0.0000000), wk =   0.1250000
        k(    4) = (   0.0379955   0.0000049   0.0000000), wk =   0.2500000
        k(    5) = (   0.0379955   0.0419400   0.0000000), wk =   0.2500000
        k(    6) = (   0.0379955  -0.0838652   0.0000000), wk =   0.2500000
        k(    7) = (   0.0379955  -0.0419301   0.0000000), wk =   0.2500000
        k(    8) = (  -0.0759910  -0.0000099   0.0000000), wk =   0.1250000
        k(    9) = (  -0.0759910   0.0419252   0.0000000), wk =   0.2500000
        k(   10) = (  -0.0759910  -0.0838800   0.0000000), wk =   0.1250000

     Initial potential from superposition of free atoms

     starting charge  378.99916, renormalised to  395.00000

     negative rho (up, down):  1.716E-02 0.000E+00

     %%%%%%%%%%%%%%%%%%%%%%%%%%%%%%%%%%%%%%%%%%%%%%%%%%%%%%%%%%%%%%%%%%%%%%%%
     %                                                                      %
     % You are using vdW-DF, which was implemented by the Thonhauser group. %
     % Please cite the following two papers that made this development      %
     % possible and the two reviews that describe the various versions:     %
     %                                                                      %
     %   T. Thonhauser et al., PRL 115, 136402 (2015).                      %
     %   T. Thonhauser et al., PRB 76, 125112 (2007).                       %
     %   K. Berland et al., Rep. Prog. Phys. 78, 066501 (2015).             %
     %   D.C. Langreth et al., J. Phys.: Condens. Matter 21, 084203 (2009). %
     %                                                                      %
     %                                                                      %
     % If you are calculating the stress with vdW-DF, please also cite:     %
     %                                                                      %
     %   R. Sabatini et al., J. Phys.: Condens. Matter 24, 424209 (2012).   %
     %                                                                      %
     %%%%%%%%%%%%%%%%%%%%%%%%%%%%%%%%%%%%%%%%%%%%%%%%%%%%%%%%%%%%%%%%%%%%%%%%

     Adding external electric field

     Computed dipole along edir(3) :
        Dipole               -8.7889 Ry au,        -22.3391 Debye
        Dipole field         -0.0166 Ry au,

        Potential amp.        1.5375 Ry
        Total length         46.3494 bohr

     Starting wfcs are  299 atomic wfcs
  @ DRIVER MODE: Message from server: STATUS
  @ DRIVER MODE: Message from server: POSDATA
  @ DRIVER MODE: Reading and sharing cell
  @ DRIVER MODE: Reading and sharing positions
  @ DRIVER MODE: Received positions

     Self-consistent Calculation

     iteration #  1     ecut=    29.40 Ry     beta= 0.05
     Davidson diagonalization with overlap
     c_bands:  1 eigenvalues not converged
     c_bands:  1 eigenvalues not converged
     c_bands:  1 eigenvalues not converged
     c_bands:  2 eigenvalues not converged
     c_bands:  2 eigenvalues not converged
     c_bands:  1 eigenvalues not converged
     c_bands:  2 eigenvalues not converged
     ethr =  1.00E-05,  avg # of iterations = 18.8

[...]

     total energy              =   -2593.24650871 Ry
     estimated scf accuracy    <    3846.20827366 Ry

     iteration #  2     ecut=    29.40 Ry     beta= 0.05
     Davidson diagonalization with overlap
     ethr =  1.00E-02,  avg # of iterations = 22.7

[...]

     iteration # 78     ecut=    29.40 Ry     beta= 0.05
     Davidson diagonalization with overlap
     c_bands:  1 eigenvalues not converged
     ethr =  5.55E-11,  avg # of iterations = 11.7

[...]

     total energy              =   -2939.05439830 Ry
     estimated scf accuracy    <       0.00000013 Ry

     iteration # 80     ecut=    29.40 Ry     beta= 0.05
     Davidson diagonalization with overlap
     ethr =  3.20E-11,  avg # of iterations =  9.9

     negative rho (up, down):  1.684E-02 0.000E+00

     Adding external electric field

     Computed dipole along edir(3) :
        Dipole                0.0835 Ry au,          0.2123 Debye
        Dipole field          0.0002 Ry au,

        Potential amp.       -0.0146 Ry
        Total length         46.3494 bohr

     End of self-consistent calculation

          k = 0.0000 0.0000 0.0000 ( 18029 PWs)   bands (ev):

   -56.2620 -56.2388 -56.2250 -56.2047 -56.1456 -56.1429 -56.1083 -56.1065
   -56.0694 -56.0598 -56.0342 -56.0272 -55.9038 -55.6994 -55.2425 -55.2085
   -32.8225 -32.7271 -32.6385 -32.6048 -32.5700 -32.5686 -32.5519 -32.5296
   -32.4843 -32.4821 -32.4773 -32.4657 -32.4352 -32.4085 -32.4037 -32.3912
   -32.3847 -32.3824 -32.3707 -32.3687 -32.3487 -32.3308 -32.3164 -32.2956
   -32.2908 -32.2849 -32.2841 -32.2699 -32.2631 -32.2625 -32.2504 -32.2285
   -32.2138 -32.2136 -32.1967 -32.1842 -32.1697 -32.1530 -32.1216 -32.0495
   -31.9247 -31.8596 -31.6507 -31.5597 -31.5375 -31.4674 -31.3807 -31.2696
   -17.6150 -17.0429 -16.7689 -16.5564 -16.4562 -16.4363 -16.2918 -16.1507
   -16.0557 -15.9725 -15.9378 -15.8709 -15.8593 -15.8037 -15.7943 -15.7833
   -15.7609 -15.7419 -15.7289 -15.6826 -15.6723 -15.6405 -15.6301 -15.6084
   -15.5659 -15.4783 -15.4355 -15.4011 -15.3465 -14.7958 -13.7447 -13.6278
   -11.9694  -7.0204  -5.2765  -4.4093  -4.2559  -4.1643  -4.1576  -4.1309
    -3.9574  -3.8348  -3.6413  -3.5862  -3.4865  -3.4413  -3.4393  -3.4114
    -3.3236  -3.1998  -3.1716  -3.1034  -3.0722  -3.0599  -3.0556  -3.0347
    -2.9941  -2.9512  -2.9428  -2.8754  -2.8456  -2.7777  -2.6982  -2.6729
    -2.5979  -2.5771  -2.5487  -2.5347  -2.5324  -2.5241  -2.4997  -2.4727
    -2.4056  -2.3083  -2.2267  -2.1310  -2.0609  -1.9875  -1.9322  -1.8852
    -1.8251  -1.7849  -1.7464  -1.7200  -1.6513  -1.5825  -1.5039  -1.4622
    -1.3992  -1.3654  -1.3122  -1.2447  -1.1856  -1.1299  -1.0549  -1.0442
    -1.0405  -1.0219  -0.9905  -0.8138  -0.7650  -0.7542  -0.7393  -0.6934
    -0.6369  -0.6029  -0.4983  -0.4824  -0.4415  -0.4233  -0.3491  -0.3289
    -0.2943  -0.2856  -0.2605  -0.1982  -0.1076  -0.0903  -0.0664  -0.0172
     0.0290   0.1814   0.3697   0.4271   0.4768   0.6980   0.7777   0.7802
     0.9682   1.3533   1.4001   1.5416   2.7404   2.8528   2.9433   2.9670
     2.9910   3.0858   3.1144   3.3206   3.3259   3.3671   3.3770

[...]

          k = 0.0380-0.0419 0.0000 ( 17876 PWs)   bands (ev):

[...]

          k =-0.0760-0.0000 0.0000 ( 17886 PWs)   bands (ev):

[...]

          k =-0.0760-0.0839 0.0000 ( 17948 PWs)   bands (ev):

   -56.2478 -56.2391 -56.2217 -56.2217 -56.1353 -56.1275 -56.1235 -56.1167
   -56.0522 -56.0498 -56.0447 -56.0435 -55.9025 -55.7006 -55.2255 -55.2254
   -32.6281 -32.6231 -32.5423 -32.5422 -32.5306 -32.5157 -32.5151 -32.5149
   -32.4827 -32.4670 -32.4624 -32.4467 -32.4163 -32.4013 -32.3954 -32.3920
   -32.3828 -32.3821 -32.3796 -32.3770 -32.3428 -32.3409 -32.3409 -32.3382
   -32.3351 -32.3349 -32.3217 -32.3195 -32.2890 -32.2765 -32.2749 -32.2659
   -32.2649 -32.2601 -32.2586 -32.2320 -32.2288 -32.1564 -32.1295 -32.0571
   -31.9273 -31.9263 -31.5502 -31.5502 -31.4633 -31.4633 -31.4241 -31.4240
   -17.6079 -16.4691 -16.4354 -16.2919 -16.2237 -16.1993 -16.1834 -16.1607
   -16.0241 -15.9770 -15.9672 -15.9413 -15.9125 -15.9068 -15.8476 -15.8326
   -15.8214 -15.8133 -15.8029 -15.7503 -15.7460 -15.7380 -15.7157 -15.7107
   -15.6872 -15.6551 -15.5990 -15.5972 -15.2301 -15.1873 -13.7295 -13.7294
   -11.9845  -6.9435  -5.2312  -3.7979  -3.7388  -3.7090  -3.5641  -3.4379
    -3.4216  -3.4186  -3.2752  -3.2297  -3.2109  -3.1888  -3.1312  -3.1148
    -3.1043  -3.0825  -3.0676  -3.0544  -3.0290  -2.9994  -2.9858  -2.9652
    -2.9553  -2.9372  -2.9196  -2.8950  -2.8900  -2.8748  -2.8335  -2.8253
    -2.7992  -2.7805  -2.6092  -2.5551  -2.5368  -2.4384  -2.4362  -2.4114
    -2.3758  -2.3287  -2.3089  -2.2588  -2.2213  -2.1863  -2.0483  -1.9945
    -1.9810  -1.9325  -1.9124  -1.8498  -1.7608  -1.7278  -1.6877  -1.6530
    -1.5638  -1.5188  -1.5081  -1.4655  -1.4200  -1.4082  -1.3349  -1.2845
    -1.2205  -1.2190  -1.2122  -1.1689  -1.0540  -1.0373  -1.0231  -1.0205
    -0.9734  -0.9628  -0.9077  -0.8230  -0.7021  -0.6470  -0.6178  -0.4487
    -0.3676  -0.2966  -0.1921  -0.1520  -0.1054  -0.0827  -0.0274   0.0383
     0.0451   0.1060   0.1300   0.2182   0.2297   0.2366   0.3084   1.1407
     1.1413   1.2201   1.2204   1.5373   2.6986   3.1169   3.1506   3.1773
     3.1869   3.3472   3.3720   3.4113   3.4135   3.4873   3.5111

     the Fermi energy is     2.8827 ev

!    total energy              =   -2939.05441680 Ry
     estimated scf accuracy    <       0.00000004 Ry
     smearing contrib. (-TS)   =      -0.03339820 Ry
     internal energy E=F+TS    =   -2939.02101860 Ry

     The total energy is F=E-TS. E is the sum of the following terms:
     one-electron contribution =  -24157.60426740 Ry
     hartree contribution      =   12162.07414685 Ry
     xc contribution           =    -485.16961219 Ry
     ewald contribution        =    9541.67870098 Ry
     electric field correction =       0.00001317 Ry

     convergence has been achieved in  80 iterations

     Forces acting on atoms (cartesian axes, Ry/au):

     atom    1 type  1   force =     0.00009638   -0.00024098    0.09467769
     atom    2 type  1   force =     0.00009907   -0.00053616   -0.17675592
     atom    3 type  2   force =     0.00011912   -0.00001312   -0.02173784
     atom    4 type  2   force =     0.00001619   -0.00163168    0.05553812
     atom    5 type  2   force =    -0.01057674   -0.00065624    0.00570355
     atom    6 type  2   force =     0.01211625    0.00002983    0.00514691
     atom    7 type  1   force =     0.00035045    0.00219421   -0.01237546
     atom    8 type  1   force =     0.00038065    0.00263261    0.00925477
     atom    9 type  2   force =     0.00020717   -0.00032763   -0.00022167
     atom   10 type  2   force =    -0.00209358    0.00002843   -0.00885302
     atom   11 type  2   force =     0.00084677   -0.00014104    0.00006201
     atom   12 type  2   force =    -0.00026443   -0.00008556    0.00045353
     atom   13 type  1   force =    -0.00036757   -0.00039848    0.00072932
     atom   14 type  1   force =     0.00056226   -0.00043000    0.00065373
     atom   15 type  2   force =    -0.00021454   -0.00020452    0.00039425
     atom   16 type  2   force =    -0.00003860   -0.00040832    0.00077392
     atom   17 type  2   force =     0.00074239   -0.00033825   -0.00020008
     atom   18 type  2   force =    -0.00003974   -0.00036212   -0.00045233
     atom   19 type  1   force =    -0.00047956   -0.00050022    0.00000709
     atom   20 type  1   force =     0.00061322   -0.00001269   -0.00081157
     atom   21 type  2   force =     0.00009357   -0.00011287    0.10359914
     atom   22 type  2   force =    -0.00017404    0.00007570    0.00102600
     atom   23 type  2   force =    -0.07099303   -0.00024415   -0.02726006
     atom   24 type  2   force =     0.07098180    0.00023173   -0.02731449
     atom   25 type  1   force =     0.00027845   -0.00026368    0.09408808
     atom   26 type  1   force =     0.00011447   -0.00041096   -0.17693126
     atom   27 type  2   force =     0.00011003   -0.00041595   -0.02062896
     atom   28 type  2   force =     0.00010141   -0.00136869    0.05522304
     atom   29 type  2   force =    -0.01064242   -0.00021559    0.00494265
     atom   30 type  2   force =     0.01206072   -0.00000623    0.00430961
     atom   31 type  1   force =     0.00037675    0.00374826   -0.01355999
     atom   32 type  1   force =     0.00033331   -0.00312540    0.00921981
     atom   33 type  2   force =     0.00004881   -0.00000742    0.00008487
     atom   34 type  2   force =    -0.00266193    0.00249028   -0.00568314
     atom   35 type  2   force =     0.00101102    0.00033314    0.00011431
     atom   36 type  2   force =    -0.00074179    0.00004662    0.00082839
     atom   37 type  1   force =    -0.00056538    0.00021773   -0.00010290
     atom   38 type  1   force =     0.00060428    0.00014938   -0.00027133
     atom   39 type  2   force =     0.00037895   -0.00007592   -0.00007785
     atom   40 type  2   force =     0.00008036   -0.00010131   -0.00040543
     atom   41 type  2   force =     0.00065825    0.00000004   -0.00045979
     atom   42 type  2   force =     0.00028073    0.00005257   -0.00016711
     atom   43 type  1   force =    -0.00098208   -0.00036068   -0.00101207
     atom   44 type  1   force =     0.00027845   -0.00094447   -0.00043275
     atom   45 type  2   force =     0.00008450   -0.00014309    0.10357799
     atom   46 type  2   force =    -0.07101250   -0.00015272   -0.02725954
     atom   47 type  2   force =     0.07099955    0.00023024   -0.02728419
     atom   48 type  3   force =     0.00334368    0.00492620    0.00575242
     atom   49 type  4   force =     0.00023856    0.00188188   -0.00046870
     atom   50 type  5   force =     0.00033737    0.00068038    0.00002666
     atom   51 type  3   force =    -0.00113074    0.00086906    0.00118721
     atom   52 type  3   force =     0.00076810    0.00026072    0.00022812
     atom   53 type  4   force =    -0.00673439   -0.00684287   -0.00687573

     Total force =     0.365411     Total SCF correction =     0.000513
  @ DRIVER MODE: Message from server: STATUS
  @ DRIVER MODE: Message from server: GETFORCE
  @ DRIVER MODE: Returning v,forces,stress,ensemble

     Writing output data file ./calc.save/
  @ DRIVER MODE: Message from server: EXIT
  @ DRIVE MODE: Exiting

     General routines

     Parallel routines

   This run was terminated on:   8: 5:58  24Aug2021

   JOB DONE.