     Program PWSCF v.6.7GPU starts on 22Sep2021 at  2: 8:52

     R & G space division:  proc/nbgrp/npool/nimage =      10
     Reading input from /storage/home/hcoda1/3/ntian30/research/carbon/CxH_vib/CH_calc/ads_slab/CHNHNHH2O_b/out_0011/pw.inp
Warning: card &CELL ignored
Warning: card   CELL_DYNAMICS='IPI', ignored
Warning: card / ignored

     Current dimensions of program PWSCF are:
     Max number of different atomic species (ntypx) = 10
     Max number of k-points (npk) =  40000
     Max angular momentum in pseudopotentials (lmaxx) =  3
     Presently no symmetry can be used with electric field

     Message from routine cell_base_init:
     DEPRECATED: use true lattice parameter, not A to a.u. conversion factor

     IMPORTANT: XC functional enforced from input :
     Exchange-correlation= BEEF-VDW
                           (   1   4  43  14   2   0   0)
     Any further DFT definition will be discarded
     Please, verify this is what you really want

  @ DRIVER MODE: Connecting to
 qe_1139763_2927424.sched-torque.pace.gatech.eduyew11lgi_scratch
  using UNIX socket
  @ DRIVER MODE: Message from server: STATUS
  @ DRIVER MODE: Message from server: INIT
  @ DRIVER MODE: Receiving replica           0          -1
  @ DRIVER MODE: Receiving encoded integer          25
  @ DRIVER MODE:  SCF:  T  FORCE:  T  STRESS:  F  VC:  F  ENSEMBLE:  F
  @ DRIVER MODE:  SCF:  T  FORCE:  T  STRESS:  F  VC:  F  ENSEMBLE:  F

     Using Slab Decomposition

     bravais-lattice index     =            0
     lattice parameter (alat)  =       1.8897  a.u.
     unit-cell volume          =    6658.9804 (a.u.)^3
     number of atoms/cell      =           56
     number of atomic types    =            5
     number of electrons       =       403.00
     number of Kohn-Sham states=          211
     kinetic-energy cutoff     =      29.3995  Ry
     charge density cutoff     =     293.9946  Ry
     scf convergence threshold =      7.3E-08
     mixing beta               =       0.0500
     number of iterations used =            8  plain     mixing
     Exchange-correlation= BEEF-VDW
                           (   1   4  43  14   2   0   0)

     celldm(1)=   1.889726  celldm(2)=   0.000000  celldm(3)=   0.000000
     celldm(4)=   0.000000  celldm(5)=   0.000000  celldm(6)=   0.000000

     crystal axes: (cart. coord. in units of alat)
               a(1) = (   6.579727   0.000000   0.000000 )
               a(2) = (  -0.000775   5.961596   0.000000 )
               a(3) = (   0.000000   0.000000  25.155947 )

     reciprocal axes: (cart. coord. in units 2 pi/alat)
               b(1) = (  0.151982  0.000020  0.000000 )
               b(2) = (  0.000000  0.167740  0.000000 )
               b(3) = (  0.000000  0.000000  0.039752 )

     PseudoPot. # 1 for Ti read from file:
     /storage/coda1/p-amedford6/0/shared/rich_project_chbe-medford/medford-share/data/pseudos_module/espresso/nninc/pbe/van/Ti.UPF
     MD5 check sum: 8e4df49b7f0d34bbd5052bf3f5ea0213
     Pseudo is Ultrasoft, Zval = 12.0
     Generated by new atomic code, or converted to UPF format
     Using radial grid of  851 points,  6 beta functions with:
                l(1) =   0
                l(2) =   0
                l(3) =   1
                l(4) =   1
                l(5) =   2
                l(6) =   2
     Q(r) pseudized with  8 coefficients,  rinner =    1.000   1.000   1.000
                                                       1.000   1.000

     PseudoPot. # 2 for O  read from file:
     /storage/coda1/p-amedford6/0/shared/rich_project_chbe-medford/medford-share/data/pseudos_module/espresso/nninc/pbe/van/O.UPF
     MD5 check sum: 78c19812648e8988a0fe644b0f25305e
     Pseudo is Ultrasoft, Zval =  6.0
     Generated by new atomic code, or converted to UPF format
     Using radial grid of  737 points,  4 beta functions with:
                l(1) =   0
                l(2) =   0
                l(3) =   1
                l(4) =   1
     Q(r) pseudized with  8 coefficients,  rinner =    0.800   0.800   0.800

     PseudoPot. # 3 for N  read from file:
     /storage/coda1/p-amedford6/0/shared/rich_project_chbe-medford/medford-share/data/pseudos_module/espresso/nninc/pbe/van/N.UPF
     MD5 check sum: 90d10febe142ad51ac9d5be1deb811c4
     Pseudo is Ultrasoft, Zval =  5.0
     Generated by new atomic code, or converted to UPF format
     Using radial grid of  729 points,  4 beta functions with:
                l(1) =   0
                l(2) =   0
                l(3) =   1
                l(4) =   1
     Q(r) pseudized with  8 coefficients,  rinner =    0.800   0.800   0.800

     PseudoPot. # 4 for C  read from file:
     /storage/coda1/p-amedford6/0/shared/rich_project_chbe-medford/medford-share/data/pseudos_module/espresso/nninc/pbe/van/C.UPF
     MD5 check sum: 1a69bf6b8db32088f5b2163dbdb77a27
     Pseudo is Ultrasoft, Zval =  4.0
     Generated by new atomic code, or converted to UPF format
     Using radial grid of  721 points,  4 beta functions with:
                l(1) =   0
                l(2) =   0
                l(3) =   1
                l(4) =   1
     Q(r) pseudized with  8 coefficients,  rinner =    0.800   0.800   0.800

     PseudoPot. # 5 for H  read from file:
     /storage/coda1/p-amedford6/0/shared/rich_project_chbe-medford/medford-share/data/pseudos_module/espresso/nninc/pbe/van/H.UPF
     MD5 check sum: b5ee9d7bfd3a09ee7748110bda690ff7
     Pseudo is Ultrasoft, Zval =  1.0
     Generated by new atomic code, or converted to UPF format
     Using radial grid of  615 points,  1 beta functions with:
                l(1) =   0
     Q(r) pseudized with  8 coefficients,  rinner =    0.800

     atomic species   valence    mass     pseudopotential
        Ti1           12.00    47.86700     Ti( 1.00)
        O1             6.00    15.99900     O ( 1.00)
        N1             5.00    14.00700     N ( 1.00)
        C1             4.00    12.01100     C ( 1.00)
        H1             1.00     1.00800     H ( 1.00)

     No symmetry found

   Cartesian axes

     site n.     atom                  positions (alat units)
         1           Ti1 tau(   1) = (   0.0004258   2.9801865   6.0000000  )
         2           Ti1 tau(   2) = (   3.2906075   1.4906267   6.0002472  )
         3           O1  tau(   3) = (   0.0006271   0.0005054   7.9858123  )
         4           O1  tau(   4) = (   3.2906025   0.0005020   7.3038282  )
         5           O1  tau(   5) = (   4.5942328   1.4918067   9.2879030  )
         6           O1  tau(   6) = (   1.9868534   1.4903216   9.2879459  )
         7           Ti1 tau(   7) = (   3.2907910   2.8959150   9.1758416  )
         8           Ti1 tau(   8) = (   0.0015273   1.4827037   9.2680791  )
         9           O1  tau(   9) = (   3.2780774   5.9605562  11.3537357  )
        10           O1  tau(  10) = (   0.0116148   5.9584955  10.6183126  )
        11           O1  tau(  11) = (   1.2922713   1.4781662  12.6511241  )
        12           O1  tau(  12) = (   5.2965393   1.5043564  12.6031353  )
        13           Ti1 tau(  13) = (   6.5273184   3.0207086  12.5807821  )
        14           Ti1 tau(  14) = (   3.2344070   1.4559942  12.5004267  )
        15           O1  tau(  15) = (   6.4759410   0.0295824  14.6525783  )
        16           O1  tau(  16) = (   3.3604338   0.0238249  13.9383540  )
        17           O1  tau(  17) = (   4.5324113   1.5808541  16.1066768  )
        18           O1  tau(  18) = (   1.9684897   1.4712893  15.8817925  )
        19           Ti1 tau(  19) = (   3.2566353   3.0739815  15.8599551  )
        20           Ti1 tau(  20) = (   6.5466614   1.5318677  15.7800735  )
        21           O1  tau(  21) = (   3.2904802   0.0005063   4.7018136  )
        22           O1  tau(  22) = (   6.5744325   0.0155309  17.2227980  )
        23           O1  tau(  23) = (   1.3043587   1.4918075   6.0039043  )
        24           O1  tau(  24) = (   5.2767064   1.4903225   6.0039473  )
        25           Ti1 tau(  25) = (   0.0000382   5.9609847   6.0000000  )
        26           Ti1 tau(  26) = (   3.2902200   4.4714249   6.0002472  )
        27           O1  tau(  27) = (   0.0002396   2.9813036   7.9858123  )
        28           O1  tau(  28) = (   3.2902150   2.9813002   7.3038282  )
        29           O1  tau(  29) = (   4.5938453   4.4726049   9.2879030  )
        30           O1  tau(  30) = (   1.9864658   4.4711199   9.2879459  )
        31           Ti1 tau(  31) = (   3.2891106   5.8743827   9.1763621  )
        32           Ti1 tau(  32) = (   0.0006254   4.4649316   9.2693709  )
        33           O1  tau(  33) = (   3.2727763   2.9788165  11.3438337  )
        34           O1  tau(  34) = (   0.0092240   2.9805883  10.6323155  )
        35           O1  tau(  35) = (   1.2865780   4.4896361  12.6556599  )
        36           O1  tau(  36) = (   5.2967437   4.4749066  12.6066920  )
        37           Ti1 tau(  37) = (   6.5467059   0.0356701  12.5108493  )
        38           Ti1 tau(  38) = (   3.2305653   4.4019604  12.5605372  )
        39           O1  tau(  39) = (   6.5199767   2.9846217  14.6905747  )
        40           O1  tau(  40) = (   3.2851694   3.0254550  13.9321539  )
        41           O1  tau(  41) = (   4.5310495   4.4602642  16.1636806  )
        42           O1  tau(  42) = (   1.9842988   4.5744318  15.9411167  )
        43           Ti1 tau(  43) = (   3.2691225   0.1036042  15.7405456  )
        44           Ti1 tau(  44) = (   6.5697781   4.6877429  16.0360384  )
        45           O1  tau(  45) = (   3.2900926   2.9813045   4.7018136  )
        46           O1  tau(  46) = (   1.3039711   4.4726057   6.0039043  )
        47           O1  tau(  47) = (   5.2763189   4.4711207   6.0039473  )
        48           N1  tau(  48) = (   1.2792381   2.8578196  18.3696018  )
        49           N1  tau(  49) = (   0.1888888   2.9646215  17.4957353  )
        50           C1  tau(  50) = (   2.5352320   2.9081513  18.0382144  )
        51           H1  tau(  51) = (   3.1442446   2.7411670  18.9317345  )
        52           H1  tau(  52) = (   1.0014291   2.6635404  19.3302151  )
        53           H1  tau(  53) = (   5.9397212   2.8571719  18.0851170  )
        54           O1  tau(  54) = (   3.2630597   0.0341043  18.2348460  )
        55           H1  tau(  55) = (   4.0455299   5.4198958  18.2485053  )
        56           H1  tau(  56) = (   2.4923979   5.4091459  18.3156537  )

     number of k points=    10  Fermi-Dirac smearing, width (Ry)=  0.0073
                       cart. coord. in units 2pi/alat
        k(    1) = (   0.0000000   0.0000000   0.0000000), wk =   0.1250000
        k(    2) = (   0.0000000   0.0419351   0.0000000), wk =   0.2500000
        k(    3) = (   0.0000000  -0.0838702   0.0000000), wk =   0.1250000
        k(    4) = (   0.0379955   0.0000049   0.0000000), wk =   0.2500000
        k(    5) = (   0.0379955   0.0419400   0.0000000), wk =   0.2500000
        k(    6) = (   0.0379955  -0.0838652   0.0000000), wk =   0.2500000
        k(    7) = (   0.0379955  -0.0419301   0.0000000), wk =   0.2500000
        k(    8) = (  -0.0759910  -0.0000099   0.0000000), wk =   0.1250000
        k(    9) = (  -0.0759910   0.0419252   0.0000000), wk =   0.2500000
        k(   10) = (  -0.0759910  -0.0838800   0.0000000), wk =   0.1250000

     Initial potential from superposition of free atoms

     starting charge  386.99914, renormalised to  403.00000

     negative rho (up, down):  1.738E-02 0.000E+00

     %%%%%%%%%%%%%%%%%%%%%%%%%%%%%%%%%%%%%%%%%%%%%%%%%%%%%%%%%%%%%%%%%%%%%%%%
     %                                                                      %
     % You are using vdW-DF, which was implemented by the Thonhauser group. %
     % Please cite the following two papers that made this development      %
     % possible and the two reviews that describe the various versions:     %
     %                                                                      %
     %   T. Thonhauser et al., PRL 115, 136402 (2015).                      %
     %   T. Thonhauser et al., PRB 76, 125112 (2007).                       %
     %   K. Berland et al., Rep. Prog. Phys. 78, 066501 (2015).             %
     %   D.C. Langreth et al., J. Phys.: Condens. Matter 21, 084203 (2009). %
     %                                                                      %
     %                                                                      %
     % If you are calculating the stress with vdW-DF, please also cite:     %
     %                                                                      %
     %   R. Sabatini et al., J. Phys.: Condens. Matter 24, 424209 (2012).   %
     %                                                                      %
     %%%%%%%%%%%%%%%%%%%%%%%%%%%%%%%%%%%%%%%%%%%%%%%%%%%%%%%%%%%%%%%%%%%%%%%%

     Adding external electric field

     Computed dipole along edir(3) :
        Dipole              -12.3424 Ry au,        -31.3711 Debye
        Dipole field         -0.0233 Ry au,

        Potential amp.        2.1591 Ry
        Total length         46.3494 bohr

     Starting wfcs are  305 atomic wfcs
  @ DRIVER MODE: Message from server: STATUS
  @ DRIVER MODE: Message from server: POSDATA
  @ DRIVER MODE: Reading and sharing cell
  @ DRIVER MODE: Reading and sharing positions
  @ DRIVER MODE: Received positions

     Self-consistent Calculation

     iteration #  1     ecut=    29.40 Ry     beta= 0.05
     Davidson diagonalization with overlap
     c_bands:  5 eigenvalues not converged
     c_bands:  3 eigenvalues not converged
     c_bands:  3 eigenvalues not converged
     c_bands:  1 eigenvalues not converged
     c_bands:  2 eigenvalues not converged
     c_bands:  2 eigenvalues not converged
     c_bands:  5 eigenvalues not converged
     c_bands:  2 eigenvalues not converged
     c_bands:  4 eigenvalues not converged
     ethr =  1.00E-05,  avg # of iterations = 29.3

[...]

     total energy              =   -2358.76069242 Ry
     estimated scf accuracy    <    6970.85619965 Ry

     iteration #  2     ecut=    29.40 Ry     beta= 0.05
     Davidson diagonalization with overlap
     ethr =  1.00E-02,  avg # of iterations = 26.5

[...]

     iteration # 68     ecut=    29.40 Ry     beta= 0.05
     Davidson diagonalization with overlap
     c_bands:  1 eigenvalues not converged
     c_bands:  1 eigenvalues not converged
     ethr =  3.74E-10,  avg # of iterations = 16.3

[...]

     total energy              =   -2973.93997579 Ry
     estimated scf accuracy    <       0.00000011 Ry

     iteration # 73     ecut=    29.40 Ry     beta= 0.05
     Davidson diagonalization with overlap
     ethr =  2.73E-11,  avg # of iterations =  4.7

     negative rho (up, down):  1.726E-02 0.000E+00

     Adding external electric field

     Computed dipole along edir(3) :
        Dipole                1.4039 Ry au,          3.5684 Debye
        Dipole field          0.0026 Ry au,

        Potential amp.       -0.2456 Ry
        Total length         46.3494 bohr

     End of self-consistent calculation

          k = 0.0000 0.0000 0.0000 ( 18029 PWs)   bands (ev):

   -55.3165 -55.2824 -55.2070 -55.1831 -55.1640 -55.1522 -55.1374 -55.1150
   -55.1035 -55.1025 -55.0944 -55.0598 -54.9852 -54.8276 -54.2969 -54.2629
   -31.8008 -31.7280 -31.6544 -31.6466 -31.6371 -31.6083 -31.5841 -31.5616
   -31.5171 -31.4950 -31.4689 -31.4607 -31.4525 -31.4380 -31.4226 -31.4183
   -31.3948 -31.3771 -31.3738 -31.3617 -31.3330 -31.3300 -31.3255 -31.3226
   -31.3199 -31.3159 -31.3117 -31.2936 -31.2860 -31.2760 -31.2696 -31.2693
   -31.2603 -31.2574 -31.2488 -31.2452 -31.2338 -31.2086 -31.2070 -31.0839
   -31.0694 -31.0432 -30.7038 -30.6157 -30.5933 -30.5207 -30.4343 -30.3230
   -18.8817 -18.6098 -15.9745 -15.7909 -15.6101 -15.4709 -15.3883 -15.1569
   -15.0976 -15.0598 -14.9787 -14.9572 -14.8560 -14.8374 -14.8359 -14.8170
   -14.8142 -14.7593 -14.7433 -14.7396 -14.6908 -14.6840 -14.6587 -14.6434
   -14.5914 -14.5120 -14.5039 -14.4574 -14.4118 -14.3654 -14.0180 -13.3965
   -12.7977 -12.6812  -8.8107  -7.2267  -6.6222  -4.3064  -3.7789  -3.3583
    -3.2819  -3.2460  -3.2213  -3.0870  -2.9693  -2.8641  -2.7706  -2.6688
    -2.5812  -2.4768  -2.4208  -2.3749  -2.3150  -2.2545  -2.2281  -2.1422
    -2.1224  -2.1033  -2.0814  -2.0551  -2.0255  -1.9891  -1.8662  -1.8556
    -1.7732  -1.7171  -1.6799  -1.6600  -1.6421  -1.6309  -1.6030  -1.5779
    -1.5694  -1.5584  -1.5567  -1.5218  -1.3819  -1.3594  -1.3292  -1.3069
    -1.1601  -1.0230  -0.9341  -0.9316  -0.8220  -0.7576  -0.7541  -0.7157
    -0.6998  -0.5966  -0.5124  -0.4753  -0.4507  -0.3734  -0.3162  -0.2590
    -0.2076  -0.1731  -0.1061  -0.0822  -0.0655  -0.0485   0.0196   0.0826
     0.1444   0.2295   0.2731   0.2971   0.3880   0.4028   0.4256   0.4902
     0.5209   0.5673   0.6025   0.6319   0.6553   0.6858   0.7112   0.7543
     0.7917   0.9182   0.9365   0.9648   0.9851   1.1604   1.2103   1.3062
     1.3427   1.4317   1.4839   1.6656   1.7270   1.8066   1.9189   2.2971
     2.3429   3.7929   3.9040   3.9381   3.9632   4.0024   4.0538   4.2605
     4.3336   4.3750   4.4314

[...]

          k = 0.0380-0.0419 0.0000 ( 17876 PWs)   bands (ev):

[...]

          k =-0.0760-0.0000 0.0000 ( 17886 PWs)   bands (ev):

[...]

          k =-0.0760-0.0839 0.0000 ( 17948 PWs)   bands (ev):

   -55.2997 -55.2991 -55.1976 -55.1796 -55.1727 -55.1407 -55.1268 -55.1204
   -55.1198 -55.1062 -55.0812 -55.0732 -54.9835 -54.8293 -54.2799 -54.2798
   -31.6162 -31.6159 -31.5940 -31.5936 -31.5622 -31.5306 -31.4994 -31.4869
   -31.4794 -31.4641 -31.4457 -31.4416 -31.4367 -31.4273 -31.4222 -31.4191
   -31.4188 -31.4180 -31.4135 -31.3978 -31.3867 -31.3727 -31.3626 -31.3597
   -31.3545 -31.3501 -31.3408 -31.3283 -31.3228 -31.3213 -31.3060 -31.2968
   -31.2935 -31.2928 -31.2911 -31.2883 -31.2602 -31.2271 -31.2131 -31.1402
   -31.0865 -31.0724 -30.6060 -30.6060 -30.5166 -30.5165 -30.4776 -30.4775
   -18.8725 -18.6145 -15.3506 -15.3171 -15.2790 -15.2517 -15.2349 -15.1150
   -15.1015 -15.0653 -15.0242 -15.0109 -14.9806 -14.9519 -14.9024 -14.8944
   -14.8602 -14.8406 -14.8009 -14.7749 -14.7556 -14.7512 -14.7345 -14.7129
   -14.6695 -14.6476 -14.6352 -14.6309 -14.5785 -14.4827 -14.2037 -13.4194
   -12.7830 -12.7829  -8.8070  -7.1507  -6.6232  -4.5151  -3.5559  -2.8698
    -2.6942  -2.6272  -2.5763  -2.4854  -2.4389  -2.3160  -2.3094  -2.2870
    -2.2418  -2.2287  -2.1874  -2.1470  -2.1413  -2.1136  -2.1012  -2.0565
    -2.0452  -2.0421  -2.0279  -1.9946  -1.9888  -1.9683  -1.9439  -1.9411
    -1.9307  -1.9144  -1.8828  -1.8749  -1.8474  -1.8304  -1.6776  -1.6050
    -1.5593  -1.4823  -1.4594  -1.4426  -1.4232  -1.3889  -1.3686  -1.3428
    -1.3142  -1.1680  -1.0303  -0.9935  -0.9690  -0.8703  -0.8549  -0.8355
    -0.7891  -0.7474  -0.7125  -0.6534  -0.6444  -0.5980  -0.5775  -0.4562
    -0.4201  -0.3209  -0.2849  -0.2833  -0.2658  -0.2515  -0.2342  -0.2074
    -0.1585  -0.0869  -0.0713  -0.0230   0.0008   0.0034   0.0166   0.1610
     0.2333   0.2521   0.3557   0.3866   0.5618   0.7248   0.7369   0.8047
     0.8678   0.9216   0.9565   0.9963   1.0063   1.0718   1.0961   1.1992
     1.2117   1.2596   1.2623   1.3335   1.3571   2.0907   2.0924   2.1629
     2.1631   4.1567   4.1700   4.2007   4.2636   4.3068   4.3184   4.3560
     4.3597   4.4628   4.4822

     the Fermi energy is     3.8108 ev

!    total energy              =   -2973.93999435 Ry
     estimated scf accuracy    <       0.00000005 Ry
     smearing contrib. (-TS)   =      -0.02073045 Ry
     internal energy E=F+TS    =   -2973.91926390 Ry

     The total energy is F=E-TS. E is the sum of the following terms:
     one-electron contribution =  -24341.55843935 Ry
     hartree contribution      =   12268.52591873 Ry
     xc contribution           =    -494.11150837 Ry
     ewald contribution        =    9593.22104561 Ry
     electric field correction =       0.00371947 Ry

     convergence has been achieved in  73 iterations

     Forces acting on atoms (cartesian axes, Ry/au):

     atom    1 type  1   force =     0.00002016   -0.00009263    0.09507331
     atom    2 type  1   force =     0.00018217   -0.00068385   -0.17564103
     atom    3 type  2   force =     0.00008892   -0.00005188   -0.02294292
     atom    4 type  2   force =     0.00002262   -0.00143270    0.05289239
     atom    5 type  2   force =    -0.01001017   -0.00031461    0.00381717
     atom    6 type  2   force =     0.01113385    0.00020200    0.00206961
     atom    7 type  1   force =    -0.00021319    0.00177155   -0.00588283
     atom    8 type  1   force =     0.00081308    0.01009190    0.01606227
     atom    9 type  2   force =    -0.00015875    0.00086865    0.00033917
     atom   10 type  2   force =    -0.00227012    0.00217277   -0.01805691
     atom   11 type  2   force =     0.00025952   -0.00003492    0.00005829
     atom   12 type  2   force =    -0.00035700   -0.00018923    0.00053522
     atom   13 type  1   force =    -0.00003821    0.00125583    0.00031920
     atom   14 type  1   force =    -0.00012052    0.00007114   -0.00002410
     atom   15 type  2   force =     0.00014355    0.00002833   -0.00037159
     atom   16 type  2   force =    -0.00038697    0.00044083   -0.00018232
     atom   17 type  2   force =    -0.00040234   -0.00024956   -0.00001218
     atom   18 type  2   force =     0.00024938    0.00003350    0.00044824
     atom   19 type  1   force =    -0.00040726    0.00029282   -0.00085435
     atom   20 type  1   force =    -0.00034535   -0.00034107   -0.00066407
     atom   21 type  2   force =     0.00009124   -0.00008500    0.10317589
     atom   22 type  2   force =     0.00038230    0.00000172    0.00080364
     atom   23 type  2   force =    -0.07160594   -0.00016900   -0.02757194
     atom   24 type  2   force =     0.07156435    0.00024532   -0.02761865
     atom   25 type  1   force =     0.00023003   -0.00039296    0.09516774
     atom   26 type  1   force =    -0.00003423   -0.00020186   -0.17581050
     atom   27 type  2   force =     0.00012217   -0.00012101   -0.02196633
     atom   28 type  2   force =     0.00001565   -0.00139815    0.05322006
     atom   29 type  2   force =    -0.01035190   -0.00023066    0.00365918
     atom   30 type  2   force =     0.01139011    0.00042317    0.00192407
     atom   31 type  1   force =    -0.00030194    0.00266526   -0.00008258
     atom   32 type  1   force =     0.00067424   -0.01114562    0.01694026
     atom   33 type  2   force =     0.00037038   -0.00027354    0.00001801
     atom   34 type  2   force =    -0.00033779    0.00144001   -0.01899608
     atom   35 type  2   force =     0.00001040   -0.00035638   -0.00018422
     atom   36 type  2   force =    -0.00000445   -0.00024879    0.00041639
     atom   37 type  1   force =    -0.00006463   -0.00122355    0.00051636
     atom   38 type  1   force =    -0.00039522    0.00092296    0.00001806
     atom   39 type  2   force =     0.00004118    0.00007385   -0.00045179
     atom   40 type  2   force =    -0.00047012   -0.00058743    0.00013960
     atom   41 type  2   force =     0.00000584   -0.00013651    0.00034187
     atom   42 type  2   force =     0.00002577   -0.00036432   -0.00012986
     atom   43 type  1   force =    -0.00017861   -0.00017358    0.00018356
     atom   44 type  1   force =     0.00000083    0.00011267   -0.00032778
     atom   45 type  2   force =     0.00010090   -0.00010389    0.10320000
     atom   46 type  2   force =    -0.07159269   -0.00016814   -0.02756453
     atom   47 type  2   force =     0.07159357    0.00024487   -0.02757353
     atom   48 type  3   force =     0.00000241    0.00031303   -0.00562639
     atom   49 type  3   force =    -0.00354832   -0.00177663    0.01494024
     atom   50 type  4   force =    -0.00034588   -0.00055159    0.00114861
     atom   51 type  5   force =     0.00003396   -0.00043945   -0.00007777
     atom   52 type  5   force =    -0.00127743   -0.00095841   -0.00168482
     atom   53 type  5   force =     0.00562169    0.00073649   -0.00745601
     atom   54 type  2   force =    -0.00011332    0.00100669    0.00005480
     atom   55 type  5   force =     0.00021364   -0.00020069   -0.00007042
     atom   56 type  5   force =    -0.00007156   -0.00071775    0.00034230

     Total force =     0.365691     Total SCF correction =     0.000641
  @ DRIVER MODE: Message from server: STATUS
  @ DRIVER MODE: Message from server: GETFORCE
  @ DRIVER MODE: Returning v,forces,stress,ensemble

     Writing output data file ./calc.save/
  @ DRIVER MODE: Message from server: EXIT
  @ DRIVE MODE: Exiting

     General routines

     Parallel routines

   This run was terminated on:   2:31:55  22Sep2021

   JOB DONE.