     Program PWSCF v.6.7GPU starts on  1Oct2021 at  4:23:19

     R & G space division:  proc/nbgrp/npool/nimage =       8
     Reading input from /storage/home/hcoda1/3/ntian30/research/carbon/CxH_vib/pristine/ads_slab/CHHNN_a/out_0010/pw.inp
Warning: card &CELL ignored
Warning: card   CELL_DYNAMICS='IPI', ignored
Warning: card / ignored

     Current dimensions of program PWSCF are:
     Max number of different atomic species (ntypx) = 10
     Max number of k-points (npk) =  40000
     Max angular momentum in pseudopotentials (lmaxx) =  3
     Presently no symmetry can be used with electric field

     Message from routine cell_base_init:
     DEPRECATED: use true lattice parameter, not A to a.u. conversion factor

     IMPORTANT: XC functional enforced from input :
     Exchange-correlation= BEEF-VDW
                           (   1   4  43  14   2   0   0)
     Any further DFT definition will be discarded
     Please, verify this is what you really want

  @ DRIVER MODE: Connecting to
 qe_1139763_3035467.sched-torque.pace.gatech.edu2enzlbxv_scratch
  using UNIX socket
  @ DRIVER MODE: Message from server: STATUS
  @ DRIVER MODE: Message from server: INIT
  @ DRIVER MODE: Receiving replica           0          -1
  @ DRIVER MODE: Receiving encoded integer          25
  @ DRIVER MODE:  SCF:  T  FORCE:  T  STRESS:  F  VC:  F  ENSEMBLE:  F
  @ DRIVER MODE:  SCF:  T  FORCE:  T  STRESS:  F  VC:  F  ENSEMBLE:  F

     Using Slab Decomposition

     bravais-lattice index     =            0
     lattice parameter (alat)  =       1.8897  a.u.
     unit-cell volume          =    6658.9804 (a.u.)^3
     number of atoms/cell      =           53
     number of atomic types    =            5
     number of electrons       =       400.00
     number of Kohn-Sham states=          210
     kinetic-energy cutoff     =      29.3995  Ry
     charge density cutoff     =     293.9946  Ry
     scf convergence threshold =      7.3E-08
     mixing beta               =       0.0500
     number of iterations used =            8  plain     mixing
     Exchange-correlation= BEEF-VDW
                           (   1   4  43  14   2   0   0)

     celldm(1)=   1.889726  celldm(2)=   0.000000  celldm(3)=   0.000000
     celldm(4)=   0.000000  celldm(5)=   0.000000  celldm(6)=   0.000000

     crystal axes: (cart. coord. in units of alat)
               a(1) = (   6.579727   0.000000   0.000000 )
               a(2) = (  -0.000775   5.961596   0.000000 )
               a(3) = (   0.000000   0.000000  25.155947 )

     reciprocal axes: (cart. coord. in units 2 pi/alat)
               b(1) = (  0.151982  0.000020  0.000000 )
               b(2) = (  0.000000  0.167740  0.000000 )
               b(3) = (  0.000000  0.000000  0.039752 )

     PseudoPot. # 1 for Ti read from file:
     /storage/coda1/p-amedford6/0/shared/rich_project_chbe-medford/medford-share/data/pseudos_module/espresso/nninc/pbe/van/Ti.UPF
     MD5 check sum: 8e4df49b7f0d34bbd5052bf3f5ea0213
     Pseudo is Ultrasoft, Zval = 12.0
     Generated by new atomic code, or converted to UPF format
     Using radial grid of  851 points,  6 beta functions with:
                l(1) =   0
                l(2) =   0
                l(3) =   1
                l(4) =   1
                l(5) =   2
                l(6) =   2
     Q(r) pseudized with  8 coefficients,  rinner =    1.000   1.000   1.000
                                                       1.000   1.000

     PseudoPot. # 2 for O  read from file:
     /storage/coda1/p-amedford6/0/shared/rich_project_chbe-medford/medford-share/data/pseudos_module/espresso/nninc/pbe/van/O.UPF
     MD5 check sum: 78c19812648e8988a0fe644b0f25305e
     Pseudo is Ultrasoft, Zval =  6.0
     Generated by new atomic code, or converted to UPF format
     Using radial grid of  737 points,  4 beta functions with:
                l(1) =   0
                l(2) =   0
                l(3) =   1
                l(4) =   1
     Q(r) pseudized with  8 coefficients,  rinner =    0.800   0.800   0.800

     PseudoPot. # 3 for N  read from file:
     /storage/coda1/p-amedford6/0/shared/rich_project_chbe-medford/medford-share/data/pseudos_module/espresso/nninc/pbe/van/N.UPF
     MD5 check sum: 90d10febe142ad51ac9d5be1deb811c4
     Pseudo is Ultrasoft, Zval =  5.0
     Generated by new atomic code, or converted to UPF format
     Using radial grid of  729 points,  4 beta functions with:
                l(1) =   0
                l(2) =   0
                l(3) =   1
                l(4) =   1
     Q(r) pseudized with  8 coefficients,  rinner =    0.800   0.800   0.800

     PseudoPot. # 4 for C  read from file:
     /storage/coda1/p-amedford6/0/shared/rich_project_chbe-medford/medford-share/data/pseudos_module/espresso/nninc/pbe/van/C.UPF
     MD5 check sum: 1a69bf6b8db32088f5b2163dbdb77a27
     Pseudo is Ultrasoft, Zval =  4.0
     Generated by new atomic code, or converted to UPF format
     Using radial grid of  721 points,  4 beta functions with:
                l(1) =   0
                l(2) =   0
                l(3) =   1
                l(4) =   1
     Q(r) pseudized with  8 coefficients,  rinner =    0.800   0.800   0.800

     PseudoPot. # 5 for H  read from file:
     /storage/coda1/p-amedford6/0/shared/rich_project_chbe-medford/medford-share/data/pseudos_module/espresso/nninc/pbe/van/H.UPF
     MD5 check sum: b5ee9d7bfd3a09ee7748110bda690ff7
     Pseudo is Ultrasoft, Zval =  1.0
     Generated by new atomic code, or converted to UPF format
     Using radial grid of  615 points,  1 beta functions with:
                l(1) =   0
     Q(r) pseudized with  8 coefficients,  rinner =    0.800

     atomic species   valence    mass     pseudopotential
        Ti1           12.00    47.86700     Ti( 1.00)
        O1             6.00    15.99900     O ( 1.00)
        N1             5.00    14.00700     N ( 1.00)
        C1             4.00    12.01100     C ( 1.00)
        H1             1.00     1.00800     H ( 1.00)

     No symmetry found

   Cartesian axes

     site n.     atom                  positions (alat units)
         1           Ti1 tau(   1) = (   0.0004258   2.9801865   6.0000000  )
         2           Ti1 tau(   2) = (   3.2906075   1.4906267   6.0002472  )
         3           O1  tau(   3) = (   0.0006271   0.0005054   7.9858123  )
         4           O1  tau(   4) = (   3.2906025   0.0005020   7.3038282  )
         5           O1  tau(   5) = (   4.5942328   1.4918067   9.2879030  )
         6           O1  tau(   6) = (   1.9868534   1.4903216   9.2879459  )
         7           Ti1 tau(   7) = (   3.2961651   2.9340025   9.1571600  )
         8           Ti1 tau(   8) = (   0.0257383   1.5005952   9.3383585  )
         9           O1  tau(   9) = (   3.3091981   5.9584344  11.3361002  )
        10           O1  tau(  10) = (   6.5780281   5.9600862  10.6016087  )
        11           O1  tau(  11) = (   1.3203574   1.4925043  12.6130903  )
        12           O1  tau(  12) = (   5.3210186   1.4819496  12.6412376  )
        13           Ti1 tau(  13) = (   6.5659556   2.9650791  12.8176139  )
        14           Ti1 tau(  14) = (   3.2164003   1.4877187  12.4769567  )
        15           O1  tau(  15) = (   0.0404395   5.9536100  14.6624943  )
        16           O1  tau(  16) = (   3.3074673   5.9584959  13.9062718  )
        17           O1  tau(  17) = (   4.5856532   1.4904827  16.0465219  )
        18           O1  tau(  18) = (   2.1034043   1.4884928  16.0442595  )
        19           Ti1 tau(  19) = (   3.2939248   2.9785878  15.7144947  )
        20           Ti1 tau(  20) = (   6.5451327   1.4142704  16.0395912  )
        21           O1  tau(  21) = (   3.2904802   0.0005063   4.7018136  )
        22           O1  tau(  22) = (   0.0457580   0.0044623  17.2034710  )
        23           O1  tau(  23) = (   1.3043587   1.4918075   6.0039043  )
        24           O1  tau(  24) = (   5.2767064   1.4903225   6.0039473  )
        25           Ti1 tau(  25) = (   0.0000382   5.9609847   6.0000000  )
        26           Ti1 tau(  26) = (   3.2902200   4.4714249   6.0002472  )
        27           O1  tau(  27) = (   0.0002396   2.9813036   7.9858123  )
        28           O1  tau(  28) = (   3.2902150   2.9813002   7.3038282  )
        29           O1  tau(  29) = (   4.5938453   4.4726049   9.2879030  )
        30           O1  tau(  30) = (   1.9864658   4.4711199   9.2879459  )
        31           Ti1 tau(  31) = (   3.3296195   5.9152860   9.1560537  )
        32           Ti1 tau(  32) = (   0.0304643   4.4420822   9.3322224  )
        33           O1  tau(  33) = (   3.3127198   2.9780151  11.3348310  )
        34           O1  tau(  34) = (   0.0025308   2.9791118  10.5479895  )
        35           O1  tau(  35) = (   1.3183054   4.4635934  12.6126975  )
        36           O1  tau(  36) = (   5.3202651   4.4673696  12.6407401  )
        37           Ti1 tau(  37) = (   6.5108624   5.9459213  12.5946634  )
        38           Ti1 tau(  38) = (   3.2137380   4.4666137  12.4775098  )
        39           O1  tau(  39) = (   0.0464109   2.9731917  14.6594554  )
        40           O1  tau(  40) = (   3.3098714   2.9789900  13.9126757  )
        41           O1  tau(  41) = (   4.5859750   4.4686661  16.0488133  )
        42           O1  tau(  42) = (   2.1005049   4.4706468  16.0453856  )
        43           Ti1 tau(  43) = (   3.2853703   5.9589473  15.7052640  )
        44           Ti1 tau(  44) = (   6.5509595   4.5658457  16.0514827  )
        45           O1  tau(  45) = (   3.2900926   2.9813045   4.7018136  )
        46           O1  tau(  46) = (   0.0949885   2.9744829  17.2486893  )
        47           O1  tau(  47) = (   1.3039711   4.4726057   6.0039043  )
        48           O1  tau(  48) = (   5.2763189   4.4711207   6.0039473  )
        49           N1  tau(  49) = (   0.3730515   3.1615268  19.4484725  )
        50           N1  tau(  50) = (   6.0186590   3.0046300  18.5893579  )
        51           C1  tau(  51) = (   0.0316377   3.3059097  20.7092049  )
        52           H1  tau(  52) = (   5.5749133   3.3461147  21.0318256  )
        53           H1  tau(  53) = (   0.8315635   3.3875449  21.4270997  )

     number of k points=    10  Fermi-Dirac smearing, width (Ry)=  0.0073
                       cart. coord. in units 2pi/alat
        k(    1) = (   0.0000000   0.0000000   0.0000000), wk =   0.1250000
        k(    2) = (   0.0000000   0.0419351   0.0000000), wk =   0.2500000
        k(    3) = (   0.0000000  -0.0838702   0.0000000), wk =   0.1250000
        k(    4) = (   0.0379955   0.0000049   0.0000000), wk =   0.2500000
        k(    5) = (   0.0379955   0.0419400   0.0000000), wk =   0.2500000
        k(    6) = (   0.0379955  -0.0838652   0.0000000), wk =   0.2500000
        k(    7) = (   0.0379955  -0.0419301   0.0000000), wk =   0.2500000
        k(    8) = (  -0.0759910  -0.0000099   0.0000000), wk =   0.1250000
        k(    9) = (  -0.0759910   0.0419252   0.0000000), wk =   0.2500000
        k(   10) = (  -0.0759910  -0.0838800   0.0000000), wk =   0.1250000

     Initial potential from superposition of free atoms

     starting charge  383.99917, renormalised to  400.00000

     negative rho (up, down):  1.225E-02 0.000E+00

     %%%%%%%%%%%%%%%%%%%%%%%%%%%%%%%%%%%%%%%%%%%%%%%%%%%%%%%%%%%%%%%%%%%%%%%%
     %                                                                      %
     % You are using vdW-DF, which was implemented by the Thonhauser group. %
     % Please cite the following two papers that made this development      %
     % possible and the two reviews that describe the various versions:     %
     %                                                                      %
     %   T. Thonhauser et al., PRL 115, 136402 (2015).                      %
     %   T. Thonhauser et al., PRB 76, 125112 (2007).                       %
     %   K. Berland et al., Rep. Prog. Phys. 78, 066501 (2015).             %
     %   D.C. Langreth et al., J. Phys.: Condens. Matter 21, 084203 (2009). %
     %                                                                      %
     %                                                                      %
     % If you are calculating the stress with vdW-DF, please also cite:     %
     %                                                                      %
     %   R. Sabatini et al., J. Phys.: Condens. Matter 24, 424209 (2012).   %
     %                                                                      %
     %%%%%%%%%%%%%%%%%%%%%%%%%%%%%%%%%%%%%%%%%%%%%%%%%%%%%%%%%%%%%%%%%%%%%%%%

     Adding external electric field

     Computed dipole along edir(3) :
        Dipole              -11.7961 Ry au,        -29.9828 Debye
        Dipole field         -0.0223 Ry au,

        Potential amp.        2.0636 Ry
        Total length         46.3494 bohr

     Starting wfcs are  302 atomic wfcs
  @ DRIVER MODE: Message from server: STATUS
  @ DRIVER MODE: Message from server: POSDATA
  @ DRIVER MODE: Reading and sharing cell
  @ DRIVER MODE: Reading and sharing positions
  @ DRIVER MODE: Received positions

     Self-consistent Calculation

     iteration #  1     ecut=    29.40 Ry     beta= 0.05
     Davidson diagonalization with overlap
     c_bands:  3 eigenvalues not converged
     c_bands:  1 eigenvalues not converged
     c_bands:  2 eigenvalues not converged
     c_bands:  3 eigenvalues not converged
     c_bands:  3 eigenvalues not converged
     c_bands:  3 eigenvalues not converged
     c_bands:  1 eigenvalues not converged
     c_bands:  5 eigenvalues not converged
     c_bands:  2 eigenvalues not converged
     ethr =  1.00E-05,  avg # of iterations = 19.9

[...]

     total energy              =   -2452.84572991 Ry
     estimated scf accuracy    <    5806.00920440 Ry

     iteration #  2     ecut=    29.40 Ry     beta= 0.05
     Davidson diagonalization with overlap
     ethr =  1.00E-02,  avg # of iterations = 22.4

[...]

     iteration # 67     ecut=    29.40 Ry     beta= 0.05
     Davidson diagonalization with overlap
     c_bands:  1 eigenvalues not converged
     ethr =  5.20E-09,  avg # of iterations = 14.3

[...]

     total energy              =   -2970.15585398 Ry
     estimated scf accuracy    <       0.00000010 Ry

     iteration # 79     ecut=    29.40 Ry     beta= 0.05
     Davidson diagonalization with overlap
     ethr =  2.43E-11,  avg # of iterations =  7.1

     negative rho (up, down):  1.340E-02 0.000E+00

     Adding external electric field

     Computed dipole along edir(3) :
        Dipole                0.4166 Ry au,          1.0589 Debye
        Dipole field          0.0008 Ry au,

        Potential amp.       -0.0729 Ry
        Total length         46.3494 bohr

     End of self-consistent calculation

          k = 0.0000 0.0000 0.0000 ( 18029 PWs)   bands (ev):

   -56.1053 -56.0670 -56.0548 -56.0186 -55.9508 -55.9240 -55.8889 -55.8541
   -55.8003 -55.7896 -55.7630 -55.7629 -55.7547 -55.7166 -55.0709 -55.0368
   -32.6063 -32.5586 -32.4148 -32.3926 -32.3879 -32.3613 -32.3522 -32.3226
   -32.2853 -32.2828 -32.2759 -32.2723 -32.2549 -32.2449 -32.2359 -32.2099
   -32.1885 -32.1818 -32.1776 -32.1769 -32.1508 -32.1374 -32.0799 -32.0776
   -32.0697 -32.0562 -32.0512 -32.0251 -32.0239 -32.0202 -32.0078 -31.9962
   -31.9600 -31.9578 -31.9427 -31.9415 -31.9412 -31.9330 -31.9214 -31.9034
   -31.8890 -31.8419 -31.4791 -31.3854 -31.3627 -31.2961 -31.2102 -31.0988
   -19.0551 -16.7914 -16.4915 -16.3969 -16.2067 -16.1751 -16.0898 -16.0415
   -15.8111 -15.7158 -15.6559 -15.6269 -15.5994 -15.5916 -15.5862 -15.5593
   -15.5174 -15.5161 -15.4839 -15.4670 -15.4576 -15.4034 -15.3540 -15.3092
   -15.2482 -15.2151 -15.1833 -15.1803 -15.0730 -15.0266 -14.9790 -13.5700
   -13.4525 -10.9572  -6.4339  -4.8392  -4.1539  -3.9972  -3.9538  -3.9527
    -3.8393  -3.6917  -3.5913  -3.5528  -3.4424  -3.2242  -3.2116  -3.1942
    -3.1722  -3.1154  -2.9470  -2.8953  -2.8884  -2.8702  -2.8513  -2.8291
    -2.8060  -2.7916  -2.7622  -2.7345  -2.7182  -2.5783  -2.5696  -2.4726
    -2.4537  -2.4039  -2.3748  -2.3583  -2.3162  -2.2693  -2.2260  -2.2064
    -2.1834  -2.1577  -2.0785  -1.9079  -1.9021  -1.8710  -1.7931  -1.7402
    -1.7370  -1.4745  -1.4730  -1.4669  -1.4013  -1.3584  -1.3501  -1.2712
    -1.2194  -1.1966  -1.1821  -1.1582  -1.0810  -1.0043  -0.9598  -0.9070
    -0.8709  -0.8194  -0.7904  -0.7752  -0.7562  -0.5486  -0.5245  -0.4922
    -0.4551  -0.3394  -0.3295  -0.2837  -0.2703  -0.2275  -0.2191  -0.1058
    -0.0838  -0.0657  -0.0498  -0.0289  -0.0045   0.0129   0.0681   0.1192
     0.1521   0.1785   0.3683   0.3794   0.5439   0.5840   0.6123   0.7595
     0.8679   0.9543   1.0811   1.1298   1.5464   1.6161   1.7246   2.9805
     3.1113   3.1925   3.2428   3.2744   3.3354   3.4978   3.5476   3.5760
     3.6161   3.6240

[...]

          k = 0.0380-0.0419 0.0000 ( 17876 PWs)   bands (ev):

[...]

          k =-0.0760-0.0000 0.0000 ( 17886 PWs)   bands (ev):

[...]

          k =-0.0760-0.0839 0.0000 ( 17948 PWs)   bands (ev):

   -56.0950 -56.0771 -56.0373 -56.0358 -55.9478 -55.9084 -55.9043 -55.8570
   -55.7875 -55.7776 -55.7745 -55.7676 -55.7547 -55.7247 -55.0538 -55.0538
   -32.4090 -32.4072 -32.3824 -32.3809 -32.3664 -32.3531 -32.3110 -32.3098
   -32.2921 -32.2463 -32.2409 -32.2396 -32.2293 -32.2161 -32.2140 -32.2058
   -32.1967 -32.1943 -32.1775 -32.1565 -32.1312 -32.1262 -32.1147 -32.1130
   -32.1061 -32.0954 -32.0873 -32.0752 -32.0632 -32.0398 -32.0289 -31.9931
   -31.9885 -31.9849 -31.9789 -31.9678 -31.9673 -31.9639 -31.9614 -31.9561
   -31.9458 -31.9350 -31.3754 -31.3754 -31.2923 -31.2921 -31.2532 -31.2531
   -19.0467 -16.2119 -16.2032 -16.1890 -15.9501 -15.9466 -15.9126 -15.8591
   -15.7631 -15.7617 -15.7547 -15.7420 -15.6773 -15.6679 -15.6627 -15.5918
   -15.5809 -15.5778 -15.5713 -15.5468 -15.4929 -15.4920 -15.3802 -15.3586
   -15.3558 -15.3483 -15.3302 -15.3216 -15.2557 -15.2025 -15.1972 -13.5553
   -13.5524 -10.9586  -6.4212  -4.8028  -3.6905  -3.5045  -3.4957  -3.4161
    -3.1884  -3.1793  -3.0626  -3.0515  -3.0025  -2.9573  -2.9172  -2.9059
    -2.8952  -2.8753  -2.8674  -2.8513  -2.8309  -2.8137  -2.7961  -2.7696
    -2.7227  -2.6906  -2.6746  -2.6515  -2.6437  -2.6340  -2.6055  -2.5974
    -2.5754  -2.5728  -2.5529  -2.4528  -2.3157  -2.2909  -2.2274  -2.1837
    -2.1578  -2.1277  -2.1222  -2.0898  -2.0766  -2.0509  -1.9269  -1.8582
    -1.7817  -1.7495  -1.7252  -1.6623  -1.5824  -1.4979  -1.4293  -1.4072
    -1.3574  -1.3124  -1.2937  -1.2661  -1.2211  -1.2085  -1.1566  -1.0844
    -1.0768  -1.0373  -1.0274  -1.0065  -0.9334  -0.9251  -0.8692  -0.8111
    -0.7977  -0.7113  -0.6566  -0.6334  -0.6209  -0.5609  -0.5424  -0.4743
    -0.3975  -0.3180  -0.0438  -0.0271   0.0270   0.0387   0.0727   0.1723
     0.2340   0.2513   0.3253   0.3497   0.4265   0.4756   0.5082   0.5129
     0.5932   0.6112   1.3194   1.3230   1.4058   1.4152   1.7486   2.9401
     3.3902   3.4197   3.4257   3.4470   3.5823   3.5897   3.6067   3.6150
     3.7540   3.7912

     the Fermi energy is     3.0576 ev

!    total energy              =   -2970.15586265 Ry
     estimated scf accuracy    <       0.00000006 Ry
     smearing contrib. (-TS)   =      -0.02343355 Ry
     internal energy E=F+TS    =   -2970.13242910 Ry

     The total energy is F=E-TS. E is the sum of the following terms:
     one-electron contribution =  -23559.51747578 Ry
     hartree contribution      =   11867.96380069 Ry
     xc contribution           =    -491.49860037 Ry
     ewald contribution        =    9212.91951881 Ry
     electric field correction =       0.00032755 Ry

     convergence has been achieved in  79 iterations

     Forces acting on atoms (cartesian axes, Ry/au):

     atom    1 type  1   force =    -0.00000303   -0.00027945    0.11744194
     atom    2 type  1   force =    -0.00002536   -0.00047883   -0.17834078
     atom    3 type  2   force =     0.00020167    0.00070600   -0.03807000
     atom    4 type  2   force =     0.00087798   -0.00059990    0.04407832
     atom    5 type  2   force =    -0.02134832   -0.00158942    0.00210801
     atom    6 type  2   force =     0.02127248    0.00124958    0.00430482
     atom    7 type  1   force =     0.00093040   -0.00016478   -0.00003017
     atom    8 type  1   force =     0.00006338   -0.00014636    0.00096471
     atom    9 type  2   force =    -0.00048578    0.00006378   -0.00043215
     atom   10 type  2   force =     0.00025398    0.00008133   -0.00104552
     atom   11 type  2   force =     0.00064027    0.00008818   -0.00005118
     atom   12 type  2   force =    -0.00030197    0.00038504   -0.00025507
     atom   13 type  1   force =    -0.00136870    0.00031953    0.00011608
     atom   14 type  1   force =     0.00114714    0.00021056   -0.00032786
     atom   15 type  2   force =    -0.00032986    0.00026721    0.00093453
     atom   16 type  2   force =    -0.00027684    0.00003929    0.00149615
     atom   17 type  2   force =     0.00007023   -0.00028491    0.00046502
     atom   18 type  2   force =    -0.00038939   -0.00046065    0.00021495
     atom   19 type  1   force =    -0.00030513    0.00032468    0.00053854
     atom   20 type  1   force =     0.00029177    0.00018951    0.00035918
     atom   21 type  2   force =    -0.00000682    0.00005310    0.10374056
     atom   22 type  2   force =    -0.00035719    0.00050482   -0.00097239
     atom   23 type  2   force =    -0.06937119    0.00107864   -0.03120395
     atom   24 type  2   force =     0.06913151    0.00148381   -0.03120117
     atom   25 type  1   force =    -0.00023394   -0.00019694    0.12919685
     atom   26 type  1   force =    -0.00004884   -0.00004390   -0.17842218
     atom   27 type  2   force =     0.00040675    0.00015832   -0.03707694
     atom   28 type  2   force =     0.00033225   -0.00056282    0.04503956
     atom   29 type  2   force =    -0.02053000    0.00076669    0.00199353
     atom   30 type  2   force =     0.02218483    0.00158466    0.00425575
     atom   31 type  1   force =     0.00022076   -0.00043046   -0.00057986
     atom   32 type  1   force =    -0.00009411   -0.00106159    0.00112301
     atom   33 type  2   force =    -0.00049941   -0.00016159    0.00080267
     atom   34 type  2   force =     0.00011084   -0.00009433   -0.00023574
     atom   35 type  2   force =     0.00073236   -0.00022090   -0.00014880
     atom   36 type  2   force =    -0.00020515   -0.00013140   -0.00040789
     atom   37 type  1   force =    -0.00081715   -0.00048462    0.00046791
     atom   38 type  1   force =     0.00124396   -0.00044193   -0.00028461
     atom   39 type  2   force =    -0.00031034   -0.00019935   -0.00102610
     atom   40 type  2   force =    -0.00030445   -0.00010524   -0.00023275
     atom   41 type  2   force =    -0.00023252    0.00053356    0.00023208
     atom   42 type  2   force =    -0.00014806    0.00058388    0.00020453
     atom   43 type  1   force =    -0.00013371   -0.00015944   -0.00067742
     atom   44 type  1   force =    -0.00002764   -0.00039703    0.00016567
     atom   45 type  2   force =     0.00001372    0.00004603    0.10386548
     atom   46 type  2   force =     0.00030383   -0.00013874   -0.00053300
     atom   47 type  2   force =    -0.06933858   -0.00128676   -0.03116876
     atom   48 type  2   force =     0.06912692   -0.00082519   -0.03122171
     atom   49 type  3   force =     0.00219210    0.00099078    0.00020348
     atom   50 type  3   force =    -0.00318907   -0.00075913   -0.00058561
     atom   51 type  4   force =    -0.00071158    0.00014645    0.00054581
     atom   52 type  5   force =    -0.00029984   -0.00010146   -0.00037915
     atom   53 type  5   force =    -0.00005516   -0.00004828    0.00005160

     Total force =     0.384014     Total SCF correction =     0.000534
  @ DRIVER MODE: Message from server: STATUS
  @ DRIVER MODE: Message from server: GETFORCE
  @ DRIVER MODE: Returning v,forces,stress,ensemble

     Writing output data file ./calc.save/
  @ DRIVER MODE: Message from server: EXIT
  @ DRIVE MODE: Exiting

     General routines

     Parallel routines

   This run was terminated on:   5:21:31   1Oct2021

   JOB DONE.