     Program PWSCF v.6.7GPU starts on  8Sep2021 at 22:50:47

     R & G space division:  proc/nbgrp/npool/nimage =      10
     Reading input from /storage/home/hcoda1/3/ntian30/research/carbon/CxH_vib/CH_calc/ads_slab/CHN_a/out_0003/pw.inp
Warning: card &CELL ignored
Warning: card   CELL_DYNAMICS='IPI', ignored
Warning: card / ignored

     Current dimensions of program PWSCF are:
     Max number of different atomic species (ntypx) = 10
     Max number of k-points (npk) =  40000
     Max angular momentum in pseudopotentials (lmaxx) =  3
     Presently no symmetry can be used with electric field

     Message from routine cell_base_init:
     DEPRECATED: use true lattice parameter, not A to a.u. conversion factor

     IMPORTANT: XC functional enforced from input :
     Exchange-correlation= BEEF-VDW
                           (   1   4  43  14   2   0   0)
     Any further DFT definition will be discarded
     Please, verify this is what you really want

  @ DRIVER MODE: Connecting to
 qe_1139763_2767383.sched-torque.pace.gatech.edur3_7tw4h_scratch
  using UNIX socket
  @ DRIVER MODE: Message from server: STATUS
  @ DRIVER MODE: Message from server: INIT
  @ DRIVER MODE: Receiving replica           0          -1
  @ DRIVER MODE: Receiving encoded integer          25
  @ DRIVER MODE:  SCF:  T  FORCE:  T  STRESS:  F  VC:  F  ENSEMBLE:  F
  @ DRIVER MODE:  SCF:  T  FORCE:  T  STRESS:  F  VC:  F  ENSEMBLE:  F

     Using Slab Decomposition

     bravais-lattice index     =            0
     lattice parameter (alat)  =       1.8897  a.u.
     unit-cell volume          =    6658.9804 (a.u.)^3
     number of atoms/cell      =           50
     number of atomic types    =            5
     number of electrons       =       388.00
     number of Kohn-Sham states=          204
     kinetic-energy cutoff     =      29.3995  Ry
     charge density cutoff     =     293.9946  Ry
     scf convergence threshold =      7.3E-08
     mixing beta               =       0.0500
     number of iterations used =            8  plain     mixing
     Exchange-correlation= BEEF-VDW
                           (   1   4  43  14   2   0   0)

     celldm(1)=   1.889726  celldm(2)=   0.000000  celldm(3)=   0.000000
     celldm(4)=   0.000000  celldm(5)=   0.000000  celldm(6)=   0.000000

     crystal axes: (cart. coord. in units of alat)
               a(1) = (   6.579727   0.000000   0.000000 )
               a(2) = (  -0.000775   5.961596   0.000000 )
               a(3) = (   0.000000   0.000000  25.155947 )

     reciprocal axes: (cart. coord. in units 2 pi/alat)
               b(1) = (  0.151982  0.000020  0.000000 )
               b(2) = (  0.000000  0.167740  0.000000 )
               b(3) = (  0.000000  0.000000  0.039752 )

     PseudoPot. # 1 for Ti read from file:
     /storage/coda1/p-amedford6/0/shared/rich_project_chbe-medford/medford-share/data/pseudos_module/espresso/nninc/pbe/van/Ti.UPF
     MD5 check sum: 8e4df49b7f0d34bbd5052bf3f5ea0213
     Pseudo is Ultrasoft, Zval = 12.0
     Generated by new atomic code, or converted to UPF format
     Using radial grid of  851 points,  6 beta functions with:
                l(1) =   0
                l(2) =   0
                l(3) =   1
                l(4) =   1
                l(5) =   2
                l(6) =   2
     Q(r) pseudized with  8 coefficients,  rinner =    1.000   1.000   1.000
                                                       1.000   1.000

     PseudoPot. # 2 for O  read from file:
     /storage/coda1/p-amedford6/0/shared/rich_project_chbe-medford/medford-share/data/pseudos_module/espresso/nninc/pbe/van/O.UPF
     MD5 check sum: 78c19812648e8988a0fe644b0f25305e
     Pseudo is Ultrasoft, Zval =  6.0
     Generated by new atomic code, or converted to UPF format
     Using radial grid of  737 points,  4 beta functions with:
                l(1) =   0
                l(2) =   0
                l(3) =   1
                l(4) =   1
     Q(r) pseudized with  8 coefficients,  rinner =    0.800   0.800   0.800

     PseudoPot. # 3 for N  read from file:
     /storage/coda1/p-amedford6/0/shared/rich_project_chbe-medford/medford-share/data/pseudos_module/espresso/nninc/pbe/van/N.UPF
     MD5 check sum: 90d10febe142ad51ac9d5be1deb811c4
     Pseudo is Ultrasoft, Zval =  5.0
     Generated by new atomic code, or converted to UPF format
     Using radial grid of  729 points,  4 beta functions with:
                l(1) =   0
                l(2) =   0
                l(3) =   1
                l(4) =   1
     Q(r) pseudized with  8 coefficients,  rinner =    0.800   0.800   0.800

     PseudoPot. # 4 for C  read from file:
     /storage/coda1/p-amedford6/0/shared/rich_project_chbe-medford/medford-share/data/pseudos_module/espresso/nninc/pbe/van/C.UPF
     MD5 check sum: 1a69bf6b8db32088f5b2163dbdb77a27
     Pseudo is Ultrasoft, Zval =  4.0
     Generated by new atomic code, or converted to UPF format
     Using radial grid of  721 points,  4 beta functions with:
                l(1) =   0
                l(2) =   0
                l(3) =   1
                l(4) =   1
     Q(r) pseudized with  8 coefficients,  rinner =    0.800   0.800   0.800

     PseudoPot. # 5 for H  read from file:
     /storage/coda1/p-amedford6/0/shared/rich_project_chbe-medford/medford-share/data/pseudos_module/espresso/nninc/pbe/van/H.UPF
     MD5 check sum: b5ee9d7bfd3a09ee7748110bda690ff7
     Pseudo is Ultrasoft, Zval =  1.0
     Generated by new atomic code, or converted to UPF format
     Using radial grid of  615 points,  1 beta functions with:
                l(1) =   0
     Q(r) pseudized with  8 coefficients,  rinner =    0.800

     atomic species   valence    mass     pseudopotential
        Ti1           12.00    47.86700     Ti( 1.00)
        O1             6.00    15.99900     O ( 1.00)
        N1             5.00    14.00700     N ( 1.00)
        C1             4.00    12.01100     C ( 1.00)
        H1             1.00     1.00800     H ( 1.00)

     No symmetry found

   Cartesian axes

     site n.     atom                  positions (alat units)
         1           Ti1 tau(   1) = (   0.0004258   2.9801865   6.0000000  )
         2           Ti1 tau(   2) = (   3.2906075   1.4906267   6.0002472  )
         3           O1  tau(   3) = (   0.0006271   0.0005054   7.9858123  )
         4           O1  tau(   4) = (   3.2906025   0.0005020   7.3038282  )
         5           O1  tau(   5) = (   4.5942328   1.4918067   9.2879030  )
         6           O1  tau(   6) = (   1.9868534   1.4903216   9.2879459  )
         7           Ti1 tau(   7) = (   3.2907910   2.8959150   9.1758416  )
         8           Ti1 tau(   8) = (   0.0015273   1.4827037   9.2680791  )
         9           O1  tau(   9) = (   3.3014052   0.0114069  11.3737528  )
        10           O1  tau(  10) = (   0.0116148   5.9584955  10.6183126  )
        11           O1  tau(  11) = (   1.3012034   1.4994444  12.6801950  )
        12           O1  tau(  12) = (   5.3042999   1.4981222  12.6788946  )
        13           Ti1 tau(  13) = (   0.0222102   2.9879630  12.5217794  )
        14           Ti1 tau(  14) = (   3.3166014   1.4969944  12.5290657  )
        15           O1  tau(  15) = (   0.0131148   5.9114811  14.6787674  )
        16           O1  tau(  16) = (   3.3052116   5.9585997  13.9918696  )
        17           O1  tau(  17) = (   4.5573354   1.5165695  16.1403462  )
        18           O1  tau(  18) = (   2.0429717   1.5180214  16.1331141  )
        19           Ti1 tau(  19) = (   3.3061463   3.0045039  15.7576854  )
        20           Ti1 tau(  20) = (   0.0190008   1.3629876  15.8180984  )
        21           O1  tau(  21) = (   3.2904802   0.0005063   4.7018136  )
        22           O1  tau(  22) = (   0.0120025   0.1123878  17.2186474  )
        23           O1  tau(  23) = (   1.3043587   1.4918075   6.0039043  )
        24           O1  tau(  24) = (   5.2767064   1.4903225   6.0039473  )
        25           Ti1 tau(  25) = (   0.0000382   5.9609847   6.0000000  )
        26           Ti1 tau(  26) = (   3.2902200   4.4714249   6.0002472  )
        27           O1  tau(  27) = (   0.0002396   2.9813036   7.9858123  )
        28           O1  tau(  28) = (   3.2902150   2.9813002   7.3038282  )
        29           O1  tau(  29) = (   4.5938453   4.4726049   9.2879030  )
        30           O1  tau(  30) = (   1.9864658   4.4711199   9.2879459  )
        31           Ti1 tau(  31) = (   3.2891106   5.8743827   9.1763621  )
        32           Ti1 tau(  32) = (   0.0006254   4.4649316   9.2693709  )
        33           O1  tau(  33) = (   3.3015003   2.9799855  11.3692792  )
        34           O1  tau(  34) = (   0.0092240   2.9805883  10.6323155  )
        35           O1  tau(  35) = (   1.3024855   4.4701597  12.6493271  )
        36           O1  tau(  36) = (   5.3029933   4.4710749  12.6473438  )
        37           Ti1 tau(  37) = (   0.0213219   5.9581237  12.5009821  )
        38           Ti1 tau(  38) = (   3.3165689   4.4756321  12.5216884  )
        39           O1  tau(  39) = (   0.0062450   3.0260372  14.9395602  )
        40           O1  tau(  40) = (   3.3068494   3.0035608  13.9656762  )
        41           O1  tau(  41) = (   4.5532872   4.4785133  16.2063021  )
        42           O1  tau(  42) = (   2.0453360   4.4758230  16.1992630  )
        43           Ti1 tau(  43) = (   3.3068391   0.0190840  15.7907057  )
        44           Ti1 tau(  44) = (   0.0173475   4.5946531  16.0781683  )
        45           O1  tau(  45) = (   3.2900926   2.9813045   4.7018136  )
        46           O1  tau(  46) = (   1.3039711   4.4726057   6.0039043  )
        47           O1  tau(  47) = (   5.2763189   4.4711207   6.0039473  )
        48           N1  tau(  48) = (   0.0050225   3.2146995  17.9653954  )
        49           C1  tau(  49) = (   6.5749124   2.4458835  18.8135322  )
        50           H1  tau(  50) = (   6.5624368   1.6931146  19.5645906  )

     number of k points=    10  Fermi-Dirac smearing, width (Ry)=  0.0073
                       cart. coord. in units 2pi/alat
        k(    1) = (   0.0000000   0.0000000   0.0000000), wk =   0.1250000
        k(    2) = (   0.0000000   0.0419351   0.0000000), wk =   0.2500000
        k(    3) = (   0.0000000  -0.0838702   0.0000000), wk =   0.1250000
        k(    4) = (   0.0379955   0.0000049   0.0000000), wk =   0.2500000
        k(    5) = (   0.0379955   0.0419400   0.0000000), wk =   0.2500000
        k(    6) = (   0.0379955  -0.0838652   0.0000000), wk =   0.2500000
        k(    7) = (   0.0379955  -0.0419301   0.0000000), wk =   0.2500000
        k(    8) = (  -0.0759910  -0.0000099   0.0000000), wk =   0.1250000
        k(    9) = (  -0.0759910   0.0419252   0.0000000), wk =   0.2500000
        k(   10) = (  -0.0759910  -0.0838800   0.0000000), wk =   0.1250000

     Initial potential from superposition of free atoms

     starting charge  371.99919, renormalised to  388.00000

     negative rho (up, down):  1.809E-02 0.000E+00

     %%%%%%%%%%%%%%%%%%%%%%%%%%%%%%%%%%%%%%%%%%%%%%%%%%%%%%%%%%%%%%%%%%%%%%%%
     %                                                                      %
     % You are using vdW-DF, which was implemented by the Thonhauser group. %
     % Please cite the following two papers that made this development      %
     % possible and the two reviews that describe the various versions:     %
     %                                                                      %
     %   T. Thonhauser et al., PRL 115, 136402 (2015).                      %
     %   T. Thonhauser et al., PRB 76, 125112 (2007).                       %
     %   K. Berland et al., Rep. Prog. Phys. 78, 066501 (2015).             %
     %   D.C. Langreth et al., J. Phys.: Condens. Matter 21, 084203 (2009). %
     %                                                                      %
     %                                                                      %
     % If you are calculating the stress with vdW-DF, please also cite:     %
     %                                                                      %
     %   R. Sabatini et al., J. Phys.: Condens. Matter 24, 424209 (2012).   %
     %                                                                      %
     %%%%%%%%%%%%%%%%%%%%%%%%%%%%%%%%%%%%%%%%%%%%%%%%%%%%%%%%%%%%%%%%%%%%%%%%

     Adding external electric field

     Computed dipole along edir(3) :
        Dipole               -4.8585 Ry au,        -12.3490 Debye
        Dipole field         -0.0092 Ry au,

        Potential amp.        0.8499 Ry
        Total length         46.3494 bohr

     Starting wfcs are  293 atomic wfcs
  @ DRIVER MODE: Message from server: STATUS
  @ DRIVER MODE: Message from server: POSDATA
  @ DRIVER MODE: Reading and sharing cell
  @ DRIVER MODE: Reading and sharing positions
  @ DRIVER MODE: Received positions

     Self-consistent Calculation

     iteration #  1     ecut=    29.40 Ry     beta= 0.05
     Davidson diagonalization with overlap
     c_bands:  5 eigenvalues not converged
     c_bands:  5 eigenvalues not converged
     c_bands:  4 eigenvalues not converged
     c_bands:  5 eigenvalues not converged
     c_bands:  3 eigenvalues not converged
     c_bands:  5 eigenvalues not converged
     c_bands:  4 eigenvalues not converged
     c_bands:  3 eigenvalues not converged
     c_bands:  1 eigenvalues not converged
     ethr =  1.00E-05,  avg # of iterations = 20.0

[...]

     total energy              =   -2846.18665355 Ry
     estimated scf accuracy    <     789.26003619 Ry

     iteration #  2     ecut=    29.40 Ry     beta= 0.05
     Davidson diagonalization with overlap
     ethr =  1.00E-02,  avg # of iterations = 15.4

[...]

     iteration # 67     ecut=    29.40 Ry     beta= 0.05
     Davidson diagonalization with overlap
     c_bands:  1 eigenvalues not converged
     ethr =  6.64E-11,  avg # of iterations = 12.6

[...]

     total energy              =   -2916.61459622 Ry
     estimated scf accuracy    <       0.00000009 Ry

     iteration # 69     ecut=    29.40 Ry     beta= 0.05
     Davidson diagonalization with overlap
     ethr =  2.36E-11,  avg # of iterations =  9.8

     negative rho (up, down):  1.834E-02 0.000E+00

     Adding external electric field

     Computed dipole along edir(3) :
        Dipole                1.5236 Ry au,          3.8725 Debye
        Dipole field          0.0029 Ry au,

        Potential amp.       -0.2665 Ry
        Total length         46.3494 bohr

     End of self-consistent calculation

          k = 0.0000 0.0000 0.0000 ( 18029 PWs)   bands (ev):

   -55.4401 -55.4040 -55.3966 -55.3624 -55.3193 -55.3153 -55.2793 -55.2588
   -55.2546 -55.2375 -55.2262 -55.2244 -55.1926 -55.1343 -54.4231 -54.3890
   -32.0066 -31.8885 -31.8452 -31.8040 -31.7498 -31.7481 -31.7435 -31.7308
   -31.6858 -31.6721 -31.6490 -31.6413 -31.6362 -31.6104 -31.5938 -31.5818
   -31.5769 -31.5638 -31.5570 -31.5489 -31.5304 -31.5218 -31.5099 -31.4946
   -31.4892 -31.4721 -31.4611 -31.4538 -31.4461 -31.4426 -31.4422 -31.4242
   -31.4185 -31.4100 -31.4080 -31.4072 -31.3727 -31.3582 -31.3545 -31.3410
   -31.3368 -31.2564 -30.8323 -30.7385 -30.7164 -30.6487 -30.5620 -30.4511
   -17.4906 -16.2578 -15.9893 -15.8379 -15.7325 -15.6353 -15.5016 -15.4828
   -15.3573 -15.2665 -15.1450 -15.0921 -15.0732 -15.0561 -15.0473 -15.0316
   -14.9817 -14.9771 -14.9466 -14.9345 -14.9120 -14.8744 -14.8689 -14.8356
   -14.8164 -14.7486 -14.6719 -14.5951 -14.5289 -14.2285 -12.9255 -12.8082
    -9.0530  -4.6849  -3.6001  -3.5372  -3.4526  -3.3530  -3.3348  -3.2962
    -3.2685  -3.1842  -3.0210  -2.8429  -2.7810  -2.7068  -2.6415  -2.6293
    -2.6003  -2.4418  -2.4036  -2.3554  -2.3002  -2.2756  -2.2470  -2.2240
    -2.1906  -2.1720  -2.1688  -2.1611  -2.0038  -1.9371  -1.9003  -1.8496
    -1.8320  -1.7806  -1.7581  -1.7256  -1.7221  -1.7168  -1.6647  -1.6512
    -1.6138  -1.5177  -1.4598  -1.3255  -1.2837  -1.1434  -1.0773  -1.0146
    -1.0026  -0.9232  -0.8878  -0.8803  -0.8211  -0.7934  -0.7770  -0.6535
    -0.5540  -0.5069  -0.4504  -0.4191  -0.3735  -0.3369  -0.2496  -0.2200
    -0.2037  -0.1942  -0.0513  -0.0233   0.0570   0.0838   0.1166   0.1177
     0.2233   0.2382   0.3132   0.3593   0.3897   0.4517   0.5023   0.5051
     0.5264   0.5512   0.5591   0.6530   0.6722   0.6828   0.7561   0.9006
     1.1304   1.1741   1.1847   1.5064   1.5186   1.5997   1.7841   2.1756
     2.2237   3.6579   3.7297   3.7996   3.8085   3.8452   3.8948   4.1295
     4.1389   4.1589   4.1653   4.1996

[...]

          k = 0.0380-0.0419 0.0000 ( 17876 PWs)   bands (ev):

[...]

          k =-0.0760-0.0000 0.0000 ( 17886 PWs)   bands (ev):

[...]

          k =-0.0760-0.0839 0.0000 ( 17948 PWs)   bands (ev):

   -55.4236 -55.4203 -55.3796 -55.3793 -55.3154 -55.3026 -55.2919 -55.2519
   -55.2426 -55.2412 -55.2401 -55.2099 -55.2092 -55.1369 -54.4061 -54.4059
   -31.8116 -31.8090 -31.7691 -31.7157 -31.7037 -31.7035 -31.6919 -31.6712
   -31.6710 -31.6481 -31.6388 -31.6358 -31.6265 -31.5842 -31.5758 -31.5724
   -31.5707 -31.5664 -31.5651 -31.5588 -31.5291 -31.5265 -31.5173 -31.5160
   -31.5087 -31.4992 -31.4990 -31.4981 -31.4848 -31.4783 -31.4755 -31.4729
   -31.4561 -31.4533 -31.4432 -31.4395 -31.4377 -31.4300 -31.3902 -31.3897
   -31.3460 -31.3452 -30.7292 -30.7289 -30.6450 -30.6447 -30.6054 -30.6053
   -17.4856 -15.7742 -15.6619 -15.6292 -15.4472 -15.4368 -15.4009 -15.3891
   -15.2457 -15.2032 -15.1958 -15.1861 -15.1379 -15.1353 -15.1335 -15.1101
   -15.0370 -15.0308 -15.0261 -15.0098 -14.9532 -14.9420 -14.9389 -14.9220
   -14.8906 -14.8866 -14.7925 -14.7894 -14.6834 -14.5852 -12.9097 -12.9096
    -9.0506  -4.6730  -3.4563  -3.3088  -2.9319  -2.8977  -2.8910  -2.6577
    -2.6305  -2.5983  -2.5551  -2.4833  -2.4348  -2.4130  -2.4104  -2.3418
    -2.2943  -2.2870  -2.2779  -2.2603  -2.2544  -2.2324  -2.1990  -2.1650
    -2.1553  -2.1285  -2.1136  -2.0927  -2.0738  -2.0389  -2.0248  -2.0006
    -1.9975  -1.8976  -1.8688  -1.7864  -1.7476  -1.7156  -1.6425  -1.6368
    -1.5346  -1.5309  -1.4777  -1.4663  -1.4275  -1.3212  -1.2363  -1.1850
    -1.1792  -1.1701  -1.0690  -1.0015  -0.9751  -0.9391  -0.9140  -0.8339
    -0.7763  -0.7551  -0.7140  -0.6302  -0.6259  -0.5627  -0.4598  -0.4185
    -0.4021  -0.3960  -0.3772  -0.3230  -0.3116  -0.2499  -0.2061  -0.1711
    -0.1602  -0.1158   0.0956   0.0968   0.1447   0.2576   0.2960   0.4456
     0.5234   0.5410   0.6170   0.6521   0.6777   0.7442   0.8519   0.8706
     0.8819   0.9545   0.9939   1.0183   1.0278   1.9569   1.9574   2.0436
     2.0438   3.7805   3.8924   3.9252   3.9748   4.0194   4.0741   4.1777
     4.1988   4.2410   4.2426   4.3122

     the Fermi energy is     3.7174 ev

!    total energy              =   -2916.61461217 Ry
     estimated scf accuracy    <       0.00000004 Ry
     smearing contrib. (-TS)   =      -0.03748428 Ry
     internal energy E=F+TS    =   -2916.57712789 Ry

     The total energy is F=E-TS. E is the sum of the following terms:
     one-electron contribution =  -24444.92579768 Ry
     hartree contribution      =   12309.98258625 Ry
     xc contribution           =    -478.38549073 Ry
     ewald contribution        =    9696.74719378 Ry
     electric field correction =       0.00438049 Ry

     convergence has been achieved in  69 iterations

     Forces acting on atoms (cartesian axes, Ry/au):

     atom    1 type  1   force =     0.00000370   -0.00027487    0.09341758
     atom    2 type  1   force =    -0.00018316   -0.00046480   -0.17791151
     atom    3 type  2   force =     0.00002200   -0.00033648   -0.02064406
     atom    4 type  2   force =    -0.00003617   -0.00186504    0.05838903
     atom    5 type  2   force =    -0.01035490   -0.00073538    0.00710695
     atom    6 type  2   force =     0.01201767   -0.00013702    0.00687885
     atom    7 type  1   force =    -0.00010602    0.00194101   -0.01365740
     atom    8 type  1   force =    -0.00008973    0.00177761   -0.00207923
     atom    9 type  2   force =    -0.00004742   -0.00044243   -0.00035323
     atom   10 type  2   force =    -0.00120322    0.00259520   -0.00298011
     atom   11 type  2   force =    -0.00066243   -0.00013498    0.00014882
     atom   12 type  2   force =     0.00050605   -0.00009381   -0.00004563
     atom   13 type  1   force =    -0.00007317   -0.00001681    0.00003381
     atom   14 type  1   force =    -0.00001386   -0.00004930    0.00021482
     atom   15 type  2   force =    -0.00010642   -0.00011758    0.00023412
     atom   16 type  2   force =    -0.00002954   -0.00011249   -0.00012294
     atom   17 type  2   force =     0.00069604    0.00005299   -0.00003782
     atom   18 type  2   force =    -0.00023957    0.00003486    0.00033596
     atom   19 type  1   force =    -0.00027414    0.00023764    0.00003081
     atom   20 type  1   force =    -0.00013430    0.00051297    0.00008548
     atom   21 type  2   force =    -0.00002425   -0.00012143    0.10389383
     atom   22 type  2   force =    -0.00007173   -0.00034181    0.00051488
     atom   23 type  2   force =    -0.07052351   -0.00021271   -0.02694949
     atom   24 type  2   force =     0.07030850    0.00022660   -0.02699836
     atom   25 type  1   force =     0.00001364   -0.00034519    0.09298308
     atom   26 type  1   force =    -0.00019047   -0.00051916   -0.17812472
     atom   27 type  2   force =     0.00005964   -0.00023988   -0.01964942
     atom   28 type  2   force =     0.00001189   -0.00163738    0.05786536
     atom   29 type  2   force =    -0.01086149   -0.00057331    0.00760292
     atom   30 type  2   force =     0.01238666   -0.00022730    0.00734647
     atom   31 type  1   force =    -0.00004411    0.00592580   -0.01474039
     atom   32 type  1   force =    -0.00011690   -0.00214557   -0.00201701
     atom   33 type  2   force =     0.00002011   -0.00006193   -0.00031862
     atom   34 type  2   force =    -0.00064764   -0.00100849   -0.00061621
     atom   35 type  2   force =    -0.00011600   -0.00006891    0.00014036
     atom   36 type  2   force =    -0.00007388   -0.00000996    0.00021386
     atom   37 type  1   force =     0.00022195   -0.00079990    0.00001216
     atom   38 type  1   force =    -0.00006252   -0.00008843    0.00017321
     atom   39 type  2   force =     0.00011557   -0.00047387    0.00012619
     atom   40 type  2   force =    -0.00021837   -0.00010739   -0.00036830
     atom   41 type  2   force =     0.00060528   -0.00015833   -0.00026132
     atom   42 type  2   force =    -0.00018065    0.00006860    0.00015024
     atom   43 type  1   force =    -0.00016674   -0.00001332    0.00001545
     atom   44 type  1   force =     0.00009276    0.00013937   -0.00001461
     atom   45 type  2   force =    -0.00002650   -0.00014618    0.10383980
     atom   46 type  2   force =    -0.07050434   -0.00017630   -0.02693481
     atom   47 type  2   force =     0.07029897    0.00025165   -0.02699087
     atom   48 type  3   force =     0.00053394    0.02273251   -0.02295548
     atom   49 type  4   force =    -0.00058582   -0.02164799    0.02315523
     atom   50 type  5   force =     0.00005461   -0.00059108   -0.00013772

     Total force =     0.368662     Total SCF correction =     0.000535
  @ DRIVER MODE: Message from server: STATUS
  @ DRIVER MODE: Message from server: GETFORCE
  @ DRIVER MODE: Returning v,forces,stress,ensemble

     Writing output data file ./calc.save/
  @ DRIVER MODE: Message from server: EXIT
  @ DRIVE MODE: Exiting

     General routines

     Parallel routines

   This run was terminated on:  23: 7:33   8Sep2021

   JOB DONE.