     Program PWSCF v.6.7GPU starts on 10Sep2021 at 18: 1:20

     R & G space division:  proc/nbgrp/npool/nimage =      10
     Reading input from /storage/home/hcoda1/3/ntian30/research/carbon/CxH_vib/CH2_calc/ads_slab/CH2N2H_e/out_0001/pw.inp
Warning: card &CELL ignored
Warning: card   CELL_DYNAMICS='IPI', ignored
Warning: card / ignored

     Current dimensions of program PWSCF are:
     Max number of different atomic species (ntypx) = 10
     Max number of k-points (npk) =  40000
     Max angular momentum in pseudopotentials (lmaxx) =  3
     Presently no symmetry can be used with electric field

     Message from routine cell_base_init:
     DEPRECATED: use true lattice parameter, not A to a.u. conversion factor

     IMPORTANT: XC functional enforced from input :
     Exchange-correlation= BEEF-VDW
                           (   1   4  43  14   2   0   0)
     Any further DFT definition will be discarded
     Please, verify this is what you really want

  @ DRIVER MODE: Connecting to
 qe_1139763_2792041.sched-torque.pace.gatech.edux5ggwi1b_scratch
  using UNIX socket
  @ DRIVER MODE: Message from server: STATUS
  @ DRIVER MODE: Message from server: INIT
  @ DRIVER MODE: Receiving replica           0          -1
  @ DRIVER MODE: Receiving encoded integer          25
  @ DRIVER MODE:  SCF:  T  FORCE:  T  STRESS:  F  VC:  F  ENSEMBLE:  F
  @ DRIVER MODE:  SCF:  T  FORCE:  T  STRESS:  F  VC:  F  ENSEMBLE:  F

     Using Slab Decomposition

     bravais-lattice index     =            0
     lattice parameter (alat)  =       1.8897  a.u.
     unit-cell volume          =    6658.9804 (a.u.)^3
     number of atoms/cell      =           53
     number of atomic types    =            5
     number of electrons       =       395.00
     number of Kohn-Sham states=          207
     kinetic-energy cutoff     =      29.3995  Ry
     charge density cutoff     =     293.9946  Ry
     scf convergence threshold =      7.3E-08
     mixing beta               =       0.0500
     number of iterations used =            8  plain     mixing
     Exchange-correlation= BEEF-VDW
                           (   1   4  43  14   2   0   0)

     celldm(1)=   1.889726  celldm(2)=   0.000000  celldm(3)=   0.000000
     celldm(4)=   0.000000  celldm(5)=   0.000000  celldm(6)=   0.000000

     crystal axes: (cart. coord. in units of alat)
               a(1) = (   6.579727   0.000000   0.000000 )
               a(2) = (  -0.000775   5.961596   0.000000 )
               a(3) = (   0.000000   0.000000  25.155947 )

     reciprocal axes: (cart. coord. in units 2 pi/alat)
               b(1) = (  0.151982  0.000020  0.000000 )
               b(2) = (  0.000000  0.167740  0.000000 )
               b(3) = (  0.000000  0.000000  0.039752 )

     PseudoPot. # 1 for Ti read from file:
     /storage/coda1/p-amedford6/0/shared/rich_project_chbe-medford/medford-share/data/pseudos_module/espresso/nninc/pbe/van/Ti.UPF
     MD5 check sum: 8e4df49b7f0d34bbd5052bf3f5ea0213
     Pseudo is Ultrasoft, Zval = 12.0
     Generated by new atomic code, or converted to UPF format
     Using radial grid of  851 points,  6 beta functions with:
                l(1) =   0
                l(2) =   0
                l(3) =   1
                l(4) =   1
                l(5) =   2
                l(6) =   2
     Q(r) pseudized with  8 coefficients,  rinner =    1.000   1.000   1.000
                                                       1.000   1.000

     PseudoPot. # 2 for O  read from file:
     /storage/coda1/p-amedford6/0/shared/rich_project_chbe-medford/medford-share/data/pseudos_module/espresso/nninc/pbe/van/O.UPF
     MD5 check sum: 78c19812648e8988a0fe644b0f25305e
     Pseudo is Ultrasoft, Zval =  6.0
     Generated by new atomic code, or converted to UPF format
     Using radial grid of  737 points,  4 beta functions with:
                l(1) =   0
                l(2) =   0
                l(3) =   1
                l(4) =   1
     Q(r) pseudized with  8 coefficients,  rinner =    0.800   0.800   0.800

     PseudoPot. # 3 for N  read from file:
     /storage/coda1/p-amedford6/0/shared/rich_project_chbe-medford/medford-share/data/pseudos_module/espresso/nninc/pbe/van/N.UPF
     MD5 check sum: 90d10febe142ad51ac9d5be1deb811c4
     Pseudo is Ultrasoft, Zval =  5.0
     Generated by new atomic code, or converted to UPF format
     Using radial grid of  729 points,  4 beta functions with:
                l(1) =   0
                l(2) =   0
                l(3) =   1
                l(4) =   1
     Q(r) pseudized with  8 coefficients,  rinner =    0.800   0.800   0.800

     PseudoPot. # 4 for C  read from file:
     /storage/coda1/p-amedford6/0/shared/rich_project_chbe-medford/medford-share/data/pseudos_module/espresso/nninc/pbe/van/C.UPF
     MD5 check sum: 1a69bf6b8db32088f5b2163dbdb77a27
     Pseudo is Ultrasoft, Zval =  4.0
     Generated by new atomic code, or converted to UPF format
     Using radial grid of  721 points,  4 beta functions with:
                l(1) =   0
                l(2) =   0
                l(3) =   1
                l(4) =   1
     Q(r) pseudized with  8 coefficients,  rinner =    0.800   0.800   0.800

     PseudoPot. # 5 for H  read from file:
     /storage/coda1/p-amedford6/0/shared/rich_project_chbe-medford/medford-share/data/pseudos_module/espresso/nninc/pbe/van/H.UPF
     MD5 check sum: b5ee9d7bfd3a09ee7748110bda690ff7
     Pseudo is Ultrasoft, Zval =  1.0
     Generated by new atomic code, or converted to UPF format
     Using radial grid of  615 points,  1 beta functions with:
                l(1) =   0
     Q(r) pseudized with  8 coefficients,  rinner =    0.800

     atomic species   valence    mass     pseudopotential
        Ti1           12.00    47.86700     Ti( 1.00)
        O1             6.00    15.99900     O ( 1.00)
        N1             5.00    14.00700     N ( 1.00)
        C1             4.00    12.01100     C ( 1.00)
        H1             1.00     1.00800     H ( 1.00)

     No symmetry found

   Cartesian axes

     site n.     atom                  positions (alat units)
         1           Ti1 tau(   1) = (   0.0004258   2.9801865   6.0000000  )
         2           Ti1 tau(   2) = (   3.2906075   1.4906267   6.0002472  )
         3           O1  tau(   3) = (   0.0006271   0.0005054   7.9858123  )
         4           O1  tau(   4) = (   3.2906025   0.0005020   7.3038282  )
         5           O1  tau(   5) = (   4.5942328   1.4918067   9.2879030  )
         6           O1  tau(   6) = (   1.9868534   1.4903216   9.2879459  )
         7           Ti1 tau(   7) = (   3.2907910   2.8959150   9.1758416  )
         8           Ti1 tau(   8) = (   0.0015273   1.4827037   9.2680791  )
         9           O1  tau(   9) = (   3.2922140   0.0036562  11.3253104  )
        10           O1  tau(  10) = (   0.0116148   5.9584955  10.6183126  )
        11           O1  tau(  11) = (   1.2860832   1.4889729  12.6258215  )
        12           O1  tau(  12) = (   5.2729595   1.4828594  12.6177116  )
        13           Ti1 tau(  13) = (   0.0641184   3.0073180  12.5883652  )
        14           Ti1 tau(  14) = (   3.3767723   1.4911129  12.4765728  )
        15           O1  tau(  15) = (   6.5781935   5.9569561  14.6821271  )
        16           O1  tau(  16) = (   3.2819581   0.0025077  13.9050320  )
        17           O1  tau(  17) = (   4.5172158   1.5234625  16.0337941  )
        18           O1  tau(  18) = (   2.0475084   1.5263597  16.0453316  )
        19           Ti1 tau(  19) = (   3.2743797   3.0127756  15.6984511  )
        20           Ti1 tau(  20) = (   6.5512008   1.5842238  15.7855373  )
        21           O1  tau(  21) = (   3.2904802   0.0005063   4.7018136  )
        22           O1  tau(  22) = (   6.5742344   0.0609322  17.2932839  )
        23           O1  tau(  23) = (   1.3043587   1.4918075   6.0039043  )
        24           O1  tau(  24) = (   5.2767064   1.4903225   6.0039473  )
        25           Ti1 tau(  25) = (   0.0000382   5.9609847   6.0000000  )
        26           Ti1 tau(  26) = (   3.2902200   4.4714249   6.0002472  )
        27           O1  tau(  27) = (   0.0002396   2.9813036   7.9858123  )
        28           O1  tau(  28) = (   3.2902150   2.9813002   7.3038282  )
        29           O1  tau(  29) = (   4.5938453   4.4726049   9.2879030  )
        30           O1  tau(  30) = (   1.9864658   4.4711199   9.2879459  )
        31           Ti1 tau(  31) = (   3.2891106   5.8743827   9.1763621  )
        32           Ti1 tau(  32) = (   0.0006254   4.4649316   9.2693709  )
        33           O1  tau(  33) = (   3.2917412   2.9831059  11.3263362  )
        34           O1  tau(  34) = (   0.0092240   2.9805883  10.6323155  )
        35           O1  tau(  35) = (   1.2859270   4.4784489  12.6216084  )
        36           O1  tau(  36) = (   5.2779610   4.4756213  12.6128944  )
        37           Ti1 tau(  37) = (   0.0616295   0.0157230  12.5710002  )
        38           Ti1 tau(  38) = (   3.3796684   4.4726909  12.4790056  )
        39           O1  tau(  39) = (   6.5693437   2.9756239  14.6354252  )
        40           O1  tau(  40) = (   3.2842310   3.0020566  13.9003041  )
        41           O1  tau(  41) = (   4.5171552   4.5052370  16.0986928  )
        42           O1  tau(  42) = (   2.0408908   4.5012300  16.0971631  )
        43           Ti1 tau(  43) = (   3.2680294   0.0293594  15.7040856  )
        44           Ti1 tau(  44) = (   6.5592110   4.6908586  16.1766550  )
        45           O1  tau(  45) = (   3.2900926   2.9813045   4.7018136  )
        46           O1  tau(  46) = (   1.3039711   4.4726057   6.0039043  )
        47           O1  tau(  47) = (   5.2763189   4.4711207   6.0039473  )
        48           N1  tau(  48) = (   0.0831655   2.5901963  18.5587852  )
        49           N1  tau(  49) = (   6.5755498   2.9338716  17.3126873  )
        50           C1  tau(  50) = (   0.1889803   3.3462807  19.6294495  )
        51           H1  tau(  51) = (   0.2540540   2.8541835  20.5836859  )
        52           H1  tau(  52) = (   0.1890997   4.4171571  19.5098884  )
        53           H1  tau(  53) = (   0.0969130   1.5623892  18.6894177  )

     number of k points=    10  Fermi-Dirac smearing, width (Ry)=  0.0073
                       cart. coord. in units 2pi/alat
        k(    1) = (   0.0000000   0.0000000   0.0000000), wk =   0.1250000
        k(    2) = (   0.0000000   0.0419351   0.0000000), wk =   0.2500000
        k(    3) = (   0.0000000  -0.0838702   0.0000000), wk =   0.1250000
        k(    4) = (   0.0379955   0.0000049   0.0000000), wk =   0.2500000
        k(    5) = (   0.0379955   0.0419400   0.0000000), wk =   0.2500000
        k(    6) = (   0.0379955  -0.0838652   0.0000000), wk =   0.2500000
        k(    7) = (   0.0379955  -0.0419301   0.0000000), wk =   0.2500000
        k(    8) = (  -0.0759910  -0.0000099   0.0000000), wk =   0.1250000
        k(    9) = (  -0.0759910   0.0419252   0.0000000), wk =   0.2500000
        k(   10) = (  -0.0759910  -0.0838800   0.0000000), wk =   0.1250000

     Initial potential from superposition of free atoms

     starting charge  378.99916, renormalised to  395.00000

     negative rho (up, down):  1.523E-02 0.000E+00

     %%%%%%%%%%%%%%%%%%%%%%%%%%%%%%%%%%%%%%%%%%%%%%%%%%%%%%%%%%%%%%%%%%%%%%%%
     %                                                                      %
     % You are using vdW-DF, which was implemented by the Thonhauser group. %
     % Please cite the following two papers that made this development      %
     % possible and the two reviews that describe the various versions:     %
     %                                                                      %
     %   T. Thonhauser et al., PRL 115, 136402 (2015).                      %
     %   T. Thonhauser et al., PRB 76, 125112 (2007).                       %
     %   K. Berland et al., Rep. Prog. Phys. 78, 066501 (2015).             %
     %   D.C. Langreth et al., J. Phys.: Condens. Matter 21, 084203 (2009). %
     %                                                                      %
     %                                                                      %
     % If you are calculating the stress with vdW-DF, please also cite:     %
     %                                                                      %
     %   R. Sabatini et al., J. Phys.: Condens. Matter 24, 424209 (2012).   %
     %                                                                      %
     %%%%%%%%%%%%%%%%%%%%%%%%%%%%%%%%%%%%%%%%%%%%%%%%%%%%%%%%%%%%%%%%%%%%%%%%

     Adding external electric field

     Computed dipole along edir(3) :
        Dipole               -8.7485 Ry au,        -22.2364 Debye
        Dipole field         -0.0165 Ry au,

        Potential amp.        1.5304 Ry
        Total length         46.3494 bohr

     Starting wfcs are  299 atomic wfcs
  @ DRIVER MODE: Message from server: STATUS
  @ DRIVER MODE: Message from server: POSDATA
  @ DRIVER MODE: Reading and sharing cell
  @ DRIVER MODE: Reading and sharing positions
  @ DRIVER MODE: Received positions

     Self-consistent Calculation

     iteration #  1     ecut=    29.40 Ry     beta= 0.05
     Davidson diagonalization with overlap
     c_bands:  2 eigenvalues not converged
     c_bands:  1 eigenvalues not converged
     c_bands:  1 eigenvalues not converged
     c_bands:  3 eigenvalues not converged
     c_bands:  2 eigenvalues not converged
     c_bands:  1 eigenvalues not converged
     c_bands:  1 eigenvalues not converged
     ethr =  1.00E-05,  avg # of iterations = 19.1

[...]

     total energy              =   -2616.99623990 Ry
     estimated scf accuracy    <    3577.57125040 Ry

     iteration #  2     ecut=    29.40 Ry     beta= 0.05
     Davidson diagonalization with overlap
     ethr =  1.00E-02,  avg # of iterations = 22.2

[...]

     iteration # 40     ecut=    29.40 Ry     beta= 0.05
     Davidson diagonalization with overlap
     c_bands:  2 eigenvalues not converged
     ethr =  3.99E-07,  avg # of iterations =  8.0

[...]

     total energy              =   -2939.15581606 Ry
     estimated scf accuracy    <       0.00000010 Ry

     iteration # 63     ecut=    29.40 Ry     beta= 0.05
     Davidson diagonalization with overlap
     ethr =  2.44E-11,  avg # of iterations =  7.3

     negative rho (up, down):  1.569E-02 0.000E+00

     Adding external electric field

     Computed dipole along edir(3) :
        Dipole                1.1184 Ry au,          2.8426 Debye
        Dipole field          0.0021 Ry au,

        Potential amp.       -0.1956 Ry
        Total length         46.3494 bohr

     End of self-consistent calculation

          k = 0.0000 0.0000 0.0000 ( 18029 PWs)   bands (ev):

   -55.5884 -55.5851 -55.5544 -55.5492 -55.4561 -55.4368 -55.4199 -55.4020
   -55.4016 -55.3680 -55.3632 -55.3295 -54.9575 -54.8695 -54.5665 -54.5325
   -32.1399 -32.0713 -31.9570 -31.9004 -31.8976 -31.8894 -31.8812 -31.8544
   -31.8322 -31.8124 -31.7803 -31.7707 -31.7643 -31.7406 -31.7380 -31.7250
   -31.6932 -31.6826 -31.6730 -31.6597 -31.6566 -31.6455 -31.6107 -31.6044
   -31.5946 -31.5909 -31.5866 -31.5782 -31.5675 -31.5652 -31.5407 -31.5308
   -31.5170 -31.5117 -31.5037 -31.4761 -31.4645 -31.1966 -31.1890 -31.1501
   -31.1022 -31.0486 -30.9736 -30.8854 -30.8630 -30.7904 -30.7039 -30.5927
   -18.9408 -16.3434 -16.0668 -15.8191 -15.7389 -15.7222 -15.6063 -15.4339
   -15.3176 -15.2662 -15.1633 -15.1623 -15.1259 -15.0916 -15.0434 -15.0401
   -15.0354 -15.0085 -14.9993 -14.9789 -14.9490 -14.9307 -14.8913 -14.7922
   -14.7738 -14.7242 -14.6953 -14.6691 -14.6491 -14.2648 -13.0690 -12.9526
   -12.7010  -8.8735  -6.3247  -4.8585  -3.7187  -3.6514  -3.5610  -3.4962
    -3.4602  -3.4277  -3.2332  -3.1929  -3.1438  -2.8374  -2.7767  -2.7583
    -2.7482  -2.7186  -2.4940  -2.4551  -2.4039  -2.3732  -2.3615  -2.3591
    -2.3575  -2.3277  -2.3093  -2.1683  -2.1337  -2.0434  -2.0038  -1.9974
    -1.9885  -1.9016  -1.8695  -1.8430  -1.8330  -1.8230  -1.7952  -1.7860
    -1.7775  -1.6434  -1.5645  -1.4126  -1.3923  -1.3518  -1.2206  -1.1967
    -1.0647  -1.0478  -1.0187  -0.9819  -0.9620  -0.8932  -0.7730  -0.7514
    -0.7158  -0.7005  -0.6102  -0.5720  -0.5040  -0.4699  -0.4457  -0.3976
    -0.3593  -0.3504  -0.3283  -0.2016  -0.0722  -0.0145  -0.0054   0.0219
     0.0904   0.1281   0.1885   0.2386   0.2484   0.2849   0.3364   0.3808
     0.3929   0.3953   0.4105   0.4487   0.5900   0.6063   0.6716   0.7171
     0.7604   0.8754   0.9274   1.0632   1.1552   1.3136   1.3829   1.4556
     1.5283   1.6479   2.0262   2.0470   2.0721   3.5419   3.6305   3.6747
     3.6801   3.7859   3.8812   3.9931   4.0129   4.0333   4.0885

[...]

          k = 0.0380-0.0419 0.0000 ( 17876 PWs)   bands (ev):

[...]

          k =-0.0760-0.0000 0.0000 ( 17886 PWs)   bands (ev):

[...]

          k =-0.0760-0.0839 0.0000 ( 17948 PWs)   bands (ev):

   -55.5715 -55.5711 -55.5674 -55.5667 -55.4435 -55.4324 -55.4225 -55.4158
   -55.3850 -55.3846 -55.3470 -55.3458 -54.9548 -54.8721 -54.5495 -54.5494
   -31.9432 -31.9415 -31.8868 -31.8864 -31.8668 -31.8662 -31.8394 -31.8391
   -31.8046 -31.7921 -31.7680 -31.7618 -31.7273 -31.7192 -31.7042 -31.7020
   -31.6998 -31.6969 -31.6909 -31.6907 -31.6873 -31.6846 -31.6568 -31.6491
   -31.6308 -31.6284 -31.6217 -31.6160 -31.5854 -31.5840 -31.5788 -31.5772
   -31.5626 -31.5620 -31.5617 -31.5598 -31.3672 -31.2333 -31.1975 -31.1644
   -31.1044 -31.0926 -30.8757 -30.8756 -30.7864 -30.7863 -30.7472 -30.7472
   -18.9370 -15.7735 -15.7588 -15.5326 -15.5172 -15.5062 -15.4972 -15.3498
   -15.3228 -15.2847 -15.2817 -15.2099 -15.1644 -15.1480 -15.1324 -15.1298
   -15.1113 -15.1032 -15.0547 -15.0477 -15.0466 -15.0286 -15.0221 -14.9077
   -14.9037 -14.8957 -14.8433 -14.7942 -14.6773 -14.3924 -13.0544 -13.0543
   -12.7067  -8.8736  -6.3191  -4.8197  -3.6657  -3.3316  -3.0612  -3.0499
    -2.7600  -2.7490  -2.7467  -2.7036  -2.5111  -2.5063  -2.4922  -2.4602
    -2.4267  -2.4154  -2.4057  -2.3914  -2.3858  -2.3373  -2.3152  -2.2702
    -2.2571  -2.2538  -2.2525  -2.2171  -2.2067  -2.1645  -2.1540  -2.1308
    -2.1186  -2.0865  -2.0557  -1.9090  -1.8226  -1.8036  -1.7297  -1.7228
    -1.6905  -1.6535  -1.6399  -1.5952  -1.5603  -1.4438  -1.3316  -1.2896
    -1.2751  -1.1750  -1.1386  -1.1004  -1.0479  -0.9737  -0.9657  -0.9366
    -0.8704  -0.7984  -0.7820  -0.7593  -0.6950  -0.6706  -0.5973  -0.5762
    -0.5513  -0.5463  -0.4896  -0.4240  -0.4083  -0.3566  -0.3486  -0.3075
    -0.2730  -0.2438  -0.2244  -0.0851  -0.0837  -0.0434   0.0914   0.1473
     0.3796   0.4291   0.4490   0.5206   0.6204   0.6689   0.6823   0.7240
     0.7334   0.7486   0.8087   0.9385   0.9441   1.0127   1.0536   1.1549
     1.8196   1.8200   1.8919   1.8921   1.9072   3.8379   3.8643   3.8772
     3.9009   4.0487   4.0587   4.0783   4.0790   4.1998   4.2246

     the Fermi energy is     3.5434 ev

!    total energy              =   -2939.15585065 Ry
     estimated scf accuracy    <       0.00000004 Ry
     smearing contrib. (-TS)   =      -0.02147514 Ry
     internal energy E=F+TS    =   -2939.13437551 Ry

     The total energy is F=E-TS. E is the sum of the following terms:
     one-electron contribution =  -24212.81517764 Ry
     hartree contribution      =   12196.24028538 Ry
     xc contribution           =    -485.25484305 Ry
     ewald contribution        =    9562.69299952 Ry
     electric field correction =       0.00236028 Ry

     convergence has been achieved in  63 iterations

     Forces acting on atoms (cartesian axes, Ry/au):

     atom    1 type  1   force =     0.00008393   -0.00017774    0.09642305
     atom    2 type  1   force =    -0.00018812   -0.00073283   -0.17536008
     atom    3 type  2   force =     0.00004602   -0.00013866   -0.02408212
     atom    4 type  2   force =     0.00007544   -0.00140944    0.05267270
     atom    5 type  2   force =    -0.01131217   -0.00007359    0.00339177
     atom    6 type  2   force =     0.01296334    0.00064047    0.00223803
     atom    7 type  1   force =    -0.00119735    0.00047930   -0.01224263
     atom    8 type  1   force =     0.00043297    0.00232548    0.02519362
     atom    9 type  2   force =    -0.00025280    0.00018984    0.00003494
     atom   10 type  2   force =    -0.00120675    0.00198179   -0.01305961
     atom   11 type  2   force =     0.00057287    0.00015777    0.00024101
     atom   12 type  2   force =    -0.00049292    0.00006691    0.00012228
     atom   13 type  1   force =    -0.00051099    0.00027384    0.00018955
     atom   14 type  1   force =     0.00059874   -0.00036781   -0.00028839
     atom   15 type  2   force =    -0.00012007    0.00028358    0.00004997
     atom   16 type  2   force =    -0.00002196    0.00018011    0.00058377
     atom   17 type  2   force =    -0.00057137   -0.00006355   -0.00005794
     atom   18 type  2   force =     0.00013887   -0.00007954   -0.00027798
     atom   19 type  1   force =     0.00014424    0.00077657    0.00049245
     atom   20 type  1   force =     0.00006939    0.00030542   -0.00016053
     atom   21 type  2   force =     0.00009892   -0.00012579    0.10315020
     atom   22 type  2   force =    -0.00022652    0.00014841    0.00004504
     atom   23 type  2   force =    -0.07151285   -0.00021440   -0.02774601
     atom   24 type  2   force =     0.07151462    0.00024863   -0.02775216
     atom   25 type  1   force =     0.00012470   -0.00025899    0.09593998
     atom   26 type  1   force =    -0.00011353   -0.00044073   -0.17551897
     atom   27 type  2   force =     0.00009748   -0.00012975   -0.02332427
     atom   28 type  2   force =     0.00011077   -0.00121821    0.05263916
     atom   29 type  2   force =    -0.01155950   -0.00029995    0.00347413
     atom   30 type  2   force =     0.01314460    0.00016280    0.00227901
     atom   31 type  1   force =    -0.00121028    0.00346255   -0.01234721
     atom   32 type  1   force =     0.00054082   -0.00378791    0.02547375
     atom   33 type  2   force =     0.00002551   -0.00017698   -0.00001976
     atom   34 type  2   force =    -0.00098242    0.00046559   -0.02169293
     atom   35 type  2   force =     0.00013750    0.00001425    0.00018859
     atom   36 type  2   force =    -0.00014687    0.00002307    0.00006863
     atom   37 type  1   force =    -0.00045929   -0.00032206    0.00015177
     atom   38 type  1   force =     0.00043649    0.00027960   -0.00028355
     atom   39 type  2   force =     0.00004699   -0.00044722    0.00033931
     atom   40 type  2   force =    -0.00012951   -0.00008673    0.00012826
     atom   41 type  2   force =    -0.00084539   -0.00014595   -0.00023875
     atom   42 type  2   force =     0.00084848   -0.00001654   -0.00002062
     atom   43 type  1   force =     0.00001889   -0.00077366    0.00006691
     atom   44 type  1   force =    -0.00006941    0.00008946    0.00012850
     atom   45 type  2   force =     0.00010576   -0.00010797    0.10316365
     atom   46 type  2   force =    -0.07151305   -0.00015181   -0.02773087
     atom   47 type  2   force =     0.07152459    0.00029408   -0.02773761
     atom   48 type  3   force =     0.00591621   -0.00119111    0.00125413
     atom   49 type  3   force =    -0.00171951    0.00008493   -0.00109987
     atom   50 type  4   force =    -0.00203245    0.00025017    0.00011105
     atom   51 type  5   force =     0.00003922   -0.00052800    0.00020373
     atom   52 type  5   force =     0.00040619   -0.00058641    0.00036000
     atom   53 type  5   force =    -0.00186846    0.00086868    0.00024295

     Total force =     0.366767     Total SCF correction =     0.000453
  @ DRIVER MODE: Message from server: STATUS
  @ DRIVER MODE: Message from server: GETFORCE
  @ DRIVER MODE: Returning v,forces,stress,ensemble

     Writing output data file ./calc.save/
  @ DRIVER MODE: Message from server: EXIT
  @ DRIVE MODE: Exiting

     General routines

     Parallel routines

   This run was terminated on:  18:18:52  10Sep2021

   JOB DONE.