     Program PWSCF v.6.7GPU starts on 16Sep2021 at  2:50:34

     R & G space division:  proc/nbgrp/npool/nimage =      10
     Reading input from /storage/home/hcoda1/3/ntian30/research/carbon/CxH_vib/H2O_calc/ads_slab/CH3NH2NHH2O_c/out_0031/pw.inp
Warning: card &CELL ignored
Warning: card   CELL_DYNAMICS='IPI', ignored
Warning: card / ignored

     Current dimensions of program PWSCF are:
     Max number of different atomic species (ntypx) = 10
     Max number of k-points (npk) =  40000
     Max angular momentum in pseudopotentials (lmaxx) =  3
     Presently no symmetry can be used with electric field

     Message from routine cell_base_init:
     DEPRECATED: use true lattice parameter, not A to a.u. conversion factor

     IMPORTANT: XC functional enforced from input :
     Exchange-correlation= BEEF-VDW
                           (   1   4  43  14   2   0   0)
     Any further DFT definition will be discarded
     Please, verify this is what you really want

  @ DRIVER MODE: Connecting to
 qe_1139763_2852614.sched-torque.pace.gatech.edug3063vyn_scratch
  using UNIX socket
  @ DRIVER MODE: Message from server: STATUS
  @ DRIVER MODE: Message from server: INIT
  @ DRIVER MODE: Receiving replica           0          -1
  @ DRIVER MODE: Receiving encoded integer          25
  @ DRIVER MODE:  SCF:  T  FORCE:  T  STRESS:  F  VC:  F  ENSEMBLE:  F
  @ DRIVER MODE:  SCF:  T  FORCE:  T  STRESS:  F  VC:  F  ENSEMBLE:  F

     Using Slab Decomposition

     bravais-lattice index     =            0
     lattice parameter (alat)  =       1.8897  a.u.
     unit-cell volume          =    6658.9804 (a.u.)^3
     number of atoms/cell      =           59
     number of atomic types    =            5
     number of electrons       =       406.00
     number of Kohn-Sham states=          213
     kinetic-energy cutoff     =      29.3995  Ry
     charge density cutoff     =     293.9946  Ry
     scf convergence threshold =      7.3E-08
     mixing beta               =       0.0500
     number of iterations used =            8  plain     mixing
     Exchange-correlation= BEEF-VDW
                           (   1   4  43  14   2   0   0)

     celldm(1)=   1.889726  celldm(2)=   0.000000  celldm(3)=   0.000000
     celldm(4)=   0.000000  celldm(5)=   0.000000  celldm(6)=   0.000000

     crystal axes: (cart. coord. in units of alat)
               a(1) = (   6.579727   0.000000   0.000000 )
               a(2) = (  -0.000775   5.961596   0.000000 )
               a(3) = (   0.000000   0.000000  25.155947 )

     reciprocal axes: (cart. coord. in units 2 pi/alat)
               b(1) = (  0.151982  0.000020  0.000000 )
               b(2) = (  0.000000  0.167740  0.000000 )
               b(3) = (  0.000000  0.000000  0.039752 )

     PseudoPot. # 1 for Ti read from file:
     /storage/coda1/p-amedford6/0/shared/rich_project_chbe-medford/medford-share/data/pseudos_module/espresso/nninc/pbe/van/Ti.UPF
     MD5 check sum: 8e4df49b7f0d34bbd5052bf3f5ea0213
     Pseudo is Ultrasoft, Zval = 12.0
     Generated by new atomic code, or converted to UPF format
     Using radial grid of  851 points,  6 beta functions with:
                l(1) =   0
                l(2) =   0
                l(3) =   1
                l(4) =   1
                l(5) =   2
                l(6) =   2
     Q(r) pseudized with  8 coefficients,  rinner =    1.000   1.000   1.000
                                                       1.000   1.000

     PseudoPot. # 2 for O  read from file:
     /storage/coda1/p-amedford6/0/shared/rich_project_chbe-medford/medford-share/data/pseudos_module/espresso/nninc/pbe/van/O.UPF
     MD5 check sum: 78c19812648e8988a0fe644b0f25305e
     Pseudo is Ultrasoft, Zval =  6.0
     Generated by new atomic code, or converted to UPF format
     Using radial grid of  737 points,  4 beta functions with:
                l(1) =   0
                l(2) =   0
                l(3) =   1
                l(4) =   1
     Q(r) pseudized with  8 coefficients,  rinner =    0.800   0.800   0.800

     PseudoPot. # 3 for N  read from file:
     /storage/coda1/p-amedford6/0/shared/rich_project_chbe-medford/medford-share/data/pseudos_module/espresso/nninc/pbe/van/N.UPF
     MD5 check sum: 90d10febe142ad51ac9d5be1deb811c4
     Pseudo is Ultrasoft, Zval =  5.0
     Generated by new atomic code, or converted to UPF format
     Using radial grid of  729 points,  4 beta functions with:
                l(1) =   0
                l(2) =   0
                l(3) =   1
                l(4) =   1
     Q(r) pseudized with  8 coefficients,  rinner =    0.800   0.800   0.800

     PseudoPot. # 4 for C  read from file:
     /storage/coda1/p-amedford6/0/shared/rich_project_chbe-medford/medford-share/data/pseudos_module/espresso/nninc/pbe/van/C.UPF
     MD5 check sum: 1a69bf6b8db32088f5b2163dbdb77a27
     Pseudo is Ultrasoft, Zval =  4.0
     Generated by new atomic code, or converted to UPF format
     Using radial grid of  721 points,  4 beta functions with:
                l(1) =   0
                l(2) =   0
                l(3) =   1
                l(4) =   1
     Q(r) pseudized with  8 coefficients,  rinner =    0.800   0.800   0.800

     PseudoPot. # 5 for H  read from file:
     /storage/coda1/p-amedford6/0/shared/rich_project_chbe-medford/medford-share/data/pseudos_module/espresso/nninc/pbe/van/H.UPF
     MD5 check sum: b5ee9d7bfd3a09ee7748110bda690ff7
     Pseudo is Ultrasoft, Zval =  1.0
     Generated by new atomic code, or converted to UPF format
     Using radial grid of  615 points,  1 beta functions with:
                l(1) =   0
     Q(r) pseudized with  8 coefficients,  rinner =    0.800

     atomic species   valence    mass     pseudopotential
        Ti1           12.00    47.86700     Ti( 1.00)
        O1             6.00    15.99900     O ( 1.00)
        N1             5.00    14.00700     N ( 1.00)
        C1             4.00    12.01100     C ( 1.00)
        H1             1.00     1.00800     H ( 1.00)

     No symmetry found

   Cartesian axes

     site n.     atom                  positions (alat units)
         1           Ti1 tau(   1) = (   0.0004258   2.9801865   6.0000000  )
         2           Ti1 tau(   2) = (   3.2906075   1.4906267   6.0002472  )
         3           O1  tau(   3) = (   0.0006271   0.0005054   7.9858123  )
         4           O1  tau(   4) = (   3.2906025   0.0005020   7.3038282  )
         5           O1  tau(   5) = (   4.5942328   1.4918067   9.2879030  )
         6           O1  tau(   6) = (   1.9868534   1.4903216   9.2879459  )
         7           Ti1 tau(   7) = (   3.2907910   2.8959150   9.1758416  )
         8           Ti1 tau(   8) = (   0.0015273   1.4827037   9.2680791  )
         9           O1  tau(   9) = (   3.2795193   0.0050042  11.3600746  )
        10           O1  tau(  10) = (   0.0116148   5.9584955  10.6183126  )
        11           O1  tau(  11) = (   1.2764768   1.4833402  12.6625751  )
        12           O1  tau(  12) = (   5.2691860   1.4824858  12.6730715  )
        13           Ti1 tau(  13) = (   6.5785005   2.9712200  12.5432933  )
        14           Ti1 tau(  14) = (   3.2815129   1.4861921  12.5133659  )
        15           O1  tau(  15) = (   0.0084525   5.9333602  14.7514412  )
        16           O1  tau(  16) = (   3.2474592   5.9449689  14.0025778  )
        17           O1  tau(  17) = (   4.5272503   1.5270814  16.0535473  )
        18           O1  tau(  18) = (   2.0088677   1.5398698  16.1918835  )
        19           Ti1 tau(  19) = (   3.2695027   3.0127370  15.7044713  )
        20           Ti1 tau(  20) = (   6.4897317   1.5391078  15.7731133  )
        21           O1  tau(  21) = (   3.2904802   0.0005063   4.7018136  )
        22           O1  tau(  22) = (   6.4943121   0.0104379  17.3746616  )
        23           O1  tau(  23) = (   1.3043587   1.4918075   6.0039043  )
        24           O1  tau(  24) = (   5.2767064   1.4903225   6.0039473  )
        25           Ti1 tau(  25) = (   0.0000382   5.9609847   6.0000000  )
        26           Ti1 tau(  26) = (   3.2902200   4.4714249   6.0002472  )
        27           O1  tau(  27) = (   0.0002396   2.9813036   7.9858123  )
        28           O1  tau(  28) = (   3.2902150   2.9813002   7.3038282  )
        29           O1  tau(  29) = (   4.5938453   4.4726049   9.2879030  )
        30           O1  tau(  30) = (   1.9864658   4.4711199   9.2879459  )
        31           Ti1 tau(  31) = (   3.2891106   5.8743827   9.1763621  )
        32           Ti1 tau(  32) = (   0.0006254   4.4649316   9.2693709  )
        33           O1  tau(  33) = (   3.2806081   2.9711243  11.3509633  )
        34           O1  tau(  34) = (   0.0092240   2.9805883  10.6323155  )
        35           O1  tau(  35) = (   1.2760424   4.4718827  12.6381679  )
        36           O1  tau(  36) = (   5.2690016   4.4731519  12.6446470  )
        37           Ti1 tau(  37) = (   6.5708669   5.9382087  12.5160675  )
        38           Ti1 tau(  38) = (   3.2845625   4.4656782  12.4980923  )
        39           O1  tau(  39) = (   6.5779858   3.0049062  14.7590937  )
        40           O1  tau(  40) = (   3.2501146   3.0001303  13.9242794  )
        41           O1  tau(  41) = (   4.5300198   4.4412671  16.1793791  )
        42           O1  tau(  42) = (   2.0030354   4.4482434  16.2507355  )
        43           Ti1 tau(  43) = (   3.2558399   0.0045369  15.7947069  )
        44           Ti1 tau(  44) = (   0.0024851   4.6597080  16.1671864  )
        45           O1  tau(  45) = (   3.2900926   2.9813045   4.7018136  )
        46           O1  tau(  46) = (   1.3039711   4.4726057   6.0039043  )
        47           O1  tau(  47) = (   5.2763189   4.4711207   6.0039473  )
        48           N1  tau(  48) = (   0.8610865   2.3037131  18.4629187  )
        49           N1  tau(  49) = (   6.4642385   2.8627238  17.5618644  )
        50           C1  tau(  50) = (   1.1134797   3.0572184  19.7121060  )
        51           H1  tau(  51) = (   0.2160447   3.0254214  20.3281890  )
        52           H1  tau(  52) = (   1.9467850   2.5864873  20.2353232  )
        53           H1  tau(  53) = (   1.3363996   4.0866186  19.4485780  )
        54           H1  tau(  54) = (   0.5832711   1.3114681  18.6183785  )
        55           H1  tau(  55) = (   5.5643591   2.7461405  18.0238738  )
        56           H1  tau(  56) = (   1.7079168   2.1891883  17.8702682  )
        57           O1  tau(  57) = (   4.0734316   0.3075885  18.7765601  )
        58           H1  tau(  58) = (   4.9241673   0.1787741  18.2816895  )
        59           H1  tau(  59) = (   3.8734322   5.3936830  19.1372508  )

     number of k points=    10  Fermi-Dirac smearing, width (Ry)=  0.0073
                       cart. coord. in units 2pi/alat
        k(    1) = (   0.0000000   0.0000000   0.0000000), wk =   0.1250000
        k(    2) = (   0.0000000   0.0419351   0.0000000), wk =   0.2500000
        k(    3) = (   0.0000000  -0.0838702   0.0000000), wk =   0.1250000
        k(    4) = (   0.0379955   0.0000049   0.0000000), wk =   0.2500000
        k(    5) = (   0.0379955   0.0419400   0.0000000), wk =   0.2500000
        k(    6) = (   0.0379955  -0.0838652   0.0000000), wk =   0.2500000
        k(    7) = (   0.0379955  -0.0419301   0.0000000), wk =   0.2500000
        k(    8) = (  -0.0759910  -0.0000099   0.0000000), wk =   0.1250000
        k(    9) = (  -0.0759910   0.0419252   0.0000000), wk =   0.2500000
        k(   10) = (  -0.0759910  -0.0838800   0.0000000), wk =   0.1250000

     Initial potential from superposition of free atoms

     starting charge  389.99912, renormalised to  406.00000

     negative rho (up, down):  1.392E-02 0.000E+00

     %%%%%%%%%%%%%%%%%%%%%%%%%%%%%%%%%%%%%%%%%%%%%%%%%%%%%%%%%%%%%%%%%%%%%%%%
     %                                                                      %
     % You are using vdW-DF, which was implemented by the Thonhauser group. %
     % Please cite the following two papers that made this development      %
     % possible and the two reviews that describe the various versions:     %
     %                                                                      %
     %   T. Thonhauser et al., PRL 115, 136402 (2015).                      %
     %   T. Thonhauser et al., PRB 76, 125112 (2007).                       %
     %   K. Berland et al., Rep. Prog. Phys. 78, 066501 (2015).             %
     %   D.C. Langreth et al., J. Phys.: Condens. Matter 21, 084203 (2009). %
     %                                                                      %
     %                                                                      %
     % If you are calculating the stress with vdW-DF, please also cite:     %
     %                                                                      %
     %   R. Sabatini et al., J. Phys.: Condens. Matter 24, 424209 (2012).   %
     %                                                                      %
     %%%%%%%%%%%%%%%%%%%%%%%%%%%%%%%%%%%%%%%%%%%%%%%%%%%%%%%%%%%%%%%%%%%%%%%%

     Adding external electric field

     Computed dipole along edir(3) :
        Dipole              -15.6809 Ry au,        -39.8568 Debye
        Dipole field         -0.0296 Ry au,

        Potential amp.        2.7431 Ry
        Total length         46.3494 bohr

     Starting wfcs are  308 atomic wfcs
  @ DRIVER MODE: Message from server: STATUS
  @ DRIVER MODE: Message from server: POSDATA
  @ DRIVER MODE: Reading and sharing cell
  @ DRIVER MODE: Reading and sharing positions
  @ DRIVER MODE: Received positions

     Self-consistent Calculation

     iteration #  1     ecut=    29.40 Ry     beta= 0.05
     Davidson diagonalization with overlap
     c_bands:  2 eigenvalues not converged
     c_bands:  5 eigenvalues not converged
     c_bands:  2 eigenvalues not converged
     c_bands:  4 eigenvalues not converged
     c_bands:  4 eigenvalues not converged
     c_bands:  5 eigenvalues not converged
     c_bands:  5 eigenvalues not converged
     c_bands:  1 eigenvalues not converged
     ethr =  1.00E-05,  avg # of iterations = 22.5

[...]

     total energy              =   -2140.12732174 Ry
     estimated scf accuracy    <    9575.50452925 Ry

     iteration #  2     ecut=    29.40 Ry     beta= 0.05
     Davidson diagonalization with overlap
     ethr =  1.00E-02,  avg # of iterations = 31.7

[...]

     iteration # 68     ecut=    29.40 Ry     beta= 0.05
     Davidson diagonalization with overlap
     c_bands:  1 eigenvalues not converged
     ethr =  2.49E-11,  avg # of iterations = 15.5

[...]

     total energy              =   -2977.68489669 Ry
     estimated scf accuracy    <       0.00000014 Ry

     iteration # 69     ecut=    29.40 Ry     beta= 0.05
     Davidson diagonalization with overlap
     ethr =  2.49E-11,  avg # of iterations =  5.7

     negative rho (up, down):  1.243E-02 0.000E+00

     Adding external electric field

     Computed dipole along edir(3) :
        Dipole                1.6082 Ry au,          4.0876 Debye
        Dipole field          0.0030 Ry au,

        Potential amp.       -0.2813 Ry
        Total length         46.3494 bohr

     End of self-consistent calculation

          k = 0.0000 0.0000 0.0000 ( 18029 PWs)   bands (ev):

   -54.9542 -54.9172 -54.9149 -54.8831 -54.8440 -54.8339 -54.7937 -54.7623
   -54.7577 -54.7469 -54.7272 -54.7219 -54.7137 -54.6598 -53.9330 -53.8989
   -31.5262 -31.4073 -31.3205 -31.2819 -31.2650 -31.2517 -31.2491 -31.2439
   -31.2095 -31.2072 -31.1630 -31.1624 -31.1571 -31.1269 -31.1083 -31.0883
   -31.0778 -31.0720 -31.0703 -31.0634 -31.0288 -31.0248 -31.0184 -31.0124
   -30.9928 -30.9742 -30.9642 -30.9630 -30.9556 -30.9555 -30.9451 -30.9365
   -30.9205 -30.9202 -30.9116 -30.9100 -30.8844 -30.8778 -30.8758 -30.8751
   -30.8563 -30.8558 -30.3417 -30.2492 -30.2270 -30.1582 -30.0715 -29.9605
   -18.9622 -18.2088 -15.7894 -15.5216 -15.3964 -15.1963 -15.1429 -15.0383
   -14.8784 -14.8176 -14.7527 -14.7277 -14.7218 -14.6951 -14.6225 -14.5670
   -14.5381 -14.4856 -14.4848 -14.4489 -14.4416 -14.4368 -14.3823 -14.3783
   -14.3419 -14.3280 -14.3205 -14.1774 -14.0987 -14.0514 -14.0399 -13.1987
   -12.4356 -12.3184 -10.9882  -7.5855  -6.3952  -5.9732  -5.7642  -4.0240
    -3.8376  -3.1333  -2.9625  -2.9506  -2.8728  -2.8489  -2.6785  -2.6184
    -2.5101  -2.3942  -2.3182  -2.2207  -2.1768  -2.1587  -2.1449  -2.0314
    -1.9459  -1.9085  -1.8692  -1.8306  -1.8135  -1.7680  -1.7470  -1.7369
    -1.7043  -1.6790  -1.5256  -1.4513  -1.4149  -1.3808  -1.3405  -1.2832
    -1.2618  -1.2454  -1.2395  -1.2318  -1.2156  -1.1912  -1.1554  -1.1235
    -1.0556  -0.9714  -0.9621  -0.8506  -0.7666  -0.6340  -0.5808  -0.5229
    -0.4925  -0.4261  -0.3845  -0.3362  -0.3008  -0.2944  -0.2480  -0.1605
    -0.1475  -0.0899  -0.0715   0.0134   0.0593   0.0651   0.0763   0.2528
     0.2631   0.2810   0.3837   0.4647   0.5035   0.5202   0.5776   0.6401
     0.6424   0.6808   0.7028   0.7334   0.8163   0.9199   0.9449   0.9833
     0.9977   1.0231   1.0402   1.0671   1.1063   1.1875   1.1936   1.2708
     1.3629   1.3742   1.6373   1.6695   2.0002   2.0271   2.0896   2.2753
     2.6642   2.7116   4.1479   4.2098   4.2552   4.2807   4.2989   4.3804
     4.4000   4.6157   4.6420   4.6431   4.6522

[...]

          k = 0.0380-0.0419 0.0000 ( 17876 PWs)   bands (ev):

[...]

          k =-0.0760-0.0000 0.0000 ( 17886 PWs)   bands (ev):

[...]

          k =-0.0760-0.0839 0.0000 ( 17948 PWs)   bands (ev):

   -54.9423 -54.9265 -54.9002 -54.9001 -54.8415 -54.8243 -54.8033 -54.7552
   -54.7470 -54.7415 -54.7321 -54.7291 -54.7242 -54.6622 -53.9160 -53.9158
   -31.3350 -31.3236 -31.2576 -31.2224 -31.2223 -31.2165 -31.1927 -31.1926
   -31.1678 -31.1654 -31.1563 -31.1525 -31.1446 -31.0946 -31.0811 -31.0803
   -31.0761 -31.0747 -31.0716 -31.0688 -31.0418 -31.0316 -31.0293 -31.0228
   -31.0219 -31.0195 -31.0194 -31.0188 -30.9978 -30.9806 -30.9745 -30.9675
   -30.9613 -30.9556 -30.9540 -30.9498 -30.9495 -30.9225 -30.9155 -30.9124
   -30.9078 -30.8976 -30.2398 -30.2396 -30.1544 -30.1542 -30.1149 -30.1148
   -18.9572 -18.2094 -15.2801 -15.1533 -15.0544 -14.9987 -14.9519 -14.9363
   -14.9187 -14.8653 -14.8352 -14.7754 -14.7518 -14.7034 -14.6592 -14.6553
   -14.6276 -14.5481 -14.5328 -14.5204 -14.5129 -14.4620 -14.4480 -14.4252
   -14.4025 -14.3985 -14.3801 -14.3077 -14.2979 -14.2937 -14.2548 -13.2080
   -12.4201 -12.4199 -10.9888  -7.5966  -6.3857  -5.9726  -5.7490  -4.0039
    -3.8299  -2.5621  -2.5403  -2.4051  -2.3917  -2.2797  -2.1875  -2.1373
    -2.1315  -1.9926  -1.9598  -1.9438  -1.9286  -1.9162  -1.8676  -1.8442
    -1.8083  -1.7909  -1.7812  -1.7714  -1.7557  -1.7353  -1.6832  -1.6792
    -1.6686  -1.6542  -1.6100  -1.5943  -1.5634  -1.5527  -1.5242  -1.5016
    -1.4350  -1.3404  -1.2928  -1.2497  -1.1952  -1.1426  -1.1366  -1.0578
    -1.0400  -1.0082  -0.9772  -0.9526  -0.8570  -0.7834  -0.6889  -0.6866
    -0.6829  -0.5632  -0.5230  -0.5055  -0.4928  -0.4627  -0.3783  -0.3682
    -0.3085  -0.2341  -0.2078  -0.2029  -0.1771  -0.0578  -0.0324   0.0276
     0.0581   0.0907   0.0929   0.1719   0.1850   0.2441   0.2589   0.2722
     0.3171   0.3347   0.4330   0.5230   0.5583   0.6616   0.7544   0.7837
     0.8789   0.9367   1.0411   1.0617   1.0855   1.1820   1.1902   1.2252
     1.3543   1.3612   1.4771   1.5168   1.5268   1.5294   2.4477   2.4491
     2.5317   2.5318   4.2742   4.3972   4.4126   4.4588   4.5132   4.6545
     4.6779   4.7251   4.7268   4.8010   4.8093

     the Fermi energy is     4.2001 ev

!    total energy              =   -2977.68492797 Ry
     estimated scf accuracy    <       0.00000005 Ry
     smearing contrib. (-TS)   =      -0.03700493 Ry
     internal energy E=F+TS    =   -2977.64792304 Ry

     The total energy is F=E-TS. E is the sum of the following terms:
     one-electron contribution =  -23305.76536040 Ry
     hartree contribution      =   11753.87676166 Ry
     xc contribution           =    -496.61004645 Ry
     ewald contribution        =    9070.84584155 Ry
     electric field correction =       0.00488060 Ry

     convergence has been achieved in  69 iterations

     Forces acting on atoms (cartesian axes, Ry/au):

     atom    1 type  1   force =     0.00008979   -0.00025603    0.09413244
     atom    2 type  1   force =    -0.00008570   -0.00045320   -0.17748609
     atom    3 type  2   force =     0.00006097   -0.00033010   -0.02122122
     atom    4 type  2   force =     0.00003627   -0.00179214    0.05729635
     atom    5 type  2   force =    -0.01080220   -0.00101535    0.00668798
     atom    6 type  2   force =     0.01199873   -0.00033413    0.00504124
     atom    7 type  1   force =    -0.00060002    0.00105878   -0.01461193
     atom    8 type  1   force =     0.00086125    0.00330278    0.00460246
     atom    9 type  2   force =     0.00000775   -0.00005426    0.00014254
     atom   10 type  2   force =    -0.00368739    0.00210971   -0.00165091
     atom   11 type  2   force =    -0.00017552    0.00061833   -0.00009257
     atom   12 type  2   force =     0.00019186    0.00028536   -0.00021151
     atom   13 type  1   force =    -0.00019494   -0.00027041    0.00010792
     atom   14 type  1   force =     0.00025060   -0.00021594   -0.00036660
     atom   15 type  2   force =     0.00020412    0.00035981   -0.00010249
     atom   16 type  2   force =    -0.00012259    0.00025208   -0.00020385
     atom   17 type  2   force =    -0.00008028   -0.00029152    0.00033122
     atom   18 type  2   force =     0.00016581    0.00003717   -0.00001980
     atom   19 type  1   force =    -0.00000322    0.00022070   -0.00040699
     atom   20 type  1   force =     0.00041517   -0.00004118   -0.00007210
     atom   21 type  2   force =     0.00011785   -0.00008165    0.10375524
     atom   22 type  2   force =     0.00055681   -0.00031867   -0.00067217
     atom   23 type  2   force =    -0.07066416   -0.00014671   -0.02713814
     atom   24 type  2   force =     0.07062622    0.00031630   -0.02714359
     atom   25 type  1   force =     0.00010990   -0.00016942    0.09374637
     atom   26 type  1   force =    -0.00006687   -0.00053293   -0.17770600
     atom   27 type  2   force =     0.00006799   -0.00005253   -0.02032370
     atom   28 type  2   force =     0.00006647   -0.00145985    0.05629856
     atom   29 type  2   force =    -0.01130880   -0.00039493    0.00736976
     atom   30 type  2   force =     0.01241976   -0.00000187    0.00576032
     atom   31 type  1   force =    -0.00074457    0.00573911   -0.01564936
     atom   32 type  1   force =     0.00081607   -0.00458794    0.00434169
     atom   33 type  2   force =     0.00002243    0.00015273    0.00029346
     atom   34 type  2   force =    -0.00321346   -0.00103201   -0.00519702
     atom   35 type  2   force =    -0.00011338   -0.00039671    0.00008225
     atom   36 type  2   force =     0.00021370   -0.00006819   -0.00009290
     atom   37 type  1   force =    -0.00012327    0.00044253   -0.00011025
     atom   38 type  1   force =     0.00008796    0.00015167   -0.00012639
     atom   39 type  2   force =    -0.00045380   -0.00030379   -0.00015941
     atom   40 type  2   force =     0.00012778   -0.00008262    0.00026521
     atom   41 type  2   force =    -0.00002300    0.00022170   -0.00016136
     atom   42 type  2   force =     0.00044380    0.00009350   -0.00029308
     atom   43 type  1   force =    -0.00016858   -0.00001481   -0.00007960
     atom   44 type  1   force =     0.00034916    0.00037216    0.00026186
     atom   45 type  2   force =     0.00010453   -0.00006513    0.10373786
     atom   46 type  2   force =    -0.07065741   -0.00006519   -0.02712087
     atom   47 type  2   force =     0.07063282    0.00032885   -0.02713972
     atom   48 type  3   force =     0.00048485   -0.00097067    0.00104936
     atom   49 type  3   force =    -0.00018817   -0.00043989    0.00055205
     atom   50 type  4   force =    -0.00194530   -0.00152802    0.00031134
     atom   51 type  5   force =     0.00045175   -0.00015243   -0.00006696
     atom   52 type  5   force =     0.00018252    0.00121573    0.00003214
     atom   53 type  5   force =     0.00238166    0.00169654   -0.00106077
     atom   54 type  5   force =     0.00044152   -0.00010272    0.00016058
     atom   55 type  5   force =     0.00033797   -0.00059154   -0.00013029
     atom   56 type  5   force =     0.00020183   -0.00012680    0.00039772
     atom   57 type  2   force =    -0.00078771    0.00076018    0.00147518
     atom   58 type  5   force =     0.00032318   -0.00062031   -0.00104868
     atom   59 type  5   force =     0.00035949   -0.00037416   -0.00036676

     Total force =     0.365850     Total SCF correction =     0.000670
  @ DRIVER MODE: Message from server: STATUS
  @ DRIVER MODE: Message from server: GETFORCE
  @ DRIVER MODE: Returning v,forces,stress,ensemble

     Writing output data file ./calc.save/
  @ DRIVER MODE: Message from server: EXIT
  @ DRIVE MODE: Exiting

     General routines

     Parallel routines

   This run was terminated on:   3:10:45  16Sep2021

   JOB DONE.