     Program PWSCF v.6.7GPU starts on 16Sep2021 at  4:45: 1

     R & G space division:  proc/nbgrp/npool/nimage =      10
     Reading input from /storage/home/hcoda1/3/ntian30/research/carbon/CxH_vib/H2O_calc/ads_slab/CH2N2H2O_b/out_0040/pw.inp
Warning: card &CELL ignored
Warning: card   CELL_DYNAMICS='IPI', ignored
Warning: card / ignored

     Current dimensions of program PWSCF are:
     Max number of different atomic species (ntypx) = 10
     Max number of k-points (npk) =  40000
     Max angular momentum in pseudopotentials (lmaxx) =  3
     Presently no symmetry can be used with electric field

     Message from routine cell_base_init:
     DEPRECATED: use true lattice parameter, not A to a.u. conversion factor

     IMPORTANT: XC functional enforced from input :
     Exchange-correlation= BEEF-VDW
                           (   1   4  43  14   2   0   0)
     Any further DFT definition will be discarded
     Please, verify this is what you really want

  @ DRIVER MODE: Connecting to
 qe_1139763_2852605.sched-torque.pace.gatech.edutst3qsjo_scratch
  using UNIX socket
  @ DRIVER MODE: Message from server: STATUS
  @ DRIVER MODE: Message from server: INIT
  @ DRIVER MODE: Receiving replica           0          -1
  @ DRIVER MODE: Receiving encoded integer          25
  @ DRIVER MODE:  SCF:  T  FORCE:  T  STRESS:  F  VC:  F  ENSEMBLE:  F
  @ DRIVER MODE:  SCF:  T  FORCE:  T  STRESS:  F  VC:  F  ENSEMBLE:  F

     Using Slab Decomposition

     bravais-lattice index     =            0
     lattice parameter (alat)  =       1.8897  a.u.
     unit-cell volume          =    6658.9804 (a.u.)^3
     number of atoms/cell      =           55
     number of atomic types    =            5
     number of electrons       =       402.00
     number of Kohn-Sham states=          211
     kinetic-energy cutoff     =      29.3995  Ry
     charge density cutoff     =     293.9946  Ry
     scf convergence threshold =      7.3E-08
     mixing beta               =       0.0500
     number of iterations used =            8  plain     mixing
     Exchange-correlation= BEEF-VDW
                           (   1   4  43  14   2   0   0)

     celldm(1)=   1.889726  celldm(2)=   0.000000  celldm(3)=   0.000000
     celldm(4)=   0.000000  celldm(5)=   0.000000  celldm(6)=   0.000000

     crystal axes: (cart. coord. in units of alat)
               a(1) = (   6.579727   0.000000   0.000000 )
               a(2) = (  -0.000775   5.961596   0.000000 )
               a(3) = (   0.000000   0.000000  25.155947 )

     reciprocal axes: (cart. coord. in units 2 pi/alat)
               b(1) = (  0.151982  0.000020  0.000000 )
               b(2) = (  0.000000  0.167740  0.000000 )
               b(3) = (  0.000000  0.000000  0.039752 )

     PseudoPot. # 1 for Ti read from file:
     /storage/coda1/p-amedford6/0/shared/rich_project_chbe-medford/medford-share/data/pseudos_module/espresso/nninc/pbe/van/Ti.UPF
     MD5 check sum: 8e4df49b7f0d34bbd5052bf3f5ea0213
     Pseudo is Ultrasoft, Zval = 12.0
     Generated by new atomic code, or converted to UPF format
     Using radial grid of  851 points,  6 beta functions with:
                l(1) =   0
                l(2) =   0
                l(3) =   1
                l(4) =   1
                l(5) =   2
                l(6) =   2
     Q(r) pseudized with  8 coefficients,  rinner =    1.000   1.000   1.000
                                                       1.000   1.000

     PseudoPot. # 2 for O  read from file:
     /storage/coda1/p-amedford6/0/shared/rich_project_chbe-medford/medford-share/data/pseudos_module/espresso/nninc/pbe/van/O.UPF
     MD5 check sum: 78c19812648e8988a0fe644b0f25305e
     Pseudo is Ultrasoft, Zval =  6.0
     Generated by new atomic code, or converted to UPF format
     Using radial grid of  737 points,  4 beta functions with:
                l(1) =   0
                l(2) =   0
                l(3) =   1
                l(4) =   1
     Q(r) pseudized with  8 coefficients,  rinner =    0.800   0.800   0.800

     PseudoPot. # 3 for N  read from file:
     /storage/coda1/p-amedford6/0/shared/rich_project_chbe-medford/medford-share/data/pseudos_module/espresso/nninc/pbe/van/N.UPF
     MD5 check sum: 90d10febe142ad51ac9d5be1deb811c4
     Pseudo is Ultrasoft, Zval =  5.0
     Generated by new atomic code, or converted to UPF format
     Using radial grid of  729 points,  4 beta functions with:
                l(1) =   0
                l(2) =   0
                l(3) =   1
                l(4) =   1
     Q(r) pseudized with  8 coefficients,  rinner =    0.800   0.800   0.800

     PseudoPot. # 4 for C  read from file:
     /storage/coda1/p-amedford6/0/shared/rich_project_chbe-medford/medford-share/data/pseudos_module/espresso/nninc/pbe/van/C.UPF
     MD5 check sum: 1a69bf6b8db32088f5b2163dbdb77a27
     Pseudo is Ultrasoft, Zval =  4.0
     Generated by new atomic code, or converted to UPF format
     Using radial grid of  721 points,  4 beta functions with:
                l(1) =   0
                l(2) =   0
                l(3) =   1
                l(4) =   1
     Q(r) pseudized with  8 coefficients,  rinner =    0.800   0.800   0.800

     PseudoPot. # 5 for H  read from file:
     /storage/coda1/p-amedford6/0/shared/rich_project_chbe-medford/medford-share/data/pseudos_module/espresso/nninc/pbe/van/H.UPF
     MD5 check sum: b5ee9d7bfd3a09ee7748110bda690ff7
     Pseudo is Ultrasoft, Zval =  1.0
     Generated by new atomic code, or converted to UPF format
     Using radial grid of  615 points,  1 beta functions with:
                l(1) =   0
     Q(r) pseudized with  8 coefficients,  rinner =    0.800

     atomic species   valence    mass     pseudopotential
        Ti1           12.00    47.86700     Ti( 1.00)
        O1             6.00    15.99900     O ( 1.00)
        N1             5.00    14.00700     N ( 1.00)
        C1             4.00    12.01100     C ( 1.00)
        H1             1.00     1.00800     H ( 1.00)

     No symmetry found

   Cartesian axes

     site n.     atom                  positions (alat units)
         1           Ti1 tau(   1) = (   0.0004258   2.9801865   6.0000000  )
         2           Ti1 tau(   2) = (   3.2906075   1.4906267   6.0002472  )
         3           O1  tau(   3) = (   0.0006271   0.0005054   7.9858123  )
         4           O1  tau(   4) = (   3.2906025   0.0005020   7.3038282  )
         5           O1  tau(   5) = (   4.5942328   1.4918067   9.2879030  )
         6           O1  tau(   6) = (   1.9868534   1.4903216   9.2879459  )
         7           Ti1 tau(   7) = (   3.2907910   2.8959150   9.1758416  )
         8           Ti1 tau(   8) = (   0.0015273   1.4827037   9.2680791  )
         9           O1  tau(   9) = (   3.2934429   5.9466490  11.3040654  )
        10           O1  tau(  10) = (   0.0116148   5.9584955  10.6183126  )
        11           O1  tau(  11) = (   1.2867109   1.4782735  12.6190062  )
        12           O1  tau(  12) = (   5.2776945   1.4764076  12.5976694  )
        13           Ti1 tau(  13) = (   0.0846880   2.9559742  12.7004455  )
        14           Ti1 tau(  14) = (   3.4192946   1.4610250  12.4797112  )
        15           O1  tau(  15) = (   0.0040618   5.9510889  14.6015872  )
        16           O1  tau(  16) = (   3.2972055   5.9566395  13.8969661  )
        17           O1  tau(  17) = (   4.5327346   1.5242580  16.0225792  )
        18           O1  tau(  18) = (   2.0474321   1.5095568  15.9818283  )
        19           Ti1 tau(  19) = (   3.2830006   2.9631064  15.6531525  )
        20           Ti1 tau(  20) = (   6.5418150   1.5417905  15.9635021  )
        21           O1  tau(  21) = (   3.2904802   0.0005063   4.7018136  )
        22           O1  tau(  22) = (   0.0063621   0.0138944  17.1794403  )
        23           O1  tau(  23) = (   1.3043587   1.4918075   6.0039043  )
        24           O1  tau(  24) = (   5.2767064   1.4903225   6.0039473  )
        25           Ti1 tau(  25) = (   0.0000382   5.9609847   6.0000000  )
        26           Ti1 tau(  26) = (   3.2902200   4.4714249   6.0002472  )
        27           O1  tau(  27) = (   0.0002396   2.9813036   7.9858123  )
        28           O1  tau(  28) = (   3.2902150   2.9813002   7.3038282  )
        29           O1  tau(  29) = (   4.5938453   4.4726049   9.2879030  )
        30           O1  tau(  30) = (   1.9864658   4.4711199   9.2879459  )
        31           Ti1 tau(  31) = (   3.2891106   5.8743827   9.1763621  )
        32           Ti1 tau(  32) = (   0.0006254   4.4649316   9.2693709  )
        33           O1  tau(  33) = (   3.2987291   2.9703105  11.3060640  )
        34           O1  tau(  34) = (   0.0092240   2.9805883  10.6323155  )
        35           O1  tau(  35) = (   1.2872851   4.4534926  12.6272766  )
        36           O1  tau(  36) = (   5.2800973   4.4624318  12.6062822  )
        37           Ti1 tau(  37) = (   0.1009857   5.9355968  12.6779778  )
        38           Ti1 tau(  38) = (   3.4194502   4.4581092  12.4739500  )
        39           O1  tau(  39) = (   6.5579784   2.9468049  14.6267102  )
        40           O1  tau(  40) = (   3.2950467   2.9662764  13.8528306  )
        41           O1  tau(  41) = (   4.5369278   4.4531499  15.9976687  )
        42           O1  tau(  42) = (   2.0426393   4.4597293  15.9709435  )
        43           Ti1 tau(  43) = (   3.2485613   5.9322867  15.7552632  )
        44           Ti1 tau(  44) = (   6.5504849   4.5932964  16.0494500  )
        45           O1  tau(  45) = (   3.2900926   2.9813045   4.7018136  )
        46           O1  tau(  46) = (   1.3039711   4.4726057   6.0039043  )
        47           O1  tau(  47) = (   5.2763189   4.4711207   6.0039473  )
        48           N1  tau(  48) = (   0.6156314   2.9572148  18.5116157  )
        49           N1  tau(  49) = (   0.0870375   2.9660652  17.3203775  )
        50           C1  tau(  50) = (   6.5561155   3.1780822  19.6039678  )
        51           H1  tau(  51) = (   5.4868456   3.3930584  19.6151425  )
        52           H1  tau(  52) = (   0.5344647   3.1546629  20.5288580  )
        53           O1  tau(  53) = (   3.2552377   5.9566958  18.1335742  )
        54           H1  tau(  54) = (   4.0211122   0.5373114  18.4085372  )
        55           H1  tau(  55) = (   2.4596908   0.4732500  18.4230009  )

     number of k points=    10  Fermi-Dirac smearing, width (Ry)=  0.0073
                       cart. coord. in units 2pi/alat
        k(    1) = (   0.0000000   0.0000000   0.0000000), wk =   0.1250000
        k(    2) = (   0.0000000   0.0419351   0.0000000), wk =   0.2500000
        k(    3) = (   0.0000000  -0.0838702   0.0000000), wk =   0.1250000
        k(    4) = (   0.0379955   0.0000049   0.0000000), wk =   0.2500000
        k(    5) = (   0.0379955   0.0419400   0.0000000), wk =   0.2500000
        k(    6) = (   0.0379955  -0.0838652   0.0000000), wk =   0.2500000
        k(    7) = (   0.0379955  -0.0419301   0.0000000), wk =   0.2500000
        k(    8) = (  -0.0759910  -0.0000099   0.0000000), wk =   0.1250000
        k(    9) = (  -0.0759910   0.0419252   0.0000000), wk =   0.2500000
        k(   10) = (  -0.0759910  -0.0838800   0.0000000), wk =   0.1250000

     Initial potential from superposition of free atoms

     starting charge  385.99915, renormalised to  402.00000

     negative rho (up, down):  1.463E-02 0.000E+00

     %%%%%%%%%%%%%%%%%%%%%%%%%%%%%%%%%%%%%%%%%%%%%%%%%%%%%%%%%%%%%%%%%%%%%%%%
     %                                                                      %
     % You are using vdW-DF, which was implemented by the Thonhauser group. %
     % Please cite the following two papers that made this development      %
     % possible and the two reviews that describe the various versions:     %
     %                                                                      %
     %   T. Thonhauser et al., PRL 115, 136402 (2015).                      %
     %   T. Thonhauser et al., PRB 76, 125112 (2007).                       %
     %   K. Berland et al., Rep. Prog. Phys. 78, 066501 (2015).             %
     %   D.C. Langreth et al., J. Phys.: Condens. Matter 21, 084203 (2009). %
     %                                                                      %
     %                                                                      %
     % If you are calculating the stress with vdW-DF, please also cite:     %
     %                                                                      %
     %   R. Sabatini et al., J. Phys.: Condens. Matter 24, 424209 (2012).   %
     %                                                                      %
     %%%%%%%%%%%%%%%%%%%%%%%%%%%%%%%%%%%%%%%%%%%%%%%%%%%%%%%%%%%%%%%%%%%%%%%%

     Adding external electric field

     Computed dipole along edir(3) :
        Dipole              -11.9608 Ry au,        -30.4013 Debye
        Dipole field         -0.0226 Ry au,

        Potential amp.        2.0924 Ry
        Total length         46.3494 bohr

     Starting wfcs are  304 atomic wfcs
  @ DRIVER MODE: Message from server: STATUS
  @ DRIVER MODE: Message from server: POSDATA
  @ DRIVER MODE: Reading and sharing cell
  @ DRIVER MODE: Reading and sharing positions
  @ DRIVER MODE: Received positions

     Self-consistent Calculation

     iteration #  1     ecut=    29.40 Ry     beta= 0.05
     Davidson diagonalization with overlap
     c_bands:  3 eigenvalues not converged
     c_bands:  1 eigenvalues not converged
     c_bands:  5 eigenvalues not converged
     c_bands:  3 eigenvalues not converged
     c_bands:  3 eigenvalues not converged
     c_bands:  2 eigenvalues not converged
     c_bands:  4 eigenvalues not converged
     c_bands:  4 eigenvalues not converged
     c_bands:  3 eigenvalues not converged
     ethr =  1.00E-05,  avg # of iterations = 21.6

[...]

     total energy              =   -2415.34811097 Ry
     estimated scf accuracy    <    6284.06596236 Ry

     iteration #  2     ecut=    29.40 Ry     beta= 0.05
     Davidson diagonalization with overlap
     ethr =  1.00E-02,  avg # of iterations = 23.7

[...]

     iteration # 38     ecut=    29.40 Ry     beta= 0.05
     Davidson diagonalization with overlap
     c_bands:  1 eigenvalues not converged
     ethr =  2.79E-06,  avg # of iterations = 14.2

[...]

     total energy              =   -2972.73813783 Ry
     estimated scf accuracy    <       0.00000018 Ry

     iteration # 69     ecut=    29.40 Ry     beta= 0.05
     Davidson diagonalization with overlap
     ethr =  4.55E-11,  avg # of iterations =  6.0

     negative rho (up, down):  1.529E-02 0.000E+00

     Adding external electric field

     Computed dipole along edir(3) :
        Dipole                0.6724 Ry au,          1.7091 Debye
        Dipole field          0.0013 Ry au,

        Potential amp.       -0.1176 Ry
        Total length         46.3494 bohr

     End of self-consistent calculation

          k = 0.0000 0.0000 0.0000 ( 18029 PWs)   bands (ev):

   -56.1199 -56.0860 -55.6572 -55.6234 -55.5648 -55.5405 -55.5305 -55.5051
   -55.4200 -55.3708 -55.3302 -55.2619 -54.9363 -54.9023 -54.8613 -54.8218
   -32.5716 -32.4110 -32.3834 -32.2801 -32.1955 -32.1871 -32.1245 -32.0733
   -32.0511 -31.9004 -31.8772 -31.8733 -31.8415 -31.8400 -31.8217 -31.7877
   -31.7776 -31.7747 -31.7608 -31.7594 -31.7541 -31.7199 -31.7179 -31.7108
   -31.6765 -31.6744 -31.6609 -31.6499 -31.6302 -31.5987 -31.5409 -31.5387
   -31.5091 -31.4824 -31.4546 -31.4221 -31.3922 -31.3363 -31.2654 -31.2419
   -31.1538 -31.1074 -31.0742 -31.0686 -31.0581 -31.0347 -30.9574 -30.9476
   -18.6578 -17.4859 -16.4406 -16.2215 -15.9863 -15.7476 -15.6965 -15.5803
   -15.5666 -15.5589 -15.4459 -15.4284 -15.3717 -15.2657 -15.1956 -15.1593
   -15.1059 -15.0974 -15.0737 -14.9804 -14.9661 -14.9497 -14.9381 -14.8637
   -14.8201 -14.7998 -14.6932 -14.6255 -14.5606 -14.5312 -14.2354 -13.4363
   -13.3230 -11.6633  -6.5440  -6.4010  -4.4135  -3.9414  -3.9312  -3.7212
    -3.5599  -3.4582  -3.3295  -3.3129  -3.1855  -3.0805  -2.9458  -2.8857
    -2.8780  -2.8067  -2.7825  -2.7751  -2.6398  -2.6009  -2.5586  -2.5352
    -2.5053  -2.4282  -2.4152  -2.3595  -2.3192  -2.2861  -2.1801  -2.1412
    -2.1015  -2.0862  -2.0621  -2.0173  -1.9810  -1.9592  -1.9498  -1.9357
    -1.8969  -1.8053  -1.7554  -1.6563  -1.6007  -1.5001  -1.4560  -1.4404
    -1.3742  -1.2845  -1.1643  -1.1515  -1.0803  -1.0399  -0.9937  -0.9664
    -0.8931  -0.8837  -0.8136  -0.7739  -0.7001  -0.6497  -0.6176  -0.5941
    -0.5712  -0.4752  -0.4259  -0.3465  -0.2888  -0.2331  -0.2120  -0.1186
    -0.0896  -0.0575  -0.0329   0.0243   0.0667   0.0841   0.1044   0.1294
     0.1625   0.1865   0.3066   0.3598   0.3730   0.4062   0.4307   0.5410
     0.6019   0.6772   0.7365   0.7776   0.8802   0.8961   0.9407   1.0663
     1.0791   1.0860   1.1445   1.3039   1.6184   1.6442   1.6852   1.7775
     2.9507   3.1086   3.2251   3.4469   3.5452   3.5801   3.8450   3.9514
     3.9896   4.0159   4.0258

[...]

          k = 0.0380-0.0419 0.0000 ( 17876 PWs)   bands (ev):

[...]

          k =-0.0760-0.0000 0.0000 ( 17886 PWs)   bands (ev):

[...]

          k =-0.0760-0.0839 0.0000 ( 17948 PWs)   bands (ev):

   -56.1030 -56.1028 -55.6424 -55.6379 -55.5507 -55.5446 -55.5242 -55.5212
   -55.4180 -55.3610 -55.3400 -55.2638 -54.9194 -54.9191 -54.8514 -54.8316
   -32.3967 -32.3963 -32.3876 -32.3874 -32.2318 -32.2316 -31.9492 -31.9439
   -31.8943 -31.8931 -31.8902 -31.8698 -31.8329 -31.8280 -31.8093 -31.8080
   -31.7918 -31.7882 -31.7655 -31.7597 -31.7566 -31.7511 -31.7508 -31.7449
   -31.7114 -31.6721 -31.6667 -31.6597 -31.6346 -31.6232 -31.5873 -31.5731
   -31.5660 -31.5300 -31.5150 -31.4628 -31.2732 -31.2549 -31.2547 -31.1591
   -31.1504 -31.1501 -31.1114 -31.1112 -31.0668 -31.0543 -31.0454 -31.0274
   -18.6567 -17.4802 -15.8156 -15.8102 -15.7435 -15.7396 -15.6705 -15.6078
   -15.5077 -15.5040 -15.4609 -15.3731 -15.2953 -15.2765 -15.2064 -15.1999
   -15.1981 -15.1893 -15.1207 -15.1104 -15.0755 -15.0525 -15.0271 -15.0236
   -14.9953 -14.9718 -14.7587 -14.7022 -14.6358 -14.5604 -14.4097 -13.4257
   -13.4257 -11.6683  -6.5338  -6.4009  -4.3678  -3.9231  -3.1376  -3.0180
    -2.9363  -2.9247  -2.9004  -2.8045  -2.7831  -2.7377  -2.7106  -2.6899
    -2.6149  -2.6034  -2.5515  -2.5459  -2.5126  -2.4954  -2.4418  -2.4320
    -2.4216  -2.4165  -2.3677  -2.3324  -2.3284  -2.3179  -2.2959  -2.2272
    -2.1648  -2.1264  -2.0891  -2.0732  -2.0708  -2.0137  -1.9877  -1.9547
    -1.9023  -1.8984  -1.8645  -1.8134  -1.6845  -1.6737  -1.5430  -1.4707
    -1.4522  -1.3734  -1.3231  -1.2901  -1.2172  -1.1662  -1.1370  -1.0295
    -1.0078  -0.9765  -0.9626  -0.9272  -0.9226  -0.8823  -0.7738  -0.7538
    -0.7156  -0.7125  -0.6342  -0.6037  -0.5506  -0.5298  -0.5177  -0.4753
    -0.4570  -0.3738  -0.3504  -0.2945  -0.2401  -0.1972  -0.1466  -0.0950
    -0.0124   0.0542   0.1079   0.1993   0.2023   0.2141   0.4197   0.4253
     0.5246   0.6076   0.7340   0.7596   0.7738   0.8777   0.9177   0.9414
     0.9690   1.1329   1.1747   1.4700   1.4716   1.5015   1.5018   1.7265
     2.8912   3.6423   3.6425   3.6784   3.6797   3.9118   3.9162   3.9640
     3.9702   4.0258   4.0499

     the Fermi energy is     3.0502 ev

!    total energy              =   -2972.73816826 Ry
     estimated scf accuracy    <       0.00000005 Ry
     smearing contrib. (-TS)   =      -0.01267644 Ry
     internal energy E=F+TS    =   -2972.72549182 Ry

     The total energy is F=E-TS. E is the sum of the following terms:
     one-electron contribution =  -24071.28266317 Ry
     hartree contribution      =   12129.25075032 Ry
     xc contribution           =    -493.17243550 Ry
     ewald contribution        =    9462.47800331 Ry
     electric field correction =       0.00085323 Ry

     convergence has been achieved in  69 iterations

     Forces acting on atoms (cartesian axes, Ry/au):

     atom    1 type  1   force =     0.00012930   -0.00030374    0.10880343
     atom    2 type  1   force =    -0.00011627   -0.00041415   -0.16775003
     atom    3 type  2   force =    -0.00015681   -0.00000969   -0.04386380
     atom    4 type  2   force =     0.00004880   -0.00075265    0.03933409
     atom    5 type  2   force =    -0.01328738    0.00016648   -0.00457608
     atom    6 type  2   force =     0.01488860    0.00103868   -0.00540059
     atom    7 type  1   force =    -0.00093726   -0.00251137    0.01167434
     atom    8 type  1   force =     0.00124622    0.00154173    0.07746094
     atom    9 type  2   force =    -0.00005210   -0.00014908   -0.00024730
     atom   10 type  2   force =    -0.00115284    0.00038876   -0.05117313
     atom   11 type  2   force =    -0.00007497    0.00036186    0.00009543
     atom   12 type  2   force =    -0.00000126    0.00024768    0.00005730
     atom   13 type  1   force =     0.00046081    0.00001227    0.00004485
     atom   14 type  1   force =    -0.00023848   -0.00008581    0.00015175
     atom   15 type  2   force =    -0.00020610   -0.00011457    0.00040758
     atom   16 type  2   force =     0.00014074    0.00002205   -0.00008335
     atom   17 type  2   force =    -0.00074357    0.00038185   -0.00009634
     atom   18 type  2   force =     0.00037192    0.00033771   -0.00010698
     atom   19 type  1   force =     0.00035647   -0.00011322    0.00004700
     atom   20 type  1   force =    -0.00010688    0.00043418   -0.00010215
     atom   21 type  2   force =     0.00007843    0.00005301    0.10125791
     atom   22 type  2   force =    -0.00007399   -0.00004690   -0.00000501
     atom   23 type  2   force =    -0.07509158   -0.00002457   -0.03017554
     atom   24 type  2   force =     0.07506544    0.00042960   -0.03017399
     atom   25 type  1   force =     0.00020680   -0.00028745    0.10844981
     atom   26 type  1   force =    -0.00009921   -0.00044717   -0.16777006
     atom   27 type  2   force =    -0.00002178   -0.00025331   -0.04286797
     atom   28 type  2   force =     0.00011485   -0.00047113    0.03869535
     atom   29 type  2   force =    -0.01360900    0.00094669   -0.00480652
     atom   30 type  2   force =     0.01514398    0.00120916   -0.00568399
     atom   31 type  1   force =    -0.00125736    0.00051066    0.00737131
     atom   32 type  1   force =     0.00133003   -0.00408591    0.07789564
     atom   33 type  2   force =    -0.00005633    0.00012463   -0.00027509
     atom   34 type  2   force =    -0.00138204    0.00034772   -0.05722920
     atom   35 type  2   force =    -0.00000857   -0.00050062   -0.00004351
     atom   36 type  2   force =    -0.00034809   -0.00022277   -0.00014502
     atom   37 type  1   force =    -0.00006836   -0.00001813   -0.00026497
     atom   38 type  1   force =    -0.00019409    0.00021390   -0.00012682
     atom   39 type  2   force =     0.00000823   -0.00002541   -0.00049763
     atom   40 type  2   force =    -0.00000815    0.00028711    0.00022660
     atom   41 type  2   force =    -0.00006507   -0.00014306    0.00002946
     atom   42 type  2   force =    -0.00027049    0.00004919   -0.00000882
     atom   43 type  1   force =     0.00030327    0.00073818    0.00020471
     atom   44 type  1   force =    -0.00009842    0.00009781    0.00019929
     atom   45 type  2   force =     0.00006745    0.00004159    0.10121042
     atom   46 type  2   force =    -0.07507735    0.00004067   -0.03013400
     atom   47 type  2   force =     0.07505446    0.00047460   -0.03014667
     atom   48 type  3   force =     0.00005875    0.00004367    0.00030673
     atom   49 type  3   force =     0.00018838    0.00016575    0.00003574
     atom   50 type  4   force =    -0.00016523    0.00007568    0.00000549
     atom   51 type  5   force =     0.00021978    0.00053055   -0.00022210
     atom   52 type  5   force =    -0.00020991   -0.00017174    0.00002966
     atom   53 type  2   force =     0.00859924    0.00700880    0.00377754
     atom   54 type  5   force =    -0.00819396   -0.00707096   -0.00336867
     atom   55 type  5   force =    -0.00070905   -0.00009877   -0.00042707

     Total force =     0.390836     Total SCF correction =     0.000733
  @ DRIVER MODE: Message from server: STATUS
  @ DRIVER MODE: Message from server: GETFORCE
  @ DRIVER MODE: Returning v,forces,stress,ensemble

     Writing output data file ./calc.save/
  @ DRIVER MODE: Message from server: EXIT
  @ DRIVE MODE: Exiting

     General routines

     Parallel routines

   This run was terminated on:   5: 3:48  16Sep2021

   JOB DONE.