     Program PWSCF v.6.7GPU starts on 14Sep2021 at 17:26:19

     R & G space division:  proc/nbgrp/npool/nimage =      10
     Reading input from /storage/home/hcoda1/3/ntian30/research/carbon/CxH_vib/CH2_calc/ads_slab/CH2OHN2_a/out_0011/pw.inp
Warning: card &CELL ignored
Warning: card   CELL_DYNAMICS='IPI', ignored
Warning: card / ignored

     Current dimensions of program PWSCF are:
     Max number of different atomic species (ntypx) = 10
     Max number of k-points (npk) =  40000
     Max angular momentum in pseudopotentials (lmaxx) =  3
     Presently no symmetry can be used with electric field

     Message from routine cell_base_init:
     DEPRECATED: use true lattice parameter, not A to a.u. conversion factor

     IMPORTANT: XC functional enforced from input :
     Exchange-correlation= BEEF-VDW
                           (   1   4  43  14   2   0   0)
     Any further DFT definition will be discarded
     Please, verify this is what you really want

  @ DRIVER MODE: Connecting to
 qe_1139763_2840440.sched-torque.pace.gatech.eduxhv9mubl_scratch
  using UNIX socket
  @ DRIVER MODE: Message from server: STATUS
  @ DRIVER MODE: Message from server: INIT
  @ DRIVER MODE: Receiving replica           0          -1
  @ DRIVER MODE: Receiving encoded integer          25
  @ DRIVER MODE:  SCF:  T  FORCE:  T  STRESS:  F  VC:  F  ENSEMBLE:  F
  @ DRIVER MODE:  SCF:  T  FORCE:  T  STRESS:  F  VC:  F  ENSEMBLE:  F

     Using Slab Decomposition

     bravais-lattice index     =            0
     lattice parameter (alat)  =       1.8897  a.u.
     unit-cell volume          =    6658.9804 (a.u.)^3
     number of atoms/cell      =           54
     number of atomic types    =            5
     number of electrons       =       401.00
     number of Kohn-Sham states=          210
     kinetic-energy cutoff     =      29.3995  Ry
     charge density cutoff     =     293.9946  Ry
     scf convergence threshold =      7.3E-08
     mixing beta               =       0.0500
     number of iterations used =            8  plain     mixing
     Exchange-correlation= BEEF-VDW
                           (   1   4  43  14   2   0   0)

     celldm(1)=   1.889726  celldm(2)=   0.000000  celldm(3)=   0.000000
     celldm(4)=   0.000000  celldm(5)=   0.000000  celldm(6)=   0.000000

     crystal axes: (cart. coord. in units of alat)
               a(1) = (   6.579727   0.000000   0.000000 )
               a(2) = (  -0.000775   5.961596   0.000000 )
               a(3) = (   0.000000   0.000000  25.155947 )

     reciprocal axes: (cart. coord. in units 2 pi/alat)
               b(1) = (  0.151982  0.000020  0.000000 )
               b(2) = (  0.000000  0.167740  0.000000 )
               b(3) = (  0.000000  0.000000  0.039752 )

     PseudoPot. # 1 for C  read from file:
     /storage/coda1/p-amedford6/0/shared/rich_project_chbe-medford/medford-share/data/pseudos_module/espresso/nninc/pbe/van/C.UPF
     MD5 check sum: 1a69bf6b8db32088f5b2163dbdb77a27
     Pseudo is Ultrasoft, Zval =  4.0
     Generated by new atomic code, or converted to UPF format
     Using radial grid of  721 points,  4 beta functions with:
                l(1) =   0
                l(2) =   0
                l(3) =   1
                l(4) =   1
     Q(r) pseudized with  8 coefficients,  rinner =    0.800   0.800   0.800

     PseudoPot. # 2 for H  read from file:
     /storage/coda1/p-amedford6/0/shared/rich_project_chbe-medford/medford-share/data/pseudos_module/espresso/nninc/pbe/van/H.UPF
     MD5 check sum: b5ee9d7bfd3a09ee7748110bda690ff7
     Pseudo is Ultrasoft, Zval =  1.0
     Generated by new atomic code, or converted to UPF format
     Using radial grid of  615 points,  1 beta functions with:
                l(1) =   0
     Q(r) pseudized with  8 coefficients,  rinner =    0.800

     PseudoPot. # 3 for O  read from file:
     /storage/coda1/p-amedford6/0/shared/rich_project_chbe-medford/medford-share/data/pseudos_module/espresso/nninc/pbe/van/O.UPF
     MD5 check sum: 78c19812648e8988a0fe644b0f25305e
     Pseudo is Ultrasoft, Zval =  6.0
     Generated by new atomic code, or converted to UPF format
     Using radial grid of  737 points,  4 beta functions with:
                l(1) =   0
                l(2) =   0
                l(3) =   1
                l(4) =   1
     Q(r) pseudized with  8 coefficients,  rinner =    0.800   0.800   0.800

     PseudoPot. # 4 for Ti read from file:
     /storage/coda1/p-amedford6/0/shared/rich_project_chbe-medford/medford-share/data/pseudos_module/espresso/nninc/pbe/van/Ti.UPF
     MD5 check sum: 8e4df49b7f0d34bbd5052bf3f5ea0213
     Pseudo is Ultrasoft, Zval = 12.0
     Generated by new atomic code, or converted to UPF format
     Using radial grid of  851 points,  6 beta functions with:
                l(1) =   0
                l(2) =   0
                l(3) =   1
                l(4) =   1
                l(5) =   2
                l(6) =   2
     Q(r) pseudized with  8 coefficients,  rinner =    1.000   1.000   1.000
                                                       1.000   1.000

     PseudoPot. # 5 for N  read from file:
     /storage/coda1/p-amedford6/0/shared/rich_project_chbe-medford/medford-share/data/pseudos_module/espresso/nninc/pbe/van/N.UPF
     MD5 check sum: 90d10febe142ad51ac9d5be1deb811c4
     Pseudo is Ultrasoft, Zval =  5.0
     Generated by new atomic code, or converted to UPF format
     Using radial grid of  729 points,  4 beta functions with:
                l(1) =   0
                l(2) =   0
                l(3) =   1
                l(4) =   1
     Q(r) pseudized with  8 coefficients,  rinner =    0.800   0.800   0.800

     atomic species   valence    mass     pseudopotential
        C1             4.00    12.01100     C ( 1.00)
        H1             1.00     1.00800     H ( 1.00)
        O1             6.00    15.99900     O ( 1.00)
        Ti1           12.00    47.86700     Ti( 1.00)
        N1             5.00    14.00700     N ( 1.00)

     No symmetry found

   Cartesian axes

     site n.     atom                  positions (alat units)
         1           C1  tau(   1) = (   5.1764158   1.5385028  19.8564928  )
         2           H1  tau(   2) = (   4.2418317   1.4168958  19.3325039  )
         3           H1  tau(   3) = (   6.1328006   2.9100337  18.2018079  )
         4           H1  tau(   4) = (   6.0297582   0.9181690  19.6386741  )
         5           O1  tau(   5) = (   0.0006271   0.0005054   7.9858123  )
         6           O1  tau(   6) = (   3.2906025   0.0005020   7.3038282  )
         7           O1  tau(   7) = (   4.5942328   1.4918067   9.2879030  )
         8           O1  tau(   8) = (   1.9868534   1.4903216   9.2879459  )
         9           O1  tau(   9) = (   3.2696825   0.0177092  11.3460806  )
        10           O1  tau(  10) = (   6.5743896   0.0111799  10.6115589  )
        11           O1  tau(  11) = (   1.2770957   1.5070501  12.6511825  )
        12           O1  tau(  12) = (   5.2749141   1.5057152  12.6378801  )
        13           O1  tau(  13) = (   6.5263050   0.0247340  14.7317399  )
        14           O1  tau(  14) = (   3.2747511   0.0213673  13.9312909  )
        15           O1  tau(  15) = (   4.4933390   1.5239927  16.1070736  )
        16           O1  tau(  16) = (   2.0026543   1.5217075  16.0711130  )
        17           O1  tau(  17) = (   3.2904802   0.0005063   4.7018136  )
        18           O1  tau(  18) = (   6.5469758   0.0421337  17.2556835  )
        19           O1  tau(  19) = (   1.3043587   1.4918075   6.0039043  )
        20           O1  tau(  20) = (   5.2767064   1.4903225   6.0039473  )
        21           O1  tau(  21) = (   0.0002396   2.9813036   7.9858123  )
        22           O1  tau(  22) = (   3.2902150   2.9813002   7.3038282  )
        23           O1  tau(  23) = (   4.5938453   4.4726049   9.2879030  )
        24           O1  tau(  24) = (   1.9864658   4.4711199   9.2879459  )
        25           O1  tau(  25) = (   3.2722311   3.0011533  11.3472759  )
        26           O1  tau(  26) = (   6.5787409   2.9955660  10.5677177  )
        27           O1  tau(  27) = (   1.2755865   4.4883074  12.6550720  )
        28           O1  tau(  28) = (   5.2773609   4.4903743  12.6413705  )
        29           O1  tau(  29) = (   6.5451067   2.9841024  14.7029789  )
        30           O1  tau(  30) = (   3.2773495   3.0062142  13.9304278  )
        31           O1  tau(  31) = (   4.4941242   4.5002890  16.1165364  )
        32           O1  tau(  32) = (   2.0016379   4.5015838  16.0818063  )
        33           O1  tau(  33) = (   3.2900926   2.9813045   4.7018136  )
        34           O1  tau(  34) = (   1.3039711   4.4726057   6.0039043  )
        35           O1  tau(  35) = (   5.2763189   4.4711207   6.0039473  )
        36           O1  tau(  36) = (   6.5536212   3.0044252  17.3297899  )
        37           Ti1 tau(  37) = (   0.0004258   2.9801865   6.0000000  )
        38           Ti1 tau(  38) = (   3.2906075   1.4906267   6.0002472  )
        39           Ti1 tau(  39) = (   3.3348906   3.0327224   9.1579215  )
        40           Ti1 tau(  40) = (   0.0203972   1.6099837   9.3624797  )
        41           Ti1 tau(  41) = (   6.5380572   3.0081639  12.8251979  )
        42           Ti1 tau(  42) = (   3.2225065   1.5141752  12.4854623  )
        43           Ti1 tau(  43) = (   3.2525775   3.0161725  15.7233172  )
        44           Ti1 tau(  44) = (   6.5465844   1.4469101  15.9770741  )
        45           Ti1 tau(  45) = (   0.0000382   5.9609847   6.0000000  )
        46           Ti1 tau(  46) = (   3.2902200   4.4714249   6.0002472  )
        47           Ti1 tau(  47) = (   3.2831171   0.0558662   9.1532617  )
        48           Ti1 tau(  48) = (   0.0294011   4.5318189   9.2743274  )
        49           Ti1 tau(  49) = (   6.5160019   0.0223579  12.5145727  )
        50           Ti1 tau(  50) = (   3.2207252   4.4944464  12.4919313  )
        51           Ti1 tau(  51) = (   3.2545639   0.0336594  15.7221480  )
        52           Ti1 tau(  52) = (   6.5427997   4.6104004  16.1309301  )
        53           N1  tau(  53) = (   5.0796009   2.6163306  22.0446247  )
        54           N1  tau(  54) = (   5.1188049   2.0915644  21.0330699  )

     number of k points=    10  Fermi-Dirac smearing, width (Ry)=  0.0073
                       cart. coord. in units 2pi/alat
        k(    1) = (   0.0000000   0.0000000   0.0000000), wk =   0.1250000
        k(    2) = (   0.0000000   0.0419351   0.0000000), wk =   0.2500000
        k(    3) = (   0.0000000  -0.0838702   0.0000000), wk =   0.1250000
        k(    4) = (   0.0379955   0.0000049   0.0000000), wk =   0.2500000
        k(    5) = (   0.0379955   0.0419400   0.0000000), wk =   0.2500000
        k(    6) = (   0.0379955  -0.0838652   0.0000000), wk =   0.2500000
        k(    7) = (   0.0379955  -0.0419301   0.0000000), wk =   0.2500000
        k(    8) = (  -0.0759910  -0.0000099   0.0000000), wk =   0.1250000
        k(    9) = (  -0.0759910   0.0419252   0.0000000), wk =   0.2500000
        k(   10) = (  -0.0759910  -0.0838800   0.0000000), wk =   0.1250000

     Initial potential from superposition of free atoms

     starting charge  384.99916, renormalised to  401.00000

     negative rho (up, down):  1.197E-02 0.000E+00

     %%%%%%%%%%%%%%%%%%%%%%%%%%%%%%%%%%%%%%%%%%%%%%%%%%%%%%%%%%%%%%%%%%%%%%%%
     %                                                                      %
     % You are using vdW-DF, which was implemented by the Thonhauser group. %
     % Please cite the following two papers that made this development      %
     % possible and the two reviews that describe the various versions:     %
     %                                                                      %
     %   T. Thonhauser et al., PRL 115, 136402 (2015).                      %
     %   T. Thonhauser et al., PRB 76, 125112 (2007).                       %
     %   K. Berland et al., Rep. Prog. Phys. 78, 066501 (2015).             %
     %   D.C. Langreth et al., J. Phys.: Condens. Matter 21, 084203 (2009). %
     %                                                                      %
     %                                                                      %
     % If you are calculating the stress with vdW-DF, please also cite:     %
     %                                                                      %
     %   R. Sabatini et al., J. Phys.: Condens. Matter 24, 424209 (2012).   %
     %                                                                      %
     %%%%%%%%%%%%%%%%%%%%%%%%%%%%%%%%%%%%%%%%%%%%%%%%%%%%%%%%%%%%%%%%%%%%%%%%

     Adding external electric field

     Computed dipole along edir(3) :
        Dipole              -14.1065 Ry au,        -35.8550 Debye
        Dipole field         -0.0266 Ry au,

        Potential amp.        2.4677 Ry
        Total length         46.3494 bohr

     Starting wfcs are  303 atomic wfcs
  @ DRIVER MODE: Message from server: STATUS
  @ DRIVER MODE: Message from server: POSDATA
  @ DRIVER MODE: Reading and sharing cell
  @ DRIVER MODE: Reading and sharing positions
  @ DRIVER MODE: Received positions

     Self-consistent Calculation

     iteration #  1     ecut=    29.40 Ry     beta= 0.05
     Davidson diagonalization with overlap
     c_bands:  4 eigenvalues not converged
     c_bands:  4 eigenvalues not converged
     c_bands:  4 eigenvalues not converged
     c_bands:  2 eigenvalues not converged
     c_bands:  5 eigenvalues not converged
     c_bands:  5 eigenvalues not converged
     c_bands:  4 eigenvalues not converged
     c_bands:  3 eigenvalues not converged
     c_bands:  5 eigenvalues not converged
     ethr =  1.00E-05,  avg # of iterations = 22.0

[...]

     total energy              =   -2409.86308891 Ry
     estimated scf accuracy    <    6386.11081310 Ry

     iteration #  2     ecut=    29.40 Ry     beta= 0.05
     Davidson diagonalization with overlap
     ethr =  1.00E-02,  avg # of iterations = 22.8

[...]

     iteration # 71     ecut=    29.40 Ry     beta= 0.05
     Davidson diagonalization with overlap
     c_bands:  1 eigenvalues not converged
     ethr =  1.27E-09,  avg # of iterations = 10.8

[...]

     total energy              =   -2971.53804164 Ry
     estimated scf accuracy    <       0.00000010 Ry

     iteration # 79     ecut=    29.40 Ry     beta= 0.05
     Davidson diagonalization with overlap
     ethr =  2.56E-11,  avg # of iterations = 10.4

     negative rho (up, down):  1.326E-02 0.000E+00

     Adding external electric field

     Computed dipole along edir(3) :
        Dipole                0.4368 Ry au,          1.1103 Debye
        Dipole field          0.0008 Ry au,

        Potential amp.       -0.0764 Ry
        Total length         46.3494 bohr

     End of self-consistent calculation

          k = 0.0000 0.0000 0.0000 ( 18029 PWs)   bands (ev):

   -55.7653 -55.7553 -55.7283 -55.7190 -55.6672 -55.6510 -55.6270 -55.5935
   -55.5906 -55.5745 -55.5457 -55.5195 -55.4859 -55.4233 -54.7782 -54.7442
   -32.3193 -32.2330 -32.1926 -32.1122 -32.0852 -32.0687 -32.0581 -32.0373
   -31.9993 -31.9949 -31.9770 -31.9693 -31.9632 -31.9365 -31.9255 -31.9175
   -31.9153 -31.8991 -31.8916 -31.8650 -31.8551 -31.8313 -31.8303 -31.8214
   -31.8082 -31.8069 -31.7795 -31.7774 -31.7736 -31.7695 -31.7611 -31.7605
   -31.7436 -31.7423 -31.7286 -31.7011 -31.6962 -31.6646 -31.6461 -31.6265
   -31.6110 -31.6085 -31.1880 -31.0909 -31.0686 -31.0047 -30.9186 -30.8075
   -20.7384 -16.9936 -16.5029 -16.2109 -16.0383 -15.9201 -15.8852 -15.7843
   -15.6038 -15.4578 -15.4388 -15.3758 -15.3341 -15.3226 -15.2922 -15.2860
   -15.2759 -15.2702 -15.2149 -15.1969 -15.1796 -15.1677 -15.1464 -15.1035
   -15.0476 -14.9671 -14.9215 -14.8831 -14.8573 -14.7690 -14.7490 -13.9411
   -13.2788 -13.1606  -6.5444  -5.5854  -4.9764  -4.5155  -3.8657  -3.6880
    -3.6687  -3.6540  -3.5762  -3.5092  -3.3287  -3.3232  -3.0153  -2.9394
    -2.9052  -2.9039  -2.8935  -2.7078  -2.6438  -2.6021  -2.5931  -2.5771
    -2.5740  -2.5500  -2.5275  -2.5211  -2.4894  -2.4699  -2.4625  -2.3216
    -2.2940  -2.1792  -2.1620  -2.1462  -2.0836  -2.0659  -2.0363  -2.0140
    -2.0032  -1.9892  -1.9771  -1.9365  -1.8510  -1.8255  -1.7016  -1.5955
    -1.5588  -1.4647  -1.3130  -1.2451  -1.2263  -1.1886  -1.1662  -1.1469
    -1.1083  -1.0798  -1.0247  -0.9624  -0.9571  -0.8541  -0.7827  -0.7501
    -0.6684  -0.6429  -0.6253  -0.5084  -0.4883  -0.4772  -0.2985  -0.2465
    -0.2328  -0.2282  -0.1026  -0.0584  -0.0249  -0.0107   0.0137   0.0478
     0.0978   0.1428   0.1960   0.2216   0.2352   0.2405   0.2685   0.2844
     0.4041   0.4224   0.4365   0.5415   0.5612   0.7564   0.7682   0.8808
     0.9848   1.1499   1.2462   1.3136   1.4170   1.7248   1.8352   1.8955
     3.4231   3.4555   3.4857   3.5056   3.5693   3.6933   3.8112   3.8589
     3.8812   3.9021

[...]

          k = 0.0380-0.0419 0.0000 ( 17876 PWs)   bands (ev):

[...]

          k =-0.0760-0.0000 0.0000 ( 17886 PWs)   bands (ev):

[...]

          k =-0.0760-0.0839 0.0000 ( 17948 PWs)   bands (ev):

   -55.7540 -55.7394 -55.7382 -55.7358 -55.6637 -55.6461 -55.6149 -55.6026
   -55.5984 -55.5776 -55.5430 -55.5034 -55.5021 -55.4257 -54.7617 -54.7606
   -32.1230 -32.1187 -32.0926 -32.0569 -32.0463 -32.0414 -32.0250 -32.0227
   -32.0173 -31.9785 -31.9565 -31.9486 -31.9463 -31.9098 -31.9028 -31.8973
   -31.8876 -31.8859 -31.8802 -31.8729 -31.8708 -31.8594 -31.8551 -31.8479
   -31.8417 -31.8278 -31.8227 -31.8128 -31.8071 -31.8066 -31.7996 -31.7811
   -31.7729 -31.7654 -31.7599 -31.7541 -31.7412 -31.7243 -31.7090 -31.7022
   -31.6535 -31.6182 -31.0819 -31.0806 -31.0014 -31.0006 -30.9622 -30.9612
   -20.7382 -16.9285 -15.9441 -15.9352 -15.7064 -15.6876 -15.6835 -15.6151
   -15.5261 -15.5053 -15.4855 -15.4809 -15.4287 -15.4145 -15.4065 -15.3399
   -15.3119 -15.2878 -15.2707 -15.2689 -15.2155 -15.2106 -15.1673 -15.1375
   -15.1231 -15.1160 -15.0967 -15.0924 -15.0409 -14.9920 -14.9245 -13.9410
   -13.2630 -13.2606  -6.5386  -5.5878  -4.9154  -4.5143  -3.5087  -3.2359
    -3.2250  -2.9672  -2.9129  -2.8999  -2.8198  -2.7554  -2.7006  -2.6481
    -2.6180  -2.6100  -2.5989  -2.5885  -2.5852  -2.5709  -2.5653  -2.5487
    -2.5271  -2.5147  -2.4579  -2.4384  -2.4118  -2.3990  -2.3887  -2.3782
    -2.3418  -2.3230  -2.3114  -2.2959  -2.2936  -2.2046  -2.0686  -2.0157
    -1.9168  -1.9052  -1.8869  -1.8537  -1.8298  -1.8155  -1.7981  -1.7429
    -1.7275  -1.5660  -1.4968  -1.4794  -1.4614  -1.4250  -1.3666  -1.2721
    -1.2455  -1.1830  -1.1728  -1.1287  -1.0689  -0.9899  -0.9707  -0.9300
    -0.8726  -0.8352  -0.7786  -0.7442  -0.7231  -0.7157  -0.6646  -0.6085
    -0.5690  -0.5124  -0.4882  -0.4253  -0.3859  -0.3441  -0.2917  -0.2558
    -0.2228  -0.1165   0.0036   0.1264   0.1929   0.2659   0.2806   0.3079
     0.3287   0.4481   0.4775   0.5056   0.5450   0.6316   0.6802   0.7513
     0.7717   0.7977   0.8580   1.6065   1.6077   1.6973   1.7081   1.7281
     3.6222   3.6574   3.6754   3.7270   3.8791   3.8853   3.9027   3.9117
     3.9675   4.0431

     the Fermi energy is     3.3893 ev

!    total energy              =   -2971.53804880 Ry
     estimated scf accuracy    <       0.00000005 Ry
     smearing contrib. (-TS)   =      -0.02329642 Ry
     internal energy E=F+TS    =   -2971.51475238 Ry

     The total energy is F=E-TS. E is the sum of the following terms:
     one-electron contribution =  -22752.97747294 Ry
     hartree contribution      =   11467.54672430 Ry
     xc contribution           =    -492.33357697 Ry
     ewald contribution        =    8806.24921315 Ry
     electric field correction =       0.00036008 Ry

     convergence has been achieved in  79 iterations

     Forces acting on atoms (cartesian axes, Ry/au):

     atom    1 type  1   force =    -0.00064248    0.00095618    0.00073855
     atom    2 type  2   force =    -0.00046172    0.00082777   -0.00061061
     atom    3 type  2   force =    -0.00142319   -0.00070938   -0.00051692
     atom    4 type  2   force =     0.00082223   -0.00050679   -0.00026741
     atom    5 type  3   force =     0.00034597   -0.00684742   -0.03279614
     atom    6 type  3   force =    -0.00002193    0.00055130    0.04547338
     atom    7 type  3   force =    -0.02017589    0.00044206    0.00462923
     atom    8 type  3   force =     0.01786219   -0.00166543    0.00425662
     atom    9 type  3   force =     0.00014969    0.00000224   -0.00034303
     atom   10 type  3   force =    -0.00003590    0.00016039   -0.00109450
     atom   11 type  3   force =     0.00020270   -0.00020253   -0.00081394
     atom   12 type  3   force =     0.00056298    0.00003281   -0.00068781
     atom   13 type  3   force =     0.00031609    0.00000133    0.00094074
     atom   14 type  3   force =     0.00035349    0.00020939   -0.00016408
     atom   15 type  3   force =    -0.00048842   -0.00005748    0.00037145
     atom   16 type  3   force =     0.00053025   -0.00001861    0.00010156
     atom   17 type  3   force =     0.00003557    0.00005553    0.10418860
     atom   18 type  3   force =    -0.00012030    0.00011264    0.00087982
     atom   19 type  3   force =    -0.06897678    0.00070544   -0.02963175
     atom   20 type  3   force =     0.06875183    0.00127251   -0.02962322
     atom   21 type  3   force =     0.00039822    0.00382613   -0.02771763
     atom   22 type  3   force =     0.00085447    0.00084802    0.04719447
     atom   23 type  3   force =    -0.01769605    0.00155779    0.00387420
     atom   24 type  3   force =     0.01738932    0.00239871    0.00340325
     atom   25 type  3   force =    -0.00015017   -0.00019489   -0.00012798
     atom   26 type  3   force =     0.00017421   -0.00003640    0.00041754
     atom   27 type  3   force =    -0.00028918   -0.00003940   -0.00024628
     atom   28 type  3   force =     0.00007992   -0.00011827    0.00005527
     atom   29 type  3   force =     0.00010554   -0.00052222   -0.00020476
     atom   30 type  3   force =    -0.00020287   -0.00034209    0.00019614
     atom   31 type  3   force =    -0.00060592   -0.00018459    0.00005439
     atom   32 type  3   force =     0.00019218   -0.00028053   -0.00035326
     atom   33 type  3   force =     0.00004419    0.00003354    0.10427553
     atom   34 type  3   force =    -0.06855974   -0.00135381   -0.02966955
     atom   35 type  3   force =     0.06844412   -0.00098033   -0.02964953
     atom   36 type  3   force =     0.00110430    0.00048982    0.00027892
     atom   37 type  4   force =    -0.00004208   -0.00159203    0.10604093
     atom   38 type  4   force =    -0.00016754    0.00073313   -0.17972661
     atom   39 type  4   force =    -0.00039400   -0.00000496   -0.00016023
     atom   40 type  4   force =     0.00001887    0.00158794   -0.00166032
     atom   41 type  4   force =    -0.00013908    0.00055437    0.00040786
     atom   42 type  4   force =    -0.00014896    0.00004961    0.00061080
     atom   43 type  4   force =    -0.00013300   -0.00020501   -0.00031891
     atom   44 type  4   force =     0.00054128   -0.00075924   -0.00132755
     atom   45 type  4   force =     0.00002225    0.00121224    0.11802771
     atom   46 type  4   force =    -0.00000601   -0.00033344   -0.18000307
     atom   47 type  4   force =     0.00032597   -0.00000173   -0.00042227
     atom   48 type  4   force =    -0.00000101   -0.00149807   -0.00226300
     atom   49 type  4   force =     0.00048721    0.00057903    0.00478666
     atom   50 type  4   force =     0.00012655    0.00007451   -0.00040460
     atom   51 type  4   force =     0.00038495   -0.00078333   -0.00014017
     atom   52 type  4   force =     0.00085501   -0.00002415   -0.00023915
     atom   53 type  5   force =     0.00067307    0.00130936    0.00006956
     atom   54 type  5   force =    -0.00127239   -0.00132166   -0.00008890

     Total force =     0.376411     Total SCF correction =     0.000639
  @ DRIVER MODE: Message from server: STATUS
  @ DRIVER MODE: Message from server: GETFORCE
  @ DRIVER MODE: Returning v,forces,stress,ensemble

     Writing output data file ./calc.save/
  @ DRIVER MODE: Message from server: EXIT
  @ DRIVE MODE: Exiting

     General routines

     Parallel routines

   This run was terminated on:  17:47:42  14Sep2021

   JOB DONE.