     Program PWSCF v.6.7GPU starts on  9Sep2021 at  4:49: 0

     R & G space division:  proc/nbgrp/npool/nimage =      10
     Reading input from /storage/home/hcoda1/3/ntian30/research/carbon/CxH_vib/CH_calc/ads_slab/CHN2_c/out_0022/pw.inp
Warning: card &CELL ignored
Warning: card   CELL_DYNAMICS='IPI', ignored
Warning: card / ignored

     Current dimensions of program PWSCF are:
     Max number of different atomic species (ntypx) = 10
     Max number of k-points (npk) =  40000
     Max angular momentum in pseudopotentials (lmaxx) =  3
     Presently no symmetry can be used with electric field

     Message from routine cell_base_init:
     DEPRECATED: use true lattice parameter, not A to a.u. conversion factor

     IMPORTANT: XC functional enforced from input :
     Exchange-correlation= BEEF-VDW
                           (   1   4  43  14   2   0   0)
     Any further DFT definition will be discarded
     Please, verify this is what you really want

  @ DRIVER MODE: Connecting to
 qe_1139763_2767377.sched-torque.pace.gatech.educww1ydkm_scratch
  using UNIX socket
  @ DRIVER MODE: Message from server: STATUS
  @ DRIVER MODE: Message from server: INIT
  @ DRIVER MODE: Receiving replica           0          -1
  @ DRIVER MODE: Receiving encoded integer          25
  @ DRIVER MODE:  SCF:  T  FORCE:  T  STRESS:  F  VC:  F  ENSEMBLE:  F
  @ DRIVER MODE:  SCF:  T  FORCE:  T  STRESS:  F  VC:  F  ENSEMBLE:  F

     Using Slab Decomposition

     bravais-lattice index     =            0
     lattice parameter (alat)  =       1.8897  a.u.
     unit-cell volume          =    6658.9804 (a.u.)^3
     number of atoms/cell      =           51
     number of atomic types    =            5
     number of electrons       =       393.00
     number of Kohn-Sham states=          206
     kinetic-energy cutoff     =      29.3995  Ry
     charge density cutoff     =     293.9946  Ry
     scf convergence threshold =      7.3E-08
     mixing beta               =       0.0500
     number of iterations used =            8  plain     mixing
     Exchange-correlation= BEEF-VDW
                           (   1   4  43  14   2   0   0)

     celldm(1)=   1.889726  celldm(2)=   0.000000  celldm(3)=   0.000000
     celldm(4)=   0.000000  celldm(5)=   0.000000  celldm(6)=   0.000000

     crystal axes: (cart. coord. in units of alat)
               a(1) = (   6.579727   0.000000   0.000000 )
               a(2) = (  -0.000775   5.961596   0.000000 )
               a(3) = (   0.000000   0.000000  25.155947 )

     reciprocal axes: (cart. coord. in units 2 pi/alat)
               b(1) = (  0.151982  0.000020  0.000000 )
               b(2) = (  0.000000  0.167740  0.000000 )
               b(3) = (  0.000000  0.000000  0.039752 )

     PseudoPot. # 1 for Ti read from file:
     /storage/coda1/p-amedford6/0/shared/rich_project_chbe-medford/medford-share/data/pseudos_module/espresso/nninc/pbe/van/Ti.UPF
     MD5 check sum: 8e4df49b7f0d34bbd5052bf3f5ea0213
     Pseudo is Ultrasoft, Zval = 12.0
     Generated by new atomic code, or converted to UPF format
     Using radial grid of  851 points,  6 beta functions with:
                l(1) =   0
                l(2) =   0
                l(3) =   1
                l(4) =   1
                l(5) =   2
                l(6) =   2
     Q(r) pseudized with  8 coefficients,  rinner =    1.000   1.000   1.000
                                                       1.000   1.000

     PseudoPot. # 2 for O  read from file:
     /storage/coda1/p-amedford6/0/shared/rich_project_chbe-medford/medford-share/data/pseudos_module/espresso/nninc/pbe/van/O.UPF
     MD5 check sum: 78c19812648e8988a0fe644b0f25305e
     Pseudo is Ultrasoft, Zval =  6.0
     Generated by new atomic code, or converted to UPF format
     Using radial grid of  737 points,  4 beta functions with:
                l(1) =   0
                l(2) =   0
                l(3) =   1
                l(4) =   1
     Q(r) pseudized with  8 coefficients,  rinner =    0.800   0.800   0.800

     PseudoPot. # 3 for C  read from file:
     /storage/coda1/p-amedford6/0/shared/rich_project_chbe-medford/medford-share/data/pseudos_module/espresso/nninc/pbe/van/C.UPF
     MD5 check sum: 1a69bf6b8db32088f5b2163dbdb77a27
     Pseudo is Ultrasoft, Zval =  4.0
     Generated by new atomic code, or converted to UPF format
     Using radial grid of  721 points,  4 beta functions with:
                l(1) =   0
                l(2) =   0
                l(3) =   1
                l(4) =   1
     Q(r) pseudized with  8 coefficients,  rinner =    0.800   0.800   0.800

     PseudoPot. # 4 for H  read from file:
     /storage/coda1/p-amedford6/0/shared/rich_project_chbe-medford/medford-share/data/pseudos_module/espresso/nninc/pbe/van/H.UPF
     MD5 check sum: b5ee9d7bfd3a09ee7748110bda690ff7
     Pseudo is Ultrasoft, Zval =  1.0
     Generated by new atomic code, or converted to UPF format
     Using radial grid of  615 points,  1 beta functions with:
                l(1) =   0
     Q(r) pseudized with  8 coefficients,  rinner =    0.800

     PseudoPot. # 5 for N  read from file:
     /storage/coda1/p-amedford6/0/shared/rich_project_chbe-medford/medford-share/data/pseudos_module/espresso/nninc/pbe/van/N.UPF
     MD5 check sum: 90d10febe142ad51ac9d5be1deb811c4
     Pseudo is Ultrasoft, Zval =  5.0
     Generated by new atomic code, or converted to UPF format
     Using radial grid of  729 points,  4 beta functions with:
                l(1) =   0
                l(2) =   0
                l(3) =   1
                l(4) =   1
     Q(r) pseudized with  8 coefficients,  rinner =    0.800   0.800   0.800

     atomic species   valence    mass     pseudopotential
        Ti1           12.00    47.86700     Ti( 1.00)
        O1             6.00    15.99900     O ( 1.00)
        C1             4.00    12.01100     C ( 1.00)
        H1             1.00     1.00800     H ( 1.00)
        N1             5.00    14.00700     N ( 1.00)

     No symmetry found

   Cartesian axes

     site n.     atom                  positions (alat units)
         1           Ti1 tau(   1) = (   0.0004258   2.9801865   6.0000000  )
         2           Ti1 tau(   2) = (   3.2906075   1.4906267   6.0002472  )
         3           O1  tau(   3) = (   0.0006271   0.0005054   7.9858123  )
         4           O1  tau(   4) = (   3.2906025   0.0005020   7.3038282  )
         5           O1  tau(   5) = (   4.5942328   1.4918067   9.2879030  )
         6           O1  tau(   6) = (   1.9868534   1.4903216   9.2879459  )
         7           Ti1 tau(   7) = (   3.2907910   2.8959150   9.1758416  )
         8           Ti1 tau(   8) = (   0.0015273   1.4827037   9.2680791  )
         9           O1  tau(   9) = (   3.2947523   5.9577806  11.3289702  )
        10           O1  tau(  10) = (   0.0116148   5.9584955  10.6183126  )
        11           O1  tau(  11) = (   1.2923655   1.4808044  12.6140338  )
        12           O1  tau(  12) = (   5.2760440   1.4916827  12.6110895  )
        13           Ti1 tau(  13) = (   0.0641422   2.9468446  12.6204329  )
        14           Ti1 tau(  14) = (   3.3828727   1.4858934  12.4752560  )
        15           O1  tau(  15) = (   0.0059231   0.0169234  14.6319368  )
        16           O1  tau(  16) = (   3.2943198   0.0056150  13.9184638  )
        17           O1  tau(  17) = (   4.5468153   1.5236546  16.0329375  )
        18           O1  tau(  18) = (   2.0515374   1.5217879  16.0554076  )
        19           Ti1 tau(  19) = (   3.2830080   3.0033146  15.6914404  )
        20           Ti1 tau(  20) = (   0.0154850   1.5188701  15.8391361  )
        21           O1  tau(  21) = (   3.2904802   0.0005063   4.7018136  )
        22           O1  tau(  22) = (   6.5736218   0.0255948  17.1842280  )
        23           O1  tau(  23) = (   1.3043587   1.4918075   6.0039043  )
        24           O1  tau(  24) = (   5.2767064   1.4903225   6.0039473  )
        25           Ti1 tau(  25) = (   0.0000382   5.9609847   6.0000000  )
        26           Ti1 tau(  26) = (   3.2902200   4.4714249   6.0002472  )
        27           O1  tau(  27) = (   0.0002396   2.9813036   7.9858123  )
        28           O1  tau(  28) = (   3.2902150   2.9813002   7.3038282  )
        29           O1  tau(  29) = (   4.5938453   4.4726049   9.2879030  )
        30           O1  tau(  30) = (   1.9864658   4.4711199   9.2879459  )
        31           Ti1 tau(  31) = (   3.2891106   5.8743827   9.1763621  )
        32           Ti1 tau(  32) = (   0.0006254   4.4649316   9.2693709  )
        33           O1  tau(  33) = (   3.2953046   2.9833475  11.3259646  )
        34           O1  tau(  34) = (   0.0092240   2.9805883  10.6323155  )
        35           O1  tau(  35) = (   1.2912205   4.4696366  12.6263023  )
        36           O1  tau(  36) = (   5.2799819   4.4751186  12.6219323  )
        37           Ti1 tau(  37) = (   0.0684868   5.9252938  12.5505524  )
        38           Ti1 tau(  38) = (   3.3848087   4.4651122  12.4793038  )
        39           O1  tau(  39) = (   0.0176302   2.9443755  14.6544446  )
        40           O1  tau(  40) = (   3.2854840   2.9900965  13.8959901  )
        41           O1  tau(  41) = (   4.5427396   4.4796010  16.0582459  )
        42           O1  tau(  42) = (   2.0519076   4.4830995  16.0738147  )
        43           Ti1 tau(  43) = (   3.3192208   0.0178015  15.7165103  )
        44           Ti1 tau(  44) = (   0.0190484   4.6579992  16.0750729  )
        45           O1  tau(  45) = (   3.2900926   2.9813045   4.7018136  )
        46           O1  tau(  46) = (   1.3039711   4.4726057   6.0039043  )
        47           O1  tau(  47) = (   5.2763189   4.4711207   6.0039473  )
        48           C1  tau(  48) = (   0.0285071   2.9528277  17.6086602  )
        49           H1  tau(  49) = (   0.9556717   2.9086103  18.1759260  )
        50           N1  tau(  50) = (   5.5646879   2.9115633  18.3869838  )
        51           N1  tau(  51) = (   4.5815072   2.8827048  18.9619008  )

     number of k points=    10  Fermi-Dirac smearing, width (Ry)=  0.0073
                       cart. coord. in units 2pi/alat
        k(    1) = (   0.0000000   0.0000000   0.0000000), wk =   0.1250000
        k(    2) = (   0.0000000   0.0419351   0.0000000), wk =   0.2500000
        k(    3) = (   0.0000000  -0.0838702   0.0000000), wk =   0.1250000
        k(    4) = (   0.0379955   0.0000049   0.0000000), wk =   0.2500000
        k(    5) = (   0.0379955   0.0419400   0.0000000), wk =   0.2500000
        k(    6) = (   0.0379955  -0.0838652   0.0000000), wk =   0.2500000
        k(    7) = (   0.0379955  -0.0419301   0.0000000), wk =   0.2500000
        k(    8) = (  -0.0759910  -0.0000099   0.0000000), wk =   0.1250000
        k(    9) = (  -0.0759910   0.0419252   0.0000000), wk =   0.2500000
        k(   10) = (  -0.0759910  -0.0838800   0.0000000), wk =   0.1250000

     Initial potential from superposition of free atoms

     starting charge  376.99918, renormalised to  393.00000

     negative rho (up, down):  1.908E-02 0.000E+00

     %%%%%%%%%%%%%%%%%%%%%%%%%%%%%%%%%%%%%%%%%%%%%%%%%%%%%%%%%%%%%%%%%%%%%%%%
     %                                                                      %
     % You are using vdW-DF, which was implemented by the Thonhauser group. %
     % Please cite the following two papers that made this development      %
     % possible and the two reviews that describe the various versions:     %
     %                                                                      %
     %   T. Thonhauser et al., PRL 115, 136402 (2015).                      %
     %   T. Thonhauser et al., PRB 76, 125112 (2007).                       %
     %   K. Berland et al., Rep. Prog. Phys. 78, 066501 (2015).             %
     %   D.C. Langreth et al., J. Phys.: Condens. Matter 21, 084203 (2009). %
     %                                                                      %
     %                                                                      %
     % If you are calculating the stress with vdW-DF, please also cite:     %
     %                                                                      %
     %   R. Sabatini et al., J. Phys.: Condens. Matter 24, 424209 (2012).   %
     %                                                                      %
     %%%%%%%%%%%%%%%%%%%%%%%%%%%%%%%%%%%%%%%%%%%%%%%%%%%%%%%%%%%%%%%%%%%%%%%%

     Adding external electric field

     Computed dipole along edir(3) :
        Dipole               -7.1729 Ry au,        -18.2316 Debye
        Dipole field         -0.0135 Ry au,

        Potential amp.        1.2548 Ry
        Total length         46.3494 bohr

     Starting wfcs are  297 atomic wfcs
  @ DRIVER MODE: Message from server: STATUS
  @ DRIVER MODE: Message from server: POSDATA
  @ DRIVER MODE: Reading and sharing cell
  @ DRIVER MODE: Reading and sharing positions
  @ DRIVER MODE: Received positions

     Self-consistent Calculation

     iteration #  1     ecut=    29.40 Ry     beta= 0.05
     Davidson diagonalization with overlap
     c_bands:  1 eigenvalues not converged
     c_bands:  1 eigenvalues not converged
     c_bands:  1 eigenvalues not converged
     c_bands:  1 eigenvalues not converged
     c_bands:  2 eigenvalues not converged
     c_bands:  1 eigenvalues not converged
     c_bands:  2 eigenvalues not converged
     ethr =  1.00E-05,  avg # of iterations = 19.0

[...]

     total energy              =   -2708.67934591 Ry
     estimated scf accuracy    <    2526.24434831 Ry

[...]

     iteration #  3     ecut=    29.40 Ry     beta= 0.05
     Davidson diagonalization with overlap
     ethr =  1.00E-02,  avg # of iterations = 16.6

[...]

     iteration # 61     ecut=    29.40 Ry     beta= 0.05
     Davidson diagonalization with overlap
     ethr =  2.79E-11,  avg # of iterations =  9.0

[...]

     total energy              =   -2936.64845074 Ry
     estimated scf accuracy    <       0.00000010 Ry

     iteration # 62     ecut=    29.40 Ry     beta= 0.05
     Davidson diagonalization with overlap
     c_bands:  1 eigenvalues not converged
     ethr =  2.55E-11,  avg # of iterations = 11.0

     negative rho (up, down):  1.866E-02 0.000E+00

     Adding external electric field

     Computed dipole along edir(3) :
        Dipole                0.3006 Ry au,          0.7640 Debye
        Dipole field          0.0006 Ry au,

        Potential amp.       -0.0526 Ry
        Total length         46.3494 bohr

     End of self-consistent calculation

          k = 0.0000 0.0000 0.0000 ( 18029 PWs)   bands (ev):

   -56.1899 -56.1813 -56.1558 -56.1447 -56.0926 -56.0340 -56.0229 -55.9986
   -55.9969 -55.9644 -55.9615 -55.9278 -55.7107 -55.4391 -55.1660 -55.1320
   -32.7366 -32.6722 -32.5352 -32.5344 -32.5011 -32.4974 -32.4827 -32.4525
   -32.4323 -32.4211 -32.4044 -32.3843 -32.3622 -32.3422 -32.3345 -32.3209
   -32.3184 -32.2941 -32.2793 -32.2472 -32.2446 -32.2421 -32.2062 -32.1923
   -32.1915 -32.1887 -32.1868 -32.1768 -32.1639 -32.1483 -32.1439 -32.1376
   -32.1328 -32.1293 -32.1148 -32.1049 -32.0740 -31.9694 -31.8967 -31.7090
   -31.7001 -31.6531 -31.5730 -31.4849 -31.4625 -31.3898 -31.3033 -31.1922
   -20.6581 -16.9415 -16.6667 -16.4470 -16.3446 -16.3189 -16.2053 -16.0314
   -15.9120 -15.8683 -15.7653 -15.7491 -15.7257 -15.6935 -15.6852 -15.6784
   -15.6439 -15.6324 -15.6159 -15.6028 -15.5484 -15.5271 -15.5088 -15.4137
   -15.3690 -15.3266 -15.3171 -15.2506 -15.2446 -14.7400 -13.6688 -13.6386
   -13.5524  -5.8679  -4.8090  -4.5841  -4.3132  -4.1500  -4.0958  -4.0489
    -3.9973  -3.8088  -3.7470  -3.4318  -3.4020  -3.3768  -3.3614  -3.3485
    -3.3132  -3.1041  -3.0575  -3.0218  -2.9997  -2.9753  -2.9681  -2.9609
    -2.9524  -2.9095  -2.8554  -2.7764  -2.7373  -2.6443  -2.6044  -2.5821
    -2.5016  -2.4871  -2.4639  -2.4326  -2.4274  -2.4230  -2.3895  -2.3739
    -2.2418  -2.1836  -2.0544  -1.9945  -1.9668  -1.7957  -1.7626  -1.6591
    -1.6490  -1.6170  -1.5936  -1.5806  -1.4925  -1.3711  -1.3486  -1.3294
    -1.2864  -1.2103  -1.1719  -1.0790  -1.0452  -0.9727  -0.9539  -0.9519
    -0.9408  -0.8945  -0.7432  -0.6769  -0.6447  -0.5969  -0.5767  -0.5304
    -0.4884  -0.4654  -0.3526  -0.3205  -0.3165  -0.2614  -0.2526  -0.2152
    -0.2102  -0.1963  -0.1809  -0.1597   0.0013   0.0868   0.1500   0.1646
     0.2980   0.3507   0.4126   0.4690   0.5684   0.7826   0.8558   0.9442
     1.0481   1.4268   1.4724   1.6364   2.9455   3.0309   3.0781   3.0947
     3.1885   3.1961   3.3997   3.4213   3.4285   3.4954

[...]

          k = 0.0380-0.0419 0.0000 ( 17876 PWs)   bands (ev):

[...]

          k =-0.0760-0.0000 0.0000 ( 17886 PWs)   bands (ev):

[...]

          k =-0.0760-0.0839 0.0000 ( 17948 PWs)   bands (ev):

   -56.1733 -56.1723 -56.1662 -56.1596 -56.0880 -56.0273 -56.0223 -56.0088
   -55.9823 -55.9800 -55.9454 -55.9441 -55.7097 -55.4399 -55.1491 -55.1487
   -32.5414 -32.5380 -32.4879 -32.4871 -32.4685 -32.4676 -32.4663 -32.4431
   -32.3898 -32.3863 -32.3836 -32.3815 -32.3506 -32.3168 -32.3139 -32.3088
   -32.3006 -32.2940 -32.2930 -32.2919 -32.2878 -32.2849 -32.2825 -32.2417
   -32.2288 -32.2272 -32.2129 -32.2012 -32.1814 -32.1807 -32.1771 -32.1760
   -32.1603 -32.1596 -32.1548 -32.1525 -32.0660 -31.9719 -31.8918 -31.7694
   -31.7055 -31.6739 -31.4754 -31.4750 -31.3860 -31.3856 -31.3467 -31.3465
   -20.6577 -16.3802 -16.3518 -16.1406 -16.1116 -16.1050 -16.0956 -15.9866
   -15.9004 -15.8855 -15.8835 -15.8187 -15.7952 -15.7787 -15.7347 -15.7209
   -15.7164 -15.7097 -15.7028 -15.6509 -15.6460 -15.6266 -15.6194 -15.5439
   -15.5052 -15.5017 -15.4863 -15.3631 -15.2292 -14.9159 -13.6543 -13.6541
   -13.6462  -5.8667  -4.7466  -4.5743  -3.6734  -3.6388  -3.4592  -3.3836
    -3.3580  -3.3451  -3.2799  -3.1150  -3.0943  -3.0725  -3.0611  -3.0226
    -3.0208  -3.0063  -2.9967  -2.9790  -2.9408  -2.9100  -2.8864  -2.8586
    -2.8561  -2.8462  -2.8179  -2.8037  -2.7779  -2.7626  -2.7423  -2.7279
    -2.7082  -2.6953  -2.5779  -2.4239  -2.3923  -2.3270  -2.3183  -2.2933
    -2.2603  -2.2533  -2.2386  -2.1893  -2.0604  -1.9296  -1.8920  -1.8743
    -1.8209  -1.7970  -1.7655  -1.6513  -1.6139  -1.5750  -1.5417  -1.4796
    -1.4480  -1.4098  -1.3608  -1.3347  -1.2678  -1.2458  -1.1863  -1.1513
    -1.1466  -1.1154  -1.0331  -0.9585  -0.9573  -0.9362  -0.9116  -0.8826
    -0.8287  -0.8031  -0.6985  -0.6732  -0.5734  -0.5017  -0.4679  -0.2230
    -0.1562  -0.1288  -0.1117  -0.0577   0.0167   0.0958   0.1206   0.1311
     0.1865   0.2594   0.2624   0.3517   0.3599   0.3944   0.5191   1.2197
     1.2205   1.2920   1.2923   1.6066   3.2298   3.2348   3.2827   3.3051
     3.4473   3.4552   3.4782   3.4791   3.5901   3.6158

     the Fermi energy is     2.9439 ev

!    total energy              =   -2936.64848670 Ry
     estimated scf accuracy    <       0.00000007 Ry
     smearing contrib. (-TS)   =      -0.02176131 Ry
     internal energy E=F+TS    =   -2936.62672539 Ry

     The total energy is F=E-TS. E is the sum of the following terms:
     one-electron contribution =  -24545.24010026 Ry
     hartree contribution      =   12355.66821832 Ry
     xc contribution           =    -483.53166992 Ry
     ewald contribution        =    9736.47665597 Ry
     electric field correction =       0.00017050 Ry

     convergence has been achieved in  62 iterations

     Forces acting on atoms (cartesian axes, Ry/au):

     atom    1 type  1   force =     0.00022990   -0.00015547    0.09653404
     atom    2 type  1   force =    -0.00008561   -0.00054039   -0.17535241
     atom    3 type  2   force =    -0.00001947   -0.00007746   -0.02487314
     atom    4 type  2   force =     0.00006934   -0.00141854    0.05269479
     atom    5 type  2   force =    -0.01182446   -0.00064280    0.00342814
     atom    6 type  2   force =     0.01355313    0.00002615    0.00245358
     atom    7 type  1   force =    -0.00104592    0.00055879   -0.01189831
     atom    8 type  1   force =     0.00048622    0.00952554    0.02771514
     atom    9 type  2   force =     0.00003718    0.00091081   -0.00043840
     atom   10 type  2   force =    -0.00161485    0.00101815   -0.01733614
     atom   11 type  2   force =     0.00043940    0.00013958    0.00024596
     atom   12 type  2   force =    -0.00048127   -0.00017590    0.00011453
     atom   13 type  1   force =     0.00090412    0.00136496   -0.00032405
     atom   14 type  1   force =    -0.00069858   -0.00000438   -0.00005124
     atom   15 type  2   force =     0.00006026   -0.00030970    0.00016611
     atom   16 type  2   force =     0.00027910    0.00025432    0.00104183
     atom   17 type  2   force =     0.00008212   -0.00031915    0.00030963
     atom   18 type  2   force =    -0.00010921   -0.00020678    0.00045585
     atom   19 type  1   force =    -0.00014850   -0.00087745    0.00077889
     atom   20 type  1   force =     0.00009766   -0.00005041    0.00100988
     atom   21 type  2   force =     0.00008288   -0.00005526    0.10317628
     atom   22 type  2   force =     0.00009261   -0.00041880   -0.00061020
     atom   23 type  2   force =    -0.07153112   -0.00011077   -0.02773174
     atom   24 type  2   force =     0.07148517    0.00029439   -0.02774449
     atom   25 type  1   force =    -0.00000132   -0.00019448    0.09609756
     atom   26 type  1   force =    -0.00018332   -0.00028606   -0.17547270
     atom   27 type  2   force =     0.00005931   -0.00023674   -0.02384572
     atom   28 type  2   force =     0.00011079   -0.00115636    0.05257726
     atom   29 type  2   force =    -0.01195398    0.00044559    0.00309597
     atom   30 type  2   force =     0.01359727    0.00085082    0.00214652
     atom   31 type  1   force =    -0.00089532    0.00309811   -0.01276731
     atom   32 type  1   force =     0.00045785   -0.01169362    0.02818537
     atom   33 type  2   force =     0.00030369   -0.00090522   -0.00021291
     atom   34 type  2   force =    -0.00077228    0.00070280   -0.02379173
     atom   35 type  2   force =    -0.00067032   -0.00004236    0.00005975
     atom   36 type  2   force =     0.00036671   -0.00021984    0.00000959
     atom   37 type  1   force =     0.00090653   -0.00125558   -0.00039202
     atom   38 type  1   force =    -0.00091708    0.00019096    0.00030075
     atom   39 type  2   force =    -0.00011414    0.00048144    0.00012290
     atom   40 type  2   force =     0.00012288   -0.00030813    0.00028552
     atom   41 type  2   force =     0.00009740    0.00048518    0.00027985
     atom   42 type  2   force =    -0.00005881    0.00043194    0.00033781
     atom   43 type  1   force =    -0.00030891    0.00107774   -0.00002161
     atom   44 type  1   force =    -0.00009417   -0.00031770    0.00049592
     atom   45 type  2   force =     0.00007206   -0.00008124    0.10316892
     atom   46 type  2   force =    -0.07154239   -0.00011358   -0.02774274
     atom   47 type  2   force =     0.07151839    0.00031957   -0.02776774
     atom   48 type  3   force =    -0.00049598    0.00001105    0.00001329
     atom   49 type  4   force =     0.00046967   -0.00054047    0.00109812
     atom   50 type  5   force =     0.00110329    0.00138958    0.00013624
     atom   51 type  5   force =    -0.00151790   -0.00086281   -0.00016135

     Total force =     0.367889     Total SCF correction =     0.000598
  @ DRIVER MODE: Message from server: STATUS
  @ DRIVER MODE: Message from server: GETFORCE
  @ DRIVER MODE: Returning v,forces,stress,ensemble

     Writing output data file ./calc.save/
  @ DRIVER MODE: Message from server: EXIT
  @ DRIVE MODE: Exiting

     General routines

     Parallel routines

   This run was terminated on:   5: 5:57   9Sep2021

   JOB DONE.