     Program PWSCF v.6.7GPU starts on 24Aug2021 at 15:12:31

     R & G space division:  proc/nbgrp/npool/nimage =      72
     Reading input from /storage/home/hcoda1/3/ntian30/research/carbon/CH2_vib/ads_slab/CH2_a/out_0018/pw.inp
Warning: card &CELL ignored
Warning: card   CELL_DYNAMICS='IPI', ignored
Warning: card / ignored

     Current dimensions of program PWSCF are:
     Max number of different atomic species (ntypx) = 10
     Max number of k-points (npk) =  40000
     Max angular momentum in pseudopotentials (lmaxx) =  3
     Presently no symmetry can be used with electric field

     Message from routine cell_base_init:
     DEPRECATED: use true lattice parameter, not A to a.u. conversion factor

     IMPORTANT: XC functional enforced from input :
     Exchange-correlation= BEEF-VDW
                           (   1   4  43  14   2   0   0)
     Any further DFT definition will be discarded
     Please, verify this is what you really want

  @ DRIVER MODE: Connecting to
 qe_1139763_2641437.sched-torque.pace.gatech.eduw3jnb_o3_scratch
  using UNIX socket
  @ DRIVER MODE: Message from server: STATUS
  @ DRIVER MODE: Message from server: INIT
  @ DRIVER MODE: Receiving replica           0          -1
  @ DRIVER MODE: Receiving encoded integer          25
  @ DRIVER MODE:  SCF:  T  FORCE:  T  STRESS:  F  VC:  F  ENSEMBLE:  F
  @ DRIVER MODE:  SCF:  T  FORCE:  T  STRESS:  F  VC:  F  ENSEMBLE:  F

     Using Slab Decomposition

     bravais-lattice index     =            0
     lattice parameter (alat)  =       1.8897  a.u.
     unit-cell volume          =    6658.9804 (a.u.)^3
     number of atoms/cell      =           50
     number of atomic types    =            4
     number of electrons       =       384.00
     number of Kohn-Sham states=          202
     kinetic-energy cutoff     =      29.3995  Ry
     charge density cutoff     =     293.9946  Ry
     scf convergence threshold =      7.3E-08
     mixing beta               =       0.0500
     number of iterations used =            8  plain     mixing
     Exchange-correlation= BEEF-VDW
                           (   1   4  43  14   2   0   0)

     celldm(1)=   1.889726  celldm(2)=   0.000000  celldm(3)=   0.000000
     celldm(4)=   0.000000  celldm(5)=   0.000000  celldm(6)=   0.000000

     crystal axes: (cart. coord. in units of alat)
               a(1) = (   6.579727   0.000000   0.000000 )
               a(2) = (  -0.000775   5.961596   0.000000 )
               a(3) = (   0.000000   0.000000  25.155947 )

     reciprocal axes: (cart. coord. in units 2 pi/alat)
               b(1) = (  0.151982  0.000020  0.000000 )
               b(2) = (  0.000000  0.167740  0.000000 )
               b(3) = (  0.000000  0.000000  0.039752 )

     PseudoPot. # 1 for Ti read from file:
     /storage/coda1/p-amedford6/0/shared/rich_project_chbe-medford/medford-share/data/pseudos_module/espresso/nninc/pbe/van/Ti.UPF
     MD5 check sum: 8e4df49b7f0d34bbd5052bf3f5ea0213
     Pseudo is Ultrasoft, Zval = 12.0
     Generated by new atomic code, or converted to UPF format
     Using radial grid of  851 points,  6 beta functions with:
                l(1) =   0
                l(2) =   0
                l(3) =   1
                l(4) =   1
                l(5) =   2
                l(6) =   2
     Q(r) pseudized with  8 coefficients,  rinner =    1.000   1.000   1.000
                                                       1.000   1.000

     PseudoPot. # 2 for O  read from file:
     /storage/coda1/p-amedford6/0/shared/rich_project_chbe-medford/medford-share/data/pseudos_module/espresso/nninc/pbe/van/O.UPF
     MD5 check sum: 78c19812648e8988a0fe644b0f25305e
     Pseudo is Ultrasoft, Zval =  6.0
     Generated by new atomic code, or converted to UPF format
     Using radial grid of  737 points,  4 beta functions with:
                l(1) =   0
                l(2) =   0
                l(3) =   1
                l(4) =   1
     Q(r) pseudized with  8 coefficients,  rinner =    0.800   0.800   0.800

     PseudoPot. # 3 for C  read from file:
     /storage/coda1/p-amedford6/0/shared/rich_project_chbe-medford/medford-share/data/pseudos_module/espresso/nninc/pbe/van/C.UPF
     MD5 check sum: 1a69bf6b8db32088f5b2163dbdb77a27
     Pseudo is Ultrasoft, Zval =  4.0
     Generated by new atomic code, or converted to UPF format
     Using radial grid of  721 points,  4 beta functions with:
                l(1) =   0
                l(2) =   0
                l(3) =   1
                l(4) =   1
     Q(r) pseudized with  8 coefficients,  rinner =    0.800   0.800   0.800

     PseudoPot. # 4 for H  read from file:
     /storage/coda1/p-amedford6/0/shared/rich_project_chbe-medford/medford-share/data/pseudos_module/espresso/nninc/pbe/van/H.UPF
     MD5 check sum: b5ee9d7bfd3a09ee7748110bda690ff7
     Pseudo is Ultrasoft, Zval =  1.0
     Generated by new atomic code, or converted to UPF format
     Using radial grid of  615 points,  1 beta functions with:
                l(1) =   0
     Q(r) pseudized with  8 coefficients,  rinner =    0.800

     atomic species   valence    mass     pseudopotential
        Ti1           12.00    47.86700     Ti( 1.00)
        O1             6.00    15.99900     O ( 1.00)
        C1             4.00    12.01100     C ( 1.00)
        H1             1.00     1.00800     H ( 1.00)

     No symmetry found

   Cartesian axes

     site n.     atom                  positions (alat units)
         1           Ti1 tau(   1) = (   0.0004258   2.9801865   6.0000000  )
         2           Ti1 tau(   2) = (   3.2906075   1.4906267   6.0002472  )
         3           O1  tau(   3) = (   0.0006271   0.0005054   7.9858123  )
         4           O1  tau(   4) = (   3.2906025   0.0005020   7.3038282  )
         5           O1  tau(   5) = (   4.5942328   1.4918067   9.2879030  )
         6           O1  tau(   6) = (   1.9868534   1.4903216   9.2879459  )
         7           Ti1 tau(   7) = (   3.2756478   2.8760420   9.1630771  )
         8           Ti1 tau(   8) = (   6.5651030   1.4385007   9.3790407  )
         9           O1  tau(   9) = (   3.2651923   0.0045787  11.3553482  )
        10           O1  tau(  10) = (   6.5766178   5.9492394  10.5646413  )
        11           O1  tau(  11) = (   1.2591847   1.4977620  12.6679731  )
        12           O1  tau(  12) = (   5.2482661   1.4982983  12.6347741  )
        13           Ti1 tau(  13) = (   0.0651775   2.9654633  12.8696618  )
        14           Ti1 tau(  14) = (   3.3800656   1.4924449  12.4946823  )
        15           O1  tau(  15) = (   6.5296085   5.9207011  14.6097682  )
        16           O1  tau(  16) = (   3.2682314   0.0147111  13.9481481  )
        17           O1  tau(  17) = (   4.4912147   1.5408453  16.1034427  )
        18           O1  tau(  18) = (   2.0062121   1.5430191  16.1010343  )
        19           Ti1 tau(  19) = (   3.2584153   3.0188911  15.7272741  )
        20           Ti1 tau(  20) = (   6.5595668   1.6180917  16.2090303  )
        21           O1  tau(  21) = (   3.2904802   0.0005063   4.7018136  )
        22           O1  tau(  22) = (   6.5447935   0.0528136  17.2578995  )
        23           O1  tau(  23) = (   1.3043587   1.4918075   6.0039043  )
        24           O1  tau(  24) = (   5.2767064   1.4903225   6.0039473  )
        25           Ti1 tau(  25) = (   0.0000382   5.9609847   6.0000000  )
        26           Ti1 tau(  26) = (   3.2902200   4.4714249   6.0002472  )
        27           O1  tau(  27) = (   0.0002396   2.9813036   7.9858123  )
        28           O1  tau(  28) = (   3.2902150   2.9813002   7.3038282  )
        29           O1  tau(  29) = (   4.5938453   4.4726049   9.2879030  )
        30           O1  tau(  30) = (   1.9864658   4.4711199   9.2879459  )
        31           Ti1 tau(  31) = (   3.2806623   5.8565216   9.1617982  )
        32           Ti1 tau(  32) = (   6.5670484   4.4138833   9.3856844  )
        33           O1  tau(  33) = (   3.2704644   2.9808095  11.3502114  )
        34           O1  tau(  34) = (   6.5770050   2.9672111  10.5601139  )
        35           O1  tau(  35) = (   1.2614422   4.4490125  12.6594447  )
        36           O1  tau(  36) = (   5.2451530   4.4578719  12.6250501  )
        37           Ti1 tau(  37) = (   0.0436288   5.9429386  12.8080954  )
        38           Ti1 tau(  38) = (   3.3780510   4.4695497  12.4860242  )
        39           O1  tau(  39) = (   6.5513063   2.9765972  14.7162787  )
        40           O1  tau(  40) = (   3.2682626   2.9952000  13.9367060  )
        41           O1  tau(  41) = (   4.4851171   4.5114873  16.1027694  )
        42           O1  tau(  42) = (   2.0082088   4.5103763  16.0975713  )
        43           Ti1 tau(  43) = (   3.2690221   0.0357551  15.7449602  )
        44           Ti1 tau(  44) = (   6.5655258   4.6249605  16.1704562  )
        45           O1  tau(  45) = (   3.2900926   2.9813045   4.7018136  )
        46           O1  tau(  46) = (   1.3039711   4.4726057   6.0039043  )
        47           O1  tau(  47) = (   5.2763189   4.4711207   6.0039473  )
        48           C1  tau(  48) = (   6.5259393   3.0234738  17.6125649  )
        49           H1  tau(  49) = (   0.8472112   3.1395175  18.2203151  )
        50           H1  tau(  50) = (   5.6209537   3.1160310  18.2242257  )

     number of k points=    10  Fermi-Dirac smearing, width (Ry)=  0.0073
                       cart. coord. in units 2pi/alat
        k(    1) = (   0.0000000   0.0000000   0.0000000), wk =   0.1250000
        k(    2) = (   0.0000000   0.0419351   0.0000000), wk =   0.2500000
        k(    3) = (   0.0000000  -0.0838702   0.0000000), wk =   0.1250000
        k(    4) = (   0.0379955   0.0000049   0.0000000), wk =   0.2500000
        k(    5) = (   0.0379955   0.0419400   0.0000000), wk =   0.2500000
        k(    6) = (   0.0379955  -0.0838652   0.0000000), wk =   0.2500000
        k(    7) = (   0.0379955  -0.0419301   0.0000000), wk =   0.2500000
        k(    8) = (  -0.0759910  -0.0000099   0.0000000), wk =   0.1250000
        k(    9) = (  -0.0759910   0.0419252   0.0000000), wk =   0.2500000
        k(   10) = (  -0.0759910  -0.0838800   0.0000000), wk =   0.1250000

     Initial potential from superposition of free atoms

     starting charge  367.99919, renormalised to  384.00000

     negative rho (up, down):  2.115E-02 0.000E+00

     %%%%%%%%%%%%%%%%%%%%%%%%%%%%%%%%%%%%%%%%%%%%%%%%%%%%%%%%%%%%%%%%%%%%%%%%
     %                                                                      %
     % You are using vdW-DF, which was implemented by the Thonhauser group. %
     % Please cite the following two papers that made this development      %
     % possible and the two reviews that describe the various versions:     %
     %                                                                      %
     %   T. Thonhauser et al., PRL 115, 136402 (2015).                      %
     %   T. Thonhauser et al., PRB 76, 125112 (2007).                       %
     %   K. Berland et al., Rep. Prog. Phys. 78, 066501 (2015).             %
     %   D.C. Langreth et al., J. Phys.: Condens. Matter 21, 084203 (2009). %
     %                                                                      %
     %                                                                      %
     % If you are calculating the stress with vdW-DF, please also cite:     %
     %                                                                      %
     %   R. Sabatini et al., J. Phys.: Condens. Matter 24, 424209 (2012).   %
     %                                                                      %
     %%%%%%%%%%%%%%%%%%%%%%%%%%%%%%%%%%%%%%%%%%%%%%%%%%%%%%%%%%%%%%%%%%%%%%%%

     Adding external electric field

     Computed dipole along edir(3) :
        Dipole               -0.5202 Ry au,         -1.3222 Debye
        Dipole field         -0.0010 Ry au,

        Potential amp.        0.0910 Ry
        Total length         46.3494 bohr

     Starting wfcs are  290 atomic wfcs
  @ DRIVER MODE: Message from server: STATUS
  @ DRIVER MODE: Message from server: POSDATA
  @ DRIVER MODE: Reading and sharing cell
  @ DRIVER MODE: Reading and sharing positions
  @ DRIVER MODE: Received positions

     Self-consistent Calculation

     iteration #  1     ecut=    29.40 Ry     beta= 0.05
     Davidson diagonalization with overlap
     c_bands:  1 eigenvalues not converged
     c_bands:  2 eigenvalues not converged
     c_bands:  3 eigenvalues not converged
     c_bands:  1 eigenvalues not converged
     c_bands:  1 eigenvalues not converged
     c_bands:  2 eigenvalues not converged
     c_bands:  1 eigenvalues not converged
     c_bands:  2 eigenvalues not converged
     c_bands:  1 eigenvalues not converged
     c_bands:  2 eigenvalues not converged
     ethr =  1.00E-05,  avg # of iterations = 22.0

[...]

     total energy              =   -2899.22715607 Ry
     estimated scf accuracy    <      12.09717504 Ry

     iteration #  2     ecut=    29.40 Ry     beta= 0.05
     Davidson diagonalization with overlap
     ethr =  3.15E-03,  avg # of iterations =  1.0

[...]

     iteration # 42     ecut=    29.40 Ry     beta= 0.05
     Davidson diagonalization with overlap
     c_bands:  1 eigenvalues not converged
     c_bands:  1 eigenvalues not converged
     c_bands:  1 eigenvalues not converged
     ethr =  2.12E-07,  avg # of iterations = 11.6

[...]

     total energy              =   -2897.72462671 Ry
     estimated scf accuracy    <       0.00000032 Ry

     iteration # 68     ecut=    29.40 Ry     beta= 0.05
     Davidson diagonalization with overlap
     ethr =  3.55E-11,  avg # of iterations =  6.2

     negative rho (up, down):  2.037E-02 0.000E+00

     Adding external electric field

     Computed dipole along edir(3) :
        Dipole                0.2831 Ry au,          0.7197 Debye
        Dipole field          0.0005 Ry au,

        Potential amp.       -0.0495 Ry
        Total length         46.3494 bohr

     End of self-consistent calculation

          k = 0.0000 0.0000 0.0000 ( 18029 PWs)   bands (ev):

   -56.6526 -56.6185 -56.3989 -56.3622 -56.3253 -56.2727 -56.0913 -56.0855
   -56.0516 -55.9842 -55.9585 -55.9202 -55.5536 -55.4709 -55.4370 -55.4292
   -33.0821 -32.9451 -32.9015 -32.8727 -32.8430 -32.7762 -32.7515 -32.7227
   -32.7086 -32.6430 -32.6246 -32.5987 -32.5906 -32.5670 -32.5616 -32.5510
   -32.5481 -32.5302 -32.4588 -32.4535 -32.3869 -32.3488 -32.3371 -32.3258
   -32.3084 -32.3079 -32.2366 -32.2243 -32.2153 -32.1961 -32.1951 -32.1590
   -32.1499 -32.1366 -32.1125 -32.0574 -32.0214 -31.8724 -31.8615 -31.8082
   -31.7945 -31.7708 -31.7474 -31.6907 -31.6062 -31.6057 -31.4936 -31.4761
   -17.0500 -16.8380 -16.6263 -16.4776 -16.3963 -16.3439 -16.0505 -16.0331
   -16.0242 -15.9242 -15.9126 -15.8594 -15.8259 -15.8228 -15.8131 -15.8069
   -15.7725 -15.7287 -15.6968 -15.6613 -15.6282 -15.5945 -15.5037 -15.4654
   -15.4471 -15.3222 -15.2645 -15.2304 -15.0956 -13.9638 -13.8492  -8.3769
    -4.4326  -4.3834  -4.2309  -4.2219  -4.1028  -3.8882  -3.7063  -3.5186
    -3.4872  -3.4573  -3.4519  -3.3480  -3.2949  -3.1845  -3.1837  -3.1486
    -3.1378  -3.1061  -3.0839  -3.0800  -3.0391  -3.0150  -2.9561  -2.9147
    -2.9051  -2.8480  -2.7680  -2.6747  -2.6546  -2.6262  -2.5938  -2.5526
    -2.5371  -2.4362  -2.4312  -2.3670  -2.2266  -2.2093  -2.1613  -2.1333
    -2.1011  -2.0618  -1.9243  -1.7859  -1.7414  -1.7255  -1.6949  -1.6848
    -1.6547  -1.5319  -1.4892  -1.3900  -1.3589  -1.2469  -1.2348  -1.2171
    -1.2016  -1.1712  -1.1024  -1.0754  -1.0403  -0.9558  -0.8970  -0.7670
    -0.7334  -0.7149  -0.6862  -0.6786  -0.6204  -0.5787  -0.5207  -0.5100
    -0.4517  -0.4091  -0.3925  -0.3762  -0.3521  -0.2923  -0.2179  -0.1956
    -0.1320  -0.0948   0.1025   0.1385   0.1638   0.1855   0.2693   0.3019
     0.4793   0.4935   0.5580   0.7607   0.7993   1.1514   1.2308   1.7156
     2.6110   2.7910   2.9858   3.0433   3.0877   3.1675   3.2220   3.3001
     3.3329   3.4546

[...]

          k = 0.0380-0.0419 0.0000 ( 17876 PWs)   bands (ev):

[...]

          k =-0.0760-0.0000 0.0000 ( 17886 PWs)   bands (ev):

[...]

          k =-0.0760-0.0839 0.0000 ( 17948 PWs)   bands (ev):

   -56.6382 -56.6327 -56.3842 -56.3767 -56.3189 -56.2790 -56.0884 -56.0693
   -56.0676 -55.9869 -55.9470 -55.9317 -55.5512 -55.4539 -55.4538 -55.4315
   -32.9017 -32.8972 -32.8901 -32.8833 -32.7978 -32.7932 -32.7529 -32.7465
   -32.6862 -32.6731 -32.6160 -32.6094 -32.5856 -32.5782 -32.5710 -32.5629
   -32.5183 -32.4820 -32.4086 -32.3918 -32.3911 -32.3318 -32.3229 -32.3198
   -32.3079 -32.2930 -32.2878 -32.2842 -32.2620 -32.2532 -32.2340 -32.2175
   -32.1592 -32.1582 -32.1474 -32.1445 -31.9298 -31.8598 -31.8119 -31.7837
   -31.7836 -31.7325 -31.6994 -31.6865 -31.6864 -31.6483 -31.6483 -31.4956
   -16.5191 -16.4919 -16.2733 -16.2597 -16.1498 -16.1471 -16.1349 -16.1338
   -16.0455 -16.0411 -15.9944 -15.9740 -15.9165 -15.9042 -15.8633 -15.8618
   -15.8398 -15.8384 -15.7969 -15.7944 -15.6519 -15.6502 -15.5379 -15.5302
   -15.4926 -15.4508 -15.4105 -15.3981 -15.2361 -13.9514 -13.9511  -8.3789
    -3.8225  -3.7853  -3.4875  -3.4791  -3.2791  -3.2759  -3.2572  -3.2486
    -3.2284  -3.2011  -3.1881  -3.1856  -3.1477  -3.1068  -3.0838  -3.0655
    -3.0544  -3.0467  -3.0420  -3.0410  -3.0208  -3.0017  -2.9862  -2.9619
    -2.9025  -2.8915  -2.8676  -2.8585  -2.7757  -2.6312  -2.5641  -2.5582
    -2.5393  -2.5279  -2.4875  -2.3979  -2.3932  -2.3565  -2.3493  -2.3305
    -2.1351  -2.0725  -2.0689  -2.0074  -1.9785  -1.8749  -1.7281  -1.6951
    -1.6710  -1.6481  -1.5653  -1.5270  -1.5124  -1.4891  -1.4816  -1.4541
    -1.4439  -1.3575  -1.3495  -1.3166  -1.2711  -1.2093  -1.2054  -1.1837
    -1.1632  -1.0647  -0.9951  -0.9791  -0.9648  -0.9231  -0.8518  -0.8029
    -0.7631  -0.6750  -0.6594  -0.3904  -0.3884  -0.2532  -0.2423  -0.1144
    -0.1012  -0.0080   0.0233   0.0672   0.1820   0.1958   0.2008   0.2265
     0.3277   0.3289   0.3581   0.9417   0.9419   1.0074   1.0086   1.9903
     3.0339   3.0509   3.1321   3.1494   3.1539   3.1715   3.2156   3.2181
     3.5120   3.5244

     the Fermi energy is     2.3276 ev

!    total energy              =   -2897.72464518 Ry
     estimated scf accuracy    <       0.00000005 Ry
     smearing contrib. (-TS)   =      -0.00186386 Ry
     internal energy E=F+TS    =   -2897.72278133 Ry

     The total energy is F=E-TS. E is the sum of the following terms:
     one-electron contribution =  -24684.45509300 Ry
     hartree contribution      =   12420.18836522 Ry
     xc contribution           =    -473.85150811 Ry
     ewald contribution        =    9840.39530328 Ry
     electric field correction =       0.00015128 Ry

     convergence has been achieved in  68 iterations

     Forces acting on atoms (cartesian axes, Ry/au):

     atom    1 type  1   force =     0.00029805   -0.00003715    0.14817298
     atom    2 type  1   force =     0.00005502   -0.00033073   -0.17145752
     atom    3 type  2   force =    -0.00004567    0.00265390   -0.05988573
     atom    4 type  2   force =    -0.00032617   -0.00141179    0.04061754
     atom    5 type  2   force =    -0.02535701    0.00093934    0.00495092
     atom    6 type  2   force =     0.02286607    0.00011547    0.00299945
     atom    7 type  1   force =    -0.00051165   -0.00072017   -0.00013867
     atom    8 type  1   force =     0.00074216   -0.00041202    0.00041448
     atom    9 type  2   force =     0.00089362   -0.00028450    0.00033289
     atom   10 type  2   force =    -0.00010452   -0.00000507   -0.00021430
     atom   11 type  2   force =    -0.00018059    0.00004300    0.00015046
     atom   12 type  2   force =     0.00020355    0.00012617    0.00010819
     atom   13 type  1   force =     0.00003549   -0.00100614    0.00028679
     atom   14 type  1   force =    -0.00004918   -0.00114794   -0.00029241
     atom   15 type  2   force =     0.00023949   -0.00029873   -0.00042331
     atom   16 type  2   force =     0.00001509    0.00015193    0.00034904
     atom   17 type  2   force =     0.00110402    0.00004439    0.00023034
     atom   18 type  2   force =    -0.00078615   -0.00019197    0.00033463
     atom   19 type  1   force =     0.00062653   -0.00024889    0.00020379
     atom   20 type  1   force =    -0.00001415   -0.00019282    0.00045390
     atom   21 type  2   force =     0.00014125   -0.00010180    0.10279581
     atom   22 type  2   force =     0.00009443   -0.00012651   -0.00029596
     atom   23 type  2   force =    -0.07352634    0.00029467   -0.03463392
     atom   24 type  2   force =     0.07357456    0.00074061   -0.03468461
     atom   25 type  1   force =     0.00007925   -0.00018478    0.14936537
     atom   26 type  1   force =    -0.00000056   -0.00105023   -0.17161536
     atom   27 type  2   force =    -0.00006867    0.00191970   -0.05887428
     atom   28 type  2   force =    -0.00039753   -0.00137208    0.04059144
     atom   29 type  2   force =    -0.02527765    0.00191031    0.00523989
     atom   30 type  2   force =     0.02336759    0.00034338    0.00328768
     atom   31 type  1   force =    -0.00048282   -0.00019598   -0.00008551
     atom   32 type  1   force =     0.00062782   -0.00027434    0.00000861
     atom   33 type  2   force =     0.00005089   -0.00037602    0.00041017
     atom   34 type  2   force =     0.00007395   -0.00014710    0.00005712
     atom   35 type  2   force =    -0.00021283   -0.00036555   -0.00035448
     atom   36 type  2   force =     0.00055187   -0.00063486   -0.00014435
     atom   37 type  1   force =     0.00089321    0.00031473   -0.00004821
     atom   38 type  1   force =    -0.00034850   -0.00015520    0.00023568
     atom   39 type  2   force =     0.00007942    0.00009304   -0.00101146
     atom   40 type  2   force =    -0.00000551    0.00030295   -0.00085619
     atom   41 type  2   force =     0.00024233    0.00026497    0.00021914
     atom   42 type  2   force =     0.00020680    0.00051213    0.00033483
     atom   43 type  1   force =     0.00045675    0.00079271   -0.00075324
     atom   44 type  1   force =    -0.00063005    0.00031591    0.00018180
     atom   45 type  2   force =     0.00013828   -0.00009438    0.10274989
     atom   46 type  2   force =    -0.07355336   -0.00012300   -0.03462451
     atom   47 type  2   force =     0.07361068    0.00034084   -0.03469995
     atom   48 type  3   force =    -0.00376510    0.00064865    0.00493028
     atom   49 type  4   force =    -0.00057467   -0.00069885   -0.00043637
     atom   50 type  4   force =     0.00495051   -0.00068020   -0.00448278

     Total force =     0.404461     Total SCF correction =     0.000777
  @ DRIVER MODE: Message from server: STATUS
  @ DRIVER MODE: Message from server: GETFORCE
  @ DRIVER MODE: Returning v,forces,stress,ensemble

     Writing output data file ./calc.save/
  @ DRIVER MODE: Message from server: EXIT
  @ DRIVE MODE: Exiting

     General routines

     Parallel routines

   This run was terminated on:  15:32:25  24Aug2021

   JOB DONE.