     Program PWSCF v.6.7GPU starts on 12Oct2021 at 12:53:11

     R & G space division:  proc/nbgrp/npool/nimage =       8
     Reading input from /storage/home/hcoda1/3/ntian30/research/carbon/ACS_vib/ads_slab/HNNH2/out_0012/pw.inp
Warning: card &CELL ignored
Warning: card   CELL_DYNAMICS='IPI', ignored
Warning: card / ignored

     Current dimensions of program PWSCF are:
     Max number of different atomic species (ntypx) = 10
     Max number of k-points (npk) =  40000
     Max angular momentum in pseudopotentials (lmaxx) =  3
     Presently no symmetry can be used with electric field

     Message from routine cell_base_init:
     DEPRECATED: use true lattice parameter, not A to a.u. conversion factor

     IMPORTANT: XC functional enforced from input :
     Exchange-correlation= BEEF-VDW
                           (   1   4  43  14   2   0   0)
     Any further DFT definition will be discarded
     Please, verify this is what you really want

  @ DRIVER MODE: Connecting to
 qe_1139763_3181312.sched-torque.pace.gatech.edu5_fiwyt8_scratch
  using UNIX socket
  @ DRIVER MODE: Message from server: STATUS
  @ DRIVER MODE: Message from server: INIT
  @ DRIVER MODE: Receiving replica           0          -1
  @ DRIVER MODE: Receiving encoded integer          25
  @ DRIVER MODE:  SCF:  T  FORCE:  T  STRESS:  F  VC:  F  ENSEMBLE:  F
  @ DRIVER MODE:  SCF:  T  FORCE:  T  STRESS:  F  VC:  F  ENSEMBLE:  F

     Using Slab Decomposition

     bravais-lattice index     =            0
     lattice parameter (alat)  =       1.8897  a.u.
     unit-cell volume          =    6658.9804 (a.u.)^3
     number of atoms/cell      =           52
     number of atomic types    =            4
     number of electrons       =       391.00
     number of Kohn-Sham states=          205
     kinetic-energy cutoff     =      29.3995  Ry
     charge density cutoff     =     293.9946  Ry
     scf convergence threshold =      7.3E-08
     mixing beta               =       0.0500
     number of iterations used =            8  plain     mixing
     Exchange-correlation= BEEF-VDW
                           (   1   4  43  14   2   0   0)

     celldm(1)=   1.889726  celldm(2)=   0.000000  celldm(3)=   0.000000
     celldm(4)=   0.000000  celldm(5)=   0.000000  celldm(6)=   0.000000

     crystal axes: (cart. coord. in units of alat)
               a(1) = (   6.579727   0.000000   0.000000 )
               a(2) = (  -0.000775   5.961596   0.000000 )
               a(3) = (   0.000000   0.000000  25.155947 )

     reciprocal axes: (cart. coord. in units 2 pi/alat)
               b(1) = (  0.151982  0.000020  0.000000 )
               b(2) = (  0.000000  0.167740  0.000000 )
               b(3) = (  0.000000  0.000000  0.039752 )

     PseudoPot. # 1 for Ti read from file:
     /storage/coda1/p-amedford6/0/shared/rich_project_chbe-medford/medford-share/data/pseudos_module/espresso/nninc/pbe/van/Ti.UPF
     MD5 check sum: 8e4df49b7f0d34bbd5052bf3f5ea0213
     Pseudo is Ultrasoft, Zval = 12.0
     Generated by new atomic code, or converted to UPF format
     Using radial grid of  851 points,  6 beta functions with:
                l(1) =   0
                l(2) =   0
                l(3) =   1
                l(4) =   1
                l(5) =   2
                l(6) =   2
     Q(r) pseudized with  8 coefficients,  rinner =    1.000   1.000   1.000
                                                       1.000   1.000

     PseudoPot. # 2 for O  read from file:
     /storage/coda1/p-amedford6/0/shared/rich_project_chbe-medford/medford-share/data/pseudos_module/espresso/nninc/pbe/van/O.UPF
     MD5 check sum: 78c19812648e8988a0fe644b0f25305e
     Pseudo is Ultrasoft, Zval =  6.0
     Generated by new atomic code, or converted to UPF format
     Using radial grid of  737 points,  4 beta functions with:
                l(1) =   0
                l(2) =   0
                l(3) =   1
                l(4) =   1
     Q(r) pseudized with  8 coefficients,  rinner =    0.800   0.800   0.800

     PseudoPot. # 3 for H  read from file:
     /storage/coda1/p-amedford6/0/shared/rich_project_chbe-medford/medford-share/data/pseudos_module/espresso/nninc/pbe/van/H.UPF
     MD5 check sum: b5ee9d7bfd3a09ee7748110bda690ff7
     Pseudo is Ultrasoft, Zval =  1.0
     Generated by new atomic code, or converted to UPF format
     Using radial grid of  615 points,  1 beta functions with:
                l(1) =   0
     Q(r) pseudized with  8 coefficients,  rinner =    0.800

     PseudoPot. # 4 for N  read from file:
     /storage/coda1/p-amedford6/0/shared/rich_project_chbe-medford/medford-share/data/pseudos_module/espresso/nninc/pbe/van/N.UPF
     MD5 check sum: 90d10febe142ad51ac9d5be1deb811c4
     Pseudo is Ultrasoft, Zval =  5.0
     Generated by new atomic code, or converted to UPF format
     Using radial grid of  729 points,  4 beta functions with:
                l(1) =   0
                l(2) =   0
                l(3) =   1
                l(4) =   1
     Q(r) pseudized with  8 coefficients,  rinner =    0.800   0.800   0.800

     atomic species   valence    mass     pseudopotential
        Ti1           12.00    47.86700     Ti( 1.00)
        O1             6.00    15.99900     O ( 1.00)
        H1             1.00     1.00800     H ( 1.00)
        N1             5.00    14.00700     N ( 1.00)

     No symmetry found

   Cartesian axes

     site n.     atom                  positions (alat units)
         1           Ti1 tau(   1) = (   0.0004258   2.9801865   6.0000000  )
         2           Ti1 tau(   2) = (   3.2906075   1.4906267   6.0002472  )
         3           O1  tau(   3) = (   0.0006271   0.0005054   7.9858123  )
         4           O1  tau(   4) = (   3.2906025   0.0005020   7.3038282  )
         5           O1  tau(   5) = (   4.5942328   1.4918067   9.2879030  )
         6           O1  tau(   6) = (   1.9868534   1.4903216   9.2879459  )
         7           Ti1 tau(   7) = (   3.2908112   2.9011704   9.1816539  )
         8           Ti1 tau(   8) = (   0.0015097   1.3932332   9.2931702  )
         9           O1  tau(   9) = (   3.2819087   5.9526348  11.3504271  )
        10           O1  tau(  10) = (   6.5772260   5.9545827  10.6088576  )
        11           O1  tau(  11) = (   1.2874804   1.4832564  12.6509691  )
        12           O1  tau(  12) = (   5.2781146   1.4858874  12.6440994  )
        13           Ti1 tau(  13) = (   6.5585775   2.9503744  12.8030734  )
        14           Ti1 tau(  14) = (   3.2696126   1.4733128  12.4944632  )
        15           O1  tau(  15) = (   6.5513721   5.9458199  14.6768215  )
        16           O1  tau(  16) = (   3.2879482   5.9481552  13.9547078  )
        17           O1  tau(  17) = (   4.5181657   1.4884665  16.1124167  )
        18           O1  tau(  18) = (   2.0188244   1.4835402  16.0984261  )
        19           Ti1 tau(  19) = (   3.2766105   2.9578040  15.7125626  )
        20           Ti1 tau(  20) = (   0.0270592   1.3580474  16.0627221  )
        21           O1  tau(  21) = (   3.2904802   0.0005063   4.7018136  )
        22           O1  tau(  22) = (   0.0072818   5.9434210  17.2237418  )
        23           O1  tau(  23) = (   1.3043587   1.4918075   6.0039043  )
        24           O1  tau(  24) = (   5.2767064   1.4903225   6.0039473  )
        25           Ti1 tau(  25) = (   0.0000382   5.9609847   6.0000000  )
        26           Ti1 tau(  26) = (   3.2902200   4.4714249   6.0002472  )
        27           O1  tau(  27) = (   0.0002396   2.9813036   7.9858123  )
        28           O1  tau(  28) = (   3.2902150   2.9813002   7.3038282  )
        29           O1  tau(  29) = (   4.5938453   4.4726049   9.2879030  )
        30           O1  tau(  30) = (   1.9864658   4.4711199   9.2879459  )
        31           Ti1 tau(  31) = (   3.2900885   5.8829342   9.1674613  )
        32           Ti1 tau(  32) = (   0.0009626   4.3321112   9.3579051  )
        33           O1  tau(  33) = (   3.2805539   2.9674959  11.3464436  )
        34           O1  tau(  34) = (   6.5791951   2.9642230  10.5753725  )
        35           O1  tau(  35) = (   1.2880645   4.4660911  12.6414962  )
        36           O1  tau(  36) = (   5.2770833   4.4616490  12.6331305  )
        37           Ti1 tau(  37) = (   6.5652171   5.9330851  12.5680926  )
        38           Ti1 tau(  38) = (   3.2703904   4.4534766  12.4879229  )
        39           O1  tau(  39) = (   6.5642693   2.9891374  14.6930774  )
        40           O1  tau(  40) = (   3.2814391   2.9717942  13.9260038  )
        41           O1  tau(  41) = (   4.5200678   4.4336085  16.1105754  )
        42           O1  tau(  42) = (   2.0169658   4.4359636  16.1171003  )
        43           Ti1 tau(  43) = (   3.3139371   5.9425984  15.7429620  )
        44           Ti1 tau(  44) = (   0.0173840   4.5100783  16.0001754  )
        45           O1  tau(  45) = (   3.2900926   2.9813045   4.7018136  )
        46           O1  tau(  46) = (   1.3039711   4.4726057   6.0039043  )
        47           O1  tau(  47) = (   5.2763189   4.4711207   6.0039473  )
        48           H1  tau(  48) = (   5.5810648   2.9993886  17.8866560  )
        49           N1  tau(  49) = (   6.5184219   2.9788514  17.5015934  )
        50           N1  tau(  50) = (   0.8269126   2.9775512  18.6276789  )
        51           H1  tau(  51) = (   1.2125983   2.0437984  18.7562651  )
        52           H1  tau(  52) = (   1.5963704   3.6133177  18.4401992  )

     number of k points=    10  Fermi-Dirac smearing, width (Ry)=  0.0073
                       cart. coord. in units 2pi/alat
        k(    1) = (   0.0000000   0.0000000   0.0000000), wk =   0.1250000
        k(    2) = (   0.0000000   0.0419351   0.0000000), wk =   0.2500000
        k(    3) = (   0.0000000  -0.0838702   0.0000000), wk =   0.1250000
        k(    4) = (   0.0379955   0.0000049   0.0000000), wk =   0.2500000
        k(    5) = (   0.0379955   0.0419400   0.0000000), wk =   0.2500000
        k(    6) = (   0.0379955  -0.0838652   0.0000000), wk =   0.2500000
        k(    7) = (   0.0379955  -0.0419301   0.0000000), wk =   0.2500000
        k(    8) = (  -0.0759910  -0.0000099   0.0000000), wk =   0.1250000
        k(    9) = (  -0.0759910   0.0419252   0.0000000), wk =   0.2500000
        k(   10) = (  -0.0759910  -0.0838800   0.0000000), wk =   0.1250000

     Initial potential from superposition of free atoms

     starting charge  374.99920, renormalised to  391.00000

     negative rho (up, down):  1.965E-02 0.000E+00

     %%%%%%%%%%%%%%%%%%%%%%%%%%%%%%%%%%%%%%%%%%%%%%%%%%%%%%%%%%%%%%%%%%%%%%%%
     %                                                                      %
     % You are using vdW-DF, which was implemented by the Thonhauser group. %
     % Please cite the following two papers that made this development      %
     % possible and the two reviews that describe the various versions:     %
     %                                                                      %
     %   T. Thonhauser et al., PRL 115, 136402 (2015).                      %
     %   T. Thonhauser et al., PRB 76, 125112 (2007).                       %
     %   K. Berland et al., Rep. Prog. Phys. 78, 066501 (2015).             %
     %   D.C. Langreth et al., J. Phys.: Condens. Matter 21, 084203 (2009). %
     %                                                                      %
     %                                                                      %
     % If you are calculating the stress with vdW-DF, please also cite:     %
     %                                                                      %
     %   R. Sabatini et al., J. Phys.: Condens. Matter 24, 424209 (2012).   %
     %                                                                      %
     %%%%%%%%%%%%%%%%%%%%%%%%%%%%%%%%%%%%%%%%%%%%%%%%%%%%%%%%%%%%%%%%%%%%%%%%

     Adding external electric field

     Computed dipole along edir(3) :
        Dipole               -5.4691 Ry au,        -13.9010 Debye
        Dipole field         -0.0103 Ry au,

        Potential amp.        0.9567 Ry
        Total length         46.3494 bohr

     Starting wfcs are  295 atomic wfcs
  @ DRIVER MODE: Message from server: STATUS
  @ DRIVER MODE: Message from server: POSDATA
  @ DRIVER MODE: Reading and sharing cell
  @ DRIVER MODE: Reading and sharing positions
  @ DRIVER MODE: Received positions

     Self-consistent Calculation

     iteration #  1     ecut=    29.40 Ry     beta= 0.05
     Davidson diagonalization with overlap
     c_bands:  4 eigenvalues not converged
     c_bands:  1 eigenvalues not converged
     c_bands:  3 eigenvalues not converged
     c_bands:  3 eigenvalues not converged
     c_bands:  4 eigenvalues not converged
     c_bands:  3 eigenvalues not converged
     c_bands:  1 eigenvalues not converged
     c_bands:  1 eigenvalues not converged
     c_bands:  2 eigenvalues not converged
     ethr =  1.00E-05,  avg # of iterations = 19.9

[...]

     total energy              =   -2794.85513876 Ry
     estimated scf accuracy    <    1458.49210306 Ry

     iteration #  2     ecut=    29.40 Ry     beta= 0.05
     Davidson diagonalization with overlap
     ethr =  1.00E-02,  avg # of iterations = 16.8

[...]

     iteration # 60     ecut=    29.40 Ry     beta= 0.05
     Davidson diagonalization with overlap
     c_bands:  1 eigenvalues not converged
     ethr =  3.46E-10,  avg # of iterations = 16.2

[...]

     total energy              =   -2927.71115638 Ry
     estimated scf accuracy    <       0.00000027 Ry

     iteration # 64     ecut=    29.40 Ry     beta= 0.05
     Davidson diagonalization with overlap
     ethr =  6.82E-11,  avg # of iterations =  7.9

     negative rho (up, down):  1.938E-02 0.000E+00

     Adding external electric field

     Computed dipole along edir(3) :
        Dipole                0.4553 Ry au,          1.1572 Debye
        Dipole field          0.0009 Ry au,

        Potential amp.       -0.0796 Ry
        Total length         46.3494 bohr

     End of self-consistent calculation

          k = 0.0000 0.0000 0.0000 ( 18029 PWs)   bands (ev):

   -56.1420 -56.1267 -56.1062 -56.0905 -56.0443 -56.0104 -55.9705 -55.9462
   -55.8956 -55.8833 -55.8690 -55.8330 -55.7618 -55.7577 -55.0791 -55.0450
   -32.6982 -32.6018 -32.4837 -32.4718 -32.4613 -32.4292 -32.4034 -32.3856
   -32.3741 -32.3547 -32.3495 -32.3459 -32.3324 -32.3081 -32.3042 -32.2837
   -32.2776 -32.2564 -32.2249 -32.2135 -32.2100 -32.1923 -32.1610 -32.1552
   -32.1536 -32.1337 -32.1318 -32.1080 -32.1010 -32.0966 -32.0962 -32.0745
   -32.0740 -32.0412 -32.0181 -32.0175 -31.9815 -31.9781 -31.9680 -31.9567
   -31.9424 -31.8978 -31.4862 -31.3977 -31.3749 -31.3025 -31.2161 -31.1055
   -16.9069 -16.6942 -16.5327 -16.3928 -16.2683 -16.2433 -16.1864 -15.9081
   -15.8409 -15.7796 -15.7610 -15.7398 -15.7288 -15.6656 -15.6644 -15.6301
   -15.5862 -15.5516 -15.5418 -15.5112 -15.5039 -15.4551 -15.4298 -15.4000
   -15.3655 -15.2815 -15.2269 -15.1555 -15.1195 -15.0794 -13.5825 -13.4665
   -11.2648  -5.2761  -4.6552  -4.2507  -4.1346  -4.0507  -3.9994  -3.9322
    -3.7743  -3.7263  -3.5868  -3.3411  -3.3037  -3.2891  -3.2600  -3.2222
    -3.0344  -2.9846  -2.9486  -2.9267  -2.9209  -2.9138  -2.8763  -2.8439
    -2.8367  -2.8337  -2.7198  -2.6464  -2.5589  -2.5524  -2.4784  -2.4404
    -2.4160  -2.4126  -2.3720  -2.3490  -2.3280  -2.3104  -2.2845  -2.1813
    -2.1569  -2.0740  -1.9850  -1.9000  -1.7751  -1.7148  -1.7031  -1.5757
    -1.5161  -1.5137  -1.4799  -1.4580  -1.4185  -1.3419  -1.3038  -1.2567
    -1.1771  -1.1335  -1.0614  -1.0338  -1.0167  -0.9790  -0.9023  -0.8553
    -0.8484  -0.8373  -0.6305  -0.6043  -0.5949  -0.5802  -0.4620  -0.3811
    -0.3636  -0.3339  -0.3166  -0.3045  -0.2514  -0.1601  -0.1313  -0.1192
    -0.0999  -0.0142   0.0556   0.0631   0.0965   0.1850   0.2082   0.3249
     0.3893   0.5653   0.6010   0.7383   0.8619   0.9409   0.9746   1.1350
     1.5212   1.5719   1.5905   3.0546   3.0725   3.1098   3.1306   3.2669
     3.3766   3.3808   3.4789   3.4998   3.5520

[...]

          k = 0.0380-0.0419 0.0000 ( 17876 PWs)   bands (ev):

[...]

          k =-0.0760-0.0000 0.0000 ( 17886 PWs)   bands (ev):

[...]

          k =-0.0760-0.0839 0.0000 ( 17948 PWs)   bands (ev):

   -56.1298 -56.1182 -56.1093 -56.1077 -56.0400 -56.0059 -55.9746 -55.9506
   -55.8935 -55.8804 -55.8579 -55.8444 -55.7639 -55.7600 -55.0623 -55.0617
   -32.5021 -32.4986 -32.4352 -32.4253 -32.4181 -32.4123 -32.4023 -32.4007
   -32.3394 -32.3388 -32.3352 -32.3059 -32.3037 -32.2864 -32.2728 -32.2589
   -32.2510 -32.2496 -32.2367 -32.2347 -32.2221 -32.2106 -32.1962 -32.1858
   -32.1779 -32.1692 -32.1664 -32.1611 -32.1442 -32.1094 -32.0887 -32.0869
   -32.0859 -32.0677 -32.0658 -32.0613 -32.0501 -32.0225 -32.0188 -31.9928
   -31.9506 -31.9468 -31.3880 -31.3872 -31.2995 -31.2987 -31.2596 -31.2589
   -16.5965 -16.3613 -16.3150 -16.0832 -16.0678 -16.0255 -15.9481 -15.8949
   -15.8897 -15.8659 -15.8578 -15.7977 -15.7873 -15.7751 -15.7478 -15.6502
   -15.6485 -15.6368 -15.6179 -15.5563 -15.5407 -15.5071 -15.4761 -15.4669
   -15.4398 -15.4120 -15.3818 -15.3598 -15.2969 -15.2814 -13.5686 -13.5679
   -11.2728  -5.2747  -4.6159  -3.6851  -3.6474  -3.6003  -3.2961  -3.2782
    -3.2496  -3.1349  -3.0670  -3.0409  -3.0081  -2.9791  -2.9434  -2.9321
    -2.9172  -2.9128  -2.9045  -2.9019  -2.8704  -2.8401  -2.8254  -2.7782
    -2.7502  -2.7429  -2.7255  -2.7092  -2.7047  -2.6548  -2.6509  -2.6460
    -2.6375  -2.5217  -2.3876  -2.3706  -2.3322  -2.2134  -2.1900  -2.1840
    -2.1543  -2.1434  -2.1376  -2.0811  -1.9759  -1.8710  -1.8219  -1.8014
    -1.7776  -1.7151  -1.5971  -1.5486  -1.5375  -1.5064  -1.4449  -1.4253
    -1.3749  -1.3678  -1.2629  -1.2355  -1.2132  -1.1379  -1.0766  -1.0588
    -1.0360  -0.9780  -0.9313  -0.9097  -0.8979  -0.8555  -0.7534  -0.7456
    -0.6967  -0.6868  -0.6345  -0.6292  -0.5757  -0.4474  -0.2052  -0.1685
    -0.0961  -0.0734   0.0190   0.0501   0.0777   0.1725   0.2007   0.3022
     0.3426   0.4376   0.4444   0.4601   0.5026   0.6875   1.3057   1.3083
     1.3821   1.3883   1.5932   3.2108   3.2485   3.2730   3.3369   3.5174
     3.5409   3.5418   3.5564   3.5891   3.6523

     the Fermi energy is     3.0130 ev

!    total energy              =   -2927.71118209 Ry
     estimated scf accuracy    <       0.00000003 Ry
     smearing contrib. (-TS)   =      -0.02326993 Ry
     internal energy E=F+TS    =   -2927.68791217 Ry

     The total energy is F=E-TS. E is the sum of the following terms:
     one-electron contribution =  -24557.20313995 Ry
     hartree contribution      =   12361.76805726 Ry
     xc contribution           =    -481.65830606 Ry
     ewald contribution        =    9749.40508545 Ry
     electric field correction =       0.00039114 Ry

     convergence has been achieved in  64 iterations

     Forces acting on atoms (cartesian axes, Ry/au):

     atom    1 type  1   force =     0.00026770    0.00113342    0.11027000
     atom    2 type  1   force =     0.00005603    0.00172162   -0.17427928
     atom    3 type  2   force =     0.00010762    0.00666023   -0.03420300
     atom    4 type  2   force =     0.00001472   -0.00085745    0.05079492
     atom    5 type  2   force =    -0.01745152   -0.00134631    0.00575555
     atom    6 type  2   force =     0.01690315   -0.00101556    0.00538077
     atom    7 type  1   force =     0.00006825    0.00260264   -0.01786834
     atom    8 type  1   force =    -0.00001532    0.00012314    0.00032028
     atom    9 type  2   force =    -0.00001236    0.00009450   -0.00040882
     atom   10 type  2   force =    -0.00000010   -0.00051109   -0.00006491
     atom   11 type  2   force =     0.00009923   -0.00025282   -0.00005352
     atom   12 type  2   force =    -0.00009679   -0.00036499   -0.00020955
     atom   13 type  1   force =    -0.00037460   -0.00034890   -0.00000977
     atom   14 type  1   force =    -0.00075373    0.00007929   -0.00011953
     atom   15 type  2   force =    -0.00007614   -0.00038945    0.00095470
     atom   16 type  2   force =     0.00011739   -0.00014992   -0.00029178
     atom   17 type  2   force =     0.00025309   -0.00014720    0.00058360
     atom   18 type  2   force =     0.00092584   -0.00044059    0.00052547
     atom   19 type  1   force =    -0.00004988    0.00037075    0.00009627
     atom   20 type  1   force =    -0.00025032    0.00006019    0.00216259
     atom   21 type  2   force =     0.00009788    0.00006621    0.10314180
     atom   22 type  2   force =     0.00013914    0.00062733   -0.00159617
     atom   23 type  2   force =    -0.07114871    0.00061838   -0.03028002
     atom   24 type  2   force =     0.07111370    0.00103490   -0.03028838
     atom   25 type  1   force =     0.00005712   -0.00110372    0.11740733
     atom   26 type  1   force =     0.00004493   -0.00255457   -0.17411247
     atom   27 type  2   force =     0.00006955   -0.00281698   -0.02991181
     atom   28 type  2   force =     0.00002416   -0.00148640    0.05395690
     atom   29 type  2   force =    -0.01860834    0.00056918    0.00665448
     atom   30 type  2   force =     0.01808786    0.00124029    0.00629714
     atom   31 type  1   force =     0.00039924   -0.00271490   -0.01223720
     atom   32 type  1   force =     0.00000167    0.00038952    0.00068964
     atom   33 type  2   force =     0.00002469   -0.00009198   -0.00045763
     atom   34 type  2   force =     0.00006932    0.00031028    0.00041294
     atom   35 type  2   force =     0.00001285    0.00006085   -0.00029022
     atom   36 type  2   force =     0.00005860    0.00001009   -0.00032159
     atom   37 type  1   force =    -0.00048769   -0.00043006    0.00090733
     atom   38 type  1   force =    -0.00070694    0.00002968   -0.00013874
     atom   39 type  2   force =    -0.00013625   -0.00065441    0.00007184
     atom   40 type  2   force =     0.00001227   -0.00009888   -0.00061189
     atom   41 type  2   force =    -0.00012754    0.00005752    0.00051032
     atom   42 type  2   force =     0.00074001    0.00032589    0.00008479
     atom   43 type  1   force =     0.00027481   -0.00018655    0.00006955
     atom   44 type  1   force =     0.00028215   -0.00048818    0.00195030
     atom   45 type  2   force =     0.00008056    0.00013693    0.10306488
     atom   46 type  2   force =    -0.07143319   -0.00054338   -0.03021535
     atom   47 type  2   force =     0.07139877   -0.00010370   -0.03026536
     atom   48 type  3   force =    -0.00447851    0.00041830    0.00388310
     atom   49 type  4   force =     0.00189315    0.00050597   -0.01278919
     atom   50 type  4   force =     0.00314619   -0.00137619    0.00395571
     atom   51 type  3   force =     0.00005437    0.00067887    0.00041421
     atom   52 type  3   force =    -0.00068806    0.00054822    0.00070811

     Total force =     0.376368     Total SCF correction =     0.000389
  @ DRIVER MODE: Message from server: STATUS
  @ DRIVER MODE: Message from server: GETFORCE
  @ DRIVER MODE: Returning v,forces,stress,ensemble

     Writing output data file ./calc.save/
  @ DRIVER MODE: Message from server: EXIT
  @ DRIVE MODE: Exiting

     General routines

     Parallel routines

   This run was terminated on:  13:13:52  12Oct2021

   JOB DONE.