     Program PWSCF v.6.7GPU starts on 15Jul2021 at 21:58:36

     R & G space division:  proc/nbgrp/npool/nimage =      16
     Reading input from /storage/home/hcoda1/3/ntian30/research/carbon/15Jul_vib/ads_slab/CH3N_a/out_0014/pw.inp
Warning: card &CELL ignored
Warning: card   CELL_DYNAMICS='IPI', ignored
Warning: card / ignored

     Current dimensions of program PWSCF are:
     Max number of different atomic species (ntypx) = 10
     Max number of k-points (npk) =  40000
     Max angular momentum in pseudopotentials (lmaxx) =  3
     Presently no symmetry can be used with electric field

     Message from routine cell_base_init:
     DEPRECATED: use true lattice parameter, not A to a.u. conversion factor

     IMPORTANT: XC functional enforced from input :
     Exchange-correlation= BEEF-VDW
                           (   1   4  43  14   2   0   0)
     Any further DFT definition will be discarded
     Please, verify this is what you really want

  @ DRIVER MODE: Connecting to
 qe_1139763_2351643.sched-torque.pace.gatech.eduhcg3klsl_scratch
  using UNIX socket
  @ DRIVER MODE: Message from server: STATUS
  @ DRIVER MODE: Message from server: INIT
  @ DRIVER MODE: Receiving replica           0          -1
  @ DRIVER MODE: Receiving encoded integer          25
  @ DRIVER MODE:  SCF:  T  FORCE:  T  STRESS:  F  VC:  F  ENSEMBLE:  F
  @ DRIVER MODE:  SCF:  T  FORCE:  T  STRESS:  F  VC:  F  ENSEMBLE:  F

     Using Slab Decomposition

     bravais-lattice index     =            0
     lattice parameter (alat)  =       1.8897  a.u.
     unit-cell volume          =    6658.9804 (a.u.)^3
     number of atoms/cell      =           52
     number of atomic types    =            5
     number of electrons       =       390.00
     number of Kohn-Sham states=          205
     kinetic-energy cutoff     =      29.3995  Ry
     charge density cutoff     =     293.9946  Ry
     scf convergence threshold =      7.3E-08
     mixing beta               =       0.0500
     number of iterations used =            8  plain     mixing
     Exchange-correlation= BEEF-VDW
                           (   1   4  43  14   2   0   0)

     celldm(1)=   1.889726  celldm(2)=   0.000000  celldm(3)=   0.000000
     celldm(4)=   0.000000  celldm(5)=   0.000000  celldm(6)=   0.000000

     crystal axes: (cart. coord. in units of alat)
               a(1) = (   6.579727   0.000000   0.000000 )
               a(2) = (  -0.000775   5.961596   0.000000 )
               a(3) = (   0.000000   0.000000  25.155947 )

     reciprocal axes: (cart. coord. in units 2 pi/alat)
               b(1) = (  0.151982  0.000020  0.000000 )
               b(2) = (  0.000000  0.167740  0.000000 )
               b(3) = (  0.000000  0.000000  0.039752 )

     PseudoPot. # 1 for Ti read from file:
     /storage/coda1/p-amedford6/0/shared/rich_project_chbe-medford/medford-share/data/pseudos_module/espresso/nninc/pbe/van/Ti.UPF
     MD5 check sum: 8e4df49b7f0d34bbd5052bf3f5ea0213
     Pseudo is Ultrasoft, Zval = 12.0
     Generated by new atomic code, or converted to UPF format
     Using radial grid of  851 points,  6 beta functions with:
                l(1) =   0
                l(2) =   0
                l(3) =   1
                l(4) =   1
                l(5) =   2
                l(6) =   2
     Q(r) pseudized with  8 coefficients,  rinner =    1.000   1.000   1.000
                                                       1.000   1.000

     PseudoPot. # 2 for O  read from file:
     /storage/coda1/p-amedford6/0/shared/rich_project_chbe-medford/medford-share/data/pseudos_module/espresso/nninc/pbe/van/O.UPF
     MD5 check sum: 78c19812648e8988a0fe644b0f25305e
     Pseudo is Ultrasoft, Zval =  6.0
     Generated by new atomic code, or converted to UPF format
     Using radial grid of  737 points,  4 beta functions with:
                l(1) =   0
                l(2) =   0
                l(3) =   1
                l(4) =   1
     Q(r) pseudized with  8 coefficients,  rinner =    0.800   0.800   0.800

     PseudoPot. # 3 for N  read from file:
     /storage/coda1/p-amedford6/0/shared/rich_project_chbe-medford/medford-share/data/pseudos_module/espresso/nninc/pbe/van/N.UPF
     MD5 check sum: 90d10febe142ad51ac9d5be1deb811c4
     Pseudo is Ultrasoft, Zval =  5.0
     Generated by new atomic code, or converted to UPF format
     Using radial grid of  729 points,  4 beta functions with:
                l(1) =   0
                l(2) =   0
                l(3) =   1
                l(4) =   1
     Q(r) pseudized with  8 coefficients,  rinner =    0.800   0.800   0.800

     PseudoPot. # 4 for C  read from file:
     /storage/coda1/p-amedford6/0/shared/rich_project_chbe-medford/medford-share/data/pseudos_module/espresso/nninc/pbe/van/C.UPF
     MD5 check sum: 1a69bf6b8db32088f5b2163dbdb77a27
     Pseudo is Ultrasoft, Zval =  4.0
     Generated by new atomic code, or converted to UPF format
     Using radial grid of  721 points,  4 beta functions with:
                l(1) =   0
                l(2) =   0
                l(3) =   1
                l(4) =   1
     Q(r) pseudized with  8 coefficients,  rinner =    0.800   0.800   0.800

     PseudoPot. # 5 for H  read from file:
     /storage/coda1/p-amedford6/0/shared/rich_project_chbe-medford/medford-share/data/pseudos_module/espresso/nninc/pbe/van/H.UPF
     MD5 check sum: b5ee9d7bfd3a09ee7748110bda690ff7
     Pseudo is Ultrasoft, Zval =  1.0
     Generated by new atomic code, or converted to UPF format
     Using radial grid of  615 points,  1 beta functions with:
                l(1) =   0
     Q(r) pseudized with  8 coefficients,  rinner =    0.800

     atomic species   valence    mass     pseudopotential
        Ti1           12.00    47.86700     Ti( 1.00)
        O1             6.00    15.99900     O ( 1.00)
        N1             5.00    14.00700     N ( 1.00)
        C1             4.00    12.01100     C ( 1.00)
        H1             1.00     1.00800     H ( 1.00)

     Starting magnetic structure
     atomic species   magnetization
        Ti1          0.000
        O1           0.000
        N1           0.000
        C1           0.025
        H1           0.000

     No symmetry found

   Cartesian axes

     site n.     atom                  positions (alat units)
         1           Ti1 tau(   1) = (   0.0004258   2.9801865   6.0000000  )
         2           Ti1 tau(   2) = (   3.2906075   1.4906267   6.0002472  )
         3           O1  tau(   3) = (   0.0006271   0.0005054   7.9858123  )
         4           O1  tau(   4) = (   3.2906025   0.0005020   7.3038282  )
         5           O1  tau(   5) = (   4.5942328   1.4918067   9.2879030  )
         6           O1  tau(   6) = (   1.9868534   1.4903216   9.2879459  )
         7           Ti1 tau(   7) = (   3.2907910   2.8959150   9.1758416  )
         8           Ti1 tau(   8) = (   0.0015273   1.4827037   9.2680791  )
         9           O1  tau(   9) = (   3.2848820   0.0184509  11.2968037  )
        10           O1  tau(  10) = (   0.0116148   5.9584955  10.6183126  )
        11           O1  tau(  11) = (   1.3164307   1.5202202  12.6152053  )
        12           O1  tau(  12) = (   5.2938533   1.5248534  12.6363518  )
        13           Ti1 tau(  13) = (   6.4693392   3.0155455  12.7604093  )
        14           Ti1 tau(  14) = (   3.1621140   1.5165027  12.4659144  )
        15           O1  tau(  15) = (   0.0250032   0.0426882  14.5925537  )
        16           O1  tau(  16) = (   3.2896737   0.0171256  13.8799622  )
        17           O1  tau(  17) = (   4.5365032   1.4993634  16.0438468  )
        18           O1  tau(  18) = (   2.0814567   1.5015292  16.0591106  )
        19           Ti1 tau(  19) = (   3.3082904   2.9956922  15.6854367  )
        20           Ti1 tau(  20) = (   0.0032501   1.4479889  16.1249605  )
        21           O1  tau(  21) = (   3.2904802   0.0005063   4.7018136  )
        22           O1  tau(  22) = (   0.0161699   0.0004382  17.1970091  )
        23           O1  tau(  23) = (   1.3043587   1.4918075   6.0039043  )
        24           O1  tau(  24) = (   5.2767064   1.4903225   6.0039473  )
        25           Ti1 tau(  25) = (   0.0000382   5.9609847   6.0000000  )
        26           Ti1 tau(  26) = (   3.2902200   4.4714249   6.0002472  )
        27           O1  tau(  27) = (   0.0002396   2.9813036   7.9858123  )
        28           O1  tau(  28) = (   3.2902150   2.9813002   7.3038282  )
        29           O1  tau(  29) = (   4.5938453   4.4726049   9.2879030  )
        30           O1  tau(  30) = (   1.9864658   4.4711199   9.2879459  )
        31           Ti1 tau(  31) = (   3.2891106   5.8743827   9.1763621  )
        32           Ti1 tau(  32) = (   0.0006254   4.4649316   9.2693709  )
        33           O1  tau(  33) = (   3.2855107   2.9994495  11.2959752  )
        34           O1  tau(  34) = (   0.0092240   2.9805883  10.6323155  )
        35           O1  tau(  35) = (   1.3179678   4.4860142  12.6155112  )
        36           O1  tau(  36) = (   5.2920789   4.4901865  12.6316709  )
        37           Ti1 tau(  37) = (   6.5050993   0.0355131  12.7707974  )
        38           Ti1 tau(  38) = (   3.1594757   4.4963870  12.4672366  )
        39           O1  tau(  39) = (   6.5726527   3.0227966  14.6583025  )
        40           O1  tau(  40) = (   3.2932321   2.9979836  13.8792693  )
        41           O1  tau(  41) = (   4.5322310   4.4839795  16.0418810  )
        42           O1  tau(  42) = (   2.0800586   4.4799519  16.0553745  )
        43           Ti1 tau(  43) = (   3.2910362   0.0127607  15.6894215  )
        44           Ti1 tau(  44) = (   0.0049462   4.4269923  16.0943486  )
        45           O1  tau(  45) = (   3.2900926   2.9813045   4.7018136  )
        46           O1  tau(  46) = (   1.3039711   4.4726057   6.0039043  )
        47           O1  tau(  47) = (   5.2763189   4.4711207   6.0039473  )
        48           N1  tau(  48) = (   0.0596666   2.9942962  17.3216073  )
        49           C1  tau(  49) = (   0.3918855   2.9774893  18.7266025  )
        50           H1  tau(  50) = (   0.0117595   3.8652167  19.2343835  )
        51           H1  tau(  51) = (   0.0043965   2.0815098  19.2200810  )
        52           H1  tau(  52) = (   1.4843755   2.9788857  18.8581259  )

     number of k points=    10  Fermi-Dirac smearing, width (Ry)=  0.0073
                       cart. coord. in units 2pi/alat
        k(    1) = (   0.0000000   0.0000000   0.0000000), wk =   0.0625000
        k(    2) = (   0.0000000   0.0419351   0.0000000), wk =   0.1250000
        k(    3) = (   0.0000000  -0.0838702   0.0000000), wk =   0.0625000
        k(    4) = (   0.0379955   0.0000049   0.0000000), wk =   0.1250000
        k(    5) = (   0.0379955   0.0419400   0.0000000), wk =   0.1250000
        k(    6) = (   0.0379955  -0.0838652   0.0000000), wk =   0.1250000
        k(    7) = (   0.0379955  -0.0419301   0.0000000), wk =   0.1250000
        k(    8) = (  -0.0759910  -0.0000099   0.0000000), wk =   0.0625000
        k(    9) = (  -0.0759910   0.0419252   0.0000000), wk =   0.1250000
        k(   10) = (  -0.0759910  -0.0838800   0.0000000), wk =   0.0625000

     Initial potential from superposition of free atoms

     starting charge  373.99917, renormalised to  390.00000

     negative rho (up, down):  8.649E-03 8.656E-03

     %%%%%%%%%%%%%%%%%%%%%%%%%%%%%%%%%%%%%%%%%%%%%%%%%%%%%%%%%%%%%%%%%%%%%%%%
     %                                                                      %
     % You are using vdW-DF, which was implemented by the Thonhauser group. %
     % Please cite the following two papers that made this development      %
     % possible and the two reviews that describe the various versions:     %
     %                                                                      %
     %   T. Thonhauser et al., PRL 115, 136402 (2015).                      %
     %   T. Thonhauser et al., PRB 76, 125112 (2007).                       %
     %   K. Berland et al., Rep. Prog. Phys. 78, 066501 (2015).             %
     %   D.C. Langreth et al., J. Phys.: Condens. Matter 21, 084203 (2009). %
     %                                                                      %
     %                                                                      %
     % If you are calculating the stress with vdW-DF, please also cite:     %
     %                                                                      %
     %   R. Sabatini et al., J. Phys.: Condens. Matter 24, 424209 (2012).   %
     %                                                                      %
     %%%%%%%%%%%%%%%%%%%%%%%%%%%%%%%%%%%%%%%%%%%%%%%%%%%%%%%%%%%%%%%%%%%%%%%%

     Adding external electric field

     Computed dipole along edir(3) :
        Dipole               -4.6263 Ry au,        -11.7589 Debye
        Dipole field         -0.0087 Ry au,

        Potential amp.        0.8093 Ry
        Total length         46.3494 bohr

[...]

     Starting wfcs are  295 atomic wfcs
  @ DRIVER MODE: Message from server: STATUS
  @ DRIVER MODE: Message from server: POSDATA
  @ DRIVER MODE: Reading and sharing cell
  @ DRIVER MODE: Reading and sharing positions
  @ DRIVER MODE: Received positions

     Self-consistent Calculation

     iteration #  1     ecut=    29.40 Ry     beta= 0.05
     Davidson diagonalization with overlap
     c_bands:  3 eigenvalues not converged
     c_bands:  3 eigenvalues not converged
     c_bands:  2 eigenvalues not converged
     c_bands:  4 eigenvalues not converged
     c_bands:  4 eigenvalues not converged
     c_bands:  2 eigenvalues not converged
     c_bands:  2 eigenvalues not converged
     c_bands:  2 eigenvalues not converged
     c_bands:  4 eigenvalues not converged
     c_bands:  2 eigenvalues not converged
     c_bands:  2 eigenvalues not converged
     c_bands:  4 eigenvalues not converged
     c_bands:  2 eigenvalues not converged
     c_bands:  4 eigenvalues not converged
     c_bands:  2 eigenvalues not converged
     c_bands:  3 eigenvalues not converged
     c_bands:  2 eigenvalues not converged
     ethr =  1.00E-05,  avg # of iterations = 19.8

[...]

     total energy              =   -2877.41219071 Ry
     estimated scf accuracy    <     481.27039787 Ry

     total magnetization       =     0.13 Bohr mag/cell
     absolute magnetization    =     0.15 Bohr mag/cell

     iteration #  2     ecut=    29.40 Ry     beta= 0.05
     Davidson diagonalization with overlap
     ethr =  1.00E-02,  avg # of iterations = 13.7

[...]

     iteration # 32     ecut=    29.40 Ry     beta= 0.05
     Davidson diagonalization with overlap
     c_bands:  2 eigenvalues not converged
     ethr =  3.56E-07,  avg # of iterations =  2.8

[...]

     total energy              =   -2919.13331718 Ry
     estimated scf accuracy    <       0.00000021 Ry

[...]

     iteration # 55     ecut=    29.40 Ry     beta= 0.05
     Davidson diagonalization with overlap
     ethr =  4.90E-11,  avg # of iterations =  5.0

     negative rho (up, down):  8.891E-03 8.891E-03

[...]

     Adding external electric field

     Computed dipole along edir(3) :
        Dipole                0.2532 Ry au,          0.6435 Debye
        Dipole field          0.0005 Ry au,

        Potential amp.       -0.0443 Ry
        Total length         46.3494 bohr

     Magnetic moment per site  (integrated on atomic sphere of radius R)
     atom   1 (R=0.743)  charge=  8.0712  magn=  0.0000
     atom   2 (R=0.743)  charge=  8.0673  magn=  0.0000
     atom   3 (R=0.743)  charge=  5.0508  magn=  0.0000
     atom   4 (R=0.743)  charge=  5.0897  magn= -0.0000
     atom   5 (R=0.743)  charge=  5.0526  magn=  0.0000
     atom   6 (R=0.743)  charge=  5.0539  magn=  0.0000
     atom   7 (R=0.743)  charge=  8.0607  magn= -0.0000
     atom   8 (R=0.743)  charge=  8.0480  magn= -0.0000
     atom   9 (R=0.743)  charge=  5.0677  magn=  0.0000
     atom  10 (R=0.743)  charge=  4.9973  magn=  0.0000
     atom  11 (R=0.743)  charge=  5.0556  magn=  0.0000
     atom  12 (R=0.743)  charge=  5.0584  magn=  0.0000
     atom  13 (R=0.743)  charge=  8.0595  magn= -0.0000
     atom  14 (R=0.743)  charge=  8.0663  magn= -0.0001
     atom  15 (R=0.743)  charge=  5.0445  magn=  0.0000
     atom  16 (R=0.743)  charge=  5.0714  magn=  0.0000
     atom  17 (R=0.743)  charge=  5.0432  magn=  0.0000
     atom  18 (R=0.743)  charge=  5.0420  magn=  0.0000
     atom  19 (R=0.743)  charge=  8.0874  magn= -0.0001
     atom  20 (R=0.743)  charge=  8.0865  magn= -0.0000
     atom  21 (R=0.743)  charge=  4.9345  magn= -0.0001
     atom  22 (R=0.743)  charge=  5.0262  magn=  0.0001
     atom  23 (R=0.743)  charge=  5.0425  magn= -0.0000
     atom  24 (R=0.743)  charge=  5.0426  magn= -0.0000
     atom  25 (R=0.743)  charge=  8.0712  magn=  0.0000
     atom  26 (R=0.743)  charge=  8.0673  magn=  0.0000
     atom  27 (R=0.743)  charge=  5.0507  magn=  0.0000
     atom  28 (R=0.743)  charge=  5.0899  magn=  0.0000
     atom  29 (R=0.743)  charge=  5.0534  magn=  0.0000
     atom  30 (R=0.743)  charge=  5.0547  magn=  0.0000
     atom  31 (R=0.743)  charge=  8.0608  magn= -0.0000
     atom  32 (R=0.743)  charge=  8.0483  magn= -0.0000
     atom  33 (R=0.743)  charge=  5.0678  magn=  0.0000
     atom  34 (R=0.743)  charge=  4.9963  magn=  0.0000
     atom  35 (R=0.743)  charge=  5.0558  magn=  0.0000
     atom  36 (R=0.743)  charge=  5.0580  magn=  0.0000
     atom  37 (R=0.743)  charge=  8.0670  magn= -0.0000
     atom  38 (R=0.743)  charge=  8.0668  magn= -0.0000
     atom  39 (R=0.743)  charge=  5.0387  magn=  0.0000
     atom  40 (R=0.743)  charge=  5.0730  magn=  0.0001
     atom  41 (R=0.743)  charge=  5.0439  magn=  0.0000
     atom  42 (R=0.743)  charge=  5.0430  magn=  0.0000
     atom  43 (R=0.743)  charge=  8.0879  magn= -0.0000
     atom  44 (R=0.743)  charge=  8.0856  magn=  0.0000
     atom  45 (R=0.743)  charge=  4.9345  magn= -0.0000
     atom  46 (R=0.743)  charge=  5.0425  magn=  0.0000
     atom  47 (R=0.743)  charge=  5.0426  magn= -0.0000
     atom  48 (R=0.596)  charge=  2.7578  magn= -0.0003
     atom  49 (R=0.450)  charge=  0.8499  magn=  0.0000
     atom  50 (R=0.450)  charge=  0.5102  magn= -0.0000
     atom  51 (R=0.450)  charge=  0.5086  magn= -0.0000
     atom  52 (R=0.450)  charge=  0.5031  magn= -0.0000

     End of self-consistent calculation

 ------ SPIN UP ------------

          k = 0.0000 0.0000 0.0000 ( 18029 PWs)   bands (ev):

   -56.8976 -56.8640 -56.0107 -56.0013 -55.9756 -55.9688 -55.8612 -55.8254
   -55.6438 -55.6086 -55.5597 -55.5380 -55.5258 -55.4403 -54.9955 -54.9426
   -33.3249 -33.1717 -33.1435 -33.0738 -32.9828 -32.9510 -32.4840 -32.4748
   -32.4039 -32.2965 -32.2509 -32.2241 -32.2089 -32.1850 -32.1522 -32.1490
   -32.1418 -32.1394 -32.1152 -32.1079 -32.1009 -32.0694 -32.0433 -32.0283
   -32.0146 -31.9973 -31.9887 -31.9653 -31.9516 -31.8982 -31.8753 -31.8740
   -31.7826 -31.7816 -31.7703 -31.7133 -31.7099 -31.6869 -31.6681 -31.6464
   -31.6222 -31.5760 -31.5177 -31.2385 -31.2199 -31.1922 -31.1637 -31.0455
   -17.0595 -16.6200 -16.3892 -16.2587 -16.1874 -16.1368 -16.0891 -15.9626
   -15.8914 -15.8879 -15.8506 -15.8117 -15.7436 -15.6039 -15.5065 -15.4472
   -15.4041 -15.2844 -15.2269 -15.1905 -15.1827 -15.1523 -15.1318 -14.9342
   -14.9117 -14.8155 -14.7988 -14.6749 -14.4483 -14.0582 -13.9482 -13.0890
    -7.8155  -4.6258  -4.1161  -3.8736  -3.7910  -3.6806  -3.6731  -3.5916
    -3.4769  -3.4261  -3.3805  -3.2648  -3.2608  -3.1153  -3.1102  -3.0721
    -3.0658  -3.0292  -2.9941  -2.9502  -2.8970  -2.8896  -2.8869  -2.7357
    -2.6368  -2.5677  -2.5443  -2.5273  -2.4992  -2.4075  -2.4021  -2.3871
    -2.3835  -2.2887  -2.1386  -2.1290  -2.0949  -2.0584  -2.0550  -2.0105
    -2.0013  -1.8451  -1.8010  -1.6849  -1.6723  -1.6376  -1.5712  -1.5676
    -1.4520  -1.3963  -1.3509  -1.3050  -1.1980  -1.1534  -1.1245  -1.0358
    -0.9750  -0.9380  -0.9192  -0.8999  -0.7923  -0.7848  -0.7690  -0.6780
    -0.6721  -0.6216  -0.5324  -0.5094  -0.5074  -0.4168  -0.4088  -0.3108
    -0.2760  -0.2236  -0.1934  -0.1136  -0.0829   0.0210   0.0601   0.0750
     0.2055   0.2206   0.2784   0.3456   0.4024   0.4457   0.4620   0.4964
     0.5056   0.5984   0.7065   0.7087   0.8200   0.8574   1.0149   1.0538
     1.3502   1.3585   2.0258   2.3778   2.5385   2.8365   3.0313   3.1440
     3.3543   3.3684   3.3740   3.5540   3.6020

[...]

          k =-0.0760-0.0000 0.0000 ( 17886 PWs)   bands (ev):

[...]

 ------ SPIN DOWN ----------

[...]

          k = 0.0380-0.0419 0.0000 ( 17876 PWs)   bands (ev):

[...]

          k =-0.0760-0.0839 0.0000 ( 17948 PWs)   bands (ev):

   -56.8809 -56.8805 -55.9946 -55.9902 -55.9859 -55.9855 -55.8464 -55.8404
   -55.6290 -55.6237 -55.5427 -55.5426 -55.5349 -55.4435 -54.9889 -54.9494
   -33.1575 -33.1572 -33.1418 -33.1416 -33.0269 -33.0266 -32.3137 -32.3112
   -32.2988 -32.2935 -32.2409 -32.2394 -32.1967 -32.1964 -32.1957 -32.1923
   -32.1843 -32.1817 -32.1807 -32.1788 -32.0981 -32.0930 -32.0468 -32.0430
   -31.9805 -31.9727 -31.9112 -31.9054 -31.8870 -31.8869 -31.8658 -31.8276
   -31.8263 -31.7923 -31.7679 -31.7678 -31.7595 -31.7287 -31.7287 -31.7083
   -31.6852 -31.6486 -31.3834 -31.3027 -31.2168 -31.1853 -31.1703 -31.1296
   -16.4075 -16.4055 -16.3738 -16.3735 -16.1025 -16.0989 -16.0499 -16.0477
   -15.8760 -15.8682 -15.6636 -15.6543 -15.6481 -15.6444 -15.5166 -15.5096
   -15.4460 -15.4332 -15.3448 -15.3380 -15.2769 -15.2706 -15.2342 -15.2128
   -14.8956 -14.8897 -14.7671 -14.7541 -14.6034 -14.0519 -14.0518 -13.1060
    -7.8065  -3.5065  -3.5057  -3.4395  -3.4385  -3.3138  -3.3071  -3.2380
    -3.2374  -3.1312  -3.1275  -3.0857  -3.0000  -2.9900  -2.9867  -2.9757
    -2.9610  -2.8344  -2.8318  -2.8190  -2.8041  -2.7525  -2.7500  -2.7351
    -2.6558  -2.6399  -2.6086  -2.5645  -2.4643  -2.4478  -2.4319  -2.4045
    -2.3475  -2.3350  -2.3211  -2.2755  -2.2549  -2.1530  -2.1068  -2.0625
    -1.9424  -1.9398  -1.9303  -1.9131  -1.7653  -1.7283  -1.6972  -1.6903
    -1.6817  -1.6322  -1.5403  -1.5321  -1.3976  -1.3929  -1.3212  -1.2381
    -1.2193  -1.1904  -1.0584  -1.0108  -0.9785  -0.9721  -0.9525  -0.9233
    -0.8950  -0.8683  -0.7231  -0.7043  -0.6798  -0.6421  -0.6295  -0.5754
    -0.5267  -0.4463  -0.3670  -0.3660  -0.2852  -0.2421  -0.1773  -0.0951
    -0.0832  -0.0771   0.2034   0.2813   0.3734   0.4582   0.5210   0.5845
     0.6079   0.6734   0.7056   0.8430   0.8461   0.8625   0.8627   0.9301
     0.9349   1.3294   1.9188   2.9515   2.9518   3.0193   3.0197   3.3434
     3.3488   3.4584   3.4679   3.5833   3.5853

     the Fermi energy is     2.2126 ev

!    total energy              =   -2919.13338298 Ry
     estimated scf accuracy    <       0.00000007 Ry
     smearing contrib. (-TS)   =      -0.00465697 Ry
     internal energy E=F+TS    =   -2919.12872600 Ry

     The total energy is F=E-TS. E is the sum of the following terms:
     one-electron contribution =  -24579.15458944 Ry
     hartree contribution      =   12373.77452782 Ry
     xc contribution           =    -479.90318142 Ry
     ewald contribution        =    9766.15439609 Ry
     electric field correction =       0.00012095 Ry

     total magnetization       =    -0.00 Bohr mag/cell
     absolute magnetization    =     0.00 Bohr mag/cell

     convergence has been achieved in  55 iterations

     Forces acting on atoms (cartesian axes, Ry/au):

     atom    1 type  1   force =    -0.00002573   -0.00046415    0.12459998
     atom    2 type  1   force =    -0.00012437   -0.00052831   -0.16054113
     atom    3 type  2   force =     0.00015970   -0.00014313   -0.06865390
     atom    4 type  2   force =    -0.00004475   -0.00017670    0.02745030
     atom    5 type  2   force =    -0.01664983    0.00229994   -0.00876247
     atom    6 type  2   force =     0.01810773    0.00296679   -0.00971246
     atom    7 type  1   force =     0.00056735   -0.00364338    0.02217400
     atom    8 type  1   force =    -0.00015797   -0.00291089    0.11211137
     atom    9 type  2   force =     0.00047475   -0.00002947   -0.00024080
     atom   10 type  2   force =    -0.00266511    0.00369064   -0.07364146
     atom   11 type  2   force =     0.00131406   -0.00058526   -0.00043913
     atom   12 type  2   force =    -0.00054855   -0.00105153   -0.00079146
     atom   13 type  1   force =     0.00031028   -0.00065929    0.00061172
     atom   14 type  1   force =    -0.00082677   -0.00054900    0.00001762
     atom   15 type  2   force =    -0.00029966   -0.00010807    0.00002393
     atom   16 type  2   force =     0.00028393    0.00011871   -0.00053446
     atom   17 type  2   force =     0.00021301   -0.00020575   -0.00015603
     atom   18 type  2   force =    -0.00041913   -0.00036888   -0.00048183
     atom   19 type  1   force =     0.00062879   -0.00036998   -0.00001466
     atom   20 type  1   force =    -0.00010861   -0.00025770   -0.00015250
     atom   21 type  2   force =     0.00005396   -0.00006516    0.09970341
     atom   22 type  2   force =     0.00008572   -0.00032214    0.00052619
     atom   23 type  2   force =    -0.07926952   -0.00009334   -0.03247991
     atom   24 type  2   force =     0.07914143    0.00035683   -0.03250200
     atom   25 type  1   force =     0.00000656   -0.00050247    0.12409669
     atom   26 type  1   force =    -0.00015672   -0.00044214   -0.16061633
     atom   27 type  2   force =     0.00029444   -0.00031671   -0.06766912
     atom   28 type  2   force =    -0.00002460   -0.00001649    0.02721573
     atom   29 type  2   force =    -0.01711263    0.00187848   -0.00887032
     atom   30 type  2   force =     0.01844833    0.00226546   -0.00976619
     atom   31 type  1   force =     0.00058485   -0.00093778    0.02171147
     atom   32 type  1   force =    -0.00011770    0.00053132    0.11256397
     atom   33 type  2   force =     0.00025963   -0.00064235   -0.00042896
     atom   34 type  2   force =    -0.00273476    0.00315742   -0.07280247
     atom   35 type  2   force =    -0.00108947    0.00023264    0.00015751
     atom   36 type  2   force =     0.00086003    0.00007914    0.00027307
     atom   37 type  1   force =    -0.00009227   -0.00003229   -0.00022287
     atom   38 type  1   force =     0.00088651   -0.00026981   -0.00017047
     atom   39 type  2   force =    -0.00009138   -0.00051281    0.00010612
     atom   40 type  2   force =     0.00007379   -0.00012450   -0.00011160
     atom   41 type  2   force =     0.00018130   -0.00044616   -0.00010492
     atom   42 type  2   force =     0.00000255   -0.00011519   -0.00058263
     atom   43 type  1   force =     0.00015887    0.00069586    0.00077174
     atom   44 type  1   force =    -0.00060305   -0.00049678   -0.00026242
     atom   45 type  2   force =     0.00004469   -0.00006965    0.09972343
     atom   46 type  2   force =    -0.07927763   -0.00004264   -0.03247269
     atom   47 type  2   force =     0.07915052    0.00039990   -0.03249270
     atom   48 type  3   force =     0.00053669   -0.00029144    0.00122958
     atom   49 type  4   force =     0.00281853   -0.00258529   -0.00127554
     atom   50 type  5   force =    -0.00280936    0.00301355    0.00150056
     atom   51 type  5   force =    -0.00008265   -0.00002871    0.00057584
     atom   52 type  5   force =    -0.00031575   -0.00128135   -0.00019079

     Total force =     0.425602     Total SCF correction =     0.000923
  @ DRIVER MODE: Message from server: STATUS
  @ DRIVER MODE: Message from server: GETFORCE
  @ DRIVER MODE: Returning v,forces,stress,ensemble

     Writing output data file ./calc.save/
  @ DRIVER MODE: Message from server: EXIT
  @ DRIVE MODE: Exiting

     General routines

     Parallel routines

   This run was terminated on:  22:20:24  15Jul2021

   JOB DONE.