     Program PWSCF v.6.7GPU starts on 16Sep2021 at  5:59:39

     R & G space division:  proc/nbgrp/npool/nimage =      10
     Reading input from /storage/home/hcoda1/3/ntian30/research/carbon/CxH_vib/H2O_calc/ads_slab/CH3NH2NHH2O_c/out_0040/pw.inp
Warning: card &CELL ignored
Warning: card   CELL_DYNAMICS='IPI', ignored
Warning: card / ignored

     Current dimensions of program PWSCF are:
     Max number of different atomic species (ntypx) = 10
     Max number of k-points (npk) =  40000
     Max angular momentum in pseudopotentials (lmaxx) =  3
     Presently no symmetry can be used with electric field

     Message from routine cell_base_init:
     DEPRECATED: use true lattice parameter, not A to a.u. conversion factor

     IMPORTANT: XC functional enforced from input :
     Exchange-correlation= BEEF-VDW
                           (   1   4  43  14   2   0   0)
     Any further DFT definition will be discarded
     Please, verify this is what you really want

  @ DRIVER MODE: Connecting to
 qe_1139763_2852614.sched-torque.pace.gatech.edujwr9sjoj_scratch
  using UNIX socket
  @ DRIVER MODE: Message from server: STATUS
  @ DRIVER MODE: Message from server: INIT
  @ DRIVER MODE: Receiving replica           0          -1
  @ DRIVER MODE: Receiving encoded integer          25
  @ DRIVER MODE:  SCF:  T  FORCE:  T  STRESS:  F  VC:  F  ENSEMBLE:  F
  @ DRIVER MODE:  SCF:  T  FORCE:  T  STRESS:  F  VC:  F  ENSEMBLE:  F

     Using Slab Decomposition

     bravais-lattice index     =            0
     lattice parameter (alat)  =       1.8897  a.u.
     unit-cell volume          =    6658.9804 (a.u.)^3
     number of atoms/cell      =           59
     number of atomic types    =            5
     number of electrons       =       406.00
     number of Kohn-Sham states=          213
     kinetic-energy cutoff     =      29.3995  Ry
     charge density cutoff     =     293.9946  Ry
     scf convergence threshold =      7.3E-08
     mixing beta               =       0.0500
     number of iterations used =            8  plain     mixing
     Exchange-correlation= BEEF-VDW
                           (   1   4  43  14   2   0   0)

     celldm(1)=   1.889726  celldm(2)=   0.000000  celldm(3)=   0.000000
     celldm(4)=   0.000000  celldm(5)=   0.000000  celldm(6)=   0.000000

     crystal axes: (cart. coord. in units of alat)
               a(1) = (   6.579727   0.000000   0.000000 )
               a(2) = (  -0.000775   5.961596   0.000000 )
               a(3) = (   0.000000   0.000000  25.155947 )

     reciprocal axes: (cart. coord. in units 2 pi/alat)
               b(1) = (  0.151982  0.000020  0.000000 )
               b(2) = (  0.000000  0.167740  0.000000 )
               b(3) = (  0.000000  0.000000  0.039752 )

     PseudoPot. # 1 for Ti read from file:
     /storage/coda1/p-amedford6/0/shared/rich_project_chbe-medford/medford-share/data/pseudos_module/espresso/nninc/pbe/van/Ti.UPF
     MD5 check sum: 8e4df49b7f0d34bbd5052bf3f5ea0213
     Pseudo is Ultrasoft, Zval = 12.0
     Generated by new atomic code, or converted to UPF format
     Using radial grid of  851 points,  6 beta functions with:
                l(1) =   0
                l(2) =   0
                l(3) =   1
                l(4) =   1
                l(5) =   2
                l(6) =   2
     Q(r) pseudized with  8 coefficients,  rinner =    1.000   1.000   1.000
                                                       1.000   1.000

     PseudoPot. # 2 for O  read from file:
     /storage/coda1/p-amedford6/0/shared/rich_project_chbe-medford/medford-share/data/pseudos_module/espresso/nninc/pbe/van/O.UPF
     MD5 check sum: 78c19812648e8988a0fe644b0f25305e
     Pseudo is Ultrasoft, Zval =  6.0
     Generated by new atomic code, or converted to UPF format
     Using radial grid of  737 points,  4 beta functions with:
                l(1) =   0
                l(2) =   0
                l(3) =   1
                l(4) =   1
     Q(r) pseudized with  8 coefficients,  rinner =    0.800   0.800   0.800

     PseudoPot. # 3 for N  read from file:
     /storage/coda1/p-amedford6/0/shared/rich_project_chbe-medford/medford-share/data/pseudos_module/espresso/nninc/pbe/van/N.UPF
     MD5 check sum: 90d10febe142ad51ac9d5be1deb811c4
     Pseudo is Ultrasoft, Zval =  5.0
     Generated by new atomic code, or converted to UPF format
     Using radial grid of  729 points,  4 beta functions with:
                l(1) =   0
                l(2) =   0
                l(3) =   1
                l(4) =   1
     Q(r) pseudized with  8 coefficients,  rinner =    0.800   0.800   0.800

     PseudoPot. # 4 for C  read from file:
     /storage/coda1/p-amedford6/0/shared/rich_project_chbe-medford/medford-share/data/pseudos_module/espresso/nninc/pbe/van/C.UPF
     MD5 check sum: 1a69bf6b8db32088f5b2163dbdb77a27
     Pseudo is Ultrasoft, Zval =  4.0
     Generated by new atomic code, or converted to UPF format
     Using radial grid of  721 points,  4 beta functions with:
                l(1) =   0
                l(2) =   0
                l(3) =   1
                l(4) =   1
     Q(r) pseudized with  8 coefficients,  rinner =    0.800   0.800   0.800

     PseudoPot. # 5 for H  read from file:
     /storage/coda1/p-amedford6/0/shared/rich_project_chbe-medford/medford-share/data/pseudos_module/espresso/nninc/pbe/van/H.UPF
     MD5 check sum: b5ee9d7bfd3a09ee7748110bda690ff7
     Pseudo is Ultrasoft, Zval =  1.0
     Generated by new atomic code, or converted to UPF format
     Using radial grid of  615 points,  1 beta functions with:
                l(1) =   0
     Q(r) pseudized with  8 coefficients,  rinner =    0.800

     atomic species   valence    mass     pseudopotential
        Ti1           12.00    47.86700     Ti( 1.00)
        O1             6.00    15.99900     O ( 1.00)
        N1             5.00    14.00700     N ( 1.00)
        C1             4.00    12.01100     C ( 1.00)
        H1             1.00     1.00800     H ( 1.00)

     No symmetry found

   Cartesian axes

     site n.     atom                  positions (alat units)
         1           Ti1 tau(   1) = (   0.0004258   2.9801865   6.0000000  )
         2           Ti1 tau(   2) = (   3.2906075   1.4906267   6.0002472  )
         3           O1  tau(   3) = (   0.0006271   0.0005054   7.9858123  )
         4           O1  tau(   4) = (   3.2906025   0.0005020   7.3038282  )
         5           O1  tau(   5) = (   4.5942328   1.4918067   9.2879030  )
         6           O1  tau(   6) = (   1.9868534   1.4903216   9.2879459  )
         7           Ti1 tau(   7) = (   3.2907910   2.8959150   9.1758416  )
         8           Ti1 tau(   8) = (   0.0015273   1.4827037   9.2680791  )
         9           O1  tau(   9) = (   3.2795193   0.0050042  11.3600746  )
        10           O1  tau(  10) = (   0.0116148   5.9584955  10.6183126  )
        11           O1  tau(  11) = (   1.2764768   1.4833402  12.6625751  )
        12           O1  tau(  12) = (   5.2691860   1.4824858  12.6730715  )
        13           Ti1 tau(  13) = (   6.5785005   2.9712200  12.5432933  )
        14           Ti1 tau(  14) = (   3.2815129   1.4861921  12.5133659  )
        15           O1  tau(  15) = (   0.0084525   5.9333602  14.7514412  )
        16           O1  tau(  16) = (   3.2474592   5.9449689  14.0025778  )
        17           O1  tau(  17) = (   4.5272503   1.5270814  16.0535473  )
        18           O1  tau(  18) = (   2.0088677   1.5398698  16.1918835  )
        19           Ti1 tau(  19) = (   3.2695027   3.0127370  15.7044713  )
        20           Ti1 tau(  20) = (   6.4897317   1.5391078  15.7731133  )
        21           O1  tau(  21) = (   3.2904802   0.0005063   4.7018136  )
        22           O1  tau(  22) = (   6.4943121   0.0104379  17.3746616  )
        23           O1  tau(  23) = (   1.3043587   1.4918075   6.0039043  )
        24           O1  tau(  24) = (   5.2767064   1.4903225   6.0039473  )
        25           Ti1 tau(  25) = (   0.0000382   5.9609847   6.0000000  )
        26           Ti1 tau(  26) = (   3.2902200   4.4714249   6.0002472  )
        27           O1  tau(  27) = (   0.0002396   2.9813036   7.9858123  )
        28           O1  tau(  28) = (   3.2902150   2.9813002   7.3038282  )
        29           O1  tau(  29) = (   4.5938453   4.4726049   9.2879030  )
        30           O1  tau(  30) = (   1.9864658   4.4711199   9.2879459  )
        31           Ti1 tau(  31) = (   3.2891106   5.8743827   9.1763621  )
        32           Ti1 tau(  32) = (   0.0006254   4.4649316   9.2693709  )
        33           O1  tau(  33) = (   3.2806081   2.9711243  11.3509633  )
        34           O1  tau(  34) = (   0.0092240   2.9805883  10.6323155  )
        35           O1  tau(  35) = (   1.2760424   4.4718827  12.6381679  )
        36           O1  tau(  36) = (   5.2690016   4.4731519  12.6446470  )
        37           Ti1 tau(  37) = (   6.5708669   5.9382087  12.5160675  )
        38           Ti1 tau(  38) = (   3.2845625   4.4656782  12.4980923  )
        39           O1  tau(  39) = (   6.5779858   3.0049062  14.7590937  )
        40           O1  tau(  40) = (   3.2501146   3.0001303  13.9242794  )
        41           O1  tau(  41) = (   4.5300198   4.4412671  16.1793791  )
        42           O1  tau(  42) = (   2.0030354   4.4482434  16.2507355  )
        43           Ti1 tau(  43) = (   3.2558399   0.0045369  15.7947069  )
        44           Ti1 tau(  44) = (   0.0024851   4.6597080  16.1671864  )
        45           O1  tau(  45) = (   3.2900926   2.9813045   4.7018136  )
        46           O1  tau(  46) = (   1.3039711   4.4726057   6.0039043  )
        47           O1  tau(  47) = (   5.2763189   4.4711207   6.0039473  )
        48           N1  tau(  48) = (   0.8610865   2.3037131  18.4629187  )
        49           N1  tau(  49) = (   6.4642385   2.8627238  17.5618644  )
        50           C1  tau(  50) = (   1.1134797   3.0572184  19.7121060  )
        51           H1  tau(  51) = (   0.2160447   3.0254214  20.3281890  )
        52           H1  tau(  52) = (   1.9467850   2.5864873  20.2353232  )
        53           H1  tau(  53) = (   1.3463996   4.0866186  19.4485780  )
        54           H1  tau(  54) = (   0.5832711   1.3214681  18.6183785  )
        55           H1  tau(  55) = (   5.5643591   2.7461405  18.0238738  )
        56           H1  tau(  56) = (   1.7079168   2.1891883  17.8702682  )
        57           O1  tau(  57) = (   4.0734316   0.3075885  18.7765601  )
        58           H1  tau(  58) = (   4.9241673   0.1787741  18.2816895  )
        59           H1  tau(  59) = (   3.8734322   5.3936830  19.1372508  )

     number of k points=    10  Fermi-Dirac smearing, width (Ry)=  0.0073
                       cart. coord. in units 2pi/alat
        k(    1) = (   0.0000000   0.0000000   0.0000000), wk =   0.1250000
        k(    2) = (   0.0000000   0.0419351   0.0000000), wk =   0.2500000
        k(    3) = (   0.0000000  -0.0838702   0.0000000), wk =   0.1250000
        k(    4) = (   0.0379955   0.0000049   0.0000000), wk =   0.2500000
        k(    5) = (   0.0379955   0.0419400   0.0000000), wk =   0.2500000
        k(    6) = (   0.0379955  -0.0838652   0.0000000), wk =   0.2500000
        k(    7) = (   0.0379955  -0.0419301   0.0000000), wk =   0.2500000
        k(    8) = (  -0.0759910  -0.0000099   0.0000000), wk =   0.1250000
        k(    9) = (  -0.0759910   0.0419252   0.0000000), wk =   0.2500000
        k(   10) = (  -0.0759910  -0.0838800   0.0000000), wk =   0.1250000

     Initial potential from superposition of free atoms

     starting charge  389.99912, renormalised to  406.00000

     negative rho (up, down):  1.392E-02 0.000E+00

     %%%%%%%%%%%%%%%%%%%%%%%%%%%%%%%%%%%%%%%%%%%%%%%%%%%%%%%%%%%%%%%%%%%%%%%%
     %                                                                      %
     % You are using vdW-DF, which was implemented by the Thonhauser group. %
     % Please cite the following two papers that made this development      %
     % possible and the two reviews that describe the various versions:     %
     %                                                                      %
     %   T. Thonhauser et al., PRL 115, 136402 (2015).                      %
     %   T. Thonhauser et al., PRB 76, 125112 (2007).                       %
     %   K. Berland et al., Rep. Prog. Phys. 78, 066501 (2015).             %
     %   D.C. Langreth et al., J. Phys.: Condens. Matter 21, 084203 (2009). %
     %                                                                      %
     %                                                                      %
     % If you are calculating the stress with vdW-DF, please also cite:     %
     %                                                                      %
     %   R. Sabatini et al., J. Phys.: Condens. Matter 24, 424209 (2012).   %
     %                                                                      %
     %%%%%%%%%%%%%%%%%%%%%%%%%%%%%%%%%%%%%%%%%%%%%%%%%%%%%%%%%%%%%%%%%%%%%%%%

     Adding external electric field

     Computed dipole along edir(3) :
        Dipole              -15.6809 Ry au,        -39.8568 Debye
        Dipole field         -0.0296 Ry au,

        Potential amp.        2.7431 Ry
        Total length         46.3494 bohr

     Starting wfcs are  308 atomic wfcs
  @ DRIVER MODE: Message from server: STATUS
  @ DRIVER MODE: Message from server: POSDATA
  @ DRIVER MODE: Reading and sharing cell
  @ DRIVER MODE: Reading and sharing positions
  @ DRIVER MODE: Received positions

     Self-consistent Calculation

     iteration #  1     ecut=    29.40 Ry     beta= 0.05
     Davidson diagonalization with overlap
     c_bands:  2 eigenvalues not converged
     c_bands:  5 eigenvalues not converged
     c_bands:  2 eigenvalues not converged
     c_bands:  4 eigenvalues not converged
     c_bands:  4 eigenvalues not converged
     c_bands:  5 eigenvalues not converged
     c_bands:  5 eigenvalues not converged
     c_bands:  1 eigenvalues not converged
     ethr =  1.00E-05,  avg # of iterations = 22.5

[...]

     total energy              =   -2140.10456545 Ry
     estimated scf accuracy    <    9575.52326156 Ry

     iteration #  2     ecut=    29.40 Ry     beta= 0.05
     Davidson diagonalization with overlap
     ethr =  1.00E-02,  avg # of iterations = 31.9

[...]

     iteration # 79     ecut=    29.40 Ry     beta= 0.05
     Davidson diagonalization with overlap
     c_bands:  2 eigenvalues not converged
     c_bands:  1 eigenvalues not converged
     ethr =  4.83E-11,  avg # of iterations = 11.3

[...]

     total energy              =   -2977.68483308 Ry
     estimated scf accuracy    <       0.00000011 Ry

     iteration # 80     ecut=    29.40 Ry     beta= 0.05
     Davidson diagonalization with overlap
     ethr =  2.76E-11,  avg # of iterations =  9.2

     negative rho (up, down):  1.239E-02 0.000E+00

     Adding external electric field

     Computed dipole along edir(3) :
        Dipole                1.6085 Ry au,          4.0884 Debye
        Dipole field          0.0030 Ry au,

        Potential amp.       -0.2814 Ry
        Total length         46.3494 bohr

     End of self-consistent calculation

          k = 0.0000 0.0000 0.0000 ( 18029 PWs)   bands (ev):

   -54.9543 -54.9176 -54.9150 -54.8835 -54.8441 -54.8341 -54.7939 -54.7622
   -54.7561 -54.7470 -54.7270 -54.7220 -54.7137 -54.6597 -53.9327 -53.8986
   -31.5264 -31.4077 -31.3207 -31.2821 -31.2639 -31.2516 -31.2492 -31.2441
   -31.2097 -31.2075 -31.1632 -31.1626 -31.1573 -31.1271 -31.1084 -31.0885
   -31.0778 -31.0720 -31.0706 -31.0634 -31.0292 -31.0244 -31.0174 -31.0126
   -30.9926 -30.9745 -30.9640 -30.9632 -30.9556 -30.9547 -30.9452 -30.9367
   -30.9205 -30.9202 -30.9115 -30.9096 -30.8841 -30.8777 -30.8759 -30.8748
   -30.8564 -30.8559 -30.3414 -30.2489 -30.2268 -30.1579 -30.0712 -29.9602
   -18.9928 -18.2083 -15.7896 -15.5218 -15.3966 -15.1963 -15.1430 -15.0384
   -14.8782 -14.8174 -14.7526 -14.7278 -14.7225 -14.6953 -14.6225 -14.5672
   -14.5361 -14.4854 -14.4849 -14.4491 -14.4417 -14.4370 -14.3821 -14.3783
   -14.3417 -14.3280 -14.3203 -14.1776 -14.0988 -14.0474 -14.0400 -13.2068
   -12.4354 -12.3182 -11.0055  -7.6344  -6.4060  -5.9733  -5.7688  -4.0178
    -3.8527  -3.1336  -2.9635  -2.9512  -2.8729  -2.8491  -2.6787  -2.6186
    -2.5097  -2.3968  -2.3185  -2.2208  -2.1769  -2.1590  -2.1451  -2.0313
    -1.9459  -1.9086  -1.8691  -1.8307  -1.8135  -1.7681  -1.7470  -1.7369
    -1.7043  -1.6790  -1.5258  -1.4510  -1.4144  -1.3812  -1.3407  -1.2833
    -1.2619  -1.2453  -1.2398  -1.2318  -1.2153  -1.1915  -1.1542  -1.1235
    -1.0557  -0.9718  -0.9620  -0.8508  -0.7670  -0.6343  -0.5805  -0.5231
    -0.4925  -0.4260  -0.3840  -0.3364  -0.3002  -0.2938  -0.2482  -0.1608
    -0.1471  -0.0900  -0.0714   0.0135   0.0597   0.0657   0.0762   0.2526
     0.2630   0.2809   0.3838   0.4644   0.5035   0.5201   0.5775   0.6401
     0.6430   0.6806   0.7025   0.7334   0.8161   0.9199   0.9451   0.9833
     0.9977   1.0233   1.0401   1.0686   1.1064   1.1875   1.1936   1.2714
     1.3629   1.3742   1.6373   1.6696   2.0004   2.0270   2.0898   2.2755
     2.6643   2.7117   4.1478   4.2097   4.2548   4.2806   4.2989   4.3794
     4.3984   4.6156   4.6420   4.6430   4.6523

[...]

          k = 0.0380-0.0419 0.0000 ( 17876 PWs)   bands (ev):

[...]

          k =-0.0760-0.0000 0.0000 ( 17886 PWs)   bands (ev):

[...]

          k =-0.0760-0.0839 0.0000 ( 17948 PWs)   bands (ev):

   -54.9425 -54.9266 -54.9005 -54.9005 -54.8416 -54.8245 -54.8034 -54.7536
   -54.7469 -54.7413 -54.7322 -54.7292 -54.7243 -54.6621 -53.9156 -53.9155
   -31.3351 -31.3237 -31.2578 -31.2228 -31.2228 -31.2167 -31.1930 -31.1928
   -31.1667 -31.1655 -31.1565 -31.1527 -31.1448 -31.0947 -31.0810 -31.0805
   -31.0760 -31.0749 -31.0715 -31.0689 -31.0408 -31.0317 -31.0295 -31.0228
   -31.0221 -31.0199 -31.0198 -31.0186 -30.9980 -30.9804 -30.9743 -30.9667
   -30.9611 -30.9554 -30.9540 -30.9498 -30.9487 -30.9224 -30.9156 -30.9126
   -30.9079 -30.8976 -30.2395 -30.2394 -30.1540 -30.1539 -30.1146 -30.1145
   -18.9880 -18.2088 -15.2803 -15.1535 -15.0541 -14.9990 -14.9521 -14.9364
   -14.9187 -14.8656 -14.8356 -14.7757 -14.7517 -14.7035 -14.6592 -14.6553
   -14.6276 -14.5483 -14.5329 -14.5206 -14.5131 -14.4620 -14.4480 -14.4252
   -14.4025 -14.3985 -14.3802 -14.3074 -14.2977 -14.2936 -14.2487 -13.2161
   -12.4199 -12.4196 -11.0059  -7.6450  -6.3964  -5.9732  -5.7538  -3.9968
    -3.8478  -2.5618  -2.5402  -2.4056  -2.3943  -2.2795  -2.1877  -2.1374
    -2.1317  -1.9924  -1.9598  -1.9440  -1.9287  -1.9164  -1.8678  -1.8443
    -1.8084  -1.7910  -1.7813  -1.7714  -1.7558  -1.7354  -1.6833  -1.6792
    -1.6686  -1.6542  -1.6101  -1.5944  -1.5635  -1.5528  -1.5243  -1.5017
    -1.4354  -1.3403  -1.2930  -1.2498  -1.1944  -1.1425  -1.1365  -1.0576
    -1.0400  -1.0082  -0.9773  -0.9528  -0.8569  -0.7835  -0.6891  -0.6868
    -0.6828  -0.5630  -0.5231  -0.5051  -0.4924  -0.4624  -0.3784  -0.3683
    -0.3085  -0.2340  -0.2079  -0.2030  -0.1771  -0.0574  -0.0324   0.0276
     0.0580   0.0906   0.0928   0.1714   0.1847   0.2438   0.2587   0.2721
     0.3173   0.3347   0.4330   0.5229   0.5594   0.6616   0.7559   0.7840
     0.8789   0.9369   1.0413   1.0632   1.0855   1.1822   1.1908   1.2255
     1.3543   1.3611   1.4770   1.5168   1.5267   1.5293   2.4479   2.4493
     2.5318   2.5319   4.2743   4.3970   4.4125   4.4587   4.5131   4.6544
     4.6779   4.7251   4.7267   4.8009   4.8094

     the Fermi energy is     4.2000 ev

!    total energy              =   -2977.68484047 Ry
     estimated scf accuracy    <       0.00000007 Ry
     smearing contrib. (-TS)   =      -0.03700807 Ry
     internal energy E=F+TS    =   -2977.64783240 Ry

     The total energy is F=E-TS. E is the sum of the following terms:
     one-electron contribution =  -23305.83541306 Ry
     hartree contribution      =   11753.91476931 Ry
     xc contribution           =    -496.61541856 Ry
     ewald contribution        =    9070.88334735 Ry
     electric field correction =       0.00488256 Ry

     convergence has been achieved in  80 iterations

     Forces acting on atoms (cartesian axes, Ry/au):

     atom    1 type  1   force =     0.00009302   -0.00024924    0.09408506
     atom    2 type  1   force =    -0.00008947   -0.00045285   -0.17749218
     atom    3 type  2   force =     0.00006339   -0.00032761   -0.02122563
     atom    4 type  2   force =     0.00003758   -0.00178715    0.05730887
     atom    5 type  2   force =    -0.01078499   -0.00101915    0.00669272
     atom    6 type  2   force =     0.01198200   -0.00033468    0.00504554
     atom    7 type  1   force =    -0.00060140    0.00105425   -0.01461822
     atom    8 type  1   force =     0.00086240    0.00330659    0.00461028
     atom    9 type  2   force =     0.00000901   -0.00005365    0.00013235
     atom   10 type  2   force =    -0.00368463    0.00211292   -0.00164697
     atom   11 type  2   force =    -0.00017777    0.00061744   -0.00009834
     atom   12 type  2   force =     0.00019468    0.00028403   -0.00021571
     atom   13 type  1   force =    -0.00019666   -0.00027618    0.00011506
     atom   14 type  1   force =     0.00024804   -0.00021825   -0.00037930
     atom   15 type  2   force =     0.00021659    0.00041431   -0.00017239
     atom   16 type  2   force =    -0.00012284    0.00025459   -0.00018697
     atom   17 type  2   force =    -0.00011070   -0.00026448    0.00034071
     atom   18 type  2   force =     0.00016375    0.00009737    0.00009418
     atom   19 type  1   force =     0.00003033    0.00024540   -0.00047447
     atom   20 type  1   force =     0.00039564   -0.00023434   -0.00003400
     atom   21 type  2   force =     0.00011925   -0.00007665    0.10375726
     atom   22 type  2   force =     0.00045564   -0.00060926   -0.00121217
     atom   23 type  2   force =    -0.07066842   -0.00014912   -0.02712633
     atom   24 type  2   force =     0.07063151    0.00032258   -0.02713713
     atom   25 type  1   force =     0.00011758   -0.00016482    0.09371212
     atom   26 type  1   force =    -0.00006858   -0.00053887   -0.17771579
     atom   27 type  2   force =     0.00006929   -0.00005258   -0.02032492
     atom   28 type  2   force =     0.00006430   -0.00146130    0.05630911
     atom   29 type  2   force =    -0.01129249   -0.00039957    0.00737630
     atom   30 type  2   force =     0.01240571    0.00000019    0.00576548
     atom   31 type  1   force =    -0.00074645    0.00573768   -0.01565692
     atom   32 type  1   force =     0.00081952   -0.00459491    0.00435130
     atom   33 type  2   force =     0.00002039    0.00015589    0.00027807
     atom   34 type  2   force =    -0.00321089   -0.00103304   -0.00519496
     atom   35 type  2   force =    -0.00011451   -0.00039604    0.00007734
     atom   36 type  2   force =     0.00021466   -0.00006515   -0.00009651
     atom   37 type  1   force =    -0.00013229    0.00043594   -0.00010978
     atom   38 type  1   force =     0.00009071    0.00015255   -0.00012690
     atom   39 type  2   force =    -0.00045619   -0.00035277   -0.00020248
     atom   40 type  2   force =     0.00012776   -0.00008299    0.00027953
     atom   41 type  2   force =    -0.00009930    0.00020036   -0.00016170
     atom   42 type  2   force =     0.00051126    0.00006073   -0.00026746
     atom   43 type  1   force =    -0.00014536   -0.00003875   -0.00008802
     atom   44 type  1   force =     0.00031769    0.00077020    0.00060112
     atom   45 type  2   force =     0.00010498   -0.00006667    0.10374302
     atom   46 type  2   force =    -0.07065962   -0.00007395   -0.02710153
     atom   47 type  2   force =     0.07063731    0.00033569   -0.02712677
     atom   48 type  3   force =     0.00345487    0.01040464   -0.00061094
     atom   49 type  3   force =    -0.00050968    0.00012869   -0.00002111
     atom   50 type  4   force =     0.00051293    0.00069240   -0.00005144
     atom   51 type  5   force =     0.00061451    0.00077160   -0.00032385
     atom   52 type  5   force =    -0.00008005    0.00033601    0.00022383
     atom   53 type  5   force =     0.00012851   -0.00059898   -0.00050084
     atom   54 type  5   force =    -0.00239726   -0.01179061    0.00261723
     atom   55 type  5   force =     0.00036787   -0.00062520   -0.00010430
     atom   56 type  5   force =     0.00032417   -0.00026141    0.00023077
     atom   57 type  2   force =    -0.00085738    0.00076060    0.00147818
     atom   58 type  5   force =     0.00041091   -0.00063583   -0.00106875
     atom   59 type  5   force =     0.00038916   -0.00036661   -0.00035066

     Total force =     0.366192     Total SCF correction =     0.000621
  @ DRIVER MODE: Message from server: STATUS
  @ DRIVER MODE: Message from server: GETFORCE
  @ DRIVER MODE: Returning v,forces,stress,ensemble

     Writing output data file ./calc.save/
  @ DRIVER MODE: Message from server: EXIT
  @ DRIVE MODE: Exiting

     General routines

     Parallel routines

   This run was terminated on:   6:21:34  16Sep2021

   JOB DONE.