     Program PWSCF v.6.7GPU starts on 24Aug2021 at  6: 1:33

     R & G space division:  proc/nbgrp/npool/nimage =       6
     Reading input from /storage/home/hcoda1/3/ntian30/research/carbon/CH2_vib/ads_slab/CH2NNHH_a/out_0021/pw.inp
Warning: card &CELL ignored
Warning: card   CELL_DYNAMICS='IPI', ignored
Warning: card / ignored

     Current dimensions of program PWSCF are:
     Max number of different atomic species (ntypx) = 10
     Max number of k-points (npk) =  40000
     Max angular momentum in pseudopotentials (lmaxx) =  3
     Presently no symmetry can be used with electric field

     Message from routine cell_base_init:
     DEPRECATED: use true lattice parameter, not A to a.u. conversion factor

     IMPORTANT: XC functional enforced from input :
     Exchange-correlation= BEEF-VDW
                           (   1   4  43  14   2   0   0)
     Any further DFT definition will be discarded
     Please, verify this is what you really want

  @ DRIVER MODE: Connecting to
 qe_1139763_2632807.sched-torque.pace.gatech.eduwom0sh06_scratch
  using UNIX socket
  @ DRIVER MODE: Message from server: STATUS
  @ DRIVER MODE: Message from server: INIT
  @ DRIVER MODE: Receiving replica           0          -1
  @ DRIVER MODE: Receiving encoded integer          25
  @ DRIVER MODE:  SCF:  T  FORCE:  T  STRESS:  F  VC:  F  ENSEMBLE:  F
  @ DRIVER MODE:  SCF:  T  FORCE:  T  STRESS:  F  VC:  F  ENSEMBLE:  F

     Using Slab Decomposition

     bravais-lattice index     =            0
     lattice parameter (alat)  =       1.8897  a.u.
     unit-cell volume          =    6658.9804 (a.u.)^3
     number of atoms/cell      =           54
     number of atomic types    =            5
     number of electrons       =       396.00
     number of Kohn-Sham states=          208
     kinetic-energy cutoff     =      29.3995  Ry
     charge density cutoff     =     293.9946  Ry
     scf convergence threshold =      7.3E-08
     mixing beta               =       0.0500
     number of iterations used =            8  plain     mixing
     Exchange-correlation= BEEF-VDW
                           (   1   4  43  14   2   0   0)

     celldm(1)=   1.889726  celldm(2)=   0.000000  celldm(3)=   0.000000
     celldm(4)=   0.000000  celldm(5)=   0.000000  celldm(6)=   0.000000

     crystal axes: (cart. coord. in units of alat)
               a(1) = (   6.579727   0.000000   0.000000 )
               a(2) = (  -0.000775   5.961596   0.000000 )
               a(3) = (   0.000000   0.000000  25.155947 )

     reciprocal axes: (cart. coord. in units 2 pi/alat)
               b(1) = (  0.151982  0.000020  0.000000 )
               b(2) = (  0.000000  0.167740  0.000000 )
               b(3) = (  0.000000  0.000000  0.039752 )

     PseudoPot. # 1 for Ti read from file:
     /storage/coda1/p-amedford6/0/shared/rich_project_chbe-medford/medford-share/data/pseudos_module/espresso/nninc/pbe/van/Ti.UPF
     MD5 check sum: 8e4df49b7f0d34bbd5052bf3f5ea0213
     Pseudo is Ultrasoft, Zval = 12.0
     Generated by new atomic code, or converted to UPF format
     Using radial grid of  851 points,  6 beta functions with:
                l(1) =   0
                l(2) =   0
                l(3) =   1
                l(4) =   1
                l(5) =   2
                l(6) =   2
     Q(r) pseudized with  8 coefficients,  rinner =    1.000   1.000   1.000
                                                       1.000   1.000

     PseudoPot. # 2 for O  read from file:
     /storage/coda1/p-amedford6/0/shared/rich_project_chbe-medford/medford-share/data/pseudos_module/espresso/nninc/pbe/van/O.UPF
     MD5 check sum: 78c19812648e8988a0fe644b0f25305e
     Pseudo is Ultrasoft, Zval =  6.0
     Generated by new atomic code, or converted to UPF format
     Using radial grid of  737 points,  4 beta functions with:
                l(1) =   0
                l(2) =   0
                l(3) =   1
                l(4) =   1
     Q(r) pseudized with  8 coefficients,  rinner =    0.800   0.800   0.800

     PseudoPot. # 3 for N  read from file:
     /storage/coda1/p-amedford6/0/shared/rich_project_chbe-medford/medford-share/data/pseudos_module/espresso/nninc/pbe/van/N.UPF
     MD5 check sum: 90d10febe142ad51ac9d5be1deb811c4
     Pseudo is Ultrasoft, Zval =  5.0
     Generated by new atomic code, or converted to UPF format
     Using radial grid of  729 points,  4 beta functions with:
                l(1) =   0
                l(2) =   0
                l(3) =   1
                l(4) =   1
     Q(r) pseudized with  8 coefficients,  rinner =    0.800   0.800   0.800

     PseudoPot. # 4 for C  read from file:
     /storage/coda1/p-amedford6/0/shared/rich_project_chbe-medford/medford-share/data/pseudos_module/espresso/nninc/pbe/van/C.UPF
     MD5 check sum: 1a69bf6b8db32088f5b2163dbdb77a27
     Pseudo is Ultrasoft, Zval =  4.0
     Generated by new atomic code, or converted to UPF format
     Using radial grid of  721 points,  4 beta functions with:
                l(1) =   0
                l(2) =   0
                l(3) =   1
                l(4) =   1
     Q(r) pseudized with  8 coefficients,  rinner =    0.800   0.800   0.800

     PseudoPot. # 5 for H  read from file:
     /storage/coda1/p-amedford6/0/shared/rich_project_chbe-medford/medford-share/data/pseudos_module/espresso/nninc/pbe/van/H.UPF
     MD5 check sum: b5ee9d7bfd3a09ee7748110bda690ff7
     Pseudo is Ultrasoft, Zval =  1.0
     Generated by new atomic code, or converted to UPF format
     Using radial grid of  615 points,  1 beta functions with:
                l(1) =   0
     Q(r) pseudized with  8 coefficients,  rinner =    0.800

     atomic species   valence    mass     pseudopotential
        Ti1           12.00    47.86700     Ti( 1.00)
        O1             6.00    15.99900     O ( 1.00)
        N1             5.00    14.00700     N ( 1.00)
        C1             4.00    12.01100     C ( 1.00)
        H1             1.00     1.00800     H ( 1.00)

     No symmetry found

   Cartesian axes

     site n.     atom                  positions (alat units)
         1           Ti1 tau(   1) = (   0.0004258   2.9801865   6.0000000  )
         2           Ti1 tau(   2) = (   3.2906075   1.4906267   6.0002472  )
         3           O1  tau(   3) = (   0.0006271   0.0005054   7.9858123  )
         4           O1  tau(   4) = (   3.2906025   0.0005020   7.3038282  )
         5           O1  tau(   5) = (   4.5942328   1.4918067   9.2879030  )
         6           O1  tau(   6) = (   1.9868534   1.4903216   9.2879459  )
         7           Ti1 tau(   7) = (   3.2907910   2.8959150   9.1758416  )
         8           Ti1 tau(   8) = (   0.0015273   1.4827037   9.2680791  )
         9           O1  tau(   9) = (   3.2741875   5.9357071  11.3735532  )
        10           O1  tau(  10) = (   0.0116148   5.9584955  10.6183126  )
        11           O1  tau(  11) = (   1.2759687   1.4857368  12.6615302  )
        12           O1  tau(  12) = (   5.2764777   1.4850508  12.6403612  )
        13           Ti1 tau(  13) = (   6.5724762   2.9646551  12.5117882  )
        14           Ti1 tau(  14) = (   3.2886223   1.4652571  12.5194246  )
        15           O1  tau(  15) = (   6.5416971   0.0664024  14.6986244  )
        16           O1  tau(  16) = (   3.2828258   5.9593040  13.9967703  )
        17           O1  tau(  17) = (   4.5136565   1.4796660  16.2299008  )
        18           O1  tau(  18) = (   2.0038615   1.4742267  16.2123189  )
        19           Ti1 tau(  19) = (   3.2480181   2.9445974  15.7466143  )
        20           Ti1 tau(  20) = (   6.5118905   1.3801257  16.1190456  )
        21           O1  tau(  21) = (   3.2904802   0.0005063   4.7018136  )
        22           O1  tau(  22) = (   6.5538845   5.8109167  17.2256470  )
        23           O1  tau(  23) = (   1.3043587   1.4918075   6.0039043  )
        24           O1  tau(  24) = (   5.2767064   1.4903225   6.0039473  )
        25           Ti1 tau(  25) = (   0.0000382   5.9609847   6.0000000  )
        26           Ti1 tau(  26) = (   3.2902200   4.4714249   6.0002472  )
        27           O1  tau(  27) = (   0.0002396   2.9813036   7.9858123  )
        28           O1  tau(  28) = (   3.2902150   2.9813002   7.3038282  )
        29           O1  tau(  29) = (   4.5938453   4.4726049   9.2879030  )
        30           O1  tau(  30) = (   1.9864658   4.4711199   9.2879459  )
        31           Ti1 tau(  31) = (   3.2891106   5.8743827   9.1763621  )
        32           Ti1 tau(  32) = (   0.0006254   4.4649316   9.2693709  )
        33           O1  tau(  33) = (   3.2754078   2.9701464  11.3677572  )
        34           O1  tau(  34) = (   0.0092240   2.9805883  10.6323155  )
        35           O1  tau(  35) = (   1.2711598   4.4556272  12.7031535  )
        36           O1  tau(  36) = (   5.2783420   4.4558858  12.6781970  )
        37           Ti1 tau(  37) = (   0.0002938   5.9583472  12.5066983  )
        38           Ti1 tau(  38) = (   3.2916940   4.4447674  12.5292973  )
        39           O1  tau(  39) = (   6.5347695   2.9176514  14.9891124  )
        40           O1  tau(  40) = (   3.2818703   2.9467213  13.9608579  )
        41           O1  tau(  41) = (   4.5039121   4.4250859  16.1805084  )
        42           O1  tau(  42) = (   2.0002864   4.4376668  16.1101511  )
        43           Ti1 tau(  43) = (   3.2613398   5.9375382  15.7939200  )
        44           Ti1 tau(  44) = (   0.0097882   4.6113729  15.8292928  )
        45           O1  tau(  45) = (   3.2900926   2.9813045   4.7018136  )
        46           O1  tau(  46) = (   1.3039711   4.4726057   6.0039043  )
        47           O1  tau(  47) = (   5.2763189   4.4711207   6.0039473  )
        48           N1  tau(  48) = (   6.5527080   2.6566917  18.2311642  )
        49           C1  tau(  49) = (   0.9950107   2.5313988  18.9921798  )
        50           H1  tau(  50) = (   0.9966315   2.9146593  20.0110098  )
        51           H1  tau(  51) = (   1.8622571   2.0064067  18.6108951  )
        52           N1  tau(  52) = (   5.4094651   3.2293427  18.7544413  )
        53           H1  tau(  53) = (   5.6216840   3.8708726  19.5154782  )
        54           H1  tau(  54) = (   4.9168071   3.7283298  18.0160565  )

     number of k points=    10  Fermi-Dirac smearing, width (Ry)=  0.0073
                       cart. coord. in units 2pi/alat
        k(    1) = (   0.0000000   0.0000000   0.0000000), wk =   0.1250000
        k(    2) = (   0.0000000   0.0419351   0.0000000), wk =   0.2500000
        k(    3) = (   0.0000000  -0.0838702   0.0000000), wk =   0.1250000
        k(    4) = (   0.0379955   0.0000049   0.0000000), wk =   0.2500000
        k(    5) = (   0.0379955   0.0419400   0.0000000), wk =   0.2500000
        k(    6) = (   0.0379955  -0.0838652   0.0000000), wk =   0.2500000
        k(    7) = (   0.0379955  -0.0419301   0.0000000), wk =   0.2500000
        k(    8) = (  -0.0759910  -0.0000099   0.0000000), wk =   0.1250000
        k(    9) = (  -0.0759910   0.0419252   0.0000000), wk =   0.2500000
        k(   10) = (  -0.0759910  -0.0838800   0.0000000), wk =   0.1250000

     Initial potential from superposition of free atoms

     starting charge  379.99915, renormalised to  396.00000

     negative rho (up, down):  1.580E-02 0.000E+00

     %%%%%%%%%%%%%%%%%%%%%%%%%%%%%%%%%%%%%%%%%%%%%%%%%%%%%%%%%%%%%%%%%%%%%%%%
     %                                                                      %
     % You are using vdW-DF, which was implemented by the Thonhauser group. %
     % Please cite the following two papers that made this development      %
     % possible and the two reviews that describe the various versions:     %
     %                                                                      %
     %   T. Thonhauser et al., PRL 115, 136402 (2015).                      %
     %   T. Thonhauser et al., PRB 76, 125112 (2007).                       %
     %   K. Berland et al., Rep. Prog. Phys. 78, 066501 (2015).             %
     %   D.C. Langreth et al., J. Phys.: Condens. Matter 21, 084203 (2009). %
     %                                                                      %
     %                                                                      %
     % If you are calculating the stress with vdW-DF, please also cite:     %
     %                                                                      %
     %   R. Sabatini et al., J. Phys.: Condens. Matter 24, 424209 (2012).   %
     %                                                                      %
     %%%%%%%%%%%%%%%%%%%%%%%%%%%%%%%%%%%%%%%%%%%%%%%%%%%%%%%%%%%%%%%%%%%%%%%%

     Adding external electric field

     Computed dipole along edir(3) :
        Dipole               -9.9798 Ry au,        -25.3661 Debye
        Dipole field         -0.0188 Ry au,

        Potential amp.        1.7458 Ry
        Total length         46.3494 bohr

     Starting wfcs are  300 atomic wfcs
  @ DRIVER MODE: Message from server: STATUS
  @ DRIVER MODE: Message from server: POSDATA
  @ DRIVER MODE: Reading and sharing cell
  @ DRIVER MODE: Reading and sharing positions
  @ DRIVER MODE: Received positions

     Self-consistent Calculation

     iteration #  1     ecut=    29.40 Ry     beta= 0.05
     Davidson diagonalization with overlap
     c_bands:  1 eigenvalues not converged
     c_bands:  2 eigenvalues not converged
     c_bands:  2 eigenvalues not converged
     c_bands:  1 eigenvalues not converged
     c_bands:  3 eigenvalues not converged
     c_bands:  2 eigenvalues not converged
     c_bands:  3 eigenvalues not converged
     c_bands:  2 eigenvalues not converged
     c_bands:  1 eigenvalues not converged
     c_bands:  1 eigenvalues not converged
     ethr =  1.00E-05,  avg # of iterations = 20.0

[...]

     total energy              =   -2515.79692862 Ry
     estimated scf accuracy    <    4741.17487255 Ry

     iteration #  2     ecut=    29.40 Ry     beta= 0.05
     Davidson diagonalization with overlap
     ethr =  1.00E-02,  avg # of iterations = 23.6

[...]

     iteration # 84     ecut=    29.40 Ry     beta= 0.05
     Davidson diagonalization with overlap
     c_bands:  1 eigenvalues not converged
     ethr =  4.98E-11,  avg # of iterations = 14.7

[...]

     total energy              =   -2940.36667045 Ry
     estimated scf accuracy    <       0.00000015 Ry

     iteration # 85     ecut=    29.40 Ry     beta= 0.05
     Davidson diagonalization with overlap
     ethr =  3.83E-11,  avg # of iterations =  9.8

     negative rho (up, down):  1.644E-02 0.000E+00

     Adding external electric field

     Computed dipole along edir(3) :
        Dipole                1.2659 Ry au,          3.2176 Debye
        Dipole field          0.0024 Ry au,

        Potential amp.       -0.2214 Ry
        Total length         46.3494 bohr

     End of self-consistent calculation

          k = 0.0000 0.0000 0.0000 ( 18029 PWs)   bands (ev):

   -55.4175 -55.3808 -55.3695 -55.3353 -55.2966 -55.2929 -55.2871 -55.2621
   -55.2355 -55.2190 -55.2011 -55.2008 -55.1673 -55.0504 -54.3972 -54.3631
   -31.9866 -31.8619 -31.8190 -31.7848 -31.7309 -31.7251 -31.7201 -31.7063
   -31.6585 -31.6510 -31.6277 -31.6265 -31.6144 -31.5876 -31.5726 -31.5674
   -31.5550 -31.5543 -31.5331 -31.5274 -31.5218 -31.5117 -31.4833 -31.4740
   -31.4662 -31.4634 -31.4379 -31.4275 -31.4265 -31.4206 -31.4184 -31.3994
   -31.3985 -31.3932 -31.3861 -31.3836 -31.3495 -31.3360 -31.3290 -31.3121
   -31.2719 -31.2149 -30.8065 -30.7125 -30.6905 -30.6229 -30.5361 -30.4252
   -18.5933 -16.2493 -15.9805 -15.8381 -15.7137 -15.6147 -15.4901 -15.4681
   -15.3405 -15.2555 -15.1422 -15.0978 -15.0864 -15.0832 -15.0502 -15.0234
   -14.9590 -14.9544 -14.9368 -14.9104 -14.8996 -14.8566 -14.8534 -14.8120
   -14.7915 -14.7893 -14.6632 -14.5742 -14.5039 -14.1809 -13.6714 -12.9001
   -12.7827  -8.7415  -6.4774  -6.0548  -3.9914  -3.5902  -3.4341  -3.3771
    -3.3361  -3.3094  -3.1959  -3.1619  -3.0226  -2.8259  -2.7771  -2.6870
    -2.6250  -2.6166  -2.5975  -2.4166  -2.4092  -2.3525  -2.3022  -2.2604
    -2.2382  -2.2239  -2.2048  -2.1796  -2.1690  -2.1588  -1.9856  -1.9699
    -1.8988  -1.8251  -1.8152  -1.7648  -1.7439  -1.7135  -1.7053  -1.6973
    -1.6520  -1.6323  -1.6023  -1.5544  -1.4287  -1.3376  -1.3064  -1.2255
    -1.0975  -1.0529  -1.0007  -0.9976  -0.9048  -0.9009  -0.8800  -0.7950
    -0.7616  -0.7121  -0.6396  -0.5711  -0.5145  -0.4560  -0.4087  -0.3985
    -0.3436  -0.2266  -0.2009  -0.1821  -0.1602  -0.0395  -0.0208   0.0193
     0.0938   0.1241   0.1249   0.2416   0.2674   0.3255   0.3303   0.4064
     0.4675   0.5119   0.5209   0.5396   0.5689   0.5720   0.6465   0.6598
     0.6901   0.7601   0.8273   0.9184   1.1479   1.1842   1.1972   1.5303
     1.5320   1.6253   1.8091   2.2012   2.2493   3.6816   3.7516   3.8263
     3.8324   3.8508   3.9191   4.1558   4.1740   4.1819   4.1874   4.2304

[...]

          k = 0.0380-0.0419 0.0000 ( 17876 PWs)   bands (ev):

[...]

          k =-0.0760-0.0000 0.0000 ( 17886 PWs)   bands (ev):

[...]

          k =-0.0760-0.0839 0.0000 ( 17948 PWs)   bands (ev):

   -55.4028 -55.3953 -55.3524 -55.3523 -55.2877 -55.2868 -55.2810 -55.2776
   -55.2231 -55.2199 -55.2162 -55.1844 -55.1839 -55.0517 -54.3801 -54.3800
   -31.7929 -31.7874 -31.7462 -31.6936 -31.6798 -31.6770 -31.6770 -31.6439
   -31.6437 -31.6276 -31.6185 -31.6138 -31.6093 -31.5625 -31.5551 -31.5531
   -31.5507 -31.5489 -31.5434 -31.5380 -31.5229 -31.5102 -31.4934 -31.4930
   -31.4889 -31.4746 -31.4731 -31.4720 -31.4719 -31.4698 -31.4531 -31.4491
   -31.4429 -31.4330 -31.4296 -31.4148 -31.4137 -31.4100 -31.3649 -31.3646
   -31.2931 -31.2755 -30.7031 -30.7031 -30.6190 -30.6190 -30.5796 -30.5795
   -18.5908 -15.7115 -15.6784 -15.6211 -15.4406 -15.4129 -15.4063 -15.3872
   -15.2569 -15.2404 -15.2095 -15.1801 -15.1491 -15.1239 -15.1197 -15.1019
   -15.0319 -15.0210 -15.0129 -14.9954 -14.9299 -14.9260 -14.9171 -14.9124
   -14.8655 -14.8627 -14.7674 -14.7659 -14.6657 -14.5497 -13.6771 -12.8842
   -12.8841  -8.7233  -6.4511  -6.0691  -3.9985  -3.2579  -2.9445  -2.8780
    -2.8493  -2.6524  -2.6289  -2.5862  -2.5308  -2.4507  -2.4247  -2.4180
    -2.4092  -2.3381  -2.3267  -2.2769  -2.2678  -2.2488  -2.2335  -2.2229
    -2.1935  -2.1675  -2.1435  -2.1346  -2.1232  -2.0694  -2.0588  -2.0413
    -2.0108  -1.9909  -1.9820  -1.9653  -1.8660  -1.7818  -1.7522  -1.7251
    -1.6210  -1.6167  -1.5366  -1.5207  -1.4895  -1.4484  -1.4355  -1.4150
    -1.2331  -1.2038  -1.1720  -1.1592  -1.1508  -1.0115  -0.9977  -0.9418
    -0.9007  -0.8946  -0.7857  -0.7618  -0.7366  -0.6608  -0.6247  -0.5911
    -0.5391  -0.4341  -0.4165  -0.4057  -0.3726  -0.3685  -0.3124  -0.3004
    -0.2252  -0.1831  -0.1503  -0.1364  -0.0934   0.0947   0.1179   0.1327
     0.2761   0.3315   0.4250   0.5251   0.5352   0.5908   0.6295   0.6960
     0.7571   0.8186   0.8706   0.8919   0.8932   0.9718   0.9895   1.0430
     1.0449   1.9822   1.9828   2.0691   2.0696   3.8243   3.9327   3.9441
     3.9846   4.0662   4.1251   4.1979   4.2263   4.2655   4.2676   4.3328

     the Fermi energy is     3.7436 ev

!    total energy              =   -2940.36667553 Ry
     estimated scf accuracy    <       0.00000007 Ry
     smearing contrib. (-TS)   =      -0.03728527 Ry
     internal energy E=F+TS    =   -2940.32939026 Ry

     The total energy is F=E-TS. E is the sum of the following terms:
     one-electron contribution =  -23758.99515700 Ry
     hartree contribution      =   11970.83825660 Ry
     xc contribution           =    -486.11317584 Ry
     ewald contribution        =    9333.93766192 Ry
     electric field correction =       0.00302406 Ry

     convergence has been achieved in  85 iterations

     Forces acting on atoms (cartesian axes, Ry/au):

     atom    1 type  1   force =     0.00006469   -0.00013144    0.09327512
     atom    2 type  1   force =    -0.00005484   -0.00027238   -0.17805614
     atom    3 type  2   force =     0.00002173   -0.00015628   -0.02027362
     atom    4 type  2   force =     0.00000848   -0.00195874    0.05849475
     atom    5 type  2   force =    -0.01064977   -0.00127681    0.00870744
     atom    6 type  2   force =     0.01174447   -0.00062204    0.00682856
     atom    7 type  1   force =    -0.00091746    0.00298831   -0.01443458
     atom    8 type  1   force =     0.00063886   -0.00049385   -0.00370885
     atom    9 type  2   force =     0.00014329    0.00010224    0.00009147
     atom   10 type  2   force =    -0.00209430   -0.00121545    0.00065678
     atom   11 type  2   force =     0.00008288    0.00021762   -0.00011090
     atom   12 type  2   force =     0.00056971    0.00028833   -0.00006068
     atom   13 type  1   force =    -0.00014099    0.00028565    0.00008226
     atom   14 type  1   force =     0.00013335    0.00046667   -0.00038495
     atom   15 type  2   force =     0.00001599    0.00042606   -0.00005476
     atom   16 type  2   force =     0.00041968    0.00016872   -0.00032157
     atom   17 type  2   force =     0.00027927   -0.00035638   -0.00039303
     atom   18 type  2   force =     0.00015837   -0.00057607    0.00006724
     atom   19 type  1   force =    -0.00093557   -0.00007252    0.00028880
     atom   20 type  1   force =     0.00018528   -0.00004631   -0.00019287
     atom   21 type  2   force =     0.00009579    0.00000391    0.10389413
     atom   22 type  2   force =    -0.00018729    0.00008940    0.00017074
     atom   23 type  2   force =    -0.07040651   -0.00011959   -0.02688638
     atom   24 type  2   force =     0.07034181    0.00033748   -0.02692366
     atom   25 type  1   force =     0.00008562   -0.00022390    0.09282442
     atom   26 type  1   force =    -0.00004801   -0.00032677   -0.17804696
     atom   27 type  2   force =     0.00011208   -0.00036543   -0.01933874
     atom   28 type  2   force =     0.00004058   -0.00165188    0.05792035
     atom   29 type  2   force =    -0.01063600   -0.00128276    0.00803347
     atom   30 type  2   force =     0.01164076   -0.00088833    0.00609270
     atom   31 type  1   force =    -0.00089793    0.00489117   -0.01541280
     atom   32 type  1   force =     0.00083016    0.00019609   -0.00391695
     atom   33 type  2   force =     0.00010312    0.00046579    0.00022051
     atom   34 type  2   force =    -0.00177165    0.00109321    0.00071436
     atom   35 type  2   force =     0.00032220    0.00006668    0.00008982
     atom   36 type  2   force =     0.00025670   -0.00024819    0.00019876
     atom   37 type  1   force =    -0.00035582    0.00002669   -0.00010336
     atom   38 type  1   force =    -0.00023675    0.00050183   -0.00015047
     atom   39 type  2   force =     0.00049325   -0.00072670   -0.00005000
     atom   40 type  2   force =    -0.00015539    0.00007296   -0.00001968
     atom   41 type  2   force =     0.00011722   -0.00010286   -0.00019091
     atom   42 type  2   force =     0.00015699    0.00012439   -0.00005531
     atom   43 type  1   force =    -0.00023298   -0.00013617    0.00011274
     atom   44 type  1   force =     0.00012583    0.00010292   -0.00018714
     atom   45 type  2   force =     0.00010879   -0.00003242    0.10385851
     atom   46 type  2   force =    -0.07041847   -0.00005653   -0.02688501
     atom   47 type  2   force =     0.07036857    0.00036935   -0.02689319
     atom   48 type  3   force =    -0.00074982   -0.00019600   -0.00055734
     atom   49 type  4   force =     0.00558569   -0.00421292   -0.00208524
     atom   50 type  5   force =     0.00076303   -0.00015099    0.00039088
     atom   51 type  5   force =    -0.00506957    0.00367966    0.00186753
     atom   52 type  3   force =     0.00050943    0.00115762   -0.00001101
     atom   53 type  5   force =    -0.00029220   -0.00027040    0.00108096
     atom   54 type  5   force =    -0.00027234    0.00004737   -0.00025619

     Total force =     0.365974     Total SCF correction =     0.000494
  @ DRIVER MODE: Message from server: STATUS
  @ DRIVER MODE: Message from server: GETFORCE
  @ DRIVER MODE: Returning v,forces,stress,ensemble

     Writing output data file ./calc.save/
  @ DRIVER MODE: Message from server: EXIT
  @ DRIVE MODE: Exiting

     General routines

     Parallel routines

   This run was terminated on:   6:37:17  24Aug2021

   JOB DONE.