     Program PWSCF v.6.7GPU starts on 18Oct2021 at 16:26:31

     R & G space division:  proc/nbgrp/npool/nimage =       8
     Reading input from /storage/home/hcoda1/3/ntian30/research/carbon/CxH_vib/Thiel_calc/ads_slab/NH3NH2H_perslab/out_0010/pw.inp
Warning: card &CELL ignored
Warning: card   CELL_DYNAMICS='IPI', ignored
Warning: card / ignored

     Current dimensions of program PWSCF are:
     Max number of different atomic species (ntypx) = 10
     Max number of k-points (npk) =  40000
     Max angular momentum in pseudopotentials (lmaxx) =  3
     Presently no symmetry can be used with electric field

     Message from routine cell_base_init:
     DEPRECATED: use true lattice parameter, not A to a.u. conversion factor

     IMPORTANT: XC functional enforced from input :
     Exchange-correlation= BEEF-VDW
                           (   1   4  43  14   2   0   0)
     Any further DFT definition will be discarded
     Please, verify this is what you really want

  @ DRIVER MODE: Connecting to
 qe_1139763_3255139.sched-torque.pace.gatech.edu2puy95d0_scratch
  using UNIX socket
  @ DRIVER MODE: Message from server: STATUS
  @ DRIVER MODE: Message from server: INIT
  @ DRIVER MODE: Receiving replica           0          -1
  @ DRIVER MODE: Receiving encoded integer          25
  @ DRIVER MODE:  SCF:  T  FORCE:  T  STRESS:  F  VC:  F  ENSEMBLE:  F
  @ DRIVER MODE:  SCF:  T  FORCE:  T  STRESS:  F  VC:  F  ENSEMBLE:  F

     Using Slab Decomposition

     bravais-lattice index     =            0
     lattice parameter (alat)  =       1.8897  a.u.
     unit-cell volume          =    9988.4706 (a.u.)^3
     number of atoms/cell      =           61
     number of atomic types    =            4
     number of electrons       =       442.00
     number of Kohn-Sham states=          231
     kinetic-energy cutoff     =      29.3995  Ry
     charge density cutoff     =     293.9946  Ry
     scf convergence threshold =      7.3E-08
     mixing beta               =       0.0500
     number of iterations used =            8  plain     mixing
     Exchange-correlation= BEEF-VDW
                           (   1   4  43  14   2   0   0)

     celldm(1)=   1.889726  celldm(2)=   0.000000  celldm(3)=   0.000000
     celldm(4)=   0.000000  celldm(5)=   0.000000  celldm(6)=   0.000000

     crystal axes: (cart. coord. in units of alat)
               a(1) = (   6.579727   0.000000   0.000000 )
               a(2) = (  -0.001163   8.942395   0.000000 )
               a(3) = (   0.000000   0.000000  25.155947 )

     reciprocal axes: (cart. coord. in units 2 pi/alat)
               b(1) = (  0.151982  0.000020  0.000000 )
               b(2) = (  0.000000  0.111827  0.000000 )
               b(3) = (  0.000000  0.000000  0.039752 )

     PseudoPot. # 1 for O  read from file:
     /storage/coda1/p-amedford6/0/shared/rich_project_chbe-medford/medford-share/data/pseudos_module/espresso/nninc/pbe/van/O.UPF
     MD5 check sum: 78c19812648e8988a0fe644b0f25305e
     Pseudo is Ultrasoft, Zval =  6.0
     Generated by new atomic code, or converted to UPF format
     Using radial grid of  737 points,  4 beta functions with:
                l(1) =   0
                l(2) =   0
                l(3) =   1
                l(4) =   1
     Q(r) pseudized with  8 coefficients,  rinner =    0.800   0.800   0.800

     PseudoPot. # 2 for Ti read from file:
     /storage/coda1/p-amedford6/0/shared/rich_project_chbe-medford/medford-share/data/pseudos_module/espresso/nninc/pbe/van/Ti.UPF
     MD5 check sum: 8e4df49b7f0d34bbd5052bf3f5ea0213
     Pseudo is Ultrasoft, Zval = 12.0
     Generated by new atomic code, or converted to UPF format
     Using radial grid of  851 points,  6 beta functions with:
                l(1) =   0
                l(2) =   0
                l(3) =   1
                l(4) =   1
                l(5) =   2
                l(6) =   2
     Q(r) pseudized with  8 coefficients,  rinner =    1.000   1.000   1.000
                                                       1.000   1.000

     PseudoPot. # 3 for H  read from file:
     /storage/coda1/p-amedford6/0/shared/rich_project_chbe-medford/medford-share/data/pseudos_module/espresso/nninc/pbe/van/H.UPF
     MD5 check sum: b5ee9d7bfd3a09ee7748110bda690ff7
     Pseudo is Ultrasoft, Zval =  1.0
     Generated by new atomic code, or converted to UPF format
     Using radial grid of  615 points,  1 beta functions with:
                l(1) =   0
     Q(r) pseudized with  8 coefficients,  rinner =    0.800

     PseudoPot. # 4 for N  read from file:
     /storage/coda1/p-amedford6/0/shared/rich_project_chbe-medford/medford-share/data/pseudos_module/espresso/nninc/pbe/van/N.UPF
     MD5 check sum: 90d10febe142ad51ac9d5be1deb811c4
     Pseudo is Ultrasoft, Zval =  5.0
     Generated by new atomic code, or converted to UPF format
     Using radial grid of  729 points,  4 beta functions with:
                l(1) =   0
                l(2) =   0
                l(3) =   1
                l(4) =   1
     Q(r) pseudized with  8 coefficients,  rinner =    0.800   0.800   0.800

     atomic species   valence    mass     pseudopotential
        O1             6.00    15.99900     O ( 1.00)
        Ti1           12.00    47.86700     Ti( 1.00)
        H1             1.00     1.00800     H ( 1.00)
        N1             5.00    14.00700     N ( 1.00)

     No symmetry found

   Cartesian axes

     site n.     atom                  positions (alat units)
         1           O1  tau(   1) = (   0.0007354   0.0005023  10.5931620  )
         2           O1  tau(   2) = (   3.2892937   8.9423630  13.8814308  )
         3           O1  tau(   3) = (   6.5785080   0.0907754  17.2996570  )
         4           O1  tau(   4) = (   0.0006271   0.0005054   7.9858123  )
         5           O1  tau(   5) = (   3.2892617   8.9274694  11.1867540  )
         6           O1  tau(   6) = (   0.0001068   0.0384811  14.5856928  )
         7           O1  tau(   7) = (   1.9868534   1.4903216   9.2879459  )
         8           O1  tau(   8) = (   5.2392332   1.6199063  12.5840971  )
         9           O1  tau(   9) = (   2.0046145   1.5651943  16.0652335  )
        10           Ti1 tau(  10) = (   0.0007404   1.4906270   9.2895810  )
        11           Ti1 tau(  11) = (   3.2903033   1.3475644  12.4784176  )
        12           Ti1 tau(  12) = (   0.0002083   1.2954417  15.7753146  )
        13           O1  tau(  13) = (   4.5942328   1.4918067   9.2879030  )
        14           O1  tau(  14) = (   1.3408909   1.6195689  12.5841697  )
        15           O1  tau(  15) = (   4.5747373   1.5650701  16.0650860  )
        16           Ti1 tau(  16) = (   3.2902859   2.9801868   9.2893338  )
        17           Ti1 tau(  17) = (   0.0003213   2.8429885  12.4272127  )
        18           Ti1 tau(  18) = (   3.2894782   2.8703589  15.6911549  )
        19           O1  tau(  19) = (   0.0003479   2.9813005  10.5931620  )
        20           O1  tau(  20) = (   3.2897922   2.9583395  13.9032781  )
        21           O1  tau(  21) = (   0.0002396   2.9813036   7.9858123  )
        22           O1  tau(  22) = (   3.2900450   2.9730570  11.1907869  )
        23           O1  tau(  23) = (   0.0001206   2.9807552  14.9070210  )
        24           O1  tau(  24) = (   1.9864658   4.4711199   9.2879459  )
        25           O1  tau(  25) = (   5.2482068   4.5640541  12.6028892  )
        26           O1  tau(  26) = (   2.0118887   4.5193519  16.0312246  )
        27           Ti1 tau(  27) = (   0.0003529   4.4714252   9.2895810  )
        28           Ti1 tau(  28) = (   3.2901403   4.3402809  12.5217819  )
        29           Ti1 tau(  29) = (   0.0009811   4.3515161  16.1888847  )
        30           O1  tau(  30) = (   4.5938453   4.4726049   9.2879030  )
        31           O1  tau(  31) = (   1.3314901   4.5639303  12.6028828  )
        32           O1  tau(  32) = (   4.5682806   4.5188618  16.0312494  )
        33           Ti1 tau(  33) = (   3.2898983   5.9609850   9.2893338  )
        34           Ti1 tau(  34) = (   0.0001002   5.8006911  12.4939615  )
        35           Ti1 tau(  35) = (   3.2910898   5.8128663  15.8108673  )
        36           O1  tau(  36) = (  -0.0000397   5.9620987  10.5931620  )
        37           O1  tau(  37) = (   3.2898758   5.9691391  13.9384534  )
        38           O1  tau(  38) = (   0.0001572   5.9906873  17.2924393  )
        39           O1  tau(  39) = (  -0.0001480   5.9621018   7.9858123  )
        40           O1  tau(  40) = (   3.2897271   5.9334558  11.2049738  )
        41           O1  tau(  41) = (   0.0000685   5.9641935  14.6703060  )
        42           O1  tau(  42) = (   1.9860782   7.4519181   9.2879459  )
        43           O1  tau(  43) = (   5.2398882   7.5535610  12.5750285  )
        44           O1  tau(  44) = (   1.9879998   7.5809304  16.0172394  )
        45           Ti1 tau(  45) = (  -0.0000347   7.4522234   9.2895810  )
        46           Ti1 tau(  46) = (   3.2896426   7.2731609  12.5447809  )
        47           Ti1 tau(  47) = (   0.0002275   7.1890881  15.9781391  )
        48           O1  tau(  48) = (   4.5934577   7.4534031   9.2879030  )
        49           O1  tau(  49) = (   1.3388943   7.5534522  12.5751898  )
        50           O1  tau(  50) = (   4.5903976   7.5792304  16.0166626  )
        51           Ti1 tau(  51) = (   3.2895107   8.9417832   9.2893338  )
        52           Ti1 tau(  52) = (  -0.0003648   8.7758640  12.4444508  )
        53           Ti1 tau(  53) = (   3.2897763   8.8353469  15.6829021  )
        54           H1  tau(  54) = (   0.0028024   0.0378429  18.2586218  )
        55           N1  tau(  55) = (   0.0000016   3.3124973  17.8430138  )
        56           H1  tau(  56) = (   6.5772996   2.3364033  18.1430564  )
        57           H1  tau(  57) = (   6.5785254   3.8921159  18.6668881  )
        58           N1  tau(  58) = (   3.2892544   5.9906839  18.1401779  )
        59           H1  tau(  59) = (   3.2890604   5.0659402  18.5578254  )
        60           H1  tau(  60) = (   2.4549486   6.4784715  18.4500629  )
        61           H1  tau(  61) = (   4.1227990   6.4789769  18.4516084  )

     number of k points=    10  Fermi-Dirac smearing, width (Ry)=  0.0073
                       cart. coord. in units 2pi/alat
        k(    1) = (   0.0000000   0.0000000   0.0000000), wk =   0.1250000
        k(    2) = (   0.0000000   0.0279567   0.0000000), wk =   0.2500000
        k(    3) = (   0.0000000  -0.0559134   0.0000000), wk =   0.1250000
        k(    4) = (   0.0379955   0.0000049   0.0000000), wk =   0.2500000
        k(    5) = (   0.0379955   0.0279617   0.0000000), wk =   0.2500000
        k(    6) = (   0.0379955  -0.0559085   0.0000000), wk =   0.2500000
        k(    7) = (   0.0379955  -0.0279518   0.0000000), wk =   0.2500000
        k(    8) = (  -0.0759910  -0.0000099   0.0000000), wk =   0.1250000
        k(    9) = (  -0.0759910   0.0279468   0.0000000), wk =   0.2500000
        k(   10) = (  -0.0759910  -0.0559233   0.0000000), wk =   0.1250000

     Initial potential from superposition of free atoms

     starting charge  423.99908, renormalised to  442.00000

     negative rho (up, down):  3.654E-02 0.000E+00

     %%%%%%%%%%%%%%%%%%%%%%%%%%%%%%%%%%%%%%%%%%%%%%%%%%%%%%%%%%%%%%%%%%%%%%%%
     %                                                                      %
     % You are using vdW-DF, which was implemented by the Thonhauser group. %
     % Please cite the following two papers that made this development      %
     % possible and the two reviews that describe the various versions:     %
     %                                                                      %
     %   T. Thonhauser et al., PRL 115, 136402 (2015).                      %
     %   T. Thonhauser et al., PRB 76, 125112 (2007).                       %
     %   K. Berland et al., Rep. Prog. Phys. 78, 066501 (2015).             %
     %   D.C. Langreth et al., J. Phys.: Condens. Matter 21, 084203 (2009). %
     %                                                                      %
     %                                                                      %
     % If you are calculating the stress with vdW-DF, please also cite:     %
     %                                                                      %
     %   R. Sabatini et al., J. Phys.: Condens. Matter 24, 424209 (2012).   %
     %                                                                      %
     %%%%%%%%%%%%%%%%%%%%%%%%%%%%%%%%%%%%%%%%%%%%%%%%%%%%%%%%%%%%%%%%%%%%%%%%

     Adding external electric field

     Computed dipole along edir(3) :
        Dipole               -6.3674 Ry au,        -16.1843 Debye
        Dipole field         -0.0080 Ry au,

        Potential amp.        0.7426 Ry
        Total length         46.3494 bohr

     Starting wfcs are  334 atomic wfcs
  @ DRIVER MODE: Message from server: STATUS
  @ DRIVER MODE: Message from server: POSDATA
  @ DRIVER MODE: Reading and sharing cell
  @ DRIVER MODE: Reading and sharing positions
  @ DRIVER MODE: Received positions

     Self-consistent Calculation

     iteration #  1     ecut=    29.40 Ry     beta= 0.05
     Davidson diagonalization with overlap
     c_bands:  2 eigenvalues not converged
     c_bands:  3 eigenvalues not converged
     c_bands:  3 eigenvalues not converged
     c_bands:  2 eigenvalues not converged
     c_bands:  1 eigenvalues not converged
     c_bands:  4 eigenvalues not converged
     c_bands:  1 eigenvalues not converged
     c_bands:  1 eigenvalues not converged
     c_bands:  5 eigenvalues not converged
     ethr =  1.00E-05,  avg # of iterations = 20.0

[...]

     total energy              =   -3277.41324159 Ry
     estimated scf accuracy    <     248.96448550 Ry

     iteration #  2     ecut=    29.40 Ry     beta= 0.05
     Davidson diagonalization with overlap
     ethr =  1.00E-02,  avg # of iterations = 15.8

[...]

     iteration # 49     ecut=    29.40 Ry     beta= 0.05
     Davidson diagonalization with overlap
     c_bands:  1 eigenvalues not converged
     ethr =  2.69E-10,  avg # of iterations = 12.3

[...]

     total energy              =   -3295.81857438 Ry
     estimated scf accuracy    <       0.00000008 Ry

     iteration # 53     ecut=    29.40 Ry     beta= 0.05
     Davidson diagonalization with overlap
     ethr =  1.73E-11,  avg # of iterations = 11.2

     negative rho (up, down):  3.514E-02 0.000E+00

     Adding external electric field

     Computed dipole along edir(3) :
        Dipole                2.0126 Ry au,          5.1156 Debye
        Dipole field          0.0025 Ry au,

        Potential amp.       -0.2347 Ry
        Total length         46.3494 bohr

     End of self-consistent calculation

          k = 0.0000 0.0000 0.0000 ( 26871 PWs)   bands (ev):

   -57.4431 -57.4200 -57.4115 -57.4048 -57.3609 -57.3444 -57.3100 -57.3062
   -57.2899 -57.2606 -57.2400 -57.2318 -57.2227 -57.1881 -57.0070 -56.5082
   -56.4815 -56.4650 -33.8411 -33.8293 -33.8224 -33.8186 -33.8097 -33.7763
   -33.7655 -33.7588 -33.7499 -33.7343 -33.7321 -33.7119 -33.6902 -33.6778
   -33.6501 -33.6470 -33.6348 -33.6330 -33.6119 -33.6097 -33.5892 -33.5778
   -33.5535 -33.5501 -33.5474 -33.5410 -33.5374 -33.5348 -33.5294 -33.5239
   -33.5154 -33.5026 -33.4873 -33.4737 -33.4644 -33.4531 -33.4384 -33.4364
   -33.4319 -33.4295 -33.4008 -33.3774 -33.3366 -33.3010 -33.2286 -32.8277
   -32.8204 -32.8068 -32.7996 -32.7855 -32.7326 -32.6737 -32.6538 -32.5288
   -19.1420 -18.2984 -17.9714 -17.7547 -17.7078 -17.6850 -17.6048 -17.5393
   -17.5328 -17.4617 -17.3825 -17.3032 -17.2738 -17.2701 -17.2349 -17.2070
   -17.1881 -17.1636 -17.1623 -17.1234 -17.1114 -17.0926 -17.0650 -17.0182
   -16.9448 -16.9323 -16.8977 -16.8900 -16.8845 -16.8844 -16.7400 -16.6613
   -16.5819 -15.2641 -14.9683 -14.9119 -14.9046  -7.7053  -7.6424  -7.2353
    -6.7323  -5.6219  -5.4613  -5.3761  -5.2741  -4.9358  -4.8697  -4.8482
    -4.8347  -4.7897  -4.7506  -4.7495  -4.6917  -4.6833  -4.6641  -4.5835
    -4.5694  -4.5467  -4.4963  -4.4733  -4.4227  -4.4223  -4.3722  -4.3204
    -4.2676  -4.2590  -4.2580  -4.2330  -4.2323  -4.2089  -4.2045  -4.0918
    -4.0874  -4.0116  -3.9041  -3.9039  -3.8472  -3.7739  -3.7690  -3.7384
    -3.7111  -3.6496  -3.6025  -3.5486  -3.5412  -3.5274  -3.4659  -3.4406
    -3.3610  -3.2542  -3.2425  -3.2096  -3.1646  -3.1503  -3.1047  -3.0735
    -3.0011  -2.9259  -2.8467  -2.8206  -2.7154  -2.6695  -2.6505  -2.6178
    -2.6098  -2.5369  -2.5341  -2.5073  -2.3531  -2.2519  -2.2416  -2.2220
    -2.2111  -2.1839  -2.1802  -2.1526  -2.0876  -2.0413  -2.0330  -2.0180
    -1.9993  -1.9864  -1.8967  -1.8374  -1.8104  -1.7815  -1.7656  -1.6719
    -1.6334  -1.5985  -1.5856  -1.4813  -1.4275  -1.3200  -1.3152  -1.3019
    -1.2306  -1.1844  -1.1123  -0.7972  -0.6354  -0.5533  -0.2663  -0.2082
    -0.2002   0.0598   0.0721   0.2003   1.5457   1.7768   1.9772   1.9798
     1.9954   2.0665   2.1343   2.1473   2.2133   2.2645   2.2806

[...]

          k = 0.0380-0.0280 0.0000 ( 26873 PWs)   bands (ev):

[...]

          k =-0.0760-0.0000 0.0000 ( 26902 PWs)   bands (ev):

[...]

          k =-0.0760-0.0559 0.0000 ( 26868 PWs)   bands (ev):

   -57.4375 -57.4304 -57.4065 -57.4041 -57.3618 -57.3444 -57.3088 -57.3072
   -57.2890 -57.2591 -57.2427 -57.2338 -57.2210 -57.1875 -57.0069 -56.5056
   -56.4868 -56.4622 -33.9197 -33.9021 -33.8515 -33.8208 -33.8044 -33.7803
   -33.7713 -33.7627 -33.7212 -33.7057 -33.6915 -33.6617 -33.6386 -33.6347
   -33.6305 -33.6105 -33.5973 -33.5958 -33.5946 -33.5867 -33.5846 -33.5787
   -33.5670 -33.5542 -33.5540 -33.5454 -33.5336 -33.5271 -33.5206 -33.5150
   -33.5141 -33.5110 -33.5021 -33.4992 -33.4923 -33.4864 -33.4540 -33.4531
   -33.4447 -33.4327 -33.4313 -33.3922 -33.3575 -33.3006 -33.2320 -32.9091
   -32.8232 -32.8057 -32.7827 -32.7207 -32.6995 -32.6438 -32.6341 -32.6151
   -19.1355 -17.9920 -17.9204 -17.6812 -17.6251 -17.6123 -17.5970 -17.5617
   -17.5052 -17.4748 -17.4365 -17.4091 -17.3716 -17.3256 -17.3116 -17.2367
   -17.2322 -17.2282 -17.1621 -17.1601 -17.1425 -17.0975 -17.0842 -17.0622
   -17.0136 -16.9719 -16.9587 -16.8788 -16.8536 -16.8130 -16.7177 -16.6484
   -16.6152 -15.2616 -14.9696 -14.9593 -14.8464  -7.6873  -7.6407  -7.2258
    -6.7347  -5.2439  -5.2125  -5.1778  -5.1493  -5.0448  -4.8601  -4.7827
    -4.7492  -4.7456  -4.6803  -4.6610  -4.6538  -4.6092  -4.5971  -4.5721
    -4.5491  -4.5197  -4.4851  -4.4769  -4.4410  -4.4094  -4.3938  -4.3723
    -4.3547  -4.3507  -4.3357  -4.2481  -4.1848  -4.1803  -4.1139  -4.0863
    -4.0620  -4.0223  -4.0068  -3.9657  -3.9380  -3.7103  -3.6227  -3.6085
    -3.6070  -3.5799  -3.5452  -3.4885  -3.4298  -3.4004  -3.3681  -3.2440
    -3.2024  -3.1890  -3.1862  -3.1497  -3.0658  -3.0393  -3.0102  -2.9799
    -2.9621  -2.9125  -2.9002  -2.8598  -2.8191  -2.7482  -2.7031  -2.6668
    -2.6347  -2.6011  -2.5902  -2.5632  -2.5342  -2.5304  -2.5038  -2.4842
    -2.4115  -2.4095  -2.3702  -2.3140  -2.2406  -2.2070  -2.1890  -2.1113
    -2.0318  -1.9811  -1.9575  -1.9386  -1.8600  -1.7420  -1.7168  -1.7071
    -1.6752  -1.6266  -1.5749  -1.5412  -1.4909  -1.3999  -1.2681  -1.2477
    -1.1798  -1.0835  -1.0624  -1.0421  -0.8211  -0.7444  -0.4171  -0.1583
    -0.1134  -0.0942   0.0648   0.0724   1.7062   1.7732   1.8359   1.8691
     1.8854   1.9174   1.9194   1.9888   2.0435   2.1152   2.1322

     the Fermi energy is     1.6453 ev

!    total energy              =   -3295.81865423 Ry
     estimated scf accuracy    <       0.00000004 Ry
     smearing contrib. (-TS)   =      -0.03294336 Ry
     internal energy E=F+TS    =   -3295.78571087 Ry

     The total energy is F=E-TS. E is the sum of the following terms:
     one-electron contribution =  -34382.99855055 Ry
     hartree contribution      =   17260.82851756 Ry
     xc contribution           =    -543.89675314 Ry
     ewald contribution        =   14370.27597911 Ry
     electric field correction =       0.00509615 Ry

     convergence has been achieved in  53 iterations

     Forces acting on atoms (cartesian axes, Ry/au):

     atom    1 type  1   force =     0.00000567    0.00790814    0.05045208
     atom    2 type  1   force =    -0.00000927    0.00036154   -0.00964586
     atom    3 type  1   force =    -0.00002773   -0.00453948   -0.00033936
     atom    4 type  1   force =     0.00005832    0.00282164    0.10764649
     atom    5 type  1   force =     0.00000436    0.00071263    0.00922932
     atom    6 type  1   force =    -0.00000538   -0.00146771    0.00026583
     atom    7 type  1   force =     0.06465192    0.00008077   -0.02899552
     atom    8 type  1   force =     0.00390500   -0.02786757    0.00324295
     atom    9 type  1   force =     0.00806632   -0.01828301    0.00258841
     atom   10 type  2   force =    -0.00004703   -0.00796822   -0.19370708
     atom   11 type  2   force =    -0.00002736    0.02061927   -0.00637635
     atom   12 type  2   force =    -0.00004972    0.02171135   -0.00352227
     atom   13 type  1   force =    -0.06474478   -0.00037516   -0.02894584
     atom   14 type  1   force =    -0.00390212   -0.02784754    0.00323871
     atom   15 type  1   force =    -0.00805523   -0.01826628    0.00257520
     atom   16 type  2   force =     0.00010093    0.00059404    0.06674178
     atom   17 type  2   force =     0.00001989    0.03326833    0.00608625
     atom   18 type  2   force =     0.00000730    0.02119339    0.00171366
     atom   19 type  1   force =     0.00000524    0.00224771    0.05629743
     atom   20 type  1   force =    -0.00000464   -0.00133189   -0.00680172
     atom   21 type  1   force =     0.00005977   -0.00139903    0.10888671
     atom   22 type  1   force =     0.00000894   -0.00024779    0.00986954
     atom   23 type  1   force =     0.00001025   -0.00512658    0.00139831
     atom   24 type  1   force =     0.06621148   -0.00051691   -0.02950271
     atom   25 type  1   force =     0.00418838   -0.03009875    0.00219102
     atom   26 type  1   force =     0.01023984   -0.02417385    0.00211852
     atom   27 type  2   force =    -0.00007009    0.01376576   -0.18654160
     atom   28 type  2   force =    -0.00002224    0.02336679   -0.00583934
     atom   29 type  2   force =    -0.00004904    0.01930674   -0.01104023
     atom   30 type  1   force =    -0.06631869   -0.00096744   -0.02945890
     atom   31 type  1   force =    -0.00418181   -0.03006997    0.00219217
     atom   32 type  1   force =    -0.01017568   -0.02415154    0.00210847
     atom   33 type  2   force =     0.00009328   -0.00141592    0.06835218
     atom   34 type  2   force =     0.00001935    0.03781354    0.00405983
     atom   35 type  2   force =    -0.00002463    0.03569650    0.00770492
     atom   36 type  1   force =     0.00001552    0.00056351    0.06524166
     atom   37 type  1   force =    -0.00000948    0.00228294   -0.01100435
     atom   38 type  1   force =    -0.00000232   -0.00028249    0.00167013
     atom   39 type  1   force =     0.00005872   -0.00143701    0.10682624
     atom   40 type  1   force =     0.00000211   -0.00039067    0.00777705
     atom   41 type  1   force =    -0.00000034   -0.00005882    0.00570654
     atom   42 type  1   force =     0.06733809   -0.00096940   -0.02906985
     atom   43 type  1   force =     0.00312802   -0.02828598    0.00237470
     atom   44 type  1   force =     0.00717651   -0.02144161    0.00456302
     atom   45 type  2   force =    -0.00006956   -0.00848863   -0.18085957
     atom   46 type  2   force =    -0.00000782    0.01742386   -0.00235094
     atom   47 type  2   force =    -0.00004653    0.02000914   -0.00642022
     atom   48 type  1   force =    -0.06743273   -0.00141652   -0.02902651
     atom   49 type  1   force =    -0.00309483   -0.02828403    0.00237272
     atom   50 type  1   force =    -0.00714797   -0.02140363    0.00453277
     atom   51 type  2   force =     0.00012161   -0.00304571    0.06675674
     atom   52 type  2   force =     0.00000717    0.03508566    0.00720038
     atom   53 type  2   force =    -0.00002448    0.02402788    0.00294847
     atom   54 type  3   force =     0.00011010   -0.00024227    0.00056415
     atom   55 type  4   force =    -0.00004167   -0.02279023    0.00028595
     atom   56 type  3   force =     0.00000235    0.01484851   -0.00458238
     atom   57 type  3   force =    -0.00000727    0.00684652    0.00845364
     atom   58 type  4   force =     0.00012734    0.00076650   -0.00140124
     atom   59 type  3   force =    -0.00000121   -0.00005171    0.00002957
     atom   60 type  3   force =    -0.00055905    0.00072729   -0.00039575
     atom   61 type  3   force =     0.00041695    0.00065341   -0.00043593

     Total force =     0.462656     Total SCF correction =     0.000495
  @ DRIVER MODE: Message from server: STATUS
  @ DRIVER MODE: Message from server: GETFORCE
  @ DRIVER MODE: Returning v,forces,stress,ensemble

     Writing output data file ./calc.save/
  @ DRIVER MODE: Message from server: EXIT
  @ DRIVE MODE: Exiting

     General routines

     Parallel routines

   This run was terminated on:  16:54:25  18Oct2021

   JOB DONE.