     Program PWSCF v.6.7GPU starts on 15Sep2021 at 15:34:21

     R & G space division:  proc/nbgrp/npool/nimage =      10
     Reading input from /storage/home/hcoda1/3/ntian30/research/carbon/CxH_vib/H2O_calc/ads_slab/CHOHH2O_a/out_0000/pw.inp
Warning: card &CELL ignored
Warning: card   CELL_DYNAMICS='IPI', ignored
Warning: card / ignored

     Current dimensions of program PWSCF are:
     Max number of different atomic species (ntypx) = 10
     Max number of k-points (npk) =  40000
     Max angular momentum in pseudopotentials (lmaxx) =  3
     Presently no symmetry can be used with electric field

     Message from routine cell_base_init:
     DEPRECATED: use true lattice parameter, not A to a.u. conversion factor

     IMPORTANT: XC functional enforced from input :
     Exchange-correlation= BEEF-VDW
                           (   1   4  43  14   2   0   0)
     Any further DFT definition will be discarded
     Please, verify this is what you really want

  @ DRIVER MODE: Connecting to
 qe_1139763_2852632.sched-torque.pace.gatech.edu2bvzvyr6_scratch
  using UNIX socket
  @ DRIVER MODE: Message from server: STATUS
  @ DRIVER MODE: Message from server: INIT
  @ DRIVER MODE: Receiving replica           0          -1
  @ DRIVER MODE: Receiving encoded integer          25
  @ DRIVER MODE:  SCF:  T  FORCE:  T  STRESS:  F  VC:  F  ENSEMBLE:  F
  @ DRIVER MODE:  SCF:  T  FORCE:  T  STRESS:  F  VC:  F  ENSEMBLE:  F

     Using Slab Decomposition

     bravais-lattice index     =            0
     lattice parameter (alat)  =       1.8897  a.u.
     unit-cell volume          =    6658.9804 (a.u.)^3
     number of atoms/cell      =           54
     number of atomic types    =            4
     number of electrons       =       398.00
     number of Kohn-Sham states=          209
     kinetic-energy cutoff     =      29.3995  Ry
     charge density cutoff     =     293.9946  Ry
     scf convergence threshold =      7.3E-08
     mixing beta               =       0.0500
     number of iterations used =            8  plain     mixing
     Exchange-correlation= BEEF-VDW
                           (   1   4  43  14   2   0   0)

     celldm(1)=   1.889726  celldm(2)=   0.000000  celldm(3)=   0.000000
     celldm(4)=   0.000000  celldm(5)=   0.000000  celldm(6)=   0.000000

     crystal axes: (cart. coord. in units of alat)
               a(1) = (   6.579727   0.000000   0.000000 )
               a(2) = (  -0.000775   5.961596   0.000000 )
               a(3) = (   0.000000   0.000000  25.155947 )

     reciprocal axes: (cart. coord. in units 2 pi/alat)
               b(1) = (  0.151982  0.000020  0.000000 )
               b(2) = (  0.000000  0.167740  0.000000 )
               b(3) = (  0.000000  0.000000  0.039752 )

     PseudoPot. # 1 for Ti read from file:
     /storage/coda1/p-amedford6/0/shared/rich_project_chbe-medford/medford-share/data/pseudos_module/espresso/nninc/pbe/van/Ti.UPF
     MD5 check sum: 8e4df49b7f0d34bbd5052bf3f5ea0213
     Pseudo is Ultrasoft, Zval = 12.0
     Generated by new atomic code, or converted to UPF format
     Using radial grid of  851 points,  6 beta functions with:
                l(1) =   0
                l(2) =   0
                l(3) =   1
                l(4) =   1
                l(5) =   2
                l(6) =   2
     Q(r) pseudized with  8 coefficients,  rinner =    1.000   1.000   1.000
                                                       1.000   1.000

     PseudoPot. # 2 for O  read from file:
     /storage/coda1/p-amedford6/0/shared/rich_project_chbe-medford/medford-share/data/pseudos_module/espresso/nninc/pbe/van/O.UPF
     MD5 check sum: 78c19812648e8988a0fe644b0f25305e
     Pseudo is Ultrasoft, Zval =  6.0
     Generated by new atomic code, or converted to UPF format
     Using radial grid of  737 points,  4 beta functions with:
                l(1) =   0
                l(2) =   0
                l(3) =   1
                l(4) =   1
     Q(r) pseudized with  8 coefficients,  rinner =    0.800   0.800   0.800

     PseudoPot. # 3 for C  read from file:
     /storage/coda1/p-amedford6/0/shared/rich_project_chbe-medford/medford-share/data/pseudos_module/espresso/nninc/pbe/van/C.UPF
     MD5 check sum: 1a69bf6b8db32088f5b2163dbdb77a27
     Pseudo is Ultrasoft, Zval =  4.0
     Generated by new atomic code, or converted to UPF format
     Using radial grid of  721 points,  4 beta functions with:
                l(1) =   0
                l(2) =   0
                l(3) =   1
                l(4) =   1
     Q(r) pseudized with  8 coefficients,  rinner =    0.800   0.800   0.800

     PseudoPot. # 4 for H  read from file:
     /storage/coda1/p-amedford6/0/shared/rich_project_chbe-medford/medford-share/data/pseudos_module/espresso/nninc/pbe/van/H.UPF
     MD5 check sum: b5ee9d7bfd3a09ee7748110bda690ff7
     Pseudo is Ultrasoft, Zval =  1.0
     Generated by new atomic code, or converted to UPF format
     Using radial grid of  615 points,  1 beta functions with:
                l(1) =   0
     Q(r) pseudized with  8 coefficients,  rinner =    0.800

     atomic species   valence    mass     pseudopotential
        Ti1           12.00    47.86700     Ti( 1.00)
        O1             6.00    15.99900     O ( 1.00)
        C1             4.00    12.01100     C ( 1.00)
        H1             1.00     1.00800     H ( 1.00)

     No symmetry found

   Cartesian axes

     site n.     atom                  positions (alat units)
         1           Ti1 tau(   1) = (   0.0004258   2.9801865   6.0000000  )
         2           Ti1 tau(   2) = (   3.2906075   1.4906267   6.0002472  )
         3           O1  tau(   3) = (   0.0006271   0.0005054   7.9858123  )
         4           O1  tau(   4) = (   3.2906025   0.0005020   7.3038282  )
         5           O1  tau(   5) = (   4.5942328   1.4918067   9.2879030  )
         6           O1  tau(   6) = (   1.9868534   1.4903216   9.2879459  )
         7           Ti1 tau(   7) = (   3.3203992   3.0065636   9.1614972  )
         8           Ti1 tau(   8) = (   0.0364112   1.5055733   9.2692997  )
         9           O1  tau(   9) = (   3.3037507   0.0048223  11.3846665  )
        10           O1  tau(  10) = (   0.0023770   0.0017864  10.5989407  )
        11           O1  tau(  11) = (   1.2986710   1.4943985  12.6419360  )
        12           O1  tau(  12) = (   5.3019195   1.4930987  12.6558330  )
        13           Ti1 tau(  13) = (   0.0201679   2.9954199  12.5459836  )
        14           Ti1 tau(  14) = (   3.3085843   1.4996073  12.5278567  )
        15           O1  tau(  15) = (   0.0306707   0.0063333  14.6434371  )
        16           O1  tau(  16) = (   3.2901280   5.9588824  14.0411263  )
        17           O1  tau(  17) = (   4.5937705   1.5245028  16.1210063  )
        18           O1  tau(  18) = (   2.0412355   1.5396885  16.1535958  )
        19           Ti1 tau(  19) = (   3.3250740   2.9785215  15.7238461  )
        20           Ti1 tau(  20) = (   0.0142243   1.3716099  15.9029131  )
        21           O1  tau(  21) = (   3.2904802   0.0005063   4.7018136  )
        22           O1  tau(  22) = (   0.0234726   5.9563001  17.1693433  )
        23           O1  tau(  23) = (   1.3043587   1.4918075   6.0039043  )
        24           O1  tau(  24) = (   5.2767064   1.4903225   6.0039473  )
        25           Ti1 tau(  25) = (   0.0000382   5.9609847   6.0000000  )
        26           Ti1 tau(  26) = (   3.2902200   4.4714249   6.0002472  )
        27           O1  tau(  27) = (   0.0002396   2.9813036   7.9858123  )
        28           O1  tau(  28) = (   3.2902150   2.9813002   7.3038282  )
        29           O1  tau(  29) = (   4.5938453   4.4726049   9.2879030  )
        30           O1  tau(  30) = (   1.9864658   4.4711199   9.2879459  )
        31           Ti1 tau(  31) = (   3.3166040   0.0254347   9.1556988  )
        32           Ti1 tau(  32) = (   0.0362352   4.4699824   9.2670842  )
        33           O1  tau(  33) = (   3.3035804   2.9865095  11.3763011  )
        34           O1  tau(  34) = (   0.0042610   2.9829788  10.6236548  )
        35           O1  tau(  35) = (   1.2977823   4.4749822  12.6434080  )
        36           O1  tau(  36) = (   5.3021498   4.4756442  12.6578133  )
        37           Ti1 tau(  37) = (   0.0128731   0.0155586  12.4748574  )
        38           Ti1 tau(  38) = (   3.3087006   4.4877506  12.5360639  )
        39           O1  tau(  39) = (   0.0289868   2.9802581  14.8446641  )
        40           O1  tau(  40) = (   3.2975897   2.9808645  13.9396156  )
        41           O1  tau(  41) = (   4.5936103   4.4348319  16.1149158  )
        42           O1  tau(  42) = (   2.0365336   4.4144103  16.1518429  )
        43           Ti1 tau(  43) = (   3.2980932   5.9591119  15.8729608  )
        44           Ti1 tau(  44) = (   0.0070259   4.5936845  15.8821292  )
        45           O1  tau(  45) = (   3.2900926   2.9813045   4.7018136  )
        46           O1  tau(  46) = (   1.3039711   4.4726057   6.0039043  )
        47           O1  tau(  47) = (   5.2763189   4.4711207   6.0039473  )
        48           C1  tau(  48) = (   6.0563806   2.9601134  19.0478501  )
        49           O1  tau(  49) = (   0.1703025   2.9720528  17.8813388  )
        50           H1  tau(  50) = (   5.0099104   2.8626262  18.6876999  )
        51           H1  tau(  51) = (   1.1251272   3.0566160  18.0647747  )
        52           O1  tau(  52) = (   3.2803433   5.9178330  18.2983259  )
        53           H1  tau(  53) = (   4.0549949   5.9397654  18.8787675  )
        54           H1  tau(  54) = (   2.4787048   0.0262026  18.8357284  )

     number of k points=    10  Fermi-Dirac smearing, width (Ry)=  0.0073
                       cart. coord. in units 2pi/alat
        k(    1) = (   0.0000000   0.0000000   0.0000000), wk =   0.1250000
        k(    2) = (   0.0000000   0.0419351   0.0000000), wk =   0.2500000
        k(    3) = (   0.0000000  -0.0838702   0.0000000), wk =   0.1250000
        k(    4) = (   0.0379955   0.0000049   0.0000000), wk =   0.2500000
        k(    5) = (   0.0379955   0.0419400   0.0000000), wk =   0.2500000
        k(    6) = (   0.0379955  -0.0838652   0.0000000), wk =   0.2500000
        k(    7) = (   0.0379955  -0.0419301   0.0000000), wk =   0.2500000
        k(    8) = (  -0.0759910  -0.0000099   0.0000000), wk =   0.1250000
        k(    9) = (  -0.0759910   0.0419252   0.0000000), wk =   0.2500000
        k(   10) = (  -0.0759910  -0.0838800   0.0000000), wk =   0.1250000

     Initial potential from superposition of free atoms

     starting charge  381.99917, renormalised to  398.00000

     negative rho (up, down):  1.670E-02 0.000E+00

     %%%%%%%%%%%%%%%%%%%%%%%%%%%%%%%%%%%%%%%%%%%%%%%%%%%%%%%%%%%%%%%%%%%%%%%%
     %                                                                      %
     % You are using vdW-DF, which was implemented by the Thonhauser group. %
     % Please cite the following two papers that made this development      %
     % possible and the two reviews that describe the various versions:     %
     %                                                                      %
     %   T. Thonhauser et al., PRL 115, 136402 (2015).                      %
     %   T. Thonhauser et al., PRB 76, 125112 (2007).                       %
     %   K. Berland et al., Rep. Prog. Phys. 78, 066501 (2015).             %
     %   D.C. Langreth et al., J. Phys.: Condens. Matter 21, 084203 (2009). %
     %                                                                      %
     %                                                                      %
     % If you are calculating the stress with vdW-DF, please also cite:     %
     %                                                                      %
     %   R. Sabatini et al., J. Phys.: Condens. Matter 24, 424209 (2012).   %
     %                                                                      %
     %%%%%%%%%%%%%%%%%%%%%%%%%%%%%%%%%%%%%%%%%%%%%%%%%%%%%%%%%%%%%%%%%%%%%%%%

     Adding external electric field

     Computed dipole along edir(3) :
        Dipole              -10.5131 Ry au,        -26.7216 Debye
        Dipole field         -0.0198 Ry au,

        Potential amp.        1.8391 Ry
        Total length         46.3494 bohr

     Starting wfcs are  300 atomic wfcs
  @ DRIVER MODE: Message from server: STATUS
  @ DRIVER MODE: Message from server: POSDATA
  @ DRIVER MODE: Reading and sharing cell
  @ DRIVER MODE: Reading and sharing positions
  @ DRIVER MODE: Received positions

     Self-consistent Calculation

     iteration #  1     ecut=    29.40 Ry     beta= 0.05
     Davidson diagonalization with overlap
     ethr =  1.00E-02,  avg # of iterations =  2.7

[...]

     total energy              =   -2493.73194834 Ry
     estimated scf accuracy    <    5288.12241451 Ry

[...]

     iteration #  3     ecut=    29.40 Ry     beta= 0.05
     Davidson diagonalization with overlap
     c_bands:  1 eigenvalues not converged
     ethr =  1.00E-02,  avg # of iterations = 16.2

[...]

     iteration # 72     ecut=    29.40 Ry     beta= 0.05
     Davidson diagonalization with overlap
     ethr =  4.87E-11,  avg # of iterations = 16.6

[...]

     total energy              =   -2964.77949659 Ry
     estimated scf accuracy    <       0.00000021 Ry

     iteration # 73     ecut=    29.40 Ry     beta= 0.05
     Davidson diagonalization with overlap
     c_bands:  1 eigenvalues not converged
     ethr =  4.87E-11,  avg # of iterations = 14.9

     negative rho (up, down):  1.518E-02 0.000E+00

     Adding external electric field

     Computed dipole along edir(3) :
        Dipole                0.7106 Ry au,          1.8062 Debye
        Dipole field          0.0013 Ry au,

        Potential amp.       -0.1243 Ry
        Total length         46.3494 bohr

     End of self-consistent calculation

          k = 0.0000 0.0000 0.0000 ( 18029 PWs)   bands (ev):

   -55.7044 -55.6916 -55.6681 -55.6659 -55.6571 -55.6062 -55.5546 -55.5530
   -55.5404 -55.5202 -55.5074 -55.4860 -55.4849 -55.4735 -54.7721 -54.7380
   -32.2650 -32.1857 -32.1820 -32.0873 -32.0500 -32.0303 -32.0191 -32.0088
   -31.9805 -31.9450 -31.9352 -31.9202 -31.8957 -31.8886 -31.8815 -31.8623
   -31.8451 -31.8444 -31.8413 -31.8337 -31.8176 -31.8067 -31.8066 -31.7970
   -31.7949 -31.7798 -31.7766 -31.7485 -31.7363 -31.7227 -31.7114 -31.7104
   -31.7053 -31.7014 -31.6950 -31.6870 -31.6548 -31.6534 -31.6484 -31.6447
   -31.6183 -31.5617 -31.1839 -31.0823 -31.0607 -31.0001 -30.9137 -30.8027
   -21.1370 -19.2597 -16.5232 -16.2811 -16.1384 -16.0352 -15.9304 -15.7979
   -15.7111 -15.5876 -15.5244 -15.3974 -15.3580 -15.3525 -15.3459 -15.3176
   -15.2964 -15.2734 -15.2495 -15.2087 -15.2042 -15.2006 -15.1717 -15.1595
   -15.1019 -15.0892 -15.0451 -14.9272 -14.8757 -14.8146 -14.4962 -13.2733
   -13.1542 -10.3412  -7.2203  -5.7014  -4.7265  -4.0158  -3.9431  -3.8137
    -3.7170  -3.6485  -3.6111  -3.5427  -3.4636  -3.2606  -3.1301  -3.1222
    -2.9895  -2.9527  -2.9082  -2.8069  -2.7410  -2.6789  -2.6687  -2.5930
    -2.5888  -2.5807  -2.5674  -2.4750  -2.4688  -2.4201  -2.3788  -2.2997
    -2.2640  -2.1468  -2.1161  -2.1072  -2.0635  -2.0478  -2.0411  -2.0285
    -1.9788  -1.9531  -1.9351  -1.9338  -1.7920  -1.7501  -1.6042  -1.4791
    -1.4464  -1.4321  -1.3035  -1.2662  -1.2497  -1.1921  -1.1715  -1.1617
    -1.1228  -1.0418  -0.9587  -0.9345  -0.8624  -0.8195  -0.7153  -0.6211
    -0.5765  -0.5277  -0.5053  -0.4960  -0.4766  -0.4118  -0.3641  -0.2775
    -0.2235  -0.1604  -0.1334  -0.1267  -0.0720  -0.0419   0.0380   0.0848
     0.1192   0.1333   0.2191   0.2335   0.2462   0.2776   0.2799   0.3929
     0.4468   0.5039   0.5104   0.6588   0.8259   0.8509   0.9305   1.1448
     1.2531   1.2558   1.4165   1.4732   1.8382   1.8924   3.3831   3.4532
     3.4877   3.5018   3.5111   3.5889   3.8187   3.8709   3.9026   3.9217
     3.9313

[...]

          k = 0.0380-0.0419 0.0000 ( 17876 PWs)   bands (ev):

[...]

          k =-0.0760-0.0000 0.0000 ( 17886 PWs)   bands (ev):

[...]

          k =-0.0760-0.0839 0.0000 ( 17948 PWs)   bands (ev):

   -55.6889 -55.6834 -55.6765 -55.6720 -55.6642 -55.6000 -55.5592 -55.5392
   -55.5352 -55.5336 -55.4916 -55.4916 -55.4894 -55.4875 -54.7550 -54.7550
   -32.1070 -32.0752 -32.0641 -32.0028 -31.9986 -31.9792 -31.9704 -31.9613
   -31.9592 -31.9347 -31.9337 -31.9087 -31.8995 -31.8711 -31.8575 -31.8558
   -31.8543 -31.8459 -31.8412 -31.8372 -31.8293 -31.8216 -31.8047 -31.8017
   -31.7991 -31.7967 -31.7964 -31.7956 -31.7921 -31.7841 -31.7817 -31.7523
   -31.7377 -31.7374 -31.7218 -31.7129 -31.7111 -31.7054 -31.6804 -31.6756
   -31.6743 -31.6510 -31.0733 -31.0732 -30.9967 -30.9963 -30.9570 -30.9568
   -21.1357 -19.2592 -16.1540 -15.9590 -15.8086 -15.7242 -15.7175 -15.6585
   -15.5783 -15.5371 -15.4913 -15.4794 -15.4692 -15.4346 -15.4255 -15.4140
   -15.3516 -15.3015 -15.2980 -15.2825 -15.2333 -15.2258 -15.2153 -15.2097
   -15.2010 -15.1579 -15.1537 -15.1390 -15.1282 -14.9845 -14.8280 -13.2556
   -13.2549 -10.3446  -7.2179  -5.7044  -4.7053  -3.9452  -3.8710  -3.2342
    -3.2316  -2.9700  -2.9478  -2.8893  -2.8777  -2.8136  -2.7824  -2.7065
    -2.7002  -2.6549  -2.6146  -2.6063  -2.5933  -2.5691  -2.5358  -2.5225
    -2.4805  -2.4707  -2.4448  -2.4403  -2.4212  -2.4053  -2.3803  -2.3744
    -2.3422  -2.3220  -2.3141  -2.3104  -2.2335  -2.1713  -2.0483  -2.0264
    -1.9857  -1.9365  -1.9209  -1.8504  -1.8146  -1.7999  -1.7422  -1.7077
    -1.6813  -1.5080  -1.4962  -1.4757  -1.3847  -1.3521  -1.3392  -1.3112
    -1.2549  -1.2260  -1.2220  -1.1444  -1.0331  -1.0102  -0.9117  -0.8661
    -0.8649  -0.7765  -0.7429  -0.7045  -0.7024  -0.6654  -0.6088  -0.5871
    -0.5300  -0.5243  -0.4768  -0.4561  -0.4326  -0.4017  -0.2290  -0.1739
    -0.1182  -0.0210   0.0078   0.2353   0.2664   0.2732   0.3390   0.3694
     0.4756   0.4970   0.5600   0.5750   0.6763   0.7078   0.7246   0.7295
     0.7758   1.4800   1.6049   1.6076   1.7065   1.7101   3.5325   3.5468
     3.6483   3.7002   3.7375   3.8412   3.8900   3.9221   3.9298   3.9450
     4.0458

     the Fermi energy is     3.4311 ev

!    total energy              =   -2964.77951145 Ry
     estimated scf accuracy    <       0.00000007 Ry
     smearing contrib. (-TS)   =      -0.03745211 Ry
     internal energy E=F+TS    =   -2964.74205935 Ry

     The total energy is F=E-TS. E is the sum of the following terms:
     one-electron contribution =  -24112.40021912 Ry
     hartree contribution      =   12146.41594167 Ry
     xc contribution           =    -490.02047510 Ry
     ewald contribution        =    9491.26174026 Ry
     electric field correction =       0.00095293 Ry

     convergence has been achieved in  73 iterations

     Forces acting on atoms (cartesian axes, Ry/au):

     atom    1 type  1   force =    -0.00035562   -0.00001887    0.09254962
     atom    2 type  1   force =    -0.00033553    0.00121671   -0.18259033
     atom    3 type  2   force =     0.00043762    0.00022787   -0.02458507
     atom    4 type  2   force =     0.00073453    0.00044898    0.05163178
     atom    5 type  2   force =    -0.01466114   -0.00007557    0.00465594
     atom    6 type  2   force =     0.01553502   -0.00056759    0.00540933
     atom    7 type  1   force =    -0.00050128   -0.00017435    0.00009954
     atom    8 type  1   force =     0.00021757    0.00001999    0.00020465
     atom    9 type  2   force =    -0.00017033   -0.00017622   -0.00032063
     atom   10 type  2   force =     0.00006288   -0.00004399    0.00031952
     atom   11 type  2   force =    -0.00030831    0.00020647    0.00003535
     atom   12 type  2   force =     0.00038039    0.00007796   -0.00021192
     atom   13 type  1   force =    -0.00020505   -0.00025693    0.00023793
     atom   14 type  1   force =     0.00013116   -0.00021179   -0.00046777
     atom   15 type  2   force =    -0.00031989    0.00033372   -0.00013066
     atom   16 type  2   force =     0.00008294    0.00001734   -0.00030809
     atom   17 type  2   force =    -0.00008207   -0.00013075    0.00017213
     atom   18 type  2   force =     0.00011876   -0.00007762   -0.00027200
     atom   19 type  1   force =    -0.00096939    0.00006933   -0.00034176
     atom   20 type  1   force =     0.00037470    0.00007281    0.00000659
     atom   21 type  2   force =    -0.00009758    0.00006049    0.10488833
     atom   22 type  2   force =    -0.00033309   -0.00001327    0.00042404
     atom   23 type  2   force =    -0.06834553    0.00002450   -0.02691751
     atom   24 type  2   force =     0.06804425    0.00045694   -0.02699562
     atom   25 type  1   force =    -0.00030323   -0.00001989    0.09723044
     atom   26 type  1   force =    -0.00030204   -0.00120063   -0.18263694
     atom   27 type  2   force =     0.00035125    0.00024127   -0.02299022
     atom   28 type  2   force =     0.00081400    0.00042643    0.05201793
     atom   29 type  2   force =    -0.01464078    0.00065022    0.00458223
     atom   30 type  2   force =     0.01565909    0.00040211    0.00531230
     atom   31 type  1   force =    -0.00046003    0.00000523    0.00012155
     atom   32 type  1   force =     0.00021636    0.00009560    0.00018494
     atom   33 type  2   force =    -0.00008424    0.00012889    0.00015291
     atom   34 type  2   force =     0.00001398    0.00001788    0.00014812
     atom   35 type  2   force =    -0.00014714   -0.00030261    0.00012406
     atom   36 type  2   force =     0.00021602   -0.00019711   -0.00010728
     atom   37 type  1   force =    -0.00029075    0.00016725   -0.00045897
     atom   38 type  1   force =     0.00012558    0.00037145   -0.00035961
     atom   39 type  2   force =    -0.00035662   -0.00028097   -0.00020454
     atom   40 type  2   force =     0.00018153   -0.00008384   -0.00004484
     atom   41 type  2   force =    -0.00032226   -0.00012013   -0.00019637
     atom   42 type  2   force =     0.00034124   -0.00016428   -0.00062302
     atom   43 type  1   force =    -0.00089528   -0.00026837    0.00006760
     atom   44 type  1   force =     0.00036927   -0.00064135    0.00006575
     atom   45 type  2   force =    -0.00007273    0.00005121    0.10478548
     atom   46 type  2   force =    -0.06833019   -0.00060117   -0.02690446
     atom   47 type  2   force =     0.06802575   -0.00013282   -0.02697866
     atom   48 type  3   force =    -0.00006830   -0.00009369   -0.00024071
     atom   49 type  2   force =    -0.00016152   -0.00000869   -0.00007100
     atom   50 type  4   force =     0.00018246    0.00018864   -0.00015220
     atom   51 type  4   force =     0.00018213   -0.00008269   -0.00013808
     atom   52 type  2   force =     0.00005507   -0.00111885    0.00084050
     atom   53 type  4   force =    -0.00025615    0.00058657   -0.00042430
     atom   54 type  4   force =     0.00052252    0.00049822   -0.00059596

     Total force =     0.368425     Total SCF correction =     0.000729
  @ DRIVER MODE: Message from server: STATUS
  @ DRIVER MODE: Message from server: GETFORCE
  @ DRIVER MODE: Returning v,forces,stress,ensemble

     Writing output data file ./calc.save/
  @ DRIVER MODE: Message from server: EXIT
  @ DRIVE MODE: Exiting

     General routines

     Parallel routines

   This run was terminated on:  15:53: 2  15Sep2021

   JOB DONE.