     Program PWSCF v.6.7GPU starts on 24Sep2021 at 14:11: 8

     R & G space division:  proc/nbgrp/npool/nimage =       8
     Reading input from /storage/home/hcoda1/3/ntian30/research/carbon/CxH_vib/H2O_calc/ads_slab/CH3NH2NHHO_c/out_0062/pw.inp
Warning: card &CELL ignored
Warning: card   CELL_DYNAMICS='IPI', ignored
Warning: card / ignored

     Current dimensions of program PWSCF are:
     Max number of different atomic species (ntypx) = 10
     Max number of k-points (npk) =  40000
     Max angular momentum in pseudopotentials (lmaxx) =  3
     Presently no symmetry can be used with electric field

     Message from routine cell_base_init:
     DEPRECATED: use true lattice parameter, not A to a.u. conversion factor

     IMPORTANT: XC functional enforced from input :
     Exchange-correlation= BEEF-VDW
                           (   1   4  43  14   2   0   0)
     Any further DFT definition will be discarded
     Please, verify this is what you really want

  @ DRIVER MODE: Connecting to
 qe_1139763_2947310.sched-torque.pace.gatech.edumf4u9itk_scratch
  using UNIX socket
  @ DRIVER MODE: Message from server: STATUS
  @ DRIVER MODE: Message from server: INIT
  @ DRIVER MODE: Receiving replica           0          -1
  @ DRIVER MODE: Receiving encoded integer          25
  @ DRIVER MODE:  SCF:  T  FORCE:  T  STRESS:  F  VC:  F  ENSEMBLE:  F
  @ DRIVER MODE:  SCF:  T  FORCE:  T  STRESS:  F  VC:  F  ENSEMBLE:  F

     Using Slab Decomposition

     bravais-lattice index     =            0
     lattice parameter (alat)  =       1.8897  a.u.
     unit-cell volume          =    6658.9804 (a.u.)^3
     number of atoms/cell      =           58
     number of atomic types    =            5
     number of electrons       =       405.00
     number of Kohn-Sham states=          212
     kinetic-energy cutoff     =      29.3995  Ry
     charge density cutoff     =     293.9946  Ry
     scf convergence threshold =      7.3E-08
     mixing beta               =       0.0500
     number of iterations used =            8  plain     mixing
     Exchange-correlation= BEEF-VDW
                           (   1   4  43  14   2   0   0)

     celldm(1)=   1.889726  celldm(2)=   0.000000  celldm(3)=   0.000000
     celldm(4)=   0.000000  celldm(5)=   0.000000  celldm(6)=   0.000000

     crystal axes: (cart. coord. in units of alat)
               a(1) = (   6.579727   0.000000   0.000000 )
               a(2) = (  -0.000775   5.961596   0.000000 )
               a(3) = (   0.000000   0.000000  25.155947 )

     reciprocal axes: (cart. coord. in units 2 pi/alat)
               b(1) = (  0.151982  0.000020  0.000000 )
               b(2) = (  0.000000  0.167740  0.000000 )
               b(3) = (  0.000000  0.000000  0.039752 )

     PseudoPot. # 1 for Ti read from file:
     /storage/coda1/p-amedford6/0/shared/rich_project_chbe-medford/medford-share/data/pseudos_module/espresso/nninc/pbe/van/Ti.UPF
     MD5 check sum: 8e4df49b7f0d34bbd5052bf3f5ea0213
     Pseudo is Ultrasoft, Zval = 12.0
     Generated by new atomic code, or converted to UPF format
     Using radial grid of  851 points,  6 beta functions with:
                l(1) =   0
                l(2) =   0
                l(3) =   1
                l(4) =   1
                l(5) =   2
                l(6) =   2
     Q(r) pseudized with  8 coefficients,  rinner =    1.000   1.000   1.000
                                                       1.000   1.000

     PseudoPot. # 2 for O  read from file:
     /storage/coda1/p-amedford6/0/shared/rich_project_chbe-medford/medford-share/data/pseudos_module/espresso/nninc/pbe/van/O.UPF
     MD5 check sum: 78c19812648e8988a0fe644b0f25305e
     Pseudo is Ultrasoft, Zval =  6.0
     Generated by new atomic code, or converted to UPF format
     Using radial grid of  737 points,  4 beta functions with:
                l(1) =   0
                l(2) =   0
                l(3) =   1
                l(4) =   1
     Q(r) pseudized with  8 coefficients,  rinner =    0.800   0.800   0.800

     PseudoPot. # 3 for N  read from file:
     /storage/coda1/p-amedford6/0/shared/rich_project_chbe-medford/medford-share/data/pseudos_module/espresso/nninc/pbe/van/N.UPF
     MD5 check sum: 90d10febe142ad51ac9d5be1deb811c4
     Pseudo is Ultrasoft, Zval =  5.0
     Generated by new atomic code, or converted to UPF format
     Using radial grid of  729 points,  4 beta functions with:
                l(1) =   0
                l(2) =   0
                l(3) =   1
                l(4) =   1
     Q(r) pseudized with  8 coefficients,  rinner =    0.800   0.800   0.800

     PseudoPot. # 4 for C  read from file:
     /storage/coda1/p-amedford6/0/shared/rich_project_chbe-medford/medford-share/data/pseudos_module/espresso/nninc/pbe/van/C.UPF
     MD5 check sum: 1a69bf6b8db32088f5b2163dbdb77a27
     Pseudo is Ultrasoft, Zval =  4.0
     Generated by new atomic code, or converted to UPF format
     Using radial grid of  721 points,  4 beta functions with:
                l(1) =   0
                l(2) =   0
                l(3) =   1
                l(4) =   1
     Q(r) pseudized with  8 coefficients,  rinner =    0.800   0.800   0.800

     PseudoPot. # 5 for H  read from file:
     /storage/coda1/p-amedford6/0/shared/rich_project_chbe-medford/medford-share/data/pseudos_module/espresso/nninc/pbe/van/H.UPF
     MD5 check sum: b5ee9d7bfd3a09ee7748110bda690ff7
     Pseudo is Ultrasoft, Zval =  1.0
     Generated by new atomic code, or converted to UPF format
     Using radial grid of  615 points,  1 beta functions with:
                l(1) =   0
     Q(r) pseudized with  8 coefficients,  rinner =    0.800

     atomic species   valence    mass     pseudopotential
        Ti1           12.00    47.86700     Ti( 1.00)
        O1             6.00    15.99900     O ( 1.00)
        N1             5.00    14.00700     N ( 1.00)
        C1             4.00    12.01100     C ( 1.00)
        H1             1.00     1.00800     H ( 1.00)

     No symmetry found

   Cartesian axes

     site n.     atom                  positions (alat units)
         1           Ti1 tau(   1) = (   0.0004258   2.9801865   6.0000000  )
         2           Ti1 tau(   2) = (   3.2906075   1.4906267   6.0002472  )
         3           O1  tau(   3) = (   0.0006271   0.0005054   7.9858123  )
         4           O1  tau(   4) = (   3.2906025   0.0005020   7.3038282  )
         5           O1  tau(   5) = (   4.5942328   1.4918067   9.2879030  )
         6           O1  tau(   6) = (   1.9868534   1.4903216   9.2879459  )
         7           Ti1 tau(   7) = (   3.2907910   2.8959150   9.1758416  )
         8           Ti1 tau(   8) = (   0.0015273   1.4827037   9.2680791  )
         9           O1  tau(   9) = (   3.2766908   5.9368450  11.3531397  )
        10           O1  tau(  10) = (   0.0116148   5.9584955  10.6183126  )
        11           O1  tau(  11) = (   1.2656210   1.4746568  12.6519442  )
        12           O1  tau(  12) = (   5.2821112   1.4671822  12.6528637  )
        13           Ti1 tau(  13) = (   0.0097886   3.0246942  12.5604876  )
        14           Ti1 tau(  14) = (   3.2716845   1.2919425  12.6923688  )
        15           O1  tau(  15) = (   6.5701288   5.9533353  14.7096902  )
        16           O1  tau(  16) = (   3.2612835   0.0684280  14.0222998  )
        17           O1  tau(  17) = (   4.5366247   1.5847279  16.0182572  )
        18           O1  tau(  18) = (   1.9973522   1.5932486  16.1410213  )
        19           Ti1 tau(  19) = (   3.3011230   3.0369928  15.6528835  )
        20           Ti1 tau(  20) = (   6.4616919   1.5442775  15.7581475  )
        21           O1  tau(  21) = (   3.2904802   0.0005063   4.7018136  )
        22           O1  tau(  22) = (   6.5264998   0.0144113  17.2942622  )
        23           O1  tau(  23) = (   1.3043587   1.4918075   6.0039043  )
        24           O1  tau(  24) = (   5.2767064   1.4903225   6.0039473  )
        25           Ti1 tau(  25) = (   0.0000382   5.9609847   6.0000000  )
        26           Ti1 tau(  26) = (   3.2902200   4.4714249   6.0002472  )
        27           O1  tau(  27) = (   0.0002396   2.9813036   7.9858123  )
        28           O1  tau(  28) = (   3.2902150   2.9813002   7.3038282  )
        29           O1  tau(  29) = (   4.5938453   4.4726049   9.2879030  )
        30           O1  tau(  30) = (   1.9864658   4.4711199   9.2879459  )
        31           Ti1 tau(  31) = (   3.2891106   5.8743827   9.1763621  )
        32           Ti1 tau(  32) = (   0.0006254   4.4649316   9.2693709  )
        33           O1  tau(  33) = (   3.2807216   2.9716845  11.3098041  )
        34           O1  tau(  34) = (   0.0092240   2.9805883  10.6323155  )
        35           O1  tau(  35) = (   1.2724369   4.4570745  12.6376724  )
        36           O1  tau(  36) = (   5.2808598   4.4590940  12.6336130  )
        37           Ti1 tau(  37) = (   6.5522345   0.0346224  12.5198063  )
        38           Ti1 tau(  38) = (   3.2841791   4.3624788  12.4156291  )
        39           O1  tau(  39) = (   6.5678423   2.9906399  14.7075790  )
        40           O1  tau(  40) = (   3.2630306   2.9991211  13.8878987  )
        41           O1  tau(  41) = (   4.5399391   4.4365880  16.1202346  )
        42           O1  tau(  42) = (   1.9952260   4.4486394  16.1468368  )
        43           Ti1 tau(  43) = (   3.1909378   0.0332154  16.1742435  )
        44           Ti1 tau(  44) = (   6.5525253   4.6749982  16.1158565  )
        45           O1  tau(  45) = (   3.2900926   2.9813045   4.7018136  )
        46           O1  tau(  46) = (   1.3039711   4.4726057   6.0039043  )
        47           O1  tau(  47) = (   5.2763189   4.4711207   6.0039473  )
        48           N1  tau(  48) = (   0.9351815   2.3805788  18.4294677  )
        49           N1  tau(  49) = (   6.5001775   2.8750743  17.5309975  )
        50           C1  tau(  50) = (   1.3386797   3.2909482  19.5301671  )
        51           H1  tau(  51) = (   0.4734699   3.4817333  20.1622224  )
        52           H1  tau(  52) = (   2.1262835   2.8019037  20.1042238  )
        53           H1  tau(  53) = (   1.7016266   4.2178517  19.0939426  )
        54           H1  tau(  54) = (   0.6429753   1.4474929  18.7566963  )
        55           H1  tau(  55) = (   5.6191021   2.8022447  18.0351622  )
        56           H1  tau(  56) = (   1.7303324   2.1440475  17.7969061  )
        57           O1  tau(  57) = (   3.3671931   0.1367260  18.0860582  )
        58           H1  tau(  58) = (   4.3109782   5.9598238  18.3144400  )

     number of k points=    10  Fermi-Dirac smearing, width (Ry)=  0.0073
                       cart. coord. in units 2pi/alat
        k(    1) = (   0.0000000   0.0000000   0.0000000), wk =   0.1250000
        k(    2) = (   0.0000000   0.0419351   0.0000000), wk =   0.2500000
        k(    3) = (   0.0000000  -0.0838702   0.0000000), wk =   0.1250000
        k(    4) = (   0.0379955   0.0000049   0.0000000), wk =   0.2500000
        k(    5) = (   0.0379955   0.0419400   0.0000000), wk =   0.2500000
        k(    6) = (   0.0379955  -0.0838652   0.0000000), wk =   0.2500000
        k(    7) = (   0.0379955  -0.0419301   0.0000000), wk =   0.2500000
        k(    8) = (  -0.0759910  -0.0000099   0.0000000), wk =   0.1250000
        k(    9) = (  -0.0759910   0.0419252   0.0000000), wk =   0.2500000
        k(   10) = (  -0.0759910  -0.0838800   0.0000000), wk =   0.1250000

     Initial potential from superposition of free atoms

     starting charge  388.99913, renormalised to  405.00000

     negative rho (up, down):  1.469E-02 0.000E+00

     %%%%%%%%%%%%%%%%%%%%%%%%%%%%%%%%%%%%%%%%%%%%%%%%%%%%%%%%%%%%%%%%%%%%%%%%
     %                                                                      %
     % You are using vdW-DF, which was implemented by the Thonhauser group. %
     % Please cite the following two papers that made this development      %
     % possible and the two reviews that describe the various versions:     %
     %                                                                      %
     %   T. Thonhauser et al., PRL 115, 136402 (2015).                      %
     %   T. Thonhauser et al., PRB 76, 125112 (2007).                       %
     %   K. Berland et al., Rep. Prog. Phys. 78, 066501 (2015).             %
     %   D.C. Langreth et al., J. Phys.: Condens. Matter 21, 084203 (2009). %
     %                                                                      %
     %                                                                      %
     % If you are calculating the stress with vdW-DF, please also cite:     %
     %                                                                      %
     %   R. Sabatini et al., J. Phys.: Condens. Matter 24, 424209 (2012).   %
     %                                                                      %
     %%%%%%%%%%%%%%%%%%%%%%%%%%%%%%%%%%%%%%%%%%%%%%%%%%%%%%%%%%%%%%%%%%%%%%%%

     Adding external electric field

     Computed dipole along edir(3) :
        Dipole              -13.9957 Ry au,        -35.5736 Debye
        Dipole field         -0.0264 Ry au,

        Potential amp.        2.4483 Ry
        Total length         46.3494 bohr

     Starting wfcs are  307 atomic wfcs
  @ DRIVER MODE: Message from server: STATUS
  @ DRIVER MODE: Message from server: POSDATA
  @ DRIVER MODE: Reading and sharing cell
  @ DRIVER MODE: Reading and sharing positions
  @ DRIVER MODE: Received positions

     Self-consistent Calculation

     iteration #  1     ecut=    29.40 Ry     beta= 0.05
     Davidson diagonalization with overlap
     c_bands:  5 eigenvalues not converged
     c_bands:  2 eigenvalues not converged
     c_bands:  1 eigenvalues not converged
     c_bands:  3 eigenvalues not converged
     c_bands:  3 eigenvalues not converged
     ethr =  1.00E-05,  avg # of iterations = 29.7

[...]

     total energy              =   -2225.13225101 Ry
     estimated scf accuracy    <    8521.03064039 Ry

     iteration #  2     ecut=    29.40 Ry     beta= 0.05
     Davidson diagonalization with overlap
     ethr =  1.00E-02,  avg # of iterations = 24.1

[...]

     iteration # 62     ecut=    29.40 Ry     beta= 0.05
     Davidson diagonalization with overlap
     c_bands:  1 eigenvalues not converged
     ethr =  9.08E-08,  avg # of iterations = 17.4

[...]

     total energy              =   -2976.49308235 Ry
     estimated scf accuracy    <       0.00000020 Ry

     iteration # 78     ecut=    29.40 Ry     beta= 0.05
     Davidson diagonalization with overlap
     ethr =  5.00E-11,  avg # of iterations =  9.8

     negative rho (up, down):  1.567E-02 0.000E+00

     Adding external electric field

     Computed dipole along edir(3) :
        Dipole                1.5010 Ry au,          3.8152 Debye
        Dipole field          0.0028 Ry au,

        Potential amp.       -0.2626 Ry
        Total length         46.3494 bohr

     End of self-consistent calculation

          k = 0.0000 0.0000 0.0000 ( 18029 PWs)   bands (ev):

   -55.2972 -55.1738 -55.1398 -55.0042 -54.9946 -54.9906 -54.9693 -54.9610
   -54.9309 -54.8822 -54.8500 -54.8138 -54.7936 -54.7524 -54.1375 -54.1035
   -31.6565 -31.6251 -31.5440 -31.4960 -31.4937 -31.4878 -31.4659 -31.4470
   -31.4194 -31.4150 -31.3703 -31.3362 -31.3261 -31.2786 -31.2658 -31.2584
   -31.2518 -31.2312 -31.2158 -31.1990 -31.1849 -31.1827 -31.1722 -31.1688
   -31.1498 -31.1269 -31.1245 -31.1209 -31.1111 -31.1033 -31.0973 -31.0769
   -31.0700 -31.0549 -31.0377 -31.0257 -31.0233 -31.0116 -31.0086 -31.0083
   -30.9820 -30.9427 -30.5432 -30.4579 -30.4354 -30.3608 -30.2744 -30.1627
   -18.8708 -15.9955 -15.8015 -15.6511 -15.4848 -15.3414 -15.2553 -15.0556
   -14.9398 -14.9011 -14.8826 -14.8082 -14.7057 -14.7049 -14.6611 -14.6340
   -14.6301 -14.6015 -14.5894 -14.5874 -14.5695 -14.5209 -14.5057 -14.4609
   -14.4547 -14.4157 -14.3030 -14.2337 -14.1891 -14.1165 -14.0018 -13.0872
   -12.6366 -12.5204 -10.7883  -7.5759  -6.2393  -5.5813  -3.7376  -3.6299
    -3.4216  -3.1658  -3.0994  -3.0716  -3.0447  -2.8913  -2.7662  -2.5858
    -2.4758  -2.4311  -2.3131  -2.2957  -2.2146  -2.1655  -2.1213  -2.0733
    -2.0435  -1.9777  -1.9605  -1.9560  -1.9281  -1.8612  -1.8335  -1.7182
    -1.6885  -1.6256  -1.5681  -1.4984  -1.4818  -1.4753  -1.4683  -1.4571
    -1.4283  -1.4131  -1.3814  -1.3414  -1.2613  -1.2079  -1.1995  -1.1608
    -1.0772  -0.8913  -0.7683  -0.7444  -0.6858  -0.6424  -0.5912  -0.5790
    -0.5556  -0.5169  -0.4111  -0.3985  -0.3347  -0.3058  -0.2423  -0.1922
    -0.1648  -0.1018  -0.0394   0.0475   0.0685   0.0865   0.1279   0.1746
     0.2464   0.2826   0.3223   0.3517   0.4409   0.4936   0.5536   0.5604
     0.5927   0.6651   0.7216   0.7689   0.7895   0.8088   0.8598   0.8762
     0.9192   0.9751   1.0141   1.0293   1.1011   1.1597   1.2092   1.2397
     1.3381   1.3529   1.5129   1.5681   1.8359   1.8883   1.9560   2.0819
     2.4548   2.4996   3.9347   4.0552   4.0664   4.0889   4.1677   4.2306
     4.3986   4.4049   4.5166   4.6174

[...]

          k = 0.0380-0.0419 0.0000 ( 17876 PWs)   bands (ev):

[...]

          k =-0.0760-0.0000 0.0000 ( 17886 PWs)   bands (ev):

[...]

          k =-0.0760-0.0839 0.0000 ( 17948 PWs)   bands (ev):

   -55.2964 -55.1572 -55.1562 -54.9912 -54.9881 -54.9852 -54.9785 -54.9767
   -54.9242 -54.8890 -54.8396 -54.8240 -54.7866 -54.7593 -54.1209 -54.1200
   -31.5582 -31.5353 -31.4891 -31.4722 -31.4716 -31.4517 -31.4509 -31.4138
   -31.3145 -31.3076 -31.3021 -31.3006 -31.2954 -31.2769 -31.2759 -31.2669
   -31.2667 -31.2457 -31.2450 -31.2153 -31.2021 -31.1981 -31.1972 -31.1909
   -31.1764 -31.1662 -31.1579 -31.1529 -31.1502 -31.1454 -31.1410 -31.1218
   -31.1104 -31.0885 -31.0751 -31.0672 -31.0337 -31.0303 -31.0194 -31.0161
   -31.0120 -30.9947 -30.4485 -30.4478 -30.3567 -30.3556 -30.3180 -30.3173
   -18.8666 -15.9509 -15.3741 -15.1703 -15.1073 -15.0841 -15.0690 -15.0327
   -15.0061 -14.9521 -14.9331 -14.8749 -14.8444 -14.8315 -14.7601 -14.7442
   -14.6887 -14.6594 -14.6469 -14.6072 -14.6025 -14.5803 -14.5480 -14.5394
   -14.4741 -14.4602 -14.4567 -14.3652 -14.3550 -14.2342 -14.1890 -13.0981
   -12.6226 -12.6220 -10.7904  -7.5868  -6.2253  -5.5710  -3.6836  -3.6412
    -3.3772  -2.5859  -2.4489  -2.4389  -2.3025  -2.2892  -2.1935  -2.1468
    -2.0935  -2.0752  -2.0531  -2.0341  -2.0034  -1.9705  -1.9541  -1.9468
    -1.9185  -1.8965  -1.8717  -1.8655  -1.8298  -1.8249  -1.8035  -1.7804
    -1.7702  -1.7353  -1.7218  -1.7176  -1.7035  -1.6504  -1.6314  -1.4689
    -1.4382  -1.3470  -1.3134  -1.2903  -1.2808  -1.2551  -1.2378  -1.2171
    -1.1620  -1.1090  -1.0484  -0.9220  -0.8768  -0.8119  -0.7762  -0.6987
    -0.6577  -0.6238  -0.5955  -0.5719  -0.5392  -0.4816  -0.4049  -0.3497
    -0.3036  -0.2625  -0.1649  -0.1460  -0.1234  -0.1120  -0.0783  -0.0195
    -0.0126   0.0433   0.0622   0.1253   0.1405   0.1560   0.1741   0.2579
     0.3516   0.4319   0.4566   0.5475   0.5650   0.6558   0.7025   0.8019
     0.9137   0.9601   0.9993   1.0094   1.0924   1.0975   1.1546   1.1772
     1.2615   1.3486   1.4130   1.4212   1.4411   1.4950   2.2512   2.2598
     2.3198   2.3201   4.1852   4.3482   4.4277   4.4394   4.4714   4.4826
     4.5149   4.5174   4.6035   4.6142

     the Fermi energy is     3.9538 ev

!    total energy              =   -2976.49309538 Ry
     estimated scf accuracy    <       0.00000007 Ry
     smearing contrib. (-TS)   =      -0.02056851 Ry
     internal energy E=F+TS    =   -2976.47252687 Ry

     The total energy is F=E-TS. E is the sum of the following terms:
     one-electron contribution =  -23616.96508023 Ry
     hartree contribution      =   11908.21080076 Ry
     xc contribution           =    -495.75806496 Ry
     ewald contribution        =    9228.03556587 Ry
     electric field correction =       0.00425169 Ry

     convergence has been achieved in  78 iterations

     Forces acting on atoms (cartesian axes, Ry/au):

     atom    1 type  1   force =     0.00014338   -0.00013144    0.09533489
     atom    2 type  1   force =    -0.00002537    0.00039922   -0.17475825
     atom    3 type  2   force =     0.00004141   -0.00018043   -0.02256494
     atom    4 type  2   force =     0.00001564   -0.00200467    0.05319593
     atom    5 type  2   force =    -0.00813011   -0.00302630    0.00228629
     atom    6 type  2   force =     0.00922757   -0.00232206    0.00058133
     atom    7 type  1   force =    -0.00078884   -0.00509755    0.00570870
     atom    8 type  1   force =     0.00083746    0.00656945    0.01468202
     atom    9 type  2   force =     0.00011558    0.00044094    0.00073029
     atom   10 type  2   force =    -0.00346313    0.00092166   -0.01235264
     atom   11 type  2   force =    -0.00000097   -0.00055471    0.00029321
     atom   12 type  2   force =     0.00006393   -0.00042754    0.00024262
     atom   13 type  1   force =     0.00093353    0.00087172    0.00008401
     atom   14 type  1   force =    -0.00018837    0.00011191   -0.00041407
     atom   15 type  2   force =     0.00015647   -0.00079816   -0.00067628
     atom   16 type  2   force =     0.00012090   -0.00012359    0.00089603
     atom   17 type  2   force =     0.00002255    0.00015542   -0.00011170
     atom   18 type  2   force =    -0.00013333    0.00029590   -0.00001160
     atom   19 type  1   force =     0.00023451   -0.00004320   -0.00007311
     atom   20 type  1   force =     0.00007208    0.00014286   -0.00030008
     atom   21 type  2   force =     0.00009345    0.00000058    0.10299419
     atom   22 type  2   force =     0.00000090    0.00036048    0.00093796
     atom   23 type  2   force =    -0.07210261   -0.00022286   -0.02755856
     atom   24 type  2   force =     0.07205832    0.00026273   -0.02757731
     atom   25 type  1   force =     0.00016054   -0.00028853    0.09517654
     atom   26 type  1   force =     0.00001219   -0.00124025   -0.17523743
     atom   27 type  2   force =    -0.00000307    0.00008044   -0.02153122
     atom   28 type  2   force =     0.00005430   -0.00043612    0.04877340
     atom   29 type  2   force =    -0.00785125    0.00198029    0.00252573
     atom   30 type  2   force =     0.00887828    0.00233917    0.00070386
     atom   31 type  1   force =    -0.00069384    0.00833270   -0.00446617
     atom   32 type  1   force =     0.00106162   -0.00752197    0.01446378
     atom   33 type  2   force =     0.00012576    0.00022203   -0.00000323
     atom   34 type  2   force =    -0.00269890   -0.00027808   -0.01822539
     atom   35 type  2   force =    -0.00055124    0.00026836    0.00009156
     atom   36 type  2   force =     0.00071727    0.00039648    0.00024689
     atom   37 type  1   force =     0.00017671   -0.00037539    0.00021811
     atom   38 type  1   force =    -0.00006419   -0.00005970   -0.00074341
     atom   39 type  2   force =     0.00029008    0.00032221   -0.00008544
     atom   40 type  2   force =     0.00022920    0.00000249    0.00069494
     atom   41 type  2   force =    -0.00007710   -0.00040773   -0.00007957
     atom   42 type  2   force =     0.00034780   -0.00017303    0.00048454
     atom   43 type  1   force =     0.00018114    0.00019615   -0.00010712
     atom   44 type  1   force =     0.00028148   -0.00037453   -0.00029343
     atom   45 type  2   force =     0.00009071   -0.00009777    0.10280932
     atom   46 type  2   force =    -0.07214733   -0.00003802   -0.02758703
     atom   47 type  2   force =     0.07209496    0.00036031   -0.02759155
     atom   48 type  3   force =     0.00030664    0.00015488    0.00003702
     atom   49 type  3   force =    -0.00069910    0.00049302   -0.00033625
     atom   50 type  4   force =     0.00010792    0.00070932    0.00037621
     atom   51 type  5   force =     0.00024002    0.00043309   -0.00024168
     atom   52 type  5   force =    -0.00026940   -0.00021064   -0.00052695
     atom   53 type  5   force =     0.00044406    0.00014929   -0.00024599
     atom   54 type  5   force =    -0.00014401   -0.00037551    0.00001723
     atom   55 type  5   force =    -0.00026825   -0.00031907   -0.00008210
     atom   56 type  5   force =    -0.00005371    0.00010438   -0.00050271
     atom   57 type  2   force =     0.01682825   -0.00294526    0.00394910
     atom   58 type  5   force =    -0.01641249    0.00299662   -0.00425045

     Total force =     0.364312     Total SCF correction =     0.000722
  @ DRIVER MODE: Message from server: STATUS
  @ DRIVER MODE: Message from server: GETFORCE
  @ DRIVER MODE: Returning v,forces,stress,ensemble

     Writing output data file ./calc.save/
  @ DRIVER MODE: Message from server: EXIT
  @ DRIVE MODE: Exiting

     General routines

     Parallel routines

   This run was terminated on:  14:41:38  24Sep2021

   JOB DONE.