     Program PWSCF v.6.7GPU starts on  7Oct2021 at 13: 5:56

     R & G space division:  proc/nbgrp/npool/nimage =       8
     Reading input from /storage/home/hcoda1/3/ntian30/research/carbon/CxH_vib/pristine/ads_slab/HO_a/out_0006/pw.inp
Warning: card &CELL ignored
Warning: card   CELL_DYNAMICS='IPI', ignored
Warning: card / ignored

     Current dimensions of program PWSCF are:
     Max number of different atomic species (ntypx) = 10
     Max number of k-points (npk) =  40000
     Max angular momentum in pseudopotentials (lmaxx) =  3
     Presently no symmetry can be used with electric field

     Message from routine cell_base_init:
     DEPRECATED: use true lattice parameter, not A to a.u. conversion factor

     IMPORTANT: XC functional enforced from input :
     Exchange-correlation= BEEF-VDW
                           (   1   4  43  14   2   0   0)
     Any further DFT definition will be discarded
     Please, verify this is what you really want

  @ DRIVER MODE: Connecting to
 qe_1139763_3117414.sched-torque.pace.gatech.edu89u4jlyc_scratch
  using UNIX socket
  @ DRIVER MODE: Message from server: STATUS
  @ DRIVER MODE: Message from server: INIT
  @ DRIVER MODE: Receiving replica           0          -1
  @ DRIVER MODE: Receiving encoded integer          25
  @ DRIVER MODE:  SCF:  T  FORCE:  T  STRESS:  F  VC:  F  ENSEMBLE:  F
  @ DRIVER MODE:  SCF:  T  FORCE:  T  STRESS:  F  VC:  F  ENSEMBLE:  F

     Using Slab Decomposition

     bravais-lattice index     =            0
     lattice parameter (alat)  =       1.8897  a.u.
     unit-cell volume          =    6658.9804 (a.u.)^3
     number of atoms/cell      =           50
     number of atomic types    =            3
     number of electrons       =       391.00
     number of Kohn-Sham states=          205
     kinetic-energy cutoff     =      29.3995  Ry
     charge density cutoff     =     293.9946  Ry
     scf convergence threshold =      7.3E-08
     mixing beta               =       0.0500
     number of iterations used =            8  plain     mixing
     Exchange-correlation= BEEF-VDW
                           (   1   4  43  14   2   0   0)

     celldm(1)=   1.889726  celldm(2)=   0.000000  celldm(3)=   0.000000
     celldm(4)=   0.000000  celldm(5)=   0.000000  celldm(6)=   0.000000

     crystal axes: (cart. coord. in units of alat)
               a(1) = (   6.579727   0.000000   0.000000 )
               a(2) = (  -0.000775   5.961596   0.000000 )
               a(3) = (   0.000000   0.000000  25.155947 )

     reciprocal axes: (cart. coord. in units 2 pi/alat)
               b(1) = (  0.151982  0.000020  0.000000 )
               b(2) = (  0.000000  0.167740  0.000000 )
               b(3) = (  0.000000  0.000000  0.039752 )

     PseudoPot. # 1 for Ti read from file:
     /storage/coda1/p-amedford6/0/shared/rich_project_chbe-medford/medford-share/data/pseudos_module/espresso/nninc/pbe/van/Ti.UPF
     MD5 check sum: 8e4df49b7f0d34bbd5052bf3f5ea0213
     Pseudo is Ultrasoft, Zval = 12.0
     Generated by new atomic code, or converted to UPF format
     Using radial grid of  851 points,  6 beta functions with:
                l(1) =   0
                l(2) =   0
                l(3) =   1
                l(4) =   1
                l(5) =   2
                l(6) =   2
     Q(r) pseudized with  8 coefficients,  rinner =    1.000   1.000   1.000
                                                       1.000   1.000

     PseudoPot. # 2 for O  read from file:
     /storage/coda1/p-amedford6/0/shared/rich_project_chbe-medford/medford-share/data/pseudos_module/espresso/nninc/pbe/van/O.UPF
     MD5 check sum: 78c19812648e8988a0fe644b0f25305e
     Pseudo is Ultrasoft, Zval =  6.0
     Generated by new atomic code, or converted to UPF format
     Using radial grid of  737 points,  4 beta functions with:
                l(1) =   0
                l(2) =   0
                l(3) =   1
                l(4) =   1
     Q(r) pseudized with  8 coefficients,  rinner =    0.800   0.800   0.800

     PseudoPot. # 3 for H  read from file:
     /storage/coda1/p-amedford6/0/shared/rich_project_chbe-medford/medford-share/data/pseudos_module/espresso/nninc/pbe/van/H.UPF
     MD5 check sum: b5ee9d7bfd3a09ee7748110bda690ff7
     Pseudo is Ultrasoft, Zval =  1.0
     Generated by new atomic code, or converted to UPF format
     Using radial grid of  615 points,  1 beta functions with:
                l(1) =   0
     Q(r) pseudized with  8 coefficients,  rinner =    0.800

     atomic species   valence    mass     pseudopotential
        Ti1           12.00    47.86700     Ti( 1.00)
        O1             6.00    15.99900     O ( 1.00)
        H1             1.00     1.00800     H ( 1.00)

     No symmetry found

   Cartesian axes

     site n.     atom                  positions (alat units)
         1           Ti1 tau(   1) = (   0.0004258   2.9801865   6.0000000  )
         2           Ti1 tau(   2) = (   3.2906075   1.4906267   6.0002472  )
         3           O1  tau(   3) = (   0.0006271   0.0005054   7.9858123  )
         4           O1  tau(   4) = (   3.2906025   0.0005020   7.3038282  )
         5           O1  tau(   5) = (   4.5942328   1.4918067   9.2879030  )
         6           O1  tau(   6) = (   1.9868534   1.4903216   9.2879459  )
         7           Ti1 tau(   7) = (   3.3248368   2.9353415   9.1581132  )
         8           Ti1 tau(   8) = (   0.0348061   1.4328757   9.2698444  )
         9           O1  tau(   9) = (   3.2558153   5.9608867  11.3540807  )
        10           O1  tau(  10) = (   6.5787777   5.9580609  10.6102199  )
        11           O1  tau(  11) = (   1.2578461   1.4922241  12.6657876  )
        12           O1  tau(  12) = (   5.2569931   1.4893933  12.6381393  )
        13           Ti1 tau(  13) = (   6.5294230   2.9904941  12.8452735  )
        14           Ti1 tau(  14) = (   3.2579094   1.4843304  12.4961006  )
        15           O1  tau(  15) = (   6.5186568   0.0062952  14.7209196  )
        16           O1  tau(  16) = (   3.2668583   0.0047471  13.9447273  )
        17           O1  tau(  17) = (   4.4776800   1.5076002  16.1086166  )
        18           O1  tau(  18) = (   1.9743396   1.5021368  16.0673285  )
        19           Ti1 tau(  19) = (   3.2504849   2.9915922  15.7337648  )
        20           Ti1 tau(  20) = (   6.5638180   1.3940782  16.0359698  )
        21           O1  tau(  21) = (   3.2904802   0.0005063   4.7018136  )
        22           O1  tau(  22) = (   6.5319333   0.0131466  17.2434795  )
        23           O1  tau(  23) = (   1.3043587   1.4918075   6.0039043  )
        24           O1  tau(  24) = (   5.2767064   1.4903225   6.0039473  )
        25           Ti1 tau(  25) = (   0.0000382   5.9609847   6.0000000  )
        26           Ti1 tau(  26) = (   3.2902200   4.4714249   6.0002472  )
        27           O1  tau(  27) = (   0.0002396   2.9813036   7.9858123  )
        28           O1  tau(  28) = (   3.2902150   2.9813002   7.3038282  )
        29           O1  tau(  29) = (   4.5938453   4.4726049   9.2879030  )
        30           O1  tau(  30) = (   1.9864658   4.4711199   9.2879459  )
        31           Ti1 tau(  31) = (   3.3025199   5.9118878   9.1541808  )
        32           Ti1 tau(  32) = (   0.0289454   4.3516898   9.3667734  )
        33           O1  tau(  33) = (   3.2607980   2.9788302  11.3532926  )
        34           O1  tau(  34) = (   6.5774047   2.9692645  10.5656574  )
        35           O1  tau(  35) = (   1.2571186   4.4720179  12.6628446  )
        36           O1  tau(  36) = (   5.2563914   4.4739326  12.6347338  )
        37           Ti1 tau(  37) = (   6.5611204   0.0114005  12.5205682  )
        38           Ti1 tau(  38) = (   3.2560456   4.4634797  12.4976326  )
        39           O1  tau(  39) = (   6.4988029   2.9873628  14.7163224  )
        40           O1  tau(  40) = (   3.2643784   2.9861877  13.9386898  )
        41           O1  tau(  41) = (   4.4776508   4.4728947  16.1063220  )
        42           O1  tau(  42) = (   1.9753228   4.4765485  16.0727810  )
        43           Ti1 tau(  43) = (   3.2601155   0.0105718  15.7379043  )
        44           Ti1 tau(  44) = (   6.5588044   4.5863390  16.0547194  )
        45           O1  tau(  45) = (   3.2900926   2.9813045   4.7018136  )
        46           O1  tau(  46) = (   6.4741149   2.9911911  17.3728393  )
        47           O1  tau(  47) = (   1.3039711   4.4726057   6.0039043  )
        48           O1  tau(  48) = (   5.2763189   4.4711207   6.0039473  )
        49           H1  tau(  49) = (   0.3451658   2.7570926  19.2039219  )
        50           O1  tau(  50) = (   0.9073542   3.0070444  18.4391685  )

     number of k points=    10  Fermi-Dirac smearing, width (Ry)=  0.0073
                       cart. coord. in units 2pi/alat
        k(    1) = (   0.0000000   0.0000000   0.0000000), wk =   0.1250000
        k(    2) = (   0.0000000   0.0419351   0.0000000), wk =   0.2500000
        k(    3) = (   0.0000000  -0.0838702   0.0000000), wk =   0.1250000
        k(    4) = (   0.0379955   0.0000049   0.0000000), wk =   0.2500000
        k(    5) = (   0.0379955   0.0419400   0.0000000), wk =   0.2500000
        k(    6) = (   0.0379955  -0.0838652   0.0000000), wk =   0.2500000
        k(    7) = (   0.0379955  -0.0419301   0.0000000), wk =   0.2500000
        k(    8) = (  -0.0759910  -0.0000099   0.0000000), wk =   0.1250000
        k(    9) = (  -0.0759910   0.0419252   0.0000000), wk =   0.2500000
        k(   10) = (  -0.0759910  -0.0838800   0.0000000), wk =   0.1250000

     Initial potential from superposition of free atoms

     starting charge  374.99924, renormalised to  391.00000

     negative rho (up, down):  2.045E-02 0.000E+00

     %%%%%%%%%%%%%%%%%%%%%%%%%%%%%%%%%%%%%%%%%%%%%%%%%%%%%%%%%%%%%%%%%%%%%%%%
     %                                                                      %
     % You are using vdW-DF, which was implemented by the Thonhauser group. %
     % Please cite the following two papers that made this development      %
     % possible and the two reviews that describe the various versions:     %
     %                                                                      %
     %   T. Thonhauser et al., PRL 115, 136402 (2015).                      %
     %   T. Thonhauser et al., PRB 76, 125112 (2007).                       %
     %   K. Berland et al., Rep. Prog. Phys. 78, 066501 (2015).             %
     %   D.C. Langreth et al., J. Phys.: Condens. Matter 21, 084203 (2009). %
     %                                                                      %
     %                                                                      %
     % If you are calculating the stress with vdW-DF, please also cite:     %
     %                                                                      %
     %   R. Sabatini et al., J. Phys.: Condens. Matter 24, 424209 (2012).   %
     %                                                                      %
     %%%%%%%%%%%%%%%%%%%%%%%%%%%%%%%%%%%%%%%%%%%%%%%%%%%%%%%%%%%%%%%%%%%%%%%%

     Adding external electric field

     Computed dipole along edir(3) :
        Dipole               -5.3570 Ry au,        -13.6161 Debye
        Dipole field         -0.0101 Ry au,

        Potential amp.        0.9371 Ry
        Total length         46.3494 bohr

     Starting wfcs are  293 atomic wfcs
  @ DRIVER MODE: Message from server: STATUS
  @ DRIVER MODE: Message from server: POSDATA
  @ DRIVER MODE: Reading and sharing cell
  @ DRIVER MODE: Reading and sharing positions
  @ DRIVER MODE: Received positions

     Self-consistent Calculation

     iteration #  1     ecut=    29.40 Ry     beta= 0.05
     Davidson diagonalization with overlap
     c_bands:  3 eigenvalues not converged
     c_bands:  2 eigenvalues not converged
     c_bands:  2 eigenvalues not converged
     c_bands:  4 eigenvalues not converged
     c_bands:  3 eigenvalues not converged
     c_bands:  1 eigenvalues not converged
     c_bands:  1 eigenvalues not converged
     c_bands:  2 eigenvalues not converged
     ethr =  1.00E-05,  avg # of iterations = 19.6

[...]

     total energy              =   -2813.97878576 Ry
     estimated scf accuracy    <    1500.90449485 Ry

     iteration #  2     ecut=    29.40 Ry     beta= 0.05
     Davidson diagonalization with overlap
     ethr =  1.00E-02,  avg # of iterations = 17.5

[...]

     iteration # 58     ecut=    29.40 Ry     beta= 0.05
     Davidson diagonalization with overlap
     c_bands:  1 eigenvalues not converged
     c_bands:  1 eigenvalues not converged
     ethr =  3.43E-10,  avg # of iterations = 17.6

[...]

     total energy              =   -2949.69592555 Ry
     estimated scf accuracy    <       0.00000041 Ry

     iteration # 64     ecut=    29.40 Ry     beta= 0.05
     Davidson diagonalization with overlap
     ethr =  4.15E-11,  avg # of iterations =  8.2

     negative rho (up, down):  2.018E-02 0.000E+00

     Adding external electric field

     Computed dipole along edir(3) :
        Dipole                0.7143 Ry au,          1.8156 Debye
        Dipole field          0.0013 Ry au,

        Potential amp.       -0.1250 Ry
        Total length         46.3494 bohr

     End of self-consistent calculation

          k = 0.0000 0.0000 0.0000 ( 18029 PWs)   bands (ev):

   -56.0584 -56.0422 -56.0208 -56.0059 -55.9303 -55.9276 -55.8876 -55.8855
   -55.8595 -55.8364 -55.8209 -55.8123 -55.7792 -55.6882 -55.0679 -55.0338
   -32.6053 -32.5244 -32.4541 -32.3848 -32.3804 -32.3559 -32.3497 -32.3216
   -32.2907 -32.2764 -32.2665 -32.2544 -32.2463 -32.2227 -32.2190 -32.1934
   -32.1857 -32.1718 -32.1676 -32.1466 -32.1298 -32.1237 -32.1081 -32.0915
   -32.0751 -32.0658 -32.0631 -32.0614 -32.0544 -32.0451 -32.0371 -32.0364
   -32.0220 -32.0119 -31.9986 -31.9810 -31.9640 -31.9560 -31.9173 -31.9115
   -31.8826 -31.8780 -31.4778 -31.3806 -31.3582 -31.2943 -31.2082 -31.0972
   -20.3651 -16.7810 -16.5027 -16.3612 -16.2029 -16.1574 -16.0521 -15.8796
   -15.7536 -15.7253 -15.6580 -15.6128 -15.6101 -15.5891 -15.5768 -15.5621
   -15.5532 -15.5314 -15.4732 -15.4620 -15.4529 -15.4280 -15.3836 -15.3277
   -15.2573 -15.1846 -15.1711 -15.1161 -15.0490 -15.0117 -14.4608 -13.5687
   -13.4505  -5.7807  -4.2366  -4.1300  -3.9617  -3.9396  -3.9121  -3.8461
    -3.5943  -3.5879  -3.4008  -3.2119  -3.2002  -3.1724  -3.1636  -3.1565
    -2.9344  -2.8800  -2.8743  -2.8660  -2.8590  -2.8171  -2.8046  -2.7911
    -2.7890  -2.7590  -2.6880  -2.6258  -2.5666  -2.4542  -2.4362  -2.3932
    -2.3565  -2.3166  -2.3124  -2.3082  -2.2571  -2.2436  -2.2171  -2.1826
    -2.1187  -1.9820  -1.8793  -1.8283  -1.7531  -1.6926  -1.5498  -1.5057
    -1.4552  -1.4460  -1.3896  -1.3620  -1.3307  -1.2746  -1.2304  -1.2184
    -1.1259  -1.0523  -0.9981  -0.9426  -0.8933  -0.8823  -0.7983  -0.7743
    -0.7485  -0.7157  -0.5277  -0.5034  -0.5015  -0.4058  -0.3773  -0.3319
    -0.3000  -0.2680  -0.2395  -0.2067  -0.1545  -0.0936  -0.0874  -0.0546
    -0.0527  -0.0156   0.0082   0.1260   0.1676   0.1906   0.2638   0.2856
     0.4383   0.4812   0.5946   0.7044   0.8514   0.8589   0.9562   1.0386
     1.1271   1.5454   1.6063   3.1326   3.1596   3.1826   3.2136   3.2837
     3.4053   3.5168   3.5575   3.5924   3.6205

[...]

          k = 0.0380-0.0419 0.0000 ( 17876 PWs)   bands (ev):

[...]

          k =-0.0760-0.0000 0.0000 ( 17886 PWs)   bands (ev):

[...]

          k =-0.0760-0.0839 0.0000 ( 17948 PWs)   bands (ev):

   -56.0475 -56.0315 -56.0261 -56.0217 -55.9265 -55.9175 -55.8973 -55.8786
   -55.8634 -55.8433 -55.8177 -55.7975 -55.7947 -55.6904 -55.0514 -55.0502
   -32.4094 -32.4051 -32.3597 -32.3492 -32.3395 -32.3324 -32.3146 -32.3141
   -32.3054 -32.2553 -32.2413 -32.2395 -32.2184 -32.2015 -32.1924 -32.1742
   -32.1715 -32.1655 -32.1637 -32.1514 -32.1305 -32.1262 -32.1209 -32.1176
   -32.1127 -32.1117 -32.1074 -32.0927 -32.0804 -32.0710 -32.0665 -32.0526
   -32.0509 -32.0492 -32.0396 -32.0219 -32.0153 -32.0026 -32.0008 -31.9892
   -31.9211 -31.8859 -31.3716 -31.3702 -31.2912 -31.2903 -31.2518 -31.2508
   -20.3599 -16.2107 -16.2002 -15.9842 -15.9605 -15.9584 -15.8941 -15.8188
   -15.8008 -15.7703 -15.7678 -15.7075 -15.6980 -15.6849 -15.6399 -15.5894
   -15.5531 -15.5483 -15.5364 -15.4976 -15.4944 -15.4675 -15.4314 -15.4068
   -15.3919 -15.3802 -15.3753 -15.3219 -15.2693 -15.1846 -14.4983 -13.5530
   -13.5506  -5.7738  -4.0876  -3.5023  -3.4887  -3.3457  -3.1772  -3.1747
    -3.1179  -3.0856  -2.9682  -2.9574  -2.9164  -2.8909  -2.8823  -2.8609
    -2.8358  -2.8266  -2.8187  -2.8015  -2.7931  -2.7688  -2.7499  -2.6996
    -2.6925  -2.6771  -2.6552  -2.6466  -2.6217  -2.6037  -2.5902  -2.5757
    -2.5623  -2.4611  -2.3385  -2.3058  -2.2322  -2.1881  -2.1425  -2.1375
    -2.1043  -2.0963  -2.0835  -1.9678  -1.8979  -1.7759  -1.7670  -1.7523
    -1.7186  -1.6185  -1.5931  -1.5499  -1.4651  -1.4539  -1.3610  -1.3322
    -1.3082  -1.2493  -1.1980  -1.1517  -1.1304  -1.0390  -1.0198  -1.0037
    -0.9525  -0.9309  -0.8703  -0.8385  -0.7926  -0.7766  -0.7067  -0.6685
    -0.6291  -0.5605  -0.5499  -0.5256  -0.4821  -0.4055  -0.1602  -0.0585
    -0.0382   0.0085   0.0381   0.0587   0.1810   0.1900   0.2408   0.2715
     0.3554   0.4099   0.4701   0.4883   0.5209   0.5878   0.7946   1.3162
     1.3180   1.4076   1.4188   3.3233   3.3788   3.3980   3.4459   3.5893
     3.5952   3.6176   3.6236   3.6794   3.7155

     the Fermi energy is     3.0993 ev

!    total energy              =   -2949.69595331 Ry
     estimated scf accuracy    <       0.00000007 Ry
     smearing contrib. (-TS)   =      -0.02330160 Ry
     internal energy E=F+TS    =   -2949.67265171 Ry

     The total energy is F=E-TS. E is the sum of the following terms:
     one-electron contribution =  -24640.24597430 Ry
     hartree contribution      =   12404.56594499 Ry
     xc contribution           =    -484.00895046 Ry
     ewald contribution        =    9770.01536519 Ry
     electric field correction =       0.00096287 Ry

     convergence has been achieved in  64 iterations

     Forces acting on atoms (cartesian axes, Ry/au):

     atom    1 type  1   force =    -0.00008593    0.00154103    0.10638134
     atom    2 type  1   force =    -0.00011075   -0.00000250   -0.17998218
     atom    3 type  2   force =     0.00022225    0.00713404   -0.03468347
     atom    4 type  2   force =     0.00039365   -0.00050976    0.04594579
     atom    5 type  2   force =    -0.01959036   -0.00190907    0.00432985
     atom    6 type  2   force =     0.01831544   -0.00057019    0.00277104
     atom    7 type  1   force =    -0.00037306   -0.00056452    0.00005942
     atom    8 type  1   force =     0.00024544   -0.00021812    0.00015961
     atom    9 type  2   force =     0.00032614   -0.00028763   -0.00042722
     atom   10 type  2   force =    -0.00002737   -0.00034522    0.00000310
     atom   11 type  2   force =     0.00003758   -0.00009587    0.00005567
     atom   12 type  2   force =     0.00053963   -0.00004371    0.00006964
     atom   13 type  1   force =    -0.00012077   -0.00015121    0.00000633
     atom   14 type  1   force =    -0.00029629    0.00033933    0.00011681
     atom   15 type  2   force =     0.00057807   -0.00018701   -0.00054992
     atom   16 type  2   force =    -0.00003372   -0.00016067    0.00078467
     atom   17 type  2   force =    -0.00054742   -0.00023179   -0.00042114
     atom   18 type  2   force =     0.00031838   -0.00006610   -0.00005605
     atom   19 type  1   force =     0.00088069   -0.00026249    0.00110977
     atom   20 type  1   force =    -0.00015148    0.00079248   -0.00001513
     atom   21 type  2   force =     0.00004779   -0.00000549    0.10418612
     atom   22 type  2   force =    -0.00019942   -0.00033471   -0.00010078
     atom   23 type  2   force =    -0.06853004    0.00090046   -0.02986601
     atom   24 type  2   force =     0.06839937    0.00144080   -0.02986603
     atom   25 type  1   force =     0.00009044   -0.00147709    0.11892110
     atom   26 type  1   force =    -0.00027980   -0.00075603   -0.17994245
     atom   27 type  2   force =     0.00046069   -0.00349158   -0.02900215
     atom   28 type  2   force =     0.00073314   -0.00072911    0.04750480
     atom   29 type  2   force =    -0.02064853   -0.00019137    0.00519802
     atom   30 type  2   force =     0.01976773    0.00204350    0.00388938
     atom   31 type  1   force =    -0.00030635   -0.00010193   -0.00018982
     atom   32 type  1   force =     0.00007976    0.00045585    0.00028901
     atom   33 type  2   force =    -0.00013102    0.00029225    0.00020541
     atom   34 type  2   force =    -0.00004803    0.00036051   -0.00045878
     atom   35 type  2   force =     0.00033258   -0.00016425    0.00013964
     atom   36 type  2   force =     0.00032886   -0.00010767    0.00024536
     atom   37 type  1   force =    -0.00126310    0.00042996   -0.00042409
     atom   38 type  1   force =    -0.00029737   -0.00002187    0.00006413
     atom   39 type  2   force =     0.00027692    0.00001939   -0.00050468
     atom   40 type  2   force =    -0.00004781    0.00005578   -0.00039392
     atom   41 type  2   force =     0.00015104    0.00015552   -0.00010222
     atom   42 type  2   force =    -0.00042311   -0.00005110    0.00034560
     atom   43 type  1   force =     0.00101978    0.00000470   -0.00058093
     atom   44 type  1   force =    -0.00005422   -0.00033244    0.00073379
     atom   45 type  2   force =     0.00004779    0.00001163    0.10422100
     atom   46 type  2   force =    -0.00007076    0.00000707    0.00069944
     atom   47 type  2   force =    -0.06898292   -0.00124474   -0.02979894
     atom   48 type  2   force =     0.06873749   -0.00095467   -0.02982430
     atom   49 type  3   force =     0.00628752    0.00241287   -0.01069935
     atom   50 type  2   force =    -0.00599851   -0.00282730    0.00945371

     Total force =     0.377856     Total SCF correction =     0.000678
  @ DRIVER MODE: Message from server: STATUS
  @ DRIVER MODE: Message from server: GETFORCE
  @ DRIVER MODE: Returning v,forces,stress,ensemble

     Writing output data file ./calc.save/
  @ DRIVER MODE: Message from server: EXIT
  @ DRIVE MODE: Exiting

     General routines

     Parallel routines

   This run was terminated on:  13:31:47   7Oct2021

   JOB DONE.