     Program PWSCF v.6.7GPU starts on 23Sep2021 at  4:23:38

     R & G space division:  proc/nbgrp/npool/nimage =      10
     Reading input from /storage/home/hcoda1/3/ntian30/research/carbon/CxH_vib/H2O_calc/ads_slab/CH2N2HHO_a/out_0036/pw.inp
Warning: card &CELL ignored
Warning: card   CELL_DYNAMICS='IPI', ignored
Warning: card / ignored

     Current dimensions of program PWSCF are:
     Max number of different atomic species (ntypx) = 10
     Max number of k-points (npk) =  40000
     Max angular momentum in pseudopotentials (lmaxx) =  3
     Presently no symmetry can be used with electric field

     Message from routine cell_base_init:
     DEPRECATED: use true lattice parameter, not A to a.u. conversion factor

     IMPORTANT: XC functional enforced from input :
     Exchange-correlation= BEEF-VDW
                           (   1   4  43  14   2   0   0)
     Any further DFT definition will be discarded
     Please, verify this is what you really want

  @ DRIVER MODE: Connecting to
 qe_1139763_2937323.sched-torque.pace.gatech.eduqcm92vma_scratch
  using UNIX socket
  @ DRIVER MODE: Message from server: STATUS
  @ DRIVER MODE: Message from server: INIT
  @ DRIVER MODE: Receiving replica           0          -1
  @ DRIVER MODE: Receiving encoded integer          25
  @ DRIVER MODE:  SCF:  T  FORCE:  T  STRESS:  F  VC:  F  ENSEMBLE:  F
  @ DRIVER MODE:  SCF:  T  FORCE:  T  STRESS:  F  VC:  F  ENSEMBLE:  F

     Using Slab Decomposition

     bravais-lattice index     =            0
     lattice parameter (alat)  =       1.8897  a.u.
     unit-cell volume          =    6658.9804 (a.u.)^3
     number of atoms/cell      =           55
     number of atomic types    =            5
     number of electrons       =       402.00
     number of Kohn-Sham states=          211
     kinetic-energy cutoff     =      29.3995  Ry
     charge density cutoff     =     293.9946  Ry
     scf convergence threshold =      7.3E-08
     mixing beta               =       0.0500
     number of iterations used =            8  plain     mixing
     Exchange-correlation= BEEF-VDW
                           (   1   4  43  14   2   0   0)

     celldm(1)=   1.889726  celldm(2)=   0.000000  celldm(3)=   0.000000
     celldm(4)=   0.000000  celldm(5)=   0.000000  celldm(6)=   0.000000

     crystal axes: (cart. coord. in units of alat)
               a(1) = (   6.579727   0.000000   0.000000 )
               a(2) = (  -0.000775   5.961596   0.000000 )
               a(3) = (   0.000000   0.000000  25.155947 )

     reciprocal axes: (cart. coord. in units 2 pi/alat)
               b(1) = (  0.151982  0.000020  0.000000 )
               b(2) = (  0.000000  0.167740  0.000000 )
               b(3) = (  0.000000  0.000000  0.039752 )

     PseudoPot. # 1 for Ti read from file:
     /storage/coda1/p-amedford6/0/shared/rich_project_chbe-medford/medford-share/data/pseudos_module/espresso/nninc/pbe/van/Ti.UPF
     MD5 check sum: 8e4df49b7f0d34bbd5052bf3f5ea0213
     Pseudo is Ultrasoft, Zval = 12.0
     Generated by new atomic code, or converted to UPF format
     Using radial grid of  851 points,  6 beta functions with:
                l(1) =   0
                l(2) =   0
                l(3) =   1
                l(4) =   1
                l(5) =   2
                l(6) =   2
     Q(r) pseudized with  8 coefficients,  rinner =    1.000   1.000   1.000
                                                       1.000   1.000

     PseudoPot. # 2 for O  read from file:
     /storage/coda1/p-amedford6/0/shared/rich_project_chbe-medford/medford-share/data/pseudos_module/espresso/nninc/pbe/van/O.UPF
     MD5 check sum: 78c19812648e8988a0fe644b0f25305e
     Pseudo is Ultrasoft, Zval =  6.0
     Generated by new atomic code, or converted to UPF format
     Using radial grid of  737 points,  4 beta functions with:
                l(1) =   0
                l(2) =   0
                l(3) =   1
                l(4) =   1
     Q(r) pseudized with  8 coefficients,  rinner =    0.800   0.800   0.800

     PseudoPot. # 3 for N  read from file:
     /storage/coda1/p-amedford6/0/shared/rich_project_chbe-medford/medford-share/data/pseudos_module/espresso/nninc/pbe/van/N.UPF
     MD5 check sum: 90d10febe142ad51ac9d5be1deb811c4
     Pseudo is Ultrasoft, Zval =  5.0
     Generated by new atomic code, or converted to UPF format
     Using radial grid of  729 points,  4 beta functions with:
                l(1) =   0
                l(2) =   0
                l(3) =   1
                l(4) =   1
     Q(r) pseudized with  8 coefficients,  rinner =    0.800   0.800   0.800

     PseudoPot. # 4 for C  read from file:
     /storage/coda1/p-amedford6/0/shared/rich_project_chbe-medford/medford-share/data/pseudos_module/espresso/nninc/pbe/van/C.UPF
     MD5 check sum: 1a69bf6b8db32088f5b2163dbdb77a27
     Pseudo is Ultrasoft, Zval =  4.0
     Generated by new atomic code, or converted to UPF format
     Using radial grid of  721 points,  4 beta functions with:
                l(1) =   0
                l(2) =   0
                l(3) =   1
                l(4) =   1
     Q(r) pseudized with  8 coefficients,  rinner =    0.800   0.800   0.800

     PseudoPot. # 5 for H  read from file:
     /storage/coda1/p-amedford6/0/shared/rich_project_chbe-medford/medford-share/data/pseudos_module/espresso/nninc/pbe/van/H.UPF
     MD5 check sum: b5ee9d7bfd3a09ee7748110bda690ff7
     Pseudo is Ultrasoft, Zval =  1.0
     Generated by new atomic code, or converted to UPF format
     Using radial grid of  615 points,  1 beta functions with:
                l(1) =   0
     Q(r) pseudized with  8 coefficients,  rinner =    0.800

     atomic species   valence    mass     pseudopotential
        Ti1           12.00    47.86700     Ti( 1.00)
        O1             6.00    15.99900     O ( 1.00)
        N1             5.00    14.00700     N ( 1.00)
        C1             4.00    12.01100     C ( 1.00)
        H1             1.00     1.00800     H ( 1.00)

     No symmetry found

   Cartesian axes

     site n.     atom                  positions (alat units)
         1           Ti1 tau(   1) = (   0.0004258   2.9801865   6.0000000  )
         2           Ti1 tau(   2) = (   3.2906075   1.4906267   6.0002472  )
         3           O1  tau(   3) = (   0.0006271   0.0005054   7.9858123  )
         4           O1  tau(   4) = (   3.2906025   0.0005020   7.3038282  )
         5           O1  tau(   5) = (   4.5942328   1.4918067   9.2879030  )
         6           O1  tau(   6) = (   1.9868534   1.4903216   9.2879459  )
         7           Ti1 tau(   7) = (   3.2907910   2.8959150   9.1758416  )
         8           Ti1 tau(   8) = (   0.0015273   1.4827037   9.2680791  )
         9           O1  tau(   9) = (   3.3002520   5.9418316  11.2747492  )
        10           O1  tau(  10) = (   0.0116148   5.9584955  10.6183126  )
        11           O1  tau(  11) = (   1.2897458   1.4862980  12.6211975  )
        12           O1  tau(  12) = (   5.3051886   1.5023792  12.6347999  )
        13           Ti1 tau(  13) = (   0.0146078   2.8478158  12.7200684  )
        14           Ti1 tau(  14) = (   3.3063360   1.3081926  12.6482236  )
        15           O1  tau(  15) = (   0.0235978   5.9609164  14.6274833  )
        16           O1  tau(  16) = (   3.2983906   0.0399142  13.8749830  )
        17           O1  tau(  17) = (   4.5813539   1.5856785  16.0626423  )
        18           O1  tau(  18) = (   2.0324892   1.5097802  16.0098020  )
        19           Ti1 tau(  19) = (   3.2774956   2.9544257  15.6266065  )
        20           Ti1 tau(  20) = (   6.5530467   1.3151789  15.9772938  )
        21           O1  tau(  21) = (   3.2904802   0.0005063   4.7018136  )
        22           O1  tau(  22) = (   6.5059356   5.9265713  17.1294848  )
        23           O1  tau(  23) = (   1.3043587   1.4918075   6.0039043  )
        24           O1  tau(  24) = (   5.2767064   1.4903225   6.0039473  )
        25           Ti1 tau(  25) = (   0.0000382   5.9609847   6.0000000  )
        26           Ti1 tau(  26) = (   3.2902200   4.4714249   6.0002472  )
        27           O1  tau(  27) = (   0.0002396   2.9813036   7.9858123  )
        28           O1  tau(  28) = (   3.2902150   2.9813002   7.3038282  )
        29           O1  tau(  29) = (   4.5938453   4.4726049   9.2879030  )
        30           O1  tau(  30) = (   1.9864658   4.4711199   9.2879459  )
        31           Ti1 tau(  31) = (   3.2891106   5.8743827   9.1763621  )
        32           Ti1 tau(  32) = (   0.0006254   4.4649316   9.2693709  )
        33           O1  tau(  33) = (   3.2992753   3.0242338  11.2405823  )
        34           O1  tau(  34) = (   0.0092240   2.9805883  10.6323155  )
        35           O1  tau(  35) = (   1.2972400   4.4705050  12.6241655  )
        36           O1  tau(  36) = (   5.3008088   4.4694758  12.6340222  )
        37           Ti1 tau(  37) = (   0.0289225   5.8314391  12.5906285  )
        38           Ti1 tau(  38) = (   3.3189507   4.3956991  12.4097224  )
        39           O1  tau(  39) = (   0.0312427   2.9750824  14.7260556  )
        40           O1  tau(  40) = (   3.2762925   2.9668711  13.8358254  )
        41           O1  tau(  41) = (   4.5358187   4.4455929  15.9064879  )
        42           O1  tau(  42) = (   2.0572077   4.4429961  16.0439637  )
        43           Ti1 tau(  43) = (   3.2186928   5.9141907  16.2420754  )
        44           Ti1 tau(  44) = (   6.4642982   4.4840528  15.9061301  )
        45           O1  tau(  45) = (   3.2900926   2.9813045   4.7018136  )
        46           O1  tau(  46) = (   1.3039711   4.4726057   6.0039043  )
        47           O1  tau(  47) = (   5.2763189   4.4711207   6.0039473  )
        48           N1  tau(  48) = (   0.2499663   2.3419386  17.9913213  )
        49           C1  tau(  49) = (   0.6208863   1.8700663  19.1394302  )
        50           H1  tau(  50) = (   0.7431952   2.5333404  19.9929579  )
        51           H1  tau(  51) = (   0.8399735   0.8189210  19.2161768  )
        52           N1  tau(  52) = (   6.5658643   3.6116587  17.7752569  )
        53           H1  tau(  53) = (   0.1300021   4.2235620  18.5925096  )
        54           O1  tau(  54) = (   3.3713844   5.9089882  18.0735649  )
        55           H1  tau(  55) = (   4.1655974   0.3538959  18.4550359  )

     number of k points=    10  Fermi-Dirac smearing, width (Ry)=  0.0073
                       cart. coord. in units 2pi/alat
        k(    1) = (   0.0000000   0.0000000   0.0000000), wk =   0.1250000
        k(    2) = (   0.0000000   0.0419351   0.0000000), wk =   0.2500000
        k(    3) = (   0.0000000  -0.0838702   0.0000000), wk =   0.1250000
        k(    4) = (   0.0379955   0.0000049   0.0000000), wk =   0.2500000
        k(    5) = (   0.0379955   0.0419400   0.0000000), wk =   0.2500000
        k(    6) = (   0.0379955  -0.0838652   0.0000000), wk =   0.2500000
        k(    7) = (   0.0379955  -0.0419301   0.0000000), wk =   0.2500000
        k(    8) = (  -0.0759910  -0.0000099   0.0000000), wk =   0.1250000
        k(    9) = (  -0.0759910   0.0419252   0.0000000), wk =   0.2500000
        k(   10) = (  -0.0759910  -0.0838800   0.0000000), wk =   0.1250000

     Initial potential from superposition of free atoms

     starting charge  385.99915, renormalised to  402.00000

     negative rho (up, down):  1.591E-02 0.000E+00

     %%%%%%%%%%%%%%%%%%%%%%%%%%%%%%%%%%%%%%%%%%%%%%%%%%%%%%%%%%%%%%%%%%%%%%%%
     %                                                                      %
     % You are using vdW-DF, which was implemented by the Thonhauser group. %
     % Please cite the following two papers that made this development      %
     % possible and the two reviews that describe the various versions:     %
     %                                                                      %
     %   T. Thonhauser et al., PRL 115, 136402 (2015).                      %
     %   T. Thonhauser et al., PRB 76, 125112 (2007).                       %
     %   K. Berland et al., Rep. Prog. Phys. 78, 066501 (2015).             %
     %   D.C. Langreth et al., J. Phys.: Condens. Matter 21, 084203 (2009). %
     %                                                                      %
     %                                                                      %
     % If you are calculating the stress with vdW-DF, please also cite:     %
     %                                                                      %
     %   R. Sabatini et al., J. Phys.: Condens. Matter 24, 424209 (2012).   %
     %                                                                      %
     %%%%%%%%%%%%%%%%%%%%%%%%%%%%%%%%%%%%%%%%%%%%%%%%%%%%%%%%%%%%%%%%%%%%%%%%

     Adding external electric field

     Computed dipole along edir(3) :
        Dipole              -11.3535 Ry au,        -28.8577 Debye
        Dipole field         -0.0214 Ry au,

        Potential amp.        1.9861 Ry
        Total length         46.3494 bohr

     Starting wfcs are  304 atomic wfcs
  @ DRIVER MODE: Message from server: STATUS
  @ DRIVER MODE: Message from server: POSDATA
  @ DRIVER MODE: Reading and sharing cell
  @ DRIVER MODE: Reading and sharing positions
  @ DRIVER MODE: Received positions

     Self-consistent Calculation

     iteration #  1     ecut=    29.40 Ry     beta= 0.05
     Davidson diagonalization with overlap
     c_bands:  4 eigenvalues not converged
     c_bands:  3 eigenvalues not converged
     c_bands:  3 eigenvalues not converged
     c_bands:  5 eigenvalues not converged
     c_bands:  5 eigenvalues not converged
     c_bands:  1 eigenvalues not converged
     c_bands:  5 eigenvalues not converged
     c_bands:  4 eigenvalues not converged
     c_bands:  5 eigenvalues not converged
     c_bands:  1 eigenvalues not converged
     ethr =  1.00E-05,  avg # of iterations = 24.0

[...]

     total energy              =   -2410.18630582 Ry
     estimated scf accuracy    <    6308.39038248 Ry

     iteration #  2     ecut=    29.40 Ry     beta= 0.05
     Davidson diagonalization with overlap
     ethr =  1.00E-02,  avg # of iterations = 22.6

[...]

     iteration # 52     ecut=    29.40 Ry     beta= 0.05
     Davidson diagonalization with overlap
     c_bands:  1 eigenvalues not converged
     c_bands:  1 eigenvalues not converged
     c_bands:  1 eigenvalues not converged
     ethr =  5.47E-07,  avg # of iterations = 10.2

[...]

     total energy              =   -2972.72745102 Ry
     estimated scf accuracy    <       0.00000009 Ry

     iteration # 73     ecut=    29.40 Ry     beta= 0.05
     Davidson diagonalization with overlap
     ethr =  2.22E-11,  avg # of iterations =  6.0

     negative rho (up, down):  1.620E-02 0.000E+00

     Adding external electric field

     Computed dipole along edir(3) :
        Dipole                0.4629 Ry au,          1.1766 Debye
        Dipole field          0.0009 Ry au,

        Potential amp.       -0.0810 Ry
        Total length         46.3494 bohr

     End of self-consistent calculation

          k = 0.0000 0.0000 0.0000 ( 18029 PWs)   bands (ev):

   -56.5376 -56.5039 -55.8860 -55.8505 -55.6234 -55.5638 -55.3799 -55.3259
   -55.3014 -55.2300 -55.2000 -55.1893 -55.1554 -55.0330 -55.0324 -54.9861
   -32.9699 -32.8223 -32.7943 -32.7049 -32.6136 -32.5955 -32.3690 -32.1054
   -32.1039 -32.0764 -32.0291 -32.0255 -31.9924 -31.8694 -31.8520 -31.8442
   -31.7912 -31.7675 -31.7267 -31.7091 -31.6919 -31.6473 -31.6455 -31.5872
   -31.5852 -31.5808 -31.5780 -31.5343 -31.5301 -31.5265 -31.5060 -31.5060
   -31.4842 -31.4796 -31.4237 -31.4055 -31.3991 -31.3544 -31.3163 -31.2941
   -31.2887 -31.2792 -31.2444 -31.2425 -31.2177 -31.2044 -31.1776 -31.1566
   -17.8156 -16.7231 -16.2892 -16.1707 -15.9811 -15.9074 -15.8830 -15.8515
   -15.7855 -15.6144 -15.5340 -15.5091 -15.4988 -15.4400 -15.2725 -15.1760
   -15.1590 -15.0926 -15.0147 -14.9906 -14.9513 -14.8979 -14.8711 -14.8563
   -14.8405 -14.8055 -14.6826 -14.6024 -14.5041 -14.3236 -14.3064 -13.6865
   -13.5770 -11.9571  -7.6927  -5.1431  -4.3598  -4.2736  -3.7961  -3.7742
    -3.6056  -3.4263  -3.3699  -3.2259  -3.1666  -3.1166  -3.0606  -3.0462
    -2.9424  -2.8002  -2.7944  -2.7394  -2.7168  -2.7136  -2.6947  -2.5941
    -2.5280  -2.5188  -2.4239  -2.3324  -2.3112  -2.2723  -2.2319  -2.2243
    -2.1809  -2.1422  -2.0874  -2.0503  -2.0345  -1.9369  -1.9178  -1.8114
    -1.7842  -1.7611  -1.7511  -1.7182  -1.6788  -1.6206  -1.5504  -1.4332
    -1.3421  -1.3226  -1.2501  -1.2452  -1.2192  -1.0573  -1.0167  -1.0142
    -0.9541  -0.8779  -0.8483  -0.7929  -0.7553  -0.7115  -0.6593  -0.6174
    -0.5816  -0.4523  -0.4486  -0.3980  -0.3146  -0.2926  -0.2610  -0.2381
    -0.1570  -0.1018  -0.0656   0.0061   0.0658   0.0722   0.1176   0.1746
     0.2839   0.3263   0.3511   0.3816   0.4244   0.4488   0.5167   0.5640
     0.5953   0.6042   0.6803   0.7821   0.7997   0.8342   0.9231   0.9480
     1.0336   1.0712   1.0883   1.1710   1.1924   1.3723   1.4106   1.5803
     2.3851   2.7269   2.8769   3.1593   3.1743   3.4664   3.6891   3.7170
     3.7198   3.7996   3.9376

[...]

          k = 0.0380-0.0419 0.0000 ( 17876 PWs)   bands (ev):

[...]

          k =-0.0760-0.0000 0.0000 ( 17886 PWs)   bands (ev):

[...]

          k =-0.0760-0.0839 0.0000 ( 17948 PWs)   bands (ev):

   -56.5210 -56.5203 -55.8740 -55.8623 -55.6180 -55.5690 -55.3738 -55.3319
   -55.2994 -55.2286 -55.2018 -55.1730 -55.1716 -55.0338 -55.0257 -54.9934
   -32.8083 -32.8075 -32.7870 -32.7860 -32.6578 -32.6575 -32.1950 -32.1855
   -32.0676 -32.0548 -32.0545 -32.0466 -31.9262 -31.8874 -31.8458 -31.8392
   -31.7961 -31.7899 -31.7030 -31.6707 -31.6285 -31.6106 -31.5926 -31.5874
   -31.5746 -31.5645 -31.5502 -31.5390 -31.5231 -31.5195 -31.5185 -31.5097
   -31.4730 -31.4689 -31.4300 -31.4103 -31.3969 -31.3953 -31.3870 -31.3585
   -31.3574 -31.2987 -31.2819 -31.2602 -31.2461 -31.2456 -31.2202 -31.1797
   -17.8019 -16.1511 -16.1065 -16.1022 -16.0189 -16.0166 -15.8129 -15.8057
   -15.6254 -15.6018 -15.5279 -15.4596 -15.3503 -15.3171 -15.2930 -15.2417
   -15.1969 -15.1686 -15.1125 -15.0805 -14.9979 -14.9665 -14.9506 -14.9391
   -14.9066 -14.8538 -14.7214 -14.6867 -14.6692 -14.5871 -14.4542 -13.6811
   -13.6803 -11.9153  -7.6217  -5.2052  -4.4332  -3.7488  -3.2187  -3.1905
    -3.1415  -3.1324  -2.9345  -2.8939  -2.8730  -2.8215  -2.7855  -2.7711
    -2.7252  -2.7192  -2.6374  -2.5851  -2.5534  -2.5408  -2.5169  -2.4571
    -2.4358  -2.4053  -2.3931  -2.3619  -2.3510  -2.3419  -2.3180  -2.2508
    -2.2019  -2.1490  -2.1159  -2.0748  -2.0174  -2.0121  -1.9780  -1.9694
    -1.8912  -1.8019  -1.7623  -1.6862  -1.6042  -1.5703  -1.5422  -1.5242
    -1.4813  -1.4242  -1.3972  -1.3482  -1.3226  -1.2693  -1.2333  -1.2234
    -1.1577  -1.1195  -1.0526  -1.0309  -0.9517  -0.8393  -0.7837  -0.7592
    -0.7320  -0.7192  -0.6504  -0.5869  -0.5401  -0.5215  -0.4478  -0.4399
    -0.4130  -0.3633  -0.3487  -0.3149  -0.2014  -0.1383  -0.0775   0.0067
     0.0461   0.0827   0.1634   0.2173   0.2410   0.3169   0.3971   0.4771
     0.4933   0.5324   0.5385   0.7052   0.7351   0.8434   0.8771   0.9524
     0.9871   1.0271   1.1476   1.1894   1.2223   1.2236   1.2442   1.2621
     2.3308   3.2965   3.2992   3.3490   3.3572   3.6247   3.6332   3.7710
     3.7729   3.8914   3.9307

     the Fermi energy is     2.6063 ev

!    total energy              =   -2972.72746945 Ry
     estimated scf accuracy    <       0.00000005 Ry
     smearing contrib. (-TS)   =      -0.00745707 Ry
     internal energy E=F+TS    =   -2972.72001238 Ry

     The total energy is F=E-TS. E is the sum of the following terms:
     one-electron contribution =  -24031.12959095 Ry
     hartree contribution      =   12109.21115219 Ry
     xc contribution           =    -493.27674100 Ry
     ewald contribution        =    9442.47476301 Ry
     electric field correction =       0.00040437 Ry

     convergence has been achieved in  73 iterations

     Forces acting on atoms (cartesian axes, Ry/au):

     atom    1 type  1   force =    -0.00000185   -0.00043594    0.11615114
     atom    2 type  1   force =    -0.00007393    0.00014094   -0.15939944
     atom    3 type  2   force =     0.00002575    0.00000536   -0.05250994
     atom    4 type  2   force =     0.00005057   -0.00014237    0.02471724
     atom    5 type  2   force =    -0.00348782   -0.00224942   -0.01040130
     atom    6 type  2   force =     0.00528289   -0.00174996   -0.01060056
     atom    7 type  1   force =     0.00000309   -0.00613283    0.04625416
     atom    8 type  1   force =     0.00041403    0.01612202    0.08035002
     atom    9 type  2   force =    -0.00001142   -0.00061559    0.00016320
     atom   10 type  2   force =    -0.00257456    0.00058326   -0.04970940
     atom   11 type  2   force =    -0.00056733   -0.00013232   -0.00013606
     atom   12 type  2   force =     0.00060418   -0.00027674    0.00001873
     atom   13 type  1   force =    -0.00017866    0.00044020   -0.00007577
     atom   14 type  1   force =     0.00017186    0.00008662   -0.00111519
     atom   15 type  2   force =    -0.00024092   -0.00049134   -0.00048033
     atom   16 type  2   force =     0.00013186   -0.00064000    0.00073088
     atom   17 type  2   force =     0.00004541    0.00055149    0.00008226
     atom   18 type  2   force =     0.00009463    0.00056450   -0.00028025
     atom   19 type  1   force =    -0.00059965   -0.00031462   -0.00048860
     atom   20 type  1   force =     0.00055952    0.00014575   -0.00022178
     atom   21 type  2   force =     0.00004747    0.00021657    0.09891240
     atom   22 type  2   force =    -0.00003301   -0.00039837   -0.00048558
     atom   23 type  2   force =    -0.07984213    0.00004370   -0.03163507
     atom   24 type  2   force =     0.07973748    0.00047695   -0.03169337
     atom   25 type  1   force =     0.00007179   -0.00057951    0.11645017
     atom   26 type  1   force =    -0.00011778   -0.00143449   -0.15991607
     atom   27 type  2   force =     0.00007111   -0.00069935   -0.05052364
     atom   28 type  2   force =     0.00005230    0.00167096    0.02025322
     atom   29 type  2   force =    -0.00169062    0.00505260   -0.01369016
     atom   30 type  2   force =     0.00360228    0.00547429   -0.01382281
     atom   31 type  1   force =    -0.00017256    0.00219407    0.03174166
     atom   32 type  1   force =     0.00031868   -0.01973073    0.08000627
     atom   33 type  2   force =     0.00014217   -0.00035925    0.00017625
     atom   34 type  2   force =    -0.00158629    0.00085223   -0.06325426
     atom   35 type  2   force =     0.00039220    0.00002910   -0.00015913
     atom   36 type  2   force =     0.00016888   -0.00005173   -0.00022996
     atom   37 type  1   force =    -0.00013204   -0.00024486   -0.00065542
     atom   38 type  1   force =     0.00012738    0.00045135    0.00006576
     atom   39 type  2   force =    -0.00028957    0.00058828    0.00019817
     atom   40 type  2   force =     0.00023835    0.00010754    0.00066047
     atom   41 type  2   force =     0.00131216    0.00000378   -0.00010152
     atom   42 type  2   force =    -0.00122902   -0.00052127    0.00001888
     atom   43 type  1   force =    -0.00053838    0.00048626   -0.00032423
     atom   44 type  1   force =     0.00006075    0.00069176    0.00032680
     atom   45 type  2   force =     0.00004983    0.00003146    0.09872590
     atom   46 type  2   force =    -0.07989161    0.00000351   -0.03163885
     atom   47 type  2   force =     0.07978509    0.00043345   -0.03171039
     atom   48 type  3   force =    -0.00013085    0.00046555   -0.00049776
     atom   49 type  4   force =    -0.00032718   -0.00015938   -0.00042434
     atom   50 type  5   force =    -0.00017630   -0.00022432   -0.00022714
     atom   51 type  5   force =     0.00010440    0.00035182   -0.00029065
     atom   52 type  3   force =     0.00147513    0.00505717    0.01075842
     atom   53 type  5   force =    -0.00204058   -0.00561260   -0.00985954
     atom   54 type  2   force =    -0.00031241   -0.00017234   -0.00084063
     atom   55 type  5   force =     0.00110523    0.00004677    0.00063712

     Total force =     0.396969     Total SCF correction =     0.000645
  @ DRIVER MODE: Message from server: STATUS
  @ DRIVER MODE: Message from server: GETFORCE
  @ DRIVER MODE: Returning v,forces,stress,ensemble

     Writing output data file ./calc.save/
  @ DRIVER MODE: Message from server: EXIT
  @ DRIVE MODE: Exiting

     General routines

     Parallel routines

   This run was terminated on:   4:42: 8  23Sep2021

   JOB DONE.