     Program PWSCF v.6.7GPU starts on  9Sep2021 at  1:43:55

     R & G space division:  proc/nbgrp/npool/nimage =      10
     Reading input from /storage/home/hcoda1/3/ntian30/research/carbon/CxH_vib/C_calc/ads_slab/CN2_a/out_0007/pw.inp
Warning: card &CELL ignored
Warning: card   CELL_DYNAMICS='IPI', ignored
Warning: card / ignored

     Current dimensions of program PWSCF are:
     Max number of different atomic species (ntypx) = 10
     Max number of k-points (npk) =  40000
     Max angular momentum in pseudopotentials (lmaxx) =  3
     Presently no symmetry can be used with electric field

     Message from routine cell_base_init:
     DEPRECATED: use true lattice parameter, not A to a.u. conversion factor

     IMPORTANT: XC functional enforced from input :
     Exchange-correlation= BEEF-VDW
                           (   1   4  43  14   2   0   0)
     Any further DFT definition will be discarded
     Please, verify this is what you really want

  @ DRIVER MODE: Connecting to
 qe_1139763_2767375.sched-torque.pace.gatech.eduarwu0jka_scratch
  using UNIX socket
  @ DRIVER MODE: Message from server: STATUS
  @ DRIVER MODE: Message from server: INIT
  @ DRIVER MODE: Receiving replica           0          -1
  @ DRIVER MODE: Receiving encoded integer          25
  @ DRIVER MODE:  SCF:  T  FORCE:  T  STRESS:  F  VC:  F  ENSEMBLE:  F
  @ DRIVER MODE:  SCF:  T  FORCE:  T  STRESS:  F  VC:  F  ENSEMBLE:  F

     Using Slab Decomposition

     bravais-lattice index     =            0
     lattice parameter (alat)  =       1.8897  a.u.
     unit-cell volume          =    6658.9804 (a.u.)^3
     number of atoms/cell      =           50
     number of atomic types    =            4
     number of electrons       =       392.00
     number of Kohn-Sham states=          206
     kinetic-energy cutoff     =      29.3995  Ry
     charge density cutoff     =     293.9946  Ry
     scf convergence threshold =      7.3E-08
     mixing beta               =       0.0500
     number of iterations used =            8  plain     mixing
     Exchange-correlation= BEEF-VDW
                           (   1   4  43  14   2   0   0)

     celldm(1)=   1.889726  celldm(2)=   0.000000  celldm(3)=   0.000000
     celldm(4)=   0.000000  celldm(5)=   0.000000  celldm(6)=   0.000000

     crystal axes: (cart. coord. in units of alat)
               a(1) = (   6.579727   0.000000   0.000000 )
               a(2) = (  -0.000775   5.961596   0.000000 )
               a(3) = (   0.000000   0.000000  25.155947 )

     reciprocal axes: (cart. coord. in units 2 pi/alat)
               b(1) = (  0.151982  0.000020  0.000000 )
               b(2) = (  0.000000  0.167740  0.000000 )
               b(3) = (  0.000000  0.000000  0.039752 )

     PseudoPot. # 1 for Ti read from file:
     /storage/coda1/p-amedford6/0/shared/rich_project_chbe-medford/medford-share/data/pseudos_module/espresso/nninc/pbe/van/Ti.UPF
     MD5 check sum: 8e4df49b7f0d34bbd5052bf3f5ea0213
     Pseudo is Ultrasoft, Zval = 12.0
     Generated by new atomic code, or converted to UPF format
     Using radial grid of  851 points,  6 beta functions with:
                l(1) =   0
                l(2) =   0
                l(3) =   1
                l(4) =   1
                l(5) =   2
                l(6) =   2
     Q(r) pseudized with  8 coefficients,  rinner =    1.000   1.000   1.000
                                                       1.000   1.000

     PseudoPot. # 2 for O  read from file:
     /storage/coda1/p-amedford6/0/shared/rich_project_chbe-medford/medford-share/data/pseudos_module/espresso/nninc/pbe/van/O.UPF
     MD5 check sum: 78c19812648e8988a0fe644b0f25305e
     Pseudo is Ultrasoft, Zval =  6.0
     Generated by new atomic code, or converted to UPF format
     Using radial grid of  737 points,  4 beta functions with:
                l(1) =   0
                l(2) =   0
                l(3) =   1
                l(4) =   1
     Q(r) pseudized with  8 coefficients,  rinner =    0.800   0.800   0.800

     PseudoPot. # 3 for N  read from file:
     /storage/coda1/p-amedford6/0/shared/rich_project_chbe-medford/medford-share/data/pseudos_module/espresso/nninc/pbe/van/N.UPF
     MD5 check sum: 90d10febe142ad51ac9d5be1deb811c4
     Pseudo is Ultrasoft, Zval =  5.0
     Generated by new atomic code, or converted to UPF format
     Using radial grid of  729 points,  4 beta functions with:
                l(1) =   0
                l(2) =   0
                l(3) =   1
                l(4) =   1
     Q(r) pseudized with  8 coefficients,  rinner =    0.800   0.800   0.800

     PseudoPot. # 4 for C  read from file:
     /storage/coda1/p-amedford6/0/shared/rich_project_chbe-medford/medford-share/data/pseudos_module/espresso/nninc/pbe/van/C.UPF
     MD5 check sum: 1a69bf6b8db32088f5b2163dbdb77a27
     Pseudo is Ultrasoft, Zval =  4.0
     Generated by new atomic code, or converted to UPF format
     Using radial grid of  721 points,  4 beta functions with:
                l(1) =   0
                l(2) =   0
                l(3) =   1
                l(4) =   1
     Q(r) pseudized with  8 coefficients,  rinner =    0.800   0.800   0.800

     atomic species   valence    mass     pseudopotential
        Ti1           12.00    47.86700     Ti( 1.00)
        O1             6.00    15.99900     O ( 1.00)
        N1             5.00    14.00700     N ( 1.00)
        C1             4.00    12.01100     C ( 1.00)

     No symmetry found

   Cartesian axes

     site n.     atom                  positions (alat units)
         1           Ti1 tau(   1) = (   0.0004258   2.9801865   6.0000000  )
         2           Ti1 tau(   2) = (   3.2906075   1.4906267   6.0002472  )
         3           O1  tau(   3) = (   0.0006271   0.0005054   7.9858123  )
         4           O1  tau(   4) = (   3.2906025   0.0005020   7.3038282  )
         5           O1  tau(   5) = (   4.5942328   1.4918067   9.2879030  )
         6           O1  tau(   6) = (   1.9868534   1.4903216   9.2879459  )
         7           Ti1 tau(   7) = (   3.2907910   2.8959150   9.1758416  )
         8           Ti1 tau(   8) = (   0.0015273   1.4827037   9.2680791  )
         9           O1  tau(   9) = (   3.2889285   5.9572048  11.3040972  )
        10           O1  tau(  10) = (   0.0116148   5.9584955  10.6183126  )
        11           O1  tau(  11) = (   1.3189323   1.4942761  12.6130295  )
        12           O1  tau(  12) = (   5.2997964   1.4884099  12.6250597  )
        13           Ti1 tau(  13) = (   6.4939836   2.9824287  12.7561987  )
        14           Ti1 tau(  14) = (   3.1682086   1.4887373  12.4699270  )
        15           O1  tau(  15) = (   0.0224291   5.9581829  14.5926458  )
        16           O1  tau(  16) = (   3.2893302   5.9536121  13.8847677  )
        17           O1  tau(  17) = (   4.5439212   1.4834749  16.0328965  )
        18           O1  tau(  18) = (   2.0755535   1.4836234  16.0228809  )
        19           Ti1 tau(  19) = (   3.3005686   2.9659170  15.6894391  )
        20           Ti1 tau(  20) = (   6.5401575   1.4426905  16.0647633  )
        21           O1  tau(  21) = (   3.2904802   0.0005063   4.7018136  )
        22           O1  tau(  22) = (   0.0258419   5.9532685  17.1653534  )
        23           O1  tau(  23) = (   1.3043587   1.4918075   6.0039043  )
        24           O1  tau(  24) = (   5.2767064   1.4903225   6.0039473  )
        25           Ti1 tau(  25) = (   0.0000382   5.9609847   6.0000000  )
        26           Ti1 tau(  26) = (   3.2902200   4.4714249   6.0002472  )
        27           O1  tau(  27) = (   0.0002396   2.9813036   7.9858123  )
        28           O1  tau(  28) = (   3.2902150   2.9813002   7.3038282  )
        29           O1  tau(  29) = (   4.5938453   4.4726049   9.2879030  )
        30           O1  tau(  30) = (   1.9864658   4.4711199   9.2879459  )
        31           Ti1 tau(  31) = (   3.2891106   5.8743827   9.1763621  )
        32           Ti1 tau(  32) = (   0.0006254   4.4649316   9.2693709  )
        33           O1  tau(  33) = (   3.2925136   2.9767646  11.3039470  )
        34           O1  tau(  34) = (   0.0092240   2.9805883  10.6323155  )
        35           O1  tau(  35) = (   1.3189435   4.4587261  12.6131553  )
        36           O1  tau(  36) = (   5.2992261   4.4686972  12.6254714  )
        37           Ti1 tau(  37) = (   6.4933837   0.0018553  12.7120694  )
        38           Ti1 tau(  38) = (   3.1687038   4.4682667  12.4696446  )
        39           O1  tau(  39) = (   6.5575253   2.9777116  14.6451287  )
        40           O1  tau(  40) = (   3.3026008   2.9720648  13.8804781  )
        41           O1  tau(  41) = (   4.5428380   4.4591099  16.0310608  )
        42           O1  tau(  42) = (   2.0745367   4.4570417  16.0198975  )
        43           Ti1 tau(  43) = (   3.2480854   5.9464808  15.6958456  )
        44           Ti1 tau(  44) = (   6.5385164   4.5051388  16.0519081  )
        45           O1  tau(  45) = (   3.2900926   2.9813045   4.7018136  )
        46           O1  tau(  46) = (   1.3039711   4.4726057   6.0039043  )
        47           O1  tau(  47) = (   5.2763189   4.4711207   6.0039473  )
        48           N1  tau(  48) = (   0.6627575   2.9932433  18.4779999  )
        49           C1  tau(  49) = (   1.2295031   3.0150465  19.5213309  )
        50           N1  tau(  50) = (   0.0963922   2.9773862  17.3183823  )

     number of k points=    10  Fermi-Dirac smearing, width (Ry)=  0.0073
                       cart. coord. in units 2pi/alat
        k(    1) = (   0.0000000   0.0000000   0.0000000), wk =   0.1250000
        k(    2) = (   0.0000000   0.0419351   0.0000000), wk =   0.2500000
        k(    3) = (   0.0000000  -0.0838702   0.0000000), wk =   0.1250000
        k(    4) = (   0.0379955   0.0000049   0.0000000), wk =   0.2500000
        k(    5) = (   0.0379955   0.0419400   0.0000000), wk =   0.2500000
        k(    6) = (   0.0379955  -0.0838652   0.0000000), wk =   0.2500000
        k(    7) = (   0.0379955  -0.0419301   0.0000000), wk =   0.2500000
        k(    8) = (  -0.0759910  -0.0000099   0.0000000), wk =   0.1250000
        k(    9) = (  -0.0759910   0.0419252   0.0000000), wk =   0.2500000
        k(   10) = (  -0.0759910  -0.0838800   0.0000000), wk =   0.1250000

     Initial potential from superposition of free atoms

     starting charge  375.99919, renormalised to  392.00000

     negative rho (up, down):  1.742E-02 0.000E+00

     %%%%%%%%%%%%%%%%%%%%%%%%%%%%%%%%%%%%%%%%%%%%%%%%%%%%%%%%%%%%%%%%%%%%%%%%
     %                                                                      %
     % You are using vdW-DF, which was implemented by the Thonhauser group. %
     % Please cite the following two papers that made this development      %
     % possible and the two reviews that describe the various versions:     %
     %                                                                      %
     %   T. Thonhauser et al., PRL 115, 136402 (2015).                      %
     %   T. Thonhauser et al., PRB 76, 125112 (2007).                       %
     %   K. Berland et al., Rep. Prog. Phys. 78, 066501 (2015).             %
     %   D.C. Langreth et al., J. Phys.: Condens. Matter 21, 084203 (2009). %
     %                                                                      %
     %                                                                      %
     % If you are calculating the stress with vdW-DF, please also cite:     %
     %                                                                      %
     %   R. Sabatini et al., J. Phys.: Condens. Matter 24, 424209 (2012).   %
     %                                                                      %
     %%%%%%%%%%%%%%%%%%%%%%%%%%%%%%%%%%%%%%%%%%%%%%%%%%%%%%%%%%%%%%%%%%%%%%%%

     Adding external electric field

     Computed dipole along edir(3) :
        Dipole               -6.0010 Ry au,        -15.2530 Debye
        Dipole field         -0.0113 Ry au,

        Potential amp.        1.0498 Ry
        Total length         46.3494 bohr

     Starting wfcs are  296 atomic wfcs
  @ DRIVER MODE: Message from server: STATUS
  @ DRIVER MODE: Message from server: POSDATA
  @ DRIVER MODE: Reading and sharing cell
  @ DRIVER MODE: Reading and sharing positions
  @ DRIVER MODE: Received positions

     Self-consistent Calculation

     iteration #  1     ecut=    29.40 Ry     beta= 0.05
     Davidson diagonalization with overlap
     c_bands:  3 eigenvalues not converged
     c_bands:  1 eigenvalues not converged
     c_bands:  2 eigenvalues not converged
     c_bands:  1 eigenvalues not converged
     c_bands:  1 eigenvalues not converged
     c_bands:  3 eigenvalues not converged
     ethr =  1.00E-05,  avg # of iterations = 19.5

[...]

     total energy              =   -2797.80102510 Ry
     estimated scf accuracy    <    1528.99446586 Ry

[...]

     iteration #  3     ecut=    29.40 Ry     beta= 0.05
     Davidson diagonalization with overlap
     ethr =  1.00E-02,  avg # of iterations = 14.6

[...]

     iteration # 39     ecut=    29.40 Ry     beta= 0.05
     Davidson diagonalization with overlap
     c_bands:  1 eigenvalues not converged
     ethr =  2.44E-07,  avg # of iterations =  7.2

[...]

     total energy              =   -2935.33674191 Ry
     estimated scf accuracy    <       0.00000014 Ry

     iteration # 64     ecut=    29.40 Ry     beta= 0.05
     Davidson diagonalization with overlap
     ethr =  3.00E-11,  avg # of iterations =  5.8

     negative rho (up, down):  1.700E-02 0.000E+00

     Adding external electric field

     Computed dipole along edir(3) :
        Dipole               -0.8017 Ry au,         -2.0378 Debye
        Dipole field         -0.0015 Ry au,

        Potential amp.        0.1403 Ry
        Total length         46.3494 bohr

     End of self-consistent calculation

          k = 0.0000 0.0000 0.0000 ( 18029 PWs)   bands (ev):

   -57.3138 -57.2800 -56.6555 -56.6214 -56.6175 -56.5839 -56.5603 -56.5249
   -56.3517 -56.3169 -56.2783 -56.2383 -56.0646 -56.0306 -55.8270 -55.7877
   -33.7536 -33.5986 -33.5704 -33.4810 -33.3889 -33.3784 -33.1206 -33.1018
   -33.1004 -32.9243 -32.8817 -32.8692 -32.8259 -32.8221 -32.8205 -32.8183
   -32.7911 -32.7838 -32.7809 -32.7749 -32.7676 -32.7547 -32.7405 -32.7252
   -32.7234 -32.6931 -32.6894 -32.6686 -32.5878 -32.5242 -32.4921 -32.4618
   -32.4559 -32.4519 -32.4263 -32.4199 -32.3975 -32.3945 -32.3738 -32.3663
   -32.2796 -32.1949 -32.0839 -32.0542 -32.0503 -32.0393 -31.9963 -31.8934
   -17.9323 -17.5549 -17.2578 -17.0265 -16.7844 -16.7225 -16.6691 -16.6474
   -16.6013 -16.5368 -16.5206 -16.4560 -16.3513 -16.3149 -16.2300 -16.1322
   -16.1229 -16.0859 -16.0196 -15.9186 -15.9144 -15.9115 -15.8535 -15.8433
   -15.7105 -15.6586 -15.5319 -15.5222 -15.4208 -15.1927 -14.5643 -14.4523
   -12.9236  -5.8757  -5.0934  -4.7527  -4.5502  -4.4545  -4.3345  -4.2860
    -4.2403  -4.0229  -3.9502  -3.9485  -3.8865  -3.8286  -3.6798  -3.6783
    -3.6286  -3.6069  -3.5728  -3.5244  -3.5116  -3.4789  -3.4771  -3.2980
    -3.2417  -3.2287  -3.2247  -3.2109  -3.1081  -3.0481  -3.0381  -3.0269
    -3.0128  -2.9837  -2.8558  -2.8128  -2.7715  -2.7545  -2.7474  -2.6009
    -2.5990  -2.5970  -2.4870  -2.4773  -2.3961  -2.3113  -2.1975  -2.1372
    -2.0928  -2.0569  -2.0332  -1.8861  -1.8523  -1.8012  -1.7369  -1.6977
    -1.6303  -1.6107  -1.5795  -1.5587  -1.5043  -1.4152  -1.3606  -1.3171
    -1.2593  -1.2459  -1.1120  -1.1004  -1.0863  -1.0711  -1.0136  -0.9523
    -0.9227  -0.8791  -0.8748  -0.8522  -0.7512  -0.6447  -0.6299  -0.5785
    -0.4663  -0.4554  -0.3896  -0.3494  -0.2589  -0.2223  -0.1491  -0.0936
    -0.0433  -0.0429   0.0014   0.1164   0.1677   0.1855   0.5129   0.5534
     0.6518   0.8946   1.2537   1.6984   1.9374   2.0738   2.3821   2.4268
     2.5361   2.8613   2.8688   2.9218   2.9294   2.9831

[...]

          k = 0.0380-0.0419 0.0000 ( 17876 PWs)   bands (ev):

[...]

          k =-0.0760-0.0000 0.0000 ( 17886 PWs)   bands (ev):

[...]

          k =-0.0760-0.0839 0.0000 ( 17948 PWs)   bands (ev):

   -57.2969 -57.2968 -56.6409 -56.6355 -56.6016 -56.6001 -56.5434 -56.5417
   -56.3349 -56.3335 -56.2683 -56.2481 -56.0476 -56.0475 -55.8162 -55.7984
   -33.5843 -33.5840 -33.5699 -33.5699 -33.4333 -33.4331 -32.9449 -32.9393
   -32.9338 -32.9316 -32.9107 -32.9096 -32.8392 -32.8369 -32.8304 -32.8243
   -32.8227 -32.8198 -32.8133 -32.8124 -32.7901 -32.7885 -32.7497 -32.7476
   -32.6793 -32.6776 -32.6200 -32.6184 -32.5970 -32.5792 -32.5416 -32.5319
   -32.5014 -32.4878 -32.4408 -32.4297 -32.3867 -32.3866 -32.2764 -32.2763
   -32.2606 -32.2374 -32.2373 -32.1144 -32.0343 -32.0149 -32.0075 -31.9853
   -17.9223 -16.9162 -16.9122 -16.8604 -16.8598 -16.6928 -16.6890 -16.6239
   -16.6195 -16.5047 -16.4951 -16.2928 -16.2817 -16.2754 -16.2745 -16.1801
   -16.1619 -16.1591 -16.1513 -16.0490 -16.0441 -15.9994 -15.9982 -15.9818
   -15.9371 -15.6815 -15.6115 -15.5498 -15.4402 -15.4041 -14.5555 -14.5551
   -12.9281  -5.7956  -4.0494  -4.0440  -3.9993  -3.9905  -3.9107  -3.9057
    -3.7664  -3.7628  -3.7242  -3.7196  -3.6126  -3.5844  -3.5781  -3.5759
    -3.4949  -3.4609  -3.4550  -3.4258  -3.4132  -3.3995  -3.3490  -3.3428
    -3.3080  -3.3029  -3.2273  -3.2246  -3.1757  -3.1721  -3.1301  -3.1036
    -3.0563  -2.9746  -2.9473  -2.9449  -2.9284  -2.8792  -2.8476  -2.6618
    -2.6543  -2.6308  -2.5385  -2.5335  -2.4598  -2.3634  -2.3533  -2.3014
    -2.2304  -2.2167  -2.0655  -2.0600  -2.0392  -2.0295  -2.0007  -1.9151
    -1.8747  -1.8206  -1.7278  -1.6925  -1.6542  -1.6265  -1.6037  -1.5933
    -1.5740  -1.5623  -1.4249  -1.4201  -1.3663  -1.3407  -1.2982  -1.2722
    -1.1602  -1.1275  -1.0270  -0.9185  -0.9075  -0.8820  -0.8708  -0.7553
    -0.6606  -0.6518  -0.4476  -0.3776  -0.2864  -0.2469  -0.2281  -0.0938
    -0.0789  -0.0397  -0.0279   0.1743   0.2309   0.3511   0.3558   0.3669
     0.3675   0.9074   1.2418   1.6417   2.4873   2.4878   2.5439   2.5441
     2.8463   2.8499   2.9208   2.9365   2.9810   2.9819

     the Fermi energy is     1.8498 ev

!    total energy              =   -2935.33677073 Ry
     estimated scf accuracy    <       0.00000006 Ry
     smearing contrib. (-TS)   =      -0.00928542 Ry
     internal energy E=F+TS    =   -2935.32748531 Ry

     The total energy is F=E-TS. E is the sum of the following terms:
     one-electron contribution =  -24516.18510343 Ry
     hartree contribution      =   12336.08939649 Ry
     xc contribution           =    -482.59893801 Ry
     ewald contribution        =    9727.36594660 Ry
     electric field correction =       0.00121305 Ry

     convergence has been achieved in  64 iterations

     Forces acting on atoms (cartesian axes, Ry/au):

     atom    1 type  1   force =     0.00006061   -0.00040571    0.11615573
     atom    2 type  1   force =    -0.00008565   -0.00057716   -0.16483096
     atom    3 type  2   force =     0.00017707   -0.00006516   -0.05575029
     atom    4 type  2   force =    -0.00004048   -0.00057590    0.03443453
     atom    5 type  2   force =    -0.01584226    0.00099243   -0.00642819
     atom    6 type  2   force =     0.01752549    0.00173072   -0.00687717
     atom    7 type  1   force =     0.00078426   -0.00314366    0.01358405
     atom    8 type  1   force =    -0.00039435    0.00375838    0.09575066
     atom    9 type  2   force =    -0.00004318    0.00004745   -0.00002351
     atom   10 type  2   force =    -0.00227740    0.00158394   -0.05980037
     atom   11 type  2   force =    -0.00017746   -0.00014254    0.00004453
     atom   12 type  2   force =     0.00007641   -0.00053451   -0.00000591
     atom   13 type  1   force =    -0.00024773   -0.00012222    0.00073852
     atom   14 type  1   force =     0.00008845   -0.00046360    0.00016446
     atom   15 type  2   force =    -0.00028731   -0.00015646   -0.00041079
     atom   16 type  2   force =     0.00016169    0.00015675   -0.00050142
     atom   17 type  2   force =     0.00038254    0.00012046    0.00002547
     atom   18 type  2   force =    -0.00017448   -0.00003765   -0.00039886
     atom   19 type  1   force =    -0.00032939    0.00008610    0.00066931
     atom   20 type  1   force =     0.00030826    0.00064932   -0.00021269
     atom   21 type  2   force =     0.00005502    0.00001428    0.10062415
     atom   22 type  2   force =    -0.00003748    0.00016497   -0.00060913
     atom   23 type  2   force =    -0.07672417   -0.00002584   -0.03126374
     atom   24 type  2   force =     0.07658459    0.00039267   -0.03127643
     atom   25 type  1   force =     0.00008573   -0.00042091    0.11594250
     atom   26 type  1   force =    -0.00009522   -0.00034979   -0.16482124
     atom   27 type  2   force =     0.00034070   -0.00030952   -0.05465598
     atom   28 type  2   force =    -0.00002094   -0.00039980    0.03439125
     atom   29 type  2   force =    -0.01626479    0.00135258   -0.00652134
     atom   30 type  2   force =     0.01784171    0.00154447   -0.00701093
     atom   31 type  1   force =     0.00068179   -0.00039507    0.01284999
     atom   32 type  1   force =    -0.00028199   -0.00632069    0.09636719
     atom   33 type  2   force =    -0.00018096   -0.00011788   -0.00070092
     atom   34 type  2   force =    -0.00267635    0.00109343   -0.06849237
     atom   35 type  2   force =    -0.00012491    0.00032925    0.00018253
     atom   36 type  2   force =    -0.00000973    0.00035830    0.00005383
     atom   37 type  1   force =    -0.00008927   -0.00021348    0.00006833
     atom   38 type  1   force =    -0.00014156   -0.00017612    0.00035136
     atom   39 type  2   force =    -0.00010257   -0.00022069   -0.00016940
     atom   40 type  2   force =    -0.00008039    0.00009484   -0.00030241
     atom   41 type  2   force =     0.00036612    0.00027511    0.00007736
     atom   42 type  2   force =    -0.00014171    0.00040395   -0.00035128
     atom   43 type  1   force =    -0.00005105    0.00045642    0.00094266
     atom   44 type  1   force =     0.00023021   -0.00061427    0.00039260
     atom   45 type  2   force =     0.00005734    0.00000028    0.10063491
     atom   46 type  2   force =    -0.07673115    0.00000376   -0.03124011
     atom   47 type  2   force =     0.07657409    0.00044086   -0.03126740
     atom   48 type  3   force =    -0.00752305   -0.00033662   -0.01322846
     atom   49 type  4   force =     0.00883892    0.00009561    0.01402700
     atom   50 type  3   force =    -0.00004400   -0.00002110   -0.00132161

     Total force =     0.407920     Total SCF correction =     0.000575
  @ DRIVER MODE: Message from server: STATUS
  @ DRIVER MODE: Message from server: GETFORCE
  @ DRIVER MODE: Returning v,forces,stress,ensemble

     Writing output data file ./calc.save/
  @ DRIVER MODE: Message from server: EXIT
  @ DRIVE MODE: Exiting

     General routines

     Parallel routines

   This run was terminated on:   2:15:31   9Sep2021

   JOB DONE.