     Program PWSCF v.6.7GPU starts on  2Aug2021 at 21:11:12

     R & G space division:  proc/nbgrp/npool/nimage =      16
     Reading input from /storage/home/hcoda1/3/ntian30/research/carbon/02Aug_vib_paired/ads_slab/CH3NH_b/out_0033/pw.inp
Warning: card &CELL ignored
Warning: card   CELL_DYNAMICS='IPI', ignored
Warning: card / ignored

     Current dimensions of program PWSCF are:
     Max number of different atomic species (ntypx) = 10
     Max number of k-points (npk) =  40000
     Max angular momentum in pseudopotentials (lmaxx) =  3
     Presently no symmetry can be used with electric field

     Message from routine cell_base_init:
     DEPRECATED: use true lattice parameter, not A to a.u. conversion factor

     IMPORTANT: XC functional enforced from input :
     Exchange-correlation= BEEF-VDW
                           (   1   4  43  14   2   0   0)
     Any further DFT definition will be discarded
     Please, verify this is what you really want

  @ DRIVER MODE: Connecting to
 qe_1139763_2482541.sched-torque.pace.gatech.eduvfczcri6_scratch
  using UNIX socket
  @ DRIVER MODE: Message from server: STATUS
  @ DRIVER MODE: Message from server: INIT
  @ DRIVER MODE: Receiving replica           0          -1
  @ DRIVER MODE: Receiving encoded integer          25
  @ DRIVER MODE:  SCF:  T  FORCE:  T  STRESS:  F  VC:  F  ENSEMBLE:  F
  @ DRIVER MODE:  SCF:  T  FORCE:  T  STRESS:  F  VC:  F  ENSEMBLE:  F

     Using Slab Decomposition

     bravais-lattice index     =            0
     lattice parameter (alat)  =       1.8897  a.u.
     unit-cell volume          =    6658.9804 (a.u.)^3
     number of atoms/cell      =           53
     number of atomic types    =            5
     number of electrons       =       391.00
     number of Kohn-Sham states=          205
     kinetic-energy cutoff     =      29.3995  Ry
     charge density cutoff     =     293.9946  Ry
     scf convergence threshold =      7.3E-08
     mixing beta               =       0.0500
     number of iterations used =            8  plain     mixing
     Exchange-correlation= BEEF-VDW
                           (   1   4  43  14   2   0   0)

     celldm(1)=   1.889726  celldm(2)=   0.000000  celldm(3)=   0.000000
     celldm(4)=   0.000000  celldm(5)=   0.000000  celldm(6)=   0.000000

     crystal axes: (cart. coord. in units of alat)
               a(1) = (   6.579727   0.000000   0.000000 )
               a(2) = (  -0.000775   5.961596   0.000000 )
               a(3) = (   0.000000   0.000000  25.155947 )

     reciprocal axes: (cart. coord. in units 2 pi/alat)
               b(1) = (  0.151982  0.000020  0.000000 )
               b(2) = (  0.000000  0.167740  0.000000 )
               b(3) = (  0.000000  0.000000  0.039752 )

     PseudoPot. # 1 for Ti read from file:
     /storage/coda1/p-amedford6/0/shared/rich_project_chbe-medford/medford-share/data/pseudos_module/espresso/nninc/pbe/van/Ti.UPF
     MD5 check sum: 8e4df49b7f0d34bbd5052bf3f5ea0213
     Pseudo is Ultrasoft, Zval = 12.0
     Generated by new atomic code, or converted to UPF format
     Using radial grid of  851 points,  6 beta functions with:
                l(1) =   0
                l(2) =   0
                l(3) =   1
                l(4) =   1
                l(5) =   2
                l(6) =   2
     Q(r) pseudized with  8 coefficients,  rinner =    1.000   1.000   1.000
                                                       1.000   1.000

     PseudoPot. # 2 for O  read from file:
     /storage/coda1/p-amedford6/0/shared/rich_project_chbe-medford/medford-share/data/pseudos_module/espresso/nninc/pbe/van/O.UPF
     MD5 check sum: 78c19812648e8988a0fe644b0f25305e
     Pseudo is Ultrasoft, Zval =  6.0
     Generated by new atomic code, or converted to UPF format
     Using radial grid of  737 points,  4 beta functions with:
                l(1) =   0
                l(2) =   0
                l(3) =   1
                l(4) =   1
     Q(r) pseudized with  8 coefficients,  rinner =    0.800   0.800   0.800

     PseudoPot. # 3 for H  read from file:
     /storage/coda1/p-amedford6/0/shared/rich_project_chbe-medford/medford-share/data/pseudos_module/espresso/nninc/pbe/van/H.UPF
     MD5 check sum: b5ee9d7bfd3a09ee7748110bda690ff7
     Pseudo is Ultrasoft, Zval =  1.0
     Generated by new atomic code, or converted to UPF format
     Using radial grid of  615 points,  1 beta functions with:
                l(1) =   0
     Q(r) pseudized with  8 coefficients,  rinner =    0.800

     PseudoPot. # 4 for N  read from file:
     /storage/coda1/p-amedford6/0/shared/rich_project_chbe-medford/medford-share/data/pseudos_module/espresso/nninc/pbe/van/N.UPF
     MD5 check sum: 90d10febe142ad51ac9d5be1deb811c4
     Pseudo is Ultrasoft, Zval =  5.0
     Generated by new atomic code, or converted to UPF format
     Using radial grid of  729 points,  4 beta functions with:
                l(1) =   0
                l(2) =   0
                l(3) =   1
                l(4) =   1
     Q(r) pseudized with  8 coefficients,  rinner =    0.800   0.800   0.800

     PseudoPot. # 5 for C  read from file:
     /storage/coda1/p-amedford6/0/shared/rich_project_chbe-medford/medford-share/data/pseudos_module/espresso/nninc/pbe/van/C.UPF
     MD5 check sum: 1a69bf6b8db32088f5b2163dbdb77a27
     Pseudo is Ultrasoft, Zval =  4.0
     Generated by new atomic code, or converted to UPF format
     Using radial grid of  721 points,  4 beta functions with:
                l(1) =   0
                l(2) =   0
                l(3) =   1
                l(4) =   1
     Q(r) pseudized with  8 coefficients,  rinner =    0.800   0.800   0.800

     atomic species   valence    mass     pseudopotential
        Ti1           12.00    47.86700     Ti( 1.00)
        O1             6.00    15.99900     O ( 1.00)
        H1             1.00     1.00800     H ( 1.00)
        N1             5.00    14.00700     N ( 1.00)
        C1             4.00    12.01100     C ( 1.00)

     No symmetry found

   Cartesian axes

     site n.     atom                  positions (alat units)
         1           Ti1 tau(   1) = (   0.0004258   2.9801865   6.0000000  )
         2           Ti1 tau(   2) = (   3.2906075   1.4906267   6.0002472  )
         3           O1  tau(   3) = (   0.0006271   0.0005054   7.9858123  )
         4           O1  tau(   4) = (   3.2906025   0.0005020   7.3038282  )
         5           O1  tau(   5) = (   4.5942328   1.4918067   9.2879030  )
         6           O1  tau(   6) = (   1.9868534   1.4903216   9.2879459  )
         7           Ti1 tau(   7) = (   3.2907910   2.8959150   9.1758416  )
         8           Ti1 tau(   8) = (   0.0015273   1.4827037   9.2680791  )
         9           O1  tau(   9) = (   3.2906183   5.9580730  11.3246990  )
        10           O1  tau(  10) = (   0.0116148   5.9584955  10.6183126  )
        11           O1  tau(  11) = (   1.3160896   1.4863360  12.6200149  )
        12           O1  tau(  12) = (   5.2947061   1.4800608  12.6053981  )
        13           Ti1 tau(  13) = (   6.5224157   2.9421717  12.6196007  )
        14           Ti1 tau(  14) = (   3.2076970   1.4879367  12.4696142  )
        15           O1  tau(  15) = (   6.5517659   0.0158556  14.6493665  )
        16           O1  tau(  16) = (   3.3109316   0.0069331  13.9179417  )
        17           O1  tau(  17) = (   4.5083530   1.5297238  16.0872293  )
        18           O1  tau(  18) = (   2.0274073   1.5273405  16.0409094  )
        19           Ti1 tau(  19) = (   3.2920608   3.0081397  15.6838061  )
        20           Ti1 tau(  20) = (   0.0536170   1.5416865  15.8648894  )
        21           O1  tau(  21) = (   3.2904802   0.0005063   4.7018136  )
        22           O1  tau(  22) = (   0.0122827   0.0301012  17.2134340  )
        23           O1  tau(  23) = (   1.3043587   1.4918075   6.0039043  )
        24           O1  tau(  24) = (   5.2767064   1.4903225   6.0039473  )
        25           Ti1 tau(  25) = (   0.0000382   5.9609847   6.0000000  )
        26           Ti1 tau(  26) = (   3.2902200   4.4714249   6.0002472  )
        27           O1  tau(  27) = (   0.0002396   2.9813036   7.9858123  )
        28           O1  tau(  28) = (   3.2902150   2.9813002   7.3038282  )
        29           O1  tau(  29) = (   4.5938453   4.4726049   9.2879030  )
        30           O1  tau(  30) = (   1.9864658   4.4711199   9.2879459  )
        31           Ti1 tau(  31) = (   3.2891106   5.8743827   9.1763621  )
        32           Ti1 tau(  32) = (   0.0006254   4.4649316   9.2693709  )
        33           O1  tau(  33) = (   3.2866862   2.9837957  11.3234553  )
        34           O1  tau(  34) = (   0.0092240   2.9805883  10.6323155  )
        35           O1  tau(  35) = (   1.3095649   4.4762946  12.6335636  )
        36           O1  tau(  36) = (   5.2963019   4.4650584  12.6194355  )
        37           Ti1 tau(  37) = (   6.5192018   5.9199268  12.5733442  )
        38           Ti1 tau(  38) = (   3.2055211   4.4685508  12.4747853  )
        39           O1  tau(  39) = (   6.5624772   2.9349094  14.6472044  )
        40           O1  tau(  40) = (   3.3065106   2.9879112  13.8942307  )
        41           O1  tau(  41) = (   4.5199725   4.4841037  16.0899424  )
        42           O1  tau(  42) = (   2.0389375   4.4882992  16.0664246  )
        43           Ti1 tau(  43) = (   3.3279474   0.0221627  15.7114356  )
        44           Ti1 tau(  44) = (   0.0314192   4.6578676  16.1055029  )
        45           O1  tau(  45) = (   3.2900926   2.9813045   4.7018136  )
        46           O1  tau(  46) = (   1.3039711   4.4726057   6.0039043  )
        47           O1  tau(  47) = (   5.2763189   4.4711207   6.0039473  )
        48           H1  tau(  48) = (   5.5751926   2.9245997  17.7795037  )
        49           N1  tau(  49) = (   6.5345126   2.9709300  17.4463781  )
        50           C1  tau(  50) = (   0.8205834   2.9192471  18.6315588  )
        51           H1  tau(  51) = (   0.6379014   3.7726647  19.2931901  )
        52           H1  tau(  52) = (   0.6616828   1.9903841  19.1881566  )
        53           H1  tau(  53) = (   1.8691752   2.9430840  18.3388921  )

     number of k points=    10  Fermi-Dirac smearing, width (Ry)=  0.0073
                       cart. coord. in units 2pi/alat
        k(    1) = (   0.0000000   0.0000000   0.0000000), wk =   0.1250000
        k(    2) = (   0.0000000   0.0419351   0.0000000), wk =   0.2500000
        k(    3) = (   0.0000000  -0.0838702   0.0000000), wk =   0.1250000
        k(    4) = (   0.0379955   0.0000049   0.0000000), wk =   0.2500000
        k(    5) = (   0.0379955   0.0419400   0.0000000), wk =   0.2500000
        k(    6) = (   0.0379955  -0.0838652   0.0000000), wk =   0.2500000
        k(    7) = (   0.0379955  -0.0419301   0.0000000), wk =   0.2500000
        k(    8) = (  -0.0759910  -0.0000099   0.0000000), wk =   0.1250000
        k(    9) = (  -0.0759910   0.0419252   0.0000000), wk =   0.2500000
        k(   10) = (  -0.0759910  -0.0838800   0.0000000), wk =   0.1250000

     Initial potential from superposition of free atoms

     starting charge  374.99916, renormalised to  391.00000

     negative rho (up, down):  1.779E-02 0.000E+00

     %%%%%%%%%%%%%%%%%%%%%%%%%%%%%%%%%%%%%%%%%%%%%%%%%%%%%%%%%%%%%%%%%%%%%%%%
     %                                                                      %
     % You are using vdW-DF, which was implemented by the Thonhauser group. %
     % Please cite the following two papers that made this development      %
     % possible and the two reviews that describe the various versions:     %
     %                                                                      %
     %   T. Thonhauser et al., PRL 115, 136402 (2015).                      %
     %   T. Thonhauser et al., PRB 76, 125112 (2007).                       %
     %   K. Berland et al., Rep. Prog. Phys. 78, 066501 (2015).             %
     %   D.C. Langreth et al., J. Phys.: Condens. Matter 21, 084203 (2009). %
     %                                                                      %
     %                                                                      %
     % If you are calculating the stress with vdW-DF, please also cite:     %
     %                                                                      %
     %   R. Sabatini et al., J. Phys.: Condens. Matter 24, 424209 (2012).   %
     %                                                                      %
     %%%%%%%%%%%%%%%%%%%%%%%%%%%%%%%%%%%%%%%%%%%%%%%%%%%%%%%%%%%%%%%%%%%%%%%%

     Adding external electric field

     Computed dipole along edir(3) :
        Dipole               -5.8162 Ry au,        -14.7834 Debye
        Dipole field         -0.0110 Ry au,

        Potential amp.        1.0175 Ry
        Total length         46.3494 bohr

     Starting wfcs are  296 atomic wfcs
  @ DRIVER MODE: Message from server: STATUS
  @ DRIVER MODE: Message from server: POSDATA
  @ DRIVER MODE: Reading and sharing cell
  @ DRIVER MODE: Reading and sharing positions
  @ DRIVER MODE: Received positions

     Self-consistent Calculation

     iteration #  1     ecut=    29.40 Ry     beta= 0.05
     Davidson diagonalization with overlap
     c_bands:  3 eigenvalues not converged
     c_bands:  1 eigenvalues not converged
     c_bands:  1 eigenvalues not converged
     c_bands:  3 eigenvalues not converged
     c_bands:  4 eigenvalues not converged
     c_bands:  2 eigenvalues not converged
     c_bands:  1 eigenvalues not converged
     c_bands:  1 eigenvalues not converged
     c_bands:  2 eigenvalues not converged
     ethr =  1.00E-05,  avg # of iterations = 19.5

[...]

     total energy              =   -2770.78804793 Ry
     estimated scf accuracy    <    1640.17862723 Ry

     iteration #  2     ecut=    29.40 Ry     beta= 0.05
     Davidson diagonalization with overlap
     ethr =  1.00E-02,  avg # of iterations = 18.5

[...]

     iteration # 37     ecut=    29.40 Ry     beta= 0.05
     Davidson diagonalization with overlap
     c_bands:  1 eigenvalues not converged
     ethr =  3.38E-08,  avg # of iterations = 11.3

[...]

     total energy              =   -2920.42397817 Ry
     estimated scf accuracy    <       0.00000055 Ry

     iteration # 50     ecut=    29.40 Ry     beta= 0.05
     Davidson diagonalization with overlap
     ethr =  5.29E-11,  avg # of iterations =  9.3

     negative rho (up, down):  1.814E-02 0.000E+00

     Adding external electric field

     Computed dipole along edir(3) :
        Dipole                0.6844 Ry au,          1.7396 Debye
        Dipole field          0.0013 Ry au,

        Potential amp.       -0.1197 Ry
        Total length         46.3494 bohr

     End of self-consistent calculation

          k = 0.0000 0.0000 0.0000 ( 18029 PWs)   bands (ev):

   -55.9957 -55.9882 -55.9617 -55.9521 -55.9029 -55.8384 -55.8383 -55.8040
   -55.7994 -55.7655 -55.7599 -55.7262 -55.5394 -55.2718 -54.9679 -54.9338
   -32.5471 -32.4771 -32.3502 -32.3401 -32.3156 -32.2989 -32.2889 -32.2509
   -32.2368 -32.2361 -32.2121 -32.2046 -32.1708 -32.1479 -32.1402 -32.1343
   -32.1306 -32.0990 -32.0779 -32.0529 -32.0488 -32.0413 -32.0258 -31.9989
   -31.9917 -31.9911 -31.9858 -31.9779 -31.9631 -31.9576 -31.9541 -31.9439
   -31.9362 -31.9292 -31.9130 -31.9068 -31.8724 -31.8088 -31.7106 -31.5467
   -31.5418 -31.4669 -31.3747 -31.2870 -31.2646 -31.1915 -31.1050 -30.9939
   -16.7562 -16.4729 -16.2934 -16.1503 -16.1182 -16.0327 -15.8317 -15.7050
   -15.6929 -15.5892 -15.5562 -15.5298 -15.5232 -15.4968 -15.4917 -15.4309
   -15.4289 -15.4152 -15.4059 -15.3490 -15.3245 -15.2712 -15.1917 -15.1587
   -15.1534 -15.1256 -15.0438 -15.0387 -14.5850 -14.1763 -13.4704 -13.3541
    -8.9305  -4.3607  -4.1273  -3.9529  -3.9137  -3.8980  -3.8482  -3.5940
    -3.5790  -3.3289  -3.2323  -3.1931  -3.1784  -3.1688  -3.1491  -3.1382
    -2.8918  -2.8253  -2.8098  -2.7875  -2.7801  -2.7738  -2.7617  -2.7613
    -2.7216  -2.6593  -2.5332  -2.4984  -2.4201  -2.3831  -2.3522  -2.3051
    -2.2610  -2.2538  -2.2429  -2.2245  -2.2116  -2.1879  -2.1715  -2.0376
    -1.9714  -1.8364  -1.8015  -1.7815  -1.5959  -1.5379  -1.4728  -1.4340
    -1.4208  -1.4137  -1.3819  -1.3002  -1.2086  -1.1526  -1.1425  -1.0861
    -1.0088  -0.9972  -0.8897  -0.8845  -0.8576  -0.7666  -0.7561  -0.7450
    -0.7259  -0.6580  -0.5567  -0.4803  -0.4353  -0.4053  -0.3744  -0.3050
    -0.2749  -0.1727  -0.1570  -0.1084  -0.1038  -0.0621  -0.0169  -0.0075
     0.0013   0.0091   0.0344   0.1768   0.2878   0.3426   0.3832   0.3892
     0.5435   0.5710   0.6680   0.7565   0.9812   1.0541   1.1472   1.2469
     1.3223   1.6248   1.6702   3.1475   3.2262   3.2800   3.2887   3.3913
     3.3968   3.5971   3.6067   3.6196   3.6874

[...]

          k = 0.0380-0.0419 0.0000 ( 17876 PWs)   bands (ev):

[...]

          k =-0.0760-0.0000 0.0000 ( 17886 PWs)   bands (ev):

[...]

          k =-0.0760-0.0839 0.0000 ( 17948 PWs)   bands (ev):

   -55.9790 -55.9782 -55.9714 -55.9687 -55.8978 -55.8432 -55.8219 -55.8204
   -55.7832 -55.7813 -55.7436 -55.7426 -55.5383 -55.2727 -54.9508 -54.9507
   -32.3521 -32.3484 -32.2927 -32.2920 -32.2816 -32.2746 -32.2738 -32.2606
   -32.1988 -32.1977 -32.1928 -32.1884 -32.1650 -32.1338 -32.1191 -32.1149
   -32.1018 -32.0996 -32.0985 -32.0977 -32.0944 -32.0833 -32.0810 -32.0493
   -32.0416 -32.0404 -32.0108 -31.9998 -31.9801 -31.9797 -31.9762 -31.9753
   -31.9585 -31.9578 -31.9563 -31.9534 -31.8778 -31.8112 -31.7060 -31.6112
   -31.5436 -31.4915 -31.2773 -31.2772 -31.1875 -31.1874 -31.1483 -31.1483
   -16.2099 -16.1748 -15.9380 -15.9268 -15.9201 -15.9045 -15.7587 -15.7119
   -15.7002 -15.6931 -15.6703 -15.6471 -15.5896 -15.5605 -15.5318 -15.5231
   -15.5170 -15.5149 -15.4532 -15.4480 -15.4249 -15.4181 -15.3043 -15.3005
   -15.2912 -15.2151 -15.1607 -15.0209 -14.7467 -14.1997 -13.4560 -13.4559
    -8.9353  -4.3726  -3.5040  -3.4638  -3.2896  -3.2378  -3.1786  -3.1621
    -3.1383  -3.0695  -2.9055  -2.8887  -2.8774  -2.8619  -2.8199  -2.8136
    -2.8032  -2.7911  -2.7841  -2.7650  -2.7316  -2.6990  -2.6601  -2.6528
    -2.6442  -2.6194  -2.6083  -2.5869  -2.5749  -2.5440  -2.5349  -2.5173
    -2.4879  -2.2262  -2.2064  -2.1955  -2.1243  -2.1176  -2.0840  -2.0663
    -2.0564  -2.0433  -1.9862  -1.8825  -1.7255  -1.6939  -1.6847  -1.6688
    -1.5855  -1.5761  -1.4227  -1.4013  -1.3813  -1.3444  -1.2903  -1.2677
    -1.2272  -1.1681  -1.1510  -1.0874  -1.0700  -1.0113  -0.9560  -0.9542
    -0.9331  -0.8577  -0.7763  -0.7607  -0.7474  -0.7084  -0.6984  -0.6113
    -0.5876  -0.4944  -0.4801  -0.4228  -0.3974  -0.2955  -0.1354  -0.0114
     0.0423   0.0682   0.1257   0.2243   0.2686   0.2803   0.3244   0.3306
     0.3923   0.4326   0.5458   0.5516   0.6264   0.7177   1.2596   1.4185
     1.4191   1.4899   1.4900   3.4106   3.4158   3.4630   3.4924   3.6476
     3.6522   3.6742   3.6755   3.7999   3.8171

     the Fermi energy is     3.1404 ev

!    total energy              =   -2920.42409172 Ry
     estimated scf accuracy    <       0.00000004 Ry
     smearing contrib. (-TS)   =      -0.02203310 Ry
     internal energy E=F+TS    =   -2920.40205862 Ry

     The total energy is F=E-TS. E is the sum of the following terms:
     one-electron contribution =  -24701.74740576 Ry
     hartree contribution      =   12435.47424537 Ry
     xc contribution           =    -480.87127545 Ry
     ewald contribution        =    9826.74149330 Ry
     electric field correction =       0.00088392 Ry

     convergence has been achieved in  50 iterations

     Forces acting on atoms (cartesian axes, Ry/au):

     atom    1 type  1   force =     0.00013022   -0.00026546    0.09691210
     atom    2 type  1   force =     0.00002752   -0.00053403   -0.17506299
     atom    3 type  2   force =     0.00013661   -0.00007923   -0.02544074
     atom    4 type  2   force =    -0.00001009   -0.00136772    0.05232774
     atom    5 type  2   force =    -0.01237644   -0.00013352    0.00301855
     atom    6 type  2   force =     0.01380658    0.00023435    0.00238115
     atom    7 type  1   force =     0.00057566    0.00033869   -0.01263977
     atom    8 type  1   force =     0.00045917    0.00595273    0.03109917
     atom    9 type  2   force =    -0.00033400    0.00023749    0.00041405
     atom   10 type  2   force =    -0.00269336    0.00069390   -0.01625806
     atom   11 type  2   force =    -0.00040588    0.00012521    0.00016390
     atom   12 type  2   force =     0.00013160    0.00013621    0.00019486
     atom   13 type  1   force =    -0.00012630    0.00024294    0.00023323
     atom   14 type  1   force =    -0.00003972   -0.00022327   -0.00015146
     atom   15 type  2   force =     0.00021478    0.00011685    0.00034375
     atom   16 type  2   force =    -0.00007277    0.00027503    0.00022116
     atom   17 type  2   force =    -0.00008101   -0.00021430   -0.00024343
     atom   18 type  2   force =     0.00034270   -0.00010482    0.00023276
     atom   19 type  1   force =    -0.00003295    0.00025992   -0.00007133
     atom   20 type  1   force =    -0.00006496   -0.00005813   -0.00039405
     atom   21 type  2   force =     0.00007141   -0.00005963    0.10309149
     atom   22 type  2   force =    -0.00012376    0.00001882    0.00025097
     atom   23 type  2   force =    -0.07162622   -0.00016186   -0.02784098
     atom   24 type  2   force =     0.07154388    0.00032615   -0.02789765
     atom   25 type  1   force =     0.00011305   -0.00024013    0.09671519
     atom   26 type  1   force =     0.00011756   -0.00028034   -0.17523278
     atom   27 type  2   force =     0.00013386   -0.00023228   -0.02451625
     atom   28 type  2   force =     0.00002742   -0.00112644    0.05224023
     atom   29 type  2   force =    -0.01249841    0.00014387    0.00267660
     atom   30 type  2   force =     0.01381435    0.00069472    0.00201475
     atom   31 type  1   force =     0.00051751    0.00292379   -0.01339762
     atom   32 type  1   force =     0.00028140   -0.00822906    0.03149139
     atom   33 type  2   force =    -0.00005784   -0.00006389   -0.00010037
     atom   34 type  2   force =    -0.00183866    0.00056490   -0.02457282
     atom   35 type  2   force =    -0.00013327    0.00010136    0.00004023
     atom   36 type  2   force =    -0.00025286    0.00019995    0.00011764
     atom   37 type  1   force =    -0.00005228    0.00032269    0.00023925
     atom   38 type  1   force =    -0.00023852   -0.00006078   -0.00016361
     atom   39 type  2   force =     0.00005902    0.00021815   -0.00015060
     atom   40 type  2   force =    -0.00017791    0.00026468   -0.00015092
     atom   41 type  2   force =     0.00005364    0.00006938    0.00021830
     atom   42 type  2   force =    -0.00008409   -0.00000924    0.00035516
     atom   43 type  1   force =    -0.00021543   -0.00027261    0.00047808
     atom   44 type  1   force =     0.00036341   -0.00028104    0.00011074
     atom   45 type  2   force =     0.00005119   -0.00006628    0.10310871
     atom   46 type  2   force =    -0.07163468   -0.00008988   -0.02783263
     atom   47 type  2   force =     0.07156697    0.00033536   -0.02791198
     atom   48 type  3   force =    -0.00050444    0.00021656    0.00001750
     atom   49 type  4   force =     0.00042734   -0.00047895   -0.00039337
     atom   50 type  5   force =     0.00116255   -0.00134383   -0.00006963
     atom   51 type  3   force =     0.00035876   -0.00115546   -0.00064733
     atom   52 type  3   force =    -0.00071084    0.00063703    0.00026854
     atom   53 type  3   force =    -0.00010145    0.00148143    0.00016320

     Total force =     0.368385     Total SCF correction =     0.000513
  @ DRIVER MODE: Message from server: STATUS
  @ DRIVER MODE: Message from server: GETFORCE
  @ DRIVER MODE: Returning v,forces,stress,ensemble

     Writing output data file ./calc.save/
  @ DRIVER MODE: Message from server: EXIT
  @ DRIVE MODE: Exiting

     General routines

     Parallel routines

   This run was terminated on:  21:22: 7   2Aug2021

   JOB DONE.