     Program PWSCF v.6.7GPU starts on 12Oct2021 at 10: 8: 7

     R & G space division:  proc/nbgrp/npool/nimage =       8
     Reading input from /storage/home/hcoda1/3/ntian30/research/carbon/ACS_vib/ads_slab/HNNH2/out_0004/pw.inp
Warning: card &CELL ignored
Warning: card   CELL_DYNAMICS='IPI', ignored
Warning: card / ignored

     Current dimensions of program PWSCF are:
     Max number of different atomic species (ntypx) = 10
     Max number of k-points (npk) =  40000
     Max angular momentum in pseudopotentials (lmaxx) =  3
     Presently no symmetry can be used with electric field

     Message from routine cell_base_init:
     DEPRECATED: use true lattice parameter, not A to a.u. conversion factor

     IMPORTANT: XC functional enforced from input :
     Exchange-correlation= BEEF-VDW
                           (   1   4  43  14   2   0   0)
     Any further DFT definition will be discarded
     Please, verify this is what you really want

  @ DRIVER MODE: Connecting to
 qe_1139763_3181312.sched-torque.pace.gatech.eduz0cwen5k_scratch
  using UNIX socket
  @ DRIVER MODE: Message from server: STATUS
  @ DRIVER MODE: Message from server: INIT
  @ DRIVER MODE: Receiving replica           0          -1
  @ DRIVER MODE: Receiving encoded integer          25
  @ DRIVER MODE:  SCF:  T  FORCE:  T  STRESS:  F  VC:  F  ENSEMBLE:  F
  @ DRIVER MODE:  SCF:  T  FORCE:  T  STRESS:  F  VC:  F  ENSEMBLE:  F

     Using Slab Decomposition

     bravais-lattice index     =            0
     lattice parameter (alat)  =       1.8897  a.u.
     unit-cell volume          =    6658.9804 (a.u.)^3
     number of atoms/cell      =           52
     number of atomic types    =            4
     number of electrons       =       391.00
     number of Kohn-Sham states=          205
     kinetic-energy cutoff     =      29.3995  Ry
     charge density cutoff     =     293.9946  Ry
     scf convergence threshold =      7.3E-08
     mixing beta               =       0.0500
     number of iterations used =            8  plain     mixing
     Exchange-correlation= BEEF-VDW
                           (   1   4  43  14   2   0   0)

     celldm(1)=   1.889726  celldm(2)=   0.000000  celldm(3)=   0.000000
     celldm(4)=   0.000000  celldm(5)=   0.000000  celldm(6)=   0.000000

     crystal axes: (cart. coord. in units of alat)
               a(1) = (   6.579727   0.000000   0.000000 )
               a(2) = (  -0.000775   5.961596   0.000000 )
               a(3) = (   0.000000   0.000000  25.155947 )

     reciprocal axes: (cart. coord. in units 2 pi/alat)
               b(1) = (  0.151982  0.000020  0.000000 )
               b(2) = (  0.000000  0.167740  0.000000 )
               b(3) = (  0.000000  0.000000  0.039752 )

     PseudoPot. # 1 for Ti read from file:
     /storage/coda1/p-amedford6/0/shared/rich_project_chbe-medford/medford-share/data/pseudos_module/espresso/nninc/pbe/van/Ti.UPF
     MD5 check sum: 8e4df49b7f0d34bbd5052bf3f5ea0213
     Pseudo is Ultrasoft, Zval = 12.0
     Generated by new atomic code, or converted to UPF format
     Using radial grid of  851 points,  6 beta functions with:
                l(1) =   0
                l(2) =   0
                l(3) =   1
                l(4) =   1
                l(5) =   2
                l(6) =   2
     Q(r) pseudized with  8 coefficients,  rinner =    1.000   1.000   1.000
                                                       1.000   1.000

     PseudoPot. # 2 for O  read from file:
     /storage/coda1/p-amedford6/0/shared/rich_project_chbe-medford/medford-share/data/pseudos_module/espresso/nninc/pbe/van/O.UPF
     MD5 check sum: 78c19812648e8988a0fe644b0f25305e
     Pseudo is Ultrasoft, Zval =  6.0
     Generated by new atomic code, or converted to UPF format
     Using radial grid of  737 points,  4 beta functions with:
                l(1) =   0
                l(2) =   0
                l(3) =   1
                l(4) =   1
     Q(r) pseudized with  8 coefficients,  rinner =    0.800   0.800   0.800

     PseudoPot. # 3 for H  read from file:
     /storage/coda1/p-amedford6/0/shared/rich_project_chbe-medford/medford-share/data/pseudos_module/espresso/nninc/pbe/van/H.UPF
     MD5 check sum: b5ee9d7bfd3a09ee7748110bda690ff7
     Pseudo is Ultrasoft, Zval =  1.0
     Generated by new atomic code, or converted to UPF format
     Using radial grid of  615 points,  1 beta functions with:
                l(1) =   0
     Q(r) pseudized with  8 coefficients,  rinner =    0.800

     PseudoPot. # 4 for N  read from file:
     /storage/coda1/p-amedford6/0/shared/rich_project_chbe-medford/medford-share/data/pseudos_module/espresso/nninc/pbe/van/N.UPF
     MD5 check sum: 90d10febe142ad51ac9d5be1deb811c4
     Pseudo is Ultrasoft, Zval =  5.0
     Generated by new atomic code, or converted to UPF format
     Using radial grid of  729 points,  4 beta functions with:
                l(1) =   0
                l(2) =   0
                l(3) =   1
                l(4) =   1
     Q(r) pseudized with  8 coefficients,  rinner =    0.800   0.800   0.800

     atomic species   valence    mass     pseudopotential
        Ti1           12.00    47.86700     Ti( 1.00)
        O1             6.00    15.99900     O ( 1.00)
        H1             1.00     1.00800     H ( 1.00)
        N1             5.00    14.00700     N ( 1.00)

     No symmetry found

   Cartesian axes

     site n.     atom                  positions (alat units)
         1           Ti1 tau(   1) = (   0.0004258   2.9801865   6.0000000  )
         2           Ti1 tau(   2) = (   3.2906075   1.4906267   6.0002472  )
         3           O1  tau(   3) = (   0.0006271   0.0005054   7.9858123  )
         4           O1  tau(   4) = (   3.2906025   0.0005020   7.3038282  )
         5           O1  tau(   5) = (   4.5942328   1.4918067   9.2879030  )
         6           O1  tau(   6) = (   1.9868534   1.4903216   9.2879459  )
         7           Ti1 tau(   7) = (   3.2908112   2.9011704   9.1816539  )
         8           Ti1 tau(   8) = (   0.0015097   1.3932332   9.2931702  )
         9           O1  tau(   9) = (   3.2819087   5.9526348  11.3504271  )
        10           O1  tau(  10) = (   6.5772260   5.9545827  10.6088576  )
        11           O1  tau(  11) = (   1.2874804   1.4832564  12.6509691  )
        12           O1  tau(  12) = (   5.2781146   1.4858874  12.6440994  )
        13           Ti1 tau(  13) = (   6.5585775   2.9503744  12.8030734  )
        14           Ti1 tau(  14) = (   3.2696126   1.4733128  12.4944632  )
        15           O1  tau(  15) = (   6.5513721   5.9458199  14.6768215  )
        16           O1  tau(  16) = (   3.2879482   5.9481552  13.9547078  )
        17           O1  tau(  17) = (   4.5181657   1.4884665  16.1124167  )
        18           O1  tau(  18) = (   2.0188244   1.4835402  16.0984261  )
        19           Ti1 tau(  19) = (   3.2766105   2.9578040  15.7125626  )
        20           Ti1 tau(  20) = (   0.0270592   1.3580474  16.0627221  )
        21           O1  tau(  21) = (   3.2904802   0.0005063   4.7018136  )
        22           O1  tau(  22) = (   0.0072818   5.9434210  17.2237418  )
        23           O1  tau(  23) = (   1.3043587   1.4918075   6.0039043  )
        24           O1  tau(  24) = (   5.2767064   1.4903225   6.0039473  )
        25           Ti1 tau(  25) = (   0.0000382   5.9609847   6.0000000  )
        26           Ti1 tau(  26) = (   3.2902200   4.4714249   6.0002472  )
        27           O1  tau(  27) = (   0.0002396   2.9813036   7.9858123  )
        28           O1  tau(  28) = (   3.2902150   2.9813002   7.3038282  )
        29           O1  tau(  29) = (   4.5938453   4.4726049   9.2879030  )
        30           O1  tau(  30) = (   1.9864658   4.4711199   9.2879459  )
        31           Ti1 tau(  31) = (   3.2900885   5.8829342   9.1674613  )
        32           Ti1 tau(  32) = (   0.0009626   4.3321112   9.3579051  )
        33           O1  tau(  33) = (   3.2805539   2.9674959  11.3464436  )
        34           O1  tau(  34) = (   6.5791951   2.9642230  10.5753725  )
        35           O1  tau(  35) = (   1.2880645   4.4660911  12.6414962  )
        36           O1  tau(  36) = (   5.2770833   4.4616490  12.6331305  )
        37           Ti1 tau(  37) = (   6.5652171   5.9330851  12.5680926  )
        38           Ti1 tau(  38) = (   3.2703904   4.4534766  12.4879229  )
        39           O1  tau(  39) = (   6.5642693   2.9891374  14.6930774  )
        40           O1  tau(  40) = (   3.2814391   2.9717942  13.9260038  )
        41           O1  tau(  41) = (   4.5200678   4.4336085  16.1105754  )
        42           O1  tau(  42) = (   2.0169658   4.4359636  16.1171003  )
        43           Ti1 tau(  43) = (   3.3139371   5.9425984  15.7429620  )
        44           Ti1 tau(  44) = (   0.0173840   4.5100783  16.0001754  )
        45           O1  tau(  45) = (   3.2900926   2.9813045   4.7018136  )
        46           O1  tau(  46) = (   1.3039711   4.4726057   6.0039043  )
        47           O1  tau(  47) = (   5.2763189   4.4711207   6.0039473  )
        48           H1  tau(  48) = (   5.5810648   3.0093886  17.8866560  )
        49           N1  tau(  49) = (   6.5184219   2.9788514  17.4915934  )
        50           N1  tau(  50) = (   0.8269126   2.9775512  18.6276789  )
        51           H1  tau(  51) = (   1.2125983   2.0437984  18.7562651  )
        52           H1  tau(  52) = (   1.5963704   3.6133177  18.4401992  )

     number of k points=    10  Fermi-Dirac smearing, width (Ry)=  0.0073
                       cart. coord. in units 2pi/alat
        k(    1) = (   0.0000000   0.0000000   0.0000000), wk =   0.1250000
        k(    2) = (   0.0000000   0.0419351   0.0000000), wk =   0.2500000
        k(    3) = (   0.0000000  -0.0838702   0.0000000), wk =   0.1250000
        k(    4) = (   0.0379955   0.0000049   0.0000000), wk =   0.2500000
        k(    5) = (   0.0379955   0.0419400   0.0000000), wk =   0.2500000
        k(    6) = (   0.0379955  -0.0838652   0.0000000), wk =   0.2500000
        k(    7) = (   0.0379955  -0.0419301   0.0000000), wk =   0.2500000
        k(    8) = (  -0.0759910  -0.0000099   0.0000000), wk =   0.1250000
        k(    9) = (  -0.0759910   0.0419252   0.0000000), wk =   0.2500000
        k(   10) = (  -0.0759910  -0.0838800   0.0000000), wk =   0.1250000

     Initial potential from superposition of free atoms

     starting charge  374.99920, renormalised to  391.00000

     negative rho (up, down):  1.966E-02 0.000E+00

     %%%%%%%%%%%%%%%%%%%%%%%%%%%%%%%%%%%%%%%%%%%%%%%%%%%%%%%%%%%%%%%%%%%%%%%%
     %                                                                      %
     % You are using vdW-DF, which was implemented by the Thonhauser group. %
     % Please cite the following two papers that made this development      %
     % possible and the two reviews that describe the various versions:     %
     %                                                                      %
     %   T. Thonhauser et al., PRL 115, 136402 (2015).                      %
     %   T. Thonhauser et al., PRB 76, 125112 (2007).                       %
     %   K. Berland et al., Rep. Prog. Phys. 78, 066501 (2015).             %
     %   D.C. Langreth et al., J. Phys.: Condens. Matter 21, 084203 (2009). %
     %                                                                      %
     %                                                                      %
     % If you are calculating the stress with vdW-DF, please also cite:     %
     %                                                                      %
     %   R. Sabatini et al., J. Phys.: Condens. Matter 24, 424209 (2012).   %
     %                                                                      %
     %%%%%%%%%%%%%%%%%%%%%%%%%%%%%%%%%%%%%%%%%%%%%%%%%%%%%%%%%%%%%%%%%%%%%%%%

     Adding external electric field

     Computed dipole along edir(3) :
        Dipole               -5.4650 Ry au,        -13.8907 Debye
        Dipole field         -0.0103 Ry au,

        Potential amp.        0.9560 Ry
        Total length         46.3494 bohr

     Starting wfcs are  295 atomic wfcs
  @ DRIVER MODE: Message from server: STATUS
  @ DRIVER MODE: Message from server: POSDATA
  @ DRIVER MODE: Reading and sharing cell
  @ DRIVER MODE: Reading and sharing positions
  @ DRIVER MODE: Received positions

     Self-consistent Calculation

     iteration #  1     ecut=    29.40 Ry     beta= 0.05
     Davidson diagonalization with overlap
     c_bands:  3 eigenvalues not converged
     c_bands:  1 eigenvalues not converged
     c_bands:  2 eigenvalues not converged
     c_bands:  3 eigenvalues not converged
     c_bands:  4 eigenvalues not converged
     c_bands:  2 eigenvalues not converged
     c_bands:  1 eigenvalues not converged
     c_bands:  1 eigenvalues not converged
     c_bands:  2 eigenvalues not converged
     ethr =  1.00E-05,  avg # of iterations = 19.9

[...]

     total energy              =   -2794.87697014 Ry
     estimated scf accuracy    <    1458.21648062 Ry

     iteration #  2     ecut=    29.40 Ry     beta= 0.05
     Davidson diagonalization with overlap
     ethr =  1.00E-02,  avg # of iterations = 16.9

[...]

     iteration # 43     ecut=    29.40 Ry     beta= 0.05
     Davidson diagonalization with overlap
     c_bands:  1 eigenvalues not converged
     ethr =  1.87E-08,  avg # of iterations =  3.0

[...]

     total energy              =   -2927.71128147 Ry
     estimated scf accuracy    <       0.00000015 Ry

     iteration # 69     ecut=    29.40 Ry     beta= 0.05
     Davidson diagonalization with overlap
     ethr =  3.88E-11,  avg # of iterations =  9.9

     negative rho (up, down):  1.937E-02 0.000E+00

     Adding external electric field

     Computed dipole along edir(3) :
        Dipole                0.4585 Ry au,          1.1653 Debye
        Dipole field          0.0009 Ry au,

        Potential amp.       -0.0802 Ry
        Total length         46.3494 bohr

     End of self-consistent calculation

          k = 0.0000 0.0000 0.0000 ( 18029 PWs)   bands (ev):

   -56.1402 -56.1248 -56.1045 -56.0886 -56.0423 -56.0086 -55.9687 -55.9442
   -55.8939 -55.8813 -55.8672 -55.8312 -55.7612 -55.7558 -55.0774 -55.0433
   -32.6962 -32.6001 -32.4818 -32.4699 -32.4593 -32.4273 -32.4017 -32.3837
   -32.3736 -32.3530 -32.3477 -32.3441 -32.3305 -32.3062 -32.3024 -32.2817
   -32.2756 -32.2545 -32.2232 -32.2117 -32.2083 -32.1905 -32.1590 -32.1532
   -32.1517 -32.1318 -32.1297 -32.1062 -32.0992 -32.0947 -32.0943 -32.0735
   -32.0727 -32.0393 -32.0172 -32.0157 -31.9797 -31.9763 -31.9673 -31.9548
   -31.9406 -31.8977 -31.4845 -31.3960 -31.3732 -31.3008 -31.2144 -31.1038
   -16.9034 -16.6669 -16.5245 -16.3693 -16.2645 -16.2414 -16.1845 -15.9062
   -15.8391 -15.7772 -15.7593 -15.7379 -15.7269 -15.6635 -15.6624 -15.6283
   -15.5844 -15.5496 -15.5388 -15.5093 -15.5022 -15.4534 -15.4280 -15.3982
   -15.3635 -15.2795 -15.2250 -15.1540 -15.1177 -15.0783 -13.5811 -13.4650
   -11.2726  -5.2571  -4.6069  -4.2491  -4.1337  -4.0488  -3.9976  -3.9308
    -3.7835  -3.7245  -3.5887  -3.3392  -3.3018  -3.2874  -3.2579  -3.2204
    -3.0325  -2.9828  -2.9468  -2.9250  -2.9191  -2.9120  -2.8743  -2.8422
    -2.8345  -2.8318  -2.7153  -2.6444  -2.5567  -2.5484  -2.4765  -2.4382
    -2.4142  -2.4108  -2.3702  -2.3471  -2.3261  -2.3083  -2.2821  -2.1802
    -2.1549  -2.0723  -1.9832  -1.8982  -1.7756  -1.7131  -1.7015  -1.5738
    -1.5144  -1.5119  -1.4782  -1.4567  -1.4169  -1.3393  -1.3020  -1.2541
    -1.1753  -1.1312  -1.0614  -1.0329  -1.0163  -0.9761  -0.9017  -0.8535
    -0.8466  -0.8355  -0.6298  -0.6025  -0.5929  -0.5786  -0.4604  -0.3791
    -0.3618  -0.3319  -0.3152  -0.3027  -0.2491  -0.1582  -0.1294  -0.1174
    -0.0981  -0.0124   0.0577   0.0650   0.0984   0.1869   0.2100   0.3266
     0.3911   0.5669   0.6029   0.7300   0.8634   0.9424   0.9764   1.1366
     1.5227   1.5549   1.5735   3.0565   3.0743   3.1115   3.1323   3.2687
     3.3786   3.3825   3.4809   3.5017   3.5539

[...]

          k = 0.0380-0.0419 0.0000 ( 17876 PWs)   bands (ev):

[...]

          k =-0.0760-0.0000 0.0000 ( 17886 PWs)   bands (ev):

[...]

          k =-0.0760-0.0839 0.0000 ( 17948 PWs)   bands (ev):

   -56.1280 -56.1166 -56.1074 -56.1057 -56.0380 -56.0041 -55.9728 -55.9486
   -55.8918 -55.8784 -55.8562 -55.8425 -55.7633 -55.7582 -55.0606 -55.0600
   -32.5001 -32.4966 -32.4332 -32.4235 -32.4162 -32.4107 -32.4006 -32.3988
   -32.3375 -32.3369 -32.3333 -32.3039 -32.3018 -32.2854 -32.2710 -32.2571
   -32.2493 -32.2477 -32.2348 -32.2327 -32.2202 -32.2089 -32.1943 -32.1841
   -32.1761 -32.1674 -32.1645 -32.1592 -32.1420 -32.1076 -32.0870 -32.0851
   -32.0840 -32.0660 -32.0653 -32.0593 -32.0483 -32.0215 -32.0182 -31.9910
   -31.9488 -31.9471 -31.3863 -31.3855 -31.2978 -31.2970 -31.2579 -31.2572
   -16.5392 -16.3594 -16.3131 -16.0813 -16.0660 -16.0233 -15.9457 -15.8934
   -15.8876 -15.8634 -15.8554 -15.7959 -15.7854 -15.7732 -15.7449 -15.6482
   -15.6465 -15.6348 -15.6160 -15.5545 -15.5390 -15.5046 -15.4739 -15.4647
   -15.4380 -15.4102 -15.3801 -15.3580 -15.2967 -15.2795 -13.5672 -13.5664
   -11.2808  -5.2557  -4.5656  -3.6990  -3.6471  -3.5984  -3.2943  -3.2764
    -3.2477  -3.1330  -3.0650  -3.0390  -3.0061  -2.9773  -2.9416  -2.9303
    -2.9152  -2.9109  -2.9027  -2.9000  -2.8684  -2.8385  -2.8228  -2.7765
    -2.7486  -2.7402  -2.7237  -2.7075  -2.7028  -2.6531  -2.6493  -2.6443
    -2.6357  -2.5188  -2.3857  -2.3687  -2.3306  -2.2116  -2.1882  -2.1822
    -2.1524  -2.1416  -2.1357  -2.0791  -1.9743  -1.8694  -1.8203  -1.7997
    -1.7758  -1.7137  -1.5970  -1.5460  -1.5357  -1.5046  -1.4428  -1.4226
    -1.3719  -1.3659  -1.2608  -1.2337  -1.2105  -1.1360  -1.0747  -1.0570
    -1.0346  -0.9754  -0.9284  -0.9075  -0.8993  -0.8536  -0.7526  -0.7441
    -0.6955  -0.6851  -0.6328  -0.6272  -0.5740  -0.4454  -0.2044  -0.1667
    -0.0943  -0.0717   0.0201   0.0522   0.0796   0.1741   0.2026   0.3041
     0.3445   0.4393   0.4462   0.4618   0.5044   0.6790   1.3072   1.3098
     1.3836   1.3899   1.5579   3.2129   3.2502   3.2750   3.3388   3.5192
     3.5427   3.5437   3.5583   3.5906   3.6530

     the Fermi energy is     3.0148 ev

!    total energy              =   -2927.71129714 Ry
     estimated scf accuracy    <       0.00000006 Ry
     smearing contrib. (-TS)   =      -0.02327269 Ry
     internal energy E=F+TS    =   -2927.68802445 Ry

     The total energy is F=E-TS. E is the sum of the following terms:
     one-electron contribution =  -24559.78519948 Ry
     hartree contribution      =   12363.07121334 Ry
     xc contribution           =    -481.65257751 Ry
     ewald contribution        =    9750.67814252 Ry
     electric field correction =       0.00039668 Ry

     convergence has been achieved in  69 iterations

     Forces acting on atoms (cartesian axes, Ry/au):

     atom    1 type  1   force =     0.00026252    0.00112029    0.11026315
     atom    2 type  1   force =     0.00005955    0.00172137   -0.17427579
     atom    3 type  2   force =     0.00010811    0.00666195   -0.03420219
     atom    4 type  2   force =     0.00001541   -0.00085974    0.05080159
     atom    5 type  2   force =    -0.01745535   -0.00134261    0.00575672
     atom    6 type  2   force =     0.01690586   -0.00101199    0.00538358
     atom    7 type  1   force =     0.00006953    0.00260002   -0.01784031
     atom    8 type  1   force =    -0.00001972    0.00011995    0.00032004
     atom    9 type  2   force =    -0.00001361    0.00009437   -0.00038994
     atom   10 type  2   force =     0.00000154   -0.00050500   -0.00007787
     atom   11 type  2   force =     0.00011414   -0.00025150   -0.00006904
     atom   12 type  2   force =    -0.00010803   -0.00036323   -0.00022630
     atom   13 type  1   force =    -0.00038376   -0.00035674    0.00004982
     atom   14 type  1   force =    -0.00075654    0.00007792   -0.00012687
     atom   15 type  2   force =    -0.00010613   -0.00021634    0.00068319
     atom   16 type  2   force =     0.00011406   -0.00015489   -0.00030424
     atom   17 type  2   force =     0.00004260   -0.00030068    0.00043010
     atom   18 type  2   force =     0.00094036   -0.00048600    0.00049458
     atom   19 type  1   force =    -0.00004095    0.00028234    0.00008123
     atom   20 type  1   force =    -0.00034762   -0.00060454    0.00132859
     atom   21 type  2   force =     0.00009746    0.00006405    0.10312419
     atom   22 type  2   force =     0.00007908    0.00035095   -0.00153158
     atom   23 type  2   force =    -0.07114435    0.00061628   -0.03027066
     atom   24 type  2   force =     0.07111036    0.00103260   -0.03028134
     atom   25 type  1   force =     0.00005401   -0.00109586    0.11742020
     atom   26 type  1   force =     0.00004579   -0.00255957   -0.17411544
     atom   27 type  2   force =     0.00006991   -0.00281599   -0.02990490
     atom   28 type  2   force =     0.00002499   -0.00148580    0.05396325
     atom   29 type  2   force =    -0.01860930    0.00056818    0.00665637
     atom   30 type  2   force =     0.01809032    0.00124039    0.00629864
     atom   31 type  1   force =     0.00039869   -0.00271903   -0.01222642
     atom   32 type  1   force =     0.00000477    0.00038666    0.00069945
     atom   33 type  2   force =     0.00002305   -0.00009222   -0.00044391
     atom   34 type  2   force =     0.00006925    0.00031841    0.00039074
     atom   35 type  2   force =     0.00002069    0.00006343   -0.00029611
     atom   36 type  2   force =     0.00005166    0.00001351   -0.00033403
     atom   37 type  1   force =    -0.00050258   -0.00043054    0.00097893
     atom   38 type  1   force =    -0.00070421    0.00003397   -0.00014717
     atom   39 type  2   force =    -0.00012992   -0.00062975   -0.00039350
     atom   40 type  2   force =     0.00001403   -0.00009063   -0.00061899
     atom   41 type  2   force =    -0.00022616    0.00015928    0.00052304
     atom   42 type  2   force =     0.00084265    0.00038370    0.00003402
     atom   43 type  1   force =     0.00030488   -0.00011004   -0.00000109
     atom   44 type  1   force =     0.00064928    0.00073975    0.00041223
     atom   45 type  2   force =     0.00008142    0.00013810    0.10305255
     atom   46 type  2   force =    -0.07143951   -0.00054175   -0.03021170
     atom   47 type  2   force =     0.07140501   -0.00009873   -0.03026007
     atom   48 type  3   force =     0.00087477   -0.00033860   -0.00039107
     atom   49 type  4   force =    -0.00030121    0.00034168    0.00051758
     atom   50 type  4   force =     0.00005129   -0.00074223   -0.00085414
     atom   51 type  3   force =    -0.00025651    0.00061944   -0.00037788
     atom   52 type  3   force =    -0.00045156    0.00045545    0.00050879

     Total force =     0.376049     Total SCF correction =     0.000745
  @ DRIVER MODE: Message from server: STATUS
  @ DRIVER MODE: Message from server: GETFORCE
  @ DRIVER MODE: Returning v,forces,stress,ensemble

     Writing output data file ./calc.save/
  @ DRIVER MODE: Message from server: EXIT
  @ DRIVE MODE: Exiting

     General routines

     Parallel routines

   This run was terminated on:  10:29: 8  12Oct2021

   JOB DONE.