     Program PWSCF v.6.7GPU starts on 23Sep2021 at  9:59:20

     R & G space division:  proc/nbgrp/npool/nimage =       8
     Reading input from /storage/home/hcoda1/3/ntian30/research/carbon/CxH_vib/H2O_calc/ads_slab/CH2OHO_c/out_0030/pw.inp
Warning: card &CELL ignored
Warning: card   CELL_DYNAMICS='IPI', ignored
Warning: card / ignored

     Current dimensions of program PWSCF are:
     Max number of different atomic species (ntypx) = 10
     Max number of k-points (npk) =  40000
     Max angular momentum in pseudopotentials (lmaxx) =  3
     Presently no symmetry can be used with electric field

     Message from routine cell_base_init:
     DEPRECATED: use true lattice parameter, not A to a.u. conversion factor

     IMPORTANT: XC functional enforced from input :
     Exchange-correlation= BEEF-VDW
                           (   1   4  43  14   2   0   0)
     Any further DFT definition will be discarded
     Please, verify this is what you really want

  @ DRIVER MODE: Connecting to
 qe_1139763_2941011.sched-torque.pace.gatech.edua0vcmpys_scratch
  using UNIX socket
  @ DRIVER MODE: Message from server: STATUS
  @ DRIVER MODE: Message from server: INIT
  @ DRIVER MODE: Receiving replica           0          -1
  @ DRIVER MODE: Receiving encoded integer          25
  @ DRIVER MODE:  SCF:  T  FORCE:  T  STRESS:  F  VC:  F  ENSEMBLE:  F
  @ DRIVER MODE:  SCF:  T  FORCE:  T  STRESS:  F  VC:  F  ENSEMBLE:  F

     Using Slab Decomposition

     bravais-lattice index     =            0
     lattice parameter (alat)  =       1.8897  a.u.
     unit-cell volume          =    6658.9804 (a.u.)^3
     number of atoms/cell      =           53
     number of atomic types    =            4
     number of electrons       =       397.00
     number of Kohn-Sham states=          208
     kinetic-energy cutoff     =      29.3995  Ry
     charge density cutoff     =     293.9946  Ry
     scf convergence threshold =      7.3E-08
     mixing beta               =       0.0500
     number of iterations used =            8  plain     mixing
     Exchange-correlation= BEEF-VDW
                           (   1   4  43  14   2   0   0)

     celldm(1)=   1.889726  celldm(2)=   0.000000  celldm(3)=   0.000000
     celldm(4)=   0.000000  celldm(5)=   0.000000  celldm(6)=   0.000000

     crystal axes: (cart. coord. in units of alat)
               a(1) = (   6.579727   0.000000   0.000000 )
               a(2) = (  -0.000775   5.961596   0.000000 )
               a(3) = (   0.000000   0.000000  25.155947 )

     reciprocal axes: (cart. coord. in units 2 pi/alat)
               b(1) = (  0.151982  0.000020  0.000000 )
               b(2) = (  0.000000  0.167740  0.000000 )
               b(3) = (  0.000000  0.000000  0.039752 )

     PseudoPot. # 1 for O  read from file:
     /storage/coda1/p-amedford6/0/shared/rich_project_chbe-medford/medford-share/data/pseudos_module/espresso/nninc/pbe/van/O.UPF
     MD5 check sum: 78c19812648e8988a0fe644b0f25305e
     Pseudo is Ultrasoft, Zval =  6.0
     Generated by new atomic code, or converted to UPF format
     Using radial grid of  737 points,  4 beta functions with:
                l(1) =   0
                l(2) =   0
                l(3) =   1
                l(4) =   1
     Q(r) pseudized with  8 coefficients,  rinner =    0.800   0.800   0.800

     PseudoPot. # 2 for Ti read from file:
     /storage/coda1/p-amedford6/0/shared/rich_project_chbe-medford/medford-share/data/pseudos_module/espresso/nninc/pbe/van/Ti.UPF
     MD5 check sum: 8e4df49b7f0d34bbd5052bf3f5ea0213
     Pseudo is Ultrasoft, Zval = 12.0
     Generated by new atomic code, or converted to UPF format
     Using radial grid of  851 points,  6 beta functions with:
                l(1) =   0
                l(2) =   0
                l(3) =   1
                l(4) =   1
                l(5) =   2
                l(6) =   2
     Q(r) pseudized with  8 coefficients,  rinner =    1.000   1.000   1.000
                                                       1.000   1.000

     PseudoPot. # 3 for C  read from file:
     /storage/coda1/p-amedford6/0/shared/rich_project_chbe-medford/medford-share/data/pseudos_module/espresso/nninc/pbe/van/C.UPF
     MD5 check sum: 1a69bf6b8db32088f5b2163dbdb77a27
     Pseudo is Ultrasoft, Zval =  4.0
     Generated by new atomic code, or converted to UPF format
     Using radial grid of  721 points,  4 beta functions with:
                l(1) =   0
                l(2) =   0
                l(3) =   1
                l(4) =   1
     Q(r) pseudized with  8 coefficients,  rinner =    0.800   0.800   0.800

     PseudoPot. # 4 for H  read from file:
     /storage/coda1/p-amedford6/0/shared/rich_project_chbe-medford/medford-share/data/pseudos_module/espresso/nninc/pbe/van/H.UPF
     MD5 check sum: b5ee9d7bfd3a09ee7748110bda690ff7
     Pseudo is Ultrasoft, Zval =  1.0
     Generated by new atomic code, or converted to UPF format
     Using radial grid of  615 points,  1 beta functions with:
                l(1) =   0
     Q(r) pseudized with  8 coefficients,  rinner =    0.800

     atomic species   valence    mass     pseudopotential
        O1             6.00    15.99900     O ( 1.00)
        Ti1           12.00    47.86700     Ti( 1.00)
        C1             4.00    12.01100     C ( 1.00)
        H1             1.00     1.00800     H ( 1.00)

     No symmetry found

   Cartesian axes

     site n.     atom                  positions (alat units)
         1           O1  tau(   1) = (   3.2904802   0.0005063   4.7018136  )
         2           O1  tau(   2) = (   3.2900926   2.9813045   4.7018136  )
         3           Ti1 tau(   3) = (   0.0004258   2.9801865   6.0000000  )
         4           Ti1 tau(   4) = (   0.0000382   5.9609847   6.0000000  )
         5           Ti1 tau(   5) = (   3.2906075   1.4906267   6.0002472  )
         6           Ti1 tau(   6) = (   3.2902200   4.4714249   6.0002472  )
         7           O1  tau(   7) = (   1.3043587   1.4918075   6.0039043  )
         8           O1  tau(   8) = (   1.3039711   4.4726057   6.0039043  )
         9           O1  tau(   9) = (   5.2767064   1.4903225   6.0039473  )
        10           O1  tau(  10) = (   5.2763189   4.4711207   6.0039473  )
        11           O1  tau(  11) = (   3.2906025   0.0005020   7.3038282  )
        12           O1  tau(  12) = (   3.2902150   2.9813002   7.3038282  )
        13           O1  tau(  13) = (   0.0006271   0.0005054   7.9858123  )
        14           O1  tau(  14) = (   0.0002396   2.9813036   7.9858123  )
        15           Ti1 tau(  15) = (   3.3202697   0.0919879   9.1698383  )
        16           Ti1 tau(  16) = (   3.3215697   3.0759731   9.1987478  )
        17           Ti1 tau(  17) = (   0.0419684   4.5271873   9.2680259  )
        18           Ti1 tau(  18) = (   0.0391189   1.6041453   9.3419098  )
        19           O1  tau(  19) = (   4.5942328   1.4918067   9.2879030  )
        20           O1  tau(  20) = (   4.5938453   4.4726049   9.2879030  )
        21           O1  tau(  21) = (   1.9868534   1.4903216   9.2879459  )
        22           O1  tau(  22) = (   1.9864658   4.4711199   9.2879459  )
        23           O1  tau(  23) = (   0.0125722   0.0097687  10.5830051  )
        24           O1  tau(  24) = (   0.0081120   2.9918398  10.5664780  )
        25           O1  tau(  25) = (   3.3077729   2.9680546  11.3050536  )
        26           O1  tau(  26) = (   3.3059260   0.0232323  11.3367354  )
        27           Ti1 tau(  27) = (   0.0233359   0.0627999  12.4784840  )
        28           Ti1 tau(  28) = (   3.3058864   4.6637881  12.6801991  )
        29           Ti1 tau(  29) = (   3.3037148   1.5793570  12.4293313  )
        30           Ti1 tau(  30) = (   0.0089448   3.0481173  12.7472709  )
        31           O1  tau(  31) = (   1.2933882   4.4692258  12.6303221  )
        32           O1  tau(  32) = (   1.2985301   1.4993897  12.6236677  )
        33           O1  tau(  33) = (   5.3274268   4.4793405  12.6275207  )
        34           O1  tau(  34) = (   5.3265499   1.4915365  12.6220616  )
        35           O1  tau(  35) = (   3.3295878   2.9786622  13.8932268  )
        36           O1  tau(  36) = (   3.3104420   5.9098017  13.9586718  )
        37           O1  tau(  37) = (   0.0385923   0.0024916  14.6531765  )
        38           O1  tau(  38) = (   0.0086518   2.9873893  14.7004014  )
        39           Ti1 tau(  39) = (   3.3201234   2.9526136  15.6695435  )
        40           Ti1 tau(  40) = (   3.4185286   5.9334276  16.2343674  )
        41           Ti1 tau(  41) = (   0.1049196   4.5923083  15.9423708  )
        42           Ti1 tau(  42) = (   0.0892020   1.3980244  15.8930203  )
        43           O1  tau(  43) = (   4.5900789   4.4270775  16.0984088  )
        44           O1  tau(  44) = (   4.5919070   1.5192920  16.0669747  )
        45           O1  tau(  45) = (   2.0372030   1.5514537  16.0349210  )
        46           O1  tau(  46) = (   2.0392294   4.4021701  16.0428288  )
        47           O1  tau(  47) = (   0.0638787   0.0130652  17.1658208  )
        48           O1  tau(  48) = (   6.5756481   2.9829514  17.4361268  )
        49           C1  tau(  49) = (   6.2652767   2.9703434  18.6584371  )
        50           H1  tau(  50) = (   6.1492679   3.9148029  19.1865895  )
        51           H1  tau(  51) = (   6.0998186   2.0156765  19.1535163  )
        52           O1  tau(  52) = (   3.1909063   0.0039016  18.0757888  )
        53           H1  tau(  53) = (   2.2823347   0.1153277  18.3895531  )

     number of k points=    10  Fermi-Dirac smearing, width (Ry)=  0.0073
                       cart. coord. in units 2pi/alat
        k(    1) = (   0.0000000   0.0000000   0.0000000), wk =   0.1250000
        k(    2) = (   0.0000000   0.0419351   0.0000000), wk =   0.2500000
        k(    3) = (   0.0000000  -0.0838702   0.0000000), wk =   0.1250000
        k(    4) = (   0.0379955   0.0000049   0.0000000), wk =   0.2500000
        k(    5) = (   0.0379955   0.0419400   0.0000000), wk =   0.2500000
        k(    6) = (   0.0379955  -0.0838652   0.0000000), wk =   0.2500000
        k(    7) = (   0.0379955  -0.0419301   0.0000000), wk =   0.2500000
        k(    8) = (  -0.0759910  -0.0000099   0.0000000), wk =   0.1250000
        k(    9) = (  -0.0759910   0.0419252   0.0000000), wk =   0.2500000
        k(   10) = (  -0.0759910  -0.0838800   0.0000000), wk =   0.1250000

     Initial potential from superposition of free atoms

     starting charge  380.99918, renormalised to  397.00000

     negative rho (up, down):  1.768E-02 0.000E+00

     %%%%%%%%%%%%%%%%%%%%%%%%%%%%%%%%%%%%%%%%%%%%%%%%%%%%%%%%%%%%%%%%%%%%%%%%
     %                                                                      %
     % You are using vdW-DF, which was implemented by the Thonhauser group. %
     % Please cite the following two papers that made this development      %
     % possible and the two reviews that describe the various versions:     %
     %                                                                      %
     %   T. Thonhauser et al., PRL 115, 136402 (2015).                      %
     %   T. Thonhauser et al., PRB 76, 125112 (2007).                       %
     %   K. Berland et al., Rep. Prog. Phys. 78, 066501 (2015).             %
     %   D.C. Langreth et al., J. Phys.: Condens. Matter 21, 084203 (2009). %
     %                                                                      %
     %                                                                      %
     % If you are calculating the stress with vdW-DF, please also cite:     %
     %                                                                      %
     %   R. Sabatini et al., J. Phys.: Condens. Matter 24, 424209 (2012).   %
     %                                                                      %
     %%%%%%%%%%%%%%%%%%%%%%%%%%%%%%%%%%%%%%%%%%%%%%%%%%%%%%%%%%%%%%%%%%%%%%%%

     Adding external electric field

     Computed dipole along edir(3) :
        Dipole               -8.4049 Ry au,        -21.3632 Debye
        Dipole field         -0.0159 Ry au,

        Potential amp.        1.4703 Ry
        Total length         46.3494 bohr

     Starting wfcs are  299 atomic wfcs
  @ DRIVER MODE: Message from server: STATUS
  @ DRIVER MODE: Message from server: POSDATA
  @ DRIVER MODE: Reading and sharing cell
  @ DRIVER MODE: Reading and sharing positions
  @ DRIVER MODE: Received positions

     Self-consistent Calculation

     iteration #  1     ecut=    29.40 Ry     beta= 0.05
     Davidson diagonalization with overlap
     c_bands:  1 eigenvalues not converged
     c_bands:  1 eigenvalues not converged
     c_bands:  1 eigenvalues not converged
     c_bands:  1 eigenvalues not converged
     ethr =  1.00E-05,  avg # of iterations = 18.2

[...]

     total energy              =   -2610.73674978 Ry
     estimated scf accuracy    <    3909.27463601 Ry

     iteration #  2     ecut=    29.40 Ry     beta= 0.05
     Davidson diagonalization with overlap
     ethr =  1.00E-02,  avg # of iterations = 23.5

[...]

     iteration # 54     ecut=    29.40 Ry     beta= 0.05
     Davidson diagonalization with overlap
     c_bands:  1 eigenvalues not converged
     ethr =  7.92E-07,  avg # of iterations = 14.2

[...]

     total energy              =   -2963.78475207 Ry
     estimated scf accuracy    <       0.00000013 Ry

     iteration # 82     ecut=    29.40 Ry     beta= 0.05
     Davidson diagonalization with overlap
     ethr =  3.21E-11,  avg # of iterations =  5.3

     negative rho (up, down):  1.717E-02 0.000E+00

     Adding external electric field

     Computed dipole along edir(3) :
        Dipole                0.8761 Ry au,          2.2268 Debye
        Dipole field          0.0017 Ry au,

        Potential amp.       -0.1533 Ry
        Total length         46.3494 bohr

     End of self-consistent calculation

          k = 0.0000 0.0000 0.0000 ( 18029 PWs)   bands (ev):

   -55.9345 -55.8933 -55.8004 -55.7150 -55.6809 -55.6734 -55.6625 -55.6076
   -55.5733 -55.5504 -55.5288 -55.4926 -55.4730 -55.3821 -54.7793 -54.7452
   -32.3866 -32.2543 -32.2284 -32.1933 -32.1910 -32.1418 -32.1375 -32.0930
   -32.0821 -32.0213 -32.0200 -32.0098 -32.0049 -31.9984 -31.9801 -31.9638
   -31.9485 -31.9355 -31.8933 -31.8903 -31.8766 -31.8609 -31.8571 -31.8435
   -31.8165 -31.8124 -31.7839 -31.7776 -31.7757 -31.7681 -31.7548 -31.7475
   -31.7415 -31.7312 -31.7069 -31.6945 -31.6889 -31.6650 -31.6448 -31.6289
   -31.5880 -31.5868 -31.1817 -31.1059 -31.0826 -30.9987 -30.9128 -30.8014
   -20.2145 -16.5558 -16.4286 -16.2584 -16.0689 -15.9748 -15.9133 -15.6984
   -15.6445 -15.5461 -15.4241 -15.3887 -15.3483 -15.3186 -15.3018 -15.2888
   -15.2689 -15.2504 -15.2183 -15.1972 -15.1905 -15.1474 -15.0781 -15.0331
   -15.0261 -14.9832 -14.9245 -14.8839 -14.8451 -14.8059 -14.6316 -13.2800
   -13.1662  -9.4735  -5.7858  -5.7309  -4.1158  -3.8009  -3.7734  -3.7430
    -3.6576  -3.6209  -3.5147  -3.3512  -3.1689  -3.0412  -2.9512  -2.9333
    -2.8944  -2.7818  -2.7312  -2.6992  -2.6555  -2.6257  -2.6077  -2.5669
    -2.5442  -2.5037  -2.4703  -2.4418  -2.3502  -2.3427  -2.2826  -2.2240
    -2.1911  -2.1800  -2.1760  -2.1521  -2.1169  -2.0624  -2.0275  -1.9918
    -1.9547  -1.8375  -1.8194  -1.8030  -1.7319  -1.4877  -1.3592  -1.3192
    -1.2647  -1.2212  -1.2016  -1.1726  -1.1672  -1.1508  -1.1153  -1.0684
    -0.9649  -0.9069  -0.8364  -0.8157  -0.8126  -0.7513  -0.6720  -0.6007
    -0.5546  -0.5313  -0.5059  -0.4345  -0.4337  -0.3593  -0.3282  -0.2504
    -0.1400  -0.0948  -0.0715  -0.0521  -0.0403   0.0140   0.0597   0.1296
     0.1479   0.1629   0.1922   0.2713   0.2811   0.3083   0.3250   0.4189
     0.4826   0.4909   0.5598   0.6518   0.6969   0.7671   0.8961   0.9704
     1.2181   1.2428   1.3272   1.4583   1.8043   1.8483   3.2810   3.3513
     3.3887   3.4891   3.5698   3.5905   3.6695   3.7300   3.8165   3.8598

[...]

          k = 0.0380-0.0419 0.0000 ( 17876 PWs)   bands (ev):

[...]

          k =-0.0760-0.0000 0.0000 ( 17886 PWs)   bands (ev):

[...]

          k =-0.0760-0.0839 0.0000 ( 17948 PWs)   bands (ev):

   -55.9255 -55.9021 -55.7994 -55.7018 -55.6939 -55.6709 -55.6563 -55.6137
   -55.5741 -55.5526 -55.5174 -55.5041 -55.4699 -55.3851 -54.7627 -54.7616
   -32.2225 -32.2117 -32.1920 -32.1858 -32.1645 -32.0726 -32.0582 -32.0521
   -32.0353 -32.0244 -32.0169 -32.0086 -32.0074 -31.9652 -31.9563 -31.9287
   -31.9129 -31.9104 -31.9045 -31.8904 -31.8890 -31.8821 -31.8795 -31.8727
   -31.8645 -31.8496 -31.8271 -31.8180 -31.8095 -31.8071 -31.7790 -31.7708
   -31.7578 -31.7366 -31.7334 -31.7315 -31.7286 -31.7263 -31.6879 -31.6684
   -31.6315 -31.5906 -31.0960 -31.0949 -30.9960 -30.9943 -30.9560 -30.9547
   -20.2086 -16.5177 -15.9423 -15.8893 -15.7369 -15.7107 -15.6673 -15.6134
   -15.5537 -15.5126 -15.5021 -15.4691 -15.4500 -15.4238 -15.4026 -15.3736
   -15.3478 -15.3016 -15.2940 -15.2473 -15.2375 -15.2179 -15.1927 -15.1601
   -15.1055 -15.0924 -15.0722 -15.0411 -15.0196 -14.9319 -14.7689 -13.2696
   -13.2677  -9.4753  -5.7721  -5.7170  -4.0768  -3.7954  -3.1785  -3.1076
    -2.9606  -2.8840  -2.8167  -2.7955  -2.7801  -2.7489  -2.6827  -2.6623
    -2.6081  -2.6038  -2.5949  -2.5844  -2.5711  -2.5281  -2.4988  -2.4833
    -2.4766  -2.4588  -2.4299  -2.4161  -2.4021  -2.3899  -2.3802  -2.3735
    -2.3219  -2.2596  -2.1788  -2.1314  -2.1105  -1.9873  -1.9696  -1.9096
    -1.8966  -1.8893  -1.8582  -1.8544  -1.7814  -1.7277  -1.5724  -1.5559
    -1.5160  -1.4558  -1.4226  -1.3363  -1.3207  -1.2844  -1.2380  -1.2259
    -1.2029  -1.1823  -1.0700  -1.0050  -0.9630  -0.9187  -0.8098  -0.7954
    -0.7786  -0.7167  -0.6943  -0.6844  -0.6771  -0.6114  -0.5519  -0.5030
    -0.4843  -0.4474  -0.4245  -0.3790  -0.3226  -0.2441  -0.1733  -0.1036
    -0.0739   0.0351   0.1196   0.1561   0.2621   0.3196   0.3600   0.3778
     0.4457   0.5030   0.5200   0.6038   0.6741   0.6983   0.7526   0.7850
     0.8247   0.8592   1.6145   1.6274   1.6592   1.6698   3.2445   3.7709
     3.7808   3.7940   3.8133   3.8360   3.8601   3.9451   3.9950   3.9990

     the Fermi energy is     3.2211 ev

!    total energy              =   -2963.78475852 Ry
     estimated scf accuracy    <       0.00000004 Ry
     smearing contrib. (-TS)   =      -0.01877522 Ry
     internal energy E=F+TS    =   -2963.76598330 Ry

     The total energy is F=E-TS. E is the sum of the following terms:
     one-electron contribution =  -24348.63721846 Ry
     hartree contribution      =   12264.36478265 Ry
     xc contribution           =    -489.27160282 Ry
     ewald contribution        =    9609.77660686 Ry
     electric field correction =       0.00144848 Ry

     convergence has been achieved in  82 iterations

     Forces acting on atoms (cartesian axes, Ry/au):

     atom    1 type  1   force =    -0.00006962    0.00012816    0.10167587
     atom    2 type  1   force =    -0.00006577    0.00015599    0.10133970
     atom    3 type  2   force =    -0.00029841   -0.00136480    0.10430177
     atom    4 type  2   force =    -0.00023152    0.00134143    0.11677931
     atom    5 type  2   force =    -0.00034781    0.00599440   -0.16908712
     atom    6 type  2   force =    -0.00007930   -0.00499315   -0.16915882
     atom    7 type  1   force =    -0.07472788    0.00067576   -0.03017084
     atom    8 type  1   force =    -0.07426819   -0.00132886   -0.03017127
     atom    9 type  1   force =     0.07440394    0.00121099   -0.03021712
     atom   10 type  1   force =     0.07408319   -0.00091177   -0.03023845
     atom   11 type  1   force =     0.00083501    0.00106412    0.04730187
     atom   12 type  1   force =     0.00078002    0.00082450    0.04930271
     atom   13 type  1   force =     0.00026516   -0.00562482   -0.03766426
     atom   14 type  1   force =     0.00053883    0.00416614   -0.03205535
     atom   15 type  2   force =    -0.00044596    0.00078543   -0.00022715
     atom   16 type  2   force =    -0.00038903   -0.00081647   -0.00023850
     atom   17 type  2   force =     0.00029663   -0.00004759    0.00047227
     atom   18 type  2   force =     0.00026882    0.00013111    0.00100122
     atom   19 type  1   force =    -0.00989878   -0.00202441    0.00043235
     atom   20 type  1   force =    -0.00988291    0.00493405    0.00134605
     atom   21 type  1   force =     0.01191063   -0.00463320    0.00143878
     atom   22 type  1   force =     0.01108582    0.00175202    0.00192032
     atom   23 type  1   force =    -0.00024851    0.00003276    0.00024839
     atom   24 type  1   force =    -0.00027097    0.00004187   -0.00032920
     atom   25 type  1   force =    -0.00036451   -0.00039668   -0.00032605
     atom   26 type  1   force =    -0.00021427   -0.00008926   -0.00000611
     atom   27 type  2   force =    -0.00031132   -0.00022827   -0.00006413
     atom   28 type  2   force =     0.00015358   -0.00031285    0.00035741
     atom   29 type  2   force =     0.00033284   -0.00039403   -0.00085842
     atom   30 type  2   force =    -0.00015785    0.00027564    0.00005716
     atom   31 type  1   force =     0.00007328    0.00057259    0.00027711
     atom   32 type  1   force =     0.00043340    0.00019562   -0.00002764
     atom   33 type  1   force =    -0.00037158    0.00031765    0.00064497
     atom   34 type  1   force =    -0.00092166    0.00055410    0.00016931
     atom   35 type  1   force =    -0.00045180   -0.00045172   -0.00070468
     atom   36 type  1   force =    -0.00014549   -0.00013011    0.00036963
     atom   37 type  1   force =    -0.00014353   -0.00038711    0.00033935
     atom   38 type  1   force =     0.00038354    0.00030685    0.00014754
     atom   39 type  2   force =    -0.00015573    0.00024041    0.00071706
     atom   40 type  2   force =    -0.00069937   -0.00034482    0.00605292
     atom   41 type  2   force =    -0.00014422    0.00047110    0.00046033
     atom   42 type  2   force =    -0.00027876   -0.00041671    0.00016857
     atom   43 type  1   force =    -0.00004349    0.00034670   -0.00010579
     atom   44 type  1   force =    -0.00068565   -0.00042532   -0.00018778
     atom   45 type  1   force =     0.00104191   -0.00030516   -0.00003441
     atom   46 type  1   force =    -0.00008706    0.00022822   -0.00011095
     atom   47 type  1   force =     0.00020852   -0.00060304   -0.00001000
     atom   48 type  1   force =    -0.00034244    0.00022058    0.00063599
     atom   49 type  3   force =    -0.00021980    0.00003637   -0.00050794
     atom   50 type  4   force =    -0.00068075    0.00017127    0.00023694
     atom   51 type  4   force =    -0.00033762   -0.00049758    0.00046007
     atom   52 type  1   force =     0.00613196   -0.00057009   -0.00775526
     atom   53 type  4   force =    -0.00524554    0.00012200    0.00160225

     Total force =     0.368835     Total SCF correction =     0.000394
  @ DRIVER MODE: Message from server: STATUS
  @ DRIVER MODE: Message from server: GETFORCE
  @ DRIVER MODE: Returning v,forces,stress,ensemble

     Writing output data file ./calc.save/
  @ DRIVER MODE: Message from server: EXIT
  @ DRIVE MODE: Exiting

     General routines

     Parallel routines

   This run was terminated on:  10:26:27  23Sep2021

   JOB DONE.