     Program PWSCF v.6.7GPU starts on 12Oct2021 at 16:21: 9

     R & G space division:  proc/nbgrp/npool/nimage =       8
     Reading input from /storage/home/hcoda1/3/ntian30/research/carbon/ACS_vib/ads_slab/HNNH2/out_0022/pw.inp
Warning: card &CELL ignored
Warning: card   CELL_DYNAMICS='IPI', ignored
Warning: card / ignored

     Current dimensions of program PWSCF are:
     Max number of different atomic species (ntypx) = 10
     Max number of k-points (npk) =  40000
     Max angular momentum in pseudopotentials (lmaxx) =  3
     Presently no symmetry can be used with electric field

     Message from routine cell_base_init:
     DEPRECATED: use true lattice parameter, not A to a.u. conversion factor

     IMPORTANT: XC functional enforced from input :
     Exchange-correlation= BEEF-VDW
                           (   1   4  43  14   2   0   0)
     Any further DFT definition will be discarded
     Please, verify this is what you really want

  @ DRIVER MODE: Connecting to
 qe_1139763_3181312.sched-torque.pace.gatech.edu1z4082mm_scratch
  using UNIX socket
  @ DRIVER MODE: Message from server: STATUS
  @ DRIVER MODE: Message from server: INIT
  @ DRIVER MODE: Receiving replica           0          -1
  @ DRIVER MODE: Receiving encoded integer          25
  @ DRIVER MODE:  SCF:  T  FORCE:  T  STRESS:  F  VC:  F  ENSEMBLE:  F
  @ DRIVER MODE:  SCF:  T  FORCE:  T  STRESS:  F  VC:  F  ENSEMBLE:  F

     Using Slab Decomposition

     bravais-lattice index     =            0
     lattice parameter (alat)  =       1.8897  a.u.
     unit-cell volume          =    6658.9804 (a.u.)^3
     number of atoms/cell      =           52
     number of atomic types    =            4
     number of electrons       =       391.00
     number of Kohn-Sham states=          205
     kinetic-energy cutoff     =      29.3995  Ry
     charge density cutoff     =     293.9946  Ry
     scf convergence threshold =      7.3E-08
     mixing beta               =       0.0500
     number of iterations used =            8  plain     mixing
     Exchange-correlation= BEEF-VDW
                           (   1   4  43  14   2   0   0)

     celldm(1)=   1.889726  celldm(2)=   0.000000  celldm(3)=   0.000000
     celldm(4)=   0.000000  celldm(5)=   0.000000  celldm(6)=   0.000000

     crystal axes: (cart. coord. in units of alat)
               a(1) = (   6.579727   0.000000   0.000000 )
               a(2) = (  -0.000775   5.961596   0.000000 )
               a(3) = (   0.000000   0.000000  25.155947 )

     reciprocal axes: (cart. coord. in units 2 pi/alat)
               b(1) = (  0.151982  0.000020  0.000000 )
               b(2) = (  0.000000  0.167740  0.000000 )
               b(3) = (  0.000000  0.000000  0.039752 )

     PseudoPot. # 1 for Ti read from file:
     /storage/coda1/p-amedford6/0/shared/rich_project_chbe-medford/medford-share/data/pseudos_module/espresso/nninc/pbe/van/Ti.UPF
     MD5 check sum: 8e4df49b7f0d34bbd5052bf3f5ea0213
     Pseudo is Ultrasoft, Zval = 12.0
     Generated by new atomic code, or converted to UPF format
     Using radial grid of  851 points,  6 beta functions with:
                l(1) =   0
                l(2) =   0
                l(3) =   1
                l(4) =   1
                l(5) =   2
                l(6) =   2
     Q(r) pseudized with  8 coefficients,  rinner =    1.000   1.000   1.000
                                                       1.000   1.000

     PseudoPot. # 2 for O  read from file:
     /storage/coda1/p-amedford6/0/shared/rich_project_chbe-medford/medford-share/data/pseudos_module/espresso/nninc/pbe/van/O.UPF
     MD5 check sum: 78c19812648e8988a0fe644b0f25305e
     Pseudo is Ultrasoft, Zval =  6.0
     Generated by new atomic code, or converted to UPF format
     Using radial grid of  737 points,  4 beta functions with:
                l(1) =   0
                l(2) =   0
                l(3) =   1
                l(4) =   1
     Q(r) pseudized with  8 coefficients,  rinner =    0.800   0.800   0.800

     PseudoPot. # 3 for H  read from file:
     /storage/coda1/p-amedford6/0/shared/rich_project_chbe-medford/medford-share/data/pseudos_module/espresso/nninc/pbe/van/H.UPF
     MD5 check sum: b5ee9d7bfd3a09ee7748110bda690ff7
     Pseudo is Ultrasoft, Zval =  1.0
     Generated by new atomic code, or converted to UPF format
     Using radial grid of  615 points,  1 beta functions with:
                l(1) =   0
     Q(r) pseudized with  8 coefficients,  rinner =    0.800

     PseudoPot. # 4 for N  read from file:
     /storage/coda1/p-amedford6/0/shared/rich_project_chbe-medford/medford-share/data/pseudos_module/espresso/nninc/pbe/van/N.UPF
     MD5 check sum: 90d10febe142ad51ac9d5be1deb811c4
     Pseudo is Ultrasoft, Zval =  5.0
     Generated by new atomic code, or converted to UPF format
     Using radial grid of  729 points,  4 beta functions with:
                l(1) =   0
                l(2) =   0
                l(3) =   1
                l(4) =   1
     Q(r) pseudized with  8 coefficients,  rinner =    0.800   0.800   0.800

     atomic species   valence    mass     pseudopotential
        Ti1           12.00    47.86700     Ti( 1.00)
        O1             6.00    15.99900     O ( 1.00)
        H1             1.00     1.00800     H ( 1.00)
        N1             5.00    14.00700     N ( 1.00)

     No symmetry found

   Cartesian axes

     site n.     atom                  positions (alat units)
         1           Ti1 tau(   1) = (   0.0004258   2.9801865   6.0000000  )
         2           Ti1 tau(   2) = (   3.2906075   1.4906267   6.0002472  )
         3           O1  tau(   3) = (   0.0006271   0.0005054   7.9858123  )
         4           O1  tau(   4) = (   3.2906025   0.0005020   7.3038282  )
         5           O1  tau(   5) = (   4.5942328   1.4918067   9.2879030  )
         6           O1  tau(   6) = (   1.9868534   1.4903216   9.2879459  )
         7           Ti1 tau(   7) = (   3.2908112   2.9011704   9.1816539  )
         8           Ti1 tau(   8) = (   0.0015097   1.3932332   9.2931702  )
         9           O1  tau(   9) = (   3.2819087   5.9526348  11.3504271  )
        10           O1  tau(  10) = (   6.5772260   5.9545827  10.6088576  )
        11           O1  tau(  11) = (   1.2874804   1.4832564  12.6509691  )
        12           O1  tau(  12) = (   5.2781146   1.4858874  12.6440994  )
        13           Ti1 tau(  13) = (   6.5585775   2.9503744  12.8030734  )
        14           Ti1 tau(  14) = (   3.2696126   1.4733128  12.4944632  )
        15           O1  tau(  15) = (   6.5513721   5.9458199  14.6768215  )
        16           O1  tau(  16) = (   3.2879482   5.9481552  13.9547078  )
        17           O1  tau(  17) = (   4.5181657   1.4884665  16.1124167  )
        18           O1  tau(  18) = (   2.0188244   1.4835402  16.0984261  )
        19           Ti1 tau(  19) = (   3.2766105   2.9578040  15.7125626  )
        20           Ti1 tau(  20) = (   0.0270592   1.3580474  16.0627221  )
        21           O1  tau(  21) = (   3.2904802   0.0005063   4.7018136  )
        22           O1  tau(  22) = (   0.0072818   5.9434210  17.2237418  )
        23           O1  tau(  23) = (   1.3043587   1.4918075   6.0039043  )
        24           O1  tau(  24) = (   5.2767064   1.4903225   6.0039473  )
        25           Ti1 tau(  25) = (   0.0000382   5.9609847   6.0000000  )
        26           Ti1 tau(  26) = (   3.2902200   4.4714249   6.0002472  )
        27           O1  tau(  27) = (   0.0002396   2.9813036   7.9858123  )
        28           O1  tau(  28) = (   3.2902150   2.9813002   7.3038282  )
        29           O1  tau(  29) = (   4.5938453   4.4726049   9.2879030  )
        30           O1  tau(  30) = (   1.9864658   4.4711199   9.2879459  )
        31           Ti1 tau(  31) = (   3.2900885   5.8829342   9.1674613  )
        32           Ti1 tau(  32) = (   0.0009626   4.3321112   9.3579051  )
        33           O1  tau(  33) = (   3.2805539   2.9674959  11.3464436  )
        34           O1  tau(  34) = (   6.5791951   2.9642230  10.5753725  )
        35           O1  tau(  35) = (   1.2880645   4.4660911  12.6414962  )
        36           O1  tau(  36) = (   5.2770833   4.4616490  12.6331305  )
        37           Ti1 tau(  37) = (   6.5652171   5.9330851  12.5680926  )
        38           Ti1 tau(  38) = (   3.2703904   4.4534766  12.4879229  )
        39           O1  tau(  39) = (   6.5642693   2.9891374  14.6930774  )
        40           O1  tau(  40) = (   3.2814391   2.9717942  13.9260038  )
        41           O1  tau(  41) = (   4.5200678   4.4336085  16.1105754  )
        42           O1  tau(  42) = (   2.0169658   4.4359636  16.1171003  )
        43           Ti1 tau(  43) = (   3.3139371   5.9425984  15.7429620  )
        44           Ti1 tau(  44) = (   0.0173840   4.5100783  16.0001754  )
        45           O1  tau(  45) = (   3.2900926   2.9813045   4.7018136  )
        46           O1  tau(  46) = (   1.3039711   4.4726057   6.0039043  )
        47           O1  tau(  47) = (   5.2763189   4.4711207   6.0039473  )
        48           H1  tau(  48) = (   5.5810648   2.9993886  17.8866560  )
        49           N1  tau(  49) = (   6.5184219   2.9788514  17.4915934  )
        50           N1  tau(  50) = (   0.8269126   2.9775512  18.6276789  )
        51           H1  tau(  51) = (   1.2125983   2.0537984  18.7562651  )
        52           H1  tau(  52) = (   1.5963704   3.6133177  18.4401992  )

     number of k points=    10  Fermi-Dirac smearing, width (Ry)=  0.0073
                       cart. coord. in units 2pi/alat
        k(    1) = (   0.0000000   0.0000000   0.0000000), wk =   0.1250000
        k(    2) = (   0.0000000   0.0419351   0.0000000), wk =   0.2500000
        k(    3) = (   0.0000000  -0.0838702   0.0000000), wk =   0.1250000
        k(    4) = (   0.0379955   0.0000049   0.0000000), wk =   0.2500000
        k(    5) = (   0.0379955   0.0419400   0.0000000), wk =   0.2500000
        k(    6) = (   0.0379955  -0.0838652   0.0000000), wk =   0.2500000
        k(    7) = (   0.0379955  -0.0419301   0.0000000), wk =   0.2500000
        k(    8) = (  -0.0759910  -0.0000099   0.0000000), wk =   0.1250000
        k(    9) = (  -0.0759910   0.0419252   0.0000000), wk =   0.2500000
        k(   10) = (  -0.0759910  -0.0838800   0.0000000), wk =   0.1250000

     Initial potential from superposition of free atoms

     starting charge  374.99920, renormalised to  391.00000

     negative rho (up, down):  1.966E-02 0.000E+00

     %%%%%%%%%%%%%%%%%%%%%%%%%%%%%%%%%%%%%%%%%%%%%%%%%%%%%%%%%%%%%%%%%%%%%%%%
     %                                                                      %
     % You are using vdW-DF, which was implemented by the Thonhauser group. %
     % Please cite the following two papers that made this development      %
     % possible and the two reviews that describe the various versions:     %
     %                                                                      %
     %   T. Thonhauser et al., PRL 115, 136402 (2015).                      %
     %   T. Thonhauser et al., PRB 76, 125112 (2007).                       %
     %   K. Berland et al., Rep. Prog. Phys. 78, 066501 (2015).             %
     %   D.C. Langreth et al., J. Phys.: Condens. Matter 21, 084203 (2009). %
     %                                                                      %
     %                                                                      %
     % If you are calculating the stress with vdW-DF, please also cite:     %
     %                                                                      %
     %   R. Sabatini et al., J. Phys.: Condens. Matter 24, 424209 (2012).   %
     %                                                                      %
     %%%%%%%%%%%%%%%%%%%%%%%%%%%%%%%%%%%%%%%%%%%%%%%%%%%%%%%%%%%%%%%%%%%%%%%%

     Adding external electric field

     Computed dipole along edir(3) :
        Dipole               -5.4650 Ry au,        -13.8907 Debye
        Dipole field         -0.0103 Ry au,

        Potential amp.        0.9560 Ry
        Total length         46.3494 bohr

     Starting wfcs are  295 atomic wfcs
  @ DRIVER MODE: Message from server: STATUS
  @ DRIVER MODE: Message from server: POSDATA
  @ DRIVER MODE: Reading and sharing cell
  @ DRIVER MODE: Reading and sharing positions
  @ DRIVER MODE: Received positions

     Self-consistent Calculation

     iteration #  1     ecut=    29.40 Ry     beta= 0.05
     Davidson diagonalization with overlap
     c_bands:  4 eigenvalues not converged
     c_bands:  2 eigenvalues not converged
     c_bands:  3 eigenvalues not converged
     c_bands:  4 eigenvalues not converged
     c_bands:  4 eigenvalues not converged
     c_bands:  2 eigenvalues not converged
     c_bands:  2 eigenvalues not converged
     c_bands:  1 eigenvalues not converged
     c_bands:  2 eigenvalues not converged
     ethr =  1.00E-05,  avg # of iterations = 19.9

[...]

     total energy              =   -2795.00843653 Ry
     estimated scf accuracy    <    1456.69848180 Ry

     iteration #  2     ecut=    29.40 Ry     beta= 0.05
     Davidson diagonalization with overlap
     ethr =  1.00E-02,  avg # of iterations = 16.8

[...]

     iteration # 35     ecut=    29.40 Ry     beta= 0.05
     Davidson diagonalization with overlap
     c_bands:  1 eigenvalues not converged
     c_bands:  1 eigenvalues not converged
     c_bands:  1 eigenvalues not converged
     ethr =  1.77E-08,  avg # of iterations = 17.3

[...]

     total energy              =   -2927.71105342 Ry
     estimated scf accuracy    <       0.00000010 Ry

     iteration # 49     ecut=    29.40 Ry     beta= 0.05
     Davidson diagonalization with overlap
     ethr =  2.52E-11,  avg # of iterations = 16.9

     negative rho (up, down):  1.937E-02 0.000E+00

     Adding external electric field

     Computed dipole along edir(3) :
        Dipole                0.4596 Ry au,          1.1681 Debye
        Dipole field          0.0009 Ry au,

        Potential amp.       -0.0804 Ry
        Total length         46.3494 bohr

     End of self-consistent calculation

          k = 0.0000 0.0000 0.0000 ( 18029 PWs)   bands (ev):

   -56.1403 -56.1250 -56.1045 -56.0888 -56.0424 -56.0085 -55.9686 -55.9440
   -55.8944 -55.8816 -55.8676 -55.8315 -55.7603 -55.7557 -55.0773 -55.0432
   -32.6964 -32.6001 -32.4818 -32.4698 -32.4595 -32.4274 -32.4016 -32.3838
   -32.3734 -32.3532 -32.3477 -32.3441 -32.3306 -32.3064 -32.3025 -32.2818
   -32.2758 -32.2546 -32.2232 -32.2115 -32.2083 -32.1905 -32.1591 -32.1530
   -32.1520 -32.1316 -32.1299 -32.1063 -32.0994 -32.0946 -32.0943 -32.0735
   -32.0730 -32.0396 -32.0164 -32.0160 -31.9797 -31.9764 -31.9668 -31.9548
   -31.9405 -31.8971 -31.4844 -31.3959 -31.3730 -31.3007 -31.2143 -31.1037
   -16.9038 -16.6734 -16.5265 -16.3759 -16.2652 -16.2416 -16.1846 -15.9062
   -15.8392 -15.7771 -15.7593 -15.7380 -15.7269 -15.6635 -15.6625 -15.6287
   -15.5845 -15.5497 -15.5387 -15.5097 -15.5022 -15.4534 -15.4279 -15.3982
   -15.3636 -15.2796 -15.2254 -15.1538 -15.1178 -15.0777 -13.5812 -13.4651
   -11.3006  -5.2893  -4.6114  -4.2491  -4.1323  -4.0489  -3.9978  -3.9308
    -3.7835  -3.7245  -3.5887  -3.3393  -3.3017  -3.2874  -3.2579  -3.2204
    -3.0326  -2.9828  -2.9467  -2.9249  -2.9191  -2.9121  -2.8743  -2.8422
    -2.8345  -2.8318  -2.7153  -2.6444  -2.5567  -2.5479  -2.4764  -2.4384
    -2.4144  -2.4107  -2.3702  -2.3472  -2.3262  -2.3083  -2.2821  -2.1799
    -2.1548  -2.0722  -1.9833  -1.8982  -1.7760  -1.7130  -1.7015  -1.5738
    -1.5143  -1.5121  -1.4783  -1.4568  -1.4169  -1.3392  -1.3019  -1.2540
    -1.1753  -1.1310  -1.0622  -1.0329  -1.0176  -0.9765  -0.9009  -0.8536
    -0.8466  -0.8356  -0.6301  -0.6026  -0.5930  -0.5786  -0.4605  -0.3792
    -0.3618  -0.3319  -0.3154  -0.3027  -0.2490  -0.1583  -0.1295  -0.1177
    -0.0981  -0.0124   0.0578   0.0651   0.0985   0.1867   0.2101   0.3269
     0.3912   0.5668   0.6028   0.7196   0.8634   0.9424   0.9764   1.1364
     1.5226   1.5592   1.5734   3.0564   3.0741   3.1114   3.1322   3.2685
     3.3784   3.3824   3.4806   3.5014   3.5539

[...]

          k = 0.0380-0.0419 0.0000 ( 17876 PWs)   bands (ev):

[...]

          k =-0.0760-0.0000 0.0000 ( 17886 PWs)   bands (ev):

[...]

          k =-0.0760-0.0839 0.0000 ( 17948 PWs)   bands (ev):

   -56.1281 -56.1165 -56.1076 -56.1060 -56.0381 -56.0040 -55.9727 -55.9484
   -55.8923 -55.8786 -55.8565 -55.8429 -55.7624 -55.7580 -55.0605 -55.0599
   -32.5003 -32.4968 -32.4334 -32.4235 -32.4163 -32.4106 -32.4005 -32.3989
   -32.3376 -32.3369 -32.3335 -32.3040 -32.3018 -32.2854 -32.2709 -32.2572
   -32.2492 -32.2478 -32.2349 -32.2327 -32.2203 -32.2088 -32.1942 -32.1843
   -32.1760 -32.1676 -32.1643 -32.1590 -32.1424 -32.1075 -32.0873 -32.0854
   -32.0842 -32.0662 -32.0654 -32.0596 -32.0485 -32.0207 -32.0176 -31.9908
   -31.9486 -31.9464 -31.3862 -31.3854 -31.2977 -31.2969 -31.2579 -31.2571
   -16.5547 -16.3595 -16.3132 -16.0814 -16.0661 -16.0232 -15.9459 -15.8931
   -15.8878 -15.8634 -15.8558 -15.7961 -15.7857 -15.7733 -15.7453 -15.6483
   -15.6467 -15.6349 -15.6162 -15.5547 -15.5391 -15.5045 -15.4739 -15.4647
   -15.4381 -15.4103 -15.3801 -15.3581 -15.2956 -15.2796 -13.5673 -13.5666
   -11.3088  -5.2883  -4.5690  -3.6985  -3.6471  -3.5984  -3.2943  -3.2764
    -3.2476  -3.1331  -3.0650  -3.0390  -3.0061  -2.9772  -2.9415  -2.9301
    -2.9152  -2.9109  -2.9028  -2.9000  -2.8685  -2.8384  -2.8231  -2.7762
    -2.7486  -2.7400  -2.7238  -2.7074  -2.7028  -2.6531  -2.6493  -2.6445
    -2.6359  -2.5190  -2.3858  -2.3687  -2.3305  -2.2116  -2.1882  -2.1823
    -2.1527  -2.1416  -2.1359  -2.0790  -1.9744  -1.8693  -1.8202  -1.7996
    -1.7758  -1.7137  -1.5961  -1.5461  -1.5356  -1.5045  -1.4428  -1.4228
    -1.3717  -1.3659  -1.2607  -1.2340  -1.2105  -1.1360  -1.0749  -1.0572
    -1.0349  -0.9753  -0.9282  -0.9077  -0.9011  -0.8537  -0.7532  -0.7444
    -0.6957  -0.6852  -0.6327  -0.6272  -0.5740  -0.4454  -0.2048  -0.1666
    -0.0942  -0.0717   0.0205   0.0522   0.0793   0.1743   0.2025   0.3040
     0.3445   0.4392   0.4462   0.4618   0.5044   0.6692   1.3072   1.3098
     1.3835   1.3898   1.5621   3.2127   3.2500   3.2748   3.3386   3.5189
     3.5426   3.5434   3.5581   3.5902   3.6531

     the Fermi energy is     3.0146 ev

!    total energy              =   -2927.71117496 Ry
     estimated scf accuracy    <       0.00000006 Ry
     smearing contrib. (-TS)   =      -0.02327439 Ry
     internal energy E=F+TS    =   -2927.68790058 Ry

     The total energy is F=E-TS. E is the sum of the following terms:
     one-electron contribution =  -24559.88716976 Ry
     hartree contribution      =   12363.12911531 Ry
     xc contribution           =    -481.66045782 Ry
     ewald contribution        =    9750.73021315 Ry
     electric field correction =       0.00039854 Ry

     convergence has been achieved in  49 iterations

     Forces acting on atoms (cartesian axes, Ry/au):

     atom    1 type  1   force =     0.00026235    0.00110981    0.11030146
     atom    2 type  1   force =     0.00006421    0.00172228   -0.17423346
     atom    3 type  2   force =     0.00010558    0.00665749   -0.03420713
     atom    4 type  2   force =     0.00001260   -0.00085959    0.05077899
     atom    5 type  2   force =    -0.01745535   -0.00134994    0.00575257
     atom    6 type  2   force =     0.01690587   -0.00101948    0.00537753
     atom    7 type  1   force =     0.00007129    0.00261656   -0.01787032
     atom    8 type  1   force =    -0.00002036    0.00011887    0.00032231
     atom    9 type  2   force =    -0.00001315    0.00009224   -0.00039770
     atom   10 type  2   force =     0.00000125   -0.00051081   -0.00009986
     atom   11 type  2   force =     0.00009389   -0.00025345   -0.00007292
     atom   12 type  2   force =    -0.00008935   -0.00036265   -0.00023390
     atom   13 type  1   force =    -0.00038119   -0.00034434    0.00005516
     atom   14 type  1   force =    -0.00076087    0.00008301   -0.00013652
     atom   15 type  2   force =    -0.00010052   -0.00029365    0.00064310
     atom   16 type  2   force =     0.00011014   -0.00014676   -0.00030742
     atom   17 type  2   force =     0.00009772   -0.00025462    0.00053600
     atom   18 type  2   force =     0.00098859   -0.00046307    0.00054698
     atom   19 type  1   force =    -0.00001872    0.00039282    0.00008169
     atom   20 type  1   force =    -0.00014133   -0.00090009    0.00124347
     atom   21 type  2   force =     0.00009567    0.00005881    0.10311699
     atom   22 type  2   force =     0.00007088    0.00048265   -0.00159953
     atom   23 type  2   force =    -0.07113973    0.00061343   -0.03028822
     atom   24 type  2   force =     0.07110495    0.00102860   -0.03029513
     atom   25 type  1   force =     0.00005029   -0.00110594    0.11748514
     atom   26 type  1   force =     0.00004582   -0.00255459   -0.17407430
     atom   27 type  2   force =     0.00006644   -0.00281060   -0.02991078
     atom   28 type  2   force =     0.00002538   -0.00148720    0.05394012
     atom   29 type  2   force =    -0.01860833    0.00056901    0.00664720
     atom   30 type  2   force =     0.01808707    0.00124176    0.00629261
     atom   31 type  1   force =     0.00039826   -0.00270986   -0.01223500
     atom   32 type  1   force =    -0.00000810    0.00038313    0.00069304
     atom   33 type  2   force =     0.00002448   -0.00009037   -0.00046230
     atom   34 type  2   force =     0.00006842    0.00032361    0.00037469
     atom   35 type  2   force =     0.00000642    0.00006044   -0.00031229
     atom   36 type  2   force =     0.00006727    0.00001154   -0.00034423
     atom   37 type  1   force =    -0.00049814   -0.00041917    0.00096873
     atom   38 type  1   force =    -0.00070550    0.00002308   -0.00014870
     atom   39 type  2   force =    -0.00013410   -0.00064816   -0.00041668
     atom   40 type  2   force =     0.00001056   -0.00010292   -0.00062062
     atom   41 type  2   force =    -0.00030403    0.00016242    0.00046478
     atom   42 type  2   force =     0.00083818    0.00035495    0.00005335
     atom   43 type  1   force =     0.00030321   -0.00019744    0.00001895
     atom   44 type  1   force =     0.00048099    0.00068100    0.00065152
     atom   45 type  2   force =     0.00007676    0.00013600    0.10303585
     atom   46 type  2   force =    -0.07143471   -0.00054821   -0.03021202
     atom   47 type  2   force =     0.07139802   -0.00010728   -0.03026466
     atom   48 type  3   force =     0.00056927    0.00030375   -0.00024836
     atom   49 type  4   force =     0.00006953   -0.00039596    0.00047215
     atom   50 type  4   force =    -0.00401291    0.01311320   -0.00270796
     atom   51 type  3   force =     0.00435073   -0.01370937    0.00129092
     atom   52 type  3   force =    -0.00109569    0.00130505    0.00055471

     Total force =     0.376567     Total SCF correction =     0.001021
  @ DRIVER MODE: Message from server: STATUS
  @ DRIVER MODE: Message from server: GETFORCE
  @ DRIVER MODE: Returning v,forces,stress,ensemble

     Writing output data file ./calc.save/
  @ DRIVER MODE: Message from server: EXIT
  @ DRIVE MODE: Exiting

     General routines

     Parallel routines

   This run was terminated on:  16:38: 2  12Oct2021

   JOB DONE.