     Program PWSCF v.6.7GPU starts on 23Aug2021 at 15:19:41

     R & G space division:  proc/nbgrp/npool/nimage =       6
     Reading input from /storage/home/hcoda1/3/ntian30/research/carbon/CH_vib/ads_slab/CHNNHHH_a/out_0005/pw.inp
Warning: card &CELL ignored
Warning: card   CELL_DYNAMICS='IPI', ignored
Warning: card / ignored

     Current dimensions of program PWSCF are:
     Max number of different atomic species (ntypx) = 10
     Max number of k-points (npk) =  40000
     Max angular momentum in pseudopotentials (lmaxx) =  3
     Presently no symmetry can be used with electric field

     Message from routine cell_base_init:
     DEPRECATED: use true lattice parameter, not A to a.u. conversion factor

     IMPORTANT: XC functional enforced from input :
     Exchange-correlation= BEEF-VDW
                           (   1   4  43  14   2   0   0)
     Any further DFT definition will be discarded
     Please, verify this is what you really want

  @ DRIVER MODE: Connecting to
 qe_1139763_2632795.sched-torque.pace.gatech.educa2arr25_scratch
  using UNIX socket
  @ DRIVER MODE: Message from server: STATUS
  @ DRIVER MODE: Message from server: INIT
  @ DRIVER MODE: Receiving replica           0          -1
  @ DRIVER MODE: Receiving encoded integer          25
  @ DRIVER MODE:  SCF:  T  FORCE:  T  STRESS:  F  VC:  F  ENSEMBLE:  F
  @ DRIVER MODE:  SCF:  T  FORCE:  T  STRESS:  F  VC:  F  ENSEMBLE:  F

     Using Slab Decomposition

     bravais-lattice index     =            0
     lattice parameter (alat)  =       1.8897  a.u.
     unit-cell volume          =    6658.9804 (a.u.)^3
     number of atoms/cell      =           54
     number of atomic types    =            5
     number of electrons       =       396.00
     number of Kohn-Sham states=          208
     kinetic-energy cutoff     =      29.3995  Ry
     charge density cutoff     =     293.9946  Ry
     scf convergence threshold =      7.3E-08
     mixing beta               =       0.0500
     number of iterations used =            8  plain     mixing
     Exchange-correlation= BEEF-VDW
                           (   1   4  43  14   2   0   0)

     celldm(1)=   1.889726  celldm(2)=   0.000000  celldm(3)=   0.000000
     celldm(4)=   0.000000  celldm(5)=   0.000000  celldm(6)=   0.000000

     crystal axes: (cart. coord. in units of alat)
               a(1) = (   6.579727   0.000000   0.000000 )
               a(2) = (  -0.000775   5.961596   0.000000 )
               a(3) = (   0.000000   0.000000  25.155947 )

     reciprocal axes: (cart. coord. in units 2 pi/alat)
               b(1) = (  0.151982  0.000020  0.000000 )
               b(2) = (  0.000000  0.167740  0.000000 )
               b(3) = (  0.000000  0.000000  0.039752 )

     PseudoPot. # 1 for Ti read from file:
     /storage/coda1/p-amedford6/0/shared/rich_project_chbe-medford/medford-share/data/pseudos_module/espresso/nninc/pbe/van/Ti.UPF
     MD5 check sum: 8e4df49b7f0d34bbd5052bf3f5ea0213
     Pseudo is Ultrasoft, Zval = 12.0
     Generated by new atomic code, or converted to UPF format
     Using radial grid of  851 points,  6 beta functions with:
                l(1) =   0
                l(2) =   0
                l(3) =   1
                l(4) =   1
                l(5) =   2
                l(6) =   2
     Q(r) pseudized with  8 coefficients,  rinner =    1.000   1.000   1.000
                                                       1.000   1.000

     PseudoPot. # 2 for O  read from file:
     /storage/coda1/p-amedford6/0/shared/rich_project_chbe-medford/medford-share/data/pseudos_module/espresso/nninc/pbe/van/O.UPF
     MD5 check sum: 78c19812648e8988a0fe644b0f25305e
     Pseudo is Ultrasoft, Zval =  6.0
     Generated by new atomic code, or converted to UPF format
     Using radial grid of  737 points,  4 beta functions with:
                l(1) =   0
                l(2) =   0
                l(3) =   1
                l(4) =   1
     Q(r) pseudized with  8 coefficients,  rinner =    0.800   0.800   0.800

     PseudoPot. # 3 for N  read from file:
     /storage/coda1/p-amedford6/0/shared/rich_project_chbe-medford/medford-share/data/pseudos_module/espresso/nninc/pbe/van/N.UPF
     MD5 check sum: 90d10febe142ad51ac9d5be1deb811c4
     Pseudo is Ultrasoft, Zval =  5.0
     Generated by new atomic code, or converted to UPF format
     Using radial grid of  729 points,  4 beta functions with:
                l(1) =   0
                l(2) =   0
                l(3) =   1
                l(4) =   1
     Q(r) pseudized with  8 coefficients,  rinner =    0.800   0.800   0.800

     PseudoPot. # 4 for C  read from file:
     /storage/coda1/p-amedford6/0/shared/rich_project_chbe-medford/medford-share/data/pseudos_module/espresso/nninc/pbe/van/C.UPF
     MD5 check sum: 1a69bf6b8db32088f5b2163dbdb77a27
     Pseudo is Ultrasoft, Zval =  4.0
     Generated by new atomic code, or converted to UPF format
     Using radial grid of  721 points,  4 beta functions with:
                l(1) =   0
                l(2) =   0
                l(3) =   1
                l(4) =   1
     Q(r) pseudized with  8 coefficients,  rinner =    0.800   0.800   0.800

     PseudoPot. # 5 for H  read from file:
     /storage/coda1/p-amedford6/0/shared/rich_project_chbe-medford/medford-share/data/pseudos_module/espresso/nninc/pbe/van/H.UPF
     MD5 check sum: b5ee9d7bfd3a09ee7748110bda690ff7
     Pseudo is Ultrasoft, Zval =  1.0
     Generated by new atomic code, or converted to UPF format
     Using radial grid of  615 points,  1 beta functions with:
                l(1) =   0
     Q(r) pseudized with  8 coefficients,  rinner =    0.800

     atomic species   valence    mass     pseudopotential
        Ti1           12.00    47.86700     Ti( 1.00)
        O1             6.00    15.99900     O ( 1.00)
        N1             5.00    14.00700     N ( 1.00)
        C1             4.00    12.01100     C ( 1.00)
        H1             1.00     1.00800     H ( 1.00)

     No symmetry found

   Cartesian axes

     site n.     atom                  positions (alat units)
         1           Ti1 tau(   1) = (   0.0004258   2.9801865   6.0000000  )
         2           Ti1 tau(   2) = (   3.2906075   1.4906267   6.0002472  )
         3           O1  tau(   3) = (   0.0006271   0.0005054   7.9858123  )
         4           O1  tau(   4) = (   3.2906025   0.0005020   7.3038282  )
         5           O1  tau(   5) = (   4.5942328   1.4918067   9.2879030  )
         6           O1  tau(   6) = (   1.9868534   1.4903216   9.2879459  )
         7           Ti1 tau(   7) = (   3.2907910   2.8959150   9.1758416  )
         8           Ti1 tau(   8) = (   0.0015273   1.4827037   9.2680791  )
         9           O1  tau(   9) = (   3.3116888   5.9365513  11.3741315  )
        10           O1  tau(  10) = (   0.0116148   5.9584955  10.6183126  )
        11           O1  tau(  11) = (   1.3152863   1.4773744  12.6583839  )
        12           O1  tau(  12) = (   5.3185463   1.4781915  12.6604289  )
        13           Ti1 tau(  13) = (   0.0312267   2.9553392  12.5172039  )
        14           Ti1 tau(  14) = (   3.3247105   1.4628205  12.5237724  )
        15           O1  tau(  15) = (   0.0176705   0.0150782  14.7085838  )
        16           O1  tau(  16) = (   3.3263678   5.9469243  13.9928752  )
        17           O1  tau(  17) = (   4.5829619   1.4750097  16.2211409  )
        18           O1  tau(  18) = (   2.0801478   1.4636096  16.1819230  )
        19           Ti1 tau(  19) = (   3.3264833   2.9461821  15.7545810  )
        20           Ti1 tau(  20) = (   0.0064452   1.3478264  16.0581623  )
        21           O1  tau(  21) = (   3.2904802   0.0005063   4.7018136  )
        22           O1  tau(  22) = (   0.0393124   5.8647722  17.2449945  )
        23           O1  tau(  23) = (   1.3043587   1.4918075   6.0039043  )
        24           O1  tau(  24) = (   5.2767064   1.4903225   6.0039473  )
        25           Ti1 tau(  25) = (   0.0000382   5.9609847   6.0000000  )
        26           Ti1 tau(  26) = (   3.2902200   4.4714249   6.0002472  )
        27           O1  tau(  27) = (   0.0002396   2.9813036   7.9858123  )
        28           O1  tau(  28) = (   3.2902150   2.9813002   7.3038282  )
        29           O1  tau(  29) = (   4.5938453   4.4726049   9.2879030  )
        30           O1  tau(  30) = (   1.9864658   4.4711199   9.2879459  )
        31           Ti1 tau(  31) = (   3.2891106   5.8743827   9.1763621  )
        32           Ti1 tau(  32) = (   0.0006254   4.4649316   9.2693709  )
        33           O1  tau(  33) = (   3.3126387   2.9639063  11.3704323  )
        34           O1  tau(  34) = (   0.0092240   2.9805883  10.6323155  )
        35           O1  tau(  35) = (   1.3140505   4.4512041  12.6779488  )
        36           O1  tau(  36) = (   5.3186431   4.4503656  12.6784002  )
        37           Ti1 tau(  37) = (   0.0306983   5.9434578  12.5012515  )
        38           Ti1 tau(  38) = (   3.3249252   4.4426326  12.5284913  )
        39           O1  tau(  39) = (   0.0332616   2.9308952  14.9693926  )
        40           O1  tau(  40) = (   3.3269026   2.9510973  13.9662216  )
        41           O1  tau(  41) = (   4.5816979   4.4256876  16.1885362  )
        42           O1  tau(  42) = (   2.0739833   4.4348339  16.1471384  )
        43           Ti1 tau(  43) = (   3.3139036   5.9323143  15.7909994  )
        44           Ti1 tau(  44) = (   0.0257917   4.5791344  15.8913375  )
        45           O1  tau(  45) = (   3.2900926   2.9813045   4.7018136  )
        46           O1  tau(  46) = (   1.3039711   4.4726057   6.0039043  )
        47           O1  tau(  47) = (   5.2763189   4.4711207   6.0039473  )
        48           N1  tau(  48) = (   0.2611162   2.7486399  18.0284573  )
        49           C1  tau(  49) = (   1.0666652   3.1333113  18.7681872  )
        50           H1  tau(  50) = (   1.9496291   3.4674532  19.3170853  )
        51           N1  tau(  51) = (   3.9312863   3.7371558  19.5917579  )
        52           H1  tau(  52) = (   4.2637485   4.0673035  20.4913501  )
        53           H1  tau(  53) = (   4.3024207   4.3757745  18.8906580  )
        54           H1  tau(  54) = (   4.4024832   2.8518033  19.4177320  )

     number of k points=    10  Fermi-Dirac smearing, width (Ry)=  0.0073
                       cart. coord. in units 2pi/alat
        k(    1) = (   0.0000000   0.0000000   0.0000000), wk =   0.1250000
        k(    2) = (   0.0000000   0.0419351   0.0000000), wk =   0.2500000
        k(    3) = (   0.0000000  -0.0838702   0.0000000), wk =   0.1250000
        k(    4) = (   0.0379955   0.0000049   0.0000000), wk =   0.2500000
        k(    5) = (   0.0379955   0.0419400   0.0000000), wk =   0.2500000
        k(    6) = (   0.0379955  -0.0838652   0.0000000), wk =   0.2500000
        k(    7) = (   0.0379955  -0.0419301   0.0000000), wk =   0.2500000
        k(    8) = (  -0.0759910  -0.0000099   0.0000000), wk =   0.1250000
        k(    9) = (  -0.0759910   0.0419252   0.0000000), wk =   0.2500000
        k(   10) = (  -0.0759910  -0.0838800   0.0000000), wk =   0.1250000

     Initial potential from superposition of free atoms

     starting charge  379.99915, renormalised to  396.00000

     negative rho (up, down):  1.480E-02 0.000E+00

     %%%%%%%%%%%%%%%%%%%%%%%%%%%%%%%%%%%%%%%%%%%%%%%%%%%%%%%%%%%%%%%%%%%%%%%%
     %                                                                      %
     % You are using vdW-DF, which was implemented by the Thonhauser group. %
     % Please cite the following two papers that made this development      %
     % possible and the two reviews that describe the various versions:     %
     %                                                                      %
     %   T. Thonhauser et al., PRL 115, 136402 (2015).                      %
     %   T. Thonhauser et al., PRB 76, 125112 (2007).                       %
     %   K. Berland et al., Rep. Prog. Phys. 78, 066501 (2015).             %
     %   D.C. Langreth et al., J. Phys.: Condens. Matter 21, 084203 (2009). %
     %                                                                      %
     %                                                                      %
     % If you are calculating the stress with vdW-DF, please also cite:     %
     %                                                                      %
     %   R. Sabatini et al., J. Phys.: Condens. Matter 24, 424209 (2012).   %
     %                                                                      %
     %%%%%%%%%%%%%%%%%%%%%%%%%%%%%%%%%%%%%%%%%%%%%%%%%%%%%%%%%%%%%%%%%%%%%%%%

     Adding external electric field

     Computed dipole along edir(3) :
        Dipole              -10.3131 Ry au,        -26.2133 Debye
        Dipole field         -0.0195 Ry au,

        Potential amp.        1.8041 Ry
        Total length         46.3494 bohr

     Starting wfcs are  300 atomic wfcs
  @ DRIVER MODE: Message from server: STATUS
  @ DRIVER MODE: Message from server: POSDATA
  @ DRIVER MODE: Reading and sharing cell
  @ DRIVER MODE: Reading and sharing positions
  @ DRIVER MODE: Received positions

     Self-consistent Calculation

     iteration #  1     ecut=    29.40 Ry     beta= 0.05
     Davidson diagonalization with overlap
     c_bands:  1 eigenvalues not converged
     c_bands:  2 eigenvalues not converged
     c_bands:  2 eigenvalues not converged
     c_bands:  1 eigenvalues not converged
     c_bands:  3 eigenvalues not converged
     c_bands:  2 eigenvalues not converged
     c_bands:  3 eigenvalues not converged
     c_bands:  2 eigenvalues not converged
     c_bands:  2 eigenvalues not converged
     c_bands:  2 eigenvalues not converged
     ethr =  1.00E-05,  avg # of iterations = 20.0

[...]

     total energy              =   -2525.21057499 Ry
     estimated scf accuracy    <    4647.12209562 Ry

     iteration #  2     ecut=    29.40 Ry     beta= 0.05
     Davidson diagonalization with overlap
     ethr =  1.00E-02,  avg # of iterations = 24.7

[...]

     iteration # 70     ecut=    29.40 Ry     beta= 0.05
     Davidson diagonalization with overlap
     c_bands:  1 eigenvalues not converged
     ethr =  9.76E-11,  avg # of iterations =  7.8

[...]

     total energy              =   -2940.41293075 Ry
     estimated scf accuracy    <       0.00000008 Ry

     iteration # 73     ecut=    29.40 Ry     beta= 0.05
     Davidson diagonalization with overlap
     ethr =  2.14E-11,  avg # of iterations = 12.2

     negative rho (up, down):  1.578E-02 0.000E+00

     Adding external electric field

     Computed dipole along edir(3) :
        Dipole                1.4853 Ry au,          3.7753 Debye
        Dipole field          0.0028 Ry au,

        Potential amp.       -0.2598 Ry
        Total length         46.3494 bohr

     End of self-consistent calculation

          k = 0.0000 0.0000 0.0000 ( 18029 PWs)   bands (ev):

   -55.2565 -55.2206 -55.2080 -55.1739 -55.1336 -55.1252 -55.0983 -55.0953
   -55.0740 -55.0545 -55.0396 -55.0370 -55.0033 -54.9823 -54.2358 -54.2017
   -31.8250 -31.7003 -31.6990 -31.6213 -31.5656 -31.5635 -31.5547 -31.5423
   -31.4970 -31.4838 -31.4652 -31.4615 -31.4526 -31.4277 -31.4116 -31.4055
   -31.3928 -31.3793 -31.3708 -31.3680 -31.3604 -31.3475 -31.3217 -31.3142
   -31.3114 -31.3046 -31.2765 -31.2707 -31.2651 -31.2638 -31.2553 -31.2363
   -31.2353 -31.2264 -31.2233 -31.2216 -31.1878 -31.1848 -31.1697 -31.1649
   -31.1480 -31.0914 -30.6450 -30.5511 -30.5290 -30.4615 -30.3747 -30.2637
   -16.7138 -16.0802 -15.8103 -15.6665 -15.5611 -15.4517 -15.3354 -15.3160
   -15.1794 -15.1497 -15.0911 -14.9721 -14.9200 -14.9016 -14.8874 -14.8719
   -14.8662 -14.7970 -14.7919 -14.7683 -14.7482 -14.7354 -14.6926 -14.6908
   -14.6502 -14.6294 -14.5806 -14.4937 -14.4112 -14.3418 -14.0147 -12.7383
   -12.6209  -7.9903  -5.2475  -5.0413  -4.0295  -3.4198  -3.2696  -3.1733
    -3.1475  -3.1292  -3.0017  -2.8527  -2.8269  -2.7270  -2.6366  -2.5838
    -2.5031  -2.4574  -2.4445  -2.4266  -2.2438  -2.2242  -2.1711  -2.1248
    -2.0951  -2.0604  -2.0400  -2.0197  -2.0021  -1.9941  -1.9250  -1.8161
    -1.7754  -1.7282  -1.6768  -1.6519  -1.5976  -1.5775  -1.5414  -1.5351
    -1.5337  -1.4864  -1.4587  -1.4368  -1.3580  -1.2741  -1.1593  -1.1077
    -0.9512  -0.8913  -0.8348  -0.8221  -0.7572  -0.7392  -0.7070  -0.6332
    -0.6223  -0.5922  -0.4736  -0.3793  -0.3406  -0.3266  -0.2711  -0.2360
    -0.2080  -0.1599  -0.0626  -0.0339  -0.0166  -0.0122   0.1389   0.1515
     0.2221   0.2683   0.2897   0.2903   0.4052   0.4210   0.4920   0.5304
     0.5668   0.6387   0.6788   0.6946   0.6978   0.7314   0.7344   0.8254
     0.8492   0.8565   0.9283   1.0784   1.3074   1.3532   1.3597   1.6934
     1.6952   1.7871   1.9707   2.3630   2.4111   3.8422   3.9138   3.9880
     3.9945   4.0217   4.0804   4.3220   4.3319   4.3447   4.3479   4.3903

[...]

          k = 0.0380-0.0419 0.0000 ( 17876 PWs)   bands (ev):

[...]

          k =-0.0760-0.0000 0.0000 ( 17886 PWs)   bands (ev):

[...]

          k =-0.0760-0.0839 0.0000 ( 17948 PWs)   bands (ev):

   -55.2386 -55.2383 -55.1910 -55.1907 -55.1205 -55.1200 -55.1118 -55.0924
   -55.0588 -55.0578 -55.0553 -55.0205 -55.0200 -54.9852 -54.2187 -54.2187
   -31.6288 -31.6283 -31.6220 -31.5271 -31.5155 -31.5152 -31.5145 -31.4823
   -31.4822 -31.4637 -31.4565 -31.4508 -31.4462 -31.3951 -31.3908 -31.3882
   -31.3875 -31.3874 -31.3820 -31.3764 -31.3486 -31.3474 -31.3330 -31.3292
   -31.3280 -31.3216 -31.3136 -31.3106 -31.3104 -31.3040 -31.2909 -31.2883
   -31.2788 -31.2708 -31.2683 -31.2517 -31.2504 -31.2458 -31.2010 -31.2008
   -31.1916 -31.1841 -30.5417 -30.5416 -30.4576 -30.4575 -30.4181 -30.4181
   -16.7040 -15.6095 -15.4966 -15.4556 -15.2683 -15.2597 -15.2290 -15.2164
   -15.1558 -15.0651 -15.0375 -15.0275 -15.0151 -14.9625 -14.9574 -14.9515
   -14.9281 -14.8595 -14.8510 -14.8491 -14.8320 -14.7662 -14.7615 -14.7571
   -14.7462 -14.7032 -14.7003 -14.6059 -14.6039 -14.5058 -14.3814 -12.7224
   -12.7224  -7.9870  -5.2427  -5.0518  -4.0169  -2.7797  -2.7608  -2.7171
    -2.7018  -2.6929  -2.4797  -2.4563  -2.4199  -2.3684  -2.3072  -2.2569
    -2.2473  -2.2320  -2.1649  -2.1251  -2.1089  -2.0957  -2.0775  -2.0619
    -2.0474  -2.0213  -1.9801  -1.9725  -1.9491  -1.9296  -1.9005  -1.8921
    -1.8608  -1.8404  -1.8242  -1.8070  -1.6908  -1.6656  -1.6098  -1.5692
    -1.5276  -1.4584  -1.4532  -1.3555  -1.3478  -1.2939  -1.2823  -1.2544
    -1.1605  -1.0625  -1.0009  -0.9958  -0.9892  -0.8611  -0.8245  -0.7985
    -0.7635  -0.7353  -0.6733  -0.5967  -0.5761  -0.5410  -0.4569  -0.4492
    -0.3923  -0.3178  -0.2782  -0.2471  -0.2169  -0.2108  -0.1997  -0.1475
    -0.1410  -0.0696  -0.0202   0.0131   0.0243   0.0592   0.2648   0.2802
     0.3340   0.4315   0.5070   0.6256   0.6837   0.7045   0.7755   0.8163
     0.8585   0.9216   1.0257   1.0543   1.0565   1.1313   1.1631   1.2047
     1.2088   2.1441   2.1444   2.2310   2.2312   3.9857   4.0801   4.1026
     4.1506   4.2398   4.2733   4.3599   4.3775   4.4275   4.4293   4.4974

     the Fermi energy is     3.9052 ev

!    total energy              =   -2940.41295024 Ry
     estimated scf accuracy    <       0.00000005 Ry
     smearing contrib. (-TS)   =      -0.03732801 Ry
     internal energy E=F+TS    =   -2940.37562224 Ry

     The total energy is F=E-TS. E is the sum of the following terms:
     one-electron contribution =  -23555.53844913 Ry
     hartree contribution      =   11870.44772608 Ry
     xc contribution           =    -485.95629672 Ry
     ewald contribution        =    9230.66723415 Ry
     electric field correction =       0.00416338 Ry

     convergence has been achieved in  73 iterations

     Forces acting on atoms (cartesian axes, Ry/au):

     atom    1 type  1   force =    -0.00002816   -0.00017832    0.09333593
     atom    2 type  1   force =    -0.00015353   -0.00021262   -0.17810599
     atom    3 type  2   force =     0.00006572   -0.00020750   -0.02049518
     atom    4 type  2   force =     0.00000481   -0.00194942    0.05847528
     atom    5 type  2   force =    -0.01029831   -0.00134737    0.00734663
     atom    6 type  2   force =     0.01229558   -0.00074991    0.00784155
     atom    7 type  1   force =     0.00036523    0.00277993   -0.01406560
     atom    8 type  1   force =    -0.00055388    0.00106649   -0.00335459
     atom    9 type  2   force =     0.00003949    0.00049837   -0.00009083
     atom   10 type  2   force =    -0.00055140   -0.00103670   -0.00008189
     atom   11 type  2   force =     0.00009140    0.00011201    0.00000922
     atom   12 type  2   force =    -0.00025995    0.00016221   -0.00009998
     atom   13 type  1   force =    -0.00002213    0.00090437   -0.00014294
     atom   14 type  1   force =     0.00010420    0.00025266   -0.00010873
     atom   15 type  2   force =    -0.00008330   -0.00007866    0.00069215
     atom   16 type  2   force =     0.00005174    0.00010923   -0.00009275
     atom   17 type  2   force =     0.00006338   -0.00033251   -0.00002778
     atom   18 type  2   force =     0.00013533   -0.00059408   -0.00068234
     atom   19 type  1   force =    -0.00069801   -0.00026038    0.00021493
     atom   20 type  1   force =    -0.00027604    0.00102246    0.00011797
     atom   21 type  2   force =    -0.00002110    0.00000298    0.10390212
     atom   22 type  2   force =    -0.00031030   -0.00068967   -0.00095296
     atom   23 type  2   force =    -0.07044733   -0.00008122   -0.02689875
     atom   24 type  2   force =     0.07028899    0.00035281   -0.02695023
     atom   25 type  1   force =     0.00004719   -0.00006435    0.09295708
     atom   26 type  1   force =    -0.00016115   -0.00017765   -0.17816023
     atom   27 type  2   force =     0.00012554   -0.00033415   -0.01951066
     atom   28 type  2   force =     0.00003434   -0.00168148    0.05805032
     atom   29 type  2   force =    -0.01040894   -0.00124560    0.00691861
     atom   30 type  2   force =     0.01229422   -0.00091834    0.00742784
     atom   31 type  1   force =     0.00034660    0.00516242   -0.01509834
     atom   32 type  1   force =    -0.00047200   -0.00162036   -0.00357493
     atom   33 type  2   force =    -0.00019287   -0.00021803   -0.00021125
     atom   34 type  2   force =     0.00029198   -0.00052361    0.00101632
     atom   35 type  2   force =    -0.00039585    0.00004941    0.00019555
     atom   36 type  2   force =     0.00033173   -0.00002797    0.00026095
     atom   37 type  1   force =    -0.00011434   -0.00044097    0.00011984
     atom   38 type  1   force =     0.00013102    0.00033853   -0.00025524
     atom   39 type  2   force =    -0.00037106   -0.00035464    0.00075040
     atom   40 type  2   force =     0.00006745    0.00007397   -0.00023861
     atom   41 type  2   force =    -0.00016573    0.00025716   -0.00035853
     atom   42 type  2   force =     0.00011913    0.00011797   -0.00054866
     atom   43 type  1   force =    -0.00088806   -0.00013305    0.00018577
     atom   44 type  1   force =     0.00014555    0.00028879    0.00016227
     atom   45 type  2   force =    -0.00001037    0.00001099    0.10387823
     atom   46 type  2   force =    -0.07047273   -0.00004689   -0.02690359
     atom   47 type  2   force =     0.07029921    0.00039487   -0.02697128
     atom   48 type  3   force =     0.01957844    0.00856760    0.01909635
     atom   49 type  4   force =    -0.02069860   -0.00875868   -0.01944463
     atom   50 type  5   force =     0.00048628   -0.00000358    0.00125909
     atom   51 type  3   force =    -0.00002594   -0.00109470   -0.00109572
     atom   52 type  5   force =     0.00070419    0.00087089    0.00089537
     atom   53 type  5   force =     0.00016437    0.00048427   -0.00050107
     atom   54 type  5   force =    -0.00059205    0.00148202   -0.00008648

     Total force =     0.368330     Total SCF correction =     0.000545
  @ DRIVER MODE: Message from server: STATUS
  @ DRIVER MODE: Message from server: GETFORCE
  @ DRIVER MODE: Returning v,forces,stress,ensemble

     Writing output data file ./calc.save/
  @ DRIVER MODE: Message from server: EXIT
  @ DRIVE MODE: Exiting

     General routines

     Parallel routines

   This run was terminated on:  15:51:55  23Aug2021

   JOB DONE.