     Program PWSCF v.6.7GPU starts on 16Jul2021 at  8: 6:50

     R & G space division:  proc/nbgrp/npool/nimage =      16
     Reading input from /storage/home/hcoda1/3/ntian30/research/carbon/15Jul_vib/ads_slab/CH3N2_b/out_0026/pw.inp
Warning: card &CELL ignored
Warning: card   CELL_DYNAMICS='IPI', ignored
Warning: card / ignored

     Current dimensions of program PWSCF are:
     Max number of different atomic species (ntypx) = 10
     Max number of k-points (npk) =  40000
     Max angular momentum in pseudopotentials (lmaxx) =  3
     Presently no symmetry can be used with electric field

     Message from routine cell_base_init:
     DEPRECATED: use true lattice parameter, not A to a.u. conversion factor

     IMPORTANT: XC functional enforced from input :
     Exchange-correlation= BEEF-VDW
                           (   1   4  43  14   2   0   0)
     Any further DFT definition will be discarded
     Please, verify this is what you really want

  @ DRIVER MODE: Connecting to
 qe_1139763_2351645.sched-torque.pace.gatech.edu42l1ve1e_scratch
  using UNIX socket
  @ DRIVER MODE: Message from server: STATUS
  @ DRIVER MODE: Message from server: INIT
  @ DRIVER MODE: Receiving replica           0          -1
  @ DRIVER MODE: Receiving encoded integer          25
  @ DRIVER MODE:  SCF:  T  FORCE:  T  STRESS:  F  VC:  F  ENSEMBLE:  F
  @ DRIVER MODE:  SCF:  T  FORCE:  T  STRESS:  F  VC:  F  ENSEMBLE:  F

     Using Slab Decomposition

     bravais-lattice index     =            0
     lattice parameter (alat)  =       1.8897  a.u.
     unit-cell volume          =    6658.9804 (a.u.)^3
     number of atoms/cell      =           53
     number of atomic types    =            5
     number of electrons       =       395.00
     number of Kohn-Sham states=          207
     kinetic-energy cutoff     =      29.3995  Ry
     charge density cutoff     =     293.9946  Ry
     scf convergence threshold =      7.3E-08
     mixing beta               =       0.0500
     number of iterations used =            8  plain     mixing
     Exchange-correlation= BEEF-VDW
                           (   1   4  43  14   2   0   0)

     celldm(1)=   1.889726  celldm(2)=   0.000000  celldm(3)=   0.000000
     celldm(4)=   0.000000  celldm(5)=   0.000000  celldm(6)=   0.000000

     crystal axes: (cart. coord. in units of alat)
               a(1) = (   6.579727   0.000000   0.000000 )
               a(2) = (  -0.000775   5.961596   0.000000 )
               a(3) = (   0.000000   0.000000  25.155947 )

     reciprocal axes: (cart. coord. in units 2 pi/alat)
               b(1) = (  0.151982  0.000020  0.000000 )
               b(2) = (  0.000000  0.167740  0.000000 )
               b(3) = (  0.000000  0.000000  0.039752 )

     PseudoPot. # 1 for Ti read from file:
     /storage/coda1/p-amedford6/0/shared/rich_project_chbe-medford/medford-share/data/pseudos_module/espresso/nninc/pbe/van/Ti.UPF
     MD5 check sum: 8e4df49b7f0d34bbd5052bf3f5ea0213
     Pseudo is Ultrasoft, Zval = 12.0
     Generated by new atomic code, or converted to UPF format
     Using radial grid of  851 points,  6 beta functions with:
                l(1) =   0
                l(2) =   0
                l(3) =   1
                l(4) =   1
                l(5) =   2
                l(6) =   2
     Q(r) pseudized with  8 coefficients,  rinner =    1.000   1.000   1.000
                                                       1.000   1.000

     PseudoPot. # 2 for O  read from file:
     /storage/coda1/p-amedford6/0/shared/rich_project_chbe-medford/medford-share/data/pseudos_module/espresso/nninc/pbe/van/O.UPF
     MD5 check sum: 78c19812648e8988a0fe644b0f25305e
     Pseudo is Ultrasoft, Zval =  6.0
     Generated by new atomic code, or converted to UPF format
     Using radial grid of  737 points,  4 beta functions with:
                l(1) =   0
                l(2) =   0
                l(3) =   1
                l(4) =   1
     Q(r) pseudized with  8 coefficients,  rinner =    0.800   0.800   0.800

     PseudoPot. # 3 for N  read from file:
     /storage/coda1/p-amedford6/0/shared/rich_project_chbe-medford/medford-share/data/pseudos_module/espresso/nninc/pbe/van/N.UPF
     MD5 check sum: 90d10febe142ad51ac9d5be1deb811c4
     Pseudo is Ultrasoft, Zval =  5.0
     Generated by new atomic code, or converted to UPF format
     Using radial grid of  729 points,  4 beta functions with:
                l(1) =   0
                l(2) =   0
                l(3) =   1
                l(4) =   1
     Q(r) pseudized with  8 coefficients,  rinner =    0.800   0.800   0.800

     PseudoPot. # 4 for C  read from file:
     /storage/coda1/p-amedford6/0/shared/rich_project_chbe-medford/medford-share/data/pseudos_module/espresso/nninc/pbe/van/C.UPF
     MD5 check sum: 1a69bf6b8db32088f5b2163dbdb77a27
     Pseudo is Ultrasoft, Zval =  4.0
     Generated by new atomic code, or converted to UPF format
     Using radial grid of  721 points,  4 beta functions with:
                l(1) =   0
                l(2) =   0
                l(3) =   1
                l(4) =   1
     Q(r) pseudized with  8 coefficients,  rinner =    0.800   0.800   0.800

     PseudoPot. # 5 for H  read from file:
     /storage/coda1/p-amedford6/0/shared/rich_project_chbe-medford/medford-share/data/pseudos_module/espresso/nninc/pbe/van/H.UPF
     MD5 check sum: b5ee9d7bfd3a09ee7748110bda690ff7
     Pseudo is Ultrasoft, Zval =  1.0
     Generated by new atomic code, or converted to UPF format
     Using radial grid of  615 points,  1 beta functions with:
                l(1) =   0
     Q(r) pseudized with  8 coefficients,  rinner =    0.800

     atomic species   valence    mass     pseudopotential
        Ti1           12.00    47.86700     Ti( 1.00)
        O1             6.00    15.99900     O ( 1.00)
        N1             5.00    14.00700     N ( 1.00)
        C1             4.00    12.01100     C ( 1.00)
        H1             1.00     1.00800     H ( 1.00)

     Starting magnetic structure
     atomic species   magnetization
        Ti1          0.000
        O1           0.000
        N1           0.000
        C1           0.025
        H1           0.000

     No symmetry found

   Cartesian axes

     site n.     atom                  positions (alat units)
         1           Ti1 tau(   1) = (   0.0004258   2.9801865   6.0000000  )
         2           Ti1 tau(   2) = (   3.2906075   1.4906267   6.0002472  )
         3           O1  tau(   3) = (   0.0006271   0.0005054   7.9858123  )
         4           O1  tau(   4) = (   3.2906025   0.0005020   7.3038282  )
         5           O1  tau(   5) = (   4.5942328   1.4918067   9.2879030  )
         6           O1  tau(   6) = (   1.9868534   1.4903216   9.2879459  )
         7           Ti1 tau(   7) = (   3.2907910   2.8959150   9.1758416  )
         8           Ti1 tau(   8) = (   0.0015273   1.4827037   9.2680791  )
         9           O1  tau(   9) = (   3.3037365   0.0094216  11.3222111  )
        10           O1  tau(  10) = (   0.0116148   5.9584955  10.6183126  )
        11           O1  tau(  11) = (   1.3152514   1.5075076  12.6320051  )
        12           O1  tau(  12) = (   5.3186361   1.4995162  12.6508707  )
        13           Ti1 tau(  13) = (   6.5540705   2.9956815  12.5884341  )
        14           Ti1 tau(  14) = (   3.2234832   1.4927074  12.4921739  )
        15           O1  tau(  15) = (   0.0610261   5.9052480  14.6017706  )
        16           O1  tau(  16) = (   3.2936532   0.0132264  13.8830087  )
        17           O1  tau(  17) = (   4.5722397   1.5061520  16.0138922  )
        18           O1  tau(  18) = (   2.0767725   1.5295127  16.0808449  )
        19           Ti1 tau(  19) = (   3.3650854   3.0251465  15.6907462  )
        20           Ti1 tau(  20) = (   0.0387768   1.3037779  15.7216176  )
        21           O1  tau(  21) = (   3.2904802   0.0005063   4.7018136  )
        22           O1  tau(  22) = (   0.0189486   0.1070799  17.1824039  )
        23           O1  tau(  23) = (   1.3043587   1.4918075   6.0039043  )
        24           O1  tau(  24) = (   5.2767064   1.4903225   6.0039473  )
        25           Ti1 tau(  25) = (   0.0000382   5.9609847   6.0000000  )
        26           Ti1 tau(  26) = (   3.2902200   4.4714249   6.0002472  )
        27           O1  tau(  27) = (   0.0002396   2.9813036   7.9858123  )
        28           O1  tau(  28) = (   3.2902150   2.9813002   7.3038282  )
        29           O1  tau(  29) = (   4.5938453   4.4726049   9.2879030  )
        30           O1  tau(  30) = (   1.9864658   4.4711199   9.2879459  )
        31           Ti1 tau(  31) = (   3.2891106   5.8743827   9.1763621  )
        32           Ti1 tau(  32) = (   0.0006254   4.4649316   9.2693709  )
        33           O1  tau(  33) = (   3.3043114   2.9829305  11.3227053  )
        34           O1  tau(  34) = (   0.0092240   2.9805883  10.6323155  )
        35           O1  tau(  35) = (   1.3131995   4.4620516  12.6081187  )
        36           O1  tau(  36) = (   5.3117129   4.4692194  12.6284301  )
        37           Ti1 tau(  37) = (   6.5303063   5.9583428  12.5400172  )
        38           Ti1 tau(  38) = (   3.2255477   4.4746212  12.4748647  )
        39           O1  tau(  39) = (   0.0377805   3.0059521  14.8845374  )
        40           O1  tau(  40) = (   3.3120027   2.9986483  13.8863452  )
        41           O1  tau(  41) = (   4.5434534   4.5277214  16.0148975  )
        42           O1  tau(  42) = (   2.1165747   4.4940517  16.0783766  )
        43           Ti1 tau(  43) = (   3.3042555   0.0241951  15.7004812  )
        44           Ti1 tau(  44) = (   0.0495666   4.4505358  16.3362958  )
        45           O1  tau(  45) = (   3.2900926   2.9813045   4.7018136  )
        46           O1  tau(  46) = (   1.3039711   4.4726057   6.0039043  )
        47           O1  tau(  47) = (   5.2763189   4.4711207   6.0039473  )
        48           N1  tau(  48) = (   0.5348212   3.4288502  18.0689430  )
        49           C1  tau(  49) = (   1.3556880   3.0079929  19.2215664  )
        50           H1  tau(  50) = (   1.4862090   3.8900195  19.8496782  )
        51           H1  tau(  51) = (   0.8469181   2.2141957  19.7647163  )
        52           H1  tau(  52) = (   2.3396892   2.6851793  18.8624704  )
        53           N1  tau(  53) = (   5.9145885   3.2636146  17.9655992  )

     number of k points=    10  Fermi-Dirac smearing, width (Ry)=  0.0073
                       cart. coord. in units 2pi/alat
        k(    1) = (   0.0000000   0.0000000   0.0000000), wk =   0.0625000
        k(    2) = (   0.0000000   0.0419351   0.0000000), wk =   0.1250000
        k(    3) = (   0.0000000  -0.0838702   0.0000000), wk =   0.0625000
        k(    4) = (   0.0379955   0.0000049   0.0000000), wk =   0.1250000
        k(    5) = (   0.0379955   0.0419400   0.0000000), wk =   0.1250000
        k(    6) = (   0.0379955  -0.0838652   0.0000000), wk =   0.1250000
        k(    7) = (   0.0379955  -0.0419301   0.0000000), wk =   0.1250000
        k(    8) = (  -0.0759910  -0.0000099   0.0000000), wk =   0.0625000
[...]
     Initial potential from superposition of free atoms

     starting charge  378.99916, renormalised to  395.00000

     negative rho (up, down):  8.047E-03 8.054E-03

     %%%%%%%%%%%%%%%%%%%%%%%%%%%%%%%%%%%%%%%%%%%%%%%%%%%%%%%%%%%%%%%%%%%%%%%%
     %                                                                      %
     % You are using vdW-DF, which was implemented by the Thonhauser group. %
     % Please cite the following two papers that made this development      %
     % possible and the two reviews that describe the various versions:     %
     %                                                                      %
     %   T. Thonhauser et al., PRL 115, 136402 (2015).                      %
     %   T. Thonhauser et al., PRB 76, 125112 (2007).                       %
     %   K. Berland et al., Rep. Prog. Phys. 78, 066501 (2015).             %
     %   D.C. Langreth et al., J. Phys.: Condens. Matter 21, 084203 (2009). %
     %                                                                      %
     %                                                                      %
     % If you are calculating the stress with vdW-DF, please also cite:     %
     %                                                                      %
     %   R. Sabatini et al., J. Phys.: Condens. Matter 24, 424209 (2012).   %
     %                                                                      %
     %%%%%%%%%%%%%%%%%%%%%%%%%%%%%%%%%%%%%%%%%%%%%%%%%%%%%%%%%%%%%%%%%%%%%%%%

     Adding external electric field

     Computed dipole along edir(3) :
        Dipole               -8.5786 Ry au,        -21.8047 Debye
        Dipole field         -0.0162 Ry au,

        Potential amp.        1.5007 Ry
        Total length         46.3494 bohr

[...]

     Starting wfcs are  299 atomic wfcs
  @ DRIVER MODE: Message from server: STATUS
  @ DRIVER MODE: Message from server: POSDATA
  @ DRIVER MODE: Reading and sharing cell
  @ DRIVER MODE: Reading and sharing positions
  @ DRIVER MODE: Received positions

     Self-consistent Calculation

     iteration #  1     ecut=    29.40 Ry     beta= 0.05
     Davidson diagonalization with overlap
     c_bands:  1 eigenvalues not converged
     c_bands:  1 eigenvalues not converged
     c_bands:  1 eigenvalues not converged
     c_bands:  3 eigenvalues not converged
     c_bands:  1 eigenvalues not converged
     c_bands:  3 eigenvalues not converged
     c_bands:  1 eigenvalues not converged
     c_bands:  2 eigenvalues not converged
     c_bands:  1 eigenvalues not converged
     c_bands:  1 eigenvalues not converged
     c_bands:  1 eigenvalues not converged
     c_bands:  3 eigenvalues not converged
     c_bands:  1 eigenvalues not converged
     c_bands:  3 eigenvalues not converged
     c_bands:  1 eigenvalues not converged
     c_bands:  2 eigenvalues not converged
     ethr =  1.00E-05,  avg # of iterations = 19.2

[...]

     total energy              =   -2599.52268401 Ry
     estimated scf accuracy    <    3762.07859335 Ry

     total magnetization       =     0.00 Bohr mag/cell
     absolute magnetization    =     0.02 Bohr mag/cell

     iteration #  2     ecut=    29.40 Ry     beta= 0.05
     Davidson diagonalization with overlap
     ethr =  1.00E-02,  avg # of iterations = 22.6

[...]

     iteration # 73     ecut=    29.40 Ry     beta= 0.05
     Davidson diagonalization with overlap
     c_bands:  1 eigenvalues not converged
     c_bands:  1 eigenvalues not converged
     c_bands:  1 eigenvalues not converged
     c_bands:  1 eigenvalues not converged
     ethr =  1.97E-11,  avg # of iterations = 17.0

[...]

     total energy              =   -2939.12584367 Ry
     estimated scf accuracy    <       0.00000014 Ry

[...]

     iteration # 75     ecut=    29.40 Ry     beta= 0.05
     Davidson diagonalization with overlap
     ethr =  1.97E-11,  avg # of iterations = 13.5

     negative rho (up, down):  8.117E-03 8.117E-03

[...]

     Adding external electric field

     Computed dipole along edir(3) :
        Dipole                0.9125 Ry au,          2.3192 Debye
        Dipole field          0.0017 Ry au,

        Potential amp.       -0.1596 Ry
        Total length         46.3494 bohr

     Magnetic moment per site  (integrated on atomic sphere of radius R)
     atom   1 (R=0.727)  charge=  7.9485  magn= -0.0011
     atom   2 (R=0.727)  charge=  7.9316  magn= -0.0003
     atom   3 (R=0.727)  charge=  4.9369  magn=  0.0001
     atom   4 (R=0.727)  charge=  4.9738  magn=  0.0001
     atom   5 (R=0.727)  charge=  4.9424  magn=  0.0000
     atom   6 (R=0.727)  charge=  4.9431  magn=  0.0000
     atom   7 (R=0.727)  charge=  7.9299  magn= -0.0001
     atom   8 (R=0.727)  charge=  7.9249  magn= -0.0003
     atom   9 (R=0.727)  charge=  4.9562  magn=  0.0000
     atom  10 (R=0.727)  charge=  4.9398  magn=  0.0000
     atom  11 (R=0.727)  charge=  4.9438  magn=  0.0000
     atom  12 (R=0.727)  charge=  4.9402  magn=  0.0000
     atom  13 (R=0.727)  charge=  7.9199  magn= -0.0001
     atom  14 (R=0.727)  charge=  7.9286  magn= -0.0000
     atom  15 (R=0.727)  charge=  4.9368  magn=  0.0000
     atom  16 (R=0.727)  charge=  4.9585  magn=  0.0000
     atom  17 (R=0.727)  charge=  4.9268  magn=  0.0000
     atom  18 (R=0.727)  charge=  4.9195  magn=  0.0000
     atom  19 (R=0.727)  charge=  7.9516  magn= -0.0000
     atom  20 (R=0.727)  charge=  7.9765  magn= -0.0000
     atom  21 (R=0.727)  charge=  4.8266  magn=  0.0004
     atom  22 (R=0.727)  charge=  4.9096  magn=  0.0000
     atom  23 (R=0.727)  charge=  4.9340  magn=  0.0002
     atom  24 (R=0.727)  charge=  4.9340  magn=  0.0002
     atom  25 (R=0.727)  charge=  7.9485  magn= -0.0012
     atom  26 (R=0.727)  charge=  7.9316  magn= -0.0003
     atom  27 (R=0.727)  charge=  4.9363  magn=  0.0001
     atom  28 (R=0.727)  charge=  4.9740  magn=  0.0001
     atom  29 (R=0.727)  charge=  4.9433  magn=  0.0000
     atom  30 (R=0.727)  charge=  4.9439  magn=  0.0000
     atom  31 (R=0.727)  charge=  7.9304  magn= -0.0001
     atom  32 (R=0.727)  charge=  7.9251  magn= -0.0003
     atom  33 (R=0.727)  charge=  4.9554  magn=  0.0000
     atom  34 (R=0.727)  charge=  4.9242  magn=  0.0000
     atom  35 (R=0.727)  charge=  4.9447  magn=  0.0000
     atom  36 (R=0.727)  charge=  4.9438  magn=  0.0000
     atom  37 (R=0.727)  charge=  7.9230  magn= -0.0001
     atom  38 (R=0.727)  charge=  7.9295  magn= -0.0000
     atom  39 (R=0.727)  charge=  4.9078  magn= -0.0000
     atom  40 (R=0.727)  charge=  4.9611  magn=  0.0000
     atom  41 (R=0.727)  charge=  4.9355  magn=  0.0000
     atom  42 (R=0.727)  charge=  4.9347  magn=  0.0000
     atom  43 (R=0.727)  charge=  7.9537  magn= -0.0000
     atom  44 (R=0.727)  charge=  7.9726  magn= -0.0000
     atom  45 (R=0.727)  charge=  4.8265  magn=  0.0004
     atom  46 (R=0.727)  charge=  4.9340  magn=  0.0002
     atom  47 (R=0.727)  charge=  4.9341  magn=  0.0002
     atom  48 (R=0.501)  charge=  1.9976  magn= -0.0000
     atom  49 (R=0.449)  charge=  0.8484  magn=  0.0000
     atom  50 (R=0.449)  charge=  0.5002  magn= -0.0000
     atom  51 (R=0.449)  charge=  0.5037  magn= -0.0000
     atom  52 (R=0.449)  charge=  0.4985  magn= -0.0000
     atom  53 (R=0.501)  charge=  1.9556  magn=  0.0000

     End of self-consistent calculation

 ------ SPIN UP ------------

          k = 0.0000 0.0000 0.0000 ( 18029 PWs)   bands (ev):

   -55.7741 -55.7689 -55.7400 -55.7329 -55.6826 -55.6342 -55.5953 -55.5613
   -55.5546 -55.5209 -55.5189 -55.4457 -54.9557 -54.8072 -54.7548 -54.7207
   -32.3177 -32.2584 -32.1738 -32.0945 -32.0659 -32.0553 -32.0464 -32.0191
   -32.0048 -31.9693 -31.9392 -31.9260 -31.9207 -31.9038 -31.8818 -31.8802
   -31.8777 -31.8772 -31.8643 -31.8341 -31.8309 -31.8207 -31.7994 -31.7907
   -31.7876 -31.7814 -31.7801 -31.7544 -31.7402 -31.7351 -31.7243 -31.7096
   -31.7055 -31.6683 -31.6353 -31.5630 -31.4920 -31.3375 -31.1668 -31.1615
   -31.1049 -31.0735 -31.0659 -31.0511 -30.9785 -30.9130 -30.8920 -30.7806
   -19.4393 -16.5164 -16.2516 -15.9663 -15.9145 -15.8402 -15.7469 -15.6238
   -15.5282 -15.4096 -15.3708 -15.3147 -15.3073 -15.2630 -15.2359 -15.2319
   -15.2057 -15.1975 -15.1334 -15.1258 -15.0753 -15.0636 -15.0157 -14.9805
   -14.9691 -14.9140 -14.8452 -14.8040 -14.6847 -14.1594 -13.2572 -13.1408
   -12.2966  -7.2551  -4.9283  -4.7745  -3.8987  -3.7563  -3.7039  -3.6841
    -3.6396  -3.4388  -3.3487  -3.2829  -3.0432  -2.9519  -2.9274  -2.9167
    -2.8675  -2.7096  -2.6594  -2.6026  -2.5869  -2.5614  -2.5394  -2.5312
    -2.4961  -2.4857  -2.4594  -2.4232  -2.3255  -2.2122  -2.1826  -2.1050
    -2.0896  -2.0735  -2.0437  -2.0337  -2.0242  -2.0144  -1.9960  -1.9584
    -1.8936  -1.8510  -1.7857  -1.7014  -1.5598  -1.5382  -1.4600  -1.3843
    -1.3046  -1.2620  -1.2401  -1.2117  -1.1720  -1.0920  -1.0662  -0.9201
    -0.8231  -0.7900  -0.7730  -0.7306  -0.6945  -0.5922  -0.5705  -0.5415
    -0.5325  -0.5047  -0.4309  -0.3745  -0.2426  -0.2119  -0.2079  -0.1702
    -0.0995  -0.0457   0.0078   0.0568   0.0647   0.1006   0.1607   0.1858
     0.1906   0.2334   0.2757   0.3507   0.3768   0.4508   0.4549   0.5190
     0.5627   0.6444   0.7520   0.8740   1.0176   1.1546   1.1989   1.2677
     1.3636   1.4597   1.8377   1.8834   2.1433   3.3390   3.4470   3.4694
     3.4817   3.5884   3.7974   3.8193   3.8683   3.8887   3.8968

[...]

          k =-0.0760-0.0000 0.0000 ( 17886 PWs)   bands (ev):

[...]

 ------ SPIN DOWN ----------

[...]

          k = 0.0380-0.0419 0.0000 ( 17876 PWs)   bands (ev):

[...]

          k =-0.0760-0.0839 0.0000 ( 17948 PWs)   bands (ev):

   -55.7591 -55.7590 -55.7517 -55.7501 -55.6756 -55.6416 -55.5787 -55.5783
   -55.5382 -55.5378 -55.5144 -55.4501 -54.9544 -54.8085 -54.7386 -54.7385
   -32.1213 -32.1178 -32.0747 -32.0746 -32.0537 -32.0536 -32.0189 -32.0040
   -31.9977 -31.9890 -31.9202 -31.9150 -31.9043 -31.8979 -31.8814 -31.8793
   -31.8788 -31.8782 -31.8775 -31.8715 -31.8533 -31.8506 -31.8493 -31.8128
   -31.7834 -31.7818 -31.7800 -31.7675 -31.7673 -31.7579 -31.7570 -31.7552
   -31.7539 -31.7355 -31.7110 -31.6600 -31.4391 -31.3199 -31.1687 -31.1586
   -31.0834 -31.0647 -31.0645 -30.9751 -30.9749 -30.9361 -30.9360 -30.9160
   -19.4371 -15.9168 -15.9107 -15.7493 -15.7147 -15.6490 -15.6402 -15.5725
   -15.5054 -15.4606 -15.4555 -15.3405 -15.3384 -15.3238 -15.3022 -15.2480
   -15.2317 -15.2304 -15.2269 -15.2191 -15.2074 -15.1798 -15.1493 -15.0985
   -15.0935 -15.0726 -15.0626 -14.9411 -14.5313 -14.4695 -13.2413 -13.2410
   -12.2990  -7.2418  -4.9298  -4.7722  -3.6274  -3.2061  -3.1897  -3.0020
    -2.9185  -2.9073  -2.8919  -2.7367  -2.7249  -2.7105  -2.6523  -2.6398
    -2.6344  -2.5996  -2.5834  -2.5595  -2.5192  -2.5139  -2.4660  -2.4634
    -2.4480  -2.4331  -2.4076  -2.4024  -2.3887  -2.3740  -2.3364  -2.2798
    -2.2419  -2.2145  -2.1864  -2.0900  -2.0292  -1.9934  -1.9263  -1.9177
    -1.8668  -1.8420  -1.8275  -1.7606  -1.6906  -1.6610  -1.5769  -1.4853
    -1.4670  -1.4516  -1.3330  -1.3190  -1.2444  -1.2205  -1.1367  -1.1195
    -1.0800  -0.9693  -0.9460  -0.9147  -0.8800  -0.8361  -0.7725  -0.7356
    -0.7336  -0.6849  -0.6408  -0.5845  -0.5234  -0.5115  -0.4962  -0.4873
    -0.4238  -0.3899  -0.3681  -0.2859  -0.2706  -0.1889  -0.0451  -0.0123
     0.1451   0.1943   0.3033   0.3309   0.4217   0.4433   0.5375   0.5406
     0.5736   0.7025   0.7213   0.7389   0.7550   0.7748   0.7988   0.9378
     1.6330   1.6331   1.7047   1.7047   2.0808   3.6715   3.7085   3.7587
     3.7805   3.8841   3.8891   3.8919   3.8996   4.0210   4.0223

     the Fermi energy is     3.3521 ev

!    total energy              =   -2939.12585591 Ry
     estimated scf accuracy    <       0.00000003 Ry
     smearing contrib. (-TS)   =      -0.02052616 Ry
     internal energy E=F+TS    =   -2939.10532975 Ry

     The total energy is F=E-TS. E is the sum of the following terms:
     one-electron contribution =  -24213.30827011 Ry
     hartree contribution      =   12195.40250394 Ry
     xc contribution           =    -485.19364546 Ry
     ewald contribution        =    9563.99251069 Ry
     electric field correction =       0.00157118 Ry

     total magnetization       =    -0.00 Bohr mag/cell
     absolute magnetization    =     0.01 Bohr mag/cell

     convergence has been achieved in  75 iterations

     Forces acting on atoms (cartesian axes, Ry/au):

     atom    1 type  1   force =     0.00008849   -0.00021046    0.09581801
     atom    2 type  1   force =     0.00007494   -0.00062984   -0.17549387
     atom    3 type  2   force =     0.00017908   -0.00019509   -0.02304053
     atom    4 type  2   force =     0.00004129   -0.00128618    0.05262342
     atom    5 type  2   force =    -0.00976839   -0.00031620    0.00253770
     atom    6 type  2   force =     0.01164985    0.00022509    0.00292119
     atom    7 type  1   force =     0.00088417   -0.00000209   -0.00989295
     atom    8 type  1   force =     0.00000641    0.00530843    0.01815697
     atom    9 type  2   force =    -0.00001494   -0.00028938   -0.00009914
     atom   10 type  2   force =    -0.00253859    0.00216017   -0.01349241
     atom   11 type  2   force =    -0.00097332    0.00010826    0.00017708
     atom   12 type  2   force =     0.00039899   -0.00025695    0.00049287
     atom   13 type  1   force =     0.00009679   -0.00007785    0.00054020
     atom   14 type  1   force =    -0.00004183   -0.00013779   -0.00015739
     atom   15 type  2   force =    -0.00059494    0.00022939    0.00044043
     atom   16 type  2   force =    -0.00043290    0.00007774    0.00018883
     atom   17 type  2   force =    -0.00014976   -0.00008425   -0.00031823
     atom   18 type  2   force =     0.00030035    0.00019970    0.00001697
     atom   19 type  1   force =    -0.00061898   -0.00058618    0.00070787
     atom   20 type  1   force =    -0.00023522    0.00039809   -0.00073827
     atom   21 type  2   force =     0.00006811   -0.00005904    0.10321465
     atom   22 type  2   force =     0.00008675   -0.00007466   -0.00041812
     atom   23 type  2   force =    -0.07154845   -0.00018796   -0.02754131
     atom   24 type  2   force =     0.07152845    0.00031505   -0.02759996
     atom   25 type  1   force =     0.00011871   -0.00027633    0.09520289
     atom   26 type  1   force =     0.00008749   -0.00049143   -0.17564549
     atom   27 type  2   force =     0.00016092   -0.00011954   -0.02179389
     atom   28 type  2   force =     0.00008188   -0.00105980    0.05249891
     atom   29 type  2   force =    -0.01014784    0.00023368    0.00291492
     atom   30 type  2   force =     0.01196562    0.00051956    0.00329410
     atom   31 type  1   force =     0.00088787    0.00413985   -0.01176805
     atom   32 type  1   force =     0.00013820   -0.00634176    0.01830047
     atom   33 type  2   force =     0.00016270    0.00041642   -0.00009256
     atom   34 type  2   force =    -0.00308562   -0.00010385   -0.00867494
     atom   35 type  2   force =    -0.00021282    0.00006897    0.00001467
     atom   36 type  2   force =    -0.00002331    0.00028105   -0.00006138
     atom   37 type  1   force =     0.00043827   -0.00095106    0.00018759
     atom   38 type  1   force =    -0.00032347    0.00009517    0.00035338
     atom   39 type  2   force =     0.00010878   -0.00026748    0.00055679
     atom   40 type  2   force =    -0.00008079    0.00027036    0.00015375
     atom   41 type  2   force =     0.00004089   -0.00015152   -0.00018860
     atom   42 type  2   force =    -0.00045873    0.00014122   -0.00042296
     atom   43 type  1   force =     0.00023131    0.00053887    0.00013334
     atom   44 type  1   force =    -0.00020800   -0.00079994   -0.00091919
     atom   45 type  2   force =     0.00007572   -0.00006002    0.10317620
     atom   46 type  2   force =    -0.07155910   -0.00009725   -0.02753419
     atom   47 type  2   force =     0.07154290    0.00025273   -0.02759566
     atom   48 type  3   force =     0.00139691   -0.00074995    0.00058082
     atom   49 type  4   force =     0.00967230   -0.00235282   -0.00368152
     atom   50 type  5   force =     0.00015836    0.00029270   -0.00006075
     atom   51 type  5   force =    -0.00046298   -0.00044288   -0.00024122
     atom   52 type  5   force =    -0.01004138    0.00205296    0.00251819
     atom   53 type  3   force =     0.00084885    0.00033404   -0.00024965

     Total force =     0.365046     Total SCF correction =     0.000386
  @ DRIVER MODE: Message from server: STATUS
  @ DRIVER MODE: Message from server: GETFORCE
  @ DRIVER MODE: Returning v,forces,stress,ensemble

     Writing output data file ./calc.save/
  @ DRIVER MODE: Message from server: EXIT
  @ DRIVE MODE: Exiting

     General routines

     Parallel routines

   This run was terminated on:   8:42:46  16Jul2021

   JOB DONE.