     Program PWSCF v.6.7GPU starts on 18Oct2021 at 19:21:28

     R & G space division:  proc/nbgrp/npool/nimage =       8
     Reading input from /storage/home/hcoda1/3/ntian30/research/carbon/CxH_vib/Thiel_calc/ads_slab/NH3NH3_perslab/out_0017/pw.inp
Warning: card &CELL ignored
Warning: card   CELL_DYNAMICS='IPI', ignored
Warning: card / ignored

     Current dimensions of program PWSCF are:
     Max number of different atomic species (ntypx) = 10
     Max number of k-points (npk) =  40000
     Max angular momentum in pseudopotentials (lmaxx) =  3
     Presently no symmetry can be used with electric field

     Message from routine cell_base_init:
     DEPRECATED: use true lattice parameter, not A to a.u. conversion factor

     IMPORTANT: XC functional enforced from input :
     Exchange-correlation= BEEF-VDW
                           (   1   4  43  14   2   0   0)
     Any further DFT definition will be discarded
     Please, verify this is what you really want

  @ DRIVER MODE: Connecting to
 qe_1139763_3255140.sched-torque.pace.gatech.edumpvqxay8_scratch
  using UNIX socket
  @ DRIVER MODE: Message from server: STATUS
  @ DRIVER MODE: Message from server: INIT
  @ DRIVER MODE: Receiving replica           0          -1
  @ DRIVER MODE: Receiving encoded integer          25
  @ DRIVER MODE:  SCF:  T  FORCE:  T  STRESS:  F  VC:  F  ENSEMBLE:  F
  @ DRIVER MODE:  SCF:  T  FORCE:  T  STRESS:  F  VC:  F  ENSEMBLE:  F

     Using Slab Decomposition

     bravais-lattice index     =            0
     lattice parameter (alat)  =       1.8897  a.u.
     unit-cell volume          =    9988.4706 (a.u.)^3
     number of atoms/cell      =           61
     number of atomic types    =            4
     number of electrons       =       442.00
     number of Kohn-Sham states=          231
     kinetic-energy cutoff     =      29.3995  Ry
     charge density cutoff     =     293.9946  Ry
     scf convergence threshold =      7.3E-08
     mixing beta               =       0.0500
     number of iterations used =            8  plain     mixing
     Exchange-correlation= BEEF-VDW
                           (   1   4  43  14   2   0   0)

     celldm(1)=   1.889726  celldm(2)=   0.000000  celldm(3)=   0.000000
     celldm(4)=   0.000000  celldm(5)=   0.000000  celldm(6)=   0.000000

     crystal axes: (cart. coord. in units of alat)
               a(1) = (   6.579727   0.000000   0.000000 )
               a(2) = (  -0.001163   8.942395   0.000000 )
               a(3) = (   0.000000   0.000000  25.155947 )

     reciprocal axes: (cart. coord. in units 2 pi/alat)
               b(1) = (  0.151982  0.000020  0.000000 )
               b(2) = (  0.000000  0.111827  0.000000 )
               b(3) = (  0.000000  0.000000  0.039752 )

     PseudoPot. # 1 for O  read from file:
     /storage/coda1/p-amedford6/0/shared/rich_project_chbe-medford/medford-share/data/pseudos_module/espresso/nninc/pbe/van/O.UPF
     MD5 check sum: 78c19812648e8988a0fe644b0f25305e
     Pseudo is Ultrasoft, Zval =  6.0
     Generated by new atomic code, or converted to UPF format
     Using radial grid of  737 points,  4 beta functions with:
                l(1) =   0
                l(2) =   0
                l(3) =   1
                l(4) =   1
     Q(r) pseudized with  8 coefficients,  rinner =    0.800   0.800   0.800

     PseudoPot. # 2 for Ti read from file:
     /storage/coda1/p-amedford6/0/shared/rich_project_chbe-medford/medford-share/data/pseudos_module/espresso/nninc/pbe/van/Ti.UPF
     MD5 check sum: 8e4df49b7f0d34bbd5052bf3f5ea0213
     Pseudo is Ultrasoft, Zval = 12.0
     Generated by new atomic code, or converted to UPF format
     Using radial grid of  851 points,  6 beta functions with:
                l(1) =   0
                l(2) =   0
                l(3) =   1
                l(4) =   1
                l(5) =   2
                l(6) =   2
     Q(r) pseudized with  8 coefficients,  rinner =    1.000   1.000   1.000
                                                       1.000   1.000

     PseudoPot. # 3 for N  read from file:
     /storage/coda1/p-amedford6/0/shared/rich_project_chbe-medford/medford-share/data/pseudos_module/espresso/nninc/pbe/van/N.UPF
     MD5 check sum: 90d10febe142ad51ac9d5be1deb811c4
     Pseudo is Ultrasoft, Zval =  5.0
     Generated by new atomic code, or converted to UPF format
     Using radial grid of  729 points,  4 beta functions with:
                l(1) =   0
                l(2) =   0
                l(3) =   1
                l(4) =   1
     Q(r) pseudized with  8 coefficients,  rinner =    0.800   0.800   0.800

     PseudoPot. # 4 for H  read from file:
     /storage/coda1/p-amedford6/0/shared/rich_project_chbe-medford/medford-share/data/pseudos_module/espresso/nninc/pbe/van/H.UPF
     MD5 check sum: b5ee9d7bfd3a09ee7748110bda690ff7
     Pseudo is Ultrasoft, Zval =  1.0
     Generated by new atomic code, or converted to UPF format
     Using radial grid of  615 points,  1 beta functions with:
                l(1) =   0
     Q(r) pseudized with  8 coefficients,  rinner =    0.800

     atomic species   valence    mass     pseudopotential
        O1             6.00    15.99900     O ( 1.00)
        Ti1           12.00    47.86700     Ti( 1.00)
        N1             5.00    14.00700     N ( 1.00)
        H1             1.00     1.00800     H ( 1.00)

     No symmetry found

   Cartesian axes

     site n.     atom                  positions (alat units)
         1           O1  tau(   1) = (   0.0007354   0.0005023  10.5931620  )
         2           O1  tau(   2) = (   3.2905679   0.0262843  13.8966672  )
         3           O1  tau(   3) = (   0.0007290   0.0579300  17.2579193  )
         4           O1  tau(   4) = (   0.0006271   0.0005054   7.9858123  )
         5           O1  tau(   5) = (   3.2893100   8.9214726  11.1892856  )
         6           O1  tau(   6) = (   0.0005199   0.0455907  14.6396817  )
         7           O1  tau(   7) = (   1.9868534   1.4903216   9.2879459  )
         8           O1  tau(   8) = (   5.2380180   1.6024468  12.5713634  )
         9           O1  tau(   9) = (   2.0277759   1.4975965  16.1012153  )
        10           Ti1 tau(  10) = (   0.0007404   1.4906270   9.2895810  )
        11           Ti1 tau(  11) = (   3.2903786   1.3551844  12.4711573  )
        12           Ti1 tau(  12) = (   0.0003174   1.4440192  15.7330511  )
        13           O1  tau(  13) = (   4.5942328   1.4918067   9.2879030  )
        14           O1  tau(  14) = (   1.3426987   1.6023923  12.5713351  )
        15           O1  tau(  15) = (   4.5529958   1.4977110  16.1013444  )
        16           Ti1 tau(  16) = (   3.2902859   2.9801868   9.2893338  )
        17           Ti1 tau(  17) = (   0.0005333   2.8255407  12.4640987  )
        18           Ti1 tau(  18) = (   3.2895849   3.0341113  15.6952405  )
        19           O1  tau(  19) = (   0.0003479   2.9813005  10.5931620  )
        20           O1  tau(  20) = (   3.2900438   2.9627632  13.8881152  )
        21           O1  tau(  21) = (   0.0002396   2.9813036   7.9858123  )
        22           O1  tau(  22) = (   3.2902621   2.9759438  11.1922459  )
        23           O1  tau(  23) = (   0.0002943   2.9805036  14.7119039  )
        24           O1  tau(  24) = (   1.9864658   4.4711199   9.2879459  )
        25           O1  tau(  25) = (   5.2407125   4.5787950  12.5855407  )
        26           O1  tau(  26) = (   1.9842138   4.3634165  16.0604883  )
        27           Ti1 tau(  27) = (   0.0003529   4.4714252   9.2895810  )
        28           Ti1 tau(  28) = (   3.2904166   4.3402611  12.5252975  )
        29           Ti1 tau(  29) = (  -0.0003584   4.7219071  15.7914592  )
        30           O1  tau(  30) = (   4.5938453   4.4726049   9.2879030  )
        31           O1  tau(  31) = (   1.3394863   4.5787101  12.5854501  )
        32           O1  tau(  32) = (   4.5953883   4.3633133  16.0606172  )
        33           Ti1 tau(  33) = (   3.2898983   5.9609850   9.2893338  )
        34           Ti1 tau(  34) = (   0.0004309   5.8055675  12.4642027  )
        35           Ti1 tau(  35) = (   3.2895961   6.0676247  15.8182862  )
        36           O1  tau(  36) = (  -0.0000397   5.9620987  10.5931620  )
        37           O1  tau(  37) = (   3.2897974   5.9491097  13.9522666  )
        38           O1  tau(  38) = (  -0.0001005   5.9419674  17.2168411  )
        39           O1  tau(  39) = (  -0.0001480   5.9621018   7.9858123  )
        40           O1  tau(  40) = (   3.2898294   5.9516608  11.2068290  )
        41           O1  tau(  41) = (  -0.0002620   6.0093330  14.6024556  )
        42           O1  tau(  42) = (   1.9860782   7.4519181   9.2879459  )
        43           O1  tau(  43) = (   5.2335766   7.5615516  12.5803788  )
        44           O1  tau(  44) = (   2.0229086   7.4656171  16.0362607  )
        45           Ti1 tau(  45) = (  -0.0000347   7.4522234   9.2895810  )
        46           Ti1 tau(  46) = (   3.2895523   7.2794780  12.5477951  )
        47           Ti1 tau(  47) = (  -0.0001499   7.5569733  16.2601047  )
        48           O1  tau(  48) = (   4.5934577   7.4534031   9.2879030  )
        49           O1  tau(  49) = (   1.3453152   7.5613653  12.5804751  )
        50           O1  tau(  50) = (   4.5562564   7.4656138  16.0364310  )
        51           Ti1 tau(  51) = (   3.2895107   8.9417832   9.2893338  )
        52           Ti1 tau(  52) = (  -0.0004710   8.7769229  12.4586551  )
        53           Ti1 tau(  53) = (   3.2909234   0.0582169  15.6986445  )
        54           N1  tau(  54) = (   3.2892347   5.9685454  18.1810142  )
        55           H1  tau(  55) = (   3.2893406   5.0219839  18.5418895  )
        56           H1  tau(  56) = (   2.4590131   6.4368771  18.5204692  )
        57           H1  tau(  57) = (   4.1190552   6.4372901  18.5310312  )
        58           N1  tau(  58) = (  -0.0003436   2.9015831  17.9177722  )
        59           H1  tau(  59) = (   6.5794260   1.9611702  18.3102355  )
        60           H1  tau(  60) = (   5.7593157   3.3919262  18.2600543  )
        61           H1  tau(  61) = (   0.8192290   3.3923488  18.2608005  )

     number of k points=    10  Fermi-Dirac smearing, width (Ry)=  0.0073
                       cart. coord. in units 2pi/alat
        k(    1) = (   0.0000000   0.0000000   0.0000000), wk =   0.1250000
        k(    2) = (   0.0000000   0.0279567   0.0000000), wk =   0.2500000
        k(    3) = (   0.0000000  -0.0559134   0.0000000), wk =   0.1250000
        k(    4) = (   0.0379955   0.0000049   0.0000000), wk =   0.2500000
        k(    5) = (   0.0379955   0.0279617   0.0000000), wk =   0.2500000
        k(    6) = (   0.0379955  -0.0559085   0.0000000), wk =   0.2500000
        k(    7) = (   0.0379955  -0.0279518   0.0000000), wk =   0.2500000
        k(    8) = (  -0.0759910  -0.0000099   0.0000000), wk =   0.1250000
        k(    9) = (  -0.0759910   0.0279468   0.0000000), wk =   0.2500000
        k(   10) = (  -0.0759910  -0.0559233   0.0000000), wk =   0.1250000

     Initial potential from superposition of free atoms

     starting charge  423.99908, renormalised to  442.00000

     negative rho (up, down):  3.647E-02 0.000E+00

     %%%%%%%%%%%%%%%%%%%%%%%%%%%%%%%%%%%%%%%%%%%%%%%%%%%%%%%%%%%%%%%%%%%%%%%%
     %                                                                      %
     % You are using vdW-DF, which was implemented by the Thonhauser group. %
     % Please cite the following two papers that made this development      %
     % possible and the two reviews that describe the various versions:     %
     %                                                                      %
     %   T. Thonhauser et al., PRL 115, 136402 (2015).                      %
     %   T. Thonhauser et al., PRB 76, 125112 (2007).                       %
     %   K. Berland et al., Rep. Prog. Phys. 78, 066501 (2015).             %
     %   D.C. Langreth et al., J. Phys.: Condens. Matter 21, 084203 (2009). %
     %                                                                      %
     %                                                                      %
     % If you are calculating the stress with vdW-DF, please also cite:     %
     %                                                                      %
     %   R. Sabatini et al., J. Phys.: Condens. Matter 24, 424209 (2012).   %
     %                                                                      %
     %%%%%%%%%%%%%%%%%%%%%%%%%%%%%%%%%%%%%%%%%%%%%%%%%%%%%%%%%%%%%%%%%%%%%%%%

     Adding external electric field

     Computed dipole along edir(3) :
        Dipole               -6.4263 Ry au,        -16.3339 Debye
        Dipole field         -0.0081 Ry au,

        Potential amp.        0.7495 Ry
        Total length         46.3494 bohr

     Starting wfcs are  334 atomic wfcs
  @ DRIVER MODE: Message from server: STATUS
  @ DRIVER MODE: Message from server: POSDATA
  @ DRIVER MODE: Reading and sharing cell
  @ DRIVER MODE: Reading and sharing positions
  @ DRIVER MODE: Received positions

     Self-consistent Calculation

     iteration #  1     ecut=    29.40 Ry     beta= 0.05
     Davidson diagonalization with overlap
     c_bands:  1 eigenvalues not converged
     c_bands:  2 eigenvalues not converged
     c_bands:  2 eigenvalues not converged
     c_bands:  1 eigenvalues not converged
     c_bands:  3 eigenvalues not converged
     c_bands:  5 eigenvalues not converged
     c_bands:  3 eigenvalues not converged
     c_bands:  2 eigenvalues not converged
     c_bands:  3 eigenvalues not converged
     ethr =  1.00E-05,  avg # of iterations = 19.8

[...]

     total energy              =   -3273.10040953 Ry
     estimated scf accuracy    <     292.46037358 Ry

[...]

     iteration #  3     ecut=    29.40 Ry     beta= 0.05
     Davidson diagonalization with overlap
     ethr =  1.00E-02,  avg # of iterations = 14.0

[...]

     iteration # 29     ecut=    29.40 Ry     beta= 0.05
     Davidson diagonalization with overlap
     c_bands:  1 eigenvalues not converged
     ethr =  1.47E-07,  avg # of iterations = 11.3

[...]

     total energy              =   -3295.91272663 Ry
     estimated scf accuracy    <       0.00000037 Ry

     iteration # 49     ecut=    29.40 Ry     beta= 0.05
     Davidson diagonalization with overlap
     ethr =  5.91E-11,  avg # of iterations =  8.7

     negative rho (up, down):  3.470E-02 0.000E+00

     Adding external electric field

     Computed dipole along edir(3) :
        Dipole                1.8659 Ry au,          4.7426 Debye
        Dipole field          0.0023 Ry au,

        Potential amp.       -0.2176 Ry
        Total length         46.3494 bohr

     End of self-consistent calculation

          k = 0.0000 0.0000 0.0000 ( 26871 PWs)   bands (ev):

   -57.5953 -57.5555 -57.5319 -57.5260 -57.4958 -57.3964 -57.3888 -57.3680
   -57.3533 -57.3282 -57.3019 -57.2829 -57.2196 -57.1602 -57.0633 -56.5671
   -56.5420 -56.5410 -33.9764 -33.9370 -33.9326 -33.9064 -33.8883 -33.8697
   -33.8676 -33.8579 -33.8315 -33.8209 -33.8104 -33.7951 -33.7785 -33.7607
   -33.7505 -33.7368 -33.7225 -33.6898 -33.6819 -33.6787 -33.6687 -33.6540
   -33.6488 -33.6461 -33.6400 -33.6086 -33.5899 -33.5866 -33.5764 -33.5622
   -33.5590 -33.5532 -33.5393 -33.5377 -33.5345 -33.5204 -33.5162 -33.5025
   -33.5007 -33.4724 -33.4135 -33.3681 -33.3401 -33.3344 -33.2406 -32.8824
   -32.8801 -32.8786 -32.8658 -32.8648 -32.7929 -32.7289 -32.7279 -32.5928
   -18.3910 -18.0535 -17.8403 -17.7860 -17.7629 -17.6905 -17.6406 -17.6239
   -17.5583 -17.4913 -17.3666 -17.3293 -17.3232 -17.3099 -17.3001 -17.2382
   -17.2242 -17.2071 -17.2046 -17.1877 -17.1836 -17.1404 -17.0677 -17.0585
   -17.0175 -17.0035 -16.9828 -16.9802 -16.9323 -16.8798 -16.8698 -16.6756
   -16.6370 -16.4832 -15.0343 -14.9771 -14.9749  -7.7656  -7.7369  -7.5157
    -7.4528  -5.7147  -5.5326  -5.4671  -5.3727  -5.0005  -4.9426  -4.9285
    -4.9023  -4.8606  -4.8195  -4.8043  -4.7794  -4.7784  -4.7349  -4.6910
    -4.6657  -4.6462  -4.5470  -4.5095  -4.4713  -4.4411  -4.4346  -4.3835
    -4.3676  -4.3278  -4.3276  -4.2792  -4.2388  -4.2284  -4.2072  -4.1394
    -4.1214  -4.0175  -3.9271  -3.8716  -3.8646  -3.8233  -3.8104  -3.7638
    -3.7420  -3.7039  -3.6826  -3.6363  -3.6121  -3.5441  -3.4922  -3.3917
    -3.2957  -3.2689  -3.2420  -3.2191  -3.1757  -3.1226  -3.0032  -2.9623
    -2.9303  -2.9084  -2.8189  -2.8173  -2.7281  -2.7117  -2.6977  -2.6532
    -2.6019  -2.5878  -2.5537  -2.4363  -2.4161  -2.3234  -2.3142  -2.3122
    -2.2828  -2.2211  -2.2094  -2.1855  -2.1635  -2.1358  -2.1219  -2.0823
    -2.0797  -1.9810  -1.9591  -1.9031  -1.8805  -1.8802  -1.7818  -1.7646
    -1.7389  -1.7264  -1.6589  -1.5749  -1.4647  -1.4140  -1.3888  -1.3858
    -1.2864  -1.2581  -1.2151  -1.1350  -0.7988  -0.6022  -0.3152  -0.2710
    -0.2706  -0.0082  -0.0065   0.1221   1.4447   1.6599   1.6813   1.8733
     1.8956   1.9395   2.0260   2.0339   2.0959   2.1956   2.2138

[...]

          k = 0.0380-0.0280 0.0000 ( 26873 PWs)   bands (ev):

[...]

          k =-0.0760-0.0000 0.0000 ( 26902 PWs)   bands (ev):

[...]

          k =-0.0760-0.0559 0.0000 ( 26868 PWs)   bands (ev):

   -57.5952 -57.5493 -57.5440 -57.5201 -57.4960 -57.3941 -57.3887 -57.3728
   -57.3505 -57.3261 -57.3064 -57.2807 -57.2194 -57.1605 -57.0632 -56.5590
   -56.5580 -56.5330 -34.0280 -34.0158 -33.9195 -33.8943 -33.8843 -33.8797
   -33.8781 -33.8563 -33.8279 -33.8145 -33.7797 -33.7455 -33.7402 -33.7369
   -33.7258 -33.6981 -33.6946 -33.6898 -33.6845 -33.6814 -33.6439 -33.6378
   -33.6349 -33.6278 -33.6093 -33.6091 -33.6065 -33.6043 -33.6006 -33.5878
   -33.5804 -33.5725 -33.5710 -33.5618 -33.5411 -33.5291 -33.5247 -33.5170
   -33.5010 -33.4266 -33.4199 -33.3736 -33.3406 -33.3361 -33.2736 -32.9710
   -32.8815 -32.8805 -32.8567 -32.7720 -32.7710 -32.7068 -32.6904 -32.6890
   -18.0808 -18.0176 -17.7638 -17.7073 -17.6910 -17.6547 -17.6402 -17.5624
   -17.5429 -17.5287 -17.5061 -17.4416 -17.3879 -17.3384 -17.3365 -17.3297
   -17.2596 -17.2543 -17.2470 -17.2423 -17.1963 -17.1820 -17.1595 -17.1159
   -17.0385 -16.9687 -16.9559 -16.9490 -16.9100 -16.8951 -16.8441 -16.7094
   -16.7015 -16.4105 -15.0328 -15.0303 -14.9137  -7.7680  -7.7276  -7.5249
    -7.4524  -5.3376  -5.3074  -5.2776  -5.2135  -5.0228  -4.8628  -4.8321
    -4.8256  -4.7885  -4.7384  -4.7113  -4.7046  -4.6956  -4.6783  -4.6636
    -4.6152  -4.6115  -4.5856  -4.5128  -4.4719  -4.4672  -4.4482  -4.4342
    -4.4281  -4.3603  -4.2854  -4.2183  -4.1721  -4.1553  -4.1411  -4.0933
    -4.0566  -4.0269  -3.9840  -3.9734  -3.9050  -3.7964  -3.7132  -3.6734
    -3.6730  -3.6323  -3.5832  -3.5817  -3.4813  -3.4167  -3.3447  -3.2127
    -3.2067  -3.1941  -3.1694  -3.1553  -3.1159  -3.1056  -3.0813  -3.0299
    -3.0200  -2.9984  -2.9377  -2.8714  -2.7844  -2.7582  -2.7249  -2.7186
    -2.6936  -2.6828  -2.6552  -2.6522  -2.6182  -2.6094  -2.5554  -2.5281
    -2.4769  -2.4487  -2.4056  -2.3205  -2.3047  -2.2825  -2.1911  -2.1285
    -2.1116  -2.1067  -2.0776  -2.0304  -1.9336  -1.8397  -1.8039  -1.7596
    -1.6479  -1.6475  -1.6440  -1.6278  -1.5542  -1.5395  -1.3361  -1.3239
    -1.2648  -1.1893  -1.1497  -1.1141  -1.1117  -0.8944  -0.4840  -0.2005
    -0.1874  -0.1639  -0.0112  -0.0061   1.5909   1.6728   1.7077   1.7573
     1.7930   1.7963   1.8023   1.8659   1.9297   1.9396   2.1650

     the Fermi energy is     1.5289 ev

!    total energy              =   -3295.91284707 Ry
     estimated scf accuracy    <       0.00000006 Ry
     smearing contrib. (-TS)   =      -0.03397509 Ry
     internal energy E=F+TS    =   -3295.87887199 Ry

     The total energy is F=E-TS. E is the sum of the following terms:
     one-electron contribution =  -34427.97125093 Ry
     hartree contribution      =   17282.47922151 Ry
     xc contribution           =    -543.76020872 Ry
     ewald contribution        =   14393.36898614 Ry
     electric field correction =       0.00438001 Ry

     convergence has been achieved in  49 iterations

     Forces acting on atoms (cartesian axes, Ry/au):

     atom    1 type  1   force =     0.00001601    0.00450075    0.05614442
     atom    2 type  1   force =    -0.00000322   -0.00096422   -0.00073021
     atom    3 type  1   force =    -0.00000096    0.00147420   -0.00019696
     atom    4 type  1   force =     0.00005817    0.00030975    0.10697999
     atom    5 type  1   force =     0.00000147    0.00080607    0.00979414
     atom    6 type  1   force =     0.00000977   -0.00266832    0.00106341
     atom    7 type  1   force =     0.06728185   -0.00022777   -0.02911590
     atom    8 type  1   force =     0.00475384   -0.02827984    0.00256316
     atom    9 type  1   force =     0.00734176   -0.00160292   -0.00301696
     atom   10 type  2   force =    -0.00005396   -0.00148943   -0.18421005
     atom   11 type  2   force =     0.00003799    0.02165185   -0.00780664
     atom   12 type  2   force =     0.00003198   -0.00241486    0.01230112
     atom   13 type  1   force =    -0.06738388   -0.00068954   -0.02908189
     atom   14 type  1   force =    -0.00477998   -0.02828123    0.00256310
     atom   15 type  1   force =    -0.00737300   -0.00160470   -0.00303626
     atom   16 type  2   force =     0.00009674    0.00013674    0.06635148
     atom   17 type  2   force =    -0.00001285    0.03588496    0.00368222
     atom   18 type  2   force =     0.00005728   -0.01053350   -0.00432172
     atom   19 type  1   force =     0.00001939    0.00444507    0.05986736
     atom   20 type  1   force =    -0.00000590    0.00084330   -0.00597667
     atom   21 type  1   force =     0.00005798    0.00018921    0.10722177
     atom   22 type  1   force =    -0.00000133   -0.00064501    0.00884936
     atom   23 type  1   force =     0.00000044    0.00498893    0.00313550
     atom   24 type  1   force =     0.06803869    0.00052124   -0.02900857
     atom   25 type  1   force =     0.00341470   -0.02997038    0.00207468
     atom   26 type  1   force =     0.01010709    0.02035235    0.00206297
     atom   27 type  2   force =    -0.00005879    0.00003748   -0.18363273
     atom   28 type  2   force =     0.00003699    0.02157497   -0.00597775
     atom   29 type  2   force =    -0.00003653   -0.02179146   -0.00596083
     atom   30 type  1   force =    -0.06813942    0.00007398   -0.02897713
     atom   31 type  1   force =    -0.00344734   -0.02995748    0.00208463
     atom   32 type  1   force =    -0.01012347    0.02026481    0.00197028
     atom   33 type  2   force =     0.00010783   -0.00025736    0.06935518
     atom   34 type  2   force =    -0.00001366    0.03687228    0.00368044
     atom   35 type  2   force =     0.00026085   -0.02944897    0.01032892
     atom   36 type  1   force =     0.00002472    0.00481772    0.05627508
     atom   37 type  1   force =    -0.00000829    0.00204369   -0.00522665
     atom   38 type  1   force =     0.00005448    0.00427751   -0.00004005
     atom   39 type  1   force =     0.00005664    0.00002501    0.10681228
     atom   40 type  1   force =    -0.00000416   -0.00060201    0.00812034
     atom   41 type  1   force =     0.00000839    0.00071171    0.00248959
     atom   42 type  1   force =     0.06806163   -0.00121621   -0.02960373
     atom   43 type  1   force =     0.00352648   -0.02805926    0.00204453
     atom   44 type  1   force =     0.01052399    0.01128440    0.00294214
     atom   45 type  2   force =    -0.00005770   -0.00197030   -0.18349243
     atom   46 type  2   force =     0.00003277    0.01957673   -0.00655921
     atom   47 type  2   force =    -0.00009686   -0.01027663   -0.01270394
     atom   48 type  1   force =    -0.06815784   -0.00165721   -0.02956841
     atom   49 type  1   force =    -0.00354212   -0.02805998    0.00204327
     atom   50 type  1   force =    -0.01056835    0.01134837    0.00280537
     atom   51 type  2   force =     0.00009860   -0.00308642    0.06763000
     atom   52 type  2   force =    -0.00002006    0.03494218    0.00624989
     atom   53 type  2   force =     0.00005397    0.00516949    0.00131262
     atom   54 type  3   force =     0.00499062   -0.00215292   -0.00510502
     atom   55 type  4   force =    -0.00051120   -0.00106231   -0.00035224
     atom   56 type  4   force =    -0.00543009    0.00285043    0.00285792
     atom   57 type  4   force =     0.00065158    0.00080619    0.00020230
     atom   58 type  3   force =     0.00011126   -0.00182683    0.00124499
     atom   59 type  4   force =    -0.00000403   -0.00005746    0.00016557
     atom   60 type  4   force =     0.00071673   -0.00094047   -0.00077688
     atom   61 type  4   force =    -0.00080769   -0.00098640   -0.00079115

     Total force =     0.454865     Total SCF correction =     0.000864
  @ DRIVER MODE: Message from server: STATUS
  @ DRIVER MODE: Message from server: GETFORCE
  @ DRIVER MODE: Returning v,forces,stress,ensemble

     Writing output data file ./calc.save/
  @ DRIVER MODE: Message from server: EXIT
  @ DRIVE MODE: Exiting

     General routines

     Parallel routines

   This run was terminated on:  19:49: 5  18Oct2021

   JOB DONE.