     Program PWSCF v.6.7GPU starts on  8Sep2021 at 22:16:59

     R & G space division:  proc/nbgrp/npool/nimage =      10
     Reading input from /storage/home/hcoda1/3/ntian30/research/carbon/CxH_vib/CH3_calc/ads_slab/CH3NH2NH_c/out_0001/pw.inp
Warning: card &CELL ignored
Warning: card   CELL_DYNAMICS='IPI', ignored
Warning: card / ignored

     Current dimensions of program PWSCF are:
     Max number of different atomic species (ntypx) = 10
     Max number of k-points (npk) =  40000
     Max angular momentum in pseudopotentials (lmaxx) =  3
     Presently no symmetry can be used with electric field

     Message from routine cell_base_init:
     DEPRECATED: use true lattice parameter, not A to a.u. conversion factor

     IMPORTANT: XC functional enforced from input :
     Exchange-correlation= BEEF-VDW
                           (   1   4  43  14   2   0   0)
     Any further DFT definition will be discarded
     Please, verify this is what you really want

  @ DRIVER MODE: Connecting to
 qe_1139763_2767400.sched-torque.pace.gatech.edu09c_a220_scratch
  using UNIX socket
  @ DRIVER MODE: Message from server: STATUS
  @ DRIVER MODE: Message from server: INIT
  @ DRIVER MODE: Receiving replica           0          -1
  @ DRIVER MODE: Receiving encoded integer          25
  @ DRIVER MODE:  SCF:  T  FORCE:  T  STRESS:  F  VC:  F  ENSEMBLE:  F
  @ DRIVER MODE:  SCF:  T  FORCE:  T  STRESS:  F  VC:  F  ENSEMBLE:  F

     Using Slab Decomposition

     bravais-lattice index     =            0
     lattice parameter (alat)  =       1.8897  a.u.
     unit-cell volume          =    6658.9804 (a.u.)^3
     number of atoms/cell      =           56
     number of atomic types    =            5
     number of electrons       =       398.00
     number of Kohn-Sham states=          209
     kinetic-energy cutoff     =      29.3995  Ry
     charge density cutoff     =     293.9946  Ry
     scf convergence threshold =      7.3E-08
     mixing beta               =       0.0500
     number of iterations used =            8  plain     mixing
     Exchange-correlation= BEEF-VDW
                           (   1   4  43  14   2   0   0)

     celldm(1)=   1.889726  celldm(2)=   0.000000  celldm(3)=   0.000000
     celldm(4)=   0.000000  celldm(5)=   0.000000  celldm(6)=   0.000000

     crystal axes: (cart. coord. in units of alat)
               a(1) = (   6.579727   0.000000   0.000000 )
               a(2) = (  -0.000775   5.961596   0.000000 )
               a(3) = (   0.000000   0.000000  25.155947 )

     reciprocal axes: (cart. coord. in units 2 pi/alat)
               b(1) = (  0.151982  0.000020  0.000000 )
               b(2) = (  0.000000  0.167740  0.000000 )
               b(3) = (  0.000000  0.000000  0.039752 )

     PseudoPot. # 1 for Ti read from file:
     /storage/coda1/p-amedford6/0/shared/rich_project_chbe-medford/medford-share/data/pseudos_module/espresso/nninc/pbe/van/Ti.UPF
     MD5 check sum: 8e4df49b7f0d34bbd5052bf3f5ea0213
     Pseudo is Ultrasoft, Zval = 12.0
     Generated by new atomic code, or converted to UPF format
     Using radial grid of  851 points,  6 beta functions with:
                l(1) =   0
                l(2) =   0
                l(3) =   1
                l(4) =   1
                l(5) =   2
                l(6) =   2
     Q(r) pseudized with  8 coefficients,  rinner =    1.000   1.000   1.000
                                                       1.000   1.000

     PseudoPot. # 2 for O  read from file:
     /storage/coda1/p-amedford6/0/shared/rich_project_chbe-medford/medford-share/data/pseudos_module/espresso/nninc/pbe/van/O.UPF
     MD5 check sum: 78c19812648e8988a0fe644b0f25305e
     Pseudo is Ultrasoft, Zval =  6.0
     Generated by new atomic code, or converted to UPF format
     Using radial grid of  737 points,  4 beta functions with:
                l(1) =   0
                l(2) =   0
                l(3) =   1
                l(4) =   1
     Q(r) pseudized with  8 coefficients,  rinner =    0.800   0.800   0.800

     PseudoPot. # 3 for N  read from file:
     /storage/coda1/p-amedford6/0/shared/rich_project_chbe-medford/medford-share/data/pseudos_module/espresso/nninc/pbe/van/N.UPF
     MD5 check sum: 90d10febe142ad51ac9d5be1deb811c4
     Pseudo is Ultrasoft, Zval =  5.0
     Generated by new atomic code, or converted to UPF format
     Using radial grid of  729 points,  4 beta functions with:
                l(1) =   0
                l(2) =   0
                l(3) =   1
                l(4) =   1
     Q(r) pseudized with  8 coefficients,  rinner =    0.800   0.800   0.800

     PseudoPot. # 4 for C  read from file:
     /storage/coda1/p-amedford6/0/shared/rich_project_chbe-medford/medford-share/data/pseudos_module/espresso/nninc/pbe/van/C.UPF
     MD5 check sum: 1a69bf6b8db32088f5b2163dbdb77a27
     Pseudo is Ultrasoft, Zval =  4.0
     Generated by new atomic code, or converted to UPF format
     Using radial grid of  721 points,  4 beta functions with:
                l(1) =   0
                l(2) =   0
                l(3) =   1
                l(4) =   1
     Q(r) pseudized with  8 coefficients,  rinner =    0.800   0.800   0.800

     PseudoPot. # 5 for H  read from file:
     /storage/coda1/p-amedford6/0/shared/rich_project_chbe-medford/medford-share/data/pseudos_module/espresso/nninc/pbe/van/H.UPF
     MD5 check sum: b5ee9d7bfd3a09ee7748110bda690ff7
     Pseudo is Ultrasoft, Zval =  1.0
     Generated by new atomic code, or converted to UPF format
     Using radial grid of  615 points,  1 beta functions with:
                l(1) =   0
     Q(r) pseudized with  8 coefficients,  rinner =    0.800

     atomic species   valence    mass     pseudopotential
        Ti1           12.00    47.86700     Ti( 1.00)
        O1             6.00    15.99900     O ( 1.00)
        N1             5.00    14.00700     N ( 1.00)
        C1             4.00    12.01100     C ( 1.00)
        H1             1.00     1.00800     H ( 1.00)

     No symmetry found

   Cartesian axes

     site n.     atom                  positions (alat units)
         1           Ti1 tau(   1) = (   0.0004258   2.9801865   6.0000000  )
         2           Ti1 tau(   2) = (   3.2906075   1.4906267   6.0002472  )
         3           O1  tau(   3) = (   0.0006271   0.0005054   7.9858123  )
         4           O1  tau(   4) = (   3.2906025   0.0005020   7.3038282  )
         5           O1  tau(   5) = (   4.5942328   1.4918067   9.2879030  )
         6           O1  tau(   6) = (   1.9868534   1.4903216   9.2879459  )
         7           Ti1 tau(   7) = (   3.2907910   2.8959150   9.1758416  )
         8           Ti1 tau(   8) = (   0.0015273   1.4827037   9.2680791  )
         9           O1  tau(   9) = (   3.3032705   0.0110091  11.3485381  )
        10           O1  tau(  10) = (   0.0116148   5.9584955  10.6183126  )
        11           O1  tau(  11) = (   1.3020657   1.4959176  12.6398190  )
        12           O1  tau(  12) = (   5.2896457   1.4919019  12.6612249  )
        13           Ti1 tau(  13) = (   0.0353884   3.0012823  12.5523301  )
        14           Ti1 tau(  14) = (   3.3275346   1.5008247  12.4978572  )
        15           O1  tau(  15) = (   0.0424128   0.0047235  14.7277795  )
        16           O1  tau(  16) = (   3.2762846   0.0047332  13.9819514  )
        17           O1  tau(  17) = (   4.5591522   1.5298593  16.0930730  )
        18           O1  tau(  18) = (   2.0612242   1.5646392  16.2256692  )
        19           Ti1 tau(  19) = (   3.3170857   3.0293758  15.7013767  )
        20           Ti1 tau(  20) = (   6.5267591   1.5471840  15.7818195  )
        21           O1  tau(  21) = (   3.2904802   0.0005063   4.7018136  )
        22           O1  tau(  22) = (   0.0258072   0.0396315  17.3287798  )
        23           O1  tau(  23) = (   1.3043587   1.4918075   6.0039043  )
        24           O1  tau(  24) = (   5.2767064   1.4903225   6.0039473  )
        25           Ti1 tau(  25) = (   0.0000382   5.9609847   6.0000000  )
        26           Ti1 tau(  26) = (   3.2902200   4.4714249   6.0002472  )
        27           O1  tau(  27) = (   0.0002396   2.9813036   7.9858123  )
        28           O1  tau(  28) = (   3.2902150   2.9813002   7.3038282  )
        29           O1  tau(  29) = (   4.5938453   4.4726049   9.2879030  )
        30           O1  tau(  30) = (   1.9864658   4.4711199   9.2879459  )
        31           Ti1 tau(  31) = (   3.2891106   5.8743827   9.1763621  )
        32           Ti1 tau(  32) = (   0.0006254   4.4649316   9.2693709  )
        33           O1  tau(  33) = (   3.3047253   2.9863606  11.3412877  )
        34           O1  tau(  34) = (   0.0092240   2.9805883  10.6323155  )
        35           O1  tau(  35) = (   1.3023160   4.4818153  12.6295520  )
        36           O1  tau(  36) = (   5.2910779   4.4839738  12.6480862  )
        37           Ti1 tau(  37) = (   0.0306270   0.0097343  12.5156175  )
        38           Ti1 tau(  38) = (   3.3295341   4.4791655  12.4867326  )
        39           O1  tau(  39) = (   0.0319336   2.9935560  14.7343221  )
        40           O1  tau(  40) = (   3.2835893   3.0037955  13.9224844  )
        41           O1  tau(  41) = (   4.5669158   4.4809188  16.1713821  )
        42           O1  tau(  42) = (   2.0542530   4.4668402  16.2247519  )
        43           Ti1 tau(  43) = (   3.3000170   0.0150779  15.7669526  )
        44           Ti1 tau(  44) = (   0.0416703   4.6955124  16.1636639  )
        45           O1  tau(  45) = (   3.2900926   2.9813045   4.7018136  )
        46           O1  tau(  46) = (   1.3039711   4.4726057   6.0039043  )
        47           O1  tau(  47) = (   5.2763189   4.4711207   6.0039473  )
        48           N1  tau(  48) = (   0.8919483   2.4226080  18.4567899  )
        49           N1  tau(  49) = (   6.4923839   2.9153054  17.5348467  )
        50           C1  tau(  50) = (   1.2734633   3.3482217  19.5544901  )
        51           H1  tau(  51) = (   0.3921683   3.5464126  20.1615046  )
        52           H1  tau(  52) = (   2.0553077   2.8833093  20.1573268  )
        53           H1  tau(  53) = (   1.6239766   4.2728770  19.1044814  )
        54           H1  tau(  54) = (   0.5870980   1.4942747  18.7832689  )
        55           H1  tau(  55) = (   5.5983569   2.8486818  18.0159164  )
        56           H1  tau(  56) = (   1.7025450   2.1792920  17.8234971  )

     number of k points=    10  Fermi-Dirac smearing, width (Ry)=  0.0073
                       cart. coord. in units 2pi/alat
        k(    1) = (   0.0000000   0.0000000   0.0000000), wk =   0.1250000
        k(    2) = (   0.0000000   0.0419351   0.0000000), wk =   0.2500000
        k(    3) = (   0.0000000  -0.0838702   0.0000000), wk =   0.1250000
        k(    4) = (   0.0379955   0.0000049   0.0000000), wk =   0.2500000
        k(    5) = (   0.0379955   0.0419400   0.0000000), wk =   0.2500000
        k(    6) = (   0.0379955  -0.0838652   0.0000000), wk =   0.2500000
        k(    7) = (   0.0379955  -0.0419301   0.0000000), wk =   0.2500000
        k(    8) = (  -0.0759910  -0.0000099   0.0000000), wk =   0.1250000
        k(    9) = (  -0.0759910   0.0419252   0.0000000), wk =   0.2500000
        k(   10) = (  -0.0759910  -0.0838800   0.0000000), wk =   0.1250000

     Initial potential from superposition of free atoms

     starting charge  381.99914, renormalised to  398.00000

     negative rho (up, down):  1.484E-02 0.000E+00

     %%%%%%%%%%%%%%%%%%%%%%%%%%%%%%%%%%%%%%%%%%%%%%%%%%%%%%%%%%%%%%%%%%%%%%%%
     %                                                                      %
     % You are using vdW-DF, which was implemented by the Thonhauser group. %
     % Please cite the following two papers that made this development      %
     % possible and the two reviews that describe the various versions:     %
     %                                                                      %
     %   T. Thonhauser et al., PRL 115, 136402 (2015).                      %
     %   T. Thonhauser et al., PRB 76, 125112 (2007).                       %
     %   K. Berland et al., Rep. Prog. Phys. 78, 066501 (2015).             %
     %   D.C. Langreth et al., J. Phys.: Condens. Matter 21, 084203 (2009). %
     %                                                                      %
     %                                                                      %
     % If you are calculating the stress with vdW-DF, please also cite:     %
     %                                                                      %
     %   R. Sabatini et al., J. Phys.: Condens. Matter 24, 424209 (2012).   %
     %                                                                      %
     %%%%%%%%%%%%%%%%%%%%%%%%%%%%%%%%%%%%%%%%%%%%%%%%%%%%%%%%%%%%%%%%%%%%%%%%

     Adding external electric field

     Computed dipole along edir(3) :
        Dipole              -10.9106 Ry au,        -27.7320 Debye
        Dipole field         -0.0206 Ry au,

        Potential amp.        1.9086 Ry
        Total length         46.3494 bohr

     Starting wfcs are  302 atomic wfcs
  @ DRIVER MODE: Message from server: STATUS
  @ DRIVER MODE: Message from server: POSDATA
  @ DRIVER MODE: Reading and sharing cell
  @ DRIVER MODE: Reading and sharing positions
  @ DRIVER MODE: Received positions

     Self-consistent Calculation

     iteration #  1     ecut=    29.40 Ry     beta= 0.05
     Davidson diagonalization with overlap
     c_bands:  4 eigenvalues not converged
     c_bands:  3 eigenvalues not converged
     c_bands:  1 eigenvalues not converged
     c_bands:  2 eigenvalues not converged
     c_bands:  3 eigenvalues not converged
     c_bands:  4 eigenvalues not converged
     c_bands:  4 eigenvalues not converged
     ethr =  1.00E-05,  avg # of iterations = 24.3

[...]

     total energy              =   -2445.36557737 Ry
     estimated scf accuracy    <    5568.56847358 Ry

     iteration #  2     ecut=    29.40 Ry     beta= 0.05
     Davidson diagonalization with overlap
     ethr =  1.00E-02,  avg # of iterations = 22.0

[...]

     iteration # 72     ecut=    29.40 Ry     beta= 0.05
     Davidson diagonalization with overlap
     c_bands:  1 eigenvalues not converged
     ethr =  3.83E-11,  avg # of iterations = 11.1

[...]

     total energy              =   -2942.84135106 Ry
     estimated scf accuracy    <       0.00000011 Ry

     iteration # 74     ecut=    29.40 Ry     beta= 0.05
     Davidson diagonalization with overlap
     ethr =  2.14E-11,  avg # of iterations =  9.3

     negative rho (up, down):  1.051E-02 0.000E+00

     Adding external electric field

     Computed dipole along edir(3) :
        Dipole                1.5806 Ry au,          4.0175 Debye
        Dipole field          0.0030 Ry au,

        Potential amp.       -0.2765 Ry
        Total length         46.3494 bohr

     End of self-consistent calculation

          k = 0.0000 0.0000 0.0000 ( 18029 PWs)   bands (ev):

   -55.0896 -55.0541 -55.0504 -55.0200 -54.9668 -54.9643 -54.9268 -54.8899
   -54.8816 -54.8674 -54.8541 -54.8494 -54.8035 -54.7590 -54.0642 -54.0302
   -31.6635 -31.5435 -31.4538 -31.4240 -31.3848 -31.3803 -31.3785 -31.3494
   -31.3467 -31.3443 -31.3013 -31.2992 -31.2987 -31.2641 -31.2459 -31.2264
   -31.2065 -31.2029 -31.1935 -31.1918 -31.1651 -31.1479 -31.1464 -31.1202
   -31.1108 -31.0969 -31.0951 -31.0919 -31.0884 -31.0756 -31.0705 -31.0634
   -31.0506 -31.0398 -31.0219 -31.0133 -31.0056 -31.0012 -30.9955 -30.9896
   -30.9862 -30.9517 -30.4727 -30.3809 -30.3587 -30.2893 -30.2026 -30.0915
   -19.1859 -15.9327 -15.6583 -15.5356 -15.3249 -15.2751 -15.2023 -15.0070
   -14.9430 -14.8870 -14.8771 -14.8646 -14.8476 -14.7764 -14.6974 -14.6166
   -14.6140 -14.6083 -14.5970 -14.5788 -14.5713 -14.5088 -14.5017 -14.4696
   -14.4576 -14.4176 -14.3107 -14.2286 -14.1717 -14.0220 -13.3362 -12.5669
   -12.4498 -11.0927  -7.8772  -6.5425  -5.8558  -4.1175  -3.9402  -3.2776
    -3.0917  -3.0656  -3.0079  -2.9826  -2.8083  -2.7589  -2.5540  -2.4469
    -2.3596  -2.3206  -2.3081  -2.2917  -2.1411  -2.0738  -2.0395  -1.9916
    -1.9688  -1.9457  -1.9040  -1.8965  -1.8660  -1.8478  -1.8399  -1.6622
    -1.5867  -1.5410  -1.5097  -1.4697  -1.4200  -1.3915  -1.3732  -1.3686
    -1.3634  -1.3443  -1.3137  -1.2519  -1.2239  -1.1666  -1.0996  -1.0724
    -0.9827  -0.9002  -0.7130  -0.6677  -0.6498  -0.6135  -0.5534  -0.5053
    -0.4705  -0.4355  -0.4221  -0.3549  -0.2859  -0.2537  -0.1913  -0.1266
    -0.1160  -0.0531  -0.0460   0.1156   0.1274   0.1488   0.2393   0.3252
     0.3740   0.3819   0.4402   0.5144   0.5362   0.5457   0.5826   0.6032
     0.6799   0.7889   0.8137   0.8552   0.8671   0.9007   0.9232   0.9778
     1.0017   1.0648   1.0711   1.1751   1.2210   1.2570   1.5072   1.5404
     1.8709   1.9043   1.9582   2.1449   2.5321   2.5792   4.0186   4.0813
     4.0964   4.1444   4.1677   4.1869   4.2588   4.4793   4.5046   4.5107
     4.5182

[...]

          k = 0.0380-0.0419 0.0000 ( 17876 PWs)   bands (ev):

[...]

          k =-0.0760-0.0000 0.0000 ( 17886 PWs)   bands (ev):

[...]

          k =-0.0760-0.0839 0.0000 ( 17948 PWs)   bands (ev):

   -55.0775 -55.0623 -55.0370 -55.0368 -54.9637 -54.9533 -54.9378 -54.8728
   -54.8703 -54.8693 -54.8674 -54.8652 -54.7974 -54.7650 -54.0473 -54.0470
   -31.4712 -31.4615 -31.3989 -31.3587 -31.3586 -31.3574 -31.3299 -31.3296
   -31.2987 -31.2946 -31.2897 -31.2836 -31.2593 -31.2238 -31.2167 -31.2106
   -31.2085 -31.2047 -31.2040 -31.1952 -31.1631 -31.1620 -31.1584 -31.1562
   -31.1560 -31.1534 -31.1488 -31.1324 -31.1069 -31.1031 -31.0983 -31.0879
   -31.0860 -31.0839 -31.0830 -31.0672 -31.0488 -31.0474 -31.0371 -31.0316
   -31.0074 -30.9906 -30.3715 -30.3713 -30.2854 -30.2851 -30.2460 -30.2459
   -19.1820 -15.4160 -15.3256 -15.1775 -15.1585 -15.1085 -15.0604 -15.0439
   -15.0272 -14.9707 -14.9316 -14.8852 -14.8364 -14.7931 -14.7909 -14.7528
   -14.6804 -14.6590 -14.6568 -14.6424 -14.5912 -14.5805 -14.5530 -14.5342
   -14.5291 -14.4861 -14.4264 -14.4228 -14.3847 -14.2057 -13.3462 -12.5515
   -12.5514 -11.0950  -7.8875  -6.5265  -5.8444  -4.0894  -3.9331  -2.6847
    -2.5855  -2.5231  -2.4192  -2.3319  -2.2916  -2.2572  -2.1227  -2.1036
    -2.0843  -2.0583  -2.0457  -2.0118  -2.0040  -1.9548  -1.9265  -1.9160
    -1.9097  -1.8966  -1.8744  -1.8265  -1.8041  -1.7943  -1.7851  -1.7463
    -1.7325  -1.7004  -1.6945  -1.6556  -1.6341  -1.5505  -1.4600  -1.4203
    -1.3715  -1.3051  -1.2703  -1.2636  -1.1708  -1.1626  -1.1391  -1.1058
    -1.0607  -0.9407  -0.8832  -0.8198  -0.8157  -0.8031  -0.6966  -0.6590
    -0.6278  -0.5928  -0.5553  -0.5254  -0.4875  -0.4399  -0.3636  -0.3325
    -0.2929  -0.2563  -0.1848  -0.0955  -0.0773  -0.0457  -0.0415   0.0441
     0.0697   0.1079   0.1170   0.1363   0.1929   0.2062   0.2930   0.3830
     0.4475   0.5351   0.6489   0.6537   0.7304   0.8229   0.9089   0.9485
     1.0000   1.0658   1.0664   1.1014   1.2232   1.2305   1.3519   1.3908
     1.3996   1.4218   2.3172   2.3183   2.3994   2.3995   4.1475   4.2451
     4.2842   4.3254   4.3767   4.5229   4.5460   4.5919   4.5921   4.6628
     4.6759

     the Fermi energy is     4.0651 ev

!    total energy              =   -2942.84136388 Ry
     estimated scf accuracy    <       0.00000006 Ry
     smearing contrib. (-TS)   =      -0.03725307 Ry
     internal energy E=F+TS    =   -2942.80411082 Ry

     The total energy is F=E-TS. E is the sum of the following terms:
     one-electron contribution =  -23856.63272621 Ry
     hartree contribution      =   12023.65827657 Ry
     xc contribution           =    -487.75728346 Ry
     ewald contribution        =    9377.92290768 Ry
     electric field correction =       0.00471461 Ry

     convergence has been achieved in  74 iterations

     Forces acting on atoms (cartesian axes, Ry/au):

     atom    1 type  1   force =     0.00001270   -0.00023708    0.09433001
     atom    2 type  1   force =    -0.00015827   -0.00055290   -0.17709078
     atom    3 type  2   force =     0.00001553   -0.00024638   -0.02147458
     atom    4 type  2   force =    -0.00001542   -0.00167878    0.05643195
     atom    5 type  2   force =    -0.01049954   -0.00075100    0.00562073
     atom    6 type  2   force =     0.01226620   -0.00009495    0.00551402
     atom    7 type  1   force =    -0.00023500    0.00107774   -0.01570631
     atom    8 type  1   force =    -0.00006157    0.00525590    0.00655611
     atom    9 type  2   force =    -0.00030574    0.00055468    0.00021633
     atom   10 type  2   force =    -0.00199887    0.00265767   -0.00433977
     atom   11 type  2   force =     0.00039938   -0.00022939    0.00027982
     atom   12 type  2   force =    -0.00007822   -0.00029743   -0.00019773
     atom   13 type  1   force =    -0.00074224    0.00044337   -0.00010412
     atom   14 type  1   force =     0.00037584   -0.00017199   -0.00000148
     atom   15 type  2   force =    -0.00016203   -0.00057267   -0.00030156
     atom   16 type  2   force =     0.00003721    0.00039151   -0.00029220
     atom   17 type  2   force =     0.00079828    0.00012825    0.00039159
     atom   18 type  2   force =    -0.00042254    0.00035158    0.00047362
     atom   19 type  1   force =     0.00041621    0.00091239    0.00042282
     atom   20 type  1   force =    -0.00060431    0.00002418    0.00034382
     atom   21 type  2   force =    -0.00002036   -0.00011598    0.10366636
     atom   22 type  2   force =     0.00016476    0.00027080    0.00024809
     atom   23 type  2   force =    -0.07091560   -0.00021313   -0.02718919
     atom   24 type  2   force =     0.07071260    0.00023908   -0.02723680
     atom   25 type  1   force =     0.00000185   -0.00027249    0.09400030
     atom   26 type  1   force =    -0.00025070   -0.00055676   -0.17736806
     atom   27 type  2   force =     0.00005768   -0.00008065   -0.02060813
     atom   28 type  2   force =     0.00002404   -0.00136419    0.05572628
     atom   29 type  2   force =    -0.01080499   -0.00000491    0.00591664
     atom   30 type  2   force =     0.01249097    0.00028253    0.00576741
     atom   31 type  1   force =    -0.00016265    0.00517232   -0.01629060
     atom   32 type  1   force =    -0.00009723   -0.00626119    0.00668734
     atom   33 type  2   force =    -0.00009726   -0.00047540    0.00023630
     atom   34 type  2   force =    -0.00163638    0.00066909   -0.00773666
     atom   35 type  2   force =    -0.00032713    0.00006164    0.00041514
     atom   36 type  2   force =     0.00057625    0.00006117   -0.00007284
     atom   37 type  1   force =    -0.00083347   -0.00078446   -0.00015633
     atom   38 type  1   force =     0.00047923    0.00001842    0.00039882
     atom   39 type  2   force =    -0.00028208   -0.00019363    0.00065256
     atom   40 type  2   force =    -0.00006127   -0.00020240   -0.00021673
     atom   41 type  2   force =     0.00009350   -0.00041898    0.00024483
     atom   42 type  2   force =    -0.00025312   -0.00028562    0.00051994
     atom   43 type  1   force =     0.00016750   -0.00084319   -0.00015792
     atom   44 type  1   force =     0.00024623    0.00056436    0.00022429
     atom   45 type  2   force =    -0.00002256   -0.00011646    0.10365920
     atom   46 type  2   force =    -0.07092266   -0.00014291   -0.02716103
     atom   47 type  2   force =     0.07072246    0.00027967   -0.02723239
     atom   48 type  3   force =     0.02022043    0.00238060   -0.00305994
     atom   49 type  3   force =    -0.00475917   -0.00033776    0.00061121
     atom   50 type  4   force =    -0.00271190   -0.00050832   -0.00030725
     atom   51 type  5   force =     0.00056835    0.00023905    0.00148171
     atom   52 type  5   force =    -0.00065634   -0.00032450   -0.00063947
     atom   53 type  5   force =     0.00029608   -0.00078146   -0.00021645
     atom   54 type  5   force =    -0.00297250   -0.00357298    0.00139841
     atom   55 type  5   force =    -0.00126189    0.00023418   -0.00139045
     atom   56 type  5   force =    -0.00681027    0.00041978    0.00411310

     Total force =     0.366418     Total SCF correction =     0.000846
  @ DRIVER MODE: Message from server: STATUS
  @ DRIVER MODE: Message from server: GETFORCE
  @ DRIVER MODE: Returning v,forces,stress,ensemble

     Writing output data file ./calc.save/
  @ DRIVER MODE: Message from server: EXIT
  @ DRIVE MODE: Exiting

     General routines

     Parallel routines

   This run was terminated on:  22:37: 2   8Sep2021

   JOB DONE.