     Program PWSCF v.6.7GPU starts on  8Sep2021 at 21:51:39

     R & G space division:  proc/nbgrp/npool/nimage =      10
     Reading input from /storage/home/hcoda1/3/ntian30/research/carbon/CxH_vib/CH2_calc/ads_slab/CH2N2_b/out_0000/pw.inp
Warning: card &CELL ignored
Warning: card   CELL_DYNAMICS='IPI', ignored
Warning: card / ignored

     Current dimensions of program PWSCF are:
     Max number of different atomic species (ntypx) = 10
     Max number of k-points (npk) =  40000
     Max angular momentum in pseudopotentials (lmaxx) =  3
     Presently no symmetry can be used with electric field

     Message from routine cell_base_init:
     DEPRECATED: use true lattice parameter, not A to a.u. conversion factor

     IMPORTANT: XC functional enforced from input :
     Exchange-correlation= BEEF-VDW
                           (   1   4  43  14   2   0   0)
     Any further DFT definition will be discarded
     Please, verify this is what you really want

  @ DRIVER MODE: Connecting to
 qe_1139763_2767386.sched-torque.pace.gatech.edugeg59xz8_scratch
  using UNIX socket
  @ DRIVER MODE: Message from server: STATUS
  @ DRIVER MODE: Message from server: INIT
  @ DRIVER MODE: Receiving replica           0          -1
  @ DRIVER MODE: Receiving encoded integer          25
  @ DRIVER MODE:  SCF:  T  FORCE:  T  STRESS:  F  VC:  F  ENSEMBLE:  F
  @ DRIVER MODE:  SCF:  T  FORCE:  T  STRESS:  F  VC:  F  ENSEMBLE:  F

     Using Slab Decomposition

     bravais-lattice index     =            0
     lattice parameter (alat)  =       1.8897  a.u.
     unit-cell volume          =    6658.9804 (a.u.)^3
     number of atoms/cell      =           52
     number of atomic types    =            5
     number of electrons       =       394.00
     number of Kohn-Sham states=          207
     kinetic-energy cutoff     =      29.3995  Ry
     charge density cutoff     =     293.9946  Ry
     scf convergence threshold =      7.3E-08
     mixing beta               =       0.0500
     number of iterations used =            8  plain     mixing
     Exchange-correlation= BEEF-VDW
                           (   1   4  43  14   2   0   0)

     celldm(1)=   1.889726  celldm(2)=   0.000000  celldm(3)=   0.000000
     celldm(4)=   0.000000  celldm(5)=   0.000000  celldm(6)=   0.000000

     crystal axes: (cart. coord. in units of alat)
               a(1) = (   6.579727   0.000000   0.000000 )
               a(2) = (  -0.000775   5.961596   0.000000 )
               a(3) = (   0.000000   0.000000  25.155947 )

     reciprocal axes: (cart. coord. in units 2 pi/alat)
               b(1) = (  0.151982  0.000020  0.000000 )
               b(2) = (  0.000000  0.167740  0.000000 )
               b(3) = (  0.000000  0.000000  0.039752 )

     PseudoPot. # 1 for Ti read from file:
     /storage/coda1/p-amedford6/0/shared/rich_project_chbe-medford/medford-share/data/pseudos_module/espresso/nninc/pbe/van/Ti.UPF
     MD5 check sum: 8e4df49b7f0d34bbd5052bf3f5ea0213
     Pseudo is Ultrasoft, Zval = 12.0
     Generated by new atomic code, or converted to UPF format
     Using radial grid of  851 points,  6 beta functions with:
                l(1) =   0
                l(2) =   0
                l(3) =   1
                l(4) =   1
                l(5) =   2
                l(6) =   2
     Q(r) pseudized with  8 coefficients,  rinner =    1.000   1.000   1.000
                                                       1.000   1.000

     PseudoPot. # 2 for O  read from file:
     /storage/coda1/p-amedford6/0/shared/rich_project_chbe-medford/medford-share/data/pseudos_module/espresso/nninc/pbe/van/O.UPF
     MD5 check sum: 78c19812648e8988a0fe644b0f25305e
     Pseudo is Ultrasoft, Zval =  6.0
     Generated by new atomic code, or converted to UPF format
     Using radial grid of  737 points,  4 beta functions with:
                l(1) =   0
                l(2) =   0
                l(3) =   1
                l(4) =   1
     Q(r) pseudized with  8 coefficients,  rinner =    0.800   0.800   0.800

     PseudoPot. # 3 for N  read from file:
     /storage/coda1/p-amedford6/0/shared/rich_project_chbe-medford/medford-share/data/pseudos_module/espresso/nninc/pbe/van/N.UPF
     MD5 check sum: 90d10febe142ad51ac9d5be1deb811c4
     Pseudo is Ultrasoft, Zval =  5.0
     Generated by new atomic code, or converted to UPF format
     Using radial grid of  729 points,  4 beta functions with:
                l(1) =   0
                l(2) =   0
                l(3) =   1
                l(4) =   1
     Q(r) pseudized with  8 coefficients,  rinner =    0.800   0.800   0.800

     PseudoPot. # 4 for C  read from file:
     /storage/coda1/p-amedford6/0/shared/rich_project_chbe-medford/medford-share/data/pseudos_module/espresso/nninc/pbe/van/C.UPF
     MD5 check sum: 1a69bf6b8db32088f5b2163dbdb77a27
     Pseudo is Ultrasoft, Zval =  4.0
     Generated by new atomic code, or converted to UPF format
     Using radial grid of  721 points,  4 beta functions with:
                l(1) =   0
                l(2) =   0
                l(3) =   1
                l(4) =   1
     Q(r) pseudized with  8 coefficients,  rinner =    0.800   0.800   0.800

     PseudoPot. # 5 for H  read from file:
     /storage/coda1/p-amedford6/0/shared/rich_project_chbe-medford/medford-share/data/pseudos_module/espresso/nninc/pbe/van/H.UPF
     MD5 check sum: b5ee9d7bfd3a09ee7748110bda690ff7
     Pseudo is Ultrasoft, Zval =  1.0
     Generated by new atomic code, or converted to UPF format
     Using radial grid of  615 points,  1 beta functions with:
                l(1) =   0
     Q(r) pseudized with  8 coefficients,  rinner =    0.800

     atomic species   valence    mass     pseudopotential
        Ti1           12.00    47.86700     Ti( 1.00)
        O1             6.00    15.99900     O ( 1.00)
        N1             5.00    14.00700     N ( 1.00)
        C1             4.00    12.01100     C ( 1.00)
        H1             1.00     1.00800     H ( 1.00)

     No symmetry found

   Cartesian axes

     site n.     atom                  positions (alat units)
         1           Ti1 tau(   1) = (   0.0004258   2.9801865   6.0000000  )
         2           Ti1 tau(   2) = (   3.2906075   1.4906267   6.0002472  )
         3           O1  tau(   3) = (   0.0006271   0.0005054   7.9858123  )
         4           O1  tau(   4) = (   3.2906025   0.0005020   7.3038282  )
         5           O1  tau(   5) = (   4.5942328   1.4918067   9.2879030  )
         6           O1  tau(   6) = (   1.9868534   1.4903216   9.2879459  )
         7           Ti1 tau(   7) = (   3.2907910   2.8959150   9.1758416  )
         8           Ti1 tau(   8) = (   0.0015273   1.4827037   9.2680791  )
         9           O1  tau(   9) = (   3.2944872   5.9444814  11.3088555  )
        10           O1  tau(  10) = (   0.0116148   5.9584955  10.6183126  )
        11           O1  tau(  11) = (   1.2913257   1.4757505  12.6225222  )
        12           O1  tau(  12) = (   5.2743172   1.4729811  12.6021195  )
        13           Ti1 tau(  13) = (   0.0890023   2.9564894  12.7220187  )
        14           Ti1 tau(  14) = (   3.4221593   1.4702301  12.4648352  )
        15           O1  tau(  15) = (   0.0068176   5.9411714  14.5947238  )
        16           O1  tau(  16) = (   3.2944910   5.9492763  13.8828731  )
        17           O1  tau(  17) = (   4.5250581   1.4982466  16.0456249  )
        18           O1  tau(  18) = (   2.0665045   1.4881935  16.0281199  )
        19           Ti1 tau(  19) = (   3.2778778   2.9684174  15.6871799  )
        20           Ti1 tau(  20) = (   6.5490154   1.5309925  16.0314916  )
        21           O1  tau(  21) = (   3.2904802   0.0005063   4.7018136  )
        22           O1  tau(  22) = (   0.0123181   0.0076990  17.1679072  )
        23           O1  tau(  23) = (   1.3043587   1.4918075   6.0039043  )
        24           O1  tau(  24) = (   5.2767064   1.4903225   6.0039473  )
        25           Ti1 tau(  25) = (   0.0000382   5.9609847   6.0000000  )
        26           Ti1 tau(  26) = (   3.2902200   4.4714249   6.0002472  )
        27           O1  tau(  27) = (   0.0002396   2.9813036   7.9858123  )
        28           O1  tau(  28) = (   3.2902150   2.9813002   7.3038282  )
        29           O1  tau(  29) = (   4.5938453   4.4726049   9.2879030  )
        30           O1  tau(  30) = (   1.9864658   4.4711199   9.2879459  )
        31           Ti1 tau(  31) = (   3.2891106   5.8743827   9.1763621  )
        32           Ti1 tau(  32) = (   0.0006254   4.4649316   9.2693709  )
        33           O1  tau(  33) = (   3.2980042   2.9668427  11.3079272  )
        34           O1  tau(  34) = (   0.0092240   2.9805883  10.6323155  )
        35           O1  tau(  35) = (   1.2899229   4.4488879  12.6271902  )
        36           O1  tau(  36) = (   5.2743549   4.4545148  12.6090941  )
        37           Ti1 tau(  37) = (   0.1039690   5.9375691  12.6739196  )
        38           Ti1 tau(  38) = (   3.4213609   4.4493060  12.4702176  )
        39           O1  tau(  39) = (   6.5648181   2.9459624  14.6378081  )
        40           O1  tau(  40) = (   3.2943236   2.9658899  13.8785053  )
        41           O1  tau(  41) = (   4.5287159   4.4634493  16.0515226  )
        42           O1  tau(  42) = (   2.0597896   4.4749507  16.0164256  )
        43           Ti1 tau(  43) = (   3.2714021   5.9517381  15.6902239  )
        44           Ti1 tau(  44) = (   6.5616293   4.5902425  16.0297769  )
        45           O1  tau(  45) = (   3.2900926   2.9813045   4.7018136  )
        46           O1  tau(  46) = (   1.3039711   4.4726057   6.0039043  )
        47           O1  tau(  47) = (   5.2763189   4.4711207   6.0039473  )
        48           N1  tau(  48) = (   0.6459789   3.0609845  18.5091170  )
        49           N1  tau(  49) = (   0.0956274   2.9759187  17.3381616  )
        50           C1  tau(  50) = (   0.0579326   3.2697647  19.6266723  )
        51           H1  tau(  51) = (   5.5568954   3.3836083  19.7010695  )
        52           H1  tau(  52) = (   0.6727643   3.3288843  20.5134281  )

     number of k points=    10  Fermi-Dirac smearing, width (Ry)=  0.0073
                       cart. coord. in units 2pi/alat
        k(    1) = (   0.0000000   0.0000000   0.0000000), wk =   0.1250000
        k(    2) = (   0.0000000   0.0419351   0.0000000), wk =   0.2500000
        k(    3) = (   0.0000000  -0.0838702   0.0000000), wk =   0.1250000
        k(    4) = (   0.0379955   0.0000049   0.0000000), wk =   0.2500000
        k(    5) = (   0.0379955   0.0419400   0.0000000), wk =   0.2500000
        k(    6) = (   0.0379955  -0.0838652   0.0000000), wk =   0.2500000
        k(    7) = (   0.0379955  -0.0419301   0.0000000), wk =   0.2500000
        k(    8) = (  -0.0759910  -0.0000099   0.0000000), wk =   0.1250000
        k(    9) = (  -0.0759910   0.0419252   0.0000000), wk =   0.2500000
        k(   10) = (  -0.0759910  -0.0838800   0.0000000), wk =   0.1250000

     Initial potential from superposition of free atoms

     starting charge  377.99917, renormalised to  394.00000

     negative rho (up, down):  1.508E-02 0.000E+00

     %%%%%%%%%%%%%%%%%%%%%%%%%%%%%%%%%%%%%%%%%%%%%%%%%%%%%%%%%%%%%%%%%%%%%%%%
     %                                                                      %
     % You are using vdW-DF, which was implemented by the Thonhauser group. %
     % Please cite the following two papers that made this development      %
     % possible and the two reviews that describe the various versions:     %
     %                                                                      %
     %   T. Thonhauser et al., PRL 115, 136402 (2015).                      %
     %   T. Thonhauser et al., PRB 76, 125112 (2007).                       %
     %   K. Berland et al., Rep. Prog. Phys. 78, 066501 (2015).             %
     %   D.C. Langreth et al., J. Phys.: Condens. Matter 21, 084203 (2009). %
     %                                                                      %
     %                                                                      %
     % If you are calculating the stress with vdW-DF, please also cite:     %
     %                                                                      %
     %   R. Sabatini et al., J. Phys.: Condens. Matter 24, 424209 (2012).   %
     %                                                                      %
     %%%%%%%%%%%%%%%%%%%%%%%%%%%%%%%%%%%%%%%%%%%%%%%%%%%%%%%%%%%%%%%%%%%%%%%%

     Adding external electric field

     Computed dipole along edir(3) :
        Dipole               -7.6437 Ry au,        -19.4284 Debye
        Dipole field         -0.0144 Ry au,

        Potential amp.        1.3372 Ry
        Total length         46.3494 bohr

     Starting wfcs are  298 atomic wfcs
  @ DRIVER MODE: Message from server: STATUS
  @ DRIVER MODE: Message from server: POSDATA
  @ DRIVER MODE: Reading and sharing cell
  @ DRIVER MODE: Reading and sharing positions
  @ DRIVER MODE: Received positions

     Self-consistent Calculation

     iteration #  1     ecut=    29.40 Ry     beta= 0.05
     Davidson diagonalization with overlap
     ethr =  1.00E-02,  avg # of iterations =  2.3

[...]

     total energy              =   -2701.25381376 Ry
     estimated scf accuracy    <    2616.65960695 Ry

     iteration #  2     ecut=    29.40 Ry     beta= 0.05
     Davidson diagonalization with overlap
     c_bands:  2 eigenvalues not converged
     c_bands:  2 eigenvalues not converged
     c_bands:  1 eigenvalues not converged
     c_bands:  2 eigenvalues not converged
     c_bands:  2 eigenvalues not converged
     ethr =  1.00E-02,  avg # of iterations = 20.1

[...]

     iteration # 49     ecut=    29.40 Ry     beta= 0.05
     Davidson diagonalization with overlap
     c_bands:  1 eigenvalues not converged
     ethr =  4.02E-07,  avg # of iterations =  8.4

[...]

     total energy              =   -2937.89156244 Ry
     estimated scf accuracy    <       0.00000009 Ry

     iteration # 75     ecut=    29.40 Ry     beta= 0.05
     Davidson diagonalization with overlap
     ethr =  2.28E-11,  avg # of iterations =  6.5

     negative rho (up, down):  1.607E-02 0.000E+00

     Adding external electric field

     Computed dipole along edir(3) :
        Dipole                0.5211 Ry au,          1.3244 Debye
        Dipole field          0.0010 Ry au,

        Potential amp.       -0.0912 Ry
        Total length         46.3494 bohr

     End of self-consistent calculation

          k = 0.0000 0.0000 0.0000 ( 18029 PWs)   bands (ev):

   -56.3149 -56.2810 -55.8952 -55.8928 -55.8593 -55.8589 -55.8299 -55.7962
   -55.6775 -55.6687 -55.6380 -55.6321 -55.1632 -55.1364 -55.1292 -55.0593
   -32.7709 -32.6070 -32.5797 -32.4738 -32.4365 -32.3943 -32.3805 -32.3578
   -32.3163 -32.1932 -32.1799 -32.1501 -32.1408 -32.1179 -32.1079 -32.0772
   -32.0620 -32.0610 -32.0581 -32.0311 -32.0267 -32.0231 -32.0211 -32.0085
   -31.9956 -31.9927 -31.9818 -31.9402 -31.9119 -31.9076 -31.8434 -31.8295
   -31.8140 -31.8020 -31.7874 -31.7418 -31.6622 -31.5649 -31.4900 -31.4668
   -31.3894 -31.3822 -31.3470 -31.3135 -31.2966 -31.2615 -31.1864 -31.1855
   -17.7318 -16.6872 -16.5306 -16.2523 -16.0265 -15.9992 -15.8624 -15.8293
   -15.8053 -15.7774 -15.6569 -15.6169 -15.5791 -15.4624 -15.4194 -15.4072
   -15.3895 -15.3704 -15.3645 -15.2757 -15.2522 -15.2354 -15.1837 -15.0891
   -15.0577 -15.0163 -14.8748 -14.8580 -14.7612 -14.5007 -13.6643 -13.5504
   -11.9297  -6.6361  -4.6199  -4.1553  -4.0846  -4.0185  -3.8657  -3.7825
    -3.5954  -3.5617  -3.4678  -3.2402  -3.1547  -3.1459  -3.0701  -3.0455
    -3.0351  -2.9430  -2.8760  -2.8446  -2.8221  -2.8004  -2.7427  -2.6648
    -2.6189  -2.5858  -2.5671  -2.5340  -2.4282  -2.3724  -2.3569  -2.3331
    -2.2740  -2.2591  -2.2354  -2.2308  -2.1947  -2.1824  -2.1023  -2.0687
    -1.9456  -1.8721  -1.7485  -1.7414  -1.6694  -1.6507  -1.6260  -1.4274
    -1.4026  -1.3279  -1.2929  -1.2371  -1.2105  -1.1577  -1.0952  -1.0614
    -0.9641  -0.9367  -0.9063  -0.8715  -0.8493  -0.8194  -0.7997  -0.7402
    -0.6923  -0.5170  -0.4755  -0.4414  -0.3462  -0.3316  -0.3014  -0.2631
    -0.2489  -0.1965  -0.1907  -0.1770  -0.1186  -0.1044  -0.0194   0.0477
     0.0537   0.1031   0.1774   0.2397   0.2761   0.3939   0.4426   0.5101
     0.6055   0.6137   0.6746   0.8243   0.8387   0.8583   0.8628   1.0706
     1.3189   1.4204   1.4623   1.5662   2.7687   2.9057   3.0148   3.2106
     3.3271   3.3464   3.5229   3.6633   3.7005   3.7570   3.7650

[...]

          k = 0.0380-0.0419 0.0000 ( 17876 PWs)   bands (ev):

[...]

          k =-0.0760-0.0000 0.0000 ( 17886 PWs)   bands (ev):

[...]

          k =-0.0760-0.0839 0.0000 ( 17948 PWs)   bands (ev):

   -56.2980 -56.2976 -55.8795 -55.8782 -55.8748 -55.8731 -55.8140 -55.8122
   -55.6669 -55.6563 -55.6484 -55.6444 -55.1462 -55.1461 -55.1322 -55.0633
   -32.5928 -32.5922 -32.5867 -32.5864 -32.4254 -32.4250 -32.2434 -32.2395
   -32.1832 -32.1777 -32.1547 -32.1526 -32.1360 -32.1331 -32.0930 -32.0891
   -32.0678 -32.0620 -32.0555 -32.0531 -32.0420 -32.0405 -32.0271 -32.0260
   -32.0149 -32.0018 -31.9813 -31.9724 -31.9464 -31.9356 -31.8868 -31.8804
   -31.8728 -31.8475 -31.8157 -31.8120 -31.5512 -31.4797 -31.4795 -31.4060
   -31.3786 -31.3785 -31.3584 -31.3421 -31.3396 -31.3393 -31.2689 -31.2439
   -17.7258 -16.0469 -16.0447 -16.0407 -16.0343 -15.9163 -15.9141 -15.7572
   -15.7551 -15.7294 -15.7240 -15.5785 -15.5551 -15.5139 -15.5130 -15.4731
   -15.4631 -15.3942 -15.3914 -15.3826 -15.3767 -15.3616 -15.3570 -15.3125
   -15.2712 -15.0329 -14.9600 -14.9002 -14.7852 -14.6911 -13.6529 -13.6528
   -11.9339  -6.6304  -4.5597  -4.0793  -3.3372  -3.3325  -3.1693  -3.1516
    -3.0974  -3.0961  -3.0153  -2.9721  -2.9710  -2.8556  -2.8335  -2.7924
    -2.7889  -2.7749  -2.7723  -2.7384  -2.7325  -2.7107  -2.7042  -2.6485
    -2.6337  -2.6268  -2.6218  -2.5486  -2.5049  -2.4768  -2.4439  -2.4101
    -2.3810  -2.2900  -2.2864  -2.2492  -2.2275  -2.1686  -2.1650  -2.1111
    -2.0758  -2.0084  -1.9989  -1.7871  -1.7411  -1.7318  -1.6810  -1.5949
    -1.5726  -1.4275  -1.3962  -1.3344  -1.3217  -1.2719  -1.2537  -1.2450
    -1.1580  -1.1503  -1.1416  -1.0652  -1.0572  -0.9961  -0.9598  -0.9272
    -0.8429  -0.8287  -0.7898  -0.7871  -0.7772  -0.7095  -0.6629  -0.5910
    -0.5428  -0.5294  -0.4104  -0.3612  -0.2955  -0.2315  -0.1890  -0.0850
    -0.0429  -0.0332   0.1764   0.1871   0.2322   0.3228   0.4434   0.4446
     0.4830   0.5746   0.5964   0.6220   0.6388   0.8362   0.9095   1.2380
     1.2391   1.2790   1.2794   1.5300   2.7278   3.4303   3.4312   3.4562
     3.4567   3.5933   3.6170   3.6534   3.6626   3.7455   3.7493

     the Fermi energy is     2.8551 ev

!    total energy              =   -2937.89157361 Ry
     estimated scf accuracy    <       0.00000006 Ry
     smearing contrib. (-TS)   =      -0.01395580 Ry
     internal energy E=F+TS    =   -2937.87761781 Ry

     The total energy is F=E-TS. E is the sum of the following terms:
     one-electron contribution =  -24293.97970246 Ry
     hartree contribution      =   12233.33056472 Ry
     xc contribution           =    -484.31377538 Ry
     ewald contribution        =    9607.08478292 Ry
     electric field correction =       0.00051240 Ry

     convergence has been achieved in  75 iterations

     Forces acting on atoms (cartesian axes, Ry/au):

     atom    1 type  1   force =     0.00011331   -0.00021709    0.10742736
     atom    2 type  1   force =    -0.00012279   -0.00063422   -0.16927455
     atom    3 type  2   force =    -0.00016059    0.00000633   -0.04194553
     atom    4 type  2   force =     0.00005485   -0.00092914    0.04202603
     atom    5 type  2   force =    -0.01491817    0.00022066   -0.00301316
     atom    6 type  2   force =     0.01655231    0.00103633   -0.00398888
     atom    7 type  1   force =    -0.00113585   -0.00213125    0.00241474
     atom    8 type  1   force =     0.00131906    0.00452903    0.07560599
     atom    9 type  2   force =     0.00004158    0.00010961    0.00043702
     atom   10 type  2   force =    -0.00132351    0.00009904   -0.04721786
     atom   11 type  2   force =    -0.00047826    0.00031736    0.00023584
     atom   12 type  2   force =    -0.00007288    0.00050125    0.00014459
     atom   13 type  1   force =     0.00045110   -0.00041432    0.00071321
     atom   14 type  1   force =    -0.00014215   -0.00011951   -0.00005966
     atom   15 type  2   force =    -0.00022787   -0.00019970    0.00017528
     atom   16 type  2   force =     0.00019574    0.00024326   -0.00016207
     atom   17 type  2   force =     0.00011149    0.00049581    0.00030073
     atom   18 type  2   force =    -0.00039299   -0.00005858   -0.00030724
     atom   19 type  1   force =     0.00017585    0.00076174   -0.00024480
     atom   20 type  1   force =     0.00018797    0.00010219    0.00009639
     atom   21 type  2   force =     0.00006989    0.00004155    0.10164991
     atom   22 type  2   force =    -0.00042595    0.00041852    0.00010721
     atom   23 type  2   force =    -0.07421035   -0.00003465   -0.02981903
     atom   24 type  2   force =     0.07416730    0.00041786   -0.02982334
     atom   25 type  1   force =     0.00025703   -0.00034277    0.10691621
     atom   26 type  1   force =    -0.00002969   -0.00036345   -0.16935811
     atom   27 type  2   force =    -0.00004102   -0.00029378   -0.04088763
     atom   28 type  2   force =     0.00010967   -0.00074313    0.04200093
     atom   29 type  2   force =    -0.01522190    0.00063835   -0.00330074
     atom   30 type  2   force =     0.01678527    0.00101242   -0.00427225
     atom   31 type  1   force =    -0.00133447    0.00038086    0.00217201
     atom   32 type  1   force =     0.00130747   -0.00711703    0.07623095
     atom   33 type  2   force =    -0.00004967    0.00016854    0.00016262
     atom   34 type  2   force =    -0.00146325   -0.00007938   -0.05552779
     atom   35 type  2   force =     0.00000096    0.00006180    0.00011707
     atom   36 type  2   force =    -0.00002914    0.00021970   -0.00014607
     atom   37 type  1   force =     0.00022220    0.00028470    0.00040812
     atom   38 type  1   force =     0.00011532    0.00023028   -0.00030729
     atom   39 type  2   force =    -0.00022701   -0.00004204   -0.00065487
     atom   40 type  2   force =     0.00007887    0.00026575    0.00016073
     atom   41 type  2   force =    -0.00043225    0.00024080   -0.00043019
     atom   42 type  2   force =     0.00019264    0.00022121    0.00022509
     atom   43 type  1   force =    -0.00014093    0.00062178    0.00022985
     atom   44 type  1   force =    -0.00021464    0.00017346   -0.00008410
     atom   45 type  2   force =     0.00005971   -0.00000205    0.10164236
     atom   46 type  2   force =    -0.07420552    0.00001576   -0.02978895
     atom   47 type  2   force =     0.07415928    0.00044771   -0.02980941
     atom   48 type  3   force =     0.00048368    0.00086408   -0.00007837
     atom   49 type  3   force =     0.00015758   -0.00024223   -0.00096880
     atom   50 type  4   force =     0.00034847   -0.00127972    0.00076180
     atom   51 type  5   force =     0.00021680    0.00027973   -0.00055017
     atom   52 type  5   force =    -0.00093451   -0.00018338   -0.00034117

     Total force =     0.389256     Total SCF correction =     0.000601
  @ DRIVER MODE: Message from server: STATUS
  @ DRIVER MODE: Message from server: GETFORCE
  @ DRIVER MODE: Returning v,forces,stress,ensemble

     Writing output data file ./calc.save/
  @ DRIVER MODE: Message from server: EXIT
  @ DRIVE MODE: Exiting

     General routines

     Parallel routines

   This run was terminated on:  22:12:22   8Sep2021

   JOB DONE.