     Program PWSCF v.6.7GPU starts on  2Aug2021 at 13:50: 2

     R & G space division:  proc/nbgrp/npool/nimage =      16
     Reading input from /storage/home/hcoda1/3/ntian30/research/carbon/02Aug_vib_paired/ads_slab/CH3NN_a/out_0006/pw.inp
Warning: card &CELL ignored
Warning: card   CELL_DYNAMICS='IPI', ignored
Warning: card / ignored

     Current dimensions of program PWSCF are:
     Max number of different atomic species (ntypx) = 10
     Max number of k-points (npk) =  40000
     Max angular momentum in pseudopotentials (lmaxx) =  3
     Presently no symmetry can be used with electric field

     Message from routine cell_base_init:
     DEPRECATED: use true lattice parameter, not A to a.u. conversion factor

     IMPORTANT: XC functional enforced from input :
     Exchange-correlation= BEEF-VDW
                           (   1   4  43  14   2   0   0)
     Any further DFT definition will be discarded
     Please, verify this is what you really want

  @ DRIVER MODE: Connecting to
 qe_1139763_2482546.sched-torque.pace.gatech.edudnsb5764_scratch
  using UNIX socket
  @ DRIVER MODE: Message from server: STATUS
  @ DRIVER MODE: Message from server: INIT
  @ DRIVER MODE: Receiving replica           0          -1
  @ DRIVER MODE: Receiving encoded integer          25
  @ DRIVER MODE:  SCF:  T  FORCE:  T  STRESS:  F  VC:  F  ENSEMBLE:  F
  @ DRIVER MODE:  SCF:  T  FORCE:  T  STRESS:  F  VC:  F  ENSEMBLE:  F

     Using Slab Decomposition

     bravais-lattice index     =            0
     lattice parameter (alat)  =       1.8897  a.u.
     unit-cell volume          =    6658.9804 (a.u.)^3
     number of atoms/cell      =           53
     number of atomic types    =            5
     number of electrons       =       395.00
     number of Kohn-Sham states=          207
     kinetic-energy cutoff     =      29.3995  Ry
     charge density cutoff     =     293.9946  Ry
     scf convergence threshold =      7.3E-08
     mixing beta               =       0.0500
     number of iterations used =            8  plain     mixing
     Exchange-correlation= BEEF-VDW
                           (   1   4  43  14   2   0   0)

     celldm(1)=   1.889726  celldm(2)=   0.000000  celldm(3)=   0.000000
     celldm(4)=   0.000000  celldm(5)=   0.000000  celldm(6)=   0.000000

     crystal axes: (cart. coord. in units of alat)
               a(1) = (   6.579727   0.000000   0.000000 )
               a(2) = (  -0.000775   5.961596   0.000000 )
               a(3) = (   0.000000   0.000000  25.155947 )

     reciprocal axes: (cart. coord. in units 2 pi/alat)
               b(1) = (  0.151982  0.000020  0.000000 )
               b(2) = (  0.000000  0.167740  0.000000 )
               b(3) = (  0.000000  0.000000  0.039752 )

     PseudoPot. # 1 for Ti read from file:
     /storage/coda1/p-amedford6/0/shared/rich_project_chbe-medford/medford-share/data/pseudos_module/espresso/nninc/pbe/van/Ti.UPF
     MD5 check sum: 8e4df49b7f0d34bbd5052bf3f5ea0213
     Pseudo is Ultrasoft, Zval = 12.0
     Generated by new atomic code, or converted to UPF format
     Using radial grid of  851 points,  6 beta functions with:
                l(1) =   0
                l(2) =   0
                l(3) =   1
                l(4) =   1
                l(5) =   2
                l(6) =   2
     Q(r) pseudized with  8 coefficients,  rinner =    1.000   1.000   1.000
                                                       1.000   1.000

     PseudoPot. # 2 for O  read from file:
     /storage/coda1/p-amedford6/0/shared/rich_project_chbe-medford/medford-share/data/pseudos_module/espresso/nninc/pbe/van/O.UPF
     MD5 check sum: 78c19812648e8988a0fe644b0f25305e
     Pseudo is Ultrasoft, Zval =  6.0
     Generated by new atomic code, or converted to UPF format
     Using radial grid of  737 points,  4 beta functions with:
                l(1) =   0
                l(2) =   0
                l(3) =   1
                l(4) =   1
     Q(r) pseudized with  8 coefficients,  rinner =    0.800   0.800   0.800

     PseudoPot. # 3 for N  read from file:
     /storage/coda1/p-amedford6/0/shared/rich_project_chbe-medford/medford-share/data/pseudos_module/espresso/nninc/pbe/van/N.UPF
     MD5 check sum: 90d10febe142ad51ac9d5be1deb811c4
     Pseudo is Ultrasoft, Zval =  5.0
     Generated by new atomic code, or converted to UPF format
     Using radial grid of  729 points,  4 beta functions with:
                l(1) =   0
                l(2) =   0
                l(3) =   1
                l(4) =   1
     Q(r) pseudized with  8 coefficients,  rinner =    0.800   0.800   0.800

     PseudoPot. # 4 for C  read from file:
     /storage/coda1/p-amedford6/0/shared/rich_project_chbe-medford/medford-share/data/pseudos_module/espresso/nninc/pbe/van/C.UPF
     MD5 check sum: 1a69bf6b8db32088f5b2163dbdb77a27
     Pseudo is Ultrasoft, Zval =  4.0
     Generated by new atomic code, or converted to UPF format
     Using radial grid of  721 points,  4 beta functions with:
                l(1) =   0
                l(2) =   0
                l(3) =   1
                l(4) =   1
     Q(r) pseudized with  8 coefficients,  rinner =    0.800   0.800   0.800

     PseudoPot. # 5 for H  read from file:
     /storage/coda1/p-amedford6/0/shared/rich_project_chbe-medford/medford-share/data/pseudos_module/espresso/nninc/pbe/van/H.UPF
     MD5 check sum: b5ee9d7bfd3a09ee7748110bda690ff7
     Pseudo is Ultrasoft, Zval =  1.0
     Generated by new atomic code, or converted to UPF format
     Using radial grid of  615 points,  1 beta functions with:
                l(1) =   0
     Q(r) pseudized with  8 coefficients,  rinner =    0.800

     atomic species   valence    mass     pseudopotential
        Ti1           12.00    47.86700     Ti( 1.00)
        O1             6.00    15.99900     O ( 1.00)
        N1             5.00    14.00700     N ( 1.00)
        C1             4.00    12.01100     C ( 1.00)
        H1             1.00     1.00800     H ( 1.00)

     No symmetry found

   Cartesian axes

     site n.     atom                  positions (alat units)
         1           Ti1 tau(   1) = (   0.0004258   2.9801865   6.0000000  )
         2           Ti1 tau(   2) = (   3.2906075   1.4906267   6.0002472  )
         3           O1  tau(   3) = (   0.0006271   0.0005054   7.9858123  )
         4           O1  tau(   4) = (   3.2906025   0.0005020   7.3038282  )
         5           O1  tau(   5) = (   4.5942328   1.4918067   9.2879030  )
         6           O1  tau(   6) = (   1.9868534   1.4903216   9.2879459  )
         7           Ti1 tau(   7) = (   3.2907910   2.8959150   9.1758416  )
         8           Ti1 tau(   8) = (   0.0015273   1.4827037   9.2680791  )
         9           O1  tau(   9) = (   3.2935944   5.9504131  11.3331737  )
        10           O1  tau(  10) = (   0.0116148   5.9584955  10.6183126  )
        11           O1  tau(  11) = (   1.3139784   1.4900993  12.6222913  )
        12           O1  tau(  12) = (   5.2991156   1.4868386  12.6236412  )
        13           Ti1 tau(  13) = (   6.5257823   2.9641578  12.6501544  )
        14           Ti1 tau(  14) = (   3.2087869   1.4768241  12.4812772  )
        15           O1  tau(  15) = (   0.0069532   0.0155221  14.6013729  )
        16           O1  tau(  16) = (   3.2989757   5.9447163  13.9218705  )
        17           O1  tau(  17) = (   4.5399408   1.4684032  16.0509043  )
        18           O1  tau(  18) = (   2.0534050   1.4785924  16.0487376  )
        19           Ti1 tau(  19) = (   3.3071538   2.9600697  15.7031993  )
        20           Ti1 tau(  20) = (   0.0179100   1.3679571  15.8029155  )
        21           O1  tau(  21) = (   3.2904802   0.0005063   4.7018136  )
        22           O1  tau(  22) = (   0.0297737   0.0076327  17.1327444  )
        23           O1  tau(  23) = (   1.3043587   1.4918075   6.0039043  )
        24           O1  tau(  24) = (   5.2767064   1.4903225   6.0039473  )
        25           Ti1 tau(  25) = (   0.0000382   5.9609847   6.0000000  )
        26           Ti1 tau(  26) = (   3.2902200   4.4714249   6.0002472  )
        27           O1  tau(  27) = (   0.0002396   2.9813036   7.9858123  )
        28           O1  tau(  28) = (   3.2902150   2.9813002   7.3038282  )
        29           O1  tau(  29) = (   4.5938453   4.4726049   9.2879030  )
        30           O1  tau(  30) = (   1.9864658   4.4711199   9.2879459  )
        31           Ti1 tau(  31) = (   3.2891106   5.8743827   9.1763621  )
        32           Ti1 tau(  32) = (   0.0006254   4.4649316   9.2693709  )
        33           O1  tau(  33) = (   3.2925666   2.9731923  11.3325550  )
        34           O1  tau(  34) = (   0.0092240   2.9805883  10.6323155  )
        35           O1  tau(  35) = (   1.3076969   4.4692784  12.6256357  )
        36           O1  tau(  36) = (   5.2992390   4.4652990  12.6273021  )
        37           Ti1 tau(  37) = (   6.5214685   5.9362284  12.5385417  )
        38           Ti1 tau(  38) = (   3.2054519   4.4560432  12.4842663  )
        39           O1  tau(  39) = (   0.0022752   2.9713357  14.7092999  )
        40           O1  tau(  40) = (   3.3007181   2.9764241  13.9083417  )
        41           O1  tau(  41) = (   4.5485645   4.4411382  16.0917119  )
        42           O1  tau(  42) = (   2.0537992   4.4371030  16.0853891  )
        43           Ti1 tau(  43) = (   3.2976414   5.9412218  15.7196561  )
        44           Ti1 tau(  44) = (   0.0123595   4.4653852  16.1631357  )
        45           O1  tau(  45) = (   3.2900926   2.9813045   4.7018136  )
        46           O1  tau(  46) = (   1.3039711   4.4726057   6.0039043  )
        47           O1  tau(  47) = (   5.2763189   4.4711207   6.0039473  )
        48           N1  tau(  48) = (   0.6591532   2.9890904  22.3881942  )
        49           C1  tau(  49) = (   6.5648715   3.0365617  17.8347222  )
        50           H1  tau(  50) = (   6.0219261   3.7962297  18.4082231  )
        51           H1  tau(  51) = (   6.0207922   2.1139738  18.0322221  )
        52           H1  tau(  52) = (   0.9815245   2.9432023  18.2699478  )
        53           N1  tau(  53) = (   6.1995506   3.0156182  22.7499213  )

     number of k points=    10  Fermi-Dirac smearing, width (Ry)=  0.0073
                       cart. coord. in units 2pi/alat
        k(    1) = (   0.0000000   0.0000000   0.0000000), wk =   0.1250000
        k(    2) = (   0.0000000   0.0419351   0.0000000), wk =   0.2500000
        k(    3) = (   0.0000000  -0.0838702   0.0000000), wk =   0.1250000
        k(    4) = (   0.0379955   0.0000049   0.0000000), wk =   0.2500000
        k(    5) = (   0.0379955   0.0419400   0.0000000), wk =   0.2500000
        k(    6) = (   0.0379955  -0.0838652   0.0000000), wk =   0.2500000
        k(    7) = (   0.0379955  -0.0419301   0.0000000), wk =   0.2500000
        k(    8) = (  -0.0759910  -0.0000099   0.0000000), wk =   0.1250000
        k(    9) = (  -0.0759910   0.0419252   0.0000000), wk =   0.2500000
        k(   10) = (  -0.0759910  -0.0838800   0.0000000), wk =   0.1250000

     Initial potential from superposition of free atoms

     starting charge  378.99916, renormalised to  395.00000

     negative rho (up, down):  1.028E-02 0.000E+00

     %%%%%%%%%%%%%%%%%%%%%%%%%%%%%%%%%%%%%%%%%%%%%%%%%%%%%%%%%%%%%%%%%%%%%%%%
     %                                                                      %
     % You are using vdW-DF, which was implemented by the Thonhauser group. %
     % Please cite the following two papers that made this development      %
     % possible and the two reviews that describe the various versions:     %
     %                                                                      %
     %   T. Thonhauser et al., PRL 115, 136402 (2015).                      %
     %   T. Thonhauser et al., PRB 76, 125112 (2007).                       %
     %   K. Berland et al., Rep. Prog. Phys. 78, 066501 (2015).             %
     %   D.C. Langreth et al., J. Phys.: Condens. Matter 21, 084203 (2009). %
     %                                                                      %
     %                                                                      %
     % If you are calculating the stress with vdW-DF, please also cite:     %
     %                                                                      %
     %   R. Sabatini et al., J. Phys.: Condens. Matter 24, 424209 (2012).   %
     %                                                                      %
     %%%%%%%%%%%%%%%%%%%%%%%%%%%%%%%%%%%%%%%%%%%%%%%%%%%%%%%%%%%%%%%%%%%%%%%%

     Adding external electric field

     Computed dipole along edir(3) :
        Dipole              -11.4376 Ry au,        -29.0715 Debye
        Dipole field         -0.0216 Ry au,

        Potential amp.        2.0008 Ry
        Total length         46.3494 bohr

     Starting wfcs are  299 atomic wfcs
  @ DRIVER MODE: Message from server: STATUS
  @ DRIVER MODE: Message from server: POSDATA
  @ DRIVER MODE: Reading and sharing cell
  @ DRIVER MODE: Reading and sharing positions
  @ DRIVER MODE: Received positions

     Self-consistent Calculation

     iteration #  1     ecut=    29.40 Ry     beta= 0.05
     Davidson diagonalization with overlap
     c_bands:  1 eigenvalues not converged
     c_bands:  1 eigenvalues not converged
     c_bands:  1 eigenvalues not converged
     c_bands:  1 eigenvalues not converged
     c_bands:  2 eigenvalues not converged
     c_bands:  2 eigenvalues not converged
     c_bands:  1 eigenvalues not converged
     c_bands:  1 eigenvalues not converged
     ethr =  1.00E-05,  avg # of iterations = 19.3

[...]

     total energy              =   -2597.40562231 Ry
     estimated scf accuracy    <    3829.10071932 Ry

     iteration #  2     ecut=    29.40 Ry     beta= 0.05
     Davidson diagonalization with overlap
     ethr =  1.00E-02,  avg # of iterations = 22.6

[...]

     iteration # 54     ecut=    29.40 Ry     beta= 0.05
     Davidson diagonalization with overlap
     c_bands:  1 eigenvalues not converged
     c_bands:  1 eigenvalues not converged
     ethr =  6.94E-08,  avg # of iterations = 12.0

[...]

     total energy              =   -2939.19602282 Ry
     estimated scf accuracy    <       0.00000013 Ry

     iteration # 72     ecut=    29.40 Ry     beta= 0.05
     Davidson diagonalization with overlap
     ethr =  3.21E-11,  avg # of iterations =  6.9

     negative rho (up, down):  1.219E-02 0.000E+00

     Adding external electric field

     Computed dipole along edir(3) :
        Dipole                0.4060 Ry au,          1.0318 Debye
        Dipole field          0.0008 Ry au,

        Potential amp.       -0.0710 Ry
        Total length         46.3494 bohr

     End of self-consistent calculation

          k = 0.0000 0.0000 0.0000 ( 18029 PWs)   bands (ev):

   -56.0206 -56.0098 -55.9866 -55.9738 -55.9030 -55.8786 -55.8575 -55.8354
   -55.8263 -55.7930 -55.7924 -55.7592 -55.5774 -55.4530 -54.9975 -54.9634
   -32.5654 -32.5027 -32.3742 -32.3566 -32.3264 -32.3258 -32.3135 -32.2834
   -32.2626 -32.2392 -32.2331 -32.2207 -32.1907 -32.1727 -32.1618 -32.1501
   -32.1341 -32.1246 -32.1084 -32.0825 -32.0795 -32.0776 -32.0399 -32.0318
   -32.0288 -32.0239 -32.0142 -32.0102 -31.9953 -31.9930 -31.9877 -31.9677
   -31.9669 -31.9605 -31.9456 -31.9298 -31.9047 -31.8620 -31.7909 -31.7359
   -31.6693 -31.5577 -31.4046 -31.3162 -31.2938 -31.2213 -31.1348 -31.0238
   -20.6807 -16.7669 -16.4958 -16.2727 -16.1741 -16.1483 -16.0314 -15.8635
   -15.7392 -15.6949 -15.5948 -15.5796 -15.5561 -15.5257 -15.5134 -15.5040
   -15.4688 -15.4615 -15.4439 -15.4321 -15.3811 -15.3634 -15.3536 -15.2421
   -15.1965 -15.1548 -15.1388 -15.0750 -15.0262 -14.6395 -13.4999 -13.3835
    -9.0867  -5.7718  -4.1391  -3.9788  -3.9263  -3.8826  -3.8521  -3.7824
    -3.7792  -3.6358  -3.5720  -3.2652  -3.2079  -3.1918  -3.1740  -3.1461
    -2.9864  -2.9202  -2.8557  -2.8331  -2.8271  -2.7986  -2.7906  -2.7770
    -2.7404  -2.7013  -2.6786  -2.6327  -2.5797  -2.5055  -2.5023  -2.4365
    -2.4138  -2.3344  -2.3151  -2.2900  -2.2617  -2.2478  -2.2385  -2.2172
    -2.1994  -2.1791  -1.9907  -1.9612  -1.8940  -1.8092  -1.8041  -1.6273
    -1.5276  -1.4982  -1.4734  -1.4465  -1.4118  -1.3968  -1.3193  -1.2085
    -1.1758  -1.1378  -1.0759  -1.0254  -0.9941  -0.8943  -0.8712  -0.7824
    -0.7811  -0.7566  -0.7024  -0.6099  -0.5060  -0.4758  -0.4583  -0.4112
    -0.3759  -0.3124  -0.2952  -0.2340  -0.1688  -0.1576  -0.0823  -0.0557
    -0.0510  -0.0266  -0.0155   0.0291   0.0434   0.1646   0.1876   0.2733
     0.3177   0.4135   0.5344   0.6389   0.6757   0.7349   0.9501   1.0246
     1.1239   1.1662   1.2168   1.5959   1.6415   3.1187   3.2019   3.2500
     3.2575   3.3511   3.3645   3.5666   3.5933   3.6242   3.6625

[...]

          k = 0.0380-0.0419 0.0000 ( 17876 PWs)   bands (ev):

[...]

          k =-0.0760-0.0000 0.0000 ( 17886 PWs)   bands (ev):

[...]

          k =-0.0760-0.0839 0.0000 ( 17948 PWs)   bands (ev):

   -56.0042 -56.0028 -55.9923 -55.9912 -55.8951 -55.8702 -55.8652 -55.8437
   -55.8102 -55.8080 -55.7780 -55.7744 -55.5754 -55.4548 -54.9806 -54.9802
   -32.3692 -32.3681 -32.3184 -32.3176 -32.2994 -32.2984 -32.2838 -32.2753
   -32.2277 -32.2133 -32.2107 -32.2059 -32.1694 -32.1528 -32.1500 -32.1392
   -32.1312 -32.1236 -32.1221 -32.1221 -32.1159 -32.1123 -32.0948 -32.0871
   -32.0627 -32.0601 -32.0556 -32.0304 -32.0107 -32.0094 -32.0079 -32.0061
   -31.9920 -31.9900 -31.9871 -31.9820 -31.9413 -31.8469 -31.7929 -31.7386
   -31.7096 -31.6078 -31.3066 -31.3063 -31.2175 -31.2172 -31.1781 -31.1779
   -20.6806 -16.2017 -16.1810 -15.9780 -15.9351 -15.9295 -15.9247 -15.8212
   -15.7179 -15.7155 -15.7138 -15.6436 -15.6188 -15.6077 -15.5586 -15.5559
   -15.5448 -15.5333 -15.5281 -15.4819 -15.4746 -15.4572 -15.4485 -15.3833
   -15.3365 -15.3319 -15.3103 -15.1212 -15.0004 -14.9223 -13.4854 -13.4851
    -9.0996  -5.7751  -3.7861  -3.7818  -3.4931  -3.4688  -3.2365  -3.1807
    -3.1682  -3.0945  -2.9519  -2.9162  -2.9100  -2.8974  -2.8637  -2.8520
    -2.8364  -2.8280  -2.8175  -2.7908  -2.7669  -2.7337  -2.7279  -2.7044
    -2.6892  -2.6715  -2.6475  -2.6380  -2.6194  -2.5939  -2.5808  -2.5595
    -2.5495  -2.5242  -2.4884  -2.3532  -2.2542  -2.2172  -2.1571  -2.1494
    -2.1277  -2.0960  -2.0819  -2.0647  -2.0605  -2.0063  -1.8481  -1.7410
    -1.7252  -1.6883  -1.6396  -1.6191  -1.5651  -1.4304  -1.4035  -1.3771
    -1.3148  -1.3027  -1.2562  -1.2338  -1.2206  -1.1396  -1.1226  -1.0615
    -0.9999  -0.9806  -0.9769  -0.9206  -0.8610  -0.7906  -0.7804  -0.7375
    -0.7000  -0.6492  -0.6303  -0.5957  -0.5265  -0.4902  -0.3706  -0.3215
    -0.0921  -0.0396   0.0265   0.0731   0.1313   0.1786   0.1829   0.2979
     0.3002   0.3147   0.4133   0.4185   0.5069   0.5241   0.5472   0.7369
     1.2639   1.3883   1.3891   1.4609   1.4615   3.3938   3.4120   3.4412
     3.4832   3.6193   3.6286   3.6472   3.6487   3.7748   3.7952

     the Fermi energy is     3.1147 ev

!    total energy              =   -2939.19603773 Ry
     estimated scf accuracy    <       0.00000007 Ry
     smearing contrib. (-TS)   =      -0.02186700 Ry
     internal energy E=F+TS    =   -2939.17417073 Ry

     The total energy is F=E-TS. E is the sum of the following terms:
     one-electron contribution =  -23188.98997246 Ry
     hartree contribution      =   11679.76349709 Ry
     xc contribution           =    -484.91301903 Ry
     ewald contribution        =    9054.96501268 Ry
     electric field correction =       0.00031100 Ry

     convergence has been achieved in  72 iterations

     Forces acting on atoms (cartesian axes, Ry/au):

     atom    1 type  1   force =    -0.00000897   -0.00018512    0.09686411
     atom    2 type  1   force =    -0.00001022   -0.00055061   -0.17528714
     atom    3 type  2   force =     0.00009774   -0.00001467   -0.02519420
     atom    4 type  2   force =    -0.00003241   -0.00141338    0.05282213
     atom    5 type  2   force =    -0.01239194   -0.00103428    0.00324681
     atom    6 type  2   force =     0.01388169   -0.00053137    0.00284866
     atom    7 type  1   force =     0.00060676    0.00043892   -0.01144948
     atom    8 type  1   force =     0.00025405    0.01541853    0.02924287
     atom    9 type  2   force =    -0.00019431    0.00078751    0.00004432
     atom   10 type  2   force =    -0.00283942    0.00140825   -0.01826329
     atom   11 type  2   force =     0.00081635    0.00002499   -0.00002177
     atom   12 type  2   force =    -0.00062007   -0.00016297   -0.00010592
     atom   13 type  1   force =     0.00059539   -0.00030169   -0.00000909
     atom   14 type  1   force =    -0.00039872    0.00028469   -0.00009067
     atom   15 type  2   force =     0.00015954   -0.00013505    0.00073732
     atom   16 type  2   force =    -0.00014802    0.00008564    0.00048594
     atom   17 type  2   force =     0.00026353   -0.00060909   -0.00019551
     atom   18 type  2   force =    -0.00002727   -0.00063691    0.00008529
     atom   19 type  1   force =    -0.00006377   -0.00144460   -0.00026954
     atom   20 type  1   force =     0.00006653    0.00026602   -0.00004021
     atom   21 type  2   force =     0.00002312    0.00005585    0.10325631
     atom   22 type  2   force =    -0.00021060    0.00041212   -0.00006522
     atom   23 type  2   force =    -0.07152828   -0.00009602   -0.02770190
     atom   24 type  2   force =     0.07139556    0.00039332   -0.02776047
     atom   25 type  1   force =     0.00005808   -0.00025708    0.09666273
     atom   26 type  1   force =     0.00003444   -0.00013278   -0.17546046
     atom   27 type  2   force =     0.00012762   -0.00011998   -0.02392667
     atom   28 type  2   force =    -0.00000632   -0.00118445    0.05300733
     atom   29 type  2   force =    -0.01258457    0.00056404    0.00300313
     atom   30 type  2   force =     0.01393966    0.00102147    0.00263224
     atom   31 type  1   force =     0.00052880    0.00339988   -0.01251750
     atom   32 type  1   force =     0.00027427   -0.01699748    0.02993335
     atom   33 type  2   force =    -0.00024585   -0.00052698   -0.00052027
     atom   34 type  2   force =    -0.00265516    0.00030983   -0.02242023
     atom   35 type  2   force =    -0.00005079   -0.00016610    0.00001864
     atom   36 type  2   force =     0.00000907   -0.00001807    0.00005335
     atom   37 type  1   force =     0.00028538   -0.00037550   -0.00056424
     atom   38 type  1   force =    -0.00023554    0.00040266    0.00021860
     atom   39 type  2   force =     0.00002418   -0.00039334    0.00033709
     atom   40 type  2   force =     0.00032762   -0.00051017    0.00000877
     atom   41 type  2   force =    -0.00036844    0.00013891    0.00003161
     atom   42 type  2   force =     0.00051747    0.00030851   -0.00009212
     atom   43 type  1   force =    -0.00023676    0.00068177    0.00003649
     atom   44 type  1   force =     0.00027726   -0.00048428   -0.00014238
     atom   45 type  2   force =     0.00002377    0.00002638    0.10324030
     atom   46 type  2   force =    -0.07151902   -0.00000727   -0.02769485
     atom   47 type  2   force =     0.07136602    0.00040413   -0.02775638
     atom   48 type  3   force =     0.01782421   -0.00029978   -0.00691796
     atom   49 type  4   force =     0.00140735   -0.00039078   -0.00119109
     atom   50 type  5   force =    -0.00053479    0.00118317    0.00027414
     atom   51 type  5   force =    -0.00007871   -0.00047131    0.00041496
     atom   52 type  5   force =    -0.00021115    0.00071080    0.00005284
     atom   53 type  3   force =    -0.01798432    0.00072371    0.00609925

     Total force =     0.369835     Total SCF correction =     0.000528
  @ DRIVER MODE: Message from server: STATUS
  @ DRIVER MODE: Message from server: GETFORCE
  @ DRIVER MODE: Returning v,forces,stress,ensemble

     Writing output data file ./calc.save/
  @ DRIVER MODE: Message from server: EXIT
  @ DRIVE MODE: Exiting

     General routines

     Parallel routines

   This run was terminated on:  14:17:37   2Aug2021

   JOB DONE.