     Program PWSCF v.6.7GPU starts on  8Sep2021 at 22:28:36

     R & G space division:  proc/nbgrp/npool/nimage =      10
     Reading input from /storage/home/hcoda1/3/ntian30/research/carbon/CxH_vib/C_calc/ads_slab/CN_a/out_0002/pw.inp
Warning: card &CELL ignored
Warning: card   CELL_DYNAMICS='IPI', ignored
Warning: card / ignored

     Current dimensions of program PWSCF are:
     Max number of different atomic species (ntypx) = 10
     Max number of k-points (npk) =  40000
     Max angular momentum in pseudopotentials (lmaxx) =  3
     Presently no symmetry can be used with electric field

     Message from routine cell_base_init:
     DEPRECATED: use true lattice parameter, not A to a.u. conversion factor

     IMPORTANT: XC functional enforced from input :
     Exchange-correlation= BEEF-VDW
                           (   1   4  43  14   2   0   0)
     Any further DFT definition will be discarded
     Please, verify this is what you really want

  @ DRIVER MODE: Connecting to
 qe_1139763_2767374.sched-torque.pace.gatech.edud1q5srq2_scratch
  using UNIX socket
  @ DRIVER MODE: Message from server: STATUS
  @ DRIVER MODE: Message from server: INIT
  @ DRIVER MODE: Receiving replica           0          -1
  @ DRIVER MODE: Receiving encoded integer          25
  @ DRIVER MODE:  SCF:  T  FORCE:  T  STRESS:  F  VC:  F  ENSEMBLE:  F
  @ DRIVER MODE:  SCF:  T  FORCE:  T  STRESS:  F  VC:  F  ENSEMBLE:  F

     Using Slab Decomposition

     bravais-lattice index     =            0
     lattice parameter (alat)  =       1.8897  a.u.
     unit-cell volume          =    6658.9804 (a.u.)^3
     number of atoms/cell      =           49
     number of atomic types    =            4
     number of electrons       =       387.00
     number of Kohn-Sham states=          203
     kinetic-energy cutoff     =      29.3995  Ry
     charge density cutoff     =     293.9946  Ry
     scf convergence threshold =      7.3E-08
     mixing beta               =       0.0500
     number of iterations used =            8  plain     mixing
     Exchange-correlation= BEEF-VDW
                           (   1   4  43  14   2   0   0)

     celldm(1)=   1.889726  celldm(2)=   0.000000  celldm(3)=   0.000000
     celldm(4)=   0.000000  celldm(5)=   0.000000  celldm(6)=   0.000000

     crystal axes: (cart. coord. in units of alat)
               a(1) = (   6.579727   0.000000   0.000000 )
               a(2) = (  -0.000775   5.961596   0.000000 )
               a(3) = (   0.000000   0.000000  25.155947 )

     reciprocal axes: (cart. coord. in units 2 pi/alat)
               b(1) = (  0.151982  0.000020  0.000000 )
               b(2) = (  0.000000  0.167740  0.000000 )
               b(3) = (  0.000000  0.000000  0.039752 )

     PseudoPot. # 1 for Ti read from file:
     /storage/coda1/p-amedford6/0/shared/rich_project_chbe-medford/medford-share/data/pseudos_module/espresso/nninc/pbe/van/Ti.UPF
     MD5 check sum: 8e4df49b7f0d34bbd5052bf3f5ea0213
     Pseudo is Ultrasoft, Zval = 12.0
     Generated by new atomic code, or converted to UPF format
     Using radial grid of  851 points,  6 beta functions with:
                l(1) =   0
                l(2) =   0
                l(3) =   1
                l(4) =   1
                l(5) =   2
                l(6) =   2
     Q(r) pseudized with  8 coefficients,  rinner =    1.000   1.000   1.000
                                                       1.000   1.000

     PseudoPot. # 2 for O  read from file:
     /storage/coda1/p-amedford6/0/shared/rich_project_chbe-medford/medford-share/data/pseudos_module/espresso/nninc/pbe/van/O.UPF
     MD5 check sum: 78c19812648e8988a0fe644b0f25305e
     Pseudo is Ultrasoft, Zval =  6.0
     Generated by new atomic code, or converted to UPF format
     Using radial grid of  737 points,  4 beta functions with:
                l(1) =   0
                l(2) =   0
                l(3) =   1
                l(4) =   1
     Q(r) pseudized with  8 coefficients,  rinner =    0.800   0.800   0.800

     PseudoPot. # 3 for N  read from file:
     /storage/coda1/p-amedford6/0/shared/rich_project_chbe-medford/medford-share/data/pseudos_module/espresso/nninc/pbe/van/N.UPF
     MD5 check sum: 90d10febe142ad51ac9d5be1deb811c4
     Pseudo is Ultrasoft, Zval =  5.0
     Generated by new atomic code, or converted to UPF format
     Using radial grid of  729 points,  4 beta functions with:
                l(1) =   0
                l(2) =   0
                l(3) =   1
                l(4) =   1
     Q(r) pseudized with  8 coefficients,  rinner =    0.800   0.800   0.800

     PseudoPot. # 4 for C  read from file:
     /storage/coda1/p-amedford6/0/shared/rich_project_chbe-medford/medford-share/data/pseudos_module/espresso/nninc/pbe/van/C.UPF
     MD5 check sum: 1a69bf6b8db32088f5b2163dbdb77a27
     Pseudo is Ultrasoft, Zval =  4.0
     Generated by new atomic code, or converted to UPF format
     Using radial grid of  721 points,  4 beta functions with:
                l(1) =   0
                l(2) =   0
                l(3) =   1
                l(4) =   1
     Q(r) pseudized with  8 coefficients,  rinner =    0.800   0.800   0.800

     atomic species   valence    mass     pseudopotential
        Ti1           12.00    47.86700     Ti( 1.00)
        O1             6.00    15.99900     O ( 1.00)
        N1             5.00    14.00700     N ( 1.00)
        C1             4.00    12.01100     C ( 1.00)

     No symmetry found

   Cartesian axes

     site n.     atom                  positions (alat units)
         1           Ti1 tau(   1) = (   0.0004258   2.9801865   6.0000000  )
         2           Ti1 tau(   2) = (   3.2906075   1.4906267   6.0002472  )
         3           O1  tau(   3) = (   0.0006271   0.0005054   7.9858123  )
         4           O1  tau(   4) = (   3.2906025   0.0005020   7.3038282  )
         5           O1  tau(   5) = (   4.5942328   1.4918067   9.2879030  )
         6           O1  tau(   6) = (   1.9868534   1.4903216   9.2879459  )
         7           Ti1 tau(   7) = (   3.2907910   2.8959150   9.1758416  )
         8           Ti1 tau(   8) = (   0.0015273   1.4827037   9.2680791  )
         9           O1  tau(   9) = (   3.2906544   5.9526486  11.3360365  )
        10           O1  tau(  10) = (   0.0116148   5.9584955  10.6183126  )
        11           O1  tau(  11) = (   1.2859751   1.4766153  12.6250921  )
        12           O1  tau(  12) = (   5.2747213   1.4793106  12.6166009  )
        13           Ti1 tau(  13) = (   0.0603843   2.9584451  12.6427671  )
        14           Ti1 tau(  14) = (   3.3778536   1.4756059  12.4863933  )
        15           O1  tau(  15) = (   6.5752277   0.0194043  14.6532461  )
        16           O1  tau(  16) = (   3.2875826   0.0023437  13.9196692  )
        17           O1  tau(  17) = (   4.5326611   1.5140167  16.0393429  )
        18           O1  tau(  18) = (   2.0377802   1.5105360  16.0392308  )
        19           Ti1 tau(  19) = (   3.2776205   2.9998382  15.7112304  )
        20           Ti1 tau(  20) = (   6.5636215   1.4772787  15.8536107  )
        21           O1  tau(  21) = (   3.2904802   0.0005063   4.7018136  )
        22           O1  tau(  22) = (   6.5677839   0.0282815  17.1640259  )
        23           O1  tau(  23) = (   1.3043587   1.4918075   6.0039043  )
        24           O1  tau(  24) = (   5.2767064   1.4903225   6.0039473  )
        25           Ti1 tau(  25) = (   0.0000382   5.9609847   6.0000000  )
        26           Ti1 tau(  26) = (   3.2902200   4.4714249   6.0002472  )
        27           O1  tau(  27) = (   0.0002396   2.9813036   7.9858123  )
        28           O1  tau(  28) = (   3.2902150   2.9813002   7.3038282  )
        29           O1  tau(  29) = (   4.5938453   4.4726049   9.2879030  )
        30           O1  tau(  30) = (   1.9864658   4.4711199   9.2879459  )
        31           Ti1 tau(  31) = (   3.2891106   5.8743827   9.1763621  )
        32           Ti1 tau(  32) = (   0.0006254   4.4649316   9.2693709  )
        33           O1  tau(  33) = (   3.2934253   2.9766276  11.3360394  )
        34           O1  tau(  34) = (   0.0092240   2.9805883  10.6323155  )
        35           O1  tau(  35) = (   1.2837843   4.4682058  12.6378402  )
        36           O1  tau(  36) = (   5.2794199   4.4724371  12.6287280  )
        37           Ti1 tau(  37) = (   0.0629162   5.9364049  12.5278104  )
        38           Ti1 tau(  38) = (   3.3790601   4.4565194  12.4925032  )
        39           O1  tau(  39) = (   6.5767340   2.9373485  14.6650829  )
        40           O1  tau(  40) = (   3.2863475   2.9847055  13.9098935  )
        41           O1  tau(  41) = (   4.5306188   4.4848726  16.0532295  )
        42           O1  tau(  42) = (   2.0355158   4.4881816  16.0516428  )
        43           Ti1 tau(  43) = (   3.2786155   0.0182257  15.7221571  )
        44           Ti1 tau(  44) = (   6.5667443   4.6373684  16.0773964  )
        45           O1  tau(  45) = (   3.2900926   2.9813045   4.7018136  )
        46           O1  tau(  46) = (   1.3039711   4.4726057   6.0039043  )
        47           O1  tau(  47) = (   5.2763189   4.4711207   6.0039473  )
        48           N1  tau(  48) = (   0.0124438   2.9903893  17.4749376  )
        49           C1  tau(  49) = (   0.0264708   2.9368645  18.6621426  )

     number of k points=    10  Fermi-Dirac smearing, width (Ry)=  0.0073
                       cart. coord. in units 2pi/alat
        k(    1) = (   0.0000000   0.0000000   0.0000000), wk =   0.1250000
        k(    2) = (   0.0000000   0.0419351   0.0000000), wk =   0.2500000
        k(    3) = (   0.0000000  -0.0838702   0.0000000), wk =   0.1250000
        k(    4) = (   0.0379955   0.0000049   0.0000000), wk =   0.2500000
        k(    5) = (   0.0379955   0.0419400   0.0000000), wk =   0.2500000
        k(    6) = (   0.0379955  -0.0838652   0.0000000), wk =   0.2500000
        k(    7) = (   0.0379955  -0.0419301   0.0000000), wk =   0.2500000
        k(    8) = (  -0.0759910  -0.0000099   0.0000000), wk =   0.1250000
        k(    9) = (  -0.0759910   0.0419252   0.0000000), wk =   0.2500000
        k(   10) = (  -0.0759910  -0.0838800   0.0000000), wk =   0.1250000

     Initial potential from superposition of free atoms

     starting charge  370.99920, renormalised to  387.00000

     negative rho (up, down):  2.000E-02 0.000E+00

     %%%%%%%%%%%%%%%%%%%%%%%%%%%%%%%%%%%%%%%%%%%%%%%%%%%%%%%%%%%%%%%%%%%%%%%%
     %                                                                      %
     % You are using vdW-DF, which was implemented by the Thonhauser group. %
     % Please cite the following two papers that made this development      %
     % possible and the two reviews that describe the various versions:     %
     %                                                                      %
     %   T. Thonhauser et al., PRL 115, 136402 (2015).                      %
     %   T. Thonhauser et al., PRB 76, 125112 (2007).                       %
     %   K. Berland et al., Rep. Prog. Phys. 78, 066501 (2015).             %
     %   D.C. Langreth et al., J. Phys.: Condens. Matter 21, 084203 (2009). %
     %                                                                      %
     %                                                                      %
     % If you are calculating the stress with vdW-DF, please also cite:     %
     %                                                                      %
     %   R. Sabatini et al., J. Phys.: Condens. Matter 24, 424209 (2012).   %
     %                                                                      %
     %%%%%%%%%%%%%%%%%%%%%%%%%%%%%%%%%%%%%%%%%%%%%%%%%%%%%%%%%%%%%%%%%%%%%%%%

     Adding external electric field

     Computed dipole along edir(3) :
        Dipole               -3.3355 Ry au,         -8.4779 Debye
        Dipole field         -0.0063 Ry au,

        Potential amp.        0.5835 Ry
        Total length         46.3494 bohr

     Starting wfcs are  292 atomic wfcs
  @ DRIVER MODE: Message from server: STATUS
  @ DRIVER MODE: Message from server: POSDATA
  @ DRIVER MODE: Reading and sharing cell
  @ DRIVER MODE: Reading and sharing positions
  @ DRIVER MODE: Received positions

     Self-consistent Calculation

     iteration #  1     ecut=    29.40 Ry     beta= 0.05
     Davidson diagonalization with overlap
     c_bands:  2 eigenvalues not converged
     c_bands:  3 eigenvalues not converged
     c_bands:  1 eigenvalues not converged
     c_bands:  5 eigenvalues not converged
     c_bands:  1 eigenvalues not converged
     c_bands:  4 eigenvalues not converged
     ethr =  1.00E-05,  avg # of iterations = 18.6

[...]

     total energy              =   -2906.87723991 Ry
     estimated scf accuracy    <     123.17187588 Ry

     iteration #  2     ecut=    29.40 Ry     beta= 0.05
     Davidson diagonalization with overlap
     ethr =  1.00E-02,  avg # of iterations = 16.5

[...]

     iteration # 56     ecut=    29.40 Ry     beta= 0.05
     Davidson diagonalization with overlap
     c_bands:  1 eigenvalues not converged
     c_bands:  1 eigenvalues not converged
     c_bands:  4 eigenvalues not converged
     c_bands:  1 eigenvalues not converged
     c_bands:  1 eigenvalues not converged
     c_bands:  1 eigenvalues not converged
     ethr =  2.22E-10,  avg # of iterations = 19.1

[...]

     total energy              =   -2915.40626516 Ry
     estimated scf accuracy    <       0.00000019 Ry

     iteration # 60     ecut=    29.40 Ry     beta= 0.05
     Davidson diagonalization with overlap
     ethr =  4.86E-11,  avg # of iterations = 12.6

     negative rho (up, down):  1.872E-02 0.000E+00

     Adding external electric field

     Computed dipole along edir(3) :
        Dipole               -0.2929 Ry au,         -0.7444 Debye
        Dipole field         -0.0006 Ry au,

        Potential amp.        0.0512 Ry
        Total length         46.3494 bohr

     End of self-consistent calculation

          k = 0.0000 0.0000 0.0000 ( 18029 PWs)   bands (ev):

   -56.6728 -56.6608 -56.6387 -56.6244 -56.5390 -56.5272 -56.5043 -56.4919
   -56.4827 -56.4508 -56.4486 -56.4169 -56.4150 -56.1995 -55.6524 -55.6184
   -33.2119 -33.1556 -33.0269 -33.0001 -32.9824 -32.9682 -32.9654 -32.9411
   -32.9159 -32.8869 -32.8838 -32.8662 -32.8605 -32.8392 -32.8250 -32.8134
   -32.7979 -32.7830 -32.7774 -32.7663 -32.7437 -32.7309 -32.7299 -32.6821
   -32.6820 -32.6753 -32.6751 -32.6720 -32.6701 -32.6519 -32.6409 -32.6326
   -32.6248 -32.6175 -32.6154 -32.6098 -32.6036 -32.5859 -32.5624 -32.4450
   -32.4239 -32.4059 -32.0595 -31.9711 -31.9486 -31.8763 -31.7898 -31.6787
   -17.4116 -17.1504 -16.9184 -16.8297 -16.8038 -16.6589 -16.5223 -16.4042
   -16.3287 -16.2799 -16.2328 -16.2219 -16.2099 -16.1756 -16.1373 -16.1199
   -16.1130 -16.0919 -16.0614 -16.0508 -16.0338 -16.0131 -15.9724 -15.8470
   -15.8081 -15.7575 -15.7324 -15.7024 -15.4069 -15.3161 -14.1547 -14.0382
    -5.3009  -4.7789  -4.6320  -4.5796  -4.5221  -4.4450  -4.2913  -4.2015
    -3.9301  -3.8603  -3.8387  -3.8216  -3.7774  -3.5968  -3.5732  -3.4896
    -3.4752  -3.4724  -3.4519  -3.4342  -3.4286  -3.3751  -3.2861  -3.2305
    -3.2214  -3.1141  -3.0731  -3.0613  -2.9971  -2.9860  -2.9644  -2.9292
    -2.9110  -2.9099  -2.8887  -2.8562  -2.7490  -2.7320  -2.6440  -2.5521
    -2.4752  -2.4147  -2.2828  -2.1540  -2.1408  -2.1042  -2.0849  -2.0658
    -2.0045  -1.9703  -1.9201  -1.8417  -1.8365  -1.7882  -1.7296  -1.6579
    -1.6259  -1.5533  -1.4876  -1.4361  -1.4338  -1.4199  -1.3489  -1.1603
    -1.1177  -1.0951  -1.0533  -0.9940  -0.9466  -0.9408  -0.8798  -0.8554
    -0.8127  -0.7613  -0.7260  -0.7052  -0.6966  -0.6755  -0.6671  -0.6285
    -0.5788  -0.4737  -0.4401  -0.3996  -0.3644  -0.2559  -0.1240  -0.0459
    -0.0171   0.0986   0.2956   0.3699   0.4623   0.5111   0.5616   0.9413
     0.9870   2.4587   2.5474   2.5913   2.6073   2.6927   2.7098   2.9139
     2.9412   2.9512   3.0111

[...]

          k = 0.0380-0.0419 0.0000 ( 17876 PWs)   bands (ev):

[...]

          k =-0.0760-0.0000 0.0000 ( 17886 PWs)   bands (ev):

[...]

          k =-0.0760-0.0839 0.0000 ( 17948 PWs)   bands (ev):

   -56.6565 -56.6547 -56.6454 -56.6395 -56.5234 -56.5197 -56.5138 -56.5052
   -56.4670 -56.4639 -56.4362 -56.4317 -56.4137 -56.2007 -55.6354 -55.6352
   -33.0180 -33.0124 -32.9714 -32.9702 -32.9516 -32.9501 -32.9212 -32.9167
   -32.8746 -32.8685 -32.8518 -32.8479 -32.8098 -32.8071 -32.8057 -32.8003
   -32.7942 -32.7881 -32.7791 -32.7763 -32.7743 -32.7737 -32.7698 -32.7321
   -32.7243 -32.7178 -32.7164 -32.7138 -32.6866 -32.6682 -32.6668 -32.6654
   -32.6625 -32.6506 -32.6483 -32.6472 -32.6390 -32.6279 -32.6227 -32.4876
   -32.4510 -32.4265 -31.9614 -31.9613 -31.8723 -31.8722 -31.8331 -31.8331
   -16.8281 -16.8146 -16.6531 -16.5876 -16.5651 -16.5578 -16.5183 -16.3779
   -16.3641 -16.3630 -16.2894 -16.2544 -16.2437 -16.2141 -16.1989 -16.1958
   -16.1843 -16.1737 -16.1337 -16.1280 -16.1168 -16.1058 -16.0731 -16.0413
   -15.9932 -15.9887 -15.8108 -15.6925 -15.5849 -15.4020 -14.1402 -14.1398
    -5.1957  -4.1170  -4.0994  -3.9256  -3.8168  -3.8066  -3.7571  -3.6259
    -3.5739  -3.5664  -3.5338  -3.5159  -3.5027  -3.4952  -3.4857  -3.4568
    -3.4272  -3.3924  -3.3772  -3.3597  -3.3472  -3.3282  -3.3118  -3.3021
    -3.2858  -3.2638  -3.2304  -3.2169  -3.2013  -3.1718  -3.0392  -2.9298
    -2.8668  -2.8175  -2.8054  -2.7943  -2.7500  -2.7387  -2.7274  -2.6884
    -2.5478  -2.5104  -2.3793  -2.3774  -2.3315  -2.2760  -2.2711  -2.1326
    -2.1055  -2.0938  -2.0730  -2.0094  -1.9782  -1.9037  -1.8762  -1.8237
    -1.7983  -1.7528  -1.6809  -1.6692  -1.6419  -1.6321  -1.6238  -1.5484
    -1.5040  -1.4377  -1.4318  -1.4111  -1.3504  -1.3192  -1.2663  -1.1877
    -1.1509  -1.0182  -0.9566  -0.7722  -0.7585  -0.6580  -0.5998  -0.5825
    -0.5366  -0.4994  -0.3760  -0.3622  -0.3554  -0.2839  -0.2726  -0.2573
    -0.1478  -0.1377  -0.1176   0.0662   0.4973   0.7332   0.7342   0.8064
     0.8071   2.7681   2.7745   2.8111   2.8302   2.9628   2.9722   2.9937
     2.9954   3.1038   3.1228

     the Fermi energy is     2.4603 ev

!    total energy              =   -2915.40630507 Ry
     estimated scf accuracy    <       0.00000003 Ry
     smearing contrib. (-TS)   =      -0.02159754 Ry
     internal energy E=F+TS    =   -2915.38470752 Ry

     The total energy is F=E-TS. E is the sum of the following terms:
     one-electron contribution =  -24972.15895314 Ry
     hartree contribution      =   12561.26204949 Ry
     xc contribution           =    -477.44794347 Ry
     ewald contribution        =    9972.95997771 Ry
     electric field correction =       0.00016188 Ry

     convergence has been achieved in  60 iterations

     Forces acting on atoms (cartesian axes, Ry/au):

     atom    1 type  1   force =     0.00015145   -0.00020958    0.09633967
     atom    2 type  1   force =    -0.00012408   -0.00060981   -0.17547256
     atom    3 type  2   force =     0.00003173   -0.00003349   -0.02459219
     atom    4 type  2   force =     0.00008671   -0.00145749    0.05305103
     atom    5 type  2   force =    -0.01197666   -0.00120367    0.00380911
     atom    6 type  2   force =     0.01363186   -0.00046963    0.00269252
     atom    7 type  1   force =    -0.00106864    0.00059488   -0.01038589
     atom    8 type  1   force =     0.00049429    0.01692906    0.02648229
     atom    9 type  2   force =    -0.00004636   -0.00011619   -0.00057821
     atom   10 type  2   force =    -0.00123439    0.00038005   -0.01550181
     atom   11 type  2   force =     0.00009031    0.00022426   -0.00017292
     atom   12 type  2   force =     0.00009470    0.00033917   -0.00033401
     atom   13 type  1   force =    -0.00014843   -0.00005732    0.00006840
     atom   14 type  1   force =     0.00001989    0.00029799   -0.00032883
     atom   15 type  2   force =    -0.00000970   -0.00016227    0.00091827
     atom   16 type  2   force =    -0.00004041    0.00038818    0.00010717
     atom   17 type  2   force =     0.00036592    0.00019748    0.00029294
     atom   18 type  2   force =     0.00009417   -0.00000441    0.00004465
     atom   19 type  1   force =    -0.00001325   -0.00014827    0.00015776
     atom   20 type  1   force =    -0.00003519    0.00013831   -0.00015876
     atom   21 type  2   force =     0.00010059   -0.00000802    0.10333044
     atom   22 type  2   force =     0.00047831    0.00033787    0.00025361
     atom   23 type  2   force =    -0.07142203   -0.00008308   -0.02763072
     atom   24 type  2   force =     0.07142732    0.00034193   -0.02764461
     atom   25 type  1   force =     0.00005293   -0.00022270    0.09627199
     atom   26 type  1   force =    -0.00019541   -0.00016278   -0.17557686
     atom   27 type  2   force =     0.00009721   -0.00023190   -0.02351840
     atom   28 type  2   force =     0.00011349   -0.00123720    0.05334026
     atom   29 type  2   force =    -0.01213644    0.00067573    0.00352690
     atom   30 type  2   force =     0.01370710    0.00103009    0.00241722
     atom   31 type  1   force =    -0.00093954    0.00338198   -0.01152276
     atom   32 type  1   force =     0.00067580   -0.01868724    0.02686603
     atom   33 type  2   force =    -0.00014754    0.00029668   -0.00001331
     atom   34 type  2   force =    -0.00097684    0.00039097   -0.02319930
     atom   35 type  2   force =     0.00019994    0.00000167   -0.00006842
     atom   36 type  2   force =    -0.00017929    0.00003669   -0.00020319
     atom   37 type  1   force =    -0.00021634   -0.00018418   -0.00028596
     atom   38 type  1   force =    -0.00005606    0.00028730   -0.00043137
     atom   39 type  2   force =     0.00006659   -0.00055769    0.00005809
     atom   40 type  2   force =    -0.00004438    0.00016330    0.00052409
     atom   41 type  2   force =     0.00070599   -0.00058517    0.00013252
     atom   42 type  2   force =    -0.00013189   -0.00037769   -0.00039095
     atom   43 type  1   force =    -0.00006993   -0.00004593   -0.00040753
     atom   44 type  1   force =    -0.00013214   -0.00072722    0.00033899
     atom   45 type  2   force =     0.00009934   -0.00002919    0.10333434
     atom   46 type  2   force =    -0.07143819   -0.00005257   -0.02764492
     atom   47 type  2   force =     0.07145063    0.00038516   -0.02766206
     atom   48 type  3   force =    -0.00145881    0.00038027   -0.00173947
     atom   49 type  4   force =     0.00000567    0.00046565    0.00110667

     Total force =     0.368279     Total SCF correction =     0.000626
  @ DRIVER MODE: Message from server: STATUS
  @ DRIVER MODE: Message from server: GETFORCE
  @ DRIVER MODE: Returning v,forces,stress,ensemble

     Writing output data file ./calc.save/
  @ DRIVER MODE: Message from server: EXIT
  @ DRIVE MODE: Exiting

     General routines

     Parallel routines

   This run was terminated on:  22:46:43   8Sep2021

   JOB DONE.