     Program PWSCF v.6.7GPU starts on 15Sep2021 at 20:43:48

     R & G space division:  proc/nbgrp/npool/nimage =      10
     Reading input from /storage/home/hcoda1/3/ntian30/research/carbon/CxH_vib/H2O_calc/ads_slab/CH3NHNH2H2O_a/out_0015/pw.inp
Warning: card &CELL ignored
Warning: card   CELL_DYNAMICS='IPI', ignored
Warning: card / ignored

     Current dimensions of program PWSCF are:
     Max number of different atomic species (ntypx) = 10
     Max number of k-points (npk) =  40000
     Max angular momentum in pseudopotentials (lmaxx) =  3
     Presently no symmetry can be used with electric field

     Message from routine cell_base_init:
     DEPRECATED: use true lattice parameter, not A to a.u. conversion factor

     IMPORTANT: XC functional enforced from input :
     Exchange-correlation= BEEF-VDW
                           (   1   4  43  14   2   0   0)
     Any further DFT definition will be discarded
     Please, verify this is what you really want

  @ DRIVER MODE: Connecting to
 qe_1139763_2852619.sched-torque.pace.gatech.eduqva3uqja_scratch
  using UNIX socket
  @ DRIVER MODE: Message from server: STATUS
  @ DRIVER MODE: Message from server: INIT
  @ DRIVER MODE: Receiving replica           0          -1
  @ DRIVER MODE: Receiving encoded integer          25
  @ DRIVER MODE:  SCF:  T  FORCE:  T  STRESS:  F  VC:  F  ENSEMBLE:  F
  @ DRIVER MODE:  SCF:  T  FORCE:  T  STRESS:  F  VC:  F  ENSEMBLE:  F

     Using Slab Decomposition

     bravais-lattice index     =            0
     lattice parameter (alat)  =       1.8897  a.u.
     unit-cell volume          =    6658.9804 (a.u.)^3
     number of atoms/cell      =           59
     number of atomic types    =            5
     number of electrons       =       406.00
     number of Kohn-Sham states=          213
     kinetic-energy cutoff     =      29.3995  Ry
     charge density cutoff     =     293.9946  Ry
     scf convergence threshold =      7.3E-08
     mixing beta               =       0.0500
     number of iterations used =            8  plain     mixing
     Exchange-correlation= BEEF-VDW
                           (   1   4  43  14   2   0   0)

     celldm(1)=   1.889726  celldm(2)=   0.000000  celldm(3)=   0.000000
     celldm(4)=   0.000000  celldm(5)=   0.000000  celldm(6)=   0.000000

     crystal axes: (cart. coord. in units of alat)
               a(1) = (   6.579727   0.000000   0.000000 )
               a(2) = (  -0.000775   5.961596   0.000000 )
               a(3) = (   0.000000   0.000000  25.155947 )

     reciprocal axes: (cart. coord. in units 2 pi/alat)
               b(1) = (  0.151982  0.000020  0.000000 )
               b(2) = (  0.000000  0.167740  0.000000 )
               b(3) = (  0.000000  0.000000  0.039752 )

     PseudoPot. # 1 for Ti read from file:
     /storage/coda1/p-amedford6/0/shared/rich_project_chbe-medford/medford-share/data/pseudos_module/espresso/nninc/pbe/van/Ti.UPF
     MD5 check sum: 8e4df49b7f0d34bbd5052bf3f5ea0213
     Pseudo is Ultrasoft, Zval = 12.0
     Generated by new atomic code, or converted to UPF format
     Using radial grid of  851 points,  6 beta functions with:
                l(1) =   0
                l(2) =   0
                l(3) =   1
                l(4) =   1
                l(5) =   2
                l(6) =   2
     Q(r) pseudized with  8 coefficients,  rinner =    1.000   1.000   1.000
                                                       1.000   1.000

     PseudoPot. # 2 for O  read from file:
     /storage/coda1/p-amedford6/0/shared/rich_project_chbe-medford/medford-share/data/pseudos_module/espresso/nninc/pbe/van/O.UPF
     MD5 check sum: 78c19812648e8988a0fe644b0f25305e
     Pseudo is Ultrasoft, Zval =  6.0
     Generated by new atomic code, or converted to UPF format
     Using radial grid of  737 points,  4 beta functions with:
                l(1) =   0
                l(2) =   0
                l(3) =   1
                l(4) =   1
     Q(r) pseudized with  8 coefficients,  rinner =    0.800   0.800   0.800

     PseudoPot. # 3 for N  read from file:
     /storage/coda1/p-amedford6/0/shared/rich_project_chbe-medford/medford-share/data/pseudos_module/espresso/nninc/pbe/van/N.UPF
     MD5 check sum: 90d10febe142ad51ac9d5be1deb811c4
     Pseudo is Ultrasoft, Zval =  5.0
     Generated by new atomic code, or converted to UPF format
     Using radial grid of  729 points,  4 beta functions with:
                l(1) =   0
                l(2) =   0
                l(3) =   1
                l(4) =   1
     Q(r) pseudized with  8 coefficients,  rinner =    0.800   0.800   0.800

     PseudoPot. # 4 for C  read from file:
     /storage/coda1/p-amedford6/0/shared/rich_project_chbe-medford/medford-share/data/pseudos_module/espresso/nninc/pbe/van/C.UPF
     MD5 check sum: 1a69bf6b8db32088f5b2163dbdb77a27
     Pseudo is Ultrasoft, Zval =  4.0
     Generated by new atomic code, or converted to UPF format
     Using radial grid of  721 points,  4 beta functions with:
                l(1) =   0
                l(2) =   0
                l(3) =   1
                l(4) =   1
     Q(r) pseudized with  8 coefficients,  rinner =    0.800   0.800   0.800

     PseudoPot. # 5 for H  read from file:
     /storage/coda1/p-amedford6/0/shared/rich_project_chbe-medford/medford-share/data/pseudos_module/espresso/nninc/pbe/van/H.UPF
     MD5 check sum: b5ee9d7bfd3a09ee7748110bda690ff7
     Pseudo is Ultrasoft, Zval =  1.0
     Generated by new atomic code, or converted to UPF format
     Using radial grid of  615 points,  1 beta functions with:
                l(1) =   0
     Q(r) pseudized with  8 coefficients,  rinner =    0.800

     atomic species   valence    mass     pseudopotential
        Ti1           12.00    47.86700     Ti( 1.00)
        O1             6.00    15.99900     O ( 1.00)
        N1             5.00    14.00700     N ( 1.00)
        C1             4.00    12.01100     C ( 1.00)
        H1             1.00     1.00800     H ( 1.00)

     No symmetry found

   Cartesian axes

     site n.     atom                  positions (alat units)
         1           Ti1 tau(   1) = (   0.0004258   2.9801865   6.0000000  )
         2           Ti1 tau(   2) = (   3.2906075   1.4906267   6.0002472  )
         3           O1  tau(   3) = (   0.0006271   0.0005054   7.9858123  )
         4           O1  tau(   4) = (   3.2906025   0.0005020   7.3038282  )
         5           O1  tau(   5) = (   4.5942328   1.4918067   9.2879030  )
         6           O1  tau(   6) = (   1.9868534   1.4903216   9.2879459  )
         7           Ti1 tau(   7) = (   3.2907910   2.8959150   9.1758416  )
         8           Ti1 tau(   8) = (   0.0015273   1.4827037   9.2680791  )
         9           O1  tau(   9) = (   3.2683845   0.0132936  11.3796717  )
        10           O1  tau(  10) = (   0.0116148   5.9584955  10.6183126  )
        11           O1  tau(  11) = (   1.2681313   1.5011218  12.7194972  )
        12           O1  tau(  12) = (   5.2787963   1.4993765  12.6897032  )
        13           Ti1 tau(  13) = (   6.5560253   2.9823375  12.4990790  )
        14           Ti1 tau(  14) = (   3.2673924   1.4925278  12.5394213  )
        15           O1  tau(  15) = (   6.5345332   5.8735037  14.6996474  )
        16           O1  tau(  16) = (   3.2898196   5.9462848  13.9939205  )
        17           O1  tau(  17) = (   4.4957945   1.5291507  16.1605787  )
        18           O1  tau(  18) = (   1.9883785   1.5110281  16.0762771  )
        19           Ti1 tau(  19) = (   3.2526948   3.0056396  15.7740191  )
        20           Ti1 tau(  20) = (   0.0000763   1.3299063  15.8143521  )
        21           O1  tau(  21) = (   3.2904802   0.0005063   4.7018136  )
        22           O1  tau(  22) = (   6.5205728   0.2065101  17.2442985  )
        23           O1  tau(  23) = (   1.3043587   1.4918075   6.0039043  )
        24           O1  tau(  24) = (   5.2767064   1.4903225   6.0039473  )
        25           Ti1 tau(  25) = (   0.0000382   5.9609847   6.0000000  )
        26           Ti1 tau(  26) = (   3.2902200   4.4714249   6.0002472  )
        27           O1  tau(  27) = (   0.0002396   2.9813036   7.9858123  )
        28           O1  tau(  28) = (   3.2902150   2.9813002   7.3038282  )
        29           O1  tau(  29) = (   4.5938453   4.4726049   9.2879030  )
        30           O1  tau(  30) = (   1.9864658   4.4711199   9.2879459  )
        31           Ti1 tau(  31) = (   3.2891106   5.8743827   9.1763621  )
        32           Ti1 tau(  32) = (   0.0006254   4.4649316   9.2693709  )
        33           O1  tau(  33) = (   3.2688559   2.9716192  11.3757022  )
        34           O1  tau(  34) = (   0.0092240   2.9805883  10.6323155  )
        35           O1  tau(  35) = (   1.2711362   4.4646907  12.6658965  )
        36           O1  tau(  36) = (   5.2748280   4.4660984  12.6332574  )
        37           Ti1 tau(  37) = (   6.5627654   5.9477838  12.5072267  )
        38           Ti1 tau(  38) = (   3.2667511   4.4702655  12.5260729  )
        39           O1  tau(  39) = (   6.5087961   3.0586107  15.0099536  )
        40           O1  tau(  40) = (   3.2849776   3.0149387  13.9815115  )
        41           O1  tau(  41) = (   4.4906635   4.4862850  16.2792570  )
        42           O1  tau(  42) = (   1.9756856   4.4939852  16.2100911  )
        43           Ti1 tau(  43) = (   3.2747729   0.0241646  15.7895078  )
        44           Ti1 tau(  44) = (   6.5697470   4.5456975  16.1185117  )
        45           O1  tau(  45) = (   3.2900926   2.9813045   4.7018136  )
        46           O1  tau(  46) = (   1.3039711   4.4726057   6.0039043  )
        47           O1  tau(  47) = (   5.2763189   4.4711207   6.0039473  )
        48           N1  tau(  48) = (   0.9980056   3.0961469  19.0053282  )
        49           N1  tau(  49) = (   6.4063515   3.4839273  18.2229180  )
        50           C1  tau(  50) = (   1.6570833   4.2584698  19.5811903  )
        51           H1  tau(  51) = (   0.9936588   4.8902639  20.1979557  )
        52           H1  tau(  52) = (   2.4789334   3.9063689  20.1993048  )
        53           H1  tau(  53) = (   2.0598354   4.8861676  18.7819781  )
        54           H1  tau(  54) = (   0.6510520   2.5058952  19.7602174  )
        55           H1  tau(  55) = (   5.8507131   4.1735594  18.7414995  )
        56           H1  tau(  56) = (   5.8147758   2.6545292  18.1916272  )
        57           O1  tau(  57) = (   5.1718451   0.7889162  19.5681371  )
        58           H1  tau(  58) = (   5.5516362   0.5215711  18.6954158  )
        59           H1  tau(  59) = (   4.2099197   0.7512590  19.4668632  )

     number of k points=    10  Fermi-Dirac smearing, width (Ry)=  0.0073
                       cart. coord. in units 2pi/alat
        k(    1) = (   0.0000000   0.0000000   0.0000000), wk =   0.1250000
        k(    2) = (   0.0000000   0.0419351   0.0000000), wk =   0.2500000
        k(    3) = (   0.0000000  -0.0838702   0.0000000), wk =   0.1250000
        k(    4) = (   0.0379955   0.0000049   0.0000000), wk =   0.2500000
        k(    5) = (   0.0379955   0.0419400   0.0000000), wk =   0.2500000
        k(    6) = (   0.0379955  -0.0838652   0.0000000), wk =   0.2500000
        k(    7) = (   0.0379955  -0.0419301   0.0000000), wk =   0.2500000
        k(    8) = (  -0.0759910  -0.0000099   0.0000000), wk =   0.1250000
        k(    9) = (  -0.0759910   0.0419252   0.0000000), wk =   0.2500000
        k(   10) = (  -0.0759910  -0.0838800   0.0000000), wk =   0.1250000

     Initial potential from superposition of free atoms

     starting charge  389.99912, renormalised to  406.00000

     negative rho (up, down):  1.389E-02 0.000E+00

     %%%%%%%%%%%%%%%%%%%%%%%%%%%%%%%%%%%%%%%%%%%%%%%%%%%%%%%%%%%%%%%%%%%%%%%%
     %                                                                      %
     % You are using vdW-DF, which was implemented by the Thonhauser group. %
     % Please cite the following two papers that made this development      %
     % possible and the two reviews that describe the various versions:     %
     %                                                                      %
     %   T. Thonhauser et al., PRL 115, 136402 (2015).                      %
     %   T. Thonhauser et al., PRB 76, 125112 (2007).                       %
     %   K. Berland et al., Rep. Prog. Phys. 78, 066501 (2015).             %
     %   D.C. Langreth et al., J. Phys.: Condens. Matter 21, 084203 (2009). %
     %                                                                      %
     %                                                                      %
     % If you are calculating the stress with vdW-DF, please also cite:     %
     %                                                                      %
     %   R. Sabatini et al., J. Phys.: Condens. Matter 24, 424209 (2012).   %
     %                                                                      %
     %%%%%%%%%%%%%%%%%%%%%%%%%%%%%%%%%%%%%%%%%%%%%%%%%%%%%%%%%%%%%%%%%%%%%%%%

     Adding external electric field

     Computed dipole along edir(3) :
        Dipole              -16.7176 Ry au,        -42.4920 Debye
        Dipole field         -0.0315 Ry au,

        Potential amp.        2.9245 Ry
        Total length         46.3494 bohr

     Starting wfcs are  308 atomic wfcs
  @ DRIVER MODE: Message from server: STATUS
  @ DRIVER MODE: Message from server: POSDATA
  @ DRIVER MODE: Reading and sharing cell
  @ DRIVER MODE: Reading and sharing positions
  @ DRIVER MODE: Received positions

     Self-consistent Calculation

     iteration #  1     ecut=    29.40 Ry     beta= 0.05
     Davidson diagonalization with overlap
     c_bands:  2 eigenvalues not converged
     c_bands:  3 eigenvalues not converged
     c_bands:  2 eigenvalues not converged
     c_bands:  4 eigenvalues not converged
     c_bands:  1 eigenvalues not converged
     c_bands:  4 eigenvalues not converged
     c_bands:  3 eigenvalues not converged
     c_bands:  5 eigenvalues not converged
     c_bands:  3 eigenvalues not converged
     ethr =  1.00E-05,  avg # of iterations = 24.9

[...]

     total energy              =   -2136.64050665 Ry
     estimated scf accuracy    <    9692.93482384 Ry

     iteration #  2     ecut=    29.40 Ry     beta= 0.05
     Davidson diagonalization with overlap
     ethr =  1.00E-02,  avg # of iterations = 32.2

[...]

     iteration # 98     ecut=    29.40 Ry     beta= 0.05
     Davidson diagonalization with overlap
     c_bands:  1 eigenvalues not converged
     ethr =  3.54E-11,  avg # of iterations =  3.8

[...]

     total energy              =   -2977.68368830 Ry
     estimated scf accuracy    <       0.00000007 Ry

     iteration #102     ecut=    29.40 Ry     beta= 0.05
     Davidson diagonalization with overlap
     ethr =  1.82E-11,  avg # of iterations =  5.9

     negative rho (up, down):  1.439E-02 0.000E+00

     Adding external electric field

     Computed dipole along edir(3) :
        Dipole                1.0178 Ry au,          2.5871 Debye
        Dipole field          0.0019 Ry au,

        Potential amp.       -0.1781 Ry
        Total length         46.3494 bohr

     End of self-consistent calculation

          k = 0.0000 0.0000 0.0000 ( 18029 PWs)   bands (ev):

   -55.3608 -55.3236 -55.3115 -55.2940 -55.2774 -55.2417 -55.2400 -55.2051
   -55.1837 -55.1825 -55.1494 -55.1435 -55.1098 -55.0190 -54.3435 -54.3094
   -31.9272 -31.8097 -31.8046 -31.7286 -31.6771 -31.6731 -31.6730 -31.6499
   -31.6004 -31.5960 -31.5729 -31.5704 -31.5565 -31.5402 -31.5312 -31.5278
   -31.5153 -31.5082 -31.4978 -31.4800 -31.4653 -31.4640 -31.4362 -31.4259
   -31.4184 -31.4143 -31.3938 -31.3863 -31.3702 -31.3686 -31.3638 -31.3549
   -31.3427 -31.3418 -31.3329 -31.3304 -31.2973 -31.2943 -31.2719 -31.2546
   -31.2312 -31.2291 -30.7529 -30.6585 -30.6365 -30.5694 -30.4826 -30.3715
   -18.0035 -17.6573 -16.1944 -15.9337 -15.7883 -15.6598 -15.5622 -15.4340
   -15.4146 -15.2927 -15.2224 -15.1186 -15.0675 -15.0491 -15.0133 -15.0031
   -14.9801 -14.9094 -14.9032 -14.8892 -14.8653 -14.8565 -14.8104 -14.8026
   -14.7614 -14.7370 -14.7127 -14.6138 -14.5238 -14.4490 -14.3415 -13.1902
   -12.8461 -12.7286  -9.3899  -6.3319  -5.8767  -5.7508  -4.2688  -3.5328
    -3.3841  -3.3145  -3.2791  -3.2539  -3.1202  -2.9620  -2.9389  -2.8101
    -2.7871  -2.6663  -2.6434  -2.5742  -2.5558  -2.5421  -2.3963  -2.3733
    -2.3476  -2.2821  -2.2546  -2.1884  -2.1665  -2.1557  -2.1459  -2.1229
    -2.0950  -2.0502  -1.9935  -1.9344  -1.8411  -1.8150  -1.7651  -1.7352
    -1.7147  -1.6977  -1.6522  -1.6412  -1.6017  -1.5872  -1.5671  -1.5528
    -1.3894  -1.3663  -1.2653  -1.2038  -1.1051  -1.0011  -0.9653  -0.9508
    -0.8537  -0.8349  -0.7821  -0.7415  -0.7391  -0.7044  -0.5926  -0.5300
    -0.4776  -0.4141  -0.3912  -0.3513  -0.2833  -0.2001  -0.1441  -0.1302
    -0.1132  -0.0965   0.0122   0.0246   0.0764   0.1511   0.1607   0.1669
     0.2408   0.2970   0.3673   0.3922   0.4099   0.5150   0.5307   0.5630
     0.5687   0.5986   0.6193   0.6443   0.7045   0.7348   0.8180   0.9397
     1.1318   1.2209   1.2481   1.3649   1.5712   1.5837   1.6793   1.8625
     2.2556   2.3040   3.7363   3.8075   3.8823   3.8862   3.9089   3.9726
     4.2095   4.2266   4.2412   4.2448   4.2690

[...]

          k = 0.0380-0.0419 0.0000 ( 17876 PWs)   bands (ev):

[...]

          k =-0.0760-0.0000 0.0000 ( 17886 PWs)   bands (ev):

[...]

          k =-0.0760-0.0839 0.0000 ( 17948 PWs)   bands (ev):

   -55.3471 -55.3371 -55.2947 -55.2941 -55.2927 -55.2344 -55.2296 -55.2172
   -55.1880 -55.1677 -55.1649 -55.1270 -55.1265 -55.0200 -54.3266 -54.3262
   -31.7352 -31.7273 -31.7253 -31.6407 -31.6210 -31.6198 -31.6194 -31.5858
   -31.5855 -31.5743 -31.5602 -31.5590 -31.5523 -31.5324 -31.5206 -31.5072
   -31.5006 -31.4975 -31.4960 -31.4946 -31.4879 -31.4804 -31.4481 -31.4405
   -31.4375 -31.4372 -31.4233 -31.4186 -31.4143 -31.4137 -31.4083 -31.4005
   -31.3981 -31.3809 -31.3778 -31.3757 -31.3608 -31.3577 -31.3079 -31.3076
   -31.3014 -31.2350 -30.6492 -30.6490 -30.5655 -30.5652 -30.5260 -30.5259
   -17.9910 -17.6668 -15.6751 -15.5899 -15.5690 -15.4139 -15.3622 -15.3358
   -15.3248 -15.2095 -15.1671 -15.1476 -15.1333 -15.1115 -15.0732 -15.0636
   -15.0568 -14.9936 -14.9733 -14.9644 -14.9384 -14.8846 -14.8770 -14.8690
   -14.8613 -14.8114 -14.8075 -14.7680 -14.7168 -14.7133 -14.6375 -13.1966
   -12.8300 -12.8300  -9.3947  -6.3530  -5.9103  -5.6647  -4.2460  -2.9569
    -2.8483  -2.8360  -2.8303  -2.6648  -2.6270  -2.5511  -2.5295  -2.5064
    -2.4220  -2.4101  -2.3796  -2.3543  -2.3239  -2.2857  -2.2468  -2.2418
    -2.2052  -2.1968  -2.1809  -2.1644  -2.1426  -2.1274  -2.0936  -2.0828
    -2.0696  -2.0254  -1.9994  -1.9854  -1.9642  -1.9440  -1.9358  -1.9175
    -1.8422  -1.7522  -1.7278  -1.6420  -1.5727  -1.5714  -1.5650  -1.5036
    -1.4602  -1.4218  -1.3968  -1.3796  -1.2397  -1.1686  -1.1249  -1.1107
    -1.0960  -0.9652  -0.9588  -0.8829  -0.8603  -0.8539  -0.7597  -0.7159
    -0.6772  -0.6704  -0.5837  -0.5714  -0.4955  -0.3973  -0.3752  -0.3615
    -0.3165  -0.3147  -0.2771  -0.2642  -0.1678  -0.1323  -0.1085  -0.0985
    -0.0815  -0.0403   0.1108   0.1598   0.1663   0.2994   0.3311   0.4697
     0.4995   0.5638   0.6435   0.6924   0.7447   0.7775   0.8644   0.9388
     0.9419   1.0053   1.0210   1.0870   1.0992   1.3688   2.0355   2.0361
     2.1238   2.1242   3.8843   3.9994   4.0031   4.0323   4.1543   4.1777
     4.2541   4.2816   4.3240   4.3252   4.3822

     the Fermi energy is     3.8004 ev

!    total energy              =   -2977.68368951 Ry
     estimated scf accuracy    <       0.00000006 Ry
     smearing contrib. (-TS)   =      -0.03717515 Ry
     internal energy E=F+TS    =   -2977.64651435 Ry

     The total energy is F=E-TS. E is the sum of the following terms:
     one-electron contribution =  -22681.94549655 Ry
     hartree contribution      =   11438.32061795 Ry
     xc contribution           =    -496.61626078 Ry
     ewald contribution        =    8762.59266997 Ry
     electric field correction =       0.00195506 Ry

     convergence has been achieved in 102 iterations

     Forces acting on atoms (cartesian axes, Ry/au):

     atom    1 type  1   force =     0.00024552   -0.00038098    0.09322835
     atom    2 type  1   force =     0.00002254   -0.00038799   -0.17818333
     atom    3 type  2   force =     0.00005026   -0.00041404   -0.02002533
     atom    4 type  2   force =     0.00001143   -0.00190195    0.05912015
     atom    5 type  2   force =    -0.01034893   -0.00059420    0.00861451
     atom    6 type  2   force =     0.01130038    0.00009416    0.00628839
     atom    7 type  1   force =    -0.00096381    0.00197487   -0.01427370
     atom    8 type  1   force =     0.00097500   -0.00255551   -0.00597203
     atom    9 type  2   force =     0.00016584   -0.00001637    0.00010296
     atom   10 type  2   force =    -0.00230888    0.00309442    0.00263230
     atom   11 type  2   force =     0.00042629   -0.00043272   -0.00056266
     atom   12 type  2   force =     0.00002818   -0.00041116   -0.00056793
     atom   13 type  1   force =     0.00033265   -0.00027504   -0.00021360
     atom   14 type  1   force =     0.00005845   -0.00009225   -0.00006574
     atom   15 type  2   force =    -0.00000183    0.00059118   -0.00002122
     atom   16 type  2   force =     0.00030945    0.00027512   -0.00012056
     atom   17 type  2   force =     0.00040082    0.00025608    0.00036321
     atom   18 type  2   force =    -0.00051136    0.00022516   -0.00010484
     atom   19 type  1   force =    -0.00014144    0.00010883    0.00027548
     atom   20 type  1   force =    -0.00009625   -0.00015209    0.00058998
     atom   21 type  2   force =     0.00012115   -0.00011220    0.10400833
     atom   22 type  2   force =     0.00014992   -0.00026120    0.00047132
     atom   23 type  2   force =    -0.07028870   -0.00019309   -0.02685574
     atom   24 type  2   force =     0.07027136    0.00025153   -0.02685578
     atom   25 type  1   force =     0.00017304   -0.00029981    0.09242739
     atom   26 type  1   force =     0.00005992   -0.00055042   -0.17851095
     atom   27 type  2   force =     0.00008239   -0.00021558   -0.01909281
     atom   28 type  2   force =     0.00006122   -0.00173458    0.05853628
     atom   29 type  2   force =    -0.01101890   -0.00114261    0.00945416
     atom   30 type  2   force =     0.01187703   -0.00069905    0.00723535
     atom   31 type  1   force =    -0.00087428    0.00645533   -0.01493369
     atom   32 type  1   force =     0.00101897    0.00219647   -0.00637200
     atom   33 type  2   force =     0.00025968    0.00009471    0.00003446
     atom   34 type  2   force =    -0.00214359   -0.00243669   -0.00029227
     atom   35 type  2   force =     0.00028919    0.00012848   -0.00000164
     atom   36 type  2   force =     0.00024723    0.00003822    0.00051441
     atom   37 type  1   force =    -0.00010141    0.00002061   -0.00007442
     atom   38 type  1   force =     0.00015821   -0.00007606   -0.00000207
     atom   39 type  2   force =    -0.00010521   -0.00020667    0.00042547
     atom   40 type  2   force =    -0.00014152    0.00008732    0.00006065
     atom   41 type  2   force =    -0.00040675    0.00012081    0.00025269
     atom   42 type  2   force =     0.00024164   -0.00013445   -0.00025619
     atom   43 type  1   force =     0.00036321    0.00026775    0.00000105
     atom   44 type  1   force =     0.00002779   -0.00005636   -0.00007302
     atom   45 type  2   force =     0.00012835   -0.00010838    0.10394149
     atom   46 type  2   force =    -0.07025855   -0.00013266   -0.02679452
     atom   47 type  2   force =     0.07024337    0.00027733   -0.02685647
     atom   48 type  3   force =    -0.00308357   -0.00661194   -0.00113609
     atom   49 type  3   force =     0.00075951    0.00032035   -0.00066785
     atom   50 type  4   force =    -0.00152126    0.01868410   -0.00257987
     atom   51 type  5   force =     0.00214637   -0.00382546   -0.00197168
     atom   52 type  5   force =     0.00289561   -0.00304141    0.00221411
     atom   53 type  5   force =    -0.00180527   -0.00438516    0.00365501
     atom   54 type  5   force =    -0.00013764   -0.00101547   -0.00072079
     atom   55 type  5   force =     0.00041007    0.00052738   -0.00011134
     atom   56 type  5   force =    -0.00019592   -0.00086470    0.00065873
     atom   57 type  2   force =    -0.00104440   -0.00058896    0.00075254
     atom   58 type  5   force =     0.00008396   -0.00028777   -0.00014079
     atom   59 type  5   force =     0.00110344    0.00050476   -0.00144788

     Total force =     0.366957     Total SCF correction =     0.000770
  @ DRIVER MODE: Message from server: STATUS
  @ DRIVER MODE: Message from server: GETFORCE
  @ DRIVER MODE: Returning v,forces,stress,ensemble

     Writing output data file ./calc.save/
  @ DRIVER MODE: Message from server: EXIT
  @ DRIVE MODE: Exiting

     General routines

     Parallel routines

   This run was terminated on:  21:10:53  15Sep2021

   JOB DONE.