     Program PWSCF v.6.7GPU starts on 24Aug2021 at  2: 0:37

     R & G space division:  proc/nbgrp/npool/nimage =       6
     Reading input from /storage/home/hcoda1/3/ntian30/research/carbon/CH2_vib/ads_slab/CH2NNHH_a/out_0013/pw.inp
Warning: card &CELL ignored
Warning: card   CELL_DYNAMICS='IPI', ignored
Warning: card / ignored

     Current dimensions of program PWSCF are:
     Max number of different atomic species (ntypx) = 10
     Max number of k-points (npk) =  40000
     Max angular momentum in pseudopotentials (lmaxx) =  3
     Presently no symmetry can be used with electric field

     Message from routine cell_base_init:
     DEPRECATED: use true lattice parameter, not A to a.u. conversion factor

     IMPORTANT: XC functional enforced from input :
     Exchange-correlation= BEEF-VDW
                           (   1   4  43  14   2   0   0)
     Any further DFT definition will be discarded
     Please, verify this is what you really want

  @ DRIVER MODE: Connecting to
 qe_1139763_2632807.sched-torque.pace.gatech.edugkxo_z19_scratch
  using UNIX socket
  @ DRIVER MODE: Message from server: STATUS
  @ DRIVER MODE: Message from server: INIT
  @ DRIVER MODE: Receiving replica           0          -1
  @ DRIVER MODE: Receiving encoded integer          25
  @ DRIVER MODE:  SCF:  T  FORCE:  T  STRESS:  F  VC:  F  ENSEMBLE:  F
  @ DRIVER MODE:  SCF:  T  FORCE:  T  STRESS:  F  VC:  F  ENSEMBLE:  F

     Using Slab Decomposition

     bravais-lattice index     =            0
     lattice parameter (alat)  =       1.8897  a.u.
     unit-cell volume          =    6658.9804 (a.u.)^3
     number of atoms/cell      =           54
     number of atomic types    =            5
     number of electrons       =       396.00
     number of Kohn-Sham states=          208
     kinetic-energy cutoff     =      29.3995  Ry
     charge density cutoff     =     293.9946  Ry
     scf convergence threshold =      7.3E-08
     mixing beta               =       0.0500
     number of iterations used =            8  plain     mixing
     Exchange-correlation= BEEF-VDW
                           (   1   4  43  14   2   0   0)

     celldm(1)=   1.889726  celldm(2)=   0.000000  celldm(3)=   0.000000
     celldm(4)=   0.000000  celldm(5)=   0.000000  celldm(6)=   0.000000

     crystal axes: (cart. coord. in units of alat)
               a(1) = (   6.579727   0.000000   0.000000 )
               a(2) = (  -0.000775   5.961596   0.000000 )
               a(3) = (   0.000000   0.000000  25.155947 )

     reciprocal axes: (cart. coord. in units 2 pi/alat)
               b(1) = (  0.151982  0.000020  0.000000 )
               b(2) = (  0.000000  0.167740  0.000000 )
               b(3) = (  0.000000  0.000000  0.039752 )

     PseudoPot. # 1 for Ti read from file:
     /storage/coda1/p-amedford6/0/shared/rich_project_chbe-medford/medford-share/data/pseudos_module/espresso/nninc/pbe/van/Ti.UPF
     MD5 check sum: 8e4df49b7f0d34bbd5052bf3f5ea0213
     Pseudo is Ultrasoft, Zval = 12.0
     Generated by new atomic code, or converted to UPF format
     Using radial grid of  851 points,  6 beta functions with:
                l(1) =   0
                l(2) =   0
                l(3) =   1
                l(4) =   1
                l(5) =   2
                l(6) =   2
     Q(r) pseudized with  8 coefficients,  rinner =    1.000   1.000   1.000
                                                       1.000   1.000

     PseudoPot. # 2 for O  read from file:
     /storage/coda1/p-amedford6/0/shared/rich_project_chbe-medford/medford-share/data/pseudos_module/espresso/nninc/pbe/van/O.UPF
     MD5 check sum: 78c19812648e8988a0fe644b0f25305e
     Pseudo is Ultrasoft, Zval =  6.0
     Generated by new atomic code, or converted to UPF format
     Using radial grid of  737 points,  4 beta functions with:
                l(1) =   0
                l(2) =   0
                l(3) =   1
                l(4) =   1
     Q(r) pseudized with  8 coefficients,  rinner =    0.800   0.800   0.800

     PseudoPot. # 3 for N  read from file:
     /storage/coda1/p-amedford6/0/shared/rich_project_chbe-medford/medford-share/data/pseudos_module/espresso/nninc/pbe/van/N.UPF
     MD5 check sum: 90d10febe142ad51ac9d5be1deb811c4
     Pseudo is Ultrasoft, Zval =  5.0
     Generated by new atomic code, or converted to UPF format
     Using radial grid of  729 points,  4 beta functions with:
                l(1) =   0
                l(2) =   0
                l(3) =   1
                l(4) =   1
     Q(r) pseudized with  8 coefficients,  rinner =    0.800   0.800   0.800

     PseudoPot. # 4 for C  read from file:
     /storage/coda1/p-amedford6/0/shared/rich_project_chbe-medford/medford-share/data/pseudos_module/espresso/nninc/pbe/van/C.UPF
     MD5 check sum: 1a69bf6b8db32088f5b2163dbdb77a27
     Pseudo is Ultrasoft, Zval =  4.0
     Generated by new atomic code, or converted to UPF format
     Using radial grid of  721 points,  4 beta functions with:
                l(1) =   0
                l(2) =   0
                l(3) =   1
                l(4) =   1
     Q(r) pseudized with  8 coefficients,  rinner =    0.800   0.800   0.800

     PseudoPot. # 5 for H  read from file:
     /storage/coda1/p-amedford6/0/shared/rich_project_chbe-medford/medford-share/data/pseudos_module/espresso/nninc/pbe/van/H.UPF
     MD5 check sum: b5ee9d7bfd3a09ee7748110bda690ff7
     Pseudo is Ultrasoft, Zval =  1.0
     Generated by new atomic code, or converted to UPF format
     Using radial grid of  615 points,  1 beta functions with:
                l(1) =   0
     Q(r) pseudized with  8 coefficients,  rinner =    0.800

     atomic species   valence    mass     pseudopotential
        Ti1           12.00    47.86700     Ti( 1.00)
        O1             6.00    15.99900     O ( 1.00)
        N1             5.00    14.00700     N ( 1.00)
        C1             4.00    12.01100     C ( 1.00)
        H1             1.00     1.00800     H ( 1.00)

     No symmetry found

   Cartesian axes

     site n.     atom                  positions (alat units)
         1           Ti1 tau(   1) = (   0.0004258   2.9801865   6.0000000  )
         2           Ti1 tau(   2) = (   3.2906075   1.4906267   6.0002472  )
         3           O1  tau(   3) = (   0.0006271   0.0005054   7.9858123  )
         4           O1  tau(   4) = (   3.2906025   0.0005020   7.3038282  )
         5           O1  tau(   5) = (   4.5942328   1.4918067   9.2879030  )
         6           O1  tau(   6) = (   1.9868534   1.4903216   9.2879459  )
         7           Ti1 tau(   7) = (   3.2907910   2.8959150   9.1758416  )
         8           Ti1 tau(   8) = (   0.0015273   1.4827037   9.2680791  )
         9           O1  tau(   9) = (   3.2741875   5.9357071  11.3735532  )
        10           O1  tau(  10) = (   0.0116148   5.9584955  10.6183126  )
        11           O1  tau(  11) = (   1.2759687   1.4857368  12.6615302  )
        12           O1  tau(  12) = (   5.2764777   1.4850508  12.6403612  )
        13           Ti1 tau(  13) = (   6.5724762   2.9646551  12.5117882  )
        14           Ti1 tau(  14) = (   3.2886223   1.4652571  12.5194246  )
        15           O1  tau(  15) = (   6.5416971   0.0664024  14.6986244  )
        16           O1  tau(  16) = (   3.2828258   5.9593040  13.9967703  )
        17           O1  tau(  17) = (   4.5136565   1.4796660  16.2299008  )
        18           O1  tau(  18) = (   2.0038615   1.4742267  16.2123189  )
        19           Ti1 tau(  19) = (   3.2480181   2.9445974  15.7466143  )
        20           Ti1 tau(  20) = (   6.5118905   1.3801257  16.1190456  )
        21           O1  tau(  21) = (   3.2904802   0.0005063   4.7018136  )
        22           O1  tau(  22) = (   6.5538845   5.8109167  17.2256470  )
        23           O1  tau(  23) = (   1.3043587   1.4918075   6.0039043  )
        24           O1  tau(  24) = (   5.2767064   1.4903225   6.0039473  )
        25           Ti1 tau(  25) = (   0.0000382   5.9609847   6.0000000  )
        26           Ti1 tau(  26) = (   3.2902200   4.4714249   6.0002472  )
        27           O1  tau(  27) = (   0.0002396   2.9813036   7.9858123  )
        28           O1  tau(  28) = (   3.2902150   2.9813002   7.3038282  )
        29           O1  tau(  29) = (   4.5938453   4.4726049   9.2879030  )
        30           O1  tau(  30) = (   1.9864658   4.4711199   9.2879459  )
        31           Ti1 tau(  31) = (   3.2891106   5.8743827   9.1763621  )
        32           Ti1 tau(  32) = (   0.0006254   4.4649316   9.2693709  )
        33           O1  tau(  33) = (   3.2754078   2.9701464  11.3677572  )
        34           O1  tau(  34) = (   0.0092240   2.9805883  10.6323155  )
        35           O1  tau(  35) = (   1.2711598   4.4556272  12.7031535  )
        36           O1  tau(  36) = (   5.2783420   4.4558858  12.6781970  )
        37           Ti1 tau(  37) = (   0.0002938   5.9583472  12.5066983  )
        38           Ti1 tau(  38) = (   3.2916940   4.4447674  12.5292973  )
        39           O1  tau(  39) = (   6.5347695   2.9176514  14.9891124  )
        40           O1  tau(  40) = (   3.2818703   2.9467213  13.9608579  )
        41           O1  tau(  41) = (   4.5039121   4.4250859  16.1805084  )
        42           O1  tau(  42) = (   2.0002864   4.4376668  16.1101511  )
        43           Ti1 tau(  43) = (   3.2613398   5.9375382  15.7939200  )
        44           Ti1 tau(  44) = (   0.0097882   4.6113729  15.8292928  )
        45           O1  tau(  45) = (   3.2900926   2.9813045   4.7018136  )
        46           O1  tau(  46) = (   1.3039711   4.4726057   6.0039043  )
        47           O1  tau(  47) = (   5.2763189   4.4711207   6.0039473  )
        48           N1  tau(  48) = (   6.5527080   2.6566917  18.2311642  )
        49           C1  tau(  49) = (   0.9950107   2.5313988  18.9921798  )
        50           H1  tau(  50) = (   0.9866315   2.9146593  20.0110098  )
        51           H1  tau(  51) = (   1.8622571   2.0164067  18.6108951  )
        52           N1  tau(  52) = (   5.4094651   3.2293427  18.7544413  )
        53           H1  tau(  53) = (   5.6216840   3.8708726  19.5154782  )
        54           H1  tau(  54) = (   4.9168071   3.7283298  18.0160565  )

     number of k points=    10  Fermi-Dirac smearing, width (Ry)=  0.0073
                       cart. coord. in units 2pi/alat
        k(    1) = (   0.0000000   0.0000000   0.0000000), wk =   0.1250000
        k(    2) = (   0.0000000   0.0419351   0.0000000), wk =   0.2500000
        k(    3) = (   0.0000000  -0.0838702   0.0000000), wk =   0.1250000
        k(    4) = (   0.0379955   0.0000049   0.0000000), wk =   0.2500000
        k(    5) = (   0.0379955   0.0419400   0.0000000), wk =   0.2500000
        k(    6) = (   0.0379955  -0.0838652   0.0000000), wk =   0.2500000
        k(    7) = (   0.0379955  -0.0419301   0.0000000), wk =   0.2500000
        k(    8) = (  -0.0759910  -0.0000099   0.0000000), wk =   0.1250000
        k(    9) = (  -0.0759910   0.0419252   0.0000000), wk =   0.2500000
        k(   10) = (  -0.0759910  -0.0838800   0.0000000), wk =   0.1250000

     Initial potential from superposition of free atoms

     starting charge  379.99915, renormalised to  396.00000

     negative rho (up, down):  1.580E-02 0.000E+00

     %%%%%%%%%%%%%%%%%%%%%%%%%%%%%%%%%%%%%%%%%%%%%%%%%%%%%%%%%%%%%%%%%%%%%%%%
     %                                                                      %
     % You are using vdW-DF, which was implemented by the Thonhauser group. %
     % Please cite the following two papers that made this development      %
     % possible and the two reviews that describe the various versions:     %
     %                                                                      %
     %   T. Thonhauser et al., PRL 115, 136402 (2015).                      %
     %   T. Thonhauser et al., PRB 76, 125112 (2007).                       %
     %   K. Berland et al., Rep. Prog. Phys. 78, 066501 (2015).             %
     %   D.C. Langreth et al., J. Phys.: Condens. Matter 21, 084203 (2009). %
     %                                                                      %
     %                                                                      %
     % If you are calculating the stress with vdW-DF, please also cite:     %
     %                                                                      %
     %   R. Sabatini et al., J. Phys.: Condens. Matter 24, 424209 (2012).   %
     %                                                                      %
     %%%%%%%%%%%%%%%%%%%%%%%%%%%%%%%%%%%%%%%%%%%%%%%%%%%%%%%%%%%%%%%%%%%%%%%%

     Adding external electric field

     Computed dipole along edir(3) :
        Dipole               -9.9798 Ry au,        -25.3661 Debye
        Dipole field         -0.0188 Ry au,

        Potential amp.        1.7458 Ry
        Total length         46.3494 bohr

     Starting wfcs are  300 atomic wfcs
  @ DRIVER MODE: Message from server: STATUS
  @ DRIVER MODE: Message from server: POSDATA
  @ DRIVER MODE: Reading and sharing cell
  @ DRIVER MODE: Reading and sharing positions
  @ DRIVER MODE: Received positions

     Self-consistent Calculation

     iteration #  1     ecut=    29.40 Ry     beta= 0.05
     Davidson diagonalization with overlap
     c_bands:  1 eigenvalues not converged
     c_bands:  2 eigenvalues not converged
     c_bands:  2 eigenvalues not converged
     c_bands:  1 eigenvalues not converged
     c_bands:  3 eigenvalues not converged
     c_bands:  2 eigenvalues not converged
     c_bands:  3 eigenvalues not converged
     c_bands:  2 eigenvalues not converged
     c_bands:  1 eigenvalues not converged
     c_bands:  1 eigenvalues not converged
     ethr =  1.00E-05,  avg # of iterations = 20.0

[...]

     total energy              =   -2515.79043859 Ry
     estimated scf accuracy    <    4741.14631625 Ry

     iteration #  2     ecut=    29.40 Ry     beta= 0.05
     Davidson diagonalization with overlap
     ethr =  1.00E-02,  avg # of iterations = 23.7

[...]

     iteration # 72     ecut=    29.40 Ry     beta= 0.05
     Davidson diagonalization with overlap
     c_bands:  1 eigenvalues not converged
     ethr =  8.37E-11,  avg # of iterations = 11.7

[...]

     total energy              =   -2940.36666991 Ry
     estimated scf accuracy    <       0.00000011 Ry

     iteration # 75     ecut=    29.40 Ry     beta= 0.05
     Davidson diagonalization with overlap
     ethr =  2.70E-11,  avg # of iterations =  7.2

     negative rho (up, down):  1.644E-02 0.000E+00

     Adding external electric field

     Computed dipole along edir(3) :
        Dipole                1.2646 Ry au,          3.2143 Debye
        Dipole field          0.0024 Ry au,

        Potential amp.       -0.2212 Ry
        Total length         46.3494 bohr

     End of self-consistent calculation

          k = 0.0000 0.0000 0.0000 ( 18029 PWs)   bands (ev):

   -55.4180 -55.3813 -55.3701 -55.3359 -55.2972 -55.2935 -55.2877 -55.2626
   -55.2359 -55.2197 -55.2016 -55.2012 -55.1677 -55.0509 -54.3979 -54.3639
   -31.9871 -31.8625 -31.8195 -31.7853 -31.7315 -31.7256 -31.7207 -31.7069
   -31.6591 -31.6516 -31.6283 -31.6271 -31.6150 -31.5882 -31.5731 -31.5680
   -31.5556 -31.5548 -31.5335 -31.5280 -31.5224 -31.5123 -31.4839 -31.4745
   -31.4666 -31.4640 -31.4384 -31.4281 -31.4272 -31.4211 -31.4188 -31.4000
   -31.3991 -31.3939 -31.3865 -31.3840 -31.3499 -31.3367 -31.3296 -31.3126
   -31.2724 -31.2153 -30.8072 -30.7133 -30.6912 -30.6236 -30.5369 -30.4259
   -18.5940 -16.2499 -15.9812 -15.8387 -15.7143 -15.6154 -15.4907 -15.4687
   -15.3411 -15.2563 -15.1428 -15.0985 -15.0872 -15.0838 -15.0507 -15.0239
   -14.9597 -14.9551 -14.9372 -14.9111 -14.9003 -14.8573 -14.8541 -14.8127
   -14.7922 -14.7902 -14.6636 -14.5749 -14.5046 -14.1814 -13.6743 -12.9005
   -12.7831  -8.7474  -6.4876  -6.0473  -4.0068  -3.5907  -3.4347  -3.3782
    -3.3368  -3.3101  -3.2026  -3.1633  -3.0235  -2.8265  -2.7780  -2.6879
    -2.6257  -2.6171  -2.5981  -2.4173  -2.4096  -2.3532  -2.3029  -2.2610
    -2.2392  -2.2246  -2.2054  -2.1803  -2.1696  -2.1594  -1.9863  -1.9706
    -1.8994  -1.8257  -1.8157  -1.7654  -1.7446  -1.7140  -1.7060  -1.6980
    -1.6526  -1.6331  -1.6030  -1.5549  -1.4293  -1.3381  -1.3073  -1.2258
    -1.0998  -1.0536  -1.0014  -0.9981  -0.9054  -0.9012  -0.8808  -0.7957
    -0.7622  -0.7125  -0.6403  -0.5719  -0.5151  -0.4566  -0.4093  -0.3991
    -0.3442  -0.2272  -0.2015  -0.1827  -0.1608  -0.0401  -0.0215   0.0187
     0.0932   0.1234   0.1243   0.2410   0.2672   0.3249   0.3295   0.4058
     0.4668   0.5114   0.5204   0.5393   0.5683   0.5714   0.6461   0.6592
     0.6895   0.7596   0.8276   0.9177   1.1473   1.1835   1.1966   1.5297
     1.5315   1.6248   1.8086   2.2007   2.2488   3.6811   3.7511   3.8256
     3.8319   3.8502   3.9186   4.1552   4.1734   4.1814   4.1868   4.2298

[...]

          k = 0.0380-0.0419 0.0000 ( 17876 PWs)   bands (ev):

[...]

          k =-0.0760-0.0000 0.0000 ( 17886 PWs)   bands (ev):

[...]

          k =-0.0760-0.0839 0.0000 ( 17948 PWs)   bands (ev):

   -55.4033 -55.3958 -55.3530 -55.3529 -55.2883 -55.2873 -55.2815 -55.2782
   -55.2238 -55.2203 -55.2166 -55.1849 -55.1843 -55.0522 -54.3809 -54.3808
   -31.7934 -31.7879 -31.7467 -31.6942 -31.6804 -31.6776 -31.6776 -31.6445
   -31.6444 -31.6281 -31.6191 -31.6144 -31.6099 -31.5631 -31.5557 -31.5535
   -31.5513 -31.5493 -31.5439 -31.5386 -31.5236 -31.5107 -31.4939 -31.4936
   -31.4895 -31.4751 -31.4737 -31.4727 -31.4724 -31.4704 -31.4536 -31.4495
   -31.4434 -31.4334 -31.4300 -31.4152 -31.4141 -31.4106 -31.3654 -31.3652
   -31.2936 -31.2760 -30.7039 -30.7038 -30.6197 -30.6197 -30.5803 -30.5802
   -18.5915 -15.7120 -15.6790 -15.6217 -15.4413 -15.4137 -15.4070 -15.3879
   -15.2576 -15.2410 -15.2102 -15.1808 -15.1498 -15.1246 -15.1204 -15.1028
   -15.0325 -15.0215 -15.0134 -14.9959 -14.9306 -14.9266 -14.9178 -14.9130
   -14.8662 -14.8635 -14.7682 -14.7666 -14.6660 -14.5505 -13.6801 -12.8846
   -12.8845  -8.7291  -6.4612  -6.0616  -4.0164  -3.2633  -2.9452  -2.8785
    -2.8501  -2.6531  -2.6295  -2.5868  -2.5314  -2.4514  -2.4254  -2.4186
    -2.4098  -2.3387  -2.3272  -2.2776  -2.2685  -2.2495  -2.2341  -2.2236
    -2.1940  -2.1681  -2.1442  -2.1352  -2.1240  -2.0700  -2.0597  -2.0421
    -2.0117  -1.9922  -1.9827  -1.9661  -1.8666  -1.7823  -1.7527  -1.7258
    -1.6217  -1.6174  -1.5373  -1.5213  -1.4903  -1.4491  -1.4362  -1.4157
    -1.2336  -1.2052  -1.1725  -1.1599  -1.1514  -1.0120  -0.9983  -0.9422
    -0.9014  -0.8952  -0.7865  -0.7620  -0.7374  -0.6610  -0.6252  -0.5914
    -0.5401  -0.4346  -0.4173  -0.4066  -0.3733  -0.3692  -0.3131  -0.3011
    -0.2259  -0.1838  -0.1509  -0.1370  -0.0942   0.0941   0.1173   0.1322
     0.2755   0.3309   0.4244   0.5245   0.5347   0.5904   0.6290   0.6955
     0.7567   0.8184   0.8701   0.8913   0.8926   0.9712   0.9889   1.0423
     1.0442   1.9817   1.9824   2.0686   2.0690   3.8236   3.9322   3.9435
     3.9840   4.0659   4.1245   4.1974   4.2257   4.2647   4.2670   4.3333

     the Fermi energy is     3.7430 ev

!    total energy              =   -2940.36667999 Ry
     estimated scf accuracy    <       0.00000004 Ry
     smearing contrib. (-TS)   =      -0.03728351 Ry
     internal energy E=F+TS    =   -2940.32939648 Ry

     The total energy is F=E-TS. E is the sum of the following terms:
     one-electron contribution =  -23759.05157715 Ry
     hartree contribution      =   11970.86622625 Ry
     xc contribution           =    -486.11686446 Ry
     ewald contribution        =    9333.96980098 Ry
     electric field correction =       0.00301791 Ry

     convergence has been achieved in  75 iterations

     Forces acting on atoms (cartesian axes, Ry/au):

     atom    1 type  1   force =     0.00006486   -0.00013300    0.09327974
     atom    2 type  1   force =    -0.00005472   -0.00025979   -0.17805371
     atom    3 type  2   force =     0.00002071   -0.00015394   -0.02026231
     atom    4 type  2   force =     0.00001091   -0.00195671    0.05850654
     atom    5 type  2   force =    -0.01066063   -0.00127387    0.00870763
     atom    6 type  2   force =     0.01175791   -0.00061932    0.00682969
     atom    7 type  1   force =    -0.00091700    0.00298399   -0.01443121
     atom    8 type  1   force =     0.00063800   -0.00048868   -0.00370733
     atom    9 type  2   force =     0.00014456    0.00010613    0.00009169
     atom   10 type  2   force =    -0.00209578   -0.00121414    0.00063752
     atom   11 type  2   force =     0.00008622    0.00022015   -0.00011841
     atom   12 type  2   force =     0.00056536    0.00029044   -0.00006725
     atom   13 type  1   force =    -0.00013910    0.00028758    0.00009339
     atom   14 type  1   force =     0.00013589    0.00046636   -0.00039384
     atom   15 type  2   force =     0.00001944    0.00042345   -0.00007481
     atom   16 type  2   force =     0.00041822    0.00017116   -0.00032744
     atom   17 type  2   force =     0.00025359   -0.00035290   -0.00039410
     atom   18 type  2   force =     0.00016919   -0.00051258    0.00015147
     atom   19 type  1   force =    -0.00089825   -0.00006566    0.00022379
     atom   20 type  1   force =     0.00017838    0.00001950   -0.00019554
     atom   21 type  2   force =     0.00009755    0.00000344    0.10393666
     atom   22 type  2   force =    -0.00019846    0.00009828    0.00017674
     atom   23 type  2   force =    -0.07042611   -0.00013102   -0.02690083
     atom   24 type  2   force =     0.07035884    0.00032545   -0.02693910
     atom   25 type  1   force =     0.00008505   -0.00022438    0.09283352
     atom   26 type  1   force =    -0.00004868   -0.00034130   -0.17804933
     atom   27 type  2   force =     0.00011065   -0.00036840   -0.01932001
     atom   28 type  2   force =     0.00004247   -0.00165333    0.05792736
     atom   29 type  2   force =    -0.01064809   -0.00127990    0.00803391
     atom   30 type  2   force =     0.01165332   -0.00088671    0.00609375
     atom   31 type  1   force =    -0.00089965    0.00489866   -0.01541619
     atom   32 type  1   force =     0.00083443    0.00018870   -0.00391795
     atom   33 type  2   force =     0.00010360    0.00046097    0.00021977
     atom   34 type  2   force =    -0.00177306    0.00109141    0.00070117
     atom   35 type  2   force =     0.00031979    0.00006478    0.00008315
     atom   36 type  2   force =     0.00025750   -0.00024960    0.00019349
     atom   37 type  1   force =    -0.00035608    0.00002325   -0.00009752
     atom   38 type  1   force =    -0.00023683    0.00050188   -0.00015867
     atom   39 type  2   force =     0.00049369   -0.00071723   -0.00007303
     atom   40 type  2   force =    -0.00015614    0.00006990   -0.00001665
     atom   41 type  2   force =     0.00009582   -0.00010483   -0.00017963
     atom   42 type  2   force =     0.00017426    0.00010127   -0.00004136
     atom   43 type  1   force =    -0.00022278   -0.00014295    0.00012732
     atom   44 type  1   force =     0.00011896    0.00004781   -0.00017012
     atom   45 type  2   force =     0.00010859   -0.00003222    0.10390303
     atom   46 type  2   force =    -0.07043504   -0.00004504   -0.02690061
     atom   47 type  2   force =     0.07038805    0.00037997   -0.02690912
     atom   48 type  3   force =    -0.00086304    0.00006864   -0.00192027
     atom   49 type  4   force =    -0.00101121    0.00007891    0.00054348
     atom   50 type  5   force =     0.00249768   -0.00062205    0.00060024
     atom   51 type  5   force =    -0.00017950    0.00016640    0.00029847
     atom   52 type  3   force =     0.00053030    0.00061065    0.00007287
     atom   53 type  5   force =    -0.00026487   -0.00029231    0.00103859
     atom   54 type  5   force =    -0.00024874   -0.00002731   -0.00026859

     Total force =     0.365906     Total SCF correction =     0.000470
  @ DRIVER MODE: Message from server: STATUS
  @ DRIVER MODE: Message from server: GETFORCE
  @ DRIVER MODE: Returning v,forces,stress,ensemble

     Writing output data file ./calc.save/
  @ DRIVER MODE: Message from server: EXIT
  @ DRIVE MODE: Exiting

     General routines

     Parallel routines

   This run was terminated on:   2:31:31  24Aug2021

   JOB DONE.