     Program PWSCF v.6.7GPU starts on 16Sep2021 at  2:50: 3

     R & G space division:  proc/nbgrp/npool/nimage =      10
     Reading input from /storage/home/hcoda1/3/ntian30/research/carbon/CxH_vib/H2O_calc/ads_slab/CH3NNHHHH2O_a/out_0032/pw.inp
Warning: card &CELL ignored
Warning: card   CELL_DYNAMICS='IPI', ignored
Warning: card / ignored

     Current dimensions of program PWSCF are:
     Max number of different atomic species (ntypx) = 10
     Max number of k-points (npk) =  40000
     Max angular momentum in pseudopotentials (lmaxx) =  3
     Presently no symmetry can be used with electric field

     Message from routine cell_base_init:
     DEPRECATED: use true lattice parameter, not A to a.u. conversion factor

     IMPORTANT: XC functional enforced from input :
     Exchange-correlation= BEEF-VDW
                           (   1   4  43  14   2   0   0)
     Any further DFT definition will be discarded
     Please, verify this is what you really want

  @ DRIVER MODE: Connecting to
 qe_1139763_2852622.sched-torque.pace.gatech.edubwkjzwsl_scratch
  using UNIX socket
  @ DRIVER MODE: Message from server: STATUS
  @ DRIVER MODE: Message from server: INIT
  @ DRIVER MODE: Receiving replica           0          -1
  @ DRIVER MODE: Receiving encoded integer          25
  @ DRIVER MODE:  SCF:  T  FORCE:  T  STRESS:  F  VC:  F  ENSEMBLE:  F
  @ DRIVER MODE:  SCF:  T  FORCE:  T  STRESS:  F  VC:  F  ENSEMBLE:  F

     Using Slab Decomposition

     bravais-lattice index     =            0
     lattice parameter (alat)  =       1.8897  a.u.
     unit-cell volume          =    6658.9804 (a.u.)^3
     number of atoms/cell      =           59
     number of atomic types    =            5
     number of electrons       =       406.00
     number of Kohn-Sham states=          213
     kinetic-energy cutoff     =      29.3995  Ry
     charge density cutoff     =     293.9946  Ry
     scf convergence threshold =      7.3E-08
     mixing beta               =       0.0500
     number of iterations used =            8  plain     mixing
     Exchange-correlation= BEEF-VDW
                           (   1   4  43  14   2   0   0)

     celldm(1)=   1.889726  celldm(2)=   0.000000  celldm(3)=   0.000000
     celldm(4)=   0.000000  celldm(5)=   0.000000  celldm(6)=   0.000000

     crystal axes: (cart. coord. in units of alat)
               a(1) = (   6.579727   0.000000   0.000000 )
               a(2) = (  -0.000775   5.961596   0.000000 )
               a(3) = (   0.000000   0.000000  25.155947 )

     reciprocal axes: (cart. coord. in units 2 pi/alat)
               b(1) = (  0.151982  0.000020  0.000000 )
               b(2) = (  0.000000  0.167740  0.000000 )
               b(3) = (  0.000000  0.000000  0.039752 )

     PseudoPot. # 1 for Ti read from file:
     /storage/coda1/p-amedford6/0/shared/rich_project_chbe-medford/medford-share/data/pseudos_module/espresso/nninc/pbe/van/Ti.UPF
     MD5 check sum: 8e4df49b7f0d34bbd5052bf3f5ea0213
     Pseudo is Ultrasoft, Zval = 12.0
     Generated by new atomic code, or converted to UPF format
     Using radial grid of  851 points,  6 beta functions with:
                l(1) =   0
                l(2) =   0
                l(3) =   1
                l(4) =   1
                l(5) =   2
                l(6) =   2
     Q(r) pseudized with  8 coefficients,  rinner =    1.000   1.000   1.000
                                                       1.000   1.000

     PseudoPot. # 2 for O  read from file:
     /storage/coda1/p-amedford6/0/shared/rich_project_chbe-medford/medford-share/data/pseudos_module/espresso/nninc/pbe/van/O.UPF
     MD5 check sum: 78c19812648e8988a0fe644b0f25305e
     Pseudo is Ultrasoft, Zval =  6.0
     Generated by new atomic code, or converted to UPF format
     Using radial grid of  737 points,  4 beta functions with:
                l(1) =   0
                l(2) =   0
                l(3) =   1
                l(4) =   1
     Q(r) pseudized with  8 coefficients,  rinner =    0.800   0.800   0.800

     PseudoPot. # 3 for N  read from file:
     /storage/coda1/p-amedford6/0/shared/rich_project_chbe-medford/medford-share/data/pseudos_module/espresso/nninc/pbe/van/N.UPF
     MD5 check sum: 90d10febe142ad51ac9d5be1deb811c4
     Pseudo is Ultrasoft, Zval =  5.0
     Generated by new atomic code, or converted to UPF format
     Using radial grid of  729 points,  4 beta functions with:
                l(1) =   0
                l(2) =   0
                l(3) =   1
                l(4) =   1
     Q(r) pseudized with  8 coefficients,  rinner =    0.800   0.800   0.800

     PseudoPot. # 4 for C  read from file:
     /storage/coda1/p-amedford6/0/shared/rich_project_chbe-medford/medford-share/data/pseudos_module/espresso/nninc/pbe/van/C.UPF
     MD5 check sum: 1a69bf6b8db32088f5b2163dbdb77a27
     Pseudo is Ultrasoft, Zval =  4.0
     Generated by new atomic code, or converted to UPF format
     Using radial grid of  721 points,  4 beta functions with:
                l(1) =   0
                l(2) =   0
                l(3) =   1
                l(4) =   1
     Q(r) pseudized with  8 coefficients,  rinner =    0.800   0.800   0.800

     PseudoPot. # 5 for H  read from file:
     /storage/coda1/p-amedford6/0/shared/rich_project_chbe-medford/medford-share/data/pseudos_module/espresso/nninc/pbe/van/H.UPF
     MD5 check sum: b5ee9d7bfd3a09ee7748110bda690ff7
     Pseudo is Ultrasoft, Zval =  1.0
     Generated by new atomic code, or converted to UPF format
     Using radial grid of  615 points,  1 beta functions with:
                l(1) =   0
     Q(r) pseudized with  8 coefficients,  rinner =    0.800

     atomic species   valence    mass     pseudopotential
        Ti1           12.00    47.86700     Ti( 1.00)
        O1             6.00    15.99900     O ( 1.00)
        N1             5.00    14.00700     N ( 1.00)
        C1             4.00    12.01100     C ( 1.00)
        H1             1.00     1.00800     H ( 1.00)

     No symmetry found

   Cartesian axes

     site n.     atom                  positions (alat units)
         1           Ti1 tau(   1) = (   0.0004258   2.9801865   6.0000000  )
         2           Ti1 tau(   2) = (   3.2906075   1.4906267   6.0002472  )
         3           O1  tau(   3) = (   0.0006271   0.0005054   7.9858123  )
         4           O1  tau(   4) = (   3.2906025   0.0005020   7.3038282  )
         5           O1  tau(   5) = (   4.5942328   1.4918067   9.2879030  )
         6           O1  tau(   6) = (   1.9868534   1.4903216   9.2879459  )
         7           Ti1 tau(   7) = (   3.2907910   2.8959150   9.1758416  )
         8           Ti1 tau(   8) = (   0.0015273   1.4827037   9.2680791  )
         9           O1  tau(   9) = (   3.2800960   5.9426830  11.3808346  )
        10           O1  tau(  10) = (   0.0116148   5.9584955  10.6183126  )
        11           O1  tau(  11) = (   1.2797812   1.4911726  12.6624455  )
        12           O1  tau(  12) = (   5.2824698   1.4871998  12.6412817  )
        13           Ti1 tau(  13) = (   0.0041451   2.9720195  12.5119452  )
        14           Ti1 tau(  14) = (   3.3095611   1.4699318  12.5307708  )
        15           O1  tau(  15) = (   6.5436702   0.0697967  14.6864816  )
        16           O1  tau(  16) = (   3.2812162   5.9597207  14.0300411  )
        17           O1  tau(  17) = (   4.5129646   1.5046642  16.2361130  )
        18           O1  tau(  18) = (   1.9708392   1.5012857  16.1671103  )
        19           Ti1 tau(  19) = (   3.2655272   2.9480959  15.7331506  )
        20           Ti1 tau(  20) = (   6.5674642   1.4497656  15.9937491  )
        21           O1  tau(  21) = (   3.2904802   0.0005063   4.7018136  )
        22           O1  tau(  22) = (   6.5217933   5.8323795  17.2454964  )
        23           O1  tau(  23) = (   1.3043587   1.4918075   6.0039043  )
        24           O1  tau(  24) = (   5.2767064   1.4903225   6.0039473  )
        25           Ti1 tau(  25) = (   0.0000382   5.9609847   6.0000000  )
        26           Ti1 tau(  26) = (   3.2902200   4.4714249   6.0002472  )
        27           O1  tau(  27) = (   0.0002396   2.9813036   7.9858123  )
        28           O1  tau(  28) = (   3.2902150   2.9813002   7.3038282  )
        29           O1  tau(  29) = (   4.5938453   4.4726049   9.2879030  )
        30           O1  tau(  30) = (   1.9864658   4.4711199   9.2879459  )
        31           Ti1 tau(  31) = (   3.2891106   5.8743827   9.1763621  )
        32           Ti1 tau(  32) = (   0.0006254   4.4649316   9.2693709  )
        33           O1  tau(  33) = (   3.2830490   2.9749636  11.3746576  )
        34           O1  tau(  34) = (   0.0092240   2.9805883  10.6323155  )
        35           O1  tau(  35) = (   1.2760807   4.4612897  12.6946019  )
        36           O1  tau(  36) = (   5.2846406   4.4647657  12.6742532  )
        37           Ti1 tau(  37) = (   0.0173662   5.9591775  12.4970172  )
        38           Ti1 tau(  38) = (   3.3070294   4.4569304  12.5379467  )
        39           O1  tau(  39) = (   6.5190077   2.9374781  14.9220565  )
        40           O1  tau(  40) = (   3.2909943   2.9519766  13.9498127  )
        41           O1  tau(  41) = (   4.5146313   4.4149292  16.1460290  )
        42           O1  tau(  42) = (   1.9668235   4.4047650  16.1116202  )
        43           Ti1 tau(  43) = (   3.2426406   5.9218513  15.8539982  )
        44           Ti1 tau(  44) = (   6.5337747   4.6515477  15.8702276  )
        45           O1  tau(  45) = (   3.2900926   2.9813045   4.7018136  )
        46           O1  tau(  46) = (   1.3039711   4.4726057   6.0039043  )
        47           O1  tau(  47) = (   5.2763189   4.4711207   6.0039473  )
        48           N1  tau(  48) = (   1.0802268   3.0592680  18.8437747  )
        49           N1  tau(  49) = (   6.4825355   2.6367244  18.1156036  )
        50           C1  tau(  50) = (   0.7269815   3.7261681  20.0984356  )
        51           H1  tau(  51) = (   0.0344531   4.5672025  19.9493712  )
        52           H1  tau(  52) = (   0.2718923   3.0081313  20.7822053  )
        53           H1  tau(  53) = (   1.6524345   4.1087450  20.5485440  )
        54           H1  tau(  54) = (   5.7152520   3.3097272  18.2274121  )
        55           H1  tau(  55) = (   6.1788988   1.7551022  18.5268573  )
        56           H1  tau(  56) = (   1.5478348   3.7306874  18.2371031  )
        57           O1  tau(  57) = (   3.1661568   0.0027346  18.3937517  )
        58           H1  tau(  58) = (   4.0701885   0.3469208  18.4697374  )
        59           H1  tau(  59) = (   2.5798038   0.7742236  18.5044111  )

     number of k points=    10  Fermi-Dirac smearing, width (Ry)=  0.0073
                       cart. coord. in units 2pi/alat
        k(    1) = (   0.0000000   0.0000000   0.0000000), wk =   0.1250000
        k(    2) = (   0.0000000   0.0419351   0.0000000), wk =   0.2500000
        k(    3) = (   0.0000000  -0.0838702   0.0000000), wk =   0.1250000
        k(    4) = (   0.0379955   0.0000049   0.0000000), wk =   0.2500000
        k(    5) = (   0.0379955   0.0419400   0.0000000), wk =   0.2500000
        k(    6) = (   0.0379955  -0.0838652   0.0000000), wk =   0.2500000
        k(    7) = (   0.0379955  -0.0419301   0.0000000), wk =   0.2500000
        k(    8) = (  -0.0759910  -0.0000099   0.0000000), wk =   0.1250000
        k(    9) = (  -0.0759910   0.0419252   0.0000000), wk =   0.2500000
        k(   10) = (  -0.0759910  -0.0838800   0.0000000), wk =   0.1250000

     Initial potential from superposition of free atoms

     starting charge  389.99912, renormalised to  406.00000

     negative rho (up, down):  1.306E-02 0.000E+00

     %%%%%%%%%%%%%%%%%%%%%%%%%%%%%%%%%%%%%%%%%%%%%%%%%%%%%%%%%%%%%%%%%%%%%%%%
     %                                                                      %
     % You are using vdW-DF, which was implemented by the Thonhauser group. %
     % Please cite the following two papers that made this development      %
     % possible and the two reviews that describe the various versions:     %
     %                                                                      %
     %   T. Thonhauser et al., PRL 115, 136402 (2015).                      %
     %   T. Thonhauser et al., PRB 76, 125112 (2007).                       %
     %   K. Berland et al., Rep. Prog. Phys. 78, 066501 (2015).             %
     %   D.C. Langreth et al., J. Phys.: Condens. Matter 21, 084203 (2009). %
     %                                                                      %
     %                                                                      %
     % If you are calculating the stress with vdW-DF, please also cite:     %
     %                                                                      %
     %   R. Sabatini et al., J. Phys.: Condens. Matter 24, 424209 (2012).   %
     %                                                                      %
     %%%%%%%%%%%%%%%%%%%%%%%%%%%%%%%%%%%%%%%%%%%%%%%%%%%%%%%%%%%%%%%%%%%%%%%%

     Adding external electric field

     Computed dipole along edir(3) :
        Dipole              -16.1158 Ry au,        -40.9623 Debye
        Dipole field         -0.0304 Ry au,

        Potential amp.        2.8192 Ry
        Total length         46.3494 bohr

     Starting wfcs are  308 atomic wfcs
  @ DRIVER MODE: Message from server: STATUS
  @ DRIVER MODE: Message from server: POSDATA
  @ DRIVER MODE: Reading and sharing cell
  @ DRIVER MODE: Reading and sharing positions
  @ DRIVER MODE: Received positions

     Self-consistent Calculation

     iteration #  1     ecut=    29.40 Ry     beta= 0.05
     Davidson diagonalization with overlap
     c_bands:  2 eigenvalues not converged
     c_bands:  3 eigenvalues not converged
     c_bands:  2 eigenvalues not converged
     c_bands:  3 eigenvalues not converged
     c_bands:  4 eigenvalues not converged
     c_bands:  2 eigenvalues not converged
     c_bands:  1 eigenvalues not converged
     c_bands:  5 eigenvalues not converged
     c_bands:  1 eigenvalues not converged
     ethr =  1.00E-05,  avg # of iterations = 23.1

[...]

     total energy              =   -2140.66461871 Ry
     estimated scf accuracy    <    9598.79615081 Ry

     iteration #  2     ecut=    29.40 Ry     beta= 0.05
     Davidson diagonalization with overlap
     ethr =  1.00E-02,  avg # of iterations = 33.4

[...]

     iteration # 75     ecut=    29.40 Ry     beta= 0.05
     Davidson diagonalization with overlap
     c_bands:  1 eigenvalues not converged
     ethr =  3.09E-11,  avg # of iterations = 12.1

[...]

     total energy              =   -2977.70006221 Ry
     estimated scf accuracy    <       0.00000009 Ry

     iteration # 76     ecut=    29.40 Ry     beta= 0.05
     Davidson diagonalization with overlap
     ethr =  2.14E-11,  avg # of iterations =  3.2

     negative rho (up, down):  1.406E-02 0.000E+00

     Adding external electric field

     Computed dipole along edir(3) :
        Dipole                1.3368 Ry au,          3.3977 Debye
        Dipole field          0.0025 Ry au,

        Potential amp.       -0.2338 Ry
        Total length         46.3494 bohr

     End of self-consistent calculation

          k = 0.0000 0.0000 0.0000 ( 18029 PWs)   bands (ev):

   -55.1200 -55.0833 -55.0759 -55.0418 -55.0360 -55.0309 -54.9992 -54.9633
   -54.9448 -54.9100 -54.9062 -54.8894 -54.8726 -54.8389 -54.1055 -54.0715
   -31.6818 -31.5958 -31.5683 -31.4883 -31.4339 -31.4313 -31.4177 -31.4118
   -31.3649 -31.3420 -31.3316 -31.3207 -31.3139 -31.3111 -31.2928 -31.2846
   -31.2643 -31.2617 -31.2593 -31.2410 -31.2285 -31.2191 -31.2017 -31.1973
   -31.1897 -31.1780 -31.1749 -31.1457 -31.1331 -31.1300 -31.1252 -31.1048
   -31.1020 -31.0944 -31.0909 -31.0673 -31.0582 -31.0417 -31.0342 -31.0324
   -31.0173 -31.0162 -30.5149 -30.4206 -30.3986 -30.3313 -30.2445 -30.1336
   -18.8058 -17.8194 -15.9511 -15.6956 -15.5591 -15.4580 -15.3233 -15.2171
   -15.1358 -15.0217 -14.9719 -14.8564 -14.8243 -14.8197 -14.7802 -14.7488
   -14.7000 -14.6613 -14.6590 -14.6368 -14.6173 -14.6097 -14.5668 -14.5599
   -14.5203 -14.5183 -14.4985 -14.3624 -14.2808 -14.2108 -14.0284 -13.1989
   -12.6078 -12.4904  -9.7632  -6.5376  -6.4030  -5.4480  -4.9100  -3.5319
    -3.2846  -3.1399  -3.0858  -3.0516  -3.0161  -2.9607  -2.8820  -2.7903
    -2.6514  -2.5821  -2.5571  -2.4048  -2.3308  -2.3211  -2.2645  -2.1648
    -2.1399  -2.0932  -2.0510  -1.9864  -1.9490  -1.9255  -1.9036  -1.8686
    -1.8649  -1.8110  -1.7571  -1.6877  -1.5980  -1.5667  -1.5208  -1.4772
    -1.4551  -1.4524  -1.4120  -1.4056  -1.3949  -1.3507  -1.3445  -1.3144
    -1.2684  -1.1589  -1.0087  -0.9465  -0.8568  -0.7621  -0.7366  -0.7116
    -0.6914  -0.6292  -0.6067  -0.5773  -0.5019  -0.4535  -0.3743  -0.3280
    -0.3054  -0.2258  -0.1211  -0.1040  -0.0967  -0.0087   0.0835   0.0964
     0.1111   0.1208   0.2186   0.2840   0.3178   0.3595   0.4237   0.4328
     0.4907   0.5197   0.5711   0.6375   0.6706   0.7497   0.7891   0.8100
     0.8156   0.8381   0.8581   0.8695   0.9506   0.9595   0.9851   1.0738
     1.1783   1.3326   1.4787   1.4896   1.8229   1.8240   1.9175   2.1011
     2.4936   2.5419   3.9743   4.0500   4.1085   4.1197   4.1253   4.2102
     4.4593   4.4770   4.4885   4.4900   4.5250

[...]

          k = 0.0380-0.0419 0.0000 ( 17876 PWs)   bands (ev):

[...]

          k =-0.0760-0.0000 0.0000 ( 17886 PWs)   bands (ev):

[...]

          k =-0.0760-0.0839 0.0000 ( 17948 PWs)   bands (ev):

   -55.1056 -55.0975 -55.0589 -55.0587 -55.0332 -55.0297 -54.9865 -54.9760
   -54.9303 -54.9240 -54.8913 -54.8902 -54.8889 -54.8406 -54.0884 -54.0884
   -31.5111 -31.4915 -31.4817 -31.3834 -31.3833 -31.3778 -31.3713 -31.3502
   -31.3502 -31.3296 -31.3244 -31.3189 -31.3092 -31.2902 -31.2767 -31.2622
   -31.2579 -31.2566 -31.2531 -31.2467 -31.2447 -31.2410 -31.2291 -31.2280
   -31.1988 -31.1978 -31.1807 -31.1785 -31.1785 -31.1697 -31.1694 -31.1635
   -31.1551 -31.1428 -31.1372 -31.1217 -31.1201 -31.1042 -31.0703 -31.0695
   -31.0683 -31.0450 -30.4112 -30.4112 -30.3275 -30.3273 -30.2879 -30.2879
   -18.8043 -17.8160 -15.5311 -15.3925 -15.2534 -15.1498 -15.1349 -15.0813
   -15.0321 -14.9904 -14.9487 -14.9044 -14.8944 -14.8763 -14.8479 -14.8209
   -14.7966 -14.7374 -14.7211 -14.7055 -14.6832 -14.6363 -14.6285 -14.6257
   -14.6186 -14.5724 -14.5698 -14.5448 -14.4760 -14.4740 -14.2874 -13.2008
   -12.5919 -12.5918  -9.7601  -6.5893  -6.3254  -5.4450  -4.9208  -3.5052
    -2.9543  -2.8049  -2.6546  -2.6187  -2.4729  -2.3727  -2.3275  -2.2993
    -2.2456  -2.1999  -2.1398  -2.1247  -2.1063  -2.0477  -2.0221  -2.0035
    -1.9720  -1.9530  -1.9394  -1.9209  -1.9035  -1.8754  -1.8491  -1.8404
    -1.8358  -1.8071  -1.7910  -1.7516  -1.7448  -1.7370  -1.6939  -1.6817
    -1.6555  -1.5986  -1.4916  -1.4814  -1.3289  -1.3265  -1.2921  -1.2470
    -1.2268  -1.2167  -1.1562  -1.1483  -1.1361  -0.9002  -0.8731  -0.8630
    -0.8359  -0.7776  -0.7602  -0.6975  -0.6881  -0.6041  -0.5894  -0.4875
    -0.4716  -0.4150  -0.3320  -0.3239  -0.3117  -0.2004  -0.1509  -0.1133
    -0.0868  -0.0766  -0.0591  -0.0214  -0.0212   0.0686   0.1120   0.1424
     0.1576   0.1875   0.3521   0.4007   0.4096   0.5488   0.5626   0.7105
     0.7740   0.7883   0.8756   0.8962   0.9838   0.9940   1.0336   1.1731
     1.1846   1.2079   1.2549   1.2832   1.3352   1.3404   2.2738   2.2751
     2.3618   2.3620   4.1067   4.2320   4.2384   4.2991   4.4084   4.4416
     4.4878   4.5214   4.5587   4.5614   4.6295

     the Fermi energy is     4.0364 ev

!    total energy              =   -2977.70007603 Ry
     estimated scf accuracy    <       0.00000007 Ry
     smearing contrib. (-TS)   =      -0.03675013 Ry
     internal energy E=F+TS    =   -2977.66332589 Ry

     The total energy is F=E-TS. E is the sum of the following terms:
     one-electron contribution =  -23082.82121530 Ry
     hartree contribution      =   11640.55848607 Ry
     xc contribution           =    -496.61606382 Ry
     ewald contribution        =    8961.21209503 Ry
     electric field correction =       0.00337213 Ry

     convergence has been achieved in  76 iterations

     Forces acting on atoms (cartesian axes, Ry/au):

     atom    1 type  1   force =     0.00017992   -0.00018989    0.09312145
     atom    2 type  1   force =    -0.00010647   -0.00033140   -0.17820858
     atom    3 type  2   force =     0.00002048   -0.00017994   -0.02037250
     atom    4 type  2   force =    -0.00002723   -0.00200590    0.05899645
     atom    5 type  2   force =    -0.01060028   -0.00142215    0.00859979
     atom    6 type  2   force =     0.01186248   -0.00070419    0.00713284
     atom    7 type  1   force =    -0.00088888    0.00313141   -0.01230016
     atom    8 type  1   force =     0.00054682    0.00114067   -0.00449426
     atom    9 type  2   force =    -0.00007571   -0.00037061    0.00014078
     atom   10 type  2   force =    -0.00129336   -0.00051388   -0.00194768
     atom   11 type  2   force =    -0.00021125   -0.00021992   -0.00005761
     atom   12 type  2   force =     0.00060250   -0.00007762   -0.00024189
     atom   13 type  1   force =    -0.00103152   -0.00063175    0.00022379
     atom   14 type  1   force =     0.00011717   -0.00004946    0.00017787
     atom   15 type  2   force =    -0.00027475   -0.00049977   -0.00006156
     atom   16 type  2   force =    -0.00000757   -0.00007644    0.00066448
     atom   17 type  2   force =    -0.00028307    0.00024815    0.00055996
     atom   18 type  2   force =     0.00018703    0.00004679    0.00031910
     atom   19 type  1   force =     0.00023250    0.00003398    0.00058555
     atom   20 type  1   force =    -0.00018997   -0.00022233    0.00027611
     atom   21 type  2   force =     0.00007173   -0.00001686    0.10397462
     atom   22 type  2   force =     0.00005855   -0.00022668   -0.00111296
     atom   23 type  2   force =    -0.07037984   -0.00010456   -0.02688913
     atom   24 type  2   force =     0.07025843    0.00034149   -0.02693188
     atom   25 type  1   force =     0.00000407   -0.00022508    0.09275977
     atom   26 type  1   force =    -0.00019963   -0.00037346   -0.17831675
     atom   27 type  2   force =     0.00010394   -0.00028423   -0.01935277
     atom   28 type  2   force =     0.00003803   -0.00162534    0.05807060
     atom   29 type  2   force =    -0.01068081   -0.00080584    0.00799925
     atom   30 type  2   force =     0.01179859   -0.00047677    0.00652411
     atom   31 type  1   force =    -0.00072768    0.00504545   -0.01493495
     atom   32 type  1   force =     0.00039786   -0.00140112   -0.00478053
     atom   33 type  2   force =    -0.00011230    0.00021490    0.00028531
     atom   34 type  2   force =    -0.00128895    0.00140874   -0.00090288
     atom   35 type  2   force =     0.00020517    0.00014246    0.00001897
     atom   36 type  2   force =     0.00011023   -0.00001052   -0.00011701
     atom   37 type  1   force =    -0.00103896    0.00056534    0.00004874
     atom   38 type  1   force =     0.00014736   -0.00014801   -0.00003790
     atom   39 type  2   force =    -0.00003008   -0.00016375    0.00009835
     atom   40 type  2   force =    -0.00020621    0.00020506    0.00024474
     atom   41 type  2   force =    -0.00000559   -0.00016285    0.00041306
     atom   42 type  2   force =    -0.00014652   -0.00005000    0.00008731
     atom   43 type  1   force =     0.00011758    0.00031335    0.00042021
     atom   44 type  1   force =    -0.00010523    0.00021599   -0.00034968
     atom   45 type  2   force =     0.00004118   -0.00005097    0.10396130
     atom   46 type  2   force =    -0.07037205   -0.00006042   -0.02692091
     atom   47 type  2   force =     0.07028012    0.00036842   -0.02695055
     atom   48 type  3   force =    -0.00021284    0.00004609   -0.00044758
     atom   49 type  3   force =    -0.00095549   -0.00035127    0.00018539
     atom   50 type  4   force =     0.00936480    0.00314787    0.00274754
     atom   51 type  5   force =     0.00071121   -0.00000788    0.00034851
     atom   52 type  5   force =     0.00069649   -0.00051020    0.00067468
     atom   53 type  5   force =    -0.00863875   -0.00288626   -0.00369124
     atom   54 type  5   force =     0.00078730   -0.00023751   -0.00030295
     atom   55 type  5   force =     0.00041849    0.00083389   -0.00000599
     atom   56 type  5   force =     0.00005673    0.00033481    0.00021212
     atom   57 type  2   force =    -0.00032281    0.00065325   -0.00062440
     atom   58 type  5   force =     0.00075672   -0.00042451    0.00012434
     atom   59 type  5   force =     0.00024031   -0.00033879    0.00035721

     Total force =     0.366341     Total SCF correction =     0.000664
  @ DRIVER MODE: Message from server: STATUS
  @ DRIVER MODE: Message from server: GETFORCE
  @ DRIVER MODE: Returning v,forces,stress,ensemble

     Writing output data file ./calc.save/
  @ DRIVER MODE: Message from server: EXIT
  @ DRIVE MODE: Exiting

     General routines

     Parallel routines

   This run was terminated on:   3:11:48  16Sep2021

   JOB DONE.