     Program PWSCF v.6.7GPU starts on  9Sep2021 at  8:38:21

     R & G space division:  proc/nbgrp/npool/nimage =      10
     Reading input from /storage/home/hcoda1/3/ntian30/research/carbon/CxH_vib/CH3_calc/ads_slab/CH3NNH3_a/out_0033/pw.inp
Warning: card &CELL ignored
Warning: card   CELL_DYNAMICS='IPI', ignored
Warning: card / ignored

     Current dimensions of program PWSCF are:
     Max number of different atomic species (ntypx) = 10
     Max number of k-points (npk) =  40000
     Max angular momentum in pseudopotentials (lmaxx) =  3
     Presently no symmetry can be used with electric field

     Message from routine cell_base_init:
     DEPRECATED: use true lattice parameter, not A to a.u. conversion factor

     IMPORTANT: XC functional enforced from input :
     Exchange-correlation= BEEF-VDW
                           (   1   4  43  14   2   0   0)
     Any further DFT definition will be discarded
     Please, verify this is what you really want

  @ DRIVER MODE: Connecting to
 qe_1139763_2767402.sched-torque.pace.gatech.educl9c3t9x_scratch
  using UNIX socket
  @ DRIVER MODE: Message from server: STATUS
  @ DRIVER MODE: Message from server: INIT
  @ DRIVER MODE: Receiving replica           0          -1
  @ DRIVER MODE: Receiving encoded integer          25
  @ DRIVER MODE:  SCF:  T  FORCE:  T  STRESS:  F  VC:  F  ENSEMBLE:  F
  @ DRIVER MODE:  SCF:  T  FORCE:  T  STRESS:  F  VC:  F  ENSEMBLE:  F

     Using Slab Decomposition

     bravais-lattice index     =            0
     lattice parameter (alat)  =       1.8897  a.u.
     unit-cell volume          =    6658.9804 (a.u.)^3
     number of atoms/cell      =           56
     number of atomic types    =            5
     number of electrons       =       398.00
     number of Kohn-Sham states=          209
     kinetic-energy cutoff     =      29.3995  Ry
     charge density cutoff     =     293.9946  Ry
     scf convergence threshold =      7.3E-08
     mixing beta               =       0.0500
     number of iterations used =            8  plain     mixing
     Exchange-correlation= BEEF-VDW
                           (   1   4  43  14   2   0   0)

     celldm(1)=   1.889726  celldm(2)=   0.000000  celldm(3)=   0.000000
     celldm(4)=   0.000000  celldm(5)=   0.000000  celldm(6)=   0.000000

     crystal axes: (cart. coord. in units of alat)
               a(1) = (   6.579727   0.000000   0.000000 )
               a(2) = (  -0.000775   5.961596   0.000000 )
               a(3) = (   0.000000   0.000000  25.155947 )

     reciprocal axes: (cart. coord. in units 2 pi/alat)
               b(1) = (  0.151982  0.000020  0.000000 )
               b(2) = (  0.000000  0.167740  0.000000 )
               b(3) = (  0.000000  0.000000  0.039752 )

     PseudoPot. # 1 for Ti read from file:
     /storage/coda1/p-amedford6/0/shared/rich_project_chbe-medford/medford-share/data/pseudos_module/espresso/nninc/pbe/van/Ti.UPF
     MD5 check sum: 8e4df49b7f0d34bbd5052bf3f5ea0213
     Pseudo is Ultrasoft, Zval = 12.0
     Generated by new atomic code, or converted to UPF format
     Using radial grid of  851 points,  6 beta functions with:
                l(1) =   0
                l(2) =   0
                l(3) =   1
                l(4) =   1
                l(5) =   2
                l(6) =   2
     Q(r) pseudized with  8 coefficients,  rinner =    1.000   1.000   1.000
                                                       1.000   1.000

     PseudoPot. # 2 for O  read from file:
     /storage/coda1/p-amedford6/0/shared/rich_project_chbe-medford/medford-share/data/pseudos_module/espresso/nninc/pbe/van/O.UPF
     MD5 check sum: 78c19812648e8988a0fe644b0f25305e
     Pseudo is Ultrasoft, Zval =  6.0
     Generated by new atomic code, or converted to UPF format
     Using radial grid of  737 points,  4 beta functions with:
                l(1) =   0
                l(2) =   0
                l(3) =   1
                l(4) =   1
     Q(r) pseudized with  8 coefficients,  rinner =    0.800   0.800   0.800

     PseudoPot. # 3 for N  read from file:
     /storage/coda1/p-amedford6/0/shared/rich_project_chbe-medford/medford-share/data/pseudos_module/espresso/nninc/pbe/van/N.UPF
     MD5 check sum: 90d10febe142ad51ac9d5be1deb811c4
     Pseudo is Ultrasoft, Zval =  5.0
     Generated by new atomic code, or converted to UPF format
     Using radial grid of  729 points,  4 beta functions with:
                l(1) =   0
                l(2) =   0
                l(3) =   1
                l(4) =   1
     Q(r) pseudized with  8 coefficients,  rinner =    0.800   0.800   0.800

     PseudoPot. # 4 for C  read from file:
     /storage/coda1/p-amedford6/0/shared/rich_project_chbe-medford/medford-share/data/pseudos_module/espresso/nninc/pbe/van/C.UPF
     MD5 check sum: 1a69bf6b8db32088f5b2163dbdb77a27
     Pseudo is Ultrasoft, Zval =  4.0
     Generated by new atomic code, or converted to UPF format
     Using radial grid of  721 points,  4 beta functions with:
                l(1) =   0
                l(2) =   0
                l(3) =   1
                l(4) =   1
     Q(r) pseudized with  8 coefficients,  rinner =    0.800   0.800   0.800

     PseudoPot. # 5 for H  read from file:
     /storage/coda1/p-amedford6/0/shared/rich_project_chbe-medford/medford-share/data/pseudos_module/espresso/nninc/pbe/van/H.UPF
     MD5 check sum: b5ee9d7bfd3a09ee7748110bda690ff7
     Pseudo is Ultrasoft, Zval =  1.0
     Generated by new atomic code, or converted to UPF format
     Using radial grid of  615 points,  1 beta functions with:
                l(1) =   0
     Q(r) pseudized with  8 coefficients,  rinner =    0.800

     atomic species   valence    mass     pseudopotential
        Ti1           12.00    47.86700     Ti( 1.00)
        O1             6.00    15.99900     O ( 1.00)
        N1             5.00    14.00700     N ( 1.00)
        C1             4.00    12.01100     C ( 1.00)
        H1             1.00     1.00800     H ( 1.00)

     No symmetry found

   Cartesian axes

     site n.     atom                  positions (alat units)
         1           Ti1 tau(   1) = (   0.0004258   2.9801865   6.0000000  )
         2           Ti1 tau(   2) = (   3.2906075   1.4906267   6.0002472  )
         3           O1  tau(   3) = (   0.0006271   0.0005054   7.9858123  )
         4           O1  tau(   4) = (   3.2906025   0.0005020   7.3038282  )
         5           O1  tau(   5) = (   4.5942328   1.4918067   9.2879030  )
         6           O1  tau(   6) = (   1.9868534   1.4903216   9.2879459  )
         7           Ti1 tau(   7) = (   3.2907910   2.8959150   9.1758416  )
         8           Ti1 tau(   8) = (   0.0015273   1.4827037   9.2680791  )
         9           O1  tau(   9) = (   3.2915376   0.0135470  11.3011085  )
        10           O1  tau(  10) = (   0.0116148   5.9584955  10.6183126  )
        11           O1  tau(  11) = (   1.3264285   1.5112823  12.6233503  )
        12           O1  tau(  12) = (   5.3038506   1.5117067  12.6402039  )
        13           Ti1 tau(  13) = (   6.4820107   2.9926285  12.7699842  )
        14           Ti1 tau(  14) = (   3.1705855   1.5046985  12.4703807  )
        15           O1  tau(  15) = (   0.0265921   0.0018185  14.6022993  )
        16           O1  tau(  16) = (   3.3077976   0.0231332  13.8844522  )
        17           O1  tau(  17) = (   4.5431088   1.5356983  16.0582573  )
        18           O1  tau(  18) = (   2.0919096   1.5355568  16.0602035  )
        19           Ti1 tau(  19) = (   3.3160089   3.0194793  15.6930983  )
        20           Ti1 tau(  20) = (   0.0166562   1.5958061  16.1043543  )
        21           O1  tau(  21) = (   3.2904802   0.0005063   4.7018136  )
        22           O1  tau(  22) = (   0.0292894   0.0555714  17.2141426  )
        23           O1  tau(  23) = (   1.3043587   1.4918075   6.0039043  )
        24           O1  tau(  24) = (   5.2767064   1.4903225   6.0039473  )
        25           Ti1 tau(  25) = (   0.0000382   5.9609847   6.0000000  )
        26           Ti1 tau(  26) = (   3.2902200   4.4714249   6.0002472  )
        27           O1  tau(  27) = (   0.0002396   2.9813036   7.9858123  )
        28           O1  tau(  28) = (   3.2902150   2.9813002   7.3038282  )
        29           O1  tau(  29) = (   4.5938453   4.4726049   9.2879030  )
        30           O1  tau(  30) = (   1.9864658   4.4711199   9.2879459  )
        31           Ti1 tau(  31) = (   3.2891106   5.8743827   9.1763621  )
        32           Ti1 tau(  32) = (   0.0006254   4.4649316   9.2693709  )
        33           O1  tau(  33) = (   3.2938734   2.9940915  11.3014364  )
        34           O1  tau(  34) = (   0.0092240   2.9805883  10.6323155  )
        35           O1  tau(  35) = (   1.3265148   4.4779228  12.6213786  )
        36           O1  tau(  36) = (   5.3043665   4.4729268  12.6387898  )
        37           Ti1 tau(  37) = (   6.5102921   0.0103953  12.7821347  )
        38           Ti1 tau(  38) = (   3.1702703   4.4844908  12.4724723  )
        39           O1  tau(  39) = (   0.0044238   2.9856840  14.6711682  )
        40           O1  tau(  40) = (   3.3052367   3.0047533  13.8869641  )
        41           O1  tau(  41) = (   4.5463945   4.5179403  16.0573015  )
        42           O1  tau(  42) = (   2.0913021   4.5186677  16.0620504  )
        43           Ti1 tau(  43) = (   3.3128124   0.0388915  15.6953448  )
        44           Ti1 tau(  44) = (   0.0191476   4.5695365  16.1495174  )
        45           O1  tau(  45) = (   3.2900926   2.9813045   4.7018136  )
        46           O1  tau(  46) = (   1.3039711   4.4726057   6.0039043  )
        47           O1  tau(  47) = (   5.2763189   4.4711207   6.0039473  )
        48           N1  tau(  48) = (   0.0657769   3.0188755  17.3428317  )
        49           N1  tau(  49) = (   6.3710133   2.5762042  22.6422586  )
        50           C1  tau(  50) = (   0.3130180   3.0007025  18.7658599  )
        51           H1  tau(  51) = (   0.2928038   4.0066326  19.1970245  )
        52           H1  tau(  52) = (   6.1505335   2.3845869  19.2855718  )
        53           H1  tau(  53) = (   1.2957935   2.5455442  18.9776258  )
        54           H1  tau(  54) = (   5.9555952   3.1943721  23.3306195  )
        55           H1  tau(  55) = (   0.0098814   1.7053999  23.1148127  )
        56           H1  tau(  56) = (   0.6724875   2.9916800  22.3598805  )

     number of k points=    10  Fermi-Dirac smearing, width (Ry)=  0.0073
                       cart. coord. in units 2pi/alat
        k(    1) = (   0.0000000   0.0000000   0.0000000), wk =   0.1250000
        k(    2) = (   0.0000000   0.0419351   0.0000000), wk =   0.2500000
        k(    3) = (   0.0000000  -0.0838702   0.0000000), wk =   0.1250000
        k(    4) = (   0.0379955   0.0000049   0.0000000), wk =   0.2500000
        k(    5) = (   0.0379955   0.0419400   0.0000000), wk =   0.2500000
        k(    6) = (   0.0379955  -0.0838652   0.0000000), wk =   0.2500000
        k(    7) = (   0.0379955  -0.0419301   0.0000000), wk =   0.2500000
        k(    8) = (  -0.0759910  -0.0000099   0.0000000), wk =   0.1250000
        k(    9) = (  -0.0759910   0.0419252   0.0000000), wk =   0.2500000
        k(   10) = (  -0.0759910  -0.0838800   0.0000000), wk =   0.1250000

     Initial potential from superposition of free atoms

     starting charge  381.99914, renormalised to  398.00000

     negative rho (up, down):  7.226E-03 0.000E+00

     %%%%%%%%%%%%%%%%%%%%%%%%%%%%%%%%%%%%%%%%%%%%%%%%%%%%%%%%%%%%%%%%%%%%%%%%
     %                                                                      %
     % You are using vdW-DF, which was implemented by the Thonhauser group. %
     % Please cite the following two papers that made this development      %
     % possible and the two reviews that describe the various versions:     %
     %                                                                      %
     %   T. Thonhauser et al., PRL 115, 136402 (2015).                      %
     %   T. Thonhauser et al., PRB 76, 125112 (2007).                       %
     %   K. Berland et al., Rep. Prog. Phys. 78, 066501 (2015).             %
     %   D.C. Langreth et al., J. Phys.: Condens. Matter 21, 084203 (2009). %
     %                                                                      %
     %                                                                      %
     % If you are calculating the stress with vdW-DF, please also cite:     %
     %                                                                      %
     %   R. Sabatini et al., J. Phys.: Condens. Matter 24, 424209 (2012).   %
     %                                                                      %
     %%%%%%%%%%%%%%%%%%%%%%%%%%%%%%%%%%%%%%%%%%%%%%%%%%%%%%%%%%%%%%%%%%%%%%%%

     Adding external electric field

     Computed dipole along edir(3) :
        Dipole              -12.0378 Ry au,        -30.5970 Debye
        Dipole field         -0.0227 Ry au,

        Potential amp.        2.1058 Ry
        Total length         46.3494 bohr

     Starting wfcs are  302 atomic wfcs
  @ DRIVER MODE: Message from server: STATUS
  @ DRIVER MODE: Message from server: POSDATA
  @ DRIVER MODE: Reading and sharing cell
  @ DRIVER MODE: Reading and sharing positions
  @ DRIVER MODE: Received positions

     Self-consistent Calculation

     iteration #  1     ecut=    29.40 Ry     beta= 0.05
     Davidson diagonalization with overlap
     c_bands:  1 eigenvalues not converged
     c_bands:  1 eigenvalues not converged
     c_bands:  1 eigenvalues not converged
     c_bands:  1 eigenvalues not converged
     c_bands:  1 eigenvalues not converged
     c_bands:  1 eigenvalues not converged
     c_bands:  1 eigenvalues not converged
     c_bands:  2 eigenvalues not converged
     c_bands:  1 eigenvalues not converged
     ethr =  1.00E-05,  avg # of iterations = 19.6

[...]

     total energy              =   -2520.04372982 Ry
     estimated scf accuracy    <    4725.50349895 Ry

     iteration #  2     ecut=    29.40 Ry     beta= 0.05
     Davidson diagonalization with overlap
     ethr =  1.00E-02,  avg # of iterations = 21.7

[...]

     iteration # 56     ecut=    29.40 Ry     beta= 0.05
     Davidson diagonalization with overlap
     c_bands:  1 eigenvalues not converged
     c_bands:  2 eigenvalues not converged
     ethr =  5.00E-07,  avg # of iterations = 11.7

[...]

     total energy              =   -2942.90435575 Ry
     estimated scf accuracy    <       0.00000010 Ry

     iteration # 83     ecut=    29.40 Ry     beta= 0.05
     Davidson diagonalization with overlap
     ethr =  2.45E-11,  avg # of iterations =  5.5

     negative rho (up, down):  9.739E-03 0.000E+00

     Adding external electric field

     Computed dipole along edir(3) :
        Dipole                0.6795 Ry au,          1.7271 Debye
        Dipole field          0.0013 Ry au,

        Potential amp.       -0.1189 Ry
        Total length         46.3494 bohr

     End of self-consistent calculation

          k = 0.0000 0.0000 0.0000 ( 18029 PWs)   bands (ev):

   -56.5042 -56.4706 -55.6130 -55.6041 -55.5777 -55.5716 -55.4747 -55.4392
   -55.2607 -55.2255 -55.1680 -55.1620 -55.1341 -55.0492 -54.6104 -54.5674
   -32.9317 -32.7781 -32.7499 -32.6810 -32.5899 -32.5577 -32.0922 -32.0706
   -32.0162 -31.9008 -31.8597 -31.8203 -31.8180 -31.7846 -31.7557 -31.7547
   -31.7532 -31.7354 -31.7253 -31.7206 -31.6996 -31.6833 -31.6572 -31.6434
   -31.6305 -31.6101 -31.6041 -31.5804 -31.5603 -31.5065 -31.4922 -31.4823
   -31.4038 -31.3996 -31.3789 -31.3354 -31.3279 -31.2954 -31.2791 -31.2554
   -31.2362 -31.1847 -31.1377 -30.8548 -30.8310 -30.8142 -30.7889 -30.6689
   -16.6657 -16.2241 -15.9961 -15.8655 -15.7925 -15.7436 -15.6909 -15.5756
   -15.4977 -15.4949 -15.4575 -15.4217 -15.3522 -15.2091 -15.1113 -15.0550
   -15.0130 -14.8984 -14.8318 -14.8058 -14.7959 -14.7649 -14.7471 -14.5481
   -14.5045 -14.4144 -14.4042 -14.2677 -14.0664 -13.9963 -13.6665 -13.5564
   -12.6979  -7.4226  -4.2327  -4.0917  -4.0723  -3.7202  -3.4785  -3.3921
    -3.2893  -3.2767  -3.2039  -3.0835  -3.0307  -2.9847  -2.8699  -2.8678
    -2.7247  -2.7158  -2.6791  -2.6688  -2.6338  -2.5768  -2.5556  -2.5039
    -2.5021  -2.4929  -2.3380  -2.2426  -2.1768  -2.1478  -2.1328  -2.1032
    -2.0281  -2.0033  -1.9917  -1.9835  -1.8960  -1.7457  -1.7402  -1.7124
    -1.6671  -1.6671  -1.6226  -1.6125  -1.4712  -1.3957  -1.2859  -1.2800
    -1.2436  -1.1763  -1.1743  -1.0719  -1.0019  -0.9502  -0.9108  -0.8048
    -0.7615  -0.7352  -0.6504  -0.5791  -0.5453  -0.5295  -0.5059  -0.4080
    -0.3909  -0.3687  -0.2856  -0.2761  -0.2277  -0.1400  -0.1192  -0.1154
    -0.0275  -0.0197   0.0816   0.1191   0.1605   0.1889   0.2783   0.3076
     0.4085   0.4525   0.4678   0.5902   0.6074   0.6668   0.7419   0.8041
     0.8245   0.8536   0.8856   0.8964   0.9778   1.0983   1.1031   1.1372
     1.2052   1.2519   1.4075   1.4464   1.7274   1.7421   2.4161   2.7711
     2.9326   3.2312   3.4318   3.5385   3.7481   3.7619   3.7676   3.9433
     3.9943

[...]

          k = 0.0380-0.0419 0.0000 ( 17876 PWs)   bands (ev):

[...]

          k =-0.0760-0.0000 0.0000 ( 17886 PWs)   bands (ev):

[...]

          k =-0.0760-0.0839 0.0000 ( 17948 PWs)   bands (ev):

   -56.4875 -56.4872 -55.5949 -55.5941 -55.5913 -55.5858 -55.4589 -55.4549
   -55.2456 -55.2405 -55.1592 -55.1511 -55.1509 -55.0519 -54.6012 -54.5764
   -32.7639 -32.7636 -32.7486 -32.7484 -32.6340 -32.6337 -31.9209 -31.9186
   -31.8953 -31.8889 -31.8503 -31.8494 -31.8073 -31.8049 -31.8046 -31.8038
   -31.7816 -31.7797 -31.7782 -31.7746 -31.7102 -31.7067 -31.6614 -31.6557
   -31.5960 -31.5876 -31.5279 -31.5233 -31.4954 -31.4952 -31.4883 -31.4443
   -31.4434 -31.4114 -31.3767 -31.3765 -31.3727 -31.3374 -31.3373 -31.3309
   -31.2949 -31.2570 -30.9999 -30.9274 -30.8271 -30.8000 -30.7964 -30.7545
   -16.0126 -16.0106 -15.9808 -15.9805 -15.7062 -15.7027 -15.6557 -15.6536
   -15.4844 -15.4781 -15.2679 -15.2596 -15.2555 -15.2514 -15.1232 -15.1167
   -15.0587 -15.0413 -14.9584 -14.9541 -14.8920 -14.8818 -14.8465 -14.8280
   -14.5066 -14.4855 -14.3668 -14.3487 -14.2146 -13.9956 -13.6599 -13.6599
   -12.7143  -7.4131  -4.1025  -4.0762  -3.1129  -3.1123  -3.0415  -3.0405
    -2.9185  -2.9134  -2.8447  -2.8440  -2.7339  -2.7315  -2.6911  -2.5983
    -2.5968  -2.5948  -2.5759  -2.5411  -2.4446  -2.4366  -2.4241  -2.4054
    -2.3599  -2.3568  -2.3479  -2.2670  -2.2531  -2.2170  -2.1771  -2.0712
    -2.0589  -2.0446  -2.0145  -1.9536  -1.9424  -1.9278  -1.8784  -1.8600
    -1.7786  -1.7228  -1.6603  -1.5526  -1.5483  -1.5390  -1.5269  -1.3717
    -1.3324  -1.3043  -1.2976  -1.2893  -1.2450  -1.1460  -1.1385  -0.9965
    -0.9961  -0.9244  -0.8439  -0.8279  -0.7978  -0.6675  -0.6243  -0.5840
    -0.5774  -0.5556  -0.5317  -0.5112  -0.4791  -0.3328  -0.3206  -0.2899
    -0.2494  -0.2417  -0.1945  -0.1278  -0.0397   0.0238   0.0254   0.0887
     0.1515   0.2118   0.2917   0.3081   0.3134   0.5941   0.6774   0.7649
     0.8411   0.9084   0.9733   0.9952   1.0640   1.0960   1.1364   1.2336
     1.2376   1.2549   1.2553   1.3261   1.3280   1.7044   2.3081   3.3450
     3.3454   3.4134   3.4139   3.7377   3.7433   3.8535   3.8638   3.9731
     3.9770

     the Fermi energy is     2.6040 ev

!    total energy              =   -2942.90436228 Ry
     estimated scf accuracy    <       0.00000007 Ry
     smearing contrib. (-TS)   =      -0.00456129 Ry
     internal energy E=F+TS    =   -2942.89980098 Ry

     The total energy is F=E-TS. E is the sum of the following terms:
     one-electron contribution =  -23042.95234481 Ry
     hartree contribution      =   11612.09435404 Ry
     xc contribution           =    -487.43897211 Ry
     ewald contribution        =    8975.39629059 Ry
     electric field correction =       0.00087130 Ry

     convergence has been achieved in  83 iterations

     Forces acting on atoms (cartesian axes, Ry/au):

     atom    1 type  1   force =     0.00000908   -0.00050477    0.12495342
     atom    2 type  1   force =    -0.00013362   -0.00063367   -0.16062750
     atom    3 type  2   force =     0.00017153   -0.00022270   -0.06933951
     atom    4 type  2   force =    -0.00004101   -0.00027912    0.02765717
     atom    5 type  2   force =    -0.01718723    0.00222256   -0.00886638
     atom    6 type  2   force =     0.01887056    0.00287358   -0.00918847
     atom    7 type  1   force =     0.00088164   -0.00376363    0.02231243
     atom    8 type  1   force =    -0.00036417   -0.00328315    0.11351662
     atom    9 type  2   force =     0.00050460   -0.00039632    0.00007299
     atom   10 type  2   force =    -0.00234714    0.00260162   -0.07314907
     atom   11 type  2   force =     0.00012949   -0.00095393   -0.00010155
     atom   12 type  2   force =    -0.00000032   -0.00058595   -0.00002314
     atom   13 type  1   force =     0.00019795   -0.00018766   -0.00034414
     atom   14 type  1   force =    -0.00007820   -0.00053779   -0.00005323
     atom   15 type  2   force =    -0.00035872   -0.00099486    0.00088130
     atom   16 type  2   force =    -0.00013028   -0.00016824    0.00046525
     atom   17 type  2   force =     0.00092108   -0.00042219   -0.00033637
     atom   18 type  2   force =    -0.00062444   -0.00046422   -0.00029765
     atom   19 type  1   force =    -0.00025529    0.00008633   -0.00054382
     atom   20 type  1   force =     0.00054755   -0.00092598   -0.00110263
     atom   21 type  2   force =     0.00005390   -0.00006139    0.09969001
     atom   22 type  2   force =     0.00016014   -0.00037890   -0.00087907
     atom   23 type  2   force =    -0.07921249   -0.00005976   -0.03251146
     atom   24 type  2   force =     0.07906949    0.00037164   -0.03253686
     atom   25 type  1   force =     0.00002939   -0.00049855    0.12429945
     atom   26 type  1   force =    -0.00012734   -0.00048271   -0.16064211
     atom   27 type  2   force =     0.00028251   -0.00044424   -0.06834310
     atom   28 type  2   force =     0.00000489   -0.00013548    0.02751471
     atom   29 type  2   force =    -0.01764661    0.00173509   -0.00893938
     atom   30 type  2   force =     0.01922121    0.00199796   -0.00927785
     atom   31 type  1   force =     0.00080481   -0.00116931    0.02193297
     atom   32 type  1   force =    -0.00029159    0.00071316    0.11415352
     atom   33 type  2   force =    -0.00007725    0.00004143   -0.00054764
     atom   34 type  2   force =    -0.00201796    0.00206238   -0.07181321
     atom   35 type  2   force =     0.00001730   -0.00020674    0.00013346
     atom   36 type  2   force =    -0.00052038    0.00020883    0.00022512
     atom   37 type  1   force =     0.00087375    0.00095402   -0.00027590
     atom   38 type  1   force =    -0.00020700    0.00026931   -0.00018454
     atom   39 type  2   force =    -0.00002119   -0.00029628    0.00002060
     atom   40 type  2   force =    -0.00000957   -0.00019539   -0.00024019
     atom   41 type  2   force =     0.00025118   -0.00043095   -0.00032641
     atom   42 type  2   force =    -0.00002281   -0.00038894   -0.00038453
     atom   43 type  1   force =    -0.00036851    0.00005753   -0.00044607
     atom   44 type  1   force =     0.00006427    0.00094583    0.00023822
     atom   45 type  2   force =     0.00004088   -0.00007296    0.09971121
     atom   46 type  2   force =    -0.07921408   -0.00002751   -0.03251340
     atom   47 type  2   force =     0.07906954    0.00041677   -0.03251671
     atom   48 type  3   force =    -0.00034757    0.00111359   -0.00069060
     atom   49 type  3   force =    -0.00075523   -0.00085486    0.00013213
     atom   50 type  4   force =     0.00313364   -0.00261226    0.00181335
     atom   51 type  5   force =     0.00049004   -0.00089690   -0.00031178
     atom   52 type  5   force =    -0.00061649    0.00046683   -0.00025904
     atom   53 type  5   force =    -0.00371700    0.00368955   -0.00075311
     atom   54 type  5   force =     0.00050461   -0.00008020   -0.00011445
     atom   55 type  5   force =     0.00031614    0.00095927   -0.00053494
     atom   56 type  5   force =     0.00007232   -0.00016979   -0.00070810

     Total force =     0.426663     Total SCF correction =     0.000590
  @ DRIVER MODE: Message from server: STATUS
  @ DRIVER MODE: Message from server: GETFORCE
  @ DRIVER MODE: Returning v,forces,stress,ensemble

     Writing output data file ./calc.save/
  @ DRIVER MODE: Message from server: EXIT
  @ DRIVE MODE: Exiting

     General routines

     Parallel routines

   This run was terminated on:   9: 1: 1   9Sep2021

   JOB DONE.