     Program PWSCF v.6.7GPU starts on 23Sep2021 at 11:36:52

     R & G space division:  proc/nbgrp/npool/nimage =       8
     Reading input from /storage/home/hcoda1/3/ntian30/research/carbon/CxH_vib/H2O_calc/ads_slab/CH2NNHHHO_a/out_0002/pw.inp
Warning: card &CELL ignored
Warning: card   CELL_DYNAMICS='IPI', ignored
Warning: card / ignored

     Current dimensions of program PWSCF are:
     Max number of different atomic species (ntypx) = 10
     Max number of k-points (npk) =  40000
     Max angular momentum in pseudopotentials (lmaxx) =  3
     Presently no symmetry can be used with electric field

     Message from routine cell_base_init:
     DEPRECATED: use true lattice parameter, not A to a.u. conversion factor

     IMPORTANT: XC functional enforced from input :
     Exchange-correlation= BEEF-VDW
                           (   1   4  43  14   2   0   0)
     Any further DFT definition will be discarded
     Please, verify this is what you really want

  @ DRIVER MODE: Connecting to
 qe_1139763_2947314.sched-torque.pace.gatech.eduyvfpbej5_scratch
  using UNIX socket
  @ DRIVER MODE: Message from server: STATUS
  @ DRIVER MODE: Message from server: INIT
  @ DRIVER MODE: Receiving replica           0          -1
  @ DRIVER MODE: Receiving encoded integer          25
  @ DRIVER MODE:  SCF:  T  FORCE:  T  STRESS:  F  VC:  F  ENSEMBLE:  F
  @ DRIVER MODE:  SCF:  T  FORCE:  T  STRESS:  F  VC:  F  ENSEMBLE:  F

     Using Slab Decomposition

     bravais-lattice index     =            0
     lattice parameter (alat)  =       1.8897  a.u.
     unit-cell volume          =    6658.9804 (a.u.)^3
     number of atoms/cell      =           56
     number of atomic types    =            5
     number of electrons       =       403.00
     number of Kohn-Sham states=          211
     kinetic-energy cutoff     =      29.3995  Ry
     charge density cutoff     =     293.9946  Ry
     scf convergence threshold =      7.3E-08
     mixing beta               =       0.0500
     number of iterations used =            8  plain     mixing
     Exchange-correlation= BEEF-VDW
                           (   1   4  43  14   2   0   0)

     celldm(1)=   1.889726  celldm(2)=   0.000000  celldm(3)=   0.000000
     celldm(4)=   0.000000  celldm(5)=   0.000000  celldm(6)=   0.000000

     crystal axes: (cart. coord. in units of alat)
               a(1) = (   6.579727   0.000000   0.000000 )
               a(2) = (  -0.000775   5.961596   0.000000 )
               a(3) = (   0.000000   0.000000  25.155947 )

     reciprocal axes: (cart. coord. in units 2 pi/alat)
               b(1) = (  0.151982  0.000020  0.000000 )
               b(2) = (  0.000000  0.167740  0.000000 )
               b(3) = (  0.000000  0.000000  0.039752 )

     PseudoPot. # 1 for Ti read from file:
     /storage/coda1/p-amedford6/0/shared/rich_project_chbe-medford/medford-share/data/pseudos_module/espresso/nninc/pbe/van/Ti.UPF
     MD5 check sum: 8e4df49b7f0d34bbd5052bf3f5ea0213
     Pseudo is Ultrasoft, Zval = 12.0
     Generated by new atomic code, or converted to UPF format
     Using radial grid of  851 points,  6 beta functions with:
                l(1) =   0
                l(2) =   0
                l(3) =   1
                l(4) =   1
                l(5) =   2
                l(6) =   2
     Q(r) pseudized with  8 coefficients,  rinner =    1.000   1.000   1.000
                                                       1.000   1.000

     PseudoPot. # 2 for O  read from file:
     /storage/coda1/p-amedford6/0/shared/rich_project_chbe-medford/medford-share/data/pseudos_module/espresso/nninc/pbe/van/O.UPF
     MD5 check sum: 78c19812648e8988a0fe644b0f25305e
     Pseudo is Ultrasoft, Zval =  6.0
     Generated by new atomic code, or converted to UPF format
     Using radial grid of  737 points,  4 beta functions with:
                l(1) =   0
                l(2) =   0
                l(3) =   1
                l(4) =   1
     Q(r) pseudized with  8 coefficients,  rinner =    0.800   0.800   0.800

     PseudoPot. # 3 for N  read from file:
     /storage/coda1/p-amedford6/0/shared/rich_project_chbe-medford/medford-share/data/pseudos_module/espresso/nninc/pbe/van/N.UPF
     MD5 check sum: 90d10febe142ad51ac9d5be1deb811c4
     Pseudo is Ultrasoft, Zval =  5.0
     Generated by new atomic code, or converted to UPF format
     Using radial grid of  729 points,  4 beta functions with:
                l(1) =   0
                l(2) =   0
                l(3) =   1
                l(4) =   1
     Q(r) pseudized with  8 coefficients,  rinner =    0.800   0.800   0.800

     PseudoPot. # 4 for C  read from file:
     /storage/coda1/p-amedford6/0/shared/rich_project_chbe-medford/medford-share/data/pseudos_module/espresso/nninc/pbe/van/C.UPF
     MD5 check sum: 1a69bf6b8db32088f5b2163dbdb77a27
     Pseudo is Ultrasoft, Zval =  4.0
     Generated by new atomic code, or converted to UPF format
     Using radial grid of  721 points,  4 beta functions with:
                l(1) =   0
                l(2) =   0
                l(3) =   1
                l(4) =   1
     Q(r) pseudized with  8 coefficients,  rinner =    0.800   0.800   0.800

     PseudoPot. # 5 for H  read from file:
     /storage/coda1/p-amedford6/0/shared/rich_project_chbe-medford/medford-share/data/pseudos_module/espresso/nninc/pbe/van/H.UPF
     MD5 check sum: b5ee9d7bfd3a09ee7748110bda690ff7
     Pseudo is Ultrasoft, Zval =  1.0
     Generated by new atomic code, or converted to UPF format
     Using radial grid of  615 points,  1 beta functions with:
                l(1) =   0
     Q(r) pseudized with  8 coefficients,  rinner =    0.800

     atomic species   valence    mass     pseudopotential
        Ti1           12.00    47.86700     Ti( 1.00)
        O1             6.00    15.99900     O ( 1.00)
        N1             5.00    14.00700     N ( 1.00)
        C1             4.00    12.01100     C ( 1.00)
        H1             1.00     1.00800     H ( 1.00)

     No symmetry found

   Cartesian axes

     site n.     atom                  positions (alat units)
         1           Ti1 tau(   1) = (   0.0004258   2.9801865   6.0000000  )
         2           Ti1 tau(   2) = (   3.2906075   1.4906267   6.0002472  )
         3           O1  tau(   3) = (   0.0006271   0.0005054   7.9858123  )
         4           O1  tau(   4) = (   3.2906025   0.0005020   7.3038282  )
         5           O1  tau(   5) = (   4.5942328   1.4918067   9.2879030  )
         6           O1  tau(   6) = (   1.9868534   1.4903216   9.2879459  )
         7           Ti1 tau(   7) = (   3.2907910   2.8959150   9.1758416  )
         8           Ti1 tau(   8) = (   0.0015273   1.4827037   9.2680791  )
         9           O1  tau(   9) = (   3.2834828   5.9254549  11.3560997  )
        10           O1  tau(  10) = (   0.0116148   5.9584955  10.6183126  )
        11           O1  tau(  11) = (   1.2632982   1.4794151  12.6467768  )
        12           O1  tau(  12) = (   5.2979234   1.4912170  12.6376735  )
        13           Ti1 tau(  13) = (   6.5593102   2.9584919  12.5255918  )
        14           Ti1 tau(  14) = (   3.2941082   1.2876829  12.7086691  )
        15           O1  tau(  15) = (   6.5459232   0.0848410  14.6672212  )
        16           O1  tau(  16) = (   3.2899079   0.0686032  13.9983899  )
        17           O1  tau(  17) = (   4.5347701   1.5447734  16.1667714  )
        18           O1  tau(  18) = (   1.9898569   1.5359154  16.1924900  )
        19           Ti1 tau(  19) = (   3.2532585   2.9792413  15.6887139  )
        20           Ti1 tau(  20) = (   6.5162390   1.4193964  16.0443711  )
        21           O1  tau(  21) = (   3.2904802   0.0005063   4.7018136  )
        22           O1  tau(  22) = (   6.5314393   5.8470953  17.1670503  )
        23           O1  tau(  23) = (   1.3043587   1.4918075   6.0039043  )
        24           O1  tau(  24) = (   5.2767064   1.4903225   6.0039473  )
        25           Ti1 tau(  25) = (   0.0000382   5.9609847   6.0000000  )
        26           Ti1 tau(  26) = (   3.2902200   4.4714249   6.0002472  )
        27           O1  tau(  27) = (   0.0002396   2.9813036   7.9858123  )
        28           O1  tau(  28) = (   3.2902150   2.9813002   7.3038282  )
        29           O1  tau(  29) = (   4.5938453   4.4726049   9.2879030  )
        30           O1  tau(  30) = (   1.9864658   4.4711199   9.2879459  )
        31           Ti1 tau(  31) = (   3.2891106   5.8743827   9.1763621  )
        32           Ti1 tau(  32) = (   0.0006254   4.4649316   9.2693709  )
        33           O1  tau(  33) = (   3.2801501   3.0037454  11.3162440  )
        34           O1  tau(  34) = (   0.0092240   2.9805883  10.6323155  )
        35           O1  tau(  35) = (   1.2628463   4.4620516  12.6871769  )
        36           O1  tau(  36) = (   5.2965349   4.4479299  12.6783795  )
        37           Ti1 tau(  37) = (   0.0245004   5.9521619  12.5031165  )
        38           Ti1 tau(  38) = (   3.2934334   4.3725749  12.4478892  )
        39           O1  tau(  39) = (   0.0012172   2.9324930  14.9038371  )
        40           O1  tau(  40) = (   3.2612729   2.9642313  13.9201381  )
        41           O1  tau(  41) = (   4.5459169   4.3864222  16.0774642  )
        42           O1  tau(  42) = (   2.0085495   4.4473877  16.1057765  )
        43           Ti1 tau(  43) = (   3.2275989   5.9528725  16.3079466  )
        44           Ti1 tau(  44) = (   6.5418721   4.6299905  15.7990834  )
        45           O1  tau(  45) = (   3.2900926   2.9813045   4.7018136  )
        46           O1  tau(  46) = (   1.3039711   4.4726057   6.0039043  )
        47           O1  tau(  47) = (   5.2763189   4.4711207   6.0039473  )
        48           N1  tau(  48) = (   6.5253795   2.7269917  18.1720481  )
        49           C1  tau(  49) = (   0.9714328   2.6352729  18.9176740  )
        50           H1  tau(  50) = (   0.9613011   2.9697384  19.9541300  )
        51           H1  tau(  51) = (   1.8619620   2.1844435  18.5121220  )
        52           N1  tau(  52) = (   5.3313596   3.1722530  18.7397816  )
        53           H1  tau(  53) = (   5.4931776   3.7097374  19.5894643  )
        54           H1  tau(  54) = (   4.8256156   3.7472006  18.0707398  )
        55           O1  tau(  55) = (   3.3867674   5.8992794  18.1610867  )
        56           H1  tau(  56) = (   4.0349165   0.5560778  18.5374839  )

     number of k points=    10  Fermi-Dirac smearing, width (Ry)=  0.0073
                       cart. coord. in units 2pi/alat
        k(    1) = (   0.0000000   0.0000000   0.0000000), wk =   0.1250000
        k(    2) = (   0.0000000   0.0419351   0.0000000), wk =   0.2500000
        k(    3) = (   0.0000000  -0.0838702   0.0000000), wk =   0.1250000
        k(    4) = (   0.0379955   0.0000049   0.0000000), wk =   0.2500000
        k(    5) = (   0.0379955   0.0419400   0.0000000), wk =   0.2500000
        k(    6) = (   0.0379955  -0.0838652   0.0000000), wk =   0.2500000
        k(    7) = (   0.0379955  -0.0419301   0.0000000), wk =   0.2500000
        k(    8) = (  -0.0759910  -0.0000099   0.0000000), wk =   0.1250000
        k(    9) = (  -0.0759910   0.0419252   0.0000000), wk =   0.2500000
        k(   10) = (  -0.0759910  -0.0838800   0.0000000), wk =   0.1250000

     Initial potential from superposition of free atoms

     starting charge  386.99914, renormalised to  403.00000

     negative rho (up, down):  1.547E-02 0.000E+00

     %%%%%%%%%%%%%%%%%%%%%%%%%%%%%%%%%%%%%%%%%%%%%%%%%%%%%%%%%%%%%%%%%%%%%%%%
     %                                                                      %
     % You are using vdW-DF, which was implemented by the Thonhauser group. %
     % Please cite the following two papers that made this development      %
     % possible and the two reviews that describe the various versions:     %
     %                                                                      %
     %   T. Thonhauser et al., PRL 115, 136402 (2015).                      %
     %   T. Thonhauser et al., PRB 76, 125112 (2007).                       %
     %   K. Berland et al., Rep. Prog. Phys. 78, 066501 (2015).             %
     %   D.C. Langreth et al., J. Phys.: Condens. Matter 21, 084203 (2009). %
     %                                                                      %
     %                                                                      %
     % If you are calculating the stress with vdW-DF, please also cite:     %
     %                                                                      %
     %   R. Sabatini et al., J. Phys.: Condens. Matter 24, 424209 (2012).   %
     %                                                                      %
     %%%%%%%%%%%%%%%%%%%%%%%%%%%%%%%%%%%%%%%%%%%%%%%%%%%%%%%%%%%%%%%%%%%%%%%%

     Adding external electric field

     Computed dipole along edir(3) :
        Dipole              -13.0228 Ry au,        -33.1008 Debye
        Dipole field         -0.0246 Ry au,

        Potential amp.        2.2781 Ry
        Total length         46.3494 bohr

     Starting wfcs are  305 atomic wfcs
  @ DRIVER MODE: Message from server: STATUS
  @ DRIVER MODE: Message from server: POSDATA
  @ DRIVER MODE: Reading and sharing cell
  @ DRIVER MODE: Reading and sharing positions
  @ DRIVER MODE: Received positions

     Self-consistent Calculation

     iteration #  1     ecut=    29.40 Ry     beta= 0.05
     Davidson diagonalization with overlap
     c_bands:  4 eigenvalues not converged
     c_bands:  5 eigenvalues not converged
     c_bands:  3 eigenvalues not converged
     c_bands:  1 eigenvalues not converged
     c_bands:  5 eigenvalues not converged
     c_bands:  2 eigenvalues not converged
     c_bands:  3 eigenvalues not converged
     ethr =  1.00E-05,  avg # of iterations = 28.7

[...]

     total energy              =   -2311.53698290 Ry
     estimated scf accuracy    <    7504.63638670 Ry

     iteration #  2     ecut=    29.40 Ry     beta= 0.05
     Davidson diagonalization with overlap
     ethr =  1.00E-02,  avg # of iterations = 25.3

[...]

     iteration # 54     ecut=    29.40 Ry     beta= 0.05
     Davidson diagonalization with overlap
     c_bands:  1 eigenvalues not converged
     ethr =  3.01E-10,  avg # of iterations = 14.0

[...]

     total energy              =   -2974.00132836 Ry
     estimated scf accuracy    <       0.00000012 Ry

     iteration # 59     ecut=    29.40 Ry     beta= 0.05
     Davidson diagonalization with overlap
     ethr =  2.91E-11,  avg # of iterations =  9.4

     negative rho (up, down):  1.591E-02 0.000E+00

     Adding external electric field

     Computed dipole along edir(3) :
        Dipole                1.0886 Ry au,          2.7670 Debye
        Dipole field          0.0021 Ry au,

        Potential amp.       -0.1904 Ry
        Total length         46.3494 bohr

     End of self-consistent calculation

          k = 0.0000 0.0000 0.0000 ( 18029 PWs)   bands (ev):

   -55.5955 -55.5303 -55.4962 -55.3794 -55.3736 -55.3568 -55.3431 -55.3303
   -55.3230 -55.2950 -55.2474 -55.1474 -55.1323 -55.0552 -54.4985 -54.4645
   -32.0146 -31.9327 -31.8977 -31.8647 -31.8597 -31.8248 -31.8212 -31.8069
   -31.7799 -31.7760 -31.7571 -31.6828 -31.6563 -31.6486 -31.6366 -31.6330
   -31.6213 -31.6116 -31.5878 -31.5878 -31.5811 -31.5534 -31.5429 -31.5376
   -31.5199 -31.5155 -31.5109 -31.4971 -31.4872 -31.4845 -31.4764 -31.4672
   -31.4672 -31.4437 -31.4214 -31.4027 -31.3446 -31.3363 -31.3035 -31.2939
   -31.2738 -31.2615 -30.9041 -30.8187 -30.7962 -30.7218 -30.6355 -30.5235
   -18.3361 -16.4379 -16.1670 -15.9998 -15.7873 -15.7073 -15.6686 -15.4755
   -15.3832 -15.3218 -15.0930 -15.0701 -15.0644 -15.0392 -15.0289 -15.0134
   -14.9964 -14.9568 -14.9481 -14.9397 -14.9160 -14.9014 -14.8692 -14.8174
   -14.7753 -14.7585 -14.6636 -14.5950 -14.5485 -14.3139 -14.2161 -13.5501
   -12.9968 -12.8805  -8.5291  -6.2493  -5.8519  -4.0454  -3.8533  -3.5288
    -3.4334  -3.4121  -3.3521  -3.2881  -3.0467  -2.9803  -2.8863  -2.8347
    -2.7611  -2.6462  -2.5979  -2.5267  -2.4555  -2.4462  -2.3989  -2.3698
    -2.3082  -2.2950  -2.2589  -2.2527  -2.1817  -2.1618  -2.0612  -2.0489
    -2.0343  -1.8997  -1.8862  -1.8438  -1.8360  -1.8358  -1.7971  -1.7783
    -1.7626  -1.7460  -1.6409  -1.6023  -1.5817  -1.5102  -1.4776  -1.1606
    -1.1291  -1.0815  -1.0669  -1.0158  -0.9638  -0.9410  -0.9181  -0.8536
    -0.8163  -0.7654  -0.7334  -0.6999  -0.6185  -0.5826  -0.5408  -0.4566
    -0.3834  -0.3087  -0.3035  -0.2589  -0.2308  -0.2048  -0.1060  -0.0802
    -0.0678   0.0313   0.0516   0.1272   0.1674   0.2113   0.2491   0.2973
     0.3617   0.3794   0.4051   0.4412   0.4487   0.5040   0.5239   0.5830
     0.6357   0.6509   0.7492   0.8068   0.8213   0.8381   0.9311   1.0248
     1.1458   1.1536   1.2547   1.4803   1.5283   1.5723   1.7216   2.0944
     2.1395   3.5563   3.7051   3.7217   3.7658   3.8129   3.8970   4.0432
     4.1059   4.2434   4.2484

[...]

          k = 0.0380-0.0419 0.0000 ( 17876 PWs)   bands (ev):

[...]

          k =-0.0760-0.0000 0.0000 ( 17886 PWs)   bands (ev):

[...]

          k =-0.0760-0.0839 0.0000 ( 17948 PWs)   bands (ev):

   -55.5947 -55.5134 -55.5129 -55.3723 -55.3660 -55.3562 -55.3400 -55.3395
   -55.3310 -55.2880 -55.2545 -55.1444 -55.1335 -55.0581 -54.4818 -54.4810
   -31.8783 -31.8301 -31.8298 -31.8282 -31.8159 -31.8069 -31.8064 -31.7997
   -31.7321 -31.6851 -31.6762 -31.6658 -31.6608 -31.6334 -31.6332 -31.6314
   -31.6293 -31.6151 -31.6124 -31.5977 -31.5857 -31.5761 -31.5664 -31.5557
   -31.5469 -31.5429 -31.5340 -31.5334 -31.5179 -31.5126 -31.5101 -31.5061
   -31.5057 -31.4776 -31.4736 -31.4153 -31.3964 -31.3734 -31.3471 -31.3400
   -31.3100 -31.2654 -30.8092 -30.8087 -30.7175 -30.7164 -30.6790 -30.6783
   -18.3330 -16.4223 -15.7483 -15.6226 -15.4973 -15.4929 -15.3723 -15.2948
   -15.2775 -15.2486 -15.2367 -15.2027 -15.1850 -15.1491 -15.1174 -15.0866
   -15.0465 -15.0256 -15.0122 -14.9730 -14.9623 -14.9452 -14.9355 -14.9125
   -14.8712 -14.8357 -14.8248 -14.6817 -14.6266 -14.5802 -14.4403 -13.5591
   -12.9827 -12.9822  -8.5054  -6.2159  -5.8705  -3.9946  -3.9336  -2.9891
    -2.9196  -2.8179  -2.7134  -2.6184  -2.5642  -2.5290  -2.4914  -2.4469
    -2.4246  -2.3745  -2.3334  -2.3133  -2.3049  -2.2720  -2.2633  -2.2479
    -2.2282  -2.2131  -2.1981  -2.1879  -2.1596  -2.1425  -2.1411  -2.1077
    -2.0965  -2.0691  -2.0612  -2.0084  -1.9110  -1.8820  -1.7894  -1.6887
    -1.6810  -1.6679  -1.6439  -1.6062  -1.5951  -1.5695  -1.5331  -1.4727
    -1.4642  -1.3009  -1.2475  -1.2171  -1.1433  -1.0876  -1.0570  -1.0295
    -0.9860  -0.9613  -0.8879  -0.8581  -0.7617  -0.7077  -0.6809  -0.6202
    -0.5455  -0.4810  -0.4721  -0.4661  -0.4391  -0.4166  -0.3906  -0.3600
    -0.3357  -0.2655  -0.2275  -0.2088  -0.1988  -0.1441  -0.0979   0.0045
     0.1314   0.2401   0.2558   0.2874   0.3258   0.4767   0.5201   0.5822
     0.6296   0.6607   0.6910   0.7845   0.7958   0.8786   0.8961   0.9297
     0.9851   1.0113   1.0438   1.0733   1.0821   1.8917   1.8991   1.9597
     1.9600   3.7743   4.0527   4.0775   4.0855   4.1044   4.1236   4.1390
     4.1585   4.2288   4.2338

     the Fermi energy is     3.5918 ev

!    total energy              =   -2974.00138428 Ry
     estimated scf accuracy    <       0.00000007 Ry
     smearing contrib. (-TS)   =      -0.01962472 Ry
     internal energy E=F+TS    =   -2973.98175956 Ry

     The total energy is F=E-TS. E is the sum of the following terms:
     one-electron contribution =  -23471.99074012 Ry
     hartree contribution      =   11831.41809045 Ry
     xc contribution           =    -494.06785598 Ry
     ewald contribution        =    9160.65650965 Ry
     electric field correction =       0.00223644 Ry

     convergence has been achieved in  59 iterations

     Forces acting on atoms (cartesian axes, Ry/au):

     atom    1 type  1   force =     0.00012134   -0.00018558    0.09458717
     atom    2 type  1   force =    -0.00002701    0.00034336   -0.17509292
     atom    3 type  2   force =    -0.00002180   -0.00002673   -0.02133924
     atom    4 type  2   force =     0.00001784   -0.00189644    0.05325499
     atom    5 type  2   force =    -0.00694439   -0.00239678    0.00356355
     atom    6 type  2   force =     0.00806003   -0.00193071    0.00204240
     atom    7 type  1   force =    -0.00070057   -0.00276363    0.01002847
     atom    8 type  1   force =     0.00060467    0.00276201    0.00499662
     atom    9 type  2   force =     0.00003517   -0.00046764    0.00022252
     atom   10 type  2   force =    -0.00253669   -0.00140781   -0.01078896
     atom   11 type  2   force =     0.00128382   -0.00017699    0.00055779
     atom   12 type  2   force =    -0.00080971   -0.00022638    0.00066376
     atom   13 type  1   force =    -0.00093821   -0.00096379    0.00042744
     atom   14 type  1   force =     0.00031779    0.00035539    0.00008024
     atom   15 type  2   force =     0.00015232    0.00026314   -0.00037059
     atom   16 type  2   force =    -0.00046170    0.00020455    0.00009310
     atom   17 type  2   force =     0.00000056    0.00032432    0.00020446
     atom   18 type  2   force =     0.00104266   -0.00019724   -0.00032855
     atom   19 type  1   force =     0.00121673    0.00064132    0.00006012
     atom   20 type  1   force =    -0.00058404   -0.00002402   -0.00015541
     atom   21 type  2   force =     0.00006562    0.00009760    0.10308154
     atom   22 type  2   force =     0.00064425    0.00084222    0.00053258
     atom   23 type  2   force =    -0.07213616   -0.00013416   -0.02734301
     atom   24 type  2   force =     0.07202799    0.00029813   -0.02734258
     atom   25 type  1   force =     0.00002677   -0.00014132    0.09407644
     atom   26 type  1   force =    -0.00016443   -0.00109543   -0.17519157
     atom   27 type  2   force =     0.00012474   -0.00024769   -0.02013395
     atom   28 type  2   force =    -0.00000071   -0.00027063    0.04932236
     atom   29 type  2   force =    -0.00563986    0.00192436    0.00158476
     atom   30 type  2   force =     0.00667065    0.00249507   -0.00001498
     atom   31 type  1   force =    -0.00072628    0.00678380   -0.00108681
     atom   32 type  1   force =     0.00050409   -0.00384957    0.00429957
     atom   33 type  2   force =     0.00016433   -0.00011000   -0.00081249
     atom   34 type  2   force =    -0.00187219    0.00170041   -0.01047576
     atom   35 type  2   force =     0.00117489    0.00029247   -0.00016730
     atom   36 type  2   force =    -0.00056241    0.00043441   -0.00025601
     atom   37 type  1   force =    -0.00065094    0.00045515   -0.00028459
     atom   38 type  1   force =     0.00056095    0.00012517    0.00012490
     atom   39 type  2   force =     0.00031876   -0.00038065    0.00044114
     atom   40 type  2   force =     0.00020257    0.00013895   -0.00036833
     atom   41 type  2   force =     0.00002373   -0.00008268   -0.00117759
     atom   42 type  2   force =     0.00033310   -0.00036648    0.00041188
     atom   43 type  1   force =     0.00020138   -0.00074454    0.00045560
     atom   44 type  1   force =    -0.00054532   -0.00008833    0.00008440
     atom   45 type  2   force =     0.00007649   -0.00006755    0.10289399
     atom   46 type  2   force =    -0.07217728   -0.00003096   -0.02734214
     atom   47 type  2   force =     0.07209749    0.00040397   -0.02737898
     atom   48 type  3   force =    -0.02334004    0.00441518   -0.00765993
     atom   49 type  4   force =     0.01458228   -0.00167008    0.00893111
     atom   50 type  5   force =    -0.00001084   -0.00051709    0.00019438
     atom   51 type  5   force =     0.00084666    0.00015722    0.00074871
     atom   52 type  3   force =     0.00556741   -0.00393553   -0.00147916
     atom   53 type  5   force =     0.00037020    0.00013334   -0.00020107
     atom   54 type  5   force =     0.00130007    0.00037969   -0.00100239
     atom   55 type  2   force =    -0.00029477    0.00086130    0.00000362
     atom   56 type  5   force =     0.00040800   -0.00043609   -0.00017533

     Total force =     0.363276     Total SCF correction =     0.000637
  @ DRIVER MODE: Message from server: STATUS
  @ DRIVER MODE: Message from server: GETFORCE
  @ DRIVER MODE: Returning v,forces,stress,ensemble

     Writing output data file ./calc.save/
  @ DRIVER MODE: Message from server: EXIT
  @ DRIVE MODE: Exiting

     General routines

     Parallel routines

   This run was terminated on:  11:58:52  23Sep2021

   JOB DONE.