     Program PWSCF v.6.7GPU starts on 15Sep2021 at 19:28:35

     R & G space division:  proc/nbgrp/npool/nimage =      10
     Reading input from /storage/home/hcoda1/3/ntian30/research/carbon/CxH_vib/H2O_calc/ads_slab/CH2N2HH2O_a/out_0012/pw.inp
Warning: card &CELL ignored
Warning: card   CELL_DYNAMICS='IPI', ignored
Warning: card / ignored

     Current dimensions of program PWSCF are:
     Max number of different atomic species (ntypx) = 10
     Max number of k-points (npk) =  40000
     Max angular momentum in pseudopotentials (lmaxx) =  3
     Presently no symmetry can be used with electric field

     Message from routine cell_base_init:
     DEPRECATED: use true lattice parameter, not A to a.u. conversion factor

     IMPORTANT: XC functional enforced from input :
     Exchange-correlation= BEEF-VDW
                           (   1   4  43  14   2   0   0)
     Any further DFT definition will be discarded
     Please, verify this is what you really want

  @ DRIVER MODE: Connecting to
 qe_1139763_2852606.sched-torque.pace.gatech.edugemair9b_scratch
  using UNIX socket
  @ DRIVER MODE: Message from server: STATUS
  @ DRIVER MODE: Message from server: INIT
  @ DRIVER MODE: Receiving replica           0          -1
  @ DRIVER MODE: Receiving encoded integer          25
  @ DRIVER MODE:  SCF:  T  FORCE:  T  STRESS:  F  VC:  F  ENSEMBLE:  F
  @ DRIVER MODE:  SCF:  T  FORCE:  T  STRESS:  F  VC:  F  ENSEMBLE:  F

     Using Slab Decomposition

     bravais-lattice index     =            0
     lattice parameter (alat)  =       1.8897  a.u.
     unit-cell volume          =    6658.9804 (a.u.)^3
     number of atoms/cell      =           56
     number of atomic types    =            5
     number of electrons       =       403.00
     number of Kohn-Sham states=          211
     kinetic-energy cutoff     =      29.3995  Ry
     charge density cutoff     =     293.9946  Ry
     scf convergence threshold =      7.3E-08
     mixing beta               =       0.0500
     number of iterations used =            8  plain     mixing
     Exchange-correlation= BEEF-VDW
                           (   1   4  43  14   2   0   0)

     celldm(1)=   1.889726  celldm(2)=   0.000000  celldm(3)=   0.000000
     celldm(4)=   0.000000  celldm(5)=   0.000000  celldm(6)=   0.000000

     crystal axes: (cart. coord. in units of alat)
               a(1) = (   6.579727   0.000000   0.000000 )
               a(2) = (  -0.000775   5.961596   0.000000 )
               a(3) = (   0.000000   0.000000  25.155947 )

     reciprocal axes: (cart. coord. in units 2 pi/alat)
               b(1) = (  0.151982  0.000020  0.000000 )
               b(2) = (  0.000000  0.167740  0.000000 )
               b(3) = (  0.000000  0.000000  0.039752 )

     PseudoPot. # 1 for Ti read from file:
     /storage/coda1/p-amedford6/0/shared/rich_project_chbe-medford/medford-share/data/pseudos_module/espresso/nninc/pbe/van/Ti.UPF
     MD5 check sum: 8e4df49b7f0d34bbd5052bf3f5ea0213
     Pseudo is Ultrasoft, Zval = 12.0
     Generated by new atomic code, or converted to UPF format
     Using radial grid of  851 points,  6 beta functions with:
                l(1) =   0
                l(2) =   0
                l(3) =   1
                l(4) =   1
                l(5) =   2
                l(6) =   2
     Q(r) pseudized with  8 coefficients,  rinner =    1.000   1.000   1.000
                                                       1.000   1.000

     PseudoPot. # 2 for O  read from file:
     /storage/coda1/p-amedford6/0/shared/rich_project_chbe-medford/medford-share/data/pseudos_module/espresso/nninc/pbe/van/O.UPF
     MD5 check sum: 78c19812648e8988a0fe644b0f25305e
     Pseudo is Ultrasoft, Zval =  6.0
     Generated by new atomic code, or converted to UPF format
     Using radial grid of  737 points,  4 beta functions with:
                l(1) =   0
                l(2) =   0
                l(3) =   1
                l(4) =   1
     Q(r) pseudized with  8 coefficients,  rinner =    0.800   0.800   0.800

     PseudoPot. # 3 for N  read from file:
     /storage/coda1/p-amedford6/0/shared/rich_project_chbe-medford/medford-share/data/pseudos_module/espresso/nninc/pbe/van/N.UPF
     MD5 check sum: 90d10febe142ad51ac9d5be1deb811c4
     Pseudo is Ultrasoft, Zval =  5.0
     Generated by new atomic code, or converted to UPF format
     Using radial grid of  729 points,  4 beta functions with:
                l(1) =   0
                l(2) =   0
                l(3) =   1
                l(4) =   1
     Q(r) pseudized with  8 coefficients,  rinner =    0.800   0.800   0.800

     PseudoPot. # 4 for C  read from file:
     /storage/coda1/p-amedford6/0/shared/rich_project_chbe-medford/medford-share/data/pseudos_module/espresso/nninc/pbe/van/C.UPF
     MD5 check sum: 1a69bf6b8db32088f5b2163dbdb77a27
     Pseudo is Ultrasoft, Zval =  4.0
     Generated by new atomic code, or converted to UPF format
     Using radial grid of  721 points,  4 beta functions with:
                l(1) =   0
                l(2) =   0
                l(3) =   1
                l(4) =   1
     Q(r) pseudized with  8 coefficients,  rinner =    0.800   0.800   0.800

     PseudoPot. # 5 for H  read from file:
     /storage/coda1/p-amedford6/0/shared/rich_project_chbe-medford/medford-share/data/pseudos_module/espresso/nninc/pbe/van/H.UPF
     MD5 check sum: b5ee9d7bfd3a09ee7748110bda690ff7
     Pseudo is Ultrasoft, Zval =  1.0
     Generated by new atomic code, or converted to UPF format
     Using radial grid of  615 points,  1 beta functions with:
                l(1) =   0
     Q(r) pseudized with  8 coefficients,  rinner =    0.800

     atomic species   valence    mass     pseudopotential
        Ti1           12.00    47.86700     Ti( 1.00)
        O1             6.00    15.99900     O ( 1.00)
        N1             5.00    14.00700     N ( 1.00)
        C1             4.00    12.01100     C ( 1.00)
        H1             1.00     1.00800     H ( 1.00)

     No symmetry found

   Cartesian axes

     site n.     atom                  positions (alat units)
         1           Ti1 tau(   1) = (   0.0004258   2.9801865   6.0000000  )
         2           Ti1 tau(   2) = (   3.2906075   1.4906267   6.0002472  )
         3           O1  tau(   3) = (   0.0006271   0.0005054   7.9858123  )
         4           O1  tau(   4) = (   3.2906025   0.0005020   7.3038282  )
         5           O1  tau(   5) = (   4.5942328   1.4918067   9.2879030  )
         6           O1  tau(   6) = (   1.9868534   1.4903216   9.2879459  )
         7           Ti1 tau(   7) = (   3.2907910   2.8959150   9.1758416  )
         8           Ti1 tau(   8) = (   0.0015273   1.4827037   9.2680791  )
         9           O1  tau(   9) = (   3.2932810   5.9556063  11.3276769  )
        10           O1  tau(  10) = (   0.0116148   5.9584955  10.6183126  )
        11           O1  tau(  11) = (   1.2966828   1.5020869  12.6141357  )
        12           O1  tau(  12) = (   5.2995835   1.4923495  12.6341875  )
        13           Ti1 tau(  13) = (   6.5470072   2.9473109  12.5798724  )
        14           Ti1 tau(  14) = (   3.2302912   1.4573256  12.5082679  )
        15           O1  tau(  15) = (   0.0525813   0.0137714  14.6435187  )
        16           O1  tau(  16) = (   3.2708393   0.0302713  13.9228694  )
        17           O1  tau(  17) = (   4.5627544   1.5900677  16.0055000  )
        18           O1  tau(  18) = (   2.0437599   1.5040777  16.0764052  )
        19           Ti1 tau(  19) = (   3.3063064   2.9825517  15.6619520  )
        20           Ti1 tau(  20) = (   6.5607061   1.3194196  15.9785141  )
        21           O1  tau(  21) = (   3.2904802   0.0005063   4.7018136  )
        22           O1  tau(  22) = (   6.3855286   5.9589440  17.1610702  )
        23           O1  tau(  23) = (   1.3043587   1.4918075   6.0039043  )
        24           O1  tau(  24) = (   5.2767064   1.4903225   6.0039473  )
        25           Ti1 tau(  25) = (   0.0000382   5.9609847   6.0000000  )
        26           Ti1 tau(  26) = (   3.2902200   4.4714249   6.0002472  )
        27           O1  tau(  27) = (   0.0002396   2.9813036   7.9858123  )
        28           O1  tau(  28) = (   3.2902150   2.9813002   7.3038282  )
        29           O1  tau(  29) = (   4.5938453   4.4726049   9.2879030  )
        30           O1  tau(  30) = (   1.9864658   4.4711199   9.2879459  )
        31           Ti1 tau(  31) = (   3.2891106   5.8743827   9.1763621  )
        32           Ti1 tau(  32) = (   0.0006254   4.4649316   9.2693709  )
        33           O1  tau(  33) = (   3.2946552   2.9814125  11.3288906  )
        34           O1  tau(  34) = (   0.0092240   2.9805883  10.6323155  )
        35           O1  tau(  35) = (   1.2978438   4.4726441  12.6233041  )
        36           O1  tau(  36) = (   5.2969606   4.4732664  12.6435870  )
        37           Ti1 tau(  37) = (   6.5415350   5.9305516  12.5357152  )
        38           Ti1 tau(  38) = (   3.2303862   4.4559975  12.4807118  )
        39           O1  tau(  39) = (   0.0164246   2.9899045  14.7829194  )
        40           O1  tau(  40) = (   3.2688228   2.9752494  13.8698570  )
        41           O1  tau(  41) = (   4.5210259   4.4573316  15.9082071  )
        42           O1  tau(  42) = (   2.0412773   4.4882057  16.0214637  )
        43           Ti1 tau(  43) = (   3.2233344   5.9452837  15.7820064  )
        44           Ti1 tau(  44) = (   6.5355943   4.4735413  15.8975681  )
        45           O1  tau(  45) = (   3.2900926   2.9813045   4.7018136  )
        46           O1  tau(  46) = (   1.3039711   4.4726057   6.0039043  )
        47           O1  tau(  47) = (   5.2763189   4.4711207   6.0039473  )
        48           N1  tau(  48) = (   0.2167872   2.3688911  18.0161765  )
        49           C1  tau(  49) = (   0.4968348   1.8934616  19.1978903  )
        50           H1  tau(  50) = (   0.5617972   2.5522217  20.0513624  )
        51           H1  tau(  51) = (   0.6371857   0.8299532  19.2874115  )
        52           N1  tau(  52) = (   6.5661014   3.6386027  17.7750644  )
        53           H1  tau(  53) = (   0.0713089   4.2532688  18.5884219  )
        54           O1  tau(  54) = (   3.6608114   5.9026821  18.0962282  )
        55           H1  tau(  55) = (   4.6425638   0.0038819  18.0438526  )
        56           H1  tau(  56) = (   3.3558581   0.7595698  18.5153002  )

     number of k points=    10  Fermi-Dirac smearing, width (Ry)=  0.0073
                       cart. coord. in units 2pi/alat
        k(    1) = (   0.0000000   0.0000000   0.0000000), wk =   0.1250000
        k(    2) = (   0.0000000   0.0419351   0.0000000), wk =   0.2500000
        k(    3) = (   0.0000000  -0.0838702   0.0000000), wk =   0.1250000
        k(    4) = (   0.0379955   0.0000049   0.0000000), wk =   0.2500000
        k(    5) = (   0.0379955   0.0419400   0.0000000), wk =   0.2500000
        k(    6) = (   0.0379955  -0.0838652   0.0000000), wk =   0.2500000
        k(    7) = (   0.0379955  -0.0419301   0.0000000), wk =   0.2500000
        k(    8) = (  -0.0759910  -0.0000099   0.0000000), wk =   0.1250000
        k(    9) = (  -0.0759910   0.0419252   0.0000000), wk =   0.2500000
        k(   10) = (  -0.0759910  -0.0838800   0.0000000), wk =   0.1250000

     Initial potential from superposition of free atoms

     starting charge  386.99914, renormalised to  403.00000

     negative rho (up, down):  1.554E-02 0.000E+00

     %%%%%%%%%%%%%%%%%%%%%%%%%%%%%%%%%%%%%%%%%%%%%%%%%%%%%%%%%%%%%%%%%%%%%%%%
     %                                                                      %
     % You are using vdW-DF, which was implemented by the Thonhauser group. %
     % Please cite the following two papers that made this development      %
     % possible and the two reviews that describe the various versions:     %
     %                                                                      %
     %   T. Thonhauser et al., PRL 115, 136402 (2015).                      %
     %   T. Thonhauser et al., PRB 76, 125112 (2007).                       %
     %   K. Berland et al., Rep. Prog. Phys. 78, 066501 (2015).             %
     %   D.C. Langreth et al., J. Phys.: Condens. Matter 21, 084203 (2009). %
     %                                                                      %
     %                                                                      %
     % If you are calculating the stress with vdW-DF, please also cite:     %
     %                                                                      %
     %   R. Sabatini et al., J. Phys.: Condens. Matter 24, 424209 (2012).   %
     %                                                                      %
     %%%%%%%%%%%%%%%%%%%%%%%%%%%%%%%%%%%%%%%%%%%%%%%%%%%%%%%%%%%%%%%%%%%%%%%%

     Adding external electric field

     Computed dipole along edir(3) :
        Dipole              -12.7983 Ry au,        -32.5300 Debye
        Dipole field         -0.0242 Ry au,

        Potential amp.        2.2389 Ry
        Total length         46.3494 bohr

     Starting wfcs are  305 atomic wfcs
  @ DRIVER MODE: Message from server: STATUS
  @ DRIVER MODE: Message from server: POSDATA
  @ DRIVER MODE: Reading and sharing cell
  @ DRIVER MODE: Reading and sharing positions
  @ DRIVER MODE: Received positions

     Self-consistent Calculation

     iteration #  1     ecut=    29.40 Ry     beta= 0.05
     Davidson diagonalization with overlap
     c_bands:  3 eigenvalues not converged
     c_bands:  3 eigenvalues not converged
     c_bands:  3 eigenvalues not converged
     c_bands:  5 eigenvalues not converged
     c_bands:  1 eigenvalues not converged
     c_bands:  1 eigenvalues not converged
     c_bands:  4 eigenvalues not converged
     c_bands:  3 eigenvalues not converged
     ethr =  1.00E-05,  avg # of iterations = 27.5

[...]

     total energy              =   -2369.06443902 Ry
     estimated scf accuracy    <    6884.65594234 Ry

     iteration #  2     ecut=    29.40 Ry     beta= 0.05
     Davidson diagonalization with overlap
     ethr =  1.00E-02,  avg # of iterations = 24.8

[...]

     iteration # 41     ecut=    29.40 Ry     beta= 0.05
     Davidson diagonalization with overlap
     c_bands:  1 eigenvalues not converged
     ethr =  5.89E-07,  avg # of iterations = 12.8

[...]

     total energy              =   -2973.98309371 Ry
     estimated scf accuracy    <       0.00000023 Ry

     iteration # 64     ecut=    29.40 Ry     beta= 0.05
     Davidson diagonalization with overlap
     ethr =  5.76E-11,  avg # of iterations = 11.0

     negative rho (up, down):  1.540E-02 0.000E+00

     Adding external electric field

     Computed dipole along edir(3) :
        Dipole                0.9222 Ry au,          2.3441 Debye
        Dipole field          0.0017 Ry au,

        Potential amp.       -0.1613 Ry
        Total length         46.3494 bohr

     End of self-consistent calculation

          k = 0.0000 0.0000 0.0000 ( 18029 PWs)   bands (ev):

   -55.6151 -55.5870 -55.5810 -55.5490 -55.4964 -55.4850 -55.4547 -55.4326
   -55.3986 -55.3942 -55.3602 -55.3370 -55.0436 -54.9932 -54.5948 -54.5608
   -32.1310 -32.0992 -31.9872 -31.9324 -31.9189 -31.9069 -31.8855 -31.8725
   -31.8594 -31.8186 -31.7676 -31.7635 -31.7351 -31.7347 -31.7310 -31.7210
   -31.7165 -31.7131 -31.7099 -31.7078 -31.6771 -31.6724 -31.6636 -31.6358
   -31.6264 -31.6255 -31.6183 -31.6152 -31.5999 -31.5916 -31.5744 -31.5613
   -31.5489 -31.5426 -31.5373 -31.5076 -31.5050 -31.3071 -31.2677 -31.2446
   -31.1920 -31.1490 -31.0016 -30.9137 -30.8913 -30.8187 -30.7322 -30.6208
   -18.6638 -17.8740 -16.3349 -16.0926 -15.8528 -15.7758 -15.7435 -15.5299
   -15.4269 -15.3714 -15.2360 -15.1870 -15.1735 -15.1534 -15.1286 -15.0941
   -15.0682 -15.0545 -15.0474 -15.0310 -15.0057 -14.9788 -14.9586 -14.9549
   -14.9137 -14.8449 -14.7755 -14.7499 -14.6879 -14.6758 -14.2359 -13.0960
   -12.9796 -12.0216  -7.8663  -6.4479  -5.2874  -4.4954  -3.7086  -3.5707
    -3.5231  -3.4733  -3.4650  -3.2755  -3.1884  -3.0567  -2.8985  -2.8443
    -2.7797  -2.7419  -2.6978  -2.6410  -2.5999  -2.4945  -2.4574  -2.4277
    -2.4125  -2.3673  -2.3621  -2.3575  -2.2955  -2.2598  -2.1810  -2.1550
    -2.0744  -2.0057  -1.9773  -1.9529  -1.9291  -1.9118  -1.9096  -1.8595
    -1.8581  -1.8563  -1.7867  -1.7417  -1.6612  -1.6185  -1.5626  -1.4196
    -1.3807  -1.2727  -1.2232  -1.1013  -1.0974  -1.0750  -1.0504  -1.0114
    -1.0031  -0.8800  -0.7944  -0.7453  -0.7094  -0.6475  -0.5447  -0.5250
    -0.4343  -0.4295  -0.3753  -0.3625  -0.3457  -0.3172  -0.2383  -0.1258
    -0.1075  -0.0471   0.0023   0.0649   0.1086   0.1334   0.1711   0.2211
     0.2448   0.2859   0.3122   0.3234   0.3565   0.3943   0.4166   0.4948
     0.5674   0.6170   0.6662   0.7066   0.7110   0.8884   1.0008   1.0395
     1.1706   1.1929   1.3610   1.4287   1.4988   1.6205   1.9988   2.0445
     2.2252   3.4926   3.6063   3.6307   3.6406   3.7439   3.8774   3.9602
     4.0009   4.0253   4.0648

[...]

          k = 0.0380-0.0419 0.0000 ( 17876 PWs)   bands (ev):

[...]

          k =-0.0760-0.0000 0.0000 ( 17886 PWs)   bands (ev):

[...]

          k =-0.0760-0.0839 0.0000 ( 17948 PWs)   bands (ev):

   -55.5981 -55.5978 -55.5743 -55.5614 -55.4874 -55.4829 -55.4638 -55.4159
   -55.4149 -55.3799 -55.3747 -55.3389 -55.0367 -55.0001 -54.5779 -54.5775
   -31.9474 -31.9221 -31.9146 -31.9143 -31.8924 -31.8921 -31.8272 -31.8225
   -31.8142 -31.8092 -31.7906 -31.7405 -31.7367 -31.7336 -31.7242 -31.7229
   -31.7209 -31.7181 -31.7173 -31.7156 -31.7139 -31.7014 -31.6921 -31.6774
   -31.6748 -31.6701 -31.6487 -31.6200 -31.6190 -31.6094 -31.6006 -31.5965
   -31.5933 -31.5923 -31.5909 -31.5460 -31.5205 -31.2957 -31.2704 -31.2646
   -31.2486 -31.1930 -30.9041 -30.9039 -30.8146 -30.8142 -30.7756 -30.7754
   -18.6618 -17.8610 -15.7757 -15.6828 -15.5958 -15.5538 -15.4751 -15.4566
   -15.4026 -15.3376 -15.2994 -15.2808 -15.2394 -15.2108 -15.1661 -15.1534
   -15.1461 -15.1224 -15.0982 -15.0742 -15.0630 -15.0569 -15.0521 -15.0388
   -15.0051 -14.9734 -14.9367 -14.9329 -14.9043 -14.6617 -14.5845 -13.0814
   -13.0813 -11.9753  -7.7893  -6.4417  -5.3511  -4.5646  -3.1837  -3.0636
    -2.8849  -2.8514  -2.7955  -2.7510  -2.7440  -2.6897  -2.5654  -2.5564
    -2.5264  -2.4609  -2.4375  -2.4345  -2.4259  -2.4221  -2.4011  -2.3643
    -2.3633  -2.3096  -2.2994  -2.2881  -2.2831  -2.2661  -2.2474  -2.2446
    -2.2211  -2.1745  -2.1608  -2.1437  -2.0367  -1.9410  -1.8798  -1.8446
    -1.8123  -1.7640  -1.7589  -1.7387  -1.7224  -1.6849  -1.6689  -1.6128
    -1.4981  -1.4195  -1.3338  -1.3032  -1.2740  -1.2038  -1.1588  -1.0942
    -1.0542  -1.0483  -0.9646  -0.8515  -0.8362  -0.7997  -0.7720  -0.6955
    -0.6671  -0.6344  -0.5739  -0.5671  -0.5398  -0.5106  -0.4740  -0.3841
    -0.3658  -0.3592  -0.3294  -0.3207  -0.3095  -0.2683  -0.1951  -0.0967
    -0.0250  -0.0185   0.0871   0.2125   0.3114   0.4435   0.4718   0.5196
     0.5731   0.6071   0.6903   0.6981   0.7234   0.7880   0.8311   0.8991
     0.9230   0.9384   1.0245   1.0317   1.7926   1.7938   1.8645   1.8646
     2.1694   3.8571   3.8854   3.9061   3.9505   4.0282   4.0522   4.0530
     4.0588   4.1751   4.2050

     the Fermi energy is     3.5115 ev

!    total energy              =   -2973.98312599 Ry
     estimated scf accuracy    <       0.00000006 Ry
     smearing contrib. (-TS)   =      -0.02040324 Ry
     internal energy E=F+TS    =   -2973.96272275 Ry

     The total energy is F=E-TS. E is the sum of the following terms:
     one-electron contribution =  -24202.23658720 Ry
     hartree contribution      =   12195.73446963 Ry
     xc contribution           =    -494.25451983 Ry
     ewald contribution        =    9526.79230955 Ry
     electric field correction =       0.00160509 Ry

     convergence has been achieved in  64 iterations

     Forces acting on atoms (cartesian axes, Ry/au):

     atom    1 type  1   force =    -0.00005755   -0.00019194    0.09555251
     atom    2 type  1   force =     0.00002485   -0.00035911   -0.17558159
     atom    3 type  2   force =     0.00009698   -0.00012479   -0.02315150
     atom    4 type  2   force =     0.00000568   -0.00138944    0.05288480
     atom    5 type  2   force =    -0.00999754   -0.00075357    0.00325373
     atom    6 type  2   force =     0.01152755   -0.00009551    0.00282831
     atom    7 type  1   force =     0.00046031    0.00028087   -0.00661628
     atom    8 type  1   force =     0.00028981    0.00535620    0.01758236
     atom    9 type  2   force =    -0.00015010   -0.00015545   -0.00038350
     atom   10 type  2   force =    -0.00346448    0.00075078   -0.01265647
     atom   11 type  2   force =    -0.00080697   -0.00032705    0.00009444
     atom   12 type  2   force =     0.00032807   -0.00017111    0.00010153
     atom   13 type  1   force =    -0.00026011    0.00039910   -0.00022499
     atom   14 type  1   force =     0.00022058    0.00003692    0.00067800
     atom   15 type  2   force =    -0.00013397    0.00004354   -0.00036152
     atom   16 type  2   force =    -0.00002877   -0.00023647   -0.00009259
     atom   17 type  2   force =     0.00049589   -0.00012062   -0.00011844
     atom   18 type  2   force =    -0.00018409   -0.00041176   -0.00013644
     atom   19 type  1   force =    -0.00014902   -0.00024665    0.00035780
     atom   20 type  1   force =     0.00057476   -0.00001662    0.00000637
     atom   21 type  2   force =     0.00007138    0.00003470    0.10318015
     atom   22 type  2   force =     0.00011309   -0.00011474   -0.00000830
     atom   23 type  2   force =    -0.07161354   -0.00013326   -0.02755509
     atom   24 type  2   force =     0.07154155    0.00036769   -0.02759402
     atom   25 type  1   force =     0.00018006   -0.00009414    0.09521763
     atom   26 type  1   force =     0.00008204   -0.00039842   -0.17575068
     atom   27 type  2   force =     0.00011215   -0.00024120   -0.02206987
     atom   28 type  2   force =     0.00002894   -0.00099167    0.05228672
     atom   29 type  2   force =    -0.01014705    0.00036973    0.00285919
     atom   30 type  2   force =     0.01154869    0.00074595    0.00248063
     atom   31 type  1   force =     0.00027490    0.00394420   -0.01130030
     atom   32 type  1   force =     0.00045455   -0.00672430    0.01787920
     atom   33 type  2   force =    -0.00007910    0.00004981   -0.00019164
     atom   34 type  2   force =    -0.00395521    0.00073501   -0.01214085
     atom   35 type  2   force =    -0.00021254    0.00008054   -0.00017059
     atom   36 type  2   force =     0.00000016    0.00003188   -0.00007743
     atom   37 type  1   force =    -0.00004562   -0.00041059    0.00035491
     atom   38 type  1   force =     0.00005848    0.00001353    0.00040265
     atom   39 type  2   force =     0.00035549   -0.00035066    0.00027491
     atom   40 type  2   force =    -0.00050222    0.00027732   -0.00010374
     atom   41 type  2   force =     0.00018719    0.00004035   -0.00011170
     atom   42 type  2   force =     0.00021788    0.00014838    0.00029143
     atom   43 type  1   force =    -0.00015807   -0.00019689    0.00008308
     atom   44 type  1   force =    -0.00013919    0.00010023   -0.00026017
     atom   45 type  2   force =     0.00007214   -0.00000310    0.10313571
     atom   46 type  2   force =    -0.07161463   -0.00003960   -0.02752982
     atom   47 type  2   force =     0.07154789    0.00035145   -0.02761954
     atom   48 type  3   force =     0.00296042   -0.00377997    0.01447571
     atom   49 type  4   force =    -0.00337703    0.00089985   -0.02522500
     atom   50 type  5   force =     0.00081723    0.00464644    0.00822056
     atom   51 type  5   force =     0.00074580   -0.00096545    0.00199177
     atom   52 type  3   force =     0.00048097   -0.00157128    0.00072889
     atom   53 type  5   force =     0.00040584    0.00060711   -0.00025524
     atom   54 type  2   force =    -0.00058170   -0.00136692   -0.00073473
     atom   55 type  5   force =     0.00169757    0.00006575    0.00021232
     atom   56 type  5   force =    -0.00032034    0.00160495    0.00060672

     Total force =     0.366079     Total SCF correction =     0.000613
  @ DRIVER MODE: Message from server: STATUS
  @ DRIVER MODE: Message from server: GETFORCE
  @ DRIVER MODE: Returning v,forces,stress,ensemble

     Writing output data file ./calc.save/
  @ DRIVER MODE: Message from server: EXIT
  @ DRIVE MODE: Exiting

     General routines

     Parallel routines

   This run was terminated on:  19:47: 7  15Sep2021

   JOB DONE.