     Program PWSCF v.6.7GPU starts on 23Sep2021 at  0:38:30

     R & G space division:  proc/nbgrp/npool/nimage =      10
     Reading input from /storage/home/hcoda1/3/ntian30/research/carbon/CxH_vib/H2O_calc/ads_slab/CHNHHO_a/out_0027/pw.inp
Warning: card &CELL ignored
Warning: card   CELL_DYNAMICS='IPI', ignored
Warning: card / ignored

     Current dimensions of program PWSCF are:
     Max number of different atomic species (ntypx) = 10
     Max number of k-points (npk) =  40000
     Max angular momentum in pseudopotentials (lmaxx) =  3
     Presently no symmetry can be used with electric field

     Message from routine cell_base_init:
     DEPRECATED: use true lattice parameter, not A to a.u. conversion factor

     IMPORTANT: XC functional enforced from input :
     Exchange-correlation= BEEF-VDW
                           (   1   4  43  14   2   0   0)
     Any further DFT definition will be discarded
     Please, verify this is what you really want

  @ DRIVER MODE: Connecting to
 qe_1139763_2937314.sched-torque.pace.gatech.edum6ecu9hj_scratch
  using UNIX socket
  @ DRIVER MODE: Message from server: STATUS
  @ DRIVER MODE: Message from server: INIT
  @ DRIVER MODE: Receiving replica           0          -1
  @ DRIVER MODE: Receiving encoded integer          25
  @ DRIVER MODE:  SCF:  T  FORCE:  T  STRESS:  F  VC:  F  ENSEMBLE:  F
  @ DRIVER MODE:  SCF:  T  FORCE:  T  STRESS:  F  VC:  F  ENSEMBLE:  F

     Using Slab Decomposition

     bravais-lattice index     =            0
     lattice parameter (alat)  =       1.8897  a.u.
     unit-cell volume          =    6658.9804 (a.u.)^3
     number of atoms/cell      =           53
     number of atomic types    =            5
     number of electrons       =       396.00
     number of Kohn-Sham states=          208
     kinetic-energy cutoff     =      29.3995  Ry
     charge density cutoff     =     293.9946  Ry
     scf convergence threshold =      7.3E-08
     mixing beta               =       0.0500
     number of iterations used =            8  plain     mixing
     Exchange-correlation= BEEF-VDW
                           (   1   4  43  14   2   0   0)

     celldm(1)=   1.889726  celldm(2)=   0.000000  celldm(3)=   0.000000
     celldm(4)=   0.000000  celldm(5)=   0.000000  celldm(6)=   0.000000

     crystal axes: (cart. coord. in units of alat)
               a(1) = (   6.579727   0.000000   0.000000 )
               a(2) = (  -0.000775   5.961596   0.000000 )
               a(3) = (   0.000000   0.000000  25.155947 )

     reciprocal axes: (cart. coord. in units 2 pi/alat)
               b(1) = (  0.151982  0.000020  0.000000 )
               b(2) = (  0.000000  0.167740  0.000000 )
               b(3) = (  0.000000  0.000000  0.039752 )

     PseudoPot. # 1 for Ti read from file:
     /storage/coda1/p-amedford6/0/shared/rich_project_chbe-medford/medford-share/data/pseudos_module/espresso/nninc/pbe/van/Ti.UPF
     MD5 check sum: 8e4df49b7f0d34bbd5052bf3f5ea0213
     Pseudo is Ultrasoft, Zval = 12.0
     Generated by new atomic code, or converted to UPF format
     Using radial grid of  851 points,  6 beta functions with:
                l(1) =   0
                l(2) =   0
                l(3) =   1
                l(4) =   1
                l(5) =   2
                l(6) =   2
     Q(r) pseudized with  8 coefficients,  rinner =    1.000   1.000   1.000
                                                       1.000   1.000

     PseudoPot. # 2 for O  read from file:
     /storage/coda1/p-amedford6/0/shared/rich_project_chbe-medford/medford-share/data/pseudos_module/espresso/nninc/pbe/van/O.UPF
     MD5 check sum: 78c19812648e8988a0fe644b0f25305e
     Pseudo is Ultrasoft, Zval =  6.0
     Generated by new atomic code, or converted to UPF format
     Using radial grid of  737 points,  4 beta functions with:
                l(1) =   0
                l(2) =   0
                l(3) =   1
                l(4) =   1
     Q(r) pseudized with  8 coefficients,  rinner =    0.800   0.800   0.800

     PseudoPot. # 3 for N  read from file:
     /storage/coda1/p-amedford6/0/shared/rich_project_chbe-medford/medford-share/data/pseudos_module/espresso/nninc/pbe/van/N.UPF
     MD5 check sum: 90d10febe142ad51ac9d5be1deb811c4
     Pseudo is Ultrasoft, Zval =  5.0
     Generated by new atomic code, or converted to UPF format
     Using radial grid of  729 points,  4 beta functions with:
                l(1) =   0
                l(2) =   0
                l(3) =   1
                l(4) =   1
     Q(r) pseudized with  8 coefficients,  rinner =    0.800   0.800   0.800

     PseudoPot. # 4 for C  read from file:
     /storage/coda1/p-amedford6/0/shared/rich_project_chbe-medford/medford-share/data/pseudos_module/espresso/nninc/pbe/van/C.UPF
     MD5 check sum: 1a69bf6b8db32088f5b2163dbdb77a27
     Pseudo is Ultrasoft, Zval =  4.0
     Generated by new atomic code, or converted to UPF format
     Using radial grid of  721 points,  4 beta functions with:
                l(1) =   0
                l(2) =   0
                l(3) =   1
                l(4) =   1
     Q(r) pseudized with  8 coefficients,  rinner =    0.800   0.800   0.800

     PseudoPot. # 5 for H  read from file:
     /storage/coda1/p-amedford6/0/shared/rich_project_chbe-medford/medford-share/data/pseudos_module/espresso/nninc/pbe/van/H.UPF
     MD5 check sum: b5ee9d7bfd3a09ee7748110bda690ff7
     Pseudo is Ultrasoft, Zval =  1.0
     Generated by new atomic code, or converted to UPF format
     Using radial grid of  615 points,  1 beta functions with:
                l(1) =   0
     Q(r) pseudized with  8 coefficients,  rinner =    0.800

     atomic species   valence    mass     pseudopotential
        Ti1           12.00    47.86700     Ti( 1.00)
        O1             6.00    15.99900     O ( 1.00)
        N1             5.00    14.00700     N ( 1.00)
        C1             4.00    12.01100     C ( 1.00)
        H1             1.00     1.00800     H ( 1.00)

     No symmetry found

   Cartesian axes

     site n.     atom                  positions (alat units)
         1           Ti1 tau(   1) = (   0.0004258   2.9801865   6.0000000  )
         2           Ti1 tau(   2) = (   3.2906075   1.4906267   6.0002472  )
         3           O1  tau(   3) = (   0.0006271   0.0005054   7.9858123  )
         4           O1  tau(   4) = (   3.2906025   0.0005020   7.3038282  )
         5           O1  tau(   5) = (   4.5942328   1.4918067   9.2879030  )
         6           O1  tau(   6) = (   1.9868534   1.4903216   9.2879459  )
         7           Ti1 tau(   7) = (   3.2907910   2.8959150   9.1758416  )
         8           Ti1 tau(   8) = (   0.0015273   1.4827037   9.2680791  )
         9           O1  tau(   9) = (   3.2817170   5.9459930  11.3074998  )
        10           O1  tau(  10) = (   0.0116148   5.9584955  10.6183126  )
        11           O1  tau(  11) = (   1.2737360   1.4926482  12.6406718  )
        12           O1  tau(  12) = (   5.2902952   1.4950437  12.6299455  )
        13           Ti1 tau(  13) = (   6.5743562   2.8588748  12.6391164  )
        14           Ti1 tau(  14) = (   3.2840152   1.3010445  12.6757008  )
        15           O1  tau(  15) = (   6.5722207   0.0022838  14.6395268  )
        16           O1  tau(  16) = (   3.2882888   0.0547267  13.9272720  )
        17           O1  tau(  17) = (   4.5277618   1.5549090  16.0796657  )
        18           O1  tau(  18) = (   1.9889223   1.5445724  16.0964948  )
        19           Ti1 tau(  19) = (   3.2710169   3.0098750  15.6493427  )
        20           Ti1 tau(  20) = (   0.0212523   1.3583160  16.0154628  )
        21           O1  tau(  21) = (   3.2904802   0.0005063   4.7018136  )
        22           O1  tau(  22) = (   6.5278121   5.9442159  17.1408904  )
        23           O1  tau(  23) = (   1.3043587   1.4918075   6.0039043  )
        24           O1  tau(  24) = (   5.2767064   1.4903225   6.0039473  )
        25           Ti1 tau(  25) = (   0.0000382   5.9609847   6.0000000  )
        26           Ti1 tau(  26) = (   3.2902200   4.4714249   6.0002472  )
        27           O1  tau(  27) = (   0.0002396   2.9813036   7.9858123  )
        28           O1  tau(  28) = (   3.2902150   2.9813002   7.3038282  )
        29           O1  tau(  29) = (   4.5938453   4.4726049   9.2879030  )
        30           O1  tau(  30) = (   1.9864658   4.4711199   9.2879459  )
        31           Ti1 tau(  31) = (   3.2891106   5.8743827   9.1763621  )
        32           Ti1 tau(  32) = (   0.0006254   4.4649316   9.2693709  )
        33           O1  tau(  33) = (   3.2809651   3.0158959  11.2742024  )
        34           O1  tau(  34) = (   0.0092240   2.9805883  10.6323155  )
        35           O1  tau(  35) = (   1.2801966   4.4796301  12.6363892  )
        36           O1  tau(  36) = (   5.2833020   4.4787161  12.6245292  )
        37           Ti1 tau(  37) = (   6.5725262   5.8449372  12.5269696  )
        38           Ti1 tau(  38) = (   3.2830651   4.3950422  12.4122791  )
        39           O1  tau(  39) = (   6.5612936   2.9998473  14.7091997  )
        40           O1  tau(  40) = (   3.2734765   2.9867355  13.8776313  )
        41           O1  tau(  41) = (   4.5260587   4.4294304  16.0527172  )
        42           O1  tau(  42) = (   1.9919704   4.4458081  16.0639873  )
        43           Ti1 tau(  43) = (   3.3135318   0.0270965  16.3071496  )
        44           Ti1 tau(  44) = (   0.0294795   4.5257316  15.8201724  )
        45           O1  tau(  45) = (   3.2900926   2.9813045   4.7018136  )
        46           O1  tau(  46) = (   1.3039711   4.4726057   6.0039043  )
        47           O1  tau(  47) = (   5.2763189   4.4711207   6.0039473  )
        48           N1  tau(  48) = (   6.4282372   2.9740631  17.7102171  )
        49           C1  tau(  49) = (   0.6535733   3.0176064  18.7020832  )
        50           H1  tau(  50) = (   1.7291544   2.9413089  18.4820742  )
        51           H1  tau(  51) = (   5.4410488   3.0579230  17.9716058  )
        52           O1  tau(  52) = (   3.3627568   5.9526552  18.1193045  )
        53           H1  tau(  53) = (   4.1580425   0.0400832  18.6733683  )

     number of k points=    10  Fermi-Dirac smearing, width (Ry)=  0.0073
                       cart. coord. in units 2pi/alat
        k(    1) = (   0.0000000   0.0000000   0.0000000), wk =   0.1250000
        k(    2) = (   0.0000000   0.0419351   0.0000000), wk =   0.2500000
        k(    3) = (   0.0000000  -0.0838702   0.0000000), wk =   0.1250000
        k(    4) = (   0.0379955   0.0000049   0.0000000), wk =   0.2500000
        k(    5) = (   0.0379955   0.0419400   0.0000000), wk =   0.2500000
        k(    6) = (   0.0379955  -0.0838652   0.0000000), wk =   0.2500000
        k(    7) = (   0.0379955  -0.0419301   0.0000000), wk =   0.2500000
        k(    8) = (  -0.0759910  -0.0000099   0.0000000), wk =   0.1250000
        k(    9) = (  -0.0759910   0.0419252   0.0000000), wk =   0.2500000
        k(   10) = (  -0.0759910  -0.0838800   0.0000000), wk =   0.1250000

     Initial potential from superposition of free atoms

     starting charge  379.99917, renormalised to  396.00000

     negative rho (up, down):  1.778E-02 0.000E+00

     %%%%%%%%%%%%%%%%%%%%%%%%%%%%%%%%%%%%%%%%%%%%%%%%%%%%%%%%%%%%%%%%%%%%%%%%
     %                                                                      %
     % You are using vdW-DF, which was implemented by the Thonhauser group. %
     % Please cite the following two papers that made this development      %
     % possible and the two reviews that describe the various versions:     %
     %                                                                      %
     %   T. Thonhauser et al., PRL 115, 136402 (2015).                      %
     %   T. Thonhauser et al., PRB 76, 125112 (2007).                       %
     %   K. Berland et al., Rep. Prog. Phys. 78, 066501 (2015).             %
     %   D.C. Langreth et al., J. Phys.: Condens. Matter 21, 084203 (2009). %
     %                                                                      %
     %                                                                      %
     % If you are calculating the stress with vdW-DF, please also cite:     %
     %                                                                      %
     %   R. Sabatini et al., J. Phys.: Condens. Matter 24, 424209 (2012).   %
     %                                                                      %
     %%%%%%%%%%%%%%%%%%%%%%%%%%%%%%%%%%%%%%%%%%%%%%%%%%%%%%%%%%%%%%%%%%%%%%%%

     Adding external electric field

     Computed dipole along edir(3) :
        Dipole               -8.0653 Ry au,        -20.5000 Debye
        Dipole field         -0.0152 Ry au,

        Potential amp.        1.4109 Ry
        Total length         46.3494 bohr

     Starting wfcs are  299 atomic wfcs
  @ DRIVER MODE: Message from server: STATUS
  @ DRIVER MODE: Message from server: POSDATA
  @ DRIVER MODE: Reading and sharing cell
  @ DRIVER MODE: Reading and sharing positions
  @ DRIVER MODE: Received positions

     Self-consistent Calculation

     iteration #  1     ecut=    29.40 Ry     beta= 0.05
     Davidson diagonalization with overlap
     c_bands:  1 eigenvalues not converged
     c_bands:  1 eigenvalues not converged
     c_bands:  3 eigenvalues not converged
     c_bands:  1 eigenvalues not converged
     c_bands:  1 eigenvalues not converged
     c_bands:  1 eigenvalues not converged
     ethr =  1.00E-05,  avg # of iterations = 18.6

[...]

     total energy              =   -2618.22987004 Ry
     estimated scf accuracy    <    3681.42279717 Ry

     iteration #  2     ecut=    29.40 Ry     beta= 0.05
     Davidson diagonalization with overlap
     ethr =  1.00E-02,  avg # of iterations = 21.8

[...]

     iteration # 51     ecut=    29.40 Ry     beta= 0.05
     Davidson diagonalization with overlap
     c_bands:  4 eigenvalues not converged
     ethr =  7.32E-07,  avg # of iterations =  5.6

[...]

     total energy              =   -2951.37647174 Ry
     estimated scf accuracy    <       0.00000008 Ry

     iteration # 83     ecut=    29.40 Ry     beta= 0.05
     Davidson diagonalization with overlap
     ethr =  2.02E-11,  avg # of iterations =  7.0

     negative rho (up, down):  1.666E-02 0.000E+00

     Adding external electric field

     Computed dipole along edir(3) :
        Dipole                0.1813 Ry au,          0.4609 Debye
        Dipole field          0.0003 Ry au,

        Potential amp.       -0.0317 Ry
        Total length         46.3494 bohr

     End of self-consistent calculation

          k = 0.0000 0.0000 0.0000 ( 18029 PWs)   bands (ev):

   -56.4279 -56.3940 -56.1529 -56.1501 -56.1163 -55.9504 -55.8972 -55.8636
   -55.8583 -55.8518 -55.8167 -55.7257 -55.6734 -55.5326 -55.2787 -55.2447
   -32.8922 -32.7221 -32.7018 -32.6231 -32.5822 -32.5155 -32.4886 -32.4474
   -32.4341 -32.4221 -32.3725 -32.3680 -32.3659 -32.3631 -32.3531 -32.3106
   -32.2889 -32.2654 -32.2553 -32.1795 -32.1669 -32.1583 -32.1454 -32.1224
   -32.1069 -32.1015 -32.0985 -32.0668 -32.0647 -32.0574 -32.0368 -32.0167
   -31.9998 -31.9785 -31.9682 -31.9591 -31.9430 -31.8708 -31.8687 -31.7920
   -31.7631 -31.7445 -31.6790 -31.6069 -31.5837 -31.4974 -31.4119 -31.2999
   -16.9147 -16.8245 -16.5933 -16.4402 -16.2733 -16.1822 -16.0533 -16.0290
   -15.9216 -15.9009 -15.8143 -15.7806 -15.7415 -15.6667 -15.6099 -15.5875
   -15.5542 -15.5247 -15.5157 -15.5111 -15.5016 -15.4937 -15.4554 -15.3376
   -15.2967 -15.2462 -15.2335 -15.2194 -15.0879 -14.8301 -14.7858 -13.7764
   -13.6625  -8.2068  -4.6829  -4.2795  -4.2189  -4.1212  -3.9442  -3.8882
    -3.8279  -3.6011  -3.5540  -3.5522  -3.3579  -3.2977  -3.2036  -3.1611
    -3.1460  -3.1010  -3.0289  -3.0179  -2.9867  -2.8987  -2.8579  -2.8507
    -2.8242  -2.7790  -2.7692  -2.6885  -2.6450  -2.6227  -2.5538  -2.5048
    -2.4731  -2.4587  -2.4345  -2.4241  -2.3828  -2.3694  -2.3483  -2.2003
    -2.1844  -2.1621  -2.0844  -2.0100  -1.8546  -1.7732  -1.7624  -1.6639
    -1.5860  -1.5728  -1.5230  -1.4736  -1.3871  -1.3730  -1.3670  -1.3283
    -1.2435  -1.2222  -1.1801  -1.1272  -1.0531  -0.9641  -0.9583  -0.9081
    -0.8739  -0.8094  -0.7217  -0.6873  -0.6283  -0.5867  -0.5557  -0.4827
    -0.4332  -0.4069  -0.3838  -0.3724  -0.3120  -0.2511  -0.2044  -0.1782
    -0.1079  -0.0963  -0.0531   0.0108   0.0355   0.0411   0.1599   0.2027
     0.2157   0.2657   0.3774   0.4356   0.5212   0.5820   0.6531   0.7469
     0.7536   0.9612   1.0694   1.3012   1.3416   2.5796   2.7611   2.8828
     2.9517   3.1531   3.1999   3.2356   3.5084   3.5254   3.5337   3.6148

[...]

          k = 0.0380-0.0419 0.0000 ( 17876 PWs)   bands (ev):

[...]

          k =-0.0760-0.0000 0.0000 ( 17886 PWs)   bands (ev):

[...]

          k =-0.0760-0.0839 0.0000 ( 17948 PWs)   bands (ev):

   -56.4114 -56.4104 -56.1522 -56.1349 -56.1313 -55.9443 -55.9033 -55.8609
   -55.8593 -55.8387 -55.8297 -55.7277 -55.6715 -55.5345 -55.2623 -55.2611
   -32.7088 -32.7086 -32.7069 -32.7065 -32.5341 -32.5328 -32.4549 -32.4502
   -32.4247 -32.3813 -32.3698 -32.3429 -32.3381 -32.3270 -32.3206 -32.2859
   -32.2469 -32.2424 -32.2173 -32.1712 -32.1693 -32.1679 -32.1649 -32.1536
   -32.1292 -32.1223 -32.1203 -32.0728 -32.0697 -32.0636 -32.0616 -32.0599
   -32.0449 -32.0103 -31.9882 -31.9633 -31.9500 -31.9349 -31.8814 -31.8743
   -31.7945 -31.7481 -31.5970 -31.5961 -31.4935 -31.4921 -31.4552 -31.4543
   -16.8994 -16.2443 -16.2192 -16.1255 -16.0954 -16.0736 -16.0517 -16.0296
   -15.8934 -15.8841 -15.8704 -15.8021 -15.7513 -15.7321 -15.6959 -15.6936
   -15.6374 -15.6230 -15.6097 -15.5583 -15.5486 -15.5293 -15.5151 -15.4798
   -15.4490 -15.4211 -15.2559 -15.2014 -15.1461 -15.1194 -14.9186 -13.7654
   -13.7648  -8.2183  -4.6747  -4.1093  -3.5219  -3.4893  -3.3692  -3.3570
    -3.2308  -3.2256  -3.1476  -3.0742  -3.0737  -2.9986  -2.9844  -2.9764
    -2.9371  -2.9198  -2.9122  -2.9114  -2.8701  -2.8608  -2.8398  -2.8226
    -2.8197  -2.8039  -2.7651  -2.7247  -2.7031  -2.6902  -2.6359  -2.6230
    -2.5005  -2.4370  -2.4109  -2.4105  -2.3872  -2.3501  -2.3202  -2.3034
    -2.2741  -2.2351  -2.1579  -2.0371  -2.0165  -1.8206  -1.8025  -1.7712
    -1.7508  -1.7056  -1.7001  -1.6342  -1.5838  -1.5690  -1.5520  -1.5273
    -1.4264  -1.3750  -1.3250  -1.3218  -1.2707  -1.2508  -1.2022  -1.1015
    -1.0511  -1.0213  -0.9955  -0.9826  -0.9448  -0.9190  -0.8658  -0.8252
    -0.8208  -0.7928  -0.7512  -0.5816  -0.4114  -0.3690  -0.3464  -0.2753
    -0.2605  -0.2099  -0.0769  -0.0312  -0.0204   0.0150   0.0554   0.0861
     0.0989   0.1613   0.3440   0.3590   0.4275   0.4746   0.4809   0.5685
     0.6645   1.1257   1.1334   1.1604   1.1612   2.6082   3.3059   3.3079
     3.3097   3.3261   3.4051   3.4669   3.4759   3.5135   3.5920   3.6313

     the Fermi energy is     2.7246 ev

!    total energy              =   -2951.37647701 Ry
     estimated scf accuracy    <       0.00000005 Ry
     smearing contrib. (-TS)   =      -0.01731254 Ry
     internal energy E=F+TS    =   -2951.35916446 Ry

     The total energy is F=E-TS. E is the sum of the following terms:
     one-electron contribution =  -24273.29653705 Ry
     hartree contribution      =   12222.68235891 Ry
     xc contribution           =    -487.04506619 Ry
     ewald contribution        =    9586.30001782 Ry
     electric field correction =       0.00006205 Ry

     convergence has been achieved in  83 iterations

     Forces acting on atoms (cartesian axes, Ry/au):

     atom    1 type  1   force =     0.00006680   -0.00028471    0.10083998
     atom    2 type  1   force =    -0.00005273    0.00024850   -0.16921290
     atom    3 type  2   force =     0.00000561   -0.00004315   -0.02993933
     atom    4 type  2   force =     0.00000214   -0.00099404    0.04189332
     atom    5 type  2   force =    -0.00519982   -0.00241793   -0.00304642
     atom    6 type  2   force =     0.00635142   -0.00183552   -0.00465564
     atom    7 type  1   force =    -0.00065826   -0.00537437    0.02532374
     atom    8 type  1   force =     0.00077961    0.01604744    0.04133139
     atom    9 type  2   force =    -0.00021548    0.00023084    0.00015431
     atom   10 type  2   force =    -0.00258020    0.00083329   -0.03439586
     atom   11 type  2   force =     0.00010147    0.00003156    0.00006433
     atom   12 type  2   force =     0.00023065   -0.00035436    0.00004796
     atom   13 type  1   force =    -0.00070321   -0.00010602   -0.00014653
     atom   14 type  1   force =     0.00017639    0.00009683    0.00025133
     atom   15 type  2   force =     0.00022272    0.00013862    0.00011048
     atom   16 type  2   force =     0.00004241   -0.00014085   -0.00015581
     atom   17 type  2   force =    -0.00033511   -0.00023709    0.00061237
     atom   18 type  2   force =     0.00022564   -0.00009804    0.00028294
     atom   19 type  1   force =     0.00003977    0.00059737    0.00021826
     atom   20 type  1   force =     0.00010950    0.00019543    0.00051106
     atom   21 type  2   force =     0.00007265    0.00015342    0.10150026
     atom   22 type  2   force =    -0.00000772    0.00028603    0.00022331
     atom   23 type  2   force =    -0.07487118   -0.00008716   -0.02880447
     atom   24 type  2   force =     0.07480323    0.00036487   -0.02883514
     atom   25 type  1   force =     0.00019086   -0.00035604    0.10070209
     atom   26 type  1   force =     0.00001264   -0.00114891   -0.16942592
     atom   27 type  2   force =     0.00004616   -0.00039959   -0.02842509
     atom   28 type  2   force =     0.00000949    0.00074750    0.03787480
     atom   29 type  2   force =    -0.00389264    0.00436669   -0.00527397
     atom   30 type  2   force =     0.00497069    0.00488995   -0.00694427
     atom   31 type  1   force =    -0.00064130    0.00466289    0.01115976
     atom   32 type  1   force =     0.00089032   -0.01905139    0.04069791
     atom   33 type  2   force =     0.00044203   -0.00001139    0.00022718
     atom   34 type  2   force =    -0.00214196    0.00070958   -0.03964458
     atom   35 type  2   force =     0.00012376   -0.00048159   -0.00014447
     atom   36 type  2   force =     0.00015170   -0.00021381    0.00009382
     atom   37 type  1   force =    -0.00004675   -0.00011972    0.00006379
     atom   38 type  1   force =     0.00001909    0.00006287    0.00012823
     atom   39 type  2   force =    -0.00003392    0.00031109   -0.00022294
     atom   40 type  2   force =     0.00032437   -0.00007559    0.00019958
     atom   41 type  2   force =     0.00025199   -0.00021944   -0.00017527
     atom   42 type  2   force =    -0.00012852    0.00012383    0.00010286
     atom   43 type  1   force =     0.00019893   -0.00060248    0.00065049
     atom   44 type  1   force =    -0.00032272    0.00008535   -0.00054972
     atom   45 type  2   force =     0.00006808   -0.00000128    0.10128598
     atom   46 type  2   force =    -0.07491849   -0.00001311   -0.02883467
     atom   47 type  2   force =     0.07483396    0.00041498   -0.02886170
     atom   48 type  3   force =    -0.00043695   -0.00007647    0.00125876
     atom   49 type  4   force =    -0.00019110    0.00004827   -0.00070621
     atom   50 type  5   force =    -0.00051743   -0.00044725    0.00010560
     atom   51 type  5   force =     0.00175440   -0.00067715   -0.00010049
     atom   52 type  2   force =     0.00048325    0.00070481    0.00196385
     atom   53 type  5   force =    -0.00010624   -0.00048356   -0.00137832

     Total force =     0.369732     Total SCF correction =     0.000688
  @ DRIVER MODE: Message from server: STATUS
  @ DRIVER MODE: Message from server: GETFORCE
  @ DRIVER MODE: Returning v,forces,stress,ensemble

     Writing output data file ./calc.save/
  @ DRIVER MODE: Message from server: EXIT
  @ DRIVE MODE: Exiting

     General routines

     Parallel routines

   This run was terminated on:   0:58:49  23Sep2021

   JOB DONE.