     Program PWSCF v.6.7GPU starts on 15Jul2021 at 18:24:14

     R & G space division:  proc/nbgrp/npool/nimage =      16
     Reading input from /storage/home/hcoda1/3/ntian30/research/carbon/15Jul_vib/ads_slab/CH3NH2_a/out_0001/pw.inp
Warning: card &CELL ignored
Warning: card   CELL_DYNAMICS='IPI', ignored
Warning: card / ignored

     Current dimensions of program PWSCF are:
     Max number of different atomic species (ntypx) = 10
     Max number of k-points (npk) =  40000
     Max angular momentum in pseudopotentials (lmaxx) =  3
     Presently no symmetry can be used with electric field

     Message from routine cell_base_init:
     DEPRECATED: use true lattice parameter, not A to a.u. conversion factor

     IMPORTANT: XC functional enforced from input :
     Exchange-correlation= BEEF-VDW
                           (   1   4  43  14   2   0   0)
     Any further DFT definition will be discarded
     Please, verify this is what you really want

  @ DRIVER MODE: Connecting to
 qe_1139763_2351647.sched-torque.pace.gatech.edujqk7e1qg_scratch
  using UNIX socket
  @ DRIVER MODE: Message from server: STATUS
  @ DRIVER MODE: Message from server: INIT
  @ DRIVER MODE: Receiving replica           0          -1
  @ DRIVER MODE: Receiving encoded integer          25
  @ DRIVER MODE:  SCF:  T  FORCE:  T  STRESS:  F  VC:  F  ENSEMBLE:  F
  @ DRIVER MODE:  SCF:  T  FORCE:  T  STRESS:  F  VC:  F  ENSEMBLE:  F

     Using Slab Decomposition

     bravais-lattice index     =            0
     lattice parameter (alat)  =       1.8897  a.u.
     unit-cell volume          =    6658.9804 (a.u.)^3
     number of atoms/cell      =           54
     number of atomic types    =            5
     number of electrons       =       392.00
     number of Kohn-Sham states=          206
     kinetic-energy cutoff     =      29.3995  Ry
     charge density cutoff     =     293.9946  Ry
     scf convergence threshold =      7.3E-08
     mixing beta               =       0.0500
     number of iterations used =            8  plain     mixing
     Exchange-correlation= BEEF-VDW
                           (   1   4  43  14   2   0   0)

     celldm(1)=   1.889726  celldm(2)=   0.000000  celldm(3)=   0.000000
     celldm(4)=   0.000000  celldm(5)=   0.000000  celldm(6)=   0.000000

     crystal axes: (cart. coord. in units of alat)
               a(1) = (   6.579727   0.000000   0.000000 )
               a(2) = (  -0.000775   5.961596   0.000000 )
               a(3) = (   0.000000   0.000000  25.155947 )

     reciprocal axes: (cart. coord. in units 2 pi/alat)
               b(1) = (  0.151982  0.000020  0.000000 )
               b(2) = (  0.000000  0.167740  0.000000 )
               b(3) = (  0.000000  0.000000  0.039752 )

     PseudoPot. # 1 for Ti read from file:
     /storage/coda1/p-amedford6/0/shared/rich_project_chbe-medford/medford-share/data/pseudos_module/espresso/nninc/pbe/van/Ti.UPF
     MD5 check sum: 8e4df49b7f0d34bbd5052bf3f5ea0213
     Pseudo is Ultrasoft, Zval = 12.0
     Generated by new atomic code, or converted to UPF format
     Using radial grid of  851 points,  6 beta functions with:
                l(1) =   0
                l(2) =   0
                l(3) =   1
                l(4) =   1
                l(5) =   2
                l(6) =   2
     Q(r) pseudized with  8 coefficients,  rinner =    1.000   1.000   1.000
                                                       1.000   1.000

     PseudoPot. # 2 for O  read from file:
     /storage/coda1/p-amedford6/0/shared/rich_project_chbe-medford/medford-share/data/pseudos_module/espresso/nninc/pbe/van/O.UPF
     MD5 check sum: 78c19812648e8988a0fe644b0f25305e
     Pseudo is Ultrasoft, Zval =  6.0
     Generated by new atomic code, or converted to UPF format
     Using radial grid of  737 points,  4 beta functions with:
                l(1) =   0
                l(2) =   0
                l(3) =   1
                l(4) =   1
     Q(r) pseudized with  8 coefficients,  rinner =    0.800   0.800   0.800

     PseudoPot. # 3 for H  read from file:
     /storage/coda1/p-amedford6/0/shared/rich_project_chbe-medford/medford-share/data/pseudos_module/espresso/nninc/pbe/van/H.UPF
     MD5 check sum: b5ee9d7bfd3a09ee7748110bda690ff7
     Pseudo is Ultrasoft, Zval =  1.0
     Generated by new atomic code, or converted to UPF format
     Using radial grid of  615 points,  1 beta functions with:
                l(1) =   0
     Q(r) pseudized with  8 coefficients,  rinner =    0.800

     PseudoPot. # 4 for N  read from file:
     /storage/coda1/p-amedford6/0/shared/rich_project_chbe-medford/medford-share/data/pseudos_module/espresso/nninc/pbe/van/N.UPF
     MD5 check sum: 90d10febe142ad51ac9d5be1deb811c4
     Pseudo is Ultrasoft, Zval =  5.0
     Generated by new atomic code, or converted to UPF format
     Using radial grid of  729 points,  4 beta functions with:
                l(1) =   0
                l(2) =   0
                l(3) =   1
                l(4) =   1
     Q(r) pseudized with  8 coefficients,  rinner =    0.800   0.800   0.800

     PseudoPot. # 5 for C  read from file:
     /storage/coda1/p-amedford6/0/shared/rich_project_chbe-medford/medford-share/data/pseudos_module/espresso/nninc/pbe/van/C.UPF
     MD5 check sum: 1a69bf6b8db32088f5b2163dbdb77a27
     Pseudo is Ultrasoft, Zval =  4.0
     Generated by new atomic code, or converted to UPF format
     Using radial grid of  721 points,  4 beta functions with:
                l(1) =   0
                l(2) =   0
                l(3) =   1
                l(4) =   1
     Q(r) pseudized with  8 coefficients,  rinner =    0.800   0.800   0.800

     atomic species   valence    mass     pseudopotential
        Ti1           12.00    47.86700     Ti( 1.00)
        O1             6.00    15.99900     O ( 1.00)
        H1             1.00     1.00800     H ( 1.00)
        N1             5.00    14.00700     N ( 1.00)
        C1             4.00    12.01100     C ( 1.00)

     Starting magnetic structure
     atomic species   magnetization
        Ti1          0.000
        O1           0.000
        H1           0.000
        N1           0.000
        C1           0.025

     No symmetry found

   Cartesian axes

     site n.     atom                  positions (alat units)
         1           Ti1 tau(   1) = (   0.0004258   2.9801865   6.0000000  )
         2           Ti1 tau(   2) = (   3.2906075   1.4906267   6.0002472  )
         3           O1  tau(   3) = (   0.0006271   0.0005054   7.9858123  )
         4           O1  tau(   4) = (   3.2906025   0.0005020   7.3038282  )
         5           O1  tau(   5) = (   4.5942328   1.4918067   9.2879030  )
         6           O1  tau(   6) = (   1.9868534   1.4903216   9.2879459  )
         7           Ti1 tau(   7) = (   3.2907910   2.8959150   9.1758416  )
         8           Ti1 tau(   8) = (   0.0015273   1.4827037   9.2680791  )
         9           O1  tau(   9) = (   3.2764298   0.0032354  11.3770789  )
        10           O1  tau(  10) = (   0.0116148   5.9584955  10.6183126  )
        11           O1  tau(  11) = (   1.2747638   1.4931710  12.6971893  )
        12           O1  tau(  12) = (   5.2817712   1.4903522  12.6806618  )
        13           Ti1 tau(  13) = (   6.5676529   2.9732189  12.5062122  )
        14           Ti1 tau(  14) = (   3.2766800   1.4809802  12.5336434  )
        15           O1  tau(  15) = (   6.5470194   5.8867849  14.7036171  )
        16           O1  tau(  16) = (   3.2776651   5.9556151  14.0032320  )
        17           O1  tau(  17) = (   4.5091997   1.5331545  16.1660716  )
        18           O1  tau(  18) = (   1.9944719   1.5276542  16.1393230  )
        19           Ti1 tau(  19) = (   3.2573122   3.0077756  15.7593658  )
        20           Ti1 tau(  20) = (   6.5589466   1.3143649  15.8680718  )
        21           O1  tau(  21) = (   3.2904802   0.0005063   4.7018136  )
        22           O1  tau(  22) = (   6.5386106   0.1512346  17.2501133  )
        23           O1  tau(  23) = (   1.3043587   1.4918075   6.0039043  )
        24           O1  tau(  24) = (   5.2767064   1.4903225   6.0039473  )
        25           Ti1 tau(  25) = (   0.0000382   5.9609847   6.0000000  )
        26           Ti1 tau(  26) = (   3.2902200   4.4714249   6.0002472  )
        27           O1  tau(  27) = (   0.0002396   2.9813036   7.9858123  )
        28           O1  tau(  28) = (   3.2902150   2.9813002   7.3038282  )
        29           O1  tau(  29) = (   4.5938453   4.4726049   9.2879030  )
        30           O1  tau(  30) = (   1.9864658   4.4711199   9.2879459  )
        31           Ti1 tau(  31) = (   3.2891106   5.8743827   9.1763621  )
        32           Ti1 tau(  32) = (   0.0006254   4.4649316   9.2693709  )
        33           O1  tau(  33) = (   3.2800745   2.9703478  11.3709363  )
        34           O1  tau(  34) = (   0.0092240   2.9805883  10.6323155  )
        35           O1  tau(  35) = (   1.2777299   4.4606407  12.6608526  )
        36           O1  tau(  36) = (   5.2778393   4.4632610  12.6460003  )
        37           Ti1 tau(  37) = (   6.5690533   5.9429793  12.5031582  )
        38           Ti1 tau(  38) = (   3.2786254   4.4589551  12.5214668  )
        39           O1  tau(  39) = (   6.5354733   3.0384833  14.9766919  )
        40           O1  tau(  40) = (   3.2791638   3.0036098  13.9700814  )
        41           O1  tau(  41) = (   4.4983502   4.4848413  16.2456934  )
        42           O1  tau(  42) = (   1.9866127   4.4820094  16.2221982  )
        43           Ti1 tau(  43) = (   3.2666378   0.0261420  15.7997788  )
        44           Ti1 tau(  44) = (   6.5668271   4.5279224  16.0664899  )
        45           O1  tau(  45) = (   3.2900926   2.9813045   4.7018136  )
        46           O1  tau(  46) = (   1.3039711   4.4726057   6.0039043  )
        47           O1  tau(  47) = (   5.2763189   4.4711207   6.0039473  )
        48           H1  tau(  48) = (   5.7154277   4.1132278  18.4743583  )
        49           H1  tau(  49) = (   5.8544422   2.5125186  18.2095680  )
        50           N1  tau(  50) = (   6.3703568   3.3906518  18.1617682  )
        51           C1  tau(  51) = (   0.9530889   3.3347298  19.0741625  )
        52           H1  tau(  52) = (   1.4659278   4.2935310  19.0402106  )
        53           H1  tau(  53) = (   0.6569204   3.1189037  20.1036144  )
        54           H1  tau(  54) = (   1.6325849   2.5561260  18.7331930  )

     number of k points=    10  Fermi-Dirac smearing, width (Ry)=  0.0073
                       cart. coord. in units 2pi/alat
        k(    1) = (   0.0000000   0.0000000   0.0000000), wk =   0.0625000
        k(    2) = (   0.0000000   0.0419351   0.0000000), wk =   0.1250000
        k(    3) = (   0.0000000  -0.0838702   0.0000000), wk =   0.0625000
        k(    4) = (   0.0379955   0.0000049   0.0000000), wk =   0.1250000
        k(    5) = (   0.0379955   0.0419400   0.0000000), wk =   0.1250000
        k(    6) = (   0.0379955  -0.0838652   0.0000000), wk =   0.1250000
        k(    7) = (   0.0379955  -0.0419301   0.0000000), wk =   0.1250000
[...]
        k(    9) = (  -0.0759910   0.0419252   0.0000000), wk =   0.1250000
        k(   10) = (  -0.0759910  -0.0838800   0.0000000), wk =   0.0625000

     Initial potential from superposition of free atoms

     starting charge  375.99915, renormalised to  392.00000

     negative rho (up, down):  8.113E-03 8.119E-03

     %%%%%%%%%%%%%%%%%%%%%%%%%%%%%%%%%%%%%%%%%%%%%%%%%%%%%%%%%%%%%%%%%%%%%%%%
     %                                                                      %
     % You are using vdW-DF, which was implemented by the Thonhauser group. %
     % Please cite the following two papers that made this development      %
     % possible and the two reviews that describe the various versions:     %
     %                                                                      %
     %   T. Thonhauser et al., PRL 115, 136402 (2015).                      %
     %   T. Thonhauser et al., PRB 76, 125112 (2007).                       %
     %   K. Berland et al., Rep. Prog. Phys. 78, 066501 (2015).             %
     %   D.C. Langreth et al., J. Phys.: Condens. Matter 21, 084203 (2009). %
     %                                                                      %
     %                                                                      %
     % If you are calculating the stress with vdW-DF, please also cite:     %
     %                                                                      %
     %   R. Sabatini et al., J. Phys.: Condens. Matter 24, 424209 (2012).   %
     %                                                                      %
     %%%%%%%%%%%%%%%%%%%%%%%%%%%%%%%%%%%%%%%%%%%%%%%%%%%%%%%%%%%%%%%%%%%%%%%%

     Adding external electric field

     Computed dipole along edir(3) :
        Dipole               -7.5680 Ry au,        -19.2360 Debye
        Dipole field         -0.0143 Ry au,

        Potential amp.        1.3239 Ry
        Total length         46.3494 bohr

[...]

     Starting wfcs are  297 atomic wfcs
  @ DRIVER MODE: Message from server: STATUS
  @ DRIVER MODE: Message from server: POSDATA
  @ DRIVER MODE: Reading and sharing cell
  @ DRIVER MODE: Reading and sharing positions
  @ DRIVER MODE: Received positions

     Self-consistent Calculation

     iteration #  1     ecut=    29.40 Ry     beta= 0.05
     Davidson diagonalization with overlap
     c_bands:  1 eigenvalues not converged
     c_bands:  2 eigenvalues not converged
     c_bands:  1 eigenvalues not converged
     c_bands:  1 eigenvalues not converged
     c_bands:  1 eigenvalues not converged
     c_bands:  1 eigenvalues not converged
     c_bands:  1 eigenvalues not converged
     c_bands:  2 eigenvalues not converged
     c_bands:  1 eigenvalues not converged
     c_bands:  1 eigenvalues not converged
     c_bands:  1 eigenvalues not converged
     c_bands:  1 eigenvalues not converged
     ethr =  1.00E-05,  avg # of iterations = 19.6

[...]

     total energy              =   -2678.28570266 Ry
     estimated scf accuracy    <    2693.39332722 Ry

     total magnetization       =     0.00 Bohr mag/cell
     absolute magnetization    =     0.01 Bohr mag/cell

[...]

     iteration #  3     ecut=    29.40 Ry     beta= 0.05
     Davidson diagonalization with overlap
     ethr =  1.00E-02,  avg # of iterations = 15.0

[...]

     iteration # 82     ecut=    29.40 Ry     beta= 0.05
     Davidson diagonalization with overlap
     ethr =  3.36E-11,  avg # of iterations =  9.8

[...]

     total energy              =   -2921.63343029 Ry
     estimated scf accuracy    <       0.00000008 Ry

[...]

     iteration # 83     ecut=    29.40 Ry     beta= 0.05
     Davidson diagonalization with overlap
     c_bands:  2 eigenvalues not converged
     ethr =  1.99E-11,  avg # of iterations = 12.3

     negative rho (up, down):  8.554E-03 8.557E-03

[...]

     Adding external electric field

     Computed dipole along edir(3) :
        Dipole                1.3073 Ry au,          3.3227 Debye
        Dipole field          0.0025 Ry au,

        Potential amp.       -0.2287 Ry
        Total length         46.3494 bohr

     Magnetic moment per site  (integrated on atomic sphere of radius R)
     atom   1 (R=0.738)  charge=  8.0465  magn=  0.0003
     atom   2 (R=0.738)  charge=  8.0283  magn=  0.0000
     atom   3 (R=0.738)  charge=  5.0153  magn= -0.0002
     atom   4 (R=0.738)  charge=  5.0522  magn= -0.0001
     atom   5 (R=0.738)  charge=  5.0214  magn= -0.0002
     atom   6 (R=0.738)  charge=  5.0219  magn= -0.0002
     atom   7 (R=0.738)  charge=  8.0284  magn=  0.0006
     atom   8 (R=0.738)  charge=  8.0296  magn=  0.0023
     atom   9 (R=0.738)  charge=  5.0288  magn= -0.0004
     atom  10 (R=0.738)  charge=  5.0292  magn= -0.0002
     atom  11 (R=0.738)  charge=  5.0169  magn= -0.0003
     atom  12 (R=0.738)  charge=  5.0160  magn= -0.0003
     atom  13 (R=0.738)  charge=  8.0365  magn=  0.0016
     atom  14 (R=0.738)  charge=  8.0338  magn=  0.0033
     atom  15 (R=0.738)  charge=  5.0279  magn= -0.0000
     atom  16 (R=0.738)  charge=  5.0249  magn= -0.0009
     atom  17 (R=0.738)  charge=  5.0031  magn= -0.0008
     atom  18 (R=0.738)  charge=  5.0056  magn= -0.0008
     atom  19 (R=0.738)  charge=  8.0664  magn=  0.0125
     atom  20 (R=0.738)  charge=  8.0804  magn=  0.0024
     atom  21 (R=0.738)  charge=  4.9002  magn=  0.0000
     atom  22 (R=0.738)  charge=  4.9790  magn= -0.0005
     atom  23 (R=0.738)  charge=  5.0126  magn=  0.0001
     atom  24 (R=0.738)  charge=  5.0127  magn=  0.0001
     atom  25 (R=0.738)  charge=  8.0466  magn=  0.0003
     atom  26 (R=0.738)  charge=  8.0283  magn=  0.0000
     atom  27 (R=0.738)  charge=  5.0151  magn= -0.0002
     atom  28 (R=0.738)  charge=  5.0526  magn= -0.0001
     atom  29 (R=0.738)  charge=  5.0223  magn= -0.0002
     atom  30 (R=0.738)  charge=  5.0226  magn= -0.0002
     atom  31 (R=0.738)  charge=  8.0286  magn=  0.0005
     atom  32 (R=0.738)  charge=  8.0297  magn=  0.0023
     atom  33 (R=0.738)  charge=  5.0280  magn= -0.0003
     atom  34 (R=0.738)  charge=  5.0267  magn= -0.0002
     atom  35 (R=0.738)  charge=  5.0201  magn= -0.0003
     atom  36 (R=0.738)  charge=  5.0197  magn= -0.0003
     atom  37 (R=0.738)  charge=  8.0323  magn=  0.0019
     atom  38 (R=0.738)  charge=  8.0346  magn=  0.0035
     atom  39 (R=0.738)  charge=  5.0089  magn= -0.0004
     atom  40 (R=0.738)  charge=  5.0372  magn= -0.0009
     atom  41 (R=0.738)  charge=  5.0005  magn= -0.0010
     atom  42 (R=0.738)  charge=  5.0042  magn= -0.0010
     atom  43 (R=0.738)  charge=  8.0648  magn=  0.0127
     atom  44 (R=0.738)  charge=  8.0444  magn=  0.0058
     atom  45 (R=0.738)  charge=  4.9002  magn= -0.0001
     atom  46 (R=0.738)  charge=  5.0126  magn=  0.0001
     atom  47 (R=0.738)  charge=  5.0127  magn=  0.0001
     atom  48 (R=0.421)  charge=  0.4475  magn=  0.0000
     atom  49 (R=0.421)  charge=  0.4526  magn=  0.0000
     atom  50 (R=0.421)  charge=  1.3444  magn= -0.0001
     atom  51 (R=0.449)  charge=  0.8458  magn=  0.0000
     atom  52 (R=0.421)  charge=  0.4461  magn= -0.0000
     atom  53 (R=0.421)  charge=  0.4482  magn= -0.0000
     atom  54 (R=0.421)  charge=  0.4460  magn= -0.0000

     End of self-consistent calculation

 ------ SPIN UP ------------

          k = 0.0000 0.0000 0.0000 ( 18029 PWs)   bands (ev):

   -55.4316 -55.3943 -55.3786 -55.3571 -55.3445 -55.3185 -55.3086 -55.2743
   -55.2496 -55.2418 -55.2152 -55.2122 -55.1786 -55.1013 -54.4092 -54.3752
   -31.9987 -31.8832 -31.8710 -31.7958 -31.7464 -31.7441 -31.7388 -31.7181
   -31.6717 -31.6676 -31.6416 -31.6400 -31.6238 -31.6164 -31.6007 -31.5981
   -31.5859 -31.5748 -31.5679 -31.5463 -31.5310 -31.5300 -31.5076 -31.4924
   -31.4856 -31.4801 -31.4746 -31.4519 -31.4387 -31.4356 -31.4305 -31.4159
   -31.4117 -31.4103 -31.3994 -31.3965 -31.3632 -31.3621 -31.3408 -31.3236
   -31.3084 -31.2895 -30.8184 -30.7241 -30.7021 -30.6348 -30.5480 -30.4371
   -16.2784 -16.1428 -15.9701 -15.8192 -15.7359 -15.6272 -15.5079 -15.4891
   -15.3575 -15.2795 -15.1539 -15.1276 -15.0990 -15.0828 -15.0720 -15.0590
   -14.9734 -14.9676 -14.9518 -14.9226 -14.9219 -14.8761 -14.8670 -14.8260
   -14.8029 -14.7923 -14.6772 -14.5879 -14.5150 -14.2707 -12.9116 -12.7942
   -10.2189  -6.2445  -4.8332  -3.9481  -3.6002  -3.4486  -3.3558  -3.3272
    -3.3200  -3.1843  -3.0325  -2.8832  -2.8352  -2.8313  -2.7128  -2.6392
    -2.6284  -2.6088  -2.4559  -2.4250  -2.3764  -2.3302  -2.2883  -2.2374
    -2.2192  -2.2097  -2.1938  -2.1704  -2.1597  -2.0502  -1.9951  -1.9097
    -1.8532  -1.8293  -1.7798  -1.7635  -1.7372  -1.7180  -1.7084  -1.6617
    -1.6366  -1.6221  -1.5686  -1.4559  -1.3512  -1.3012  -1.1817  -1.0660
    -1.0277  -1.0135  -0.9621  -0.9241  -0.9127  -0.8429  -0.8054  -0.7747
    -0.7113  -0.6593  -0.5905  -0.5419  -0.4753  -0.4588  -0.4160  -0.3531
    -0.2456  -0.2101  -0.1951  -0.1666  -0.0709  -0.0386   0.0115   0.0921
     0.0976   0.1106   0.2142   0.2288   0.3004   0.3497   0.3675   0.4532
     0.4876   0.5027   0.5062   0.5327   0.5569   0.6125   0.6453   0.6733
     0.7483   0.8722   1.0949   1.1649   1.1838   1.5097   1.5189   1.6137
     1.7971   2.1899   2.2381   3.6667   3.7354   3.8147   3.8195   3.8214
     3.9056   4.1416   4.1621   4.1750   4.1763   4.1974

[...]

          k =-0.0760-0.0000 0.0000 ( 17886 PWs)   bands (ev):

[...]

 ------ SPIN DOWN ----------

[...]

          k = 0.0380-0.0419 0.0000 ( 17876 PWs)   bands (ev):

[...]

          k =-0.0760-0.0839 0.0000 ( 17948 PWs)   bands (ev):

   -55.4122 -55.4019 -55.3617 -55.3612 -55.3453 -55.2928 -55.2893 -55.2875
   -55.2325 -55.2284 -55.2239 -55.1918 -55.1910 -55.0982 -54.3923 -54.3920
   -31.8021 -31.7951 -31.7946 -31.7042 -31.6864 -31.6860 -31.6819 -31.6526
   -31.6523 -31.6354 -31.6284 -31.6221 -31.6140 -31.5911 -31.5742 -31.5681
   -31.5650 -31.5608 -31.5580 -31.5508 -31.5485 -31.5441 -31.5056 -31.5018
   -31.4942 -31.4913 -31.4887 -31.4821 -31.4814 -31.4809 -31.4784 -31.4657
   -31.4617 -31.4453 -31.4413 -31.4256 -31.4226 -31.4106 -31.3720 -31.3717
   -31.3642 -31.3074 -30.7149 -30.7147 -30.6310 -30.6308 -30.5915 -30.5913
   -16.1089 -15.7630 -15.6766 -15.6289 -15.4650 -15.4322 -15.4115 -15.3943
   -15.2636 -15.2373 -15.2130 -15.1953 -15.1731 -15.1365 -15.1309 -15.1257
   -15.0496 -15.0335 -15.0288 -15.0106 -14.9479 -14.9383 -14.9352 -14.9281
   -14.8772 -14.8735 -14.8081 -14.7814 -14.7783 -14.5609 -12.8958 -12.8955
   -10.2226  -6.2166  -4.8289  -3.9109  -2.9462  -2.9148  -2.8815  -2.8782
    -2.6802  -2.6298  -2.5964  -2.5693  -2.4803  -2.4455  -2.4210  -2.4181
    -2.3467  -2.3283  -2.3114  -2.2702  -2.2635  -2.2490  -2.2265  -2.1898
    -2.1633  -2.1544  -2.1478  -2.1246  -2.0807  -2.0674  -2.0503  -2.0261
    -2.0223  -2.0117  -1.9841  -1.9360  -1.8099  -1.8008  -1.7256  -1.6361
    -1.6312  -1.5550  -1.5388  -1.4914  -1.4743  -1.4608  -1.4188  -1.2349
    -1.1974  -1.1755  -1.1654  -1.0975  -1.0371  -1.0216  -0.9482  -0.9323
    -0.9158  -0.8074  -0.7601  -0.7490  -0.6570  -0.6467  -0.5686  -0.5086
    -0.4548  -0.4344  -0.3929  -0.3838  -0.3807  -0.3354  -0.3280  -0.2424
    -0.1982  -0.1625  -0.1489  -0.1152   0.0860   0.0914   0.1142   0.2575
     0.2898   0.4133   0.4459   0.4987   0.5744   0.6077   0.6832   0.7180
     0.8514   0.8781   0.8790   0.9507   0.9600   1.0240   1.0336   1.9701
     1.9708   2.0580   2.0585   3.8381   3.9190   3.9358   3.9751   4.0911
     4.1649   4.1873   4.2094   4.2549   4.2581   4.3202

     the Fermi energy is     3.7333 ev

!    total energy              =   -2921.63343499 Ry
     estimated scf accuracy    <       0.00000006 Ry
     smearing contrib. (-TS)   =      -0.03703062 Ry
     internal energy E=F+TS    =   -2921.59640438 Ry

     The total energy is F=E-TS. E is the sum of the following terms:
     one-electron contribution =  -23999.82846999 Ry
     hartree contribution      =   12089.06722812 Ry
     xc contribution           =    -481.73112052 Ry
     ewald contribution        =    9470.89273301 Ry
     electric field correction =       0.00322500 Ry

     total magnetization       =     0.07 Bohr mag/cell
     absolute magnetization    =     0.09 Bohr mag/cell

     convergence has been achieved in  83 iterations

     Forces acting on atoms (cartesian axes, Ry/au):

     atom    1 type  1   force =     0.00019504   -0.00022251    0.09322794
     atom    2 type  1   force =    -0.00003638   -0.00042300   -0.17832596
     atom    3 type  2   force =     0.00007979   -0.00040273   -0.02017325
     atom    4 type  2   force =     0.00001495   -0.00194847    0.05891074
     atom    5 type  2   force =    -0.01033127   -0.00094777    0.00824341
     atom    6 type  2   force =     0.01151733   -0.00018225    0.00657894
     atom    7 type  1   force =    -0.00063218    0.00207597   -0.01451948
     atom    8 type  1   force =     0.00067791   -0.00094116   -0.00514722
     atom    9 type  2   force =     0.00014061    0.00031822    0.00007620
     atom   10 type  2   force =    -0.00249334    0.00189120    0.00100393
     atom   11 type  2   force =    -0.00016049    0.00004052    0.00029013
     atom   12 type  2   force =     0.00001848    0.00030414    0.00017967
     atom   13 type  1   force =    -0.00002270    0.00006762    0.00007418
     atom   14 type  1   force =     0.00005988   -0.00002898    0.00014127
     atom   15 type  2   force =     0.00006879   -0.00019611   -0.00005624
     atom   16 type  2   force =     0.00034596    0.00000309   -0.00005374
     atom   17 type  2   force =     0.00007975   -0.00036220    0.00008354
     atom   18 type  2   force =     0.00006840    0.00000472    0.00000557
     atom   19 type  1   force =     0.00042907   -0.00004772    0.00044915
     atom   20 type  1   force =     0.00030346    0.00041652    0.00040344
     atom   21 type  2   force =     0.00014221   -0.00008999    0.10395159
     atom   22 type  2   force =     0.00013980    0.00068320    0.00043322
     atom   23 type  2   force =    -0.07031977   -0.00019278   -0.02691442
     atom   24 type  2   force =     0.07033270    0.00026803   -0.02694541
     atom   25 type  1   force =     0.00013896   -0.00018565    0.09281344
     atom   26 type  1   force =    -0.00005485   -0.00052872   -0.17835426
     atom   27 type  2   force =     0.00011663   -0.00026012   -0.01924266
     atom   28 type  2   force =     0.00008585   -0.00171119    0.05822464
     atom   29 type  2   force =    -0.01083062   -0.00099251    0.00881818
     atom   30 type  2   force =     0.01193633   -0.00068468    0.00713585
     atom   31 type  1   force =    -0.00065510    0.00611534   -0.01534096
     atom   32 type  1   force =     0.00081619    0.00035498   -0.00554496
     atom   33 type  2   force =    -0.00037757   -0.00032987    0.00016726
     atom   34 type  2   force =    -0.00223954   -0.00204080   -0.00002734
     atom   35 type  2   force =    -0.00073740    0.00026060    0.00034456
     atom   36 type  2   force =     0.00076534   -0.00010447   -0.00017722
     atom   37 type  1   force =     0.00003998    0.00021479    0.00003919
     atom   38 type  1   force =    -0.00029230    0.00023142    0.00051388
     atom   39 type  2   force =    -0.00037940   -0.00006085   -0.00005069
     atom   40 type  2   force =    -0.00006229   -0.00009053    0.00031732
     atom   41 type  2   force =    -0.00028271    0.00006135   -0.00007180
     atom   42 type  2   force =     0.00042909   -0.00018568   -0.00011549
     atom   43 type  1   force =    -0.00030166    0.00002737    0.00005301
     atom   44 type  1   force =     0.00046650   -0.00007059    0.00023867
     atom   45 type  2   force =     0.00012550   -0.00010999    0.10391712
     atom   46 type  2   force =    -0.07030396   -0.00011819   -0.02686426
     atom   47 type  2   force =     0.07029961    0.00029614   -0.02690028
     atom   48 type  3   force =     0.00765793   -0.00642957   -0.00224839
     atom   49 type  3   force =     0.00108303    0.00012355   -0.00116163
     atom   50 type  4   force =    -0.00771298    0.00548247    0.00201275
     atom   51 type  5   force =     0.00028416    0.00110994   -0.00030400
     atom   52 type  3   force =    -0.00002932   -0.00044526   -0.00002320
     atom   53 type  3   force =     0.00003745    0.00003045   -0.00008659
     atom   54 type  3   force =    -0.00064083   -0.00004732    0.00000066

     Total force =     0.366547     Total SCF correction =     0.000421
  @ DRIVER MODE: Message from server: STATUS
  @ DRIVER MODE: Message from server: GETFORCE
  @ DRIVER MODE: Returning v,forces,stress,ensemble

     Writing output data file ./calc.save/
  @ DRIVER MODE: Message from server: EXIT
  @ DRIVE MODE: Exiting

     General routines

     Parallel routines

   This run was terminated on:  20:31:56  15Jul2021

   JOB DONE.