     Program PWSCF v.6.7GPU starts on 23Sep2021 at 22:24:24

     R & G space division:  proc/nbgrp/npool/nimage =       8
     Reading input from /storage/home/hcoda1/3/ntian30/research/carbon/CxH_vib/H2O_calc/ads_slab/CH3ON2HO_a/out_0024/pw.inp
Warning: card &CELL ignored
Warning: card   CELL_DYNAMICS='IPI', ignored
Warning: card / ignored

     Current dimensions of program PWSCF are:
     Max number of different atomic species (ntypx) = 10
     Max number of k-points (npk) =  40000
     Max angular momentum in pseudopotentials (lmaxx) =  3
     Presently no symmetry can be used with electric field

     Message from routine cell_base_init:
     DEPRECATED: use true lattice parameter, not A to a.u. conversion factor

     IMPORTANT: XC functional enforced from input :
     Exchange-correlation= BEEF-VDW
                           (   1   4  43  14   2   0   0)
     Any further DFT definition will be discarded
     Please, verify this is what you really want

  @ DRIVER MODE: Connecting to
 qe_1139763_2947306.sched-torque.pace.gatech.edu6jcgovhx_scratch
  using UNIX socket
  @ DRIVER MODE: Message from server: STATUS
  @ DRIVER MODE: Message from server: INIT
  @ DRIVER MODE: Receiving replica           0          -1
  @ DRIVER MODE: Receiving encoded integer          25
  @ DRIVER MODE:  SCF:  T  FORCE:  T  STRESS:  F  VC:  F  ENSEMBLE:  F
  @ DRIVER MODE:  SCF:  T  FORCE:  T  STRESS:  F  VC:  F  ENSEMBLE:  F

     Using Slab Decomposition

     bravais-lattice index     =            0
     lattice parameter (alat)  =       1.8897  a.u.
     unit-cell volume          =    6658.9804 (a.u.)^3
     number of atoms/cell      =           56
     number of atomic types    =            5
     number of electrons       =       408.00
     number of Kohn-Sham states=          214
     kinetic-energy cutoff     =      29.3995  Ry
     charge density cutoff     =     293.9946  Ry
     scf convergence threshold =      7.3E-08
     mixing beta               =       0.0500
     number of iterations used =            8  plain     mixing
     Exchange-correlation= BEEF-VDW
                           (   1   4  43  14   2   0   0)

     celldm(1)=   1.889726  celldm(2)=   0.000000  celldm(3)=   0.000000
     celldm(4)=   0.000000  celldm(5)=   0.000000  celldm(6)=   0.000000

     crystal axes: (cart. coord. in units of alat)
               a(1) = (   6.579727   0.000000   0.000000 )
               a(2) = (  -0.000775   5.961596   0.000000 )
               a(3) = (   0.000000   0.000000  25.155947 )

     reciprocal axes: (cart. coord. in units 2 pi/alat)
               b(1) = (  0.151982  0.000020  0.000000 )
               b(2) = (  0.000000  0.167740  0.000000 )
               b(3) = (  0.000000  0.000000  0.039752 )

     PseudoPot. # 1 for Ti read from file:
     /storage/coda1/p-amedford6/0/shared/rich_project_chbe-medford/medford-share/data/pseudos_module/espresso/nninc/pbe/van/Ti.UPF
     MD5 check sum: 8e4df49b7f0d34bbd5052bf3f5ea0213
     Pseudo is Ultrasoft, Zval = 12.0
     Generated by new atomic code, or converted to UPF format
     Using radial grid of  851 points,  6 beta functions with:
                l(1) =   0
                l(2) =   0
                l(3) =   1
                l(4) =   1
                l(5) =   2
                l(6) =   2
     Q(r) pseudized with  8 coefficients,  rinner =    1.000   1.000   1.000
                                                       1.000   1.000

     PseudoPot. # 2 for O  read from file:
     /storage/coda1/p-amedford6/0/shared/rich_project_chbe-medford/medford-share/data/pseudos_module/espresso/nninc/pbe/van/O.UPF
     MD5 check sum: 78c19812648e8988a0fe644b0f25305e
     Pseudo is Ultrasoft, Zval =  6.0
     Generated by new atomic code, or converted to UPF format
     Using radial grid of  737 points,  4 beta functions with:
                l(1) =   0
                l(2) =   0
                l(3) =   1
                l(4) =   1
     Q(r) pseudized with  8 coefficients,  rinner =    0.800   0.800   0.800

     PseudoPot. # 3 for C  read from file:
     /storage/coda1/p-amedford6/0/shared/rich_project_chbe-medford/medford-share/data/pseudos_module/espresso/nninc/pbe/van/C.UPF
     MD5 check sum: 1a69bf6b8db32088f5b2163dbdb77a27
     Pseudo is Ultrasoft, Zval =  4.0
     Generated by new atomic code, or converted to UPF format
     Using radial grid of  721 points,  4 beta functions with:
                l(1) =   0
                l(2) =   0
                l(3) =   1
                l(4) =   1
     Q(r) pseudized with  8 coefficients,  rinner =    0.800   0.800   0.800

     PseudoPot. # 4 for H  read from file:
     /storage/coda1/p-amedford6/0/shared/rich_project_chbe-medford/medford-share/data/pseudos_module/espresso/nninc/pbe/van/H.UPF
     MD5 check sum: b5ee9d7bfd3a09ee7748110bda690ff7
     Pseudo is Ultrasoft, Zval =  1.0
     Generated by new atomic code, or converted to UPF format
     Using radial grid of  615 points,  1 beta functions with:
                l(1) =   0
     Q(r) pseudized with  8 coefficients,  rinner =    0.800

     PseudoPot. # 5 for N  read from file:
     /storage/coda1/p-amedford6/0/shared/rich_project_chbe-medford/medford-share/data/pseudos_module/espresso/nninc/pbe/van/N.UPF
     MD5 check sum: 90d10febe142ad51ac9d5be1deb811c4
     Pseudo is Ultrasoft, Zval =  5.0
     Generated by new atomic code, or converted to UPF format
     Using radial grid of  729 points,  4 beta functions with:
                l(1) =   0
                l(2) =   0
                l(3) =   1
                l(4) =   1
     Q(r) pseudized with  8 coefficients,  rinner =    0.800   0.800   0.800

     atomic species   valence    mass     pseudopotential
        Ti1           12.00    47.86700     Ti( 1.00)
        O1             6.00    15.99900     O ( 1.00)
        C1             4.00    12.01100     C ( 1.00)
        H1             1.00     1.00800     H ( 1.00)
        N1             5.00    14.00700     N ( 1.00)

     No symmetry found

   Cartesian axes

     site n.     atom                  positions (alat units)
         1           Ti1 tau(   1) = (   0.0004258   2.9801865   6.0000000  )
         2           Ti1 tau(   2) = (   3.2906075   1.4906267   6.0002472  )
         3           O1  tau(   3) = (   0.0006271   0.0005054   7.9858123  )
         4           O1  tau(   4) = (   3.2906025   0.0005020   7.3038282  )
         5           O1  tau(   5) = (   4.5942328   1.4918067   9.2879030  )
         6           O1  tau(   6) = (   1.9868534   1.4903216   9.2879459  )
         7           Ti1 tau(   7) = (   3.3138730   3.1023225   9.2183157  )
         8           Ti1 tau(   8) = (   0.0392070   1.5780841   9.3433077  )
         9           O1  tau(   9) = (   3.2868017   0.0212601  11.3135411  )
        10           O1  tau(  10) = (   0.0022550   0.0140515  10.5858881  )
        11           O1  tau(  11) = (   1.2767464   1.5002397  12.6205121  )
        12           O1  tau(  12) = (   5.2993684   1.4943797  12.6172415  )
        13           Ti1 tau(  13) = (   0.0200588   3.0780815  12.7918821  )
        14           Ti1 tau(  14) = (   3.2574684   1.5637424  12.4212484  )
        15           O1  tau(  15) = (   6.5768379   0.0158506  14.6682411  )
        16           O1  tau(  16) = (   3.2886937   5.9311801  13.9109749  )
        17           O1  tau(  17) = (   4.5620935   1.5260772  16.0398494  )
        18           O1  tau(  18) = (   2.0292830   1.5431627  16.0187044  )
        19           Ti1 tau(  19) = (   3.3027642   2.9567202  15.6520962  )
        20           Ti1 tau(  20) = (   0.0552782   1.4362356  15.9688716  )
        21           O1  tau(  21) = (   3.2904802   0.0005063   4.7018136  )
        22           O1  tau(  22) = (   0.0488089   0.0211857  17.1900833  )
        23           O1  tau(  23) = (   1.3043587   1.4918075   6.0039043  )
        24           O1  tau(  24) = (   5.2767064   1.4903225   6.0039473  )
        25           Ti1 tau(  25) = (   0.0000382   5.9609847   6.0000000  )
        26           Ti1 tau(  26) = (   3.2902200   4.4714249   6.0002472  )
        27           O1  tau(  27) = (   0.0002396   2.9813036   7.9858123  )
        28           O1  tau(  28) = (   3.2902150   2.9813002   7.3038282  )
        29           O1  tau(  29) = (   4.5938453   4.4726049   9.2879030  )
        30           O1  tau(  30) = (   1.9864658   4.4711199   9.2879459  )
        31           Ti1 tau(  31) = (   3.3219941   0.1169887   9.1790125  )
        32           Ti1 tau(  32) = (   0.0373256   4.5280481   9.3594506  )
        33           O1  tau(  33) = (   3.2887547   2.9594671  11.2851190  )
        34           O1  tau(  34) = (   0.0046902   2.9985155  10.5475055  )
        35           O1  tau(  35) = (   1.2817606   4.4707209  12.6310527  )
        36           O1  tau(  36) = (   5.3098963   4.4869072  12.6241852  )
        37           Ti1 tau(  37) = (   6.5328698   0.0937101  12.6083326  )
        38           Ti1 tau(  38) = (   3.2790761   4.6595539  12.6693962  )
        39           O1  tau(  39) = (   0.0062896   2.9920245  14.6683812  )
        40           O1  tau(  40) = (   3.3079832   2.9813091  13.8732900  )
        41           O1  tau(  41) = (   4.5514670   4.4448635  16.0695425  )
        42           O1  tau(  42) = (   2.0242163   4.4286948  16.0089506  )
        43           Ti1 tau(  43) = (   3.3772342   5.9382356  16.2476532  )
        44           Ti1 tau(  44) = (   0.0845355   4.5653432  16.0322982  )
        45           O1  tau(  45) = (   3.2900926   2.9813045   4.7018136  )
        46           O1  tau(  46) = (   1.3039711   4.4726057   6.0039043  )
        47           O1  tau(  47) = (   5.2763189   4.4711207   6.0039473  )
        48           C1  tau(  48) = (   6.0101766   2.9784267  18.6088694  )
        49           O1  tau(  49) = (   6.5649008   2.9952511  17.2928482  )
        50           H1  tau(  50) = (   4.9185495   2.9407445  18.5675634  )
        51           H1  tau(  51) = (   6.3703738   2.0936667  19.1470987  )
        52           H1  tau(  52) = (   6.3118891   3.8824302  19.1399426  )
        53           N1  tau(  53) = (   6.0262039   3.1690275  22.5535725  )
        54           N1  tau(  54) = (   5.1417247   3.1052473  21.8962875  )
        55           O1  tau(  55) = (   3.2068502   5.9581871  18.0710493  )
        56           H1  tau(  56) = (   2.3500504   0.2277792  18.4614507  )

     number of k points=    10  Fermi-Dirac smearing, width (Ry)=  0.0073
                       cart. coord. in units 2pi/alat
        k(    1) = (   0.0000000   0.0000000   0.0000000), wk =   0.1250000
        k(    2) = (   0.0000000   0.0419351   0.0000000), wk =   0.2500000
        k(    3) = (   0.0000000  -0.0838702   0.0000000), wk =   0.1250000
        k(    4) = (   0.0379955   0.0000049   0.0000000), wk =   0.2500000
        k(    5) = (   0.0379955   0.0419400   0.0000000), wk =   0.2500000
        k(    6) = (   0.0379955  -0.0838652   0.0000000), wk =   0.2500000
        k(    7) = (   0.0379955  -0.0419301   0.0000000), wk =   0.2500000
        k(    8) = (  -0.0759910  -0.0000099   0.0000000), wk =   0.1250000
        k(    9) = (  -0.0759910   0.0419252   0.0000000), wk =   0.2500000
        k(   10) = (  -0.0759910  -0.0838800   0.0000000), wk =   0.1250000

     Initial potential from superposition of free atoms

     starting charge  391.99915, renormalised to  408.00000

     negative rho (up, down):  9.975E-03 0.000E+00

     %%%%%%%%%%%%%%%%%%%%%%%%%%%%%%%%%%%%%%%%%%%%%%%%%%%%%%%%%%%%%%%%%%%%%%%%
     %                                                                      %
     % You are using vdW-DF, which was implemented by the Thonhauser group. %
     % Please cite the following two papers that made this development      %
     % possible and the two reviews that describe the various versions:     %
     %                                                                      %
     %   T. Thonhauser et al., PRL 115, 136402 (2015).                      %
     %   T. Thonhauser et al., PRB 76, 125112 (2007).                       %
     %   K. Berland et al., Rep. Prog. Phys. 78, 066501 (2015).             %
     %   D.C. Langreth et al., J. Phys.: Condens. Matter 21, 084203 (2009). %
     %                                                                      %
     %                                                                      %
     % If you are calculating the stress with vdW-DF, please also cite:     %
     %                                                                      %
     %   R. Sabatini et al., J. Phys.: Condens. Matter 24, 424209 (2012).   %
     %                                                                      %
     %%%%%%%%%%%%%%%%%%%%%%%%%%%%%%%%%%%%%%%%%%%%%%%%%%%%%%%%%%%%%%%%%%%%%%%%

     Adding external electric field

     Computed dipole along edir(3) :
        Dipole              -16.8160 Ry au,        -42.7419 Debye
        Dipole field         -0.0317 Ry au,

        Potential amp.        2.9417 Ry
        Total length         46.3494 bohr

     Starting wfcs are  308 atomic wfcs
  @ DRIVER MODE: Message from server: STATUS
  @ DRIVER MODE: Message from server: POSDATA
  @ DRIVER MODE: Reading and sharing cell
  @ DRIVER MODE: Reading and sharing positions
  @ DRIVER MODE: Received positions

     Self-consistent Calculation

     iteration #  1     ecut=    29.40 Ry     beta= 0.05
     Davidson diagonalization with overlap
     c_bands:  4 eigenvalues not converged
     c_bands:  1 eigenvalues not converged
     c_bands:  5 eigenvalues not converged
     c_bands:  1 eigenvalues not converged
     c_bands:  2 eigenvalues not converged
     c_bands:  2 eigenvalues not converged
     c_bands:  1 eigenvalues not converged
     c_bands:  5 eigenvalues not converged
     ethr =  1.00E-05,  avg # of iterations = 27.4

[...]

     total energy              =   -2248.47843563 Ry
     estimated scf accuracy    <    8689.05392873 Ry

     iteration #  2     ecut=    29.40 Ry     beta= 0.05
     Davidson diagonalization with overlap
     ethr =  1.00E-02,  avg # of iterations = 29.4

[...]

     iteration # 64     ecut=    29.40 Ry     beta= 0.05
     Davidson diagonalization with overlap
     c_bands:  2 eigenvalues not converged
     c_bands:  2 eigenvalues not converged
     c_bands:  1 eigenvalues not converged
     c_bands:  1 eigenvalues not converged
     c_bands:  1 eigenvalues not converged
     c_bands:  1 eigenvalues not converged
     c_bands:  1 eigenvalues not converged
     ethr =  1.44E-07,  avg # of iterations = 16.5

[...]

     total energy              =   -3005.28914351 Ry
     estimated scf accuracy    <       0.00000011 Ry

     iteration # 82     ecut=    29.40 Ry     beta= 0.05
     Davidson diagonalization with overlap
     ethr =  2.28E-11,  avg # of iterations =  5.4

     negative rho (up, down):  1.141E-02 0.000E+00

     Adding external electric field

     Computed dipole along edir(3) :
        Dipole                0.5469 Ry au,          1.3900 Debye
        Dipole field          0.0010 Ry au,

        Potential amp.       -0.0957 Ry
        Total length         46.3494 bohr

     End of self-consistent calculation

          k = 0.0000 0.0000 0.0000 ( 18029 PWs)   bands (ev):

   -56.1303 -56.0828 -55.5725 -55.5532 -55.5387 -55.5152 -55.4822 -55.4580
   -55.4232 -55.3974 -55.3635 -55.3217 -55.3205 -55.1840 -54.7431 -54.7092
   -32.5432 -32.3945 -32.3442 -32.3098 -32.2151 -32.1696 -32.0762 -32.0196
   -32.0111 -31.9045 -31.8610 -31.8432 -31.8378 -31.8162 -31.8137 -31.7757
   -31.7729 -31.7593 -31.7392 -31.7323 -31.7283 -31.6873 -31.6780 -31.6626
   -31.6594 -31.6414 -31.6384 -31.6295 -31.6215 -31.6119 -31.6048 -31.5877
   -31.5729 -31.5676 -31.5613 -31.5266 -31.5175 -31.5147 -31.4844 -31.4388
   -31.4008 -31.3892 -31.1375 -31.0833 -31.0590 -30.9544 -30.8695 -30.7586
   -20.8566 -17.3369 -16.3420 -16.2870 -16.1458 -15.9091 -15.7646 -15.6873
   -15.4578 -15.4474 -15.3324 -15.3257 -15.2908 -15.1598 -15.1424 -15.1346
   -15.0831 -15.0690 -15.0458 -15.0435 -15.0401 -15.0315 -14.9740 -14.9549
   -14.9154 -14.8565 -14.7803 -14.7598 -14.7108 -14.6999 -14.6582 -14.4326
   -13.2447 -13.1361  -9.0791  -6.0171  -4.1120  -3.9912  -3.9802  -3.9311
    -3.8138  -3.7454  -3.5886  -3.4899  -3.4641  -3.3864  -3.2920  -3.1866
    -2.9723  -2.8206  -2.7579  -2.7193  -2.7159  -2.6770  -2.6356  -2.5739
    -2.5193  -2.4768  -2.4433  -2.4093  -2.3489  -2.3365  -2.3209  -2.2904
    -2.2709  -2.2497  -2.2141  -2.2019  -2.0707  -2.0340  -2.0043  -1.9930
    -1.9398  -1.9211  -1.9022  -1.8923  -1.8477  -1.7510  -1.6533  -1.6392
    -1.5951  -1.4086  -1.3336  -1.2870  -1.2091  -1.1437  -1.0662  -1.0457
    -1.0358  -0.9810  -0.9432  -0.8416  -0.8078  -0.7684  -0.7009  -0.6955
    -0.6566  -0.5955  -0.5709  -0.5100  -0.4822  -0.4490  -0.3099  -0.2742
    -0.2569  -0.1948  -0.1940  -0.1020  -0.0424   0.0104   0.0292   0.0848
     0.1249   0.1470   0.1979   0.2287   0.2427   0.3259   0.3751   0.3820
     0.4162   0.4556   0.4743   0.5063   0.5943   0.6425   0.6689   0.6944
     0.8386   0.8532   0.9072   1.0136   1.0229   1.2048   1.2743   1.3099
     1.4967   1.5347   1.8259   1.8717   3.1699   3.3331   3.6124   3.7250
     3.7689   3.8089   3.8843   3.9114   4.0657   4.1029

[...]

          k = 0.0380-0.0419 0.0000 ( 17876 PWs)   bands (ev):

[...]

          k =-0.0760-0.0000 0.0000 ( 17886 PWs)   bands (ev):

[...]

          k =-0.0760-0.0839 0.0000 ( 17948 PWs)   bands (ev):

   -56.1233 -56.0897 -55.5705 -55.5483 -55.5375 -55.5093 -55.4866 -55.4638
   -55.4250 -55.3987 -55.3550 -55.3300 -55.3188 -55.1860 -54.7263 -54.7259
   -32.3900 -32.3743 -32.3482 -32.3458 -32.2752 -32.2467 -31.9647 -31.8843
   -31.8556 -31.8379 -31.8155 -31.8054 -31.7924 -31.7870 -31.7769 -31.7627
   -31.7572 -31.7473 -31.7471 -31.7391 -31.7300 -31.7212 -31.7078 -31.7068
   -31.7045 -31.6877 -31.6825 -31.6575 -31.6491 -31.6477 -31.6302 -31.6241
   -31.6012 -31.5943 -31.5789 -31.5669 -31.5643 -31.5365 -31.5216 -31.5037
   -31.4393 -31.3927 -31.0721 -31.0719 -30.9532 -30.9514 -30.9117 -30.9108
   -20.8565 -17.2993 -16.3157 -15.6935 -15.6040 -15.5948 -15.5874 -15.5545
   -15.5186 -15.4538 -15.4392 -15.3711 -15.2991 -15.2684 -15.2275 -15.2025
   -15.1866 -15.1497 -15.1453 -15.0833 -15.0397 -15.0308 -15.0163 -15.0024
   -14.9578 -14.9500 -14.9411 -14.9249 -14.9155 -14.8551 -14.7552 -14.5773
   -13.2404 -13.2392  -9.0792  -6.0186  -4.0476  -3.9949  -3.9732  -3.8608
    -3.6863  -3.4593  -2.9265  -2.8461  -2.7676  -2.7655  -2.7023  -2.6767
    -2.6288  -2.6057  -2.5693  -2.5541  -2.5318  -2.4665  -2.4418  -2.4274
    -2.4239  -2.4150  -2.3991  -2.3801  -2.3377  -2.3285  -2.3156  -2.3061
    -2.2872  -2.2827  -2.2702  -2.2492  -2.2085  -2.1465  -2.0890  -1.9488
    -1.9406  -1.9144  -1.8954  -1.8710  -1.8460  -1.7950  -1.7135  -1.6935
    -1.6749  -1.5989  -1.5401  -1.3353  -1.3143  -1.2967  -1.2268  -1.1584
    -1.0919  -1.0743  -1.0396  -1.0055  -0.9822  -0.9421  -0.8853  -0.8512
    -0.8082  -0.7953  -0.7572  -0.7194  -0.6692  -0.6093  -0.6011  -0.5682
    -0.5184  -0.4946  -0.4045  -0.3963  -0.3722  -0.3547  -0.3207  -0.2297
    -0.1771  -0.1313  -0.0426  -0.0025   0.0373   0.1704   0.2363   0.2722
     0.3451   0.3865   0.4931   0.5151   0.5942   0.6158   0.6451   0.6705
     0.7356   0.8067   0.8582   0.9072   0.9479   0.9626   1.0137   1.0635
     1.6677   1.6702   1.6778   1.6841   3.7128   3.7390   3.7468   3.7801
     3.9843   4.0142   4.0874   4.1040   4.1245   4.1808

     the Fermi energy is     2.5781 ev

!    total energy              =   -3005.28915822 Ry
     estimated scf accuracy    <       0.00000003 Ry
     smearing contrib. (-TS)   =      -0.00015433 Ry
     internal energy E=F+TS    =   -3005.28900389 Ry

     The total energy is F=E-TS. E is the sum of the following terms:
     one-electron contribution =  -22581.37741006 Ry
     hartree contribution      =   11386.97869064 Ry
     xc contribution           =    -500.23768173 Ry
     ewald contribution        =    8689.34683292 Ry
     electric field correction =       0.00056434 Ry

     convergence has been achieved in  82 iterations

     Forces acting on atoms (cartesian axes, Ry/au):

     atom    1 type  1   force =     0.00012186    0.00010143    0.13279897
     atom    2 type  1   force =    -0.00011125    0.00820899   -0.15823822
     atom    3 type  2   force =     0.00029853   -0.00362468   -0.05306851
     atom    4 type  2   force =     0.00059185    0.00105134    0.04010606
     atom    5 type  2   force =    -0.00786207   -0.00195175   -0.00034032
     atom    6 type  2   force =     0.00845897   -0.00490405   -0.00004539
     atom    7 type  1   force =    -0.00017392   -0.00031143   -0.00004290
     atom    8 type  1   force =    -0.00000585   -0.00026629    0.00022611
     atom    9 type  2   force =     0.00013214    0.00009492    0.00002842
     atom   10 type  2   force =    -0.00003412    0.00020371    0.00009750
     atom   11 type  2   force =    -0.00004936    0.00013356   -0.00000619
     atom   12 type  2   force =     0.00037242   -0.00010764   -0.00005105
     atom   13 type  1   force =    -0.00018257    0.00002750    0.00015840
     atom   14 type  1   force =     0.00011595    0.00057927    0.00010622
     atom   15 type  2   force =    -0.00009913    0.00009890   -0.00001915
     atom   16 type  2   force =     0.00002289    0.00005076   -0.00043977
     atom   17 type  2   force =     0.00014129   -0.00045391    0.00020805
     atom   18 type  2   force =    -0.00009526   -0.00055823    0.00010790
     atom   19 type  1   force =    -0.00038718    0.00030452   -0.00007767
     atom   20 type  1   force =     0.00042925   -0.00008012   -0.00004106
     atom   21 type  2   force =    -0.00006600    0.00009522    0.09917738
     atom   22 type  2   force =    -0.00023064    0.00009794   -0.00004756
     atom   23 type  2   force =    -0.08059852    0.00058490   -0.03416722
     atom   24 type  2   force =     0.08037038    0.00110686   -0.03420855
     atom   25 type  1   force =    -0.00021848   -0.00017559    0.14170543
     atom   26 type  1   force =    -0.00019241   -0.00686411   -0.15775418
     atom   27 type  2   force =     0.00043873    0.00017821   -0.05211199
     atom   28 type  2   force =     0.00043876    0.00035625    0.04188630
     atom   29 type  2   force =    -0.00940255    0.00597938    0.00165277
     atom   30 type  2   force =     0.00931098    0.00235284    0.00176293
     atom   31 type  1   force =    -0.00003063    0.00010491    0.00014551
     atom   32 type  1   force =     0.00002115   -0.00013218   -0.00009246
     atom   33 type  2   force =    -0.00006525   -0.00032473    0.00028930
     atom   34 type  2   force =    -0.00009862   -0.00005478    0.00003009
     atom   35 type  2   force =     0.00062359    0.00025747   -0.00007032
     atom   36 type  2   force =    -0.00019305    0.00015055    0.00005355
     atom   37 type  1   force =    -0.00038933    0.00046877   -0.00063131
     atom   38 type  1   force =     0.00024647   -0.00035185   -0.00010805
     atom   39 type  2   force =    -0.00003461   -0.00000314    0.00029762
     atom   40 type  2   force =     0.00012917   -0.00007802   -0.00035955
     atom   41 type  2   force =     0.00074457    0.00014830    0.00016893
     atom   42 type  2   force =    -0.00040980    0.00035965   -0.00000096
     atom   43 type  1   force =    -0.00057904   -0.00032742    0.00006147
     atom   44 type  1   force =     0.00002109   -0.00020791   -0.00045192
     atom   45 type  2   force =    -0.00007848    0.00018336    0.09874884
     atom   46 type  2   force =    -0.08056208   -0.00156890   -0.03412150
     atom   47 type  2   force =     0.08036500   -0.00103532   -0.03420511
     atom   48 type  3   force =     0.00181115   -0.00333148    0.00385074
     atom   49 type  2   force =    -0.00013680   -0.00124601    0.00185786
     atom   50 type  4   force =    -0.00031797    0.00005811   -0.00034665
     atom   51 type  4   force =    -0.00157088    0.00379003   -0.00429586
     atom   52 type  4   force =     0.00000090    0.00074964   -0.00063431
     atom   53 type  5   force =     0.00099358    0.00011291    0.00074672
     atom   54 type  5   force =    -0.00132367    0.00000267   -0.00084467
     atom   55 type  2   force =    -0.00109561    0.00082282    0.00025209
     atom   56 type  4   force =     0.00039445   -0.00085616    0.00029728

     Total force =     0.383800     Total SCF correction =     0.000473
  @ DRIVER MODE: Message from server: STATUS
  @ DRIVER MODE: Message from server: GETFORCE
  @ DRIVER MODE: Returning v,forces,stress,ensemble

     Writing output data file ./calc.save/
  @ DRIVER MODE: Message from server: EXIT
  @ DRIVE MODE: Exiting

     General routines

     Parallel routines

   This run was terminated on:  22:55:22  23Sep2021

   JOB DONE.