     Program PWSCF v.6.7GPU starts on 19Oct2021 at  6:20:41

     R & G space division:  proc/nbgrp/npool/nimage =       8
     Reading input from /storage/home/hcoda1/3/ntian30/research/carbon/CxH_vib/Thiel_calc/ads_slab/NH2NH2HH_perslab/out_0039/pw.inp
Warning: card &CELL ignored
Warning: card   CELL_DYNAMICS='IPI', ignored
Warning: card / ignored

     Current dimensions of program PWSCF are:
     Max number of different atomic species (ntypx) = 10
     Max number of k-points (npk) =  40000
     Max angular momentum in pseudopotentials (lmaxx) =  3
     Presently no symmetry can be used with electric field

     Message from routine cell_base_init:
     DEPRECATED: use true lattice parameter, not A to a.u. conversion factor

     IMPORTANT: XC functional enforced from input :
     Exchange-correlation= BEEF-VDW
                           (   1   4  43  14   2   0   0)
     Any further DFT definition will be discarded
     Please, verify this is what you really want

  @ DRIVER MODE: Connecting to
 qe_1139763_3255137.sched-torque.pace.gatech.edu1_kbhu14_scratch
  using UNIX socket
  @ DRIVER MODE: Message from server: STATUS
  @ DRIVER MODE: Message from server: INIT
  @ DRIVER MODE: Receiving replica           0          -1
  @ DRIVER MODE: Receiving encoded integer          25
  @ DRIVER MODE:  SCF:  T  FORCE:  T  STRESS:  F  VC:  F  ENSEMBLE:  F
  @ DRIVER MODE:  SCF:  T  FORCE:  T  STRESS:  F  VC:  F  ENSEMBLE:  F

     Using Slab Decomposition

     bravais-lattice index     =            0
     lattice parameter (alat)  =       1.8897  a.u.
     unit-cell volume          =    9988.4706 (a.u.)^3
     number of atoms/cell      =           61
     number of atomic types    =            4
     number of electrons       =       442.00
     number of Kohn-Sham states=          231
     kinetic-energy cutoff     =      29.3995  Ry
     charge density cutoff     =     293.9946  Ry
     scf convergence threshold =      7.3E-08
     mixing beta               =       0.0500
     number of iterations used =            8  plain     mixing
     Exchange-correlation= BEEF-VDW
                           (   1   4  43  14   2   0   0)

     celldm(1)=   1.889726  celldm(2)=   0.000000  celldm(3)=   0.000000
     celldm(4)=   0.000000  celldm(5)=   0.000000  celldm(6)=   0.000000

     crystal axes: (cart. coord. in units of alat)
               a(1) = (   6.579727   0.000000   0.000000 )
               a(2) = (  -0.001163   8.942395   0.000000 )
               a(3) = (   0.000000   0.000000  25.155947 )

     reciprocal axes: (cart. coord. in units 2 pi/alat)
               b(1) = (  0.151982  0.000020  0.000000 )
               b(2) = (  0.000000  0.111827  0.000000 )
               b(3) = (  0.000000  0.000000  0.039752 )

     PseudoPot. # 1 for O  read from file:
     /storage/coda1/p-amedford6/0/shared/rich_project_chbe-medford/medford-share/data/pseudos_module/espresso/nninc/pbe/van/O.UPF
     MD5 check sum: 78c19812648e8988a0fe644b0f25305e
     Pseudo is Ultrasoft, Zval =  6.0
     Generated by new atomic code, or converted to UPF format
     Using radial grid of  737 points,  4 beta functions with:
                l(1) =   0
                l(2) =   0
                l(3) =   1
                l(4) =   1
     Q(r) pseudized with  8 coefficients,  rinner =    0.800   0.800   0.800

     PseudoPot. # 2 for Ti read from file:
     /storage/coda1/p-amedford6/0/shared/rich_project_chbe-medford/medford-share/data/pseudos_module/espresso/nninc/pbe/van/Ti.UPF
     MD5 check sum: 8e4df49b7f0d34bbd5052bf3f5ea0213
     Pseudo is Ultrasoft, Zval = 12.0
     Generated by new atomic code, or converted to UPF format
     Using radial grid of  851 points,  6 beta functions with:
                l(1) =   0
                l(2) =   0
                l(3) =   1
                l(4) =   1
                l(5) =   2
                l(6) =   2
     Q(r) pseudized with  8 coefficients,  rinner =    1.000   1.000   1.000
                                                       1.000   1.000

     PseudoPot. # 3 for N  read from file:
     /storage/coda1/p-amedford6/0/shared/rich_project_chbe-medford/medford-share/data/pseudos_module/espresso/nninc/pbe/van/N.UPF
     MD5 check sum: 90d10febe142ad51ac9d5be1deb811c4
     Pseudo is Ultrasoft, Zval =  5.0
     Generated by new atomic code, or converted to UPF format
     Using radial grid of  729 points,  4 beta functions with:
                l(1) =   0
                l(2) =   0
                l(3) =   1
                l(4) =   1
     Q(r) pseudized with  8 coefficients,  rinner =    0.800   0.800   0.800

     PseudoPot. # 4 for H  read from file:
     /storage/coda1/p-amedford6/0/shared/rich_project_chbe-medford/medford-share/data/pseudos_module/espresso/nninc/pbe/van/H.UPF
     MD5 check sum: b5ee9d7bfd3a09ee7748110bda690ff7
     Pseudo is Ultrasoft, Zval =  1.0
     Generated by new atomic code, or converted to UPF format
     Using radial grid of  615 points,  1 beta functions with:
                l(1) =   0
     Q(r) pseudized with  8 coefficients,  rinner =    0.800

     atomic species   valence    mass     pseudopotential
        O1             6.00    15.99900     O ( 1.00)
        Ti1           12.00    47.86700     Ti( 1.00)
        N1             5.00    14.00700     N ( 1.00)
        H1             1.00     1.00800     H ( 1.00)

     No symmetry found

   Cartesian axes

     site n.     atom                  positions (alat units)
         1           O1  tau(   1) = (   0.0007354   0.0005023  10.5931620  )
         2           O1  tau(   2) = (   3.2456387   0.0208629  13.8623892  )
         3           O1  tau(   3) = (   6.5569189   0.0555649  17.3369326  )
         4           O1  tau(   4) = (   0.0006271   0.0005054   7.9858123  )
         5           O1  tau(   5) = (   3.2933513   8.9300833  11.1812556  )
         6           O1  tau(   6) = (   0.0337597   0.0712708  14.6279364  )
         7           O1  tau(   7) = (   1.9868534   1.4903216   9.2879459  )
         8           O1  tau(   8) = (   5.2215124   1.6184176  12.5791628  )
         9           O1  tau(   9) = (   1.9922958   1.5902288  16.0980526  )
        10           Ti1 tau(  10) = (   0.0007404   1.4906270   9.2895810  )
        11           Ti1 tau(  11) = (   3.2860490   1.3455809  12.4359399  )
        12           Ti1 tau(  12) = (   6.5618936   1.3602716  15.8812525  )
        13           O1  tau(  13) = (   4.5942328   1.4918067   9.2879030  )
        14           O1  tau(  14) = (   1.3307156   1.5887400  12.5381291  )
        15           O1  tau(  15) = (   4.5725103   1.6118788  16.0006659  )
        16           Ti1 tau(  16) = (   3.2902859   2.9801868   9.2893338  )
        17           Ti1 tau(  17) = (   0.0046584   2.8227806  12.4510757  )
        18           Ti1 tau(  18) = (   3.2555632   2.8898243  15.6661830  )
        19           O1  tau(  19) = (   0.0003479   2.9813005  10.5931620  )
        20           O1  tau(  20) = (   3.2279248   2.9553539  13.8813459  )
        21           O1  tau(  21) = (   0.0002396   2.9813036   7.9858123  )
        22           O1  tau(  22) = (   3.2889556   2.9859946  11.1941525  )
        23           O1  tau(  23) = (   0.0559812   2.9852445  14.6488683  )
        24           O1  tau(  24) = (   1.9864658   4.4711199   9.2879459  )
        25           O1  tau(  25) = (   5.2314886   4.5920767  12.6107679  )
        26           O1  tau(  26) = (   1.9969377   4.5324570  16.1535429  )
        27           Ti1 tau(  27) = (   0.0003529   4.4714252   9.2895810  )
        28           Ti1 tau(  28) = (   3.2845268   4.3564118  12.5295435  )
        29           Ti1 tau(  29) = (   6.5676402   4.3565080  15.8255799  )
        30           O1  tau(  30) = (   4.5938453   4.4726049   9.2879030  )
        31           O1  tau(  31) = (   1.3315080   4.5776727  12.5731030  )
        32           O1  tau(  32) = (   4.5871741   4.4544688  15.9274438  )
        33           Ti1 tau(  33) = (   3.2898983   5.9609850   9.2893338  )
        34           Ti1 tau(  34) = (   6.5783773   5.8108302  12.4536689  )
        35           Ti1 tau(  35) = (   3.3162440   5.8110762  16.0333210  )
        36           O1  tau(  36) = (  -0.0000397   5.9620987  10.5931620  )
        37           O1  tau(  37) = (   3.2636778   5.9869953  13.9790019  )
        38           O1  tau(  38) = (   6.4104969   6.0475349  17.2872242  )
        39           O1  tau(  39) = (  -0.0001480   5.9621018   7.9858123  )
        40           O1  tau(  40) = (   3.2905218   5.9516507  11.2202175  )
        41           O1  tau(  41) = (   0.0617018   5.9803669  14.6637187  )
        42           O1  tau(  42) = (   1.9860782   7.4519181   9.2879459  )
        43           O1  tau(  43) = (   5.2407037   7.5572870  12.6049163  )
        44           O1  tau(  44) = (   1.9881273   7.5959696  16.0809372  )
        45           Ti1 tau(  45) = (  -0.0000347   7.4522234   9.2895810  )
        46           Ti1 tau(  46) = (   3.2912638   7.2305267  12.6172466  )
        47           Ti1 tau(  47) = (   0.0232661   7.3094817  15.9177444  )
        48           O1  tau(  48) = (   4.5934577   7.4534031   9.2879030  )
        49           O1  tau(  49) = (   1.3287160   7.5404973  12.5734398  )
        50           O1  tau(  50) = (   4.6507959   7.6754627  15.9163669  )
        51           Ti1 tau(  51) = (   3.2895107   8.9417832   9.2893338  )
        52           Ti1 tau(  52) = (   0.0077981   8.7799231  12.4640552  )
        53           Ti1 tau(  53) = (   3.2910717   8.8534038  15.6608489  )
        54           N1  tau(  54) = (   3.7626148   6.0985185  18.0019073  )
        55           H1  tau(  55) = (   3.4663780   5.3841571  18.6619304  )
        56           H1  tau(  56) = (   3.5565419   6.9988739  18.4208443  )
        57           N1  tau(  57) = (   6.5319303   3.0529623  17.4095181  )
        58           H1  tau(  58) = (   5.7013393   3.0140474  17.9904383  )
        59           H1  tau(  59) = (   0.7603229   3.1006543  18.0203722  )
        60           H1  tau(  60) = (   5.4974376   6.0368821  17.7423635  )
        61           H1  tau(  61) = (   0.7324116   0.0679216  17.9402240  )

     number of k points=    10  Fermi-Dirac smearing, width (Ry)=  0.0073
                       cart. coord. in units 2pi/alat
        k(    1) = (   0.0000000   0.0000000   0.0000000), wk =   0.1250000
        k(    2) = (   0.0000000   0.0279567   0.0000000), wk =   0.2500000
        k(    3) = (   0.0000000  -0.0559134   0.0000000), wk =   0.1250000
        k(    4) = (   0.0379955   0.0000049   0.0000000), wk =   0.2500000
        k(    5) = (   0.0379955   0.0279617   0.0000000), wk =   0.2500000
        k(    6) = (   0.0379955  -0.0559085   0.0000000), wk =   0.2500000
        k(    7) = (   0.0379955  -0.0279518   0.0000000), wk =   0.2500000
        k(    8) = (  -0.0759910  -0.0000099   0.0000000), wk =   0.1250000
        k(    9) = (  -0.0759910   0.0279468   0.0000000), wk =   0.2500000
        k(   10) = (  -0.0759910  -0.0559233   0.0000000), wk =   0.1250000

     Initial potential from superposition of free atoms

     starting charge  423.99908, renormalised to  442.00000

     negative rho (up, down):  3.745E-02 0.000E+00

     %%%%%%%%%%%%%%%%%%%%%%%%%%%%%%%%%%%%%%%%%%%%%%%%%%%%%%%%%%%%%%%%%%%%%%%%
     %                                                                      %
     % You are using vdW-DF, which was implemented by the Thonhauser group. %
     % Please cite the following two papers that made this development      %
     % possible and the two reviews that describe the various versions:     %
     %                                                                      %
     %   T. Thonhauser et al., PRL 115, 136402 (2015).                      %
     %   T. Thonhauser et al., PRB 76, 125112 (2007).                       %
     %   K. Berland et al., Rep. Prog. Phys. 78, 066501 (2015).             %
     %   D.C. Langreth et al., J. Phys.: Condens. Matter 21, 084203 (2009). %
     %                                                                      %
     %                                                                      %
     % If you are calculating the stress with vdW-DF, please also cite:     %
     %                                                                      %
     %   R. Sabatini et al., J. Phys.: Condens. Matter 24, 424209 (2012).   %
     %                                                                      %
     %%%%%%%%%%%%%%%%%%%%%%%%%%%%%%%%%%%%%%%%%%%%%%%%%%%%%%%%%%%%%%%%%%%%%%%%

     Adding external electric field

     Computed dipole along edir(3) :
        Dipole               -5.9687 Ry au,        -15.1708 Debye
        Dipole field         -0.0075 Ry au,

        Potential amp.        0.6961 Ry
        Total length         46.3494 bohr

     Starting wfcs are  334 atomic wfcs
  @ DRIVER MODE: Message from server: STATUS
  @ DRIVER MODE: Message from server: POSDATA
  @ DRIVER MODE: Reading and sharing cell
  @ DRIVER MODE: Reading and sharing positions
  @ DRIVER MODE: Received positions

     Self-consistent Calculation

     iteration #  1     ecut=    29.40 Ry     beta= 0.05
     Davidson diagonalization with overlap
     c_bands:  1 eigenvalues not converged
     c_bands:  3 eigenvalues not converged
     c_bands:  5 eigenvalues not converged
     c_bands:  2 eigenvalues not converged
     c_bands:  4 eigenvalues not converged
     c_bands:  4 eigenvalues not converged
     c_bands:  4 eigenvalues not converged
     c_bands:  2 eigenvalues not converged
     c_bands:  4 eigenvalues not converged
     ethr =  1.00E-05,  avg # of iterations = 21.0

[...]

     total energy              =   -3277.93437661 Ry
     estimated scf accuracy    <     239.61898034 Ry

     iteration #  2     ecut=    29.40 Ry     beta= 0.05
     Davidson diagonalization with overlap
     ethr =  1.00E-02,  avg # of iterations = 16.1

[...]

     iteration # 69     ecut=    29.40 Ry     beta= 0.05
     Davidson diagonalization with overlap
     c_bands:  1 eigenvalues not converged
     ethr =  1.37E-10,  avg # of iterations = 15.5

[...]

     total energy              =   -3295.80757336 Ry
     estimated scf accuracy    <       0.00000018 Ry

     iteration # 73     ecut=    29.40 Ry     beta= 0.05
     Davidson diagonalization with overlap
     ethr =  4.01E-11,  avg # of iterations = 10.3

     negative rho (up, down):  3.606E-02 0.000E+00

     Adding external electric field

     Computed dipole along edir(3) :
        Dipole                1.5106 Ry au,          3.8395 Debye
        Dipole field          0.0019 Ry au,

        Potential amp.       -0.1762 Ry
        Total length         46.3494 bohr

     End of self-consistent calculation

          k = 0.0000 0.0000 0.0000 ( 26871 PWs)   bands (ev):

   -57.7247 -57.6992 -57.6889 -57.6625 -57.6534 -57.6204 -57.6062 -57.5985
   -57.5705 -57.5574 -57.5082 -57.4777 -57.4613 -57.4550 -57.4471 -56.7466
   -56.7224 -56.7179 -34.1063 -34.1033 -34.0946 -34.0855 -34.0736 -34.0568
   -34.0561 -34.0420 -34.0288 -34.0174 -33.9876 -33.9695 -33.9498 -33.9437
   -33.9360 -33.9176 -33.9124 -33.9109 -33.8925 -33.8873 -33.8655 -33.8631
   -33.8427 -33.8331 -33.8290 -33.8230 -33.8122 -33.8102 -33.8046 -33.7951
   -33.7836 -33.7818 -33.7675 -33.7320 -33.7227 -33.7186 -33.7039 -33.7031
   -33.6956 -33.6945 -33.6833 -33.6748 -33.6681 -33.6620 -33.6396 -33.0619
   -33.0608 -33.0564 -33.0447 -33.0405 -32.9727 -32.9106 -32.9053 -32.7725
   -19.3015 -18.7602 -18.5254 -18.2270 -18.0163 -17.9738 -17.9408 -17.8195
   -17.7840 -17.7600 -17.6625 -17.6510 -17.5876 -17.5338 -17.5057 -17.4571
   -17.4388 -17.3785 -17.3645 -17.3562 -17.3509 -17.3407 -17.3304 -17.2650
   -17.2377 -17.2097 -17.1707 -17.1551 -17.1485 -17.1411 -17.1186 -16.8459
   -15.5029 -15.2132 -15.1551 -15.1539 -15.0821  -6.9853  -6.8144  -6.6478
    -6.3421  -5.8604  -5.7868  -5.6373  -5.5134  -5.2213  -5.1939  -5.1420
    -5.1155  -5.0870  -5.0219  -5.0019  -4.9889  -4.9335  -4.9162  -4.8437
    -4.8208  -4.7792  -4.7553  -4.7297  -4.6847  -4.6446  -4.6177  -4.6055
    -4.5748  -4.5674  -4.5107  -4.4871  -4.4577  -4.4522  -4.4359  -4.3280
    -4.2946  -4.2382  -4.1702  -4.0920  -4.0393  -4.0309  -3.9746  -3.9557
    -3.9030  -3.8627  -3.8260  -3.8172  -3.7809  -3.7416  -3.6430  -3.6105
    -3.5876  -3.5222  -3.5000  -3.4313  -3.4140  -3.3804  -3.3391  -3.3334
    -3.2961  -3.1983  -3.1641  -3.0834  -3.0272  -2.9735  -2.9351  -2.8899
    -2.8436  -2.8104  -2.7852  -2.7034  -2.6270  -2.5434  -2.4931  -2.4805
    -2.4683  -2.4181  -2.4111  -2.4084  -2.3512  -2.3256  -2.3149  -2.2773
    -2.2257  -2.2030  -2.1407  -2.0960  -2.0607  -1.9931  -1.9775  -1.8967
    -1.8879  -1.8267  -1.7836  -1.7441  -1.6326  -1.5977  -1.5654  -1.5628
    -1.4439  -1.4077  -1.1458  -1.0044  -0.7863  -0.7534  -0.5002  -0.4515
    -0.4487  -0.1856  -0.1823  -0.0540   1.3222   1.5109   1.6445   1.7002
     1.7050   1.7384   1.8048   1.8911   1.9165   1.9636   1.9951

[...]

          k = 0.0380-0.0280 0.0000 ( 26873 PWs)   bands (ev):

[...]

          k =-0.0760-0.0000 0.0000 ( 26902 PWs)   bands (ev):

[...]

          k =-0.0760-0.0559 0.0000 ( 26868 PWs)   bands (ev):

   -57.7212 -57.7069 -57.6846 -57.6614 -57.6534 -57.6211 -57.6076 -57.5982
   -57.5699 -57.5571 -57.5085 -57.4726 -57.4652 -57.4608 -57.4423 -56.7404
   -56.7350 -56.7115 -34.1938 -34.1566 -34.1541 -34.0943 -34.0602 -34.0526
   -34.0418 -34.0392 -34.0017 -33.9677 -33.9340 -33.9205 -33.9148 -33.9135
   -33.9025 -33.9003 -33.8803 -33.8731 -33.8686 -33.8684 -33.8646 -33.8590
   -33.8539 -33.8456 -33.8313 -33.8264 -33.8238 -33.8187 -33.8143 -33.7936
   -33.7926 -33.7705 -33.7637 -33.7562 -33.7504 -33.7320 -33.7257 -33.7205
   -33.7006 -33.7005 -33.6986 -33.6952 -33.6860 -33.6680 -33.6509 -33.1507
   -33.0615 -33.0564 -33.0340 -32.9542 -32.9483 -32.8865 -32.8720 -32.8667
   -19.2880 -18.7344 -18.2718 -18.1350 -17.9638 -17.9216 -17.8478 -17.8348
   -17.8229 -17.7934 -17.7016 -17.6782 -17.6517 -17.5689 -17.5498 -17.5002
   -17.4563 -17.4430 -17.4248 -17.4139 -17.4058 -17.3890 -17.3551 -17.3231
   -17.2904 -17.2384 -17.1765 -17.1578 -17.1093 -17.0945 -17.0639 -16.8797
   -15.4976 -15.2112 -15.2092 -15.0924 -15.0834  -6.9901  -6.8459  -6.6402
    -6.3236  -5.5170  -5.4540  -5.3706  -5.3558  -5.2381  -5.2063  -5.0139
    -5.0042  -4.9896  -4.9578  -4.9254  -4.8894  -4.8630  -4.8385  -4.8249
    -4.8109  -4.7897  -4.7638  -4.7517  -4.7355  -4.6915  -4.6446  -4.6383
    -4.6273  -4.6048  -4.5505  -4.5054  -4.4777  -4.4251  -4.4219  -4.3415
    -4.3180  -4.3000  -4.2259  -4.2175  -4.0972  -3.9486  -3.8872  -3.8671
    -3.8430  -3.7957  -3.7863  -3.7320  -3.7104  -3.6939  -3.5555  -3.4740
    -3.4502  -3.4159  -3.3848  -3.3614  -3.3258  -3.2987  -3.2760  -3.2510
    -3.2350  -3.1816  -3.1650  -3.1225  -3.0802  -2.9985  -2.9540  -2.8963
    -2.8736  -2.8553  -2.8370  -2.8333  -2.8127  -2.7800  -2.7509  -2.6958
    -2.6858  -2.6557  -2.5842  -2.5293  -2.5014  -2.4768  -2.4347  -2.4277
    -2.2727  -2.2534  -2.2197  -2.2082  -2.1346  -2.0916  -1.9995  -1.9732
    -1.9505  -1.8792  -1.8073  -1.7639  -1.7074  -1.5111  -1.5023  -1.3832
    -1.3465  -1.2977  -1.2721  -1.2301  -1.0693  -0.7338  -0.6628  -0.3795
    -0.3683  -0.3423  -0.1869  -0.1806   1.4294   1.4530   1.5381   1.5944
     1.6133   1.6510   1.6638   1.7028   1.7233   1.7799   1.9157

     the Fermi energy is     1.3731 ev

!    total energy              =   -3295.80758574 Ry
     estimated scf accuracy    <       0.00000005 Ry
     smearing contrib. (-TS)   =      -0.03571592 Ry
     internal energy E=F+TS    =   -3295.77186982 Ry

     The total energy is F=E-TS. E is the sum of the following terms:
     one-electron contribution =  -34705.77008761 Ry
     hartree contribution      =   17418.79710138 Ry
     xc contribution           =    -543.86422929 Ry
     ewald contribution        =   14535.06247492 Ry
     electric field correction =       0.00287078 Ry

     convergence has been achieved in  73 iterations

     Forces acting on atoms (cartesian axes, Ry/au):

     atom    1 type  1   force =    -0.00168652    0.00377120    0.05470933
     atom    2 type  1   force =     0.00023805   -0.00251082   -0.00842465
     atom    3 type  1   force =     0.00048287   -0.00343683    0.00025373
     atom    4 type  1   force =     0.00004225   -0.00002981    0.10676668
     atom    5 type  1   force =    -0.00020431    0.00064413    0.00658586
     atom    6 type  1   force =     0.00002555   -0.00451965    0.00375818
     atom    7 type  1   force =     0.06645935    0.00078906   -0.02965127
     atom    8 type  1   force =     0.00659287   -0.02712792    0.00195513
     atom    9 type  1   force =     0.00661587   -0.02255314    0.00513492
     atom   10 type  2   force =    -0.00010746   -0.00449941   -0.18343092
     atom   11 type  2   force =     0.00067526    0.02088359   -0.00414891
     atom   12 type  2   force =    -0.00178952    0.02766157   -0.00658090
     atom   13 type  1   force =    -0.06651673    0.00044565   -0.02979477
     atom   14 type  1   force =    -0.00433230   -0.02770869    0.00252818
     atom   15 type  1   force =    -0.00656996   -0.02335438    0.00502561
     atom   16 type  2   force =     0.00008069    0.00070177    0.06700619
     atom   17 type  2   force =    -0.00238232    0.03353708    0.00348635
     atom   18 type  2   force =     0.00124317    0.02453034   -0.00363912
     atom   19 type  1   force =    -0.00169711    0.00675243    0.05325869
     atom   20 type  1   force =     0.00023709   -0.00117314   -0.00660155
     atom   21 type  1   force =     0.00003557    0.00110129    0.10723340
     atom   22 type  1   force =    -0.00025131   -0.00199127    0.00721116
     atom   23 type  1   force =     0.00073290   -0.00586945    0.00412939
     atom   24 type  1   force =     0.06748740    0.00137938   -0.02905083
     atom   25 type  1   force =     0.00529070   -0.03015643    0.00245048
     atom   26 type  1   force =     0.00678369   -0.02613455   -0.00416794
     atom   27 type  2   force =     0.00011055   -0.00120647   -0.18672837
     atom   28 type  2   force =     0.00008135    0.02388108   -0.00247850
     atom   29 type  2   force =    -0.00094418    0.02216690    0.00071498
     atom   30 type  1   force =    -0.06759294    0.00087474   -0.02890530
     atom   31 type  1   force =    -0.00538293   -0.02962084    0.00278916
     atom   32 type  1   force =    -0.00423061   -0.02250382    0.00262381
     atom   33 type  2   force =    -0.00004558    0.00131682    0.07475008
     atom   34 type  2   force =     0.00091910    0.03692116    0.00405907
     atom   35 type  2   force =    -0.00217826    0.03486004    0.00503593
     atom   36 type  1   force =    -0.00186626    0.00289352    0.05588488
     atom   37 type  1   force =     0.00132157    0.00402212   -0.01134538
     atom   38 type  1   force =     0.00003266   -0.00502438    0.00416405
     atom   39 type  1   force =     0.00002130   -0.00063251    0.10725564
     atom   40 type  1   force =     0.00015708   -0.00140647    0.00714919
     atom   41 type  1   force =    -0.00027273   -0.00398159    0.00177088
     atom   42 type  1   force =     0.06782636   -0.00221223   -0.02968799
     atom   43 type  1   force =     0.00367954   -0.02636850    0.00152258
     atom   44 type  1   force =     0.00998306   -0.01800306    0.00268474
     atom   45 type  2   force =     0.00003038    0.00217084   -0.18328980
     atom   46 type  2   force =    -0.00023455    0.01478123    0.00205244
     atom   47 type  2   force =     0.00276174    0.02639117   -0.00840603
     atom   48 type  1   force =    -0.06789175   -0.00284192   -0.02984937
     atom   49 type  1   force =    -0.00374292   -0.02551440    0.00182432
     atom   50 type  1   force =    -0.00796604   -0.02365379    0.00520504
     atom   51 type  2   force =     0.00045487   -0.00350864    0.06843273
     atom   52 type  2   force =    -0.00011688    0.03118402    0.00593660
     atom   53 type  2   force =    -0.00204754    0.02592136   -0.00053389
     atom   54 type  3   force =     0.00066523   -0.00250702   -0.00088773
     atom   55 type  4   force =    -0.00091885    0.00040615   -0.00050726
     atom   56 type  4   force =     0.00051247    0.00088197    0.00127144
     atom   57 type  3   force =     0.00128950   -0.00265903   -0.00024026
     atom   58 type  4   force =     0.00049900    0.00098442   -0.00005967
     atom   59 type  4   force =     0.00006522    0.00027454    0.00071261
     atom   60 type  4   force =    -0.00122715    0.00170902   -0.00004339
     atom   61 type  4   force =    -0.00123755   -0.00112845    0.00112036

     Total force =     0.459492     Total SCF correction =     0.000575
  @ DRIVER MODE: Message from server: STATUS
  @ DRIVER MODE: Message from server: GETFORCE
  @ DRIVER MODE: Returning v,forces,stress,ensemble

     Writing output data file ./calc.save/
  @ DRIVER MODE: Message from server: EXIT
  @ DRIVE MODE: Exiting

     General routines

     Parallel routines

   This run was terminated on:   6:55:44  19Oct2021

   JOB DONE.