     Program PWSCF v.6.7GPU starts on 25Aug2021 at 10:40: 0

     R & G space division:  proc/nbgrp/npool/nimage =       6
     Reading input from /storage/home/hcoda1/3/ntian30/research/carbon/CH3_vib_end_on/ads_slab/CH3N2H_a/out_0036/pw.inp
Warning: card &CELL ignored
Warning: card   CELL_DYNAMICS='IPI', ignored
Warning: card / ignored

     Current dimensions of program PWSCF are:
     Max number of different atomic species (ntypx) = 10
     Max number of k-points (npk) =  40000
     Max angular momentum in pseudopotentials (lmaxx) =  3
     Presently no symmetry can be used with electric field

     Message from routine cell_base_init:
     DEPRECATED: use true lattice parameter, not A to a.u. conversion factor

     IMPORTANT: XC functional enforced from input :
     Exchange-correlation= BEEF-VDW
                           (   1   4  43  14   2   0   0)
     Any further DFT definition will be discarded
     Please, verify this is what you really want

  @ DRIVER MODE: Connecting to
 qe_1139763_2643869.sched-torque.pace.gatech.eduleiwkeb9_scratch
  using UNIX socket
  @ DRIVER MODE: Message from server: STATUS
  @ DRIVER MODE: Message from server: INIT
  @ DRIVER MODE: Receiving replica           0          -1
  @ DRIVER MODE: Receiving encoded integer          25
  @ DRIVER MODE:  SCF:  T  FORCE:  T  STRESS:  F  VC:  F  ENSEMBLE:  F
  @ DRIVER MODE:  SCF:  T  FORCE:  T  STRESS:  F  VC:  F  ENSEMBLE:  F

     Using Slab Decomposition

     bravais-lattice index     =            0
     lattice parameter (alat)  =       1.8897  a.u.
     unit-cell volume          =    6658.9804 (a.u.)^3
     number of atoms/cell      =           54
     number of atomic types    =            5
     number of electrons       =       396.00
     number of Kohn-Sham states=          208
     kinetic-energy cutoff     =      29.3995  Ry
     charge density cutoff     =     293.9946  Ry
     scf convergence threshold =      7.3E-08
     mixing beta               =       0.0500
     number of iterations used =            8  plain     mixing
     Exchange-correlation= BEEF-VDW
                           (   1   4  43  14   2   0   0)

     celldm(1)=   1.889726  celldm(2)=   0.000000  celldm(3)=   0.000000
     celldm(4)=   0.000000  celldm(5)=   0.000000  celldm(6)=   0.000000

     crystal axes: (cart. coord. in units of alat)
               a(1) = (   6.579727   0.000000   0.000000 )
               a(2) = (  -0.000775   5.961596   0.000000 )
               a(3) = (   0.000000   0.000000  25.155947 )

     reciprocal axes: (cart. coord. in units 2 pi/alat)
               b(1) = (  0.151982  0.000020  0.000000 )
               b(2) = (  0.000000  0.167740  0.000000 )
               b(3) = (  0.000000  0.000000  0.039752 )

     PseudoPot. # 1 for Ti read from file:
     /storage/coda1/p-amedford6/0/shared/rich_project_chbe-medford/medford-share/data/pseudos_module/espresso/nninc/pbe/van/Ti.UPF
     MD5 check sum: 8e4df49b7f0d34bbd5052bf3f5ea0213
     Pseudo is Ultrasoft, Zval = 12.0
     Generated by new atomic code, or converted to UPF format
     Using radial grid of  851 points,  6 beta functions with:
                l(1) =   0
                l(2) =   0
                l(3) =   1
                l(4) =   1
                l(5) =   2
                l(6) =   2
     Q(r) pseudized with  8 coefficients,  rinner =    1.000   1.000   1.000
                                                       1.000   1.000

     PseudoPot. # 2 for O  read from file:
     /storage/coda1/p-amedford6/0/shared/rich_project_chbe-medford/medford-share/data/pseudos_module/espresso/nninc/pbe/van/O.UPF
     MD5 check sum: 78c19812648e8988a0fe644b0f25305e
     Pseudo is Ultrasoft, Zval =  6.0
     Generated by new atomic code, or converted to UPF format
     Using radial grid of  737 points,  4 beta functions with:
                l(1) =   0
                l(2) =   0
                l(3) =   1
                l(4) =   1
     Q(r) pseudized with  8 coefficients,  rinner =    0.800   0.800   0.800

     PseudoPot. # 3 for N  read from file:
     /storage/coda1/p-amedford6/0/shared/rich_project_chbe-medford/medford-share/data/pseudos_module/espresso/nninc/pbe/van/N.UPF
     MD5 check sum: 90d10febe142ad51ac9d5be1deb811c4
     Pseudo is Ultrasoft, Zval =  5.0
     Generated by new atomic code, or converted to UPF format
     Using radial grid of  729 points,  4 beta functions with:
                l(1) =   0
                l(2) =   0
                l(3) =   1
                l(4) =   1
     Q(r) pseudized with  8 coefficients,  rinner =    0.800   0.800   0.800

     PseudoPot. # 4 for C  read from file:
     /storage/coda1/p-amedford6/0/shared/rich_project_chbe-medford/medford-share/data/pseudos_module/espresso/nninc/pbe/van/C.UPF
     MD5 check sum: 1a69bf6b8db32088f5b2163dbdb77a27
     Pseudo is Ultrasoft, Zval =  4.0
     Generated by new atomic code, or converted to UPF format
     Using radial grid of  721 points,  4 beta functions with:
                l(1) =   0
                l(2) =   0
                l(3) =   1
                l(4) =   1
     Q(r) pseudized with  8 coefficients,  rinner =    0.800   0.800   0.800

     PseudoPot. # 5 for H  read from file:
     /storage/coda1/p-amedford6/0/shared/rich_project_chbe-medford/medford-share/data/pseudos_module/espresso/nninc/pbe/van/H.UPF
     MD5 check sum: b5ee9d7bfd3a09ee7748110bda690ff7
     Pseudo is Ultrasoft, Zval =  1.0
     Generated by new atomic code, or converted to UPF format
     Using radial grid of  615 points,  1 beta functions with:
                l(1) =   0
     Q(r) pseudized with  8 coefficients,  rinner =    0.800

     atomic species   valence    mass     pseudopotential
        Ti1           12.00    47.86700     Ti( 1.00)
        O1             6.00    15.99900     O ( 1.00)
        N1             5.00    14.00700     N ( 1.00)
        C1             4.00    12.01100     C ( 1.00)
        H1             1.00     1.00800     H ( 1.00)

     No symmetry found

   Cartesian axes

     site n.     atom                  positions (alat units)
         1           Ti1 tau(   1) = (   0.0004258   2.9801865   6.0000000  )
         2           Ti1 tau(   2) = (   3.2906075   1.4906267   6.0002472  )
         3           O1  tau(   3) = (   0.0006271   0.0005054   7.9858123  )
         4           O1  tau(   4) = (   3.2906025   0.0005020   7.3038282  )
         5           O1  tau(   5) = (   4.5942328   1.4918067   9.2879030  )
         6           O1  tau(   6) = (   1.9868534   1.4903216   9.2879459  )
         7           Ti1 tau(   7) = (   3.2907910   2.8959150   9.1758416  )
         8           Ti1 tau(   8) = (   0.0015273   1.4827037   9.2680791  )
         9           O1  tau(   9) = (   3.2896288   0.0042867  11.3205077  )
        10           O1  tau(  10) = (   0.0116148   5.9584955  10.6183126  )
        11           O1  tau(  11) = (   1.2848067   1.4985890  12.6232755  )
        12           O1  tau(  12) = (   5.2688617   1.4893877  12.6055203  )
        13           Ti1 tau(  13) = (   0.0799559   3.0171279  12.6206390  )
        14           Ti1 tau(  14) = (   3.4009582   1.4891986  12.4726338  )
        15           O1  tau(  15) = (   6.5707323   0.0080309  14.6263129  )
        16           O1  tau(  16) = (   3.2902489   0.0120312  13.8979102  )
        17           O1  tau(  17) = (   4.5126121   1.5346005  16.0500440  )
        18           O1  tau(  18) = (   2.0453867   1.5362785  16.0447169  )
        19           Ti1 tau(  19) = (   3.2767562   3.0203775  15.6892921  )
        20           Ti1 tau(  20) = (   6.5596632   1.5778499  15.8310978  )
        21           O1  tau(  21) = (   3.2904802   0.0005063   4.7018136  )
        22           O1  tau(  22) = (   6.5709656   0.0671247  17.2345223  )
        23           O1  tau(  23) = (   1.3043587   1.4918075   6.0039043  )
        24           O1  tau(  24) = (   5.2767064   1.4903225   6.0039473  )
        25           Ti1 tau(  25) = (   0.0000382   5.9609847   6.0000000  )
        26           Ti1 tau(  26) = (   3.2902200   4.4714249   6.0002472  )
        27           O1  tau(  27) = (   0.0002396   2.9813036   7.9858123  )
        28           O1  tau(  28) = (   3.2902150   2.9813002   7.3038282  )
        29           O1  tau(  29) = (   4.5938453   4.4726049   9.2879030  )
        30           O1  tau(  30) = (   1.9864658   4.4711199   9.2879459  )
        31           Ti1 tau(  31) = (   3.2891106   5.8743827   9.1763621  )
        32           Ti1 tau(  32) = (   0.0006254   4.4649316   9.2693709  )
        33           O1  tau(  33) = (   3.2919429   2.9835650  11.3172650  )
        34           O1  tau(  34) = (   0.0092240   2.9805883  10.6323155  )
        35           O1  tau(  35) = (   1.2842535   4.4799506  12.6241420  )
        36           O1  tau(  36) = (   5.2755836   4.4732255  12.6042992  )
        37           Ti1 tau(  37) = (   0.0783641   0.0295629  12.6394962  )
        38           Ti1 tau(  38) = (   3.4022659   4.4693352  12.4708195  )
        39           O1  tau(  39) = (   6.5693815   2.9799975  14.6326336  )
        40           O1  tau(  40) = (   3.2899495   3.0014797  13.8849495  )
        41           O1  tau(  41) = (   4.5062741   4.5069571  16.0893315  )
        42           O1  tau(  42) = (   2.0480812   4.5060041  16.0753496  )
        43           Ti1 tau(  43) = (   3.2742444   0.0367023  15.7020416  )
        44           Ti1 tau(  44) = (   6.5658628   4.6518251  16.1481936  )
        45           O1  tau(  45) = (   3.2900926   2.9813045   4.7018136  )
        46           O1  tau(  46) = (   1.3039711   4.4726057   6.0039043  )
        47           O1  tau(  47) = (   5.2763189   4.4711207   6.0039473  )
        48           N1  tau(  48) = (   6.5201982   2.6597193  18.5868863  )
        49           N1  tau(  49) = (   6.5663212   2.9659568  17.3251533  )
        50           C1  tau(  50) = (   0.1092964   3.6297355  19.6533281  )
        51           H1  tau(  51) = (   6.1365678   4.5355971  19.4091500  )
        52           H1  tau(  52) = (   6.3142024   3.1981282  20.5813133  )
        53           H1  tau(  53) = (   1.1661384   3.8973747  19.7939464  )
        54           H1  tau(  54) = (   6.5756389   1.6632157  18.8047554  )

     number of k points=    10  Fermi-Dirac smearing, width (Ry)=  0.0073
                       cart. coord. in units 2pi/alat
        k(    1) = (   0.0000000   0.0000000   0.0000000), wk =   0.1250000
        k(    2) = (   0.0000000   0.0419351   0.0000000), wk =   0.2500000
        k(    3) = (   0.0000000  -0.0838702   0.0000000), wk =   0.1250000
        k(    4) = (   0.0379955   0.0000049   0.0000000), wk =   0.2500000
        k(    5) = (   0.0379955   0.0419400   0.0000000), wk =   0.2500000
        k(    6) = (   0.0379955  -0.0838652   0.0000000), wk =   0.2500000
        k(    7) = (   0.0379955  -0.0419301   0.0000000), wk =   0.2500000
        k(    8) = (  -0.0759910  -0.0000099   0.0000000), wk =   0.1250000
        k(    9) = (  -0.0759910   0.0419252   0.0000000), wk =   0.2500000
        k(   10) = (  -0.0759910  -0.0838800   0.0000000), wk =   0.1250000

     Initial potential from superposition of free atoms

     starting charge  379.99915, renormalised to  396.00000

     negative rho (up, down):  1.473E-02 0.000E+00

     %%%%%%%%%%%%%%%%%%%%%%%%%%%%%%%%%%%%%%%%%%%%%%%%%%%%%%%%%%%%%%%%%%%%%%%%
     %                                                                      %
     % You are using vdW-DF, which was implemented by the Thonhauser group. %
     % Please cite the following two papers that made this development      %
     % possible and the two reviews that describe the various versions:     %
     %                                                                      %
     %   T. Thonhauser et al., PRL 115, 136402 (2015).                      %
     %   T. Thonhauser et al., PRB 76, 125112 (2007).                       %
     %   K. Berland et al., Rep. Prog. Phys. 78, 066501 (2015).             %
     %   D.C. Langreth et al., J. Phys.: Condens. Matter 21, 084203 (2009). %
     %                                                                      %
     %                                                                      %
     % If you are calculating the stress with vdW-DF, please also cite:     %
     %                                                                      %
     %   R. Sabatini et al., J. Phys.: Condens. Matter 24, 424209 (2012).   %
     %                                                                      %
     %%%%%%%%%%%%%%%%%%%%%%%%%%%%%%%%%%%%%%%%%%%%%%%%%%%%%%%%%%%%%%%%%%%%%%%%

     Adding external electric field

     Computed dipole along edir(3) :
        Dipole               -9.2712 Ry au,        -23.5651 Debye
        Dipole field         -0.0175 Ry au,

        Potential amp.        1.6219 Ry
        Total length         46.3494 bohr

     Starting wfcs are  300 atomic wfcs
  @ DRIVER MODE: Message from server: STATUS
  @ DRIVER MODE: Message from server: POSDATA
  @ DRIVER MODE: Reading and sharing cell
  @ DRIVER MODE: Reading and sharing positions
  @ DRIVER MODE: Received positions

     Self-consistent Calculation

     iteration #  1     ecut=    29.40 Ry     beta= 0.05
     Davidson diagonalization with overlap
     c_bands:  1 eigenvalues not converged
     c_bands:  1 eigenvalues not converged
     c_bands:  1 eigenvalues not converged
     ethr =  1.00E-05,  avg # of iterations = 17.9

[...]

     total energy              =   -2585.16366697 Ry
     estimated scf accuracy    <    3948.40803300 Ry

     iteration #  2     ecut=    29.40 Ry     beta= 0.05
     Davidson diagonalization with overlap
     ethr =  1.00E-02,  avg # of iterations = 22.2

[...]

     iteration # 79     ecut=    29.40 Ry     beta= 0.05
     Davidson diagonalization with overlap
     c_bands:  1 eigenvalues not converged
     ethr =  1.63E-10,  avg # of iterations = 11.3

[...]

     total energy              =   -2940.39767439 Ry
     estimated scf accuracy    <       0.00000026 Ry

     iteration # 85     ecut=    29.40 Ry     beta= 0.05
     Davidson diagonalization with overlap
     ethr =  5.41E-11,  avg # of iterations =  7.2

     negative rho (up, down):  1.567E-02 0.000E+00

     Adding external electric field

     Computed dipole along edir(3) :
        Dipole                1.1311 Ry au,          2.8750 Debye
        Dipole field          0.0021 Ry au,

        Potential amp.       -0.1979 Ry
        Total length         46.3494 bohr

     End of self-consistent calculation

          k = 0.0000 0.0000 0.0000 ( 18029 PWs)   bands (ev):

   -55.6442 -55.6102 -55.5519 -55.5142 -55.4082 -55.3856 -55.3744 -55.3506
   -55.3434 -55.3357 -55.3167 -55.2661 -54.7252 -54.5860 -54.5573 -54.5520
   -32.1186 -32.0954 -31.9384 -31.9253 -31.8951 -31.8647 -31.8464 -31.8401
   -31.7974 -31.7801 -31.7796 -31.7409 -31.7317 -31.7138 -31.7028 -31.6923
   -31.6824 -31.6738 -31.6399 -31.6291 -31.6064 -31.5865 -31.5791 -31.5643
   -31.5519 -31.5455 -31.5387 -31.5371 -31.5315 -31.5143 -31.5049 -31.5036
   -31.4996 -31.4628 -31.4478 -31.3802 -31.2231 -30.9918 -30.9483 -30.9337
   -30.9070 -30.8946 -30.8843 -30.8086 -30.7657 -30.7369 -30.7223 -30.6113
   -18.0002 -16.2782 -16.0505 -15.7730 -15.6717 -15.6486 -15.5277 -15.3956
   -15.2953 -15.1998 -15.1598 -15.1055 -15.1008 -15.0714 -15.0414 -15.0055
   -14.9775 -14.9384 -14.9192 -14.9007 -14.8745 -14.8654 -14.7559 -14.7418
   -14.7177 -14.6264 -14.6161 -14.5422 -14.5170 -14.0857 -13.0885 -12.9727
   -12.0163  -8.9293  -5.7318  -4.4571  -4.1382  -3.6611  -3.5354  -3.5051
    -3.4037  -3.2265  -3.1391  -3.0787  -2.9481  -2.7654  -2.7303  -2.7205
    -2.7004  -2.6425  -2.4447  -2.4191  -2.3875  -2.3479  -2.3381  -2.3355
    -2.3216  -2.2597  -2.1927  -2.1288  -2.0295  -2.0241  -1.9689  -1.9558
    -1.9388  -1.9035  -1.8604  -1.8211  -1.7998  -1.7573  -1.7391  -1.7323
    -1.6900  -1.6082  -1.5061  -1.3488  -1.3298  -1.3012  -1.2527  -1.1982
    -1.0336  -1.0174  -0.9805  -0.9746  -0.9423  -0.8672  -0.7995  -0.7149
    -0.6780  -0.6016  -0.5860  -0.5570  -0.4827  -0.3972  -0.3744  -0.3595
    -0.3520  -0.3364  -0.2779  -0.1633  -0.0685  -0.0382   0.0828   0.0874
     0.1225   0.1666   0.1834   0.2651   0.3010   0.3152   0.3661   0.3666
     0.3784   0.4223   0.4452   0.5082   0.5642   0.6481   0.7213   0.7867
     0.8236   0.9397   1.0106   1.0758   1.1087   1.2376   1.3662   1.3739
     1.4354   1.6313   1.6335   2.0041   2.0484   3.5272   3.5483   3.6410
     3.6845   3.7824   3.8215   3.9657   4.0214   4.0585   4.1725   4.2035

[...]

          k = 0.0380-0.0419 0.0000 ( 17876 PWs)   bands (ev):

[...]

          k =-0.0760-0.0000 0.0000 ( 17886 PWs)   bands (ev):

[...]

          k =-0.0760-0.0839 0.0000 ( 17948 PWs)   bands (ev):

   -55.6273 -55.6269 -55.5388 -55.5271 -55.3913 -55.3910 -55.3766 -55.3523
   -55.3351 -55.3323 -55.3310 -55.2707 -54.7236 -54.5690 -54.5688 -54.5588
   -31.9342 -31.9340 -31.9237 -31.9236 -31.9032 -31.8939 -31.7964 -31.7866
   -31.7629 -31.7501 -31.7482 -31.7476 -31.7032 -31.7003 -31.6874 -31.6840
   -31.6758 -31.6719 -31.6714 -31.6455 -31.6018 -31.5992 -31.5870 -31.5840
   -31.5796 -31.5780 -31.5763 -31.5659 -31.5634 -31.5572 -31.5500 -31.5470
   -31.5393 -31.5295 -31.5035 -31.4684 -31.1323 -30.9689 -30.9346 -30.9217
   -30.8971 -30.8970 -30.8048 -30.8046 -30.7848 -30.7669 -30.7655 -30.7654
   -17.9944 -15.7010 -15.6897 -15.5110 -15.5058 -15.4450 -15.4388 -15.2862
   -15.2853 -15.2666 -15.2584 -15.1355 -15.1317 -15.0996 -15.0960 -15.0536
   -15.0447 -15.0274 -15.0190 -15.0174 -15.0108 -14.9833 -14.9323 -14.8995
   -14.8939 -14.7161 -14.7156 -14.5951 -14.5620 -14.2209 -13.0748 -13.0746
   -12.0172  -8.9391  -5.7237  -4.3954  -4.1412  -2.9908  -2.9788  -2.9638
    -2.7056  -2.7005  -2.6762  -2.6657  -2.4605  -2.4478  -2.4266  -2.4210
    -2.3935  -2.3878  -2.3729  -2.3658  -2.2823  -2.2721  -2.2609  -2.2369
    -2.2327  -2.2286  -2.2125  -2.2051  -2.1951  -2.1616  -2.1255  -2.0965
    -2.0619  -2.0391  -1.9197  -1.8091  -1.7321  -1.7254  -1.6949  -1.6892
    -1.6832  -1.6768  -1.6435  -1.5393  -1.4824  -1.4273  -1.2909  -1.2659
    -1.2485  -1.2023  -1.1140  -1.0332  -0.9703  -0.9526  -0.9055  -0.8624
    -0.8375  -0.7531  -0.7292  -0.7214  -0.6538  -0.6211  -0.5768  -0.5712
    -0.5558  -0.4902  -0.4421  -0.3929  -0.3697  -0.3390  -0.2936  -0.2730
    -0.2101  -0.1578  -0.1109  -0.1054  -0.0572  -0.0489   0.0168   0.1663
     0.2157   0.4690   0.4832   0.5144   0.6391   0.7098   0.7151   0.7434
     0.7754   0.8269   0.8388   0.9720   0.9839   0.9868   1.1516   1.1759
     1.2644   1.8038   1.8041   1.8674   1.8678   3.4297   3.9200   3.9373
     3.9624   3.9776   4.0486   4.0497   4.0579   4.0653   4.2621   4.2630

     the Fermi energy is     3.5043 ev

!    total energy              =   -2940.39768353 Ry
     estimated scf accuracy    <       0.00000006 Ry
     smearing contrib. (-TS)   =      -0.02301510 Ry
     internal energy E=F+TS    =   -2940.37466843 Ry

     The total energy is F=E-TS. E is the sum of the following terms:
     one-electron contribution =  -24108.90719540 Ry
     hartree contribution      =   12145.67669781 Ry
     xc contribution           =    -486.04463065 Ry
     ewald contribution        =    9508.89804536 Ry
     electric field correction =       0.00241445 Ry

     convergence has been achieved in  85 iterations

     Forces acting on atoms (cartesian axes, Ry/au):

     atom    1 type  1   force =     0.00015728   -0.00012761    0.09933848
     atom    2 type  1   force =    -0.00012476   -0.00047615   -0.17360054
     atom    3 type  2   force =    -0.00005056    0.00000239   -0.02878567
     atom    4 type  2   force =     0.00007317   -0.00125171    0.04997287
     atom    5 type  2   force =    -0.01306453    0.00057745    0.00121442
     atom    6 type  2   force =     0.01461258    0.00138473   -0.00010941
     atom    7 type  1   force =    -0.00144613   -0.00059991   -0.00835321
     atom    8 type  1   force =     0.00088323   -0.00412269    0.04512977
     atom    9 type  2   force =    -0.00003417   -0.00065867   -0.00026002
     atom   10 type  2   force =    -0.00128974    0.00227880   -0.02842209
     atom   11 type  2   force =     0.00018575    0.00061006   -0.00003499
     atom   12 type  2   force =     0.00025524    0.00040995    0.00010892
     atom   13 type  1   force =     0.00037450    0.00021519   -0.00054962
     atom   14 type  1   force =     0.00003073    0.00047386    0.00033949
     atom   15 type  2   force =     0.00034100   -0.00009220   -0.00008280
     atom   16 type  2   force =    -0.00041005   -0.00023200   -0.00020461
     atom   17 type  2   force =    -0.00101618    0.00013721   -0.00052432
     atom   18 type  2   force =     0.00089108    0.00019445    0.00023553
     atom   19 type  1   force =     0.00021764   -0.00007205    0.00006150
     atom   20 type  1   force =    -0.00049212   -0.00081427    0.00026970
     atom   21 type  2   force =     0.00009133   -0.00007386    0.10273645
     atom   22 type  2   force =     0.00010043    0.00003167    0.00002672
     atom   23 type  2   force =    -0.07212561   -0.00016235   -0.02831916
     atom   24 type  2   force =     0.07212236    0.00029651   -0.02831545
     atom   25 type  1   force =     0.00012571   -0.00019947    0.09864444
     atom   26 type  1   force =    -0.00011189   -0.00045699   -0.17381410
     atom   27 type  2   force =     0.00001226   -0.00002778   -0.02806114
     atom   28 type  2   force =     0.00011464   -0.00099918    0.04942930
     atom   29 type  2   force =    -0.01338564    0.00005480    0.00127491
     atom   30 type  2   force =     0.01484269    0.00041970   -0.00006847
     atom   31 type  1   force =    -0.00139780    0.00250770   -0.00864335
     atom   32 type  1   force =     0.00106306    0.00238138    0.04544389
     atom   33 type  2   force =    -0.00013229    0.00104411    0.00056114
     atom   34 type  2   force =    -0.00071541    0.00119985   -0.03116691
     atom   35 type  2   force =     0.00067789   -0.00051199   -0.00018189
     atom   36 type  2   force =    -0.00162919   -0.00011070    0.00006344
     atom   37 type  1   force =    -0.00017744   -0.00153189    0.00023922
     atom   38 type  1   force =     0.00078114   -0.00004295    0.00053307
     atom   39 type  2   force =     0.00032420    0.00017965   -0.00059420
     atom   40 type  2   force =    -0.00040465    0.00033106   -0.00006089
     atom   41 type  2   force =     0.00042780   -0.00058701    0.00002672
     atom   42 type  2   force =    -0.00041279   -0.00070818    0.00051345
     atom   43 type  1   force =     0.00036051   -0.00032505   -0.00053692
     atom   44 type  1   force =    -0.00033762   -0.00065267   -0.00016567
     atom   45 type  2   force =     0.00011135   -0.00006821    0.10275243
     atom   46 type  2   force =    -0.07214653   -0.00009217   -0.02831478
     atom   47 type  2   force =     0.07213018    0.00034787   -0.02829136
     atom   48 type  3   force =     0.00090685    0.00001767   -0.00049855
     atom   49 type  3   force =    -0.00001646   -0.00043562   -0.00034062
     atom   50 type  4   force =     0.00182327    0.00034610    0.00264386
     atom   51 type  5   force =     0.00010534   -0.00046697    0.00010812
     atom   52 type  5   force =    -0.00064278   -0.00007263   -0.00054978
     atom   53 type  5   force =    -0.00205068    0.00007047   -0.00289886
     atom   54 type  5   force =    -0.00052819    0.00046033    0.00008153

     Total force =     0.372209     Total SCF correction =     0.000848
  @ DRIVER MODE: Message from server: STATUS
  @ DRIVER MODE: Message from server: GETFORCE
  @ DRIVER MODE: Returning v,forces,stress,ensemble

     Writing output data file ./calc.save/
  @ DRIVER MODE: Message from server: EXIT
  @ DRIVE MODE: Exiting

     General routines

     Parallel routines

   This run was terminated on:  11:15:49  25Aug2021

   JOB DONE.