     Program PWSCF v.6.7GPU starts on 17Jul2021 at  5:33:57

     R & G space division:  proc/nbgrp/npool/nimage =      16
     Reading input from /storage/home/hcoda1/3/ntian30/research/carbon/15Jul_vib/ads_slab/CH3NNHHH_a/out_0045/pw.inp
Warning: card &CELL ignored
Warning: card   CELL_DYNAMICS='IPI', ignored
Warning: card / ignored

     Current dimensions of program PWSCF are:
     Max number of different atomic species (ntypx) = 10
     Max number of k-points (npk) =  40000
     Max angular momentum in pseudopotentials (lmaxx) =  3
     Presently no symmetry can be used with electric field

     Message from routine cell_base_init:
     DEPRECATED: use true lattice parameter, not A to a.u. conversion factor

     IMPORTANT: XC functional enforced from input :
     Exchange-correlation= BEEF-VDW
                           (   1   4  43  14   2   0   0)
     Any further DFT definition will be discarded
     Please, verify this is what you really want

  @ DRIVER MODE: Connecting to
 qe_1139763_2351652.sched-torque.pace.gatech.eduxvyq2ox4_scratch
  using UNIX socket
  @ DRIVER MODE: Message from server: STATUS
  @ DRIVER MODE: Message from server: INIT
  @ DRIVER MODE: Receiving replica           0          -1
  @ DRIVER MODE: Receiving encoded integer          25
  @ DRIVER MODE:  SCF:  T  FORCE:  T  STRESS:  F  VC:  F  ENSEMBLE:  F
  @ DRIVER MODE:  SCF:  T  FORCE:  T  STRESS:  F  VC:  F  ENSEMBLE:  F

     Using Slab Decomposition

     bravais-lattice index     =            0
     lattice parameter (alat)  =       1.8897  a.u.
     unit-cell volume          =    6658.9804 (a.u.)^3
     number of atoms/cell      =           56
     number of atomic types    =            5
     number of electrons       =       398.00
     number of Kohn-Sham states=          209
     kinetic-energy cutoff     =      29.3995  Ry
     charge density cutoff     =     293.9946  Ry
     scf convergence threshold =      7.3E-08
     mixing beta               =       0.0500
     number of iterations used =            8  plain     mixing
     Exchange-correlation= BEEF-VDW
                           (   1   4  43  14   2   0   0)

     celldm(1)=   1.889726  celldm(2)=   0.000000  celldm(3)=   0.000000
     celldm(4)=   0.000000  celldm(5)=   0.000000  celldm(6)=   0.000000

     crystal axes: (cart. coord. in units of alat)
               a(1) = (   6.579727   0.000000   0.000000 )
               a(2) = (  -0.000775   5.961596   0.000000 )
               a(3) = (   0.000000   0.000000  25.155947 )

     reciprocal axes: (cart. coord. in units 2 pi/alat)
               b(1) = (  0.151982  0.000020  0.000000 )
               b(2) = (  0.000000  0.167740  0.000000 )
               b(3) = (  0.000000  0.000000  0.039752 )

     PseudoPot. # 1 for Ti read from file:
     /storage/coda1/p-amedford6/0/shared/rich_project_chbe-medford/medford-share/data/pseudos_module/espresso/nninc/pbe/van/Ti.UPF
     MD5 check sum: 8e4df49b7f0d34bbd5052bf3f5ea0213
     Pseudo is Ultrasoft, Zval = 12.0
     Generated by new atomic code, or converted to UPF format
     Using radial grid of  851 points,  6 beta functions with:
                l(1) =   0
                l(2) =   0
                l(3) =   1
                l(4) =   1
                l(5) =   2
                l(6) =   2
     Q(r) pseudized with  8 coefficients,  rinner =    1.000   1.000   1.000
                                                       1.000   1.000

     PseudoPot. # 2 for O  read from file:
     /storage/coda1/p-amedford6/0/shared/rich_project_chbe-medford/medford-share/data/pseudos_module/espresso/nninc/pbe/van/O.UPF
     MD5 check sum: 78c19812648e8988a0fe644b0f25305e
     Pseudo is Ultrasoft, Zval =  6.0
     Generated by new atomic code, or converted to UPF format
     Using radial grid of  737 points,  4 beta functions with:
                l(1) =   0
                l(2) =   0
                l(3) =   1
                l(4) =   1
     Q(r) pseudized with  8 coefficients,  rinner =    0.800   0.800   0.800

     PseudoPot. # 3 for N  read from file:
     /storage/coda1/p-amedford6/0/shared/rich_project_chbe-medford/medford-share/data/pseudos_module/espresso/nninc/pbe/van/N.UPF
     MD5 check sum: 90d10febe142ad51ac9d5be1deb811c4
     Pseudo is Ultrasoft, Zval =  5.0
     Generated by new atomic code, or converted to UPF format
     Using radial grid of  729 points,  4 beta functions with:
                l(1) =   0
                l(2) =   0
                l(3) =   1
                l(4) =   1
     Q(r) pseudized with  8 coefficients,  rinner =    0.800   0.800   0.800

     PseudoPot. # 4 for C  read from file:
     /storage/coda1/p-amedford6/0/shared/rich_project_chbe-medford/medford-share/data/pseudos_module/espresso/nninc/pbe/van/C.UPF
     MD5 check sum: 1a69bf6b8db32088f5b2163dbdb77a27
     Pseudo is Ultrasoft, Zval =  4.0
     Generated by new atomic code, or converted to UPF format
     Using radial grid of  721 points,  4 beta functions with:
                l(1) =   0
                l(2) =   0
                l(3) =   1
                l(4) =   1
     Q(r) pseudized with  8 coefficients,  rinner =    0.800   0.800   0.800

     PseudoPot. # 5 for H  read from file:
     /storage/coda1/p-amedford6/0/shared/rich_project_chbe-medford/medford-share/data/pseudos_module/espresso/nninc/pbe/van/H.UPF
     MD5 check sum: b5ee9d7bfd3a09ee7748110bda690ff7
     Pseudo is Ultrasoft, Zval =  1.0
     Generated by new atomic code, or converted to UPF format
     Using radial grid of  615 points,  1 beta functions with:
                l(1) =   0
     Q(r) pseudized with  8 coefficients,  rinner =    0.800

     atomic species   valence    mass     pseudopotential
        Ti1           12.00    47.86700     Ti( 1.00)
        O1             6.00    15.99900     O ( 1.00)
        N1             5.00    14.00700     N ( 1.00)
        C1             4.00    12.01100     C ( 1.00)
        H1             1.00     1.00800     H ( 1.00)

     Starting magnetic structure
     atomic species   magnetization
        Ti1          0.000
        O1           0.000
        N1           0.000
        C1           0.025
        H1           0.000

     No symmetry found

   Cartesian axes

     site n.     atom                  positions (alat units)
         1           Ti1 tau(   1) = (   0.0004258   2.9801865   6.0000000  )
         2           Ti1 tau(   2) = (   3.2906075   1.4906267   6.0002472  )
         3           O1  tau(   3) = (   0.0006271   0.0005054   7.9858123  )
         4           O1  tau(   4) = (   3.2906025   0.0005020   7.3038282  )
         5           O1  tau(   5) = (   4.5942328   1.4918067   9.2879030  )
         6           O1  tau(   6) = (   1.9868534   1.4903216   9.2879459  )
         7           Ti1 tau(   7) = (   3.2907910   2.8959150   9.1758416  )
         8           Ti1 tau(   8) = (   0.0015273   1.4827037   9.2680791  )
         9           O1  tau(   9) = (   3.2969863   5.9453513  11.3493076  )
        10           O1  tau(  10) = (   0.0116148   5.9584955  10.6183126  )
        11           O1  tau(  11) = (   1.3059050   1.4736943  12.6642453  )
        12           O1  tau(  12) = (   5.3003793   1.4775083  12.6459419  )
        13           Ti1 tau(  13) = (   0.0167275   2.9625105  12.5508078  )
        14           Ti1 tau(  14) = (   3.3131340   1.4712512  12.4909780  )
        15           O1  tau(  15) = (   6.5517612   5.9325698  14.7566896  )
        16           O1  tau(  16) = (   3.3302114   5.9429442  13.9823395  )
        17           O1  tau(  17) = (   4.5243935   1.5056208  16.2316672  )
        18           O1  tau(  18) = (   2.0170937   1.4633510  16.1378485  )
        19           Ti1 tau(  19) = (   3.2500237   2.9242626  15.6920970  )
        20           Ti1 tau(  20) = (   6.5441017   1.2779805  16.1516014  )
        21           O1  tau(  21) = (   3.2904802   0.0005063   4.7018136  )
        22           O1  tau(  22) = (   6.5540411   5.9581837  17.3465722  )
        23           O1  tau(  23) = (   1.3043587   1.4918075   6.0039043  )
        24           O1  tau(  24) = (   5.2767064   1.4903225   6.0039473  )
        25           Ti1 tau(  25) = (   0.0000382   5.9609847   6.0000000  )
        26           Ti1 tau(  26) = (   3.2902200   4.4714249   6.0002472  )
        27           O1  tau(  27) = (   0.0002396   2.9813036   7.9858123  )
        28           O1  tau(  28) = (   3.2902150   2.9813002   7.3038282  )
        29           O1  tau(  29) = (   4.5938453   4.4726049   9.2879030  )
        30           O1  tau(  30) = (   1.9864658   4.4711199   9.2879459  )
        31           Ti1 tau(  31) = (   3.2891106   5.8743827   9.1763621  )
        32           Ti1 tau(  32) = (   0.0006254   4.4649316   9.2693709  )
        33           O1  tau(  33) = (   3.2962403   2.9651072  11.3429128  )
        34           O1  tau(  34) = (   0.0092240   2.9805883  10.6323155  )
        35           O1  tau(  35) = (   1.3076126   4.4641214  12.6643835  )
        36           O1  tau(  36) = (   5.2981430   4.4591552  12.6429889  )
        37           Ti1 tau(  37) = (   0.0194730   5.9489450  12.5196332  )
        38           Ti1 tau(  38) = (   3.3150505   4.4522436  12.4946186  )
        39           O1  tau(  39) = (   6.5702761   2.9869041  14.8038460  )
        40           O1  tau(  40) = (   3.3119818   2.9576719  13.9204832  )
        41           O1  tau(  41) = (   4.5223198   4.3950437  16.2490866  )
        42           O1  tau(  42) = (   2.0356696   4.4339808  16.1311045  )
        43           Ti1 tau(  43) = (   3.3057863   5.9493229  15.7677403  )
        44           Ti1 tau(  44) = (   0.0958844   4.4293496  15.8701971  )
        45           O1  tau(  45) = (   3.2900926   2.9813045   4.7018136  )
        46           O1  tau(  46) = (   1.3039711   4.4726057   6.0039043  )
        47           O1  tau(  47) = (   5.2763189   4.4711207   6.0039473  )
        48           N1  tau(  48) = (   0.0620580   3.0375546  17.6897758  )
        49           C1  tau(  49) = (   1.1116374   2.9693208  18.6984743  )
        50           H1  tau(  50) = (   1.2951007   3.9532040  19.1583453  )
        51           H1  tau(  51) = (   0.8627774   2.2426413  19.4871689  )
        52           H1  tau(  52) = (   2.0263963   2.6228967  18.2308865  )
        53           N1  tau(  53) = (   5.4279256   3.3744730  18.4033390  )
        54           H1  tau(  54) = (   5.6103604   4.1199394  19.0852601  )
        55           H1  tau(  55) = (   4.7934260   3.7976565  17.6395878  )
        56           H1  tau(  56) = (   5.0090149   2.5598412  18.8678436  )

     number of k points=    10  Fermi-Dirac smearing, width (Ry)=  0.0073
                       cart. coord. in units 2pi/alat
        k(    1) = (   0.0000000   0.0000000   0.0000000), wk =   0.0625000
        k(    2) = (   0.0000000   0.0419351   0.0000000), wk =   0.1250000
        k(    3) = (   0.0000000  -0.0838702   0.0000000), wk =   0.0625000
        k(    4) = (   0.0379955   0.0000049   0.0000000), wk =   0.1250000
        k(    5) = (   0.0379955   0.0419400   0.0000000), wk =   0.1250000
[...]
     % possible and the two reviews that describe the various versions:     %
     %                                                                      %
     %   T. Thonhauser et al., PRL 115, 136402 (2015).                      %
     %   T. Thonhauser et al., PRB 76, 125112 (2007).                       %
     %   K. Berland et al., Rep. Prog. Phys. 78, 066501 (2015).             %
     %   D.C. Langreth et al., J. Phys.: Condens. Matter 21, 084203 (2009). %
     %                                                                      %
     %                                                                      %
     % If you are calculating the stress with vdW-DF, please also cite:     %
     %                                                                      %
     %   R. Sabatini et al., J. Phys.: Condens. Matter 24, 424209 (2012).   %
     %                                                                      %
     %%%%%%%%%%%%%%%%%%%%%%%%%%%%%%%%%%%%%%%%%%%%%%%%%%%%%%%%%%%%%%%%%%%%%%%%

     Adding external electric field

     Computed dipole along edir(3) :
        Dipole              -10.5729 Ry au,        -26.8736 Debye
        Dipole field         -0.0200 Ry au,

        Potential amp.        1.8496 Ry
        Total length         46.3494 bohr

[...]

     Starting wfcs are  302 atomic wfcs
  @ DRIVER MODE: Message from server: STATUS
  @ DRIVER MODE: Message from server: POSDATA
  @ DRIVER MODE: Reading and sharing cell
  @ DRIVER MODE: Reading and sharing positions
  @ DRIVER MODE: Received positions

     Self-consistent Calculation

     iteration #  1     ecut=    29.40 Ry     beta= 0.05
     Davidson diagonalization with overlap
     c_bands:  4 eigenvalues not converged
     c_bands:  2 eigenvalues not converged
     c_bands:  1 eigenvalues not converged
     c_bands:  4 eigenvalues not converged
     c_bands:  5 eigenvalues not converged
     c_bands:  5 eigenvalues not converged
     c_bands:  1 eigenvalues not converged
     c_bands:  5 eigenvalues not converged
     c_bands:  3 eigenvalues not converged
     c_bands:  4 eigenvalues not converged
     c_bands:  3 eigenvalues not converged
     c_bands:  1 eigenvalues not converged
     c_bands:  4 eigenvalues not converged
     c_bands:  5 eigenvalues not converged
     c_bands:  5 eigenvalues not converged
     c_bands:  5 eigenvalues not converged
     c_bands:  3 eigenvalues not converged
     ethr =  1.00E-05,  avg # of iterations = 20.0

[...]

     total energy              =   -2443.27150209 Ry
     estimated scf accuracy    <    5586.07504148 Ry

     total magnetization       =     0.00 Bohr mag/cell
     absolute magnetization    =     0.01 Bohr mag/cell

     iteration #  2     ecut=    29.40 Ry     beta= 0.05
     Davidson diagonalization with overlap
     ethr =  1.00E-02,  avg # of iterations = 24.1

[...]

     iteration #121     ecut=    29.40 Ry     beta= 0.05
     Davidson diagonalization with overlap
     ethr =  1.03E-10,  avg # of iterations =  1.4

[...]

     total energy              =   -2942.82552541 Ry
     estimated scf accuracy    <       0.00000008 Ry

[...]

     iteration #129     ecut=    29.40 Ry     beta= 0.05
     Davidson diagonalization with overlap
     c_bands:  1 eigenvalues not converged
     c_bands:  3 eigenvalues not converged
     c_bands:  1 eigenvalues not converged
     c_bands:  2 eigenvalues not converged
     ethr =  2.08E-11,  avg # of iterations = 14.3

     negative rho (up, down):  7.243E-03 7.242E-03

[...]

     Adding external electric field

     Computed dipole along edir(3) :
        Dipole                1.6179 Ry au,          4.1123 Debye
        Dipole field          0.0031 Ry au,

        Potential amp.       -0.2830 Ry
        Total length         46.3494 bohr

     Magnetic moment per site  (integrated on atomic sphere of radius R)
     atom   1 (R=0.723)  charge=  7.9140  magn=  0.0005
     atom   2 (R=0.723)  charge=  7.8964  magn=  0.0001
     atom   3 (R=0.634)  charge=  4.2216  magn= -0.0001
     atom   4 (R=0.634)  charge=  4.2507  magn= -0.0000
     atom   5 (R=0.634)  charge=  4.2272  magn= -0.0000
     atom   6 (R=0.634)  charge=  4.2273  magn= -0.0000
     atom   7 (R=0.723)  charge=  7.8964  magn=  0.0001
     atom   8 (R=0.723)  charge=  7.8945  magn=  0.0009
     atom   9 (R=0.634)  charge=  4.2375  magn= -0.0004
     atom  10 (R=0.634)  charge=  4.2259  magn= -0.0002
     atom  11 (R=0.634)  charge=  4.2226  magn= -0.0004
     atom  12 (R=0.634)  charge=  4.2247  magn= -0.0004
     atom  13 (R=0.723)  charge=  7.8926  magn=  0.0020
     atom  14 (R=0.723)  charge=  7.9040  magn=  0.0026
     atom  15 (R=0.634)  charge=  4.2232  magn= -0.0000
     atom  16 (R=0.634)  charge=  4.2293  magn= -0.0001
     atom  17 (R=0.634)  charge=  4.2168  magn=  0.0000
     atom  18 (R=0.634)  charge=  4.2170  magn=  0.0000
     atom  19 (R=0.723)  charge=  7.9504  magn= -0.0001
     atom  20 (R=0.723)  charge=  7.9298  magn= -0.0000
     atom  21 (R=0.634)  charge=  4.1414  magn= -0.0001
     atom  22 (R=0.634)  charge=  4.1895  magn=  0.0000
     atom  23 (R=0.634)  charge=  4.2207  magn= -0.0000
     atom  24 (R=0.634)  charge=  4.2208  magn= -0.0000
     atom  25 (R=0.723)  charge=  7.9141  magn=  0.0004
     atom  26 (R=0.723)  charge=  7.8964  magn=  0.0001
     atom  27 (R=0.634)  charge=  4.2212  magn= -0.0001
     atom  28 (R=0.634)  charge=  4.2510  magn= -0.0000
     atom  29 (R=0.634)  charge=  4.2277  magn= -0.0000
     atom  30 (R=0.634)  charge=  4.2278  magn= -0.0000
     atom  31 (R=0.723)  charge=  7.8969  magn=  0.0001
     atom  32 (R=0.723)  charge=  7.8947  magn=  0.0009
     atom  33 (R=0.634)  charge=  4.2358  magn= -0.0004
     atom  34 (R=0.634)  charge=  4.2187  magn= -0.0002
     atom  35 (R=0.634)  charge=  4.2224  magn= -0.0004
     atom  36 (R=0.634)  charge=  4.2249  magn= -0.0004
     atom  37 (R=0.723)  charge=  7.8964  magn=  0.0019
     atom  38 (R=0.723)  charge=  7.9034  magn=  0.0025
     atom  39 (R=0.634)  charge=  4.2059  magn= -0.0000
     atom  40 (R=0.634)  charge=  4.2479  magn= -0.0001
     atom  41 (R=0.634)  charge=  4.2157  magn=  0.0000
     atom  42 (R=0.634)  charge=  4.2270  magn=  0.0000
     atom  43 (R=0.723)  charge=  7.9398  magn= -0.0002
     atom  44 (R=0.723)  charge=  7.9262  magn=  0.0000
     atom  45 (R=0.634)  charge=  4.1414  magn= -0.0001
     atom  46 (R=0.634)  charge=  4.2207  magn= -0.0000
     atom  47 (R=0.634)  charge=  4.2208  magn= -0.0000
     atom  48 (R=0.423)  charge=  1.3356  magn= -0.0000
     atom  49 (R=0.447)  charge=  0.8385  magn=  0.0000
     atom  50 (R=0.423)  charge=  0.4486  magn= -0.0000
     atom  51 (R=0.423)  charge=  0.4499  magn= -0.0000
     atom  52 (R=0.423)  charge=  0.4552  magn= -0.0000
     atom  53 (R=0.423)  charge=  1.3754  magn=  0.0000
     atom  54 (R=0.423)  charge=  0.4518  magn= -0.0000
     atom  55 (R=0.423)  charge=  0.4018  magn= -0.0000
     atom  56 (R=0.423)  charge=  0.4521  magn= -0.0000

     End of self-consistent calculation

 ------ SPIN UP ------------

          k = 0.0000 0.0000 0.0000 ( 18029 PWs)   bands (ev):

   -55.1377 -55.1011 -55.0966 -55.0625 -55.0195 -55.0016 -54.9814 -54.9365
   -54.9245 -54.9149 -54.9012 -54.8916 -54.8567 -54.7860 -54.1084 -54.0744
   -31.7161 -31.5859 -31.5055 -31.4726 -31.4276 -31.4263 -31.4235 -31.3947
   -31.3911 -31.3864 -31.3603 -31.3473 -31.3414 -31.3153 -31.2964 -31.2726
   -31.2545 -31.2493 -31.2388 -31.2332 -31.2075 -31.2032 -31.1970 -31.1678
   -31.1534 -31.1488 -31.1393 -31.1333 -31.1321 -31.1225 -31.1195 -31.1123
   -31.0954 -31.0865 -31.0807 -31.0549 -31.0518 -31.0386 -31.0332 -31.0285
   -31.0172 -30.9755 -30.5168 -30.4248 -30.4026 -30.3333 -30.2466 -30.1356
   -18.9543 -15.9984 -15.7433 -15.6084 -15.3739 -15.3220 -15.2653 -15.0569
   -15.0555 -14.9852 -14.9706 -14.9215 -14.9017 -14.8343 -14.7497 -14.7308
   -14.6613 -14.6597 -14.6298 -14.6197 -14.6177 -14.5551 -14.5455 -14.5158
   -14.5029 -14.4777 -14.3591 -14.2751 -14.2166 -13.9673 -13.6066 -12.6106
   -12.4935  -9.7556  -7.7250  -7.2511  -5.4649  -3.8209  -3.3364  -3.2835
    -3.1618  -3.1327  -3.0558  -3.0261  -2.8415  -2.8207  -2.4789  -2.4446
    -2.3929  -2.3746  -2.3543  -2.3359  -2.1685  -2.1421  -2.0693  -2.0362
    -2.0178  -1.9774  -1.9604  -1.9501  -1.9164  -1.9114  -1.9017  -1.6946
    -1.6380  -1.5432  -1.5207  -1.5010  -1.4617  -1.4261  -1.4170  -1.4138
    -1.4080  -1.3944  -1.3821  -1.3017  -1.2452  -1.1626  -1.1533  -1.1181
    -1.0139  -0.9684  -0.7657  -0.7519  -0.7064  -0.6643  -0.6013  -0.5810
    -0.5136  -0.4827  -0.4640  -0.3424  -0.3136  -0.2738  -0.2452  -0.1782
    -0.1481  -0.1024  -0.0192   0.0528   0.0885   0.1068   0.1659   0.2971
     0.3073   0.3367   0.3978   0.4615   0.5025   0.5218   0.5404   0.5771
     0.6276   0.7530   0.7977   0.8176   0.8219   0.8557   0.8784   0.9296
     0.9546   1.0145   1.0201   1.1382   1.2073   1.4330   1.4681   1.4944
     1.8269   1.8503   1.9145   2.1004   2.4886   2.5358   3.9683   4.0285
     4.0875   4.1037   4.1226   4.2113   4.2417   4.4308   4.4577   4.4629
     4.4655

[...]

          k =-0.0760-0.0000 0.0000 ( 17886 PWs)   bands (ev):

[...]

 ------ SPIN DOWN ----------

[...]

          k = 0.0380-0.0419 0.0000 ( 17876 PWs)   bands (ev):

[...]

          k =-0.0760-0.0839 0.0000 ( 17948 PWs)   bands (ev):

   -55.1165 -55.1105 -55.0789 -55.0787 -55.0042 -54.9986 -54.9875 -54.9200
   -54.9184 -54.9160 -54.9077 -54.9062 -54.8529 -54.7897 -54.0913 -54.0911
   -31.5167 -31.5138 -31.4378 -31.4153 -31.4008 -31.4006 -31.3712 -31.3708
   -31.3433 -31.3372 -31.3350 -31.3342 -31.3034 -31.2676 -31.2583 -31.2551
   -31.2539 -31.2511 -31.2481 -31.2417 -31.2118 -31.2070 -31.2045 -31.2006
   -31.1982 -31.1979 -31.1847 -31.1800 -31.1546 -31.1499 -31.1345 -31.1304
   -31.1278 -31.1273 -31.1272 -31.1181 -31.0938 -31.0884 -31.0860 -31.0652
   -31.0403 -31.0226 -30.4152 -30.4150 -30.3293 -30.3291 -30.2898 -30.2898
   -18.9496 -15.5052 -15.3953 -15.2851 -15.2223 -15.1806 -15.1272 -15.1113
   -15.1006 -15.0559 -15.0254 -14.9570 -14.8925 -14.8394 -14.8384 -14.8039
   -14.7256 -14.7117 -14.7045 -14.6941 -14.6372 -14.6305 -14.5991 -14.5781
   -14.5750 -14.5453 -14.4714 -14.4690 -14.3829 -14.1759 -13.6429 -12.5955
   -12.5953  -9.7248  -7.7211  -7.1981  -5.4680  -3.8427  -3.4378  -2.7543
    -2.6431  -2.4329  -2.4069  -2.3469  -2.3279  -2.2461  -2.1813  -2.1593
    -2.1357  -2.1018  -2.0989  -2.0757  -2.0530  -2.0005  -1.9714  -1.9592
    -1.9537  -1.9387  -1.9258  -1.9062  -1.8496  -1.8392  -1.8319  -1.7893
    -1.7785  -1.7466  -1.7404  -1.7015  -1.6847  -1.6098  -1.5160  -1.4914
    -1.4323  -1.3316  -1.3171  -1.3115  -1.2185  -1.2099  -1.1806  -1.1496
    -1.0948  -0.9957  -0.9406  -0.8644  -0.8611  -0.8316  -0.7441  -0.6808
    -0.6471  -0.6364  -0.5985  -0.5413  -0.5185  -0.4841  -0.4010  -0.3599
    -0.3332  -0.2994  -0.2042  -0.1429  -0.1191  -0.0877  -0.0843   0.0052
     0.0380   0.0749   0.0957   0.1338   0.1605   0.2259   0.2472   0.3579
     0.4254   0.4587   0.5780   0.6008   0.6643   0.7968   0.8682   0.9086
     0.9618   1.0196   1.0470   1.1774   1.1846   1.2024   1.3031   1.3437
     1.3505   1.3633   2.2730   2.2741   2.3557   2.3558   4.1016   4.1891
     4.2346   4.2722   4.3764   4.4866   4.5052   4.5480   4.5485   4.6244
     4.6303

     the Fermi energy is     4.0221 ev

!    total energy              =   -2942.82552564 Ry
     estimated scf accuracy    <       0.00000007 Ry
     smearing contrib. (-TS)   =      -0.03685478 Ry
     internal energy E=F+TS    =   -2942.78867085 Ry

     The total energy is F=E-TS. E is the sum of the following terms:
     one-electron contribution =  -23972.28755523 Ry
     hartree contribution      =   12081.72094578 Ry
     xc contribution           =    -487.77457350 Ry
     ewald contribution        =    9435.54757226 Ry
     electric field correction =       0.00493984 Ry

     total magnetization       =     0.01 Bohr mag/cell
     absolute magnetization    =     0.03 Bohr mag/cell

     convergence has been achieved in 129 iterations

     Forces acting on atoms (cartesian axes, Ry/au):

     atom    1 type  1   force =     0.00015024   -0.00022330    0.09430794
     atom    2 type  1   force =    -0.00009551   -0.00032902   -0.17740279
     atom    3 type  2   force =     0.00005552   -0.00016330   -0.02137149
     atom    4 type  2   force =    -0.00001510   -0.00172520    0.05657712
     atom    5 type  2   force =    -0.01054378   -0.00127739    0.00623954
     atom    6 type  2   force =     0.01221165   -0.00074361    0.00571143
     atom    7 type  1   force =    -0.00032728    0.00172291   -0.01617174
     atom    8 type  1   force =    -0.00011151    0.00438712    0.00561571
     atom    9 type  2   force =     0.00000878   -0.00004369   -0.00005484
     atom   10 type  2   force =    -0.00074275   -0.00022079   -0.00044769
     atom   11 type  2   force =     0.00034386    0.00012912   -0.00018776
     atom   12 type  2   force =    -0.00051773    0.00000635   -0.00012208
     atom   13 type  1   force =     0.00004027   -0.00035064    0.00014214
     atom   14 type  1   force =     0.00055457    0.00012042   -0.00030122
     atom   15 type  2   force =    -0.00038530    0.00025802   -0.00016093
     atom   16 type  2   force =    -0.00034275    0.00022146   -0.00008166
     atom   17 type  2   force =    -0.00016695    0.00018347    0.00051999
     atom   18 type  2   force =     0.00007270    0.00034351   -0.00003010
     atom   19 type  1   force =     0.00024049    0.00036864   -0.00010249
     atom   20 type  1   force =     0.00015314    0.00036042   -0.00055541
     atom   21 type  2   force =     0.00003682    0.00004250    0.10362094
     atom   22 type  2   force =     0.00000458   -0.00074228   -0.00030478
     atom   23 type  2   force =    -0.07081960   -0.00009235   -0.02719496
     atom   24 type  2   force =     0.07068352    0.00034867   -0.02722408
     atom   25 type  1   force =    -0.00009591   -0.00019476    0.09372659
     atom   26 type  1   force =    -0.00015216   -0.00032341   -0.17733123
     atom   27 type  2   force =     0.00008671   -0.00035166   -0.02047781
     atom   28 type  2   force =     0.00003098   -0.00143986    0.05588570
     atom   29 type  2   force =    -0.01090704   -0.00073807    0.00608865
     atom   30 type  2   force =     0.01245879   -0.00029325    0.00556761
     atom   31 type  1   force =    -0.00017530    0.00462604   -0.01720045
     atom   32 type  1   force =    -0.00003859   -0.00480243    0.00559578
     atom   33 type  2   force =     0.00005605    0.00012359    0.00026187
     atom   34 type  2   force =     0.00005768   -0.00085283   -0.00297516
     atom   35 type  2   force =     0.00023531    0.00002917    0.00008458
     atom   36 type  2   force =    -0.00042581    0.00015417   -0.00006687
     atom   37 type  1   force =    -0.00013127   -0.00011002   -0.00017350
     atom   38 type  1   force =     0.00044170   -0.00028761    0.00040565
     atom   39 type  2   force =    -0.00043260    0.00007927    0.00076202
     atom   40 type  2   force =    -0.00012871    0.00016671   -0.00024500
     atom   41 type  2   force =    -0.00019621    0.00007849   -0.00047562
     atom   42 type  2   force =    -0.00011683    0.00020194   -0.00003309
     atom   43 type  1   force =    -0.00024019    0.00022319    0.00005359
     atom   44 type  1   force =    -0.00043704    0.00044435   -0.00020066
     atom   45 type  2   force =     0.00002583    0.00001127    0.10362418
     atom   46 type  2   force =    -0.07082166   -0.00004320   -0.02719579
     atom   47 type  2   force =     0.07068795    0.00037329   -0.02720194
     atom   48 type  3   force =     0.00065984   -0.00091224    0.00034897
     atom   49 type  4   force =    -0.00037613    0.00015782   -0.00050543
     atom   50 type  5   force =     0.00004403    0.00003466    0.00005081
     atom   51 type  5   force =    -0.00024063   -0.00031394    0.00001538
     atom   52 type  5   force =    -0.00037938   -0.00000580    0.00012026
     atom   53 type  3   force =     0.00165883   -0.00215566    0.00247647
     atom   54 type  5   force =    -0.00049504    0.00056739   -0.00087703
     atom   55 type  5   force =    -0.00129455    0.00314534   -0.00146117
     atom   56 type  5   force =     0.00015347   -0.00017294    0.00033183

     Total force =     0.365614     Total SCF correction =     0.000269
  @ DRIVER MODE: Message from server: STATUS
  @ DRIVER MODE: Message from server: GETFORCE
  @ DRIVER MODE: Returning v,forces,stress,ensemble

     Writing output data file ./calc.save/
  @ DRIVER MODE: Message from server: EXIT
  @ DRIVE MODE: Exiting

     General routines

     Parallel routines

   This run was terminated on:   6:25:37  17Jul2021

   JOB DONE.