     Program PWSCF v.6.7GPU starts on 16Jul2021 at  0:37:14

     R & G space division:  proc/nbgrp/npool/nimage =      16
     Reading input from /storage/home/hcoda1/3/ntian30/research/carbon/15Jul_vib/ads_slab/CH3N2_b/out_0014/pw.inp
Warning: card &CELL ignored
Warning: card   CELL_DYNAMICS='IPI', ignored
Warning: card / ignored

     Current dimensions of program PWSCF are:
     Max number of different atomic species (ntypx) = 10
     Max number of k-points (npk) =  40000
     Max angular momentum in pseudopotentials (lmaxx) =  3
     Presently no symmetry can be used with electric field

     Message from routine cell_base_init:
     DEPRECATED: use true lattice parameter, not A to a.u. conversion factor

     IMPORTANT: XC functional enforced from input :
     Exchange-correlation= BEEF-VDW
                           (   1   4  43  14   2   0   0)
     Any further DFT definition will be discarded
     Please, verify this is what you really want

  @ DRIVER MODE: Connecting to
 qe_1139763_2351645.sched-torque.pace.gatech.edu4fd34md4_scratch
  using UNIX socket
  @ DRIVER MODE: Message from server: STATUS
  @ DRIVER MODE: Message from server: INIT
  @ DRIVER MODE: Receiving replica           0          -1
  @ DRIVER MODE: Receiving encoded integer          25
  @ DRIVER MODE:  SCF:  T  FORCE:  T  STRESS:  F  VC:  F  ENSEMBLE:  F
  @ DRIVER MODE:  SCF:  T  FORCE:  T  STRESS:  F  VC:  F  ENSEMBLE:  F

     Using Slab Decomposition

     bravais-lattice index     =            0
     lattice parameter (alat)  =       1.8897  a.u.
     unit-cell volume          =    6658.9804 (a.u.)^3
     number of atoms/cell      =           53
     number of atomic types    =            5
     number of electrons       =       395.00
     number of Kohn-Sham states=          207
     kinetic-energy cutoff     =      29.3995  Ry
     charge density cutoff     =     293.9946  Ry
     scf convergence threshold =      7.3E-08
     mixing beta               =       0.0500
     number of iterations used =            8  plain     mixing
     Exchange-correlation= BEEF-VDW
                           (   1   4  43  14   2   0   0)

     celldm(1)=   1.889726  celldm(2)=   0.000000  celldm(3)=   0.000000
     celldm(4)=   0.000000  celldm(5)=   0.000000  celldm(6)=   0.000000

     crystal axes: (cart. coord. in units of alat)
               a(1) = (   6.579727   0.000000   0.000000 )
               a(2) = (  -0.000775   5.961596   0.000000 )
               a(3) = (   0.000000   0.000000  25.155947 )

     reciprocal axes: (cart. coord. in units 2 pi/alat)
               b(1) = (  0.151982  0.000020  0.000000 )
               b(2) = (  0.000000  0.167740  0.000000 )
               b(3) = (  0.000000  0.000000  0.039752 )

     PseudoPot. # 1 for Ti read from file:
     /storage/coda1/p-amedford6/0/shared/rich_project_chbe-medford/medford-share/data/pseudos_module/espresso/nninc/pbe/van/Ti.UPF
     MD5 check sum: 8e4df49b7f0d34bbd5052bf3f5ea0213
     Pseudo is Ultrasoft, Zval = 12.0
     Generated by new atomic code, or converted to UPF format
     Using radial grid of  851 points,  6 beta functions with:
                l(1) =   0
                l(2) =   0
                l(3) =   1
                l(4) =   1
                l(5) =   2
                l(6) =   2
     Q(r) pseudized with  8 coefficients,  rinner =    1.000   1.000   1.000
                                                       1.000   1.000

     PseudoPot. # 2 for O  read from file:
     /storage/coda1/p-amedford6/0/shared/rich_project_chbe-medford/medford-share/data/pseudos_module/espresso/nninc/pbe/van/O.UPF
     MD5 check sum: 78c19812648e8988a0fe644b0f25305e
     Pseudo is Ultrasoft, Zval =  6.0
     Generated by new atomic code, or converted to UPF format
     Using radial grid of  737 points,  4 beta functions with:
                l(1) =   0
                l(2) =   0
                l(3) =   1
                l(4) =   1
     Q(r) pseudized with  8 coefficients,  rinner =    0.800   0.800   0.800

     PseudoPot. # 3 for N  read from file:
     /storage/coda1/p-amedford6/0/shared/rich_project_chbe-medford/medford-share/data/pseudos_module/espresso/nninc/pbe/van/N.UPF
     MD5 check sum: 90d10febe142ad51ac9d5be1deb811c4
     Pseudo is Ultrasoft, Zval =  5.0
     Generated by new atomic code, or converted to UPF format
     Using radial grid of  729 points,  4 beta functions with:
                l(1) =   0
                l(2) =   0
                l(3) =   1
                l(4) =   1
     Q(r) pseudized with  8 coefficients,  rinner =    0.800   0.800   0.800

     PseudoPot. # 4 for C  read from file:
     /storage/coda1/p-amedford6/0/shared/rich_project_chbe-medford/medford-share/data/pseudos_module/espresso/nninc/pbe/van/C.UPF
     MD5 check sum: 1a69bf6b8db32088f5b2163dbdb77a27
     Pseudo is Ultrasoft, Zval =  4.0
     Generated by new atomic code, or converted to UPF format
     Using radial grid of  721 points,  4 beta functions with:
                l(1) =   0
                l(2) =   0
                l(3) =   1
                l(4) =   1
     Q(r) pseudized with  8 coefficients,  rinner =    0.800   0.800   0.800

     PseudoPot. # 5 for H  read from file:
     /storage/coda1/p-amedford6/0/shared/rich_project_chbe-medford/medford-share/data/pseudos_module/espresso/nninc/pbe/van/H.UPF
     MD5 check sum: b5ee9d7bfd3a09ee7748110bda690ff7
     Pseudo is Ultrasoft, Zval =  1.0
     Generated by new atomic code, or converted to UPF format
     Using radial grid of  615 points,  1 beta functions with:
                l(1) =   0
     Q(r) pseudized with  8 coefficients,  rinner =    0.800

     atomic species   valence    mass     pseudopotential
        Ti1           12.00    47.86700     Ti( 1.00)
        O1             6.00    15.99900     O ( 1.00)
        N1             5.00    14.00700     N ( 1.00)
        C1             4.00    12.01100     C ( 1.00)
        H1             1.00     1.00800     H ( 1.00)

     Starting magnetic structure
     atomic species   magnetization
        Ti1          0.000
        O1           0.000
        N1           0.000
        C1           0.025
        H1           0.000

     No symmetry found

   Cartesian axes

     site n.     atom                  positions (alat units)
         1           Ti1 tau(   1) = (   0.0004258   2.9801865   6.0000000  )
         2           Ti1 tau(   2) = (   3.2906075   1.4906267   6.0002472  )
         3           O1  tau(   3) = (   0.0006271   0.0005054   7.9858123  )
         4           O1  tau(   4) = (   3.2906025   0.0005020   7.3038282  )
         5           O1  tau(   5) = (   4.5942328   1.4918067   9.2879030  )
         6           O1  tau(   6) = (   1.9868534   1.4903216   9.2879459  )
         7           Ti1 tau(   7) = (   3.2907910   2.8959150   9.1758416  )
         8           Ti1 tau(   8) = (   0.0015273   1.4827037   9.2680791  )
         9           O1  tau(   9) = (   3.3037365   0.0094216  11.3222111  )
        10           O1  tau(  10) = (   0.0116148   5.9584955  10.6183126  )
        11           O1  tau(  11) = (   1.3152514   1.5075076  12.6320051  )
        12           O1  tau(  12) = (   5.3186361   1.4995162  12.6508707  )
        13           Ti1 tau(  13) = (   6.5540705   2.9956815  12.5884341  )
        14           Ti1 tau(  14) = (   3.2234832   1.4927074  12.4921739  )
        15           O1  tau(  15) = (   0.0610261   5.9052480  14.6017706  )
        16           O1  tau(  16) = (   3.2936532   0.0132264  13.8830087  )
        17           O1  tau(  17) = (   4.5722397   1.5061520  16.0138922  )
        18           O1  tau(  18) = (   2.0767725   1.5295127  16.0808449  )
        19           Ti1 tau(  19) = (   3.3650854   3.0251465  15.6907462  )
        20           Ti1 tau(  20) = (   0.0387768   1.3037779  15.7216176  )
        21           O1  tau(  21) = (   3.2904802   0.0005063   4.7018136  )
        22           O1  tau(  22) = (   0.0189486   0.1070799  17.1824039  )
        23           O1  tau(  23) = (   1.3043587   1.4918075   6.0039043  )
        24           O1  tau(  24) = (   5.2767064   1.4903225   6.0039473  )
        25           Ti1 tau(  25) = (   0.0000382   5.9609847   6.0000000  )
        26           Ti1 tau(  26) = (   3.2902200   4.4714249   6.0002472  )
        27           O1  tau(  27) = (   0.0002396   2.9813036   7.9858123  )
        28           O1  tau(  28) = (   3.2902150   2.9813002   7.3038282  )
        29           O1  tau(  29) = (   4.5938453   4.4726049   9.2879030  )
        30           O1  tau(  30) = (   1.9864658   4.4711199   9.2879459  )
        31           Ti1 tau(  31) = (   3.2891106   5.8743827   9.1763621  )
        32           Ti1 tau(  32) = (   0.0006254   4.4649316   9.2693709  )
        33           O1  tau(  33) = (   3.3043114   2.9829305  11.3227053  )
        34           O1  tau(  34) = (   0.0092240   2.9805883  10.6323155  )
        35           O1  tau(  35) = (   1.3131995   4.4620516  12.6081187  )
        36           O1  tau(  36) = (   5.3117129   4.4692194  12.6284301  )
        37           Ti1 tau(  37) = (   6.5303063   5.9583428  12.5400172  )
        38           Ti1 tau(  38) = (   3.2255477   4.4746212  12.4748647  )
        39           O1  tau(  39) = (   0.0377805   3.0059521  14.8845374  )
        40           O1  tau(  40) = (   3.3120027   2.9986483  13.8863452  )
        41           O1  tau(  41) = (   4.5434534   4.5277214  16.0148975  )
        42           O1  tau(  42) = (   2.1165747   4.4940517  16.0783766  )
        43           Ti1 tau(  43) = (   3.3042555   0.0241951  15.7004812  )
        44           Ti1 tau(  44) = (   0.0495666   4.4505358  16.3362958  )
        45           O1  tau(  45) = (   3.2900926   2.9813045   4.7018136  )
        46           O1  tau(  46) = (   1.3039711   4.4726057   6.0039043  )
        47           O1  tau(  47) = (   5.2763189   4.4711207   6.0039473  )
        48           N1  tau(  48) = (   0.5348212   3.4288502  18.0689430  )
        49           C1  tau(  49) = (   1.3556880   3.0079929  19.2215664  )
        50           H1  tau(  50) = (   1.4962090   3.8900195  19.8496782  )
        51           H1  tau(  51) = (   0.8469181   2.2141957  19.7647163  )
        52           H1  tau(  52) = (   2.3296892   2.6851793  18.8624704  )
        53           N1  tau(  53) = (   5.9145885   3.2636146  17.9655992  )

     number of k points=    10  Fermi-Dirac smearing, width (Ry)=  0.0073
                       cart. coord. in units 2pi/alat
        k(    1) = (   0.0000000   0.0000000   0.0000000), wk =   0.0625000
        k(    2) = (   0.0000000   0.0419351   0.0000000), wk =   0.1250000
        k(    3) = (   0.0000000  -0.0838702   0.0000000), wk =   0.0625000
        k(    4) = (   0.0379955   0.0000049   0.0000000), wk =   0.1250000
        k(    5) = (   0.0379955   0.0419400   0.0000000), wk =   0.1250000
        k(    6) = (   0.0379955  -0.0838652   0.0000000), wk =   0.1250000
        k(    7) = (   0.0379955  -0.0419301   0.0000000), wk =   0.1250000
        k(    8) = (  -0.0759910  -0.0000099   0.0000000), wk =   0.0625000
        k(    9) = (  -0.0759910   0.0419252   0.0000000), wk =   0.1250000
        k(   10) = (  -0.0759910  -0.0838800   0.0000000), wk =   0.0625000

     Initial potential from superposition of free atoms

     starting charge  378.99916, renormalised to  395.00000

     negative rho (up, down):  8.047E-03 8.054E-03

     %%%%%%%%%%%%%%%%%%%%%%%%%%%%%%%%%%%%%%%%%%%%%%%%%%%%%%%%%%%%%%%%%%%%%%%%
     %                                                                      %
     % You are using vdW-DF, which was implemented by the Thonhauser group. %
     % Please cite the following two papers that made this development      %
     % possible and the two reviews that describe the various versions:     %
     %                                                                      %
     %   T. Thonhauser et al., PRL 115, 136402 (2015).                      %
     %   T. Thonhauser et al., PRB 76, 125112 (2007).                       %
     %   K. Berland et al., Rep. Prog. Phys. 78, 066501 (2015).             %
     %   D.C. Langreth et al., J. Phys.: Condens. Matter 21, 084203 (2009). %
     %                                                                      %
     %                                                                      %
     % If you are calculating the stress with vdW-DF, please also cite:     %
     %                                                                      %
     %   R. Sabatini et al., J. Phys.: Condens. Matter 24, 424209 (2012).   %
     %                                                                      %
     %%%%%%%%%%%%%%%%%%%%%%%%%%%%%%%%%%%%%%%%%%%%%%%%%%%%%%%%%%%%%%%%%%%%%%%%

     Adding external electric field

     Computed dipole along edir(3) :
        Dipole               -8.5786 Ry au,        -21.8047 Debye
        Dipole field         -0.0162 Ry au,

        Potential amp.        1.5007 Ry
        Total length         46.3494 bohr

[...]

     Starting wfcs are  299 atomic wfcs
  @ DRIVER MODE: Message from server: STATUS
  @ DRIVER MODE: Message from server: POSDATA
  @ DRIVER MODE: Reading and sharing cell
  @ DRIVER MODE: Reading and sharing positions
  @ DRIVER MODE: Received positions

     Self-consistent Calculation

     iteration #  1     ecut=    29.40 Ry     beta= 0.05
     Davidson diagonalization with overlap
     c_bands:  1 eigenvalues not converged
     c_bands:  1 eigenvalues not converged
     c_bands:  1 eigenvalues not converged
     c_bands:  3 eigenvalues not converged
     c_bands:  1 eigenvalues not converged
     c_bands:  3 eigenvalues not converged
     c_bands:  1 eigenvalues not converged
     c_bands:  2 eigenvalues not converged
     c_bands:  1 eigenvalues not converged
     c_bands:  1 eigenvalues not converged
     c_bands:  1 eigenvalues not converged
     c_bands:  3 eigenvalues not converged
     c_bands:  1 eigenvalues not converged
     c_bands:  3 eigenvalues not converged
     c_bands:  1 eigenvalues not converged
     c_bands:  2 eigenvalues not converged
     ethr =  1.00E-05,  avg # of iterations = 19.2

[...]

     total energy              =   -2599.54605850 Ry
     estimated scf accuracy    <    3761.71801467 Ry

     total magnetization       =     0.00 Bohr mag/cell
     absolute magnetization    =     0.02 Bohr mag/cell

     iteration #  2     ecut=    29.40 Ry     beta= 0.05
     Davidson diagonalization with overlap
     ethr =  1.00E-02,  avg # of iterations = 22.5

[...]

     iteration # 49     ecut=    29.40 Ry     beta= 0.05
     Davidson diagonalization with overlap
     c_bands:  1 eigenvalues not converged
     ethr =  1.10E-06,  avg # of iterations = 15.2

[...]

     total energy              =   -2939.12592806 Ry
     estimated scf accuracy    <       0.00000008 Ry

[...]

     iteration # 80     ecut=    29.40 Ry     beta= 0.05
     Davidson diagonalization with overlap
     ethr =  1.93E-11,  avg # of iterations =  8.7

     negative rho (up, down):  8.117E-03 8.118E-03

[...]

     Adding external electric field

     Computed dipole along edir(3) :
        Dipole                0.9123 Ry au,          2.3187 Debye
        Dipole field          0.0017 Ry au,

        Potential amp.       -0.1596 Ry
        Total length         46.3494 bohr

     Magnetic moment per site  (integrated on atomic sphere of radius R)
     atom   1 (R=0.727)  charge=  7.9485  magn=  0.0062
     atom   2 (R=0.727)  charge=  7.9315  magn=  0.0006
     atom   3 (R=0.727)  charge=  4.9369  magn= -0.0006
     atom   4 (R=0.727)  charge=  4.9738  magn= -0.0001
     atom   5 (R=0.727)  charge=  4.9424  magn= -0.0001
     atom   6 (R=0.727)  charge=  4.9431  magn= -0.0001
     atom   7 (R=0.727)  charge=  7.9299  magn=  0.0003
     atom   8 (R=0.727)  charge=  7.9249  magn=  0.0026
     atom   9 (R=0.727)  charge=  4.9562  magn= -0.0001
     atom  10 (R=0.727)  charge=  4.9398  magn= -0.0002
     atom  11 (R=0.727)  charge=  4.9438  magn= -0.0001
     atom  12 (R=0.727)  charge=  4.9403  magn= -0.0001
     atom  13 (R=0.727)  charge=  7.9199  magn=  0.0006
     atom  14 (R=0.727)  charge=  7.9286  magn=  0.0002
     atom  15 (R=0.727)  charge=  4.9368  magn= -0.0000
     atom  16 (R=0.727)  charge=  4.9585  magn= -0.0000
     atom  17 (R=0.727)  charge=  4.9268  magn= -0.0000
     atom  18 (R=0.727)  charge=  4.9195  magn= -0.0000
     atom  19 (R=0.727)  charge=  7.9516  magn=  0.0000
     atom  20 (R=0.727)  charge=  7.9765  magn=  0.0000
     atom  21 (R=0.727)  charge=  4.8266  magn= -0.0007
     atom  22 (R=0.727)  charge=  4.9097  magn=  0.0000
     atom  23 (R=0.727)  charge=  4.9340  magn= -0.0008
     atom  24 (R=0.727)  charge=  4.9340  magn= -0.0008
     atom  25 (R=0.727)  charge=  7.9485  magn=  0.0061
     atom  26 (R=0.727)  charge=  7.9316  magn=  0.0006
     atom  27 (R=0.727)  charge=  4.9364  magn= -0.0006
     atom  28 (R=0.727)  charge=  4.9740  magn= -0.0001
     atom  29 (R=0.727)  charge=  4.9433  magn= -0.0001
     atom  30 (R=0.727)  charge=  4.9439  magn= -0.0001
     atom  31 (R=0.727)  charge=  7.9303  magn=  0.0003
     atom  32 (R=0.727)  charge=  7.9251  magn=  0.0026
     atom  33 (R=0.727)  charge=  4.9554  magn= -0.0001
     atom  34 (R=0.727)  charge=  4.9242  magn= -0.0002
     atom  35 (R=0.727)  charge=  4.9448  magn= -0.0001
     atom  36 (R=0.727)  charge=  4.9438  magn= -0.0001
     atom  37 (R=0.727)  charge=  7.9230  magn=  0.0006
     atom  38 (R=0.727)  charge=  7.9295  magn=  0.0002
     atom  39 (R=0.727)  charge=  4.9078  magn=  0.0000
     atom  40 (R=0.727)  charge=  4.9610  magn= -0.0000
     atom  41 (R=0.727)  charge=  4.9355  magn=  0.0000
     atom  42 (R=0.727)  charge=  4.9347  magn=  0.0000
     atom  43 (R=0.727)  charge=  7.9537  magn=  0.0000
     atom  44 (R=0.727)  charge=  7.9725  magn= -0.0000
     atom  45 (R=0.727)  charge=  4.8266  magn= -0.0007
     atom  46 (R=0.727)  charge=  4.9340  magn= -0.0008
     atom  47 (R=0.727)  charge=  4.9341  magn= -0.0008
     atom  48 (R=0.501)  charge=  1.9976  magn= -0.0000
     atom  49 (R=0.448)  charge=  0.8477  magn=  0.0000
     atom  50 (R=0.448)  charge=  0.4986  magn= -0.0000
     atom  51 (R=0.448)  charge=  0.5028  magn= -0.0000
     atom  52 (R=0.448)  charge=  0.5041  magn= -0.0000
     atom  53 (R=0.501)  charge=  1.9556  magn=  0.0000

     End of self-consistent calculation

 ------ SPIN UP ------------

          k = 0.0000 0.0000 0.0000 ( 18029 PWs)   bands (ev):

   -55.7812 -55.7697 -55.7471 -55.7337 -55.6837 -55.6353 -55.5985 -55.5646
   -55.5553 -55.5216 -55.5195 -55.4463 -54.9560 -54.8072 -54.7563 -54.7223
   -32.3184 -32.2617 -32.1746 -32.0987 -32.0737 -32.0561 -32.0470 -32.0263
   -32.0058 -31.9700 -31.9399 -31.9343 -31.9216 -31.9045 -31.8837 -31.8833
   -31.8792 -31.8781 -31.8653 -31.8393 -31.8353 -31.8219 -31.8001 -31.7933
   -31.7900 -31.7823 -31.7811 -31.7551 -31.7408 -31.7367 -31.7276 -31.7104
   -31.7088 -31.6690 -31.6359 -31.5636 -31.4923 -31.3378 -31.1671 -31.1628
   -31.1050 -31.0751 -31.0661 -31.0527 -30.9800 -30.9130 -30.8935 -30.7820
   -19.4387 -16.5168 -16.2517 -15.9662 -15.9149 -15.8406 -15.7473 -15.6240
   -15.5281 -15.4100 -15.3712 -15.3142 -15.3075 -15.2632 -15.2362 -15.2322
   -15.2059 -15.1971 -15.1335 -15.1260 -15.0757 -15.0640 -15.0159 -14.9811
   -14.9695 -14.9137 -14.8453 -14.8044 -14.6853 -14.1597 -13.2560 -13.1395
   -12.3056  -7.2630  -4.9426  -4.7735  -3.8993  -3.7568  -3.7038  -3.6848
    -3.6403  -3.4398  -3.3512  -3.2835  -3.0439  -2.9525  -2.9280  -2.9172
    -2.8681  -2.7102  -2.6610  -2.6039  -2.5879  -2.5620  -2.5399  -2.5317
    -2.4968  -2.4862  -2.4632  -2.4245  -2.3258  -2.2128  -2.1834  -2.1059
    -2.0904  -2.0742  -2.0443  -2.0343  -2.0247  -2.0150  -1.9966  -1.9589
    -1.8955  -1.8516  -1.7867  -1.7021  -1.5603  -1.5388  -1.4604  -1.3847
    -1.3050  -1.2624  -1.2406  -1.2122  -1.1723  -1.0926  -1.0666  -0.9205
    -0.8236  -0.7904  -0.7734  -0.7310  -0.6949  -0.5927  -0.5710  -0.5417
    -0.5322  -0.5049  -0.4313  -0.3750  -0.2426  -0.2122  -0.2082  -0.1706
    -0.0999  -0.0461   0.0074   0.0566   0.0643   0.1004   0.1604   0.1856
     0.1907   0.2332   0.2753   0.3502   0.3763   0.4504   0.4545   0.5186
     0.5623   0.6441   0.7519   0.8741   1.0173   1.1543   1.1993   1.2684
     1.3633   1.4601   1.8390   1.8843   2.1434   3.3344   3.4386   3.4677
     3.4788   3.5865   3.7928   3.8184   3.8674   3.8874   3.8958

[...]

          k =-0.0760-0.0000 0.0000 ( 17886 PWs)   bands (ev):

[...]

 ------ SPIN DOWN ----------

[...]

          k = 0.0380-0.0419 0.0000 ( 17876 PWs)   bands (ev):

[...]

          k =-0.0760-0.0839 0.0000 ( 17948 PWs)   bands (ev):

   -55.7526 -55.7526 -55.7519 -55.7504 -55.6753 -55.6414 -55.5767 -55.5764
   -55.5381 -55.5377 -55.5150 -55.4507 -54.9546 -54.8086 -54.7379 -54.7377
   -32.1217 -32.1181 -32.0719 -32.0719 -32.0462 -32.0462 -32.0190 -32.0042
   -31.9979 -31.9892 -31.9204 -31.9151 -31.9024 -31.8959 -31.8811 -31.8788
   -31.8781 -31.8720 -31.8708 -31.8705 -31.8530 -31.8499 -31.8486 -31.8134
   -31.7840 -31.7808 -31.7790 -31.7674 -31.7671 -31.7561 -31.7553 -31.7550
   -31.7537 -31.7361 -31.7116 -31.6606 -31.4393 -31.3201 -31.1689 -31.1588
   -31.0835 -31.0640 -31.0638 -30.9745 -30.9743 -30.9354 -30.9354 -30.9162
   -19.4365 -15.9174 -15.9112 -15.7500 -15.7155 -15.6496 -15.6408 -15.5732
   -15.5061 -15.4615 -15.4564 -15.3413 -15.3391 -15.3247 -15.3028 -15.2486
   -15.2324 -15.2310 -15.2277 -15.2199 -15.2079 -15.1804 -15.1499 -15.0992
   -15.0942 -15.0733 -15.0632 -14.9416 -14.5316 -14.4699 -13.2435 -13.2434
   -12.3080  -7.2497  -4.9443  -4.7711  -3.6284  -3.2066  -3.1902  -3.0021
    -2.9190  -2.9077  -2.8920  -2.7383  -2.7269  -2.7108  -2.6531  -2.6423
    -2.6360  -2.5999  -2.5837  -2.5599  -2.5200  -2.5144  -2.4667  -2.4640
    -2.4484  -2.4357  -2.4080  -2.4029  -2.3890  -2.3746  -2.3367  -2.2804
    -2.2423  -2.2151  -2.1869  -2.0907  -2.0297  -1.9940  -1.9266  -1.9180
    -1.8671  -1.8423  -1.8279  -1.7614  -1.6911  -1.6616  -1.5773  -1.4858
    -1.4674  -1.4521  -1.3334  -1.3195  -1.2447  -1.2210  -1.1372  -1.1200
    -1.0805  -0.9698  -0.9465  -0.9152  -0.8805  -0.8366  -0.7729  -0.7362
    -0.7342  -0.6854  -0.6412  -0.5850  -0.5237  -0.5118  -0.4967  -0.4879
    -0.4243  -0.3905  -0.3686  -0.2863  -0.2711  -0.1895  -0.0457  -0.0128
     0.1446   0.1937   0.3027   0.3300   0.4210   0.4427   0.5364   0.5396
     0.5731   0.7019   0.7207   0.7383   0.7544   0.7743   0.7982   0.9372
     1.6314   1.6315   1.7028   1.7029   2.0811   3.6717   3.7087   3.7591
     3.7814   3.8877   3.8921   3.8946   3.9025   4.0244   4.0277

     the Fermi energy is     3.3516 ev

!    total energy              =   -2939.12593819 Ry
     estimated scf accuracy    <       0.00000005 Ry
     smearing contrib. (-TS)   =      -0.02052205 Ry
     internal energy E=F+TS    =   -2939.10541614 Ry

     The total energy is F=E-TS. E is the sum of the following terms:
     one-electron contribution =  -24213.36352524 Ry
     hartree contribution      =   12195.42988144 Ry
     xc contribution           =    -485.19892749 Ry
     ewald contribution        =    9564.02558467 Ry
     electric field correction =       0.00157048 Ry

     total magnetization       =     0.03 Bohr mag/cell
     absolute magnetization    =     0.04 Bohr mag/cell

     convergence has been achieved in  80 iterations

     Forces acting on atoms (cartesian axes, Ry/au):

     atom    1 type  1   force =     0.00008847   -0.00020616    0.09582675
     atom    2 type  1   force =     0.00007646   -0.00062878   -0.17546378
     atom    3 type  2   force =     0.00017883   -0.00019345   -0.02305926
     atom    4 type  2   force =     0.00004142   -0.00128650    0.05263099
     atom    5 type  2   force =    -0.00977722   -0.00031716    0.00253289
     atom    6 type  2   force =     0.01165793    0.00022448    0.00291641
     atom    7 type  1   force =     0.00088425   -0.00000270   -0.00989737
     atom    8 type  1   force =     0.00000907    0.00530945    0.01815345
     atom    9 type  2   force =    -0.00001347   -0.00028845   -0.00010884
     atom   10 type  2   force =    -0.00253919    0.00216270   -0.01348241
     atom   11 type  2   force =    -0.00097484    0.00010434    0.00018676
     atom   12 type  2   force =     0.00039060   -0.00026019    0.00050129
     atom   13 type  1   force =     0.00009588   -0.00007828    0.00054717
     atom   14 type  1   force =    -0.00003592   -0.00013889   -0.00015920
     atom   15 type  2   force =    -0.00059426    0.00022865    0.00043136
     atom   16 type  2   force =    -0.00043326    0.00007837    0.00019494
     atom   17 type  2   force =    -0.00014866   -0.00009396   -0.00033320
     atom   18 type  2   force =     0.00028892    0.00020908    0.00004228
     atom   19 type  1   force =    -0.00059942   -0.00059776    0.00070667
     atom   20 type  1   force =    -0.00025282    0.00039936   -0.00075004
     atom   21 type  2   force =     0.00006799   -0.00005918    0.10320735
     atom   22 type  2   force =     0.00009051   -0.00005083   -0.00041534
     atom   23 type  2   force =    -0.07155258   -0.00019123   -0.02753236
     atom   24 type  2   force =     0.07153205    0.00031075   -0.02759114
     atom   25 type  1   force =     0.00011731   -0.00027813    0.09521861
     atom   26 type  1   force =     0.00008616   -0.00048906   -0.17562080
     atom   27 type  2   force =     0.00016042   -0.00012026   -0.02180979
     atom   28 type  2   force =     0.00008207   -0.00106074    0.05250741
     atom   29 type  2   force =    -0.01015787    0.00023087    0.00290886
     atom   30 type  2   force =     0.01197523    0.00051669    0.00328787
     atom   31 type  1   force =     0.00088718    0.00414119   -0.01177619
     atom   32 type  1   force =     0.00013873   -0.00634621    0.01829344
     atom   33 type  2   force =     0.00016369    0.00041617   -0.00010654
     atom   34 type  2   force =    -0.00308481   -0.00010762   -0.00866321
     atom   35 type  2   force =    -0.00021288    0.00007251    0.00002008
     atom   36 type  2   force =    -0.00003408    0.00028356   -0.00005573
     atom   37 type  1   force =     0.00043494   -0.00094875    0.00020047
     atom   38 type  1   force =    -0.00031816    0.00009583    0.00035071
     atom   39 type  2   force =     0.00011372   -0.00027252    0.00052921
     atom   40 type  2   force =    -0.00008020    0.00026836    0.00015959
     atom   41 type  2   force =     0.00004163   -0.00014385   -0.00018110
     atom   42 type  2   force =    -0.00045436    0.00013879   -0.00040627
     atom   43 type  1   force =     0.00025162    0.00054888    0.00011238
     atom   44 type  1   force =    -0.00019711   -0.00084088   -0.00097731
     atom   45 type  2   force =     0.00007455   -0.00005994    0.10316564
     atom   46 type  2   force =    -0.07156866   -0.00009374   -0.02752588
     atom   47 type  2   force =     0.07155086    0.00025767   -0.02758593
     atom   48 type  3   force =     0.00098759   -0.00004616    0.00128860
     atom   49 type  4   force =     0.00194330    0.00112123   -0.00010877
     atom   50 type  5   force =    -0.00150403   -0.00075268   -0.00094064
     atom   51 type  5   force =    -0.00076702    0.00016891    0.00023416
     atom   52 type  5   force =     0.00003728   -0.00166642   -0.00127847
     atom   53 type  3   force =     0.00085215    0.00033268   -0.00032577

     Total force =     0.364739     Total SCF correction =     0.000532
  @ DRIVER MODE: Message from server: STATUS
  @ DRIVER MODE: Message from server: GETFORCE
  @ DRIVER MODE: Returning v,forces,stress,ensemble

     Writing output data file ./calc.save/
  @ DRIVER MODE: Message from server: EXIT
  @ DRIVE MODE: Exiting

     General routines

     Parallel routines

   This run was terminated on:   1: 8: 1  16Jul2021

   JOB DONE.