     Program PWSCF v.6.7GPU starts on 18Oct2021 at 22:11:29

     R & G space division:  proc/nbgrp/npool/nimage =       8
     Reading input from /storage/home/hcoda1/3/ntian30/research/carbon/CxH_vib/Thiel_calc/ads_slab/NH2NHH_perslab/out_0023/pw.inp
Warning: card &CELL ignored
Warning: card   CELL_DYNAMICS='IPI', ignored
Warning: card / ignored

     Current dimensions of program PWSCF are:
     Max number of different atomic species (ntypx) = 10
     Max number of k-points (npk) =  40000
     Max angular momentum in pseudopotentials (lmaxx) =  3
     Presently no symmetry can be used with electric field

     Message from routine cell_base_init:
     DEPRECATED: use true lattice parameter, not A to a.u. conversion factor

     IMPORTANT: XC functional enforced from input :
     Exchange-correlation= BEEF-VDW
                           (   1   4  43  14   2   0   0)
     Any further DFT definition will be discarded
     Please, verify this is what you really want

  @ DRIVER MODE: Connecting to
 qe_1139763_3255134.sched-torque.pace.gatech.eduasotbm3t_scratch
  using UNIX socket
  @ DRIVER MODE: Message from server: STATUS
  @ DRIVER MODE: Message from server: INIT
  @ DRIVER MODE: Receiving replica           0          -1
  @ DRIVER MODE: Receiving encoded integer          25
  @ DRIVER MODE:  SCF:  T  FORCE:  T  STRESS:  F  VC:  F  ENSEMBLE:  F
  @ DRIVER MODE:  SCF:  T  FORCE:  T  STRESS:  F  VC:  F  ENSEMBLE:  F

     Using Slab Decomposition

     bravais-lattice index     =            0
     lattice parameter (alat)  =       1.8897  a.u.
     unit-cell volume          =    9988.4706 (a.u.)^3
     number of atoms/cell      =           59
     number of atomic types    =            4
     number of electrons       =       440.00
     number of Kohn-Sham states=          230
     kinetic-energy cutoff     =      29.3995  Ry
     charge density cutoff     =     293.9946  Ry
     scf convergence threshold =      7.3E-08
     mixing beta               =       0.0500
     number of iterations used =            8  plain     mixing
     Exchange-correlation= BEEF-VDW
                           (   1   4  43  14   2   0   0)

     celldm(1)=   1.889726  celldm(2)=   0.000000  celldm(3)=   0.000000
     celldm(4)=   0.000000  celldm(5)=   0.000000  celldm(6)=   0.000000

     crystal axes: (cart. coord. in units of alat)
               a(1) = (   6.579727   0.000000   0.000000 )
               a(2) = (  -0.001163   8.942395   0.000000 )
               a(3) = (   0.000000   0.000000  25.155947 )

     reciprocal axes: (cart. coord. in units 2 pi/alat)
               b(1) = (  0.151982  0.000020  0.000000 )
               b(2) = (  0.000000  0.111827  0.000000 )
               b(3) = (  0.000000  0.000000  0.039752 )

     PseudoPot. # 1 for O  read from file:
     /storage/coda1/p-amedford6/0/shared/rich_project_chbe-medford/medford-share/data/pseudos_module/espresso/nninc/pbe/van/O.UPF
     MD5 check sum: 78c19812648e8988a0fe644b0f25305e
     Pseudo is Ultrasoft, Zval =  6.0
     Generated by new atomic code, or converted to UPF format
     Using radial grid of  737 points,  4 beta functions with:
                l(1) =   0
                l(2) =   0
                l(3) =   1
                l(4) =   1
     Q(r) pseudized with  8 coefficients,  rinner =    0.800   0.800   0.800

     PseudoPot. # 2 for Ti read from file:
     /storage/coda1/p-amedford6/0/shared/rich_project_chbe-medford/medford-share/data/pseudos_module/espresso/nninc/pbe/van/Ti.UPF
     MD5 check sum: 8e4df49b7f0d34bbd5052bf3f5ea0213
     Pseudo is Ultrasoft, Zval = 12.0
     Generated by new atomic code, or converted to UPF format
     Using radial grid of  851 points,  6 beta functions with:
                l(1) =   0
                l(2) =   0
                l(3) =   1
                l(4) =   1
                l(5) =   2
                l(6) =   2
     Q(r) pseudized with  8 coefficients,  rinner =    1.000   1.000   1.000
                                                       1.000   1.000

     PseudoPot. # 3 for H  read from file:
     /storage/coda1/p-amedford6/0/shared/rich_project_chbe-medford/medford-share/data/pseudos_module/espresso/nninc/pbe/van/H.UPF
     MD5 check sum: b5ee9d7bfd3a09ee7748110bda690ff7
     Pseudo is Ultrasoft, Zval =  1.0
     Generated by new atomic code, or converted to UPF format
     Using radial grid of  615 points,  1 beta functions with:
                l(1) =   0
     Q(r) pseudized with  8 coefficients,  rinner =    0.800

     PseudoPot. # 4 for N  read from file:
     /storage/coda1/p-amedford6/0/shared/rich_project_chbe-medford/medford-share/data/pseudos_module/espresso/nninc/pbe/van/N.UPF
     MD5 check sum: 90d10febe142ad51ac9d5be1deb811c4
     Pseudo is Ultrasoft, Zval =  5.0
     Generated by new atomic code, or converted to UPF format
     Using radial grid of  729 points,  4 beta functions with:
                l(1) =   0
                l(2) =   0
                l(3) =   1
                l(4) =   1
     Q(r) pseudized with  8 coefficients,  rinner =    0.800   0.800   0.800

     atomic species   valence    mass     pseudopotential
        O1             6.00    15.99900     O ( 1.00)
        Ti1           12.00    47.86700     Ti( 1.00)
        H1             1.00     1.00800     H ( 1.00)
        N1             5.00    14.00700     N ( 1.00)

     No symmetry found

   Cartesian axes

     site n.     atom                  positions (alat units)
         1           O1  tau(   1) = (   0.0007354   0.0005023  10.5931620  )
         2           O1  tau(   2) = (   3.2887669   8.9343558  13.7857904  )
         3           O1  tau(   3) = (  -0.0004435   8.9037079  17.1656601  )
         4           O1  tau(   4) = (   0.0006271   0.0005054   7.9858123  )
         5           O1  tau(   5) = (   3.2907596   0.0056730  11.1454013  )
         6           O1  tau(   6) = (   0.0000918   8.9024801  14.5153886  )
         7           O1  tau(   7) = (   1.9868534   1.4903216   9.2879459  )
         8           O1  tau(   8) = (   5.2129768   1.5767634  12.5412193  )
         9           O1  tau(   9) = (   2.0410104   1.4081166  15.9738913  )
        10           Ti1 tau(  10) = (   0.0007404   1.4906270   9.2895810  )
        11           Ti1 tau(  11) = (   3.2923993   1.3029312  12.4395176  )
        12           Ti1 tau(  12) = (   6.5786190   1.6682186  16.0479855  )
        13           O1  tau(  13) = (   4.5942328   1.4918067   9.2879030  )
        14           O1  tau(  14) = (   1.3693608   1.5763615  12.5409223  )
        15           O1  tau(  15) = (   4.5388119   1.4066068  15.9736107  )
        16           Ti1 tau(  16) = (   3.2902859   2.9801868   9.2893338  )
        17           Ti1 tau(  17) = (   0.0025983   2.7818652  12.5490862  )
        18           Ti1 tau(  18) = (   3.2890997   3.0957086  15.6341045  )
        19           O1  tau(  19) = (   0.0003479   2.9813005  10.5931620  )
        20           O1  tau(  20) = (   3.2906043   2.9558292  13.7911244  )
        21           O1  tau(  21) = (   0.0002396   2.9813036   7.9858123  )
        22           O1  tau(  22) = (   3.2907828   2.9846389  11.1656624  )
        23           O1  tau(  23) = (   0.0000664   2.9755257  14.5967958  )
        24           O1  tau(  24) = (   1.9864658   4.4711199   9.2879459  )
        25           O1  tau(  25) = (   5.2254851   4.5442098  12.5530165  )
        26           O1  tau(  26) = (   2.0413797   4.3804877  15.9810922  )
        27           Ti1 tau(  27) = (   0.0003529   4.4714252   9.2895810  )
        28           Ti1 tau(  28) = (   3.2927641   4.3249026  12.5337624  )
        29           Ti1 tau(  29) = (  -0.0001393   4.3779101  16.0758329  )
        30           O1  tau(  30) = (   4.5938453   4.4726049   9.2879030  )
        31           O1  tau(  31) = (   1.3554856   4.5423027  12.5528228  )
        32           O1  tau(  32) = (   4.5375453   4.3808357  15.9816482  )
        33           Ti1 tau(  33) = (   3.2898983   5.9609850   9.2893338  )
        34           Ti1 tau(  34) = (   0.0022780   5.7553130  12.5179661  )
        35           Ti1 tau(  35) = (   3.2911749   6.0723021  16.2828521  )
        36           O1  tau(  36) = (  -0.0000397   5.9620987  10.5931620  )
        37           O1  tau(  37) = (   3.2898444   5.9099340  13.7874885  )
        38           O1  tau(  38) = (  -0.0002305   5.9963729  17.1613877  )
        39           O1  tau(  39) = (  -0.0001480   5.9621018   7.9858123  )
        40           O1  tau(  40) = (   3.2898933   5.9403142  11.1650959  )
        41           O1  tau(  41) = (   0.0001730   6.0398540  14.5337486  )
        42           O1  tau(  42) = (   1.9860782   7.4519181   9.2879459  )
        43           O1  tau(  43) = (   5.2203866   7.5240042  12.5266709  )
        44           O1  tau(  44) = (   2.0308607   7.4363189  15.9936472  )
        45           Ti1 tau(  45) = (  -0.0000347   7.4522234   9.2895810  )
        46           Ti1 tau(  46) = (   3.2897547   7.2013570  12.5904776  )
        47           Ti1 tau(  47) = (  -0.0001197   7.5007381  15.6461876  )
        48           O1  tau(  48) = (   4.5934577   7.4534031   9.2879030  )
        49           O1  tau(  49) = (   1.3580612   7.5226468  12.5263262  )
        50           O1  tau(  50) = (   4.5486487   7.4363691  15.9933312  )
        51           Ti1 tau(  51) = (   3.2895107   8.9417832   9.2893338  )
        52           Ti1 tau(  52) = (  -0.0005051   8.7269297  12.4809553  )
        53           Ti1 tau(  53) = (   3.2886672   0.0795926  15.6360096  )
        54           H1  tau(  54) = (   6.5784023   6.0277306  18.1241331  )
        55           H1  tau(  55) = (   6.5784455   8.8634660  18.1266539  )
        56           N1  tau(  56) = (   6.5791914   3.0063145  17.2269018  )
        57           N1  tau(  57) = (   3.2902358   5.9939226  18.1804466  )
        58           H1  tau(  58) = (   3.2886139   5.1344262  18.7255412  )
        59           H1  tau(  59) = (   3.2892998   6.7958846  18.8069972  )

     number of k points=    10  Fermi-Dirac smearing, width (Ry)=  0.0073
                       cart. coord. in units 2pi/alat
        k(    1) = (   0.0000000   0.0000000   0.0000000), wk =   0.1250000
        k(    2) = (   0.0000000   0.0279567   0.0000000), wk =   0.2500000
        k(    3) = (   0.0000000  -0.0559134   0.0000000), wk =   0.1250000
        k(    4) = (   0.0379955   0.0000049   0.0000000), wk =   0.2500000
        k(    5) = (   0.0379955   0.0279617   0.0000000), wk =   0.2500000
        k(    6) = (   0.0379955  -0.0559085   0.0000000), wk =   0.2500000
        k(    7) = (   0.0379955  -0.0279518   0.0000000), wk =   0.2500000
        k(    8) = (  -0.0759910  -0.0000099   0.0000000), wk =   0.1250000
        k(    9) = (  -0.0759910   0.0279468   0.0000000), wk =   0.2500000
        k(   10) = (  -0.0759910  -0.0559233   0.0000000), wk =   0.1250000

     Initial potential from superposition of free atoms

     starting charge  421.99910, renormalised to  440.00000

     negative rho (up, down):  3.749E-02 0.000E+00

     %%%%%%%%%%%%%%%%%%%%%%%%%%%%%%%%%%%%%%%%%%%%%%%%%%%%%%%%%%%%%%%%%%%%%%%%
     %                                                                      %
     % You are using vdW-DF, which was implemented by the Thonhauser group. %
     % Please cite the following two papers that made this development      %
     % possible and the two reviews that describe the various versions:     %
     %                                                                      %
     %   T. Thonhauser et al., PRL 115, 136402 (2015).                      %
     %   T. Thonhauser et al., PRB 76, 125112 (2007).                       %
     %   K. Berland et al., Rep. Prog. Phys. 78, 066501 (2015).             %
     %   D.C. Langreth et al., J. Phys.: Condens. Matter 21, 084203 (2009). %
     %                                                                      %
     %                                                                      %
     % If you are calculating the stress with vdW-DF, please also cite:     %
     %                                                                      %
     %   R. Sabatini et al., J. Phys.: Condens. Matter 24, 424209 (2012).   %
     %                                                                      %
     %%%%%%%%%%%%%%%%%%%%%%%%%%%%%%%%%%%%%%%%%%%%%%%%%%%%%%%%%%%%%%%%%%%%%%%%

     Adding external electric field

     Computed dipole along edir(3) :
        Dipole               -3.9282 Ry au,         -9.9845 Debye
        Dipole field         -0.0049 Ry au,

        Potential amp.        0.4581 Ry
        Total length         46.3494 bohr

     Starting wfcs are  332 atomic wfcs
  @ DRIVER MODE: Message from server: STATUS
  @ DRIVER MODE: Message from server: POSDATA
  @ DRIVER MODE: Reading and sharing cell
  @ DRIVER MODE: Reading and sharing positions
  @ DRIVER MODE: Received positions

     Self-consistent Calculation

     iteration #  1     ecut=    29.40 Ry     beta= 0.05
     Davidson diagonalization with overlap
     c_bands:  2 eigenvalues not converged
     c_bands:  2 eigenvalues not converged
     c_bands:  5 eigenvalues not converged
     c_bands:  4 eigenvalues not converged
     c_bands:  1 eigenvalues not converged
     c_bands:  4 eigenvalues not converged
     c_bands:  5 eigenvalues not converged
     c_bands:  4 eigenvalues not converged
     c_bands:  3 eigenvalues not converged
     ethr =  1.00E-05,  avg # of iterations = 19.8

[...]

     total energy              =   -3294.69554597 Ry
     estimated scf accuracy    <      19.95081355 Ry

     iteration #  2     ecut=    29.40 Ry     beta= 0.05
     Davidson diagonalization with overlap
     ethr =  4.53E-03,  avg # of iterations =  1.0

[...]

     iteration # 26     ecut=    29.40 Ry     beta= 0.05
     Davidson diagonalization with overlap
     c_bands:  1 eigenvalues not converged
     ethr =  5.78E-07,  avg # of iterations =  5.6

[...]

     total energy              =   -3293.27259211 Ry
     estimated scf accuracy    <       0.00000011 Ry

     iteration # 63     ecut=    29.40 Ry     beta= 0.05
     Davidson diagonalization with overlap
     ethr =  2.15E-11,  avg # of iterations =  5.1

     negative rho (up, down):  3.596E-02 0.000E+00

     Adding external electric field

     Computed dipole along edir(3) :
        Dipole                1.3320 Ry au,          3.3855 Debye
        Dipole field          0.0017 Ry au,

        Potential amp.       -0.1553 Ry
        Total length         46.3494 bohr

     End of self-consistent calculation

          k = 0.0000 0.0000 0.0000 ( 26871 PWs)   bands (ev):

   -58.2721 -58.2488 -58.2434 -58.2189 -58.1593 -57.7704 -57.7660 -57.7466
   -57.6620 -57.5609 -57.5575 -57.5384 -57.3291 -56.8541 -56.8301 -56.8133
   -56.7335 -56.6333 -34.6822 -34.6426 -34.6098 -34.5943 -34.5901 -34.5887
   -34.5394 -34.4850 -34.4474 -34.4038 -34.3978 -34.3814 -34.3764 -34.3563
   -34.3086 -34.1845 -34.1335 -34.1267 -34.1187 -34.1133 -34.0676 -34.0470
   -34.0459 -34.0060 -33.9932 -33.9499 -33.9486 -33.8503 -33.8417 -33.8188
   -33.8117 -33.7963 -33.7536 -33.7501 -33.7439 -33.7252 -33.6769 -33.5692
   -33.5369 -33.2288 -33.1988 -33.1806 -33.1639 -33.1579 -33.1408 -33.0621
   -33.0514 -33.0037 -32.9852 -32.9786 -32.9453 -32.8828 -32.8627 -32.7615
   -18.9471 -18.8201 -18.7336 -18.3528 -18.2933 -18.1606 -18.1036 -18.0966
   -18.0030 -17.9339 -17.7102 -17.6622 -17.6503 -17.6257 -17.5302 -17.5164
   -17.5079 -17.4760 -17.4516 -17.4453 -17.3425 -17.3052 -17.2912 -17.2864
   -17.2538 -17.1762 -17.1269 -17.0320 -16.9993 -16.9959 -16.8274 -16.7876
   -15.3310 -15.2900 -15.2811 -15.2385 -11.5996  -6.9805  -6.8075  -6.6518
    -6.1723  -5.9615  -5.7651  -5.6027  -5.5057  -5.4391  -5.3693  -5.3028
    -5.2678  -5.2464  -5.1956  -5.1551  -5.0552  -5.0467  -4.9542  -4.8980
    -4.8683  -4.8372  -4.7587  -4.7371  -4.7204  -4.6709  -4.6104  -4.6006
    -4.5615  -4.4864  -4.4781  -4.4636  -4.4240  -4.4181  -4.3681  -4.2749
    -4.1898  -4.1578  -4.1501  -4.1054  -4.0595  -4.0327  -4.0010  -3.9760
    -3.9677  -3.9437  -3.8607  -3.8343  -3.7311  -3.6371  -3.6094  -3.5925
    -3.5090  -3.4236  -3.3685  -3.3392  -3.1654  -3.1389  -3.0952  -3.0317
    -3.0214  -2.9596  -2.9356  -2.9125  -2.8830  -2.8608  -2.7960  -2.7873
    -2.7853  -2.7650  -2.7403  -2.6933  -2.6441  -2.6228  -2.5600  -2.5314
    -2.5161  -2.4935  -2.4471  -2.4267  -2.3121  -2.2610  -2.2486  -2.2296
    -2.2244  -2.1454  -2.0675  -2.0105  -1.9916  -1.8667  -1.8590  -1.7450
    -1.7005  -1.6948  -1.6422  -1.5699  -1.5230  -1.4776  -1.3649  -1.2356
    -1.1707  -1.0875  -1.0248  -0.7567  -0.6872  -0.5471  -0.5402  -0.5298
    -0.5074  -0.3589  -0.3444  -0.2481   1.0032   1.1393   1.2972   1.3206
     1.5209   1.6090   1.6322   1.6744   1.7741   1.8250

[...]

          k = 0.0380-0.0280 0.0000 ( 26873 PWs)   bands (ev):

[...]

          k =-0.0760-0.0000 0.0000 ( 26902 PWs)   bands (ev):

[...]

          k =-0.0760-0.0559 0.0000 ( 26868 PWs)   bands (ev):

   -58.2657 -58.2611 -58.2374 -58.2187 -58.1593 -57.7701 -57.7660 -57.7470
   -57.6618 -57.5618 -57.5574 -57.5376 -57.3291 -56.8509 -56.8361 -56.8105
   -56.7335 -56.6332 -34.7104 -34.6850 -34.6432 -34.6155 -34.5840 -34.4983
   -34.4838 -34.4248 -34.4198 -34.4101 -34.4022 -34.3986 -34.3940 -34.3578
   -34.3562 -34.2238 -34.1653 -34.1508 -34.1213 -34.1135 -34.0525 -34.0003
   -33.9860 -33.9816 -33.9593 -33.9508 -33.9183 -33.8878 -33.8757 -33.8675
   -33.8231 -33.7958 -33.7571 -33.7445 -33.7427 -33.7259 -33.6787 -33.5689
   -33.5418 -33.2412 -33.2157 -33.1997 -33.1860 -33.1612 -33.0539 -33.0485
   -33.0314 -32.9784 -32.9738 -32.9659 -32.9508 -32.9458 -32.8833 -32.7684
   -18.9077 -18.7491 -18.6203 -18.4631 -18.2266 -18.1240 -17.9624 -17.8791
   -17.8547 -17.8519 -17.8361 -17.7366 -17.7306 -17.6945 -17.6376 -17.6109
   -17.6003 -17.5959 -17.5463 -17.5438 -17.3484 -17.3386 -17.2841 -17.2427
   -17.2183 -17.1960 -17.0954 -17.0945 -17.0243 -16.9494 -16.8464 -16.7635
   -15.3415 -15.3309 -15.2389 -15.2199 -11.5965  -6.9216  -6.8302  -6.6525
    -5.9478  -5.7381  -5.7106  -5.6612  -5.3430  -5.2890  -5.1881  -5.1601
    -5.1215  -5.1050  -5.0648  -5.0627  -4.9927  -4.9484  -4.9344  -4.9072
    -4.8932  -4.8639  -4.8329  -4.8087  -4.7460  -4.7418  -4.7270  -4.6835
    -4.6395  -4.5517  -4.5291  -4.5105  -4.4596  -4.4210  -4.2467  -4.2002
    -4.1733  -4.1589  -4.1135  -4.0491  -3.9717  -3.9542  -3.8985  -3.8232
    -3.7345  -3.6812  -3.6315  -3.5751  -3.5498  -3.5191  -3.5148  -3.4608
    -3.4323  -3.3833  -3.3521  -3.3453  -3.2942  -3.2378  -3.1918  -3.1744
    -3.1464  -3.1413  -3.1186  -3.0933  -3.0624  -3.0397  -3.0352  -2.9770
    -2.9296  -2.9164  -2.8419  -2.8091  -2.7569  -2.7029  -2.6789  -2.6234
    -2.6154  -2.5620  -2.5567  -2.4922  -2.4675  -2.4186  -2.4021  -2.3320
    -2.1528  -2.0898  -1.9845  -1.9391  -1.9293  -1.8587  -1.8273  -1.8148
    -1.6745  -1.6634  -1.6001  -1.5976  -1.5730  -1.3598  -1.3324  -1.2962
    -1.2661  -1.2294  -1.1951  -1.0856  -0.7900  -0.7300  -0.6684  -0.4763
    -0.4544  -0.4103  -0.3794  -0.3650   1.0483   1.2167   1.2850   1.3662
     1.3875   1.4297   1.4595   1.6457   1.6767   1.7076

     the Fermi energy is     0.4028 ev

!    total energy              =   -3293.27261967 Ry
     estimated scf accuracy    <       0.00000007 Ry
     smearing contrib. (-TS)   =      -0.00047368 Ry
     internal energy E=F+TS    =   -3293.27214599 Ry

     The total energy is F=E-TS. E is the sum of the following terms:
     one-electron contribution =  -34648.71919598 Ry
     hartree contribution      =   17388.99058188 Ry
     xc contribution           =    -542.12660100 Ry
     ewald contribution        =   14508.58083710 Ry
     electric field correction =       0.00223201 Ry

     convergence has been achieved in  63 iterations

     Forces acting on atoms (cartesian axes, Ry/au):

     atom    1 type  1   force =     0.00002272    0.00608983    0.04336058
     atom    2 type  1   force =     0.00000599   -0.00400440   -0.00310354
     atom    3 type  1   force =     0.00001970    0.00281784   -0.00191586
     atom    4 type  1   force =     0.00005050   -0.00044766    0.10163557
     atom    5 type  1   force =    -0.00000459    0.00014161    0.00747513
     atom    6 type  1   force =    -0.00000737    0.00312805    0.00052067
     atom    7 type  1   force =     0.07785887    0.00122668   -0.03552257
     atom    8 type  1   force =     0.00796590   -0.02605193    0.00025339
     atom    9 type  1   force =     0.00922481    0.01912435    0.00063027
     atom   10 type  2   force =    -0.00006479    0.00812452   -0.15938543
     atom   11 type  2   force =    -0.00007067    0.02225688   -0.00326739
     atom   12 type  2   force =     0.00002134   -0.02376268   -0.00535243
     atom   13 type  1   force =    -0.07794599    0.00076088   -0.03551334
     atom   14 type  1   force =    -0.00808974   -0.02592892    0.00027135
     atom   15 type  1   force =    -0.00932273    0.01920894    0.00067129
     atom   16 type  2   force =     0.00009776    0.00152620    0.07237372
     atom   17 type  2   force =     0.00009321    0.03130374    0.00140396
     atom   18 type  2   force =     0.00002002   -0.02621596    0.00300985
     atom   19 type  1   force =     0.00005461    0.00277519    0.05723838
     atom   20 type  1   force =     0.00000810   -0.00181024    0.00096695
     atom   21 type  1   force =     0.00005178   -0.00089326    0.10057067
     atom   22 type  1   force =     0.00000530   -0.00256606    0.00649794
     atom   23 type  1   force =    -0.00003080    0.00310734    0.00446030
     atom   24 type  1   force =     0.07897267    0.00059533   -0.03634124
     atom   25 type  1   force =     0.00963461   -0.02998434    0.00063378
     atom   26 type  1   force =     0.01012412    0.01540148    0.00393619
     atom   27 type  2   force =    -0.00008167   -0.00570949   -0.15463776
     atom   28 type  2   force =     0.00001704    0.02803008   -0.00276611
     atom   29 type  2   force =     0.00003354   -0.01138021   -0.01309027
     atom   30 type  1   force =    -0.07905668    0.00019350   -0.03634422
     atom   31 type  1   force =    -0.00971714   -0.02981922    0.00063863
     atom   32 type  1   force =    -0.01011136    0.01536156    0.00393672
     atom   33 type  2   force =     0.00011836   -0.00295171    0.07718967
     atom   34 type  2   force =     0.00003740    0.03528541    0.00326655
     atom   35 type  2   force =    -0.00006178   -0.01757976   -0.00670534
     atom   36 type  1   force =     0.00008428    0.00417089    0.05151269
     atom   37 type  1   force =    -0.00000088   -0.00285117   -0.00303273
     atom   38 type  1   force =     0.00001287    0.00205258    0.00374867
     atom   39 type  1   force =     0.00004473    0.00293134    0.10097582
     atom   40 type  1   force =    -0.00000561   -0.00196418    0.00745400
     atom   41 type  1   force =    -0.00000045    0.00060676    0.00080239
     atom   42 type  1   force =     0.07838394    0.00162914   -0.03444284
     atom   43 type  1   force =     0.00610914   -0.02323166   -0.00033108
     atom   44 type  1   force =     0.00978648    0.01623402   -0.00680830
     atom   45 type  2   force =    -0.00005883   -0.00739787   -0.16392490
     atom   46 type  2   force =    -0.00002978    0.01841573    0.00065325
     atom   47 type  2   force =     0.00001612   -0.01462926    0.01668441
     atom   48 type  1   force =    -0.07848751    0.00118429   -0.03442812
     atom   49 type  1   force =    -0.00609724   -0.02325775   -0.00032572
     atom   50 type  1   force =    -0.00977369    0.01625568   -0.00678874
     atom   51 type  2   force =     0.00010549   -0.00344543    0.06017718
     atom   52 type  2   force =     0.00004848    0.02829520    0.00336663
     atom   53 type  2   force =     0.00008863   -0.02136636    0.00080015
     atom   54 type  3   force =    -0.00003510    0.00068923   -0.00187032
     atom   55 type  3   force =    -0.00002384   -0.00071838   -0.00046315
     atom   56 type  4   force =    -0.00002872    0.00038392    0.00180085
     atom   57 type  4   force =    -0.00001523   -0.00054891    0.02066818
     atom   58 type  3   force =    -0.00000778    0.00527075   -0.00625225
     atom   59 type  3   force =     0.00001143   -0.00606217   -0.00697206

     Total force =     0.435508     Total SCF correction =     0.000532
  @ DRIVER MODE: Message from server: STATUS
  @ DRIVER MODE: Message from server: GETFORCE
  @ DRIVER MODE: Returning v,forces,stress,ensemble

     Writing output data file ./calc.save/
  @ DRIVER MODE: Message from server: EXIT
  @ DRIVE MODE: Exiting

     General routines

     Parallel routines

   This run was terminated on:  22:41:44  18Oct2021

   JOB DONE.