     Program PWSCF v.6.7GPU starts on  5Oct2021 at 16:30: 9

     R & G space division:  proc/nbgrp/npool/nimage =       8
     Reading input from /storage/home/hcoda1/3/ntian30/research/carbon/CxH_vib/pristine/ads_slab/OH_a/out_0008/pw.inp
Warning: card &CELL ignored
Warning: card   CELL_DYNAMICS='IPI', ignored
Warning: card / ignored

     Current dimensions of program PWSCF are:
     Max number of different atomic species (ntypx) = 10
     Max number of k-points (npk) =  40000
     Max angular momentum in pseudopotentials (lmaxx) =  3
     Presently no symmetry can be used with electric field

     Message from routine cell_base_init:
     DEPRECATED: use true lattice parameter, not A to a.u. conversion factor

     IMPORTANT: XC functional enforced from input :
     Exchange-correlation= BEEF-VDW
                           (   1   4  43  14   2   0   0)
     Any further DFT definition will be discarded
     Please, verify this is what you really want

  @ DRIVER MODE: Connecting to
 qe_1139763_3092461.sched-torque.pace.gatech.edu1qs_08kn_scratch
  using UNIX socket
  @ DRIVER MODE: Message from server: STATUS
  @ DRIVER MODE: Message from server: INIT
  @ DRIVER MODE: Receiving replica           0          -1
  @ DRIVER MODE: Receiving encoded integer          25
  @ DRIVER MODE:  SCF:  T  FORCE:  T  STRESS:  F  VC:  F  ENSEMBLE:  F
  @ DRIVER MODE:  SCF:  T  FORCE:  T  STRESS:  F  VC:  F  ENSEMBLE:  F

     Using Slab Decomposition

     bravais-lattice index     =            0
     lattice parameter (alat)  =       1.8897  a.u.
     unit-cell volume          =    6658.9804 (a.u.)^3
     number of atoms/cell      =           49
     number of atomic types    =            3
     number of electrons       =       385.00
     number of Kohn-Sham states=          202
     kinetic-energy cutoff     =      29.3995  Ry
     charge density cutoff     =     293.9946  Ry
     scf convergence threshold =      7.3E-08
     mixing beta               =       0.0500
     number of iterations used =            8  plain     mixing
     Exchange-correlation= BEEF-VDW
                           (   1   4  43  14   2   0   0)

     celldm(1)=   1.889726  celldm(2)=   0.000000  celldm(3)=   0.000000
     celldm(4)=   0.000000  celldm(5)=   0.000000  celldm(6)=   0.000000

     crystal axes: (cart. coord. in units of alat)
               a(1) = (   6.579727   0.000000   0.000000 )
               a(2) = (  -0.000775   5.961596   0.000000 )
               a(3) = (   0.000000   0.000000  25.155947 )

     reciprocal axes: (cart. coord. in units 2 pi/alat)
               b(1) = (  0.151982  0.000020  0.000000 )
               b(2) = (  0.000000  0.167740  0.000000 )
               b(3) = (  0.000000  0.000000  0.039752 )

     PseudoPot. # 1 for H  read from file:
     /storage/coda1/p-amedford6/0/shared/rich_project_chbe-medford/medford-share/data/pseudos_module/espresso/nninc/pbe/van/H.UPF
     MD5 check sum: b5ee9d7bfd3a09ee7748110bda690ff7
     Pseudo is Ultrasoft, Zval =  1.0
     Generated by new atomic code, or converted to UPF format
     Using radial grid of  615 points,  1 beta functions with:
                l(1) =   0
     Q(r) pseudized with  8 coefficients,  rinner =    0.800

     PseudoPot. # 2 for O  read from file:
     /storage/coda1/p-amedford6/0/shared/rich_project_chbe-medford/medford-share/data/pseudos_module/espresso/nninc/pbe/van/O.UPF
     MD5 check sum: 78c19812648e8988a0fe644b0f25305e
     Pseudo is Ultrasoft, Zval =  6.0
     Generated by new atomic code, or converted to UPF format
     Using radial grid of  737 points,  4 beta functions with:
                l(1) =   0
                l(2) =   0
                l(3) =   1
                l(4) =   1
     Q(r) pseudized with  8 coefficients,  rinner =    0.800   0.800   0.800

     PseudoPot. # 3 for Ti read from file:
     /storage/coda1/p-amedford6/0/shared/rich_project_chbe-medford/medford-share/data/pseudos_module/espresso/nninc/pbe/van/Ti.UPF
     MD5 check sum: 8e4df49b7f0d34bbd5052bf3f5ea0213
     Pseudo is Ultrasoft, Zval = 12.0
     Generated by new atomic code, or converted to UPF format
     Using radial grid of  851 points,  6 beta functions with:
                l(1) =   0
                l(2) =   0
                l(3) =   1
                l(4) =   1
                l(5) =   2
                l(6) =   2
     Q(r) pseudized with  8 coefficients,  rinner =    1.000   1.000   1.000
                                                       1.000   1.000

     atomic species   valence    mass     pseudopotential
        H1             1.00     1.00800     H ( 1.00)
        O1             6.00    15.99900     O ( 1.00)
        Ti1           12.00    47.86700     Ti( 1.00)

     No symmetry found

   Cartesian axes

     site n.     atom                  positions (alat units)
         1           H1  tau(   1) = (   6.1285627   2.9271563  18.1978583  )
         2           O1  tau(   2) = (   0.0006271   0.0005054   7.9858123  )
         3           O1  tau(   3) = (   3.2906025   0.0005020   7.3038282  )
         4           O1  tau(   4) = (   4.5942328   1.4918067   9.2879030  )
         5           O1  tau(   5) = (   1.9868534   1.4903216   9.2879459  )
         6           O1  tau(   6) = (   3.2706409   0.0174512  11.3459279  )
         7           O1  tau(   7) = (   6.5740518   0.0106632  10.6119017  )
         8           O1  tau(   8) = (   1.2784420   1.5051768  12.6495664  )
         9           O1  tau(   9) = (   5.2777641   1.5057411  12.6372187  )
        10           O1  tau(  10) = (   6.5277286   0.0194253  14.7314476  )
        11           O1  tau(  11) = (   3.2772156   0.0218198  13.9356907  )
        12           O1  tau(  12) = (   4.4925954   1.5252930  16.1022717  )
        13           O1  tau(  13) = (   2.0005661   1.5201685  16.0636378  )
        14           O1  tau(  14) = (   3.2904802   0.0005063   4.7018136  )
        15           O1  tau(  15) = (   6.5406378   0.0426308  17.2527531  )
        16           O1  tau(  16) = (   1.3043587   1.4918075   6.0039043  )
        17           O1  tau(  17) = (   5.2767064   1.4903225   6.0039473  )
        18           O1  tau(  18) = (   0.0002396   2.9813036   7.9858123  )
        19           O1  tau(  19) = (   3.2902150   2.9813002   7.3038282  )
        20           O1  tau(  20) = (   4.5938453   4.4726049   9.2879030  )
        21           O1  tau(  21) = (   1.9864658   4.4711199   9.2879459  )
        22           O1  tau(  22) = (   3.2713702   3.0002330  11.3479749  )
        23           O1  tau(  23) = (   0.0000412   2.9948241  10.5696328  )
        24           O1  tau(  24) = (   1.2752127   4.4878296  12.6567543  )
        25           O1  tau(  25) = (   5.2773950   4.4893484  12.6450210  )
        26           O1  tau(  26) = (   6.5457704   2.9801347  14.7053517  )
        27           O1  tau(  27) = (   3.2760166   3.0039015  13.9301991  )
        28           O1  tau(  28) = (   4.4930617   4.4968681  16.1151247  )
        29           O1  tau(  29) = (   1.9976114   4.4995801  16.0783546  )
        30           O1  tau(  30) = (   3.2900926   2.9813045   4.7018136  )
        31           O1  tau(  31) = (   1.3039711   4.4726057   6.0039043  )
        32           O1  tau(  32) = (   5.2763189   4.4711207   6.0039473  )
        33           O1  tau(  33) = (   6.5611248   2.9942543  17.3379038  )
        34           Ti1 tau(  34) = (   0.0004258   2.9801865   6.0000000  )
        35           Ti1 tau(  35) = (   3.2906075   1.4906267   6.0002472  )
        36           Ti1 tau(  36) = (   3.3318975   3.0330250   9.1579500  )
        37           Ti1 tau(  37) = (   0.0205117   1.6124020   9.3622821  )
        38           Ti1 tau(  38) = (   6.5366237   3.0123281  12.8261813  )
        39           Ti1 tau(  39) = (   3.2219039   1.5139177  12.4898250  )
        40           Ti1 tau(  40) = (   3.2511232   3.0127314  15.7226336  )
        41           Ti1 tau(  41) = (   6.5498889   1.4452159  15.9768866  )
        42           Ti1 tau(  42) = (   0.0000382   5.9609847   6.0000000  )
        43           Ti1 tau(  43) = (   3.2902200   4.4714249   6.0002472  )
        44           Ti1 tau(  44) = (   3.2860949   0.0564500   9.1526048  )
        45           Ti1 tau(  45) = (   0.0290565   4.5316589   9.2718247  )
        46           Ti1 tau(  46) = (   6.5192412   0.0260524  12.5185800  )
        47           Ti1 tau(  47) = (   3.2223028   4.4950945  12.4895861  )
        48           Ti1 tau(  48) = (   3.2594166   0.0314875  15.7269021  )
        49           Ti1 tau(  49) = (   6.5584344   4.6157387  16.1276880  )

     number of k points=    10  Fermi-Dirac smearing, width (Ry)=  0.0073
                       cart. coord. in units 2pi/alat
        k(    1) = (   0.0000000   0.0000000   0.0000000), wk =   0.1250000
        k(    2) = (   0.0000000   0.0419351   0.0000000), wk =   0.2500000
        k(    3) = (   0.0000000  -0.0838702   0.0000000), wk =   0.1250000
        k(    4) = (   0.0379955   0.0000049   0.0000000), wk =   0.2500000
        k(    5) = (   0.0379955   0.0419400   0.0000000), wk =   0.2500000
        k(    6) = (   0.0379955  -0.0838652   0.0000000), wk =   0.2500000
        k(    7) = (   0.0379955  -0.0419301   0.0000000), wk =   0.2500000
        k(    8) = (  -0.0759910  -0.0000099   0.0000000), wk =   0.1250000
        k(    9) = (  -0.0759910   0.0419252   0.0000000), wk =   0.2500000
        k(   10) = (  -0.0759910  -0.0838800   0.0000000), wk =   0.1250000

     Initial potential from superposition of free atoms

     starting charge  368.99924, renormalised to  385.00000

     negative rho (up, down):  2.280E-02 0.000E+00

     %%%%%%%%%%%%%%%%%%%%%%%%%%%%%%%%%%%%%%%%%%%%%%%%%%%%%%%%%%%%%%%%%%%%%%%%
     %                                                                      %
     % You are using vdW-DF, which was implemented by the Thonhauser group. %
     % Please cite the following two papers that made this development      %
     % possible and the two reviews that describe the various versions:     %
     %                                                                      %
     %   T. Thonhauser et al., PRL 115, 136402 (2015).                      %
     %   T. Thonhauser et al., PRB 76, 125112 (2007).                       %
     %   K. Berland et al., Rep. Prog. Phys. 78, 066501 (2015).             %
     %   D.C. Langreth et al., J. Phys.: Condens. Matter 21, 084203 (2009). %
     %                                                                      %
     %                                                                      %
     % If you are calculating the stress with vdW-DF, please also cite:     %
     %                                                                      %
     %   R. Sabatini et al., J. Phys.: Condens. Matter 24, 424209 (2012).   %
     %                                                                      %
     %%%%%%%%%%%%%%%%%%%%%%%%%%%%%%%%%%%%%%%%%%%%%%%%%%%%%%%%%%%%%%%%%%%%%%%%

     Adding external electric field

     Computed dipole along edir(3) :
        Dipole               -1.6872 Ry au,         -4.2885 Debye
        Dipole field         -0.0032 Ry au,

        Potential amp.        0.2952 Ry
        Total length         46.3494 bohr

     Starting wfcs are  289 atomic wfcs
  @ DRIVER MODE: Message from server: STATUS
  @ DRIVER MODE: Message from server: POSDATA
  @ DRIVER MODE: Reading and sharing cell
  @ DRIVER MODE: Reading and sharing positions
  @ DRIVER MODE: Received positions

     Self-consistent Calculation

     iteration #  1     ecut=    29.40 Ry     beta= 0.05
     Davidson diagonalization with overlap
     c_bands:  2 eigenvalues not converged
     c_bands:  1 eigenvalues not converged
     c_bands:  2 eigenvalues not converged
     c_bands:  1 eigenvalues not converged
     c_bands:  1 eigenvalues not converged
     ethr =  1.00E-05,  avg # of iterations = 18.2

[...]

     total energy              =   -2919.00163557 Ry
     estimated scf accuracy    <      12.34799316 Ry

     iteration #  2     ecut=    29.40 Ry     beta= 0.05
     Davidson diagonalization with overlap
     ethr =  3.21E-03,  avg # of iterations =  1.0

[...]

     iteration # 35     ecut=    29.40 Ry     beta= 0.05
     Davidson diagonalization with overlap
     c_bands:  1 eigenvalues not converged
     ethr =  8.75E-08,  avg # of iterations = 11.0

[...]

     total energy              =   -2917.56705056 Ry
     estimated scf accuracy    <       0.00000008 Ry

     iteration # 51     ecut=    29.40 Ry     beta= 0.05
     Davidson diagonalization with overlap
     ethr =  2.15E-11,  avg # of iterations =  7.0

     negative rho (up, down):  2.171E-02 0.000E+00

     Adding external electric field

     Computed dipole along edir(3) :
        Dipole                0.7003 Ry au,          1.7800 Debye
        Dipole field          0.0013 Ry au,

        Potential amp.       -0.1225 Ry
        Total length         46.3494 bohr

     End of self-consistent calculation

          k = 0.0000 0.0000 0.0000 ( 18029 PWs)   bands (ev):

   -56.1493 -56.1385 -56.1119 -56.1023 -56.0599 -56.0343 -56.0108 -55.9776
   -55.9759 -55.9596 -55.9261 -55.9022 -55.8687 -55.8010 -55.1629 -55.1288
   -32.7018 -32.6171 -32.5887 -32.4968 -32.4704 -32.4516 -32.4422 -32.4189
   -32.3819 -32.3764 -32.3593 -32.3528 -32.3484 -32.3193 -32.3092 -32.3083
   -32.3045 -32.2822 -32.2749 -32.2472 -32.2391 -32.2151 -32.2139 -32.2099
   -32.1917 -32.1884 -32.1642 -32.1639 -32.1565 -32.1533 -32.1465 -32.1416
   -32.1270 -32.1268 -32.1183 -32.0821 -32.0815 -32.0471 -32.0242 -32.0082
   -31.9907 -31.9872 -31.5727 -31.4756 -31.4532 -31.3894 -31.3034 -31.1922
   -17.5083 -16.8850 -16.5948 -16.4267 -16.3001 -16.2692 -16.1624 -15.9827
   -15.8389 -15.8227 -15.7556 -15.7165 -15.7120 -15.6839 -15.6710 -15.6589
   -15.6456 -15.6142 -15.5802 -15.5702 -15.5525 -15.5277 -15.4864 -15.4288
   -15.3493 -15.3046 -15.2678 -15.2296 -15.1501 -15.1289 -13.6637 -13.5454
    -5.4525  -4.2464  -4.0719  -4.0566  -4.0379  -3.9557  -3.7075  -3.7005
    -3.3977  -3.3208  -3.2885  -3.2834  -3.2751  -3.0966  -3.0298  -2.9794
    -2.9767  -2.9608  -2.9560  -2.9309  -2.8970  -2.8860  -2.8563  -2.8390
    -2.7197  -2.6899  -2.5637  -2.5472  -2.5325  -2.4728  -2.4505  -2.4152
    -2.4017  -2.3934  -2.3718  -2.3541  -2.3184  -2.2323  -2.2162  -2.0879
    -1.9765  -1.9370  -1.8498  -1.6973  -1.6225  -1.6083  -1.5789  -1.5506
    -1.5355  -1.4911  -1.4633  -1.3983  -1.3480  -1.3439  -1.2418  -1.1618
    -1.1272  -1.0527  -1.0228  -1.0013  -0.8939  -0.8730  -0.8603  -0.6853
    -0.6334  -0.6146  -0.6119  -0.4845  -0.4444  -0.4111  -0.3969  -0.3664
    -0.3382  -0.2941  -0.2465  -0.1901  -0.1665  -0.1546  -0.1440  -0.1273
    -0.0976   0.0186   0.0358   0.0547   0.1592   0.1788   0.3714   0.3740
     0.4974   0.6017   0.7651   0.8615   0.9327   1.0319   1.4502   1.5104
     3.0387   3.0727   3.1024   3.1228   3.1876   3.3077   3.4226   3.4780
     3.4968   3.5182

[...]

          k = 0.0380-0.0419 0.0000 ( 17876 PWs)   bands (ev):

[...]

          k =-0.0760-0.0000 0.0000 ( 17886 PWs)   bands (ev):

[...]

          k =-0.0760-0.0839 0.0000 ( 17948 PWs)   bands (ev):

   -56.1383 -56.1227 -56.1211 -56.1195 -56.0567 -56.0292 -55.9965 -55.9901
   -55.9827 -55.9626 -55.9234 -55.8859 -55.8851 -55.8033 -55.1464 -55.1452
   -32.5056 -32.5016 -32.4914 -32.4415 -32.4310 -32.4251 -32.4074 -32.4062
   -32.4011 -32.3621 -32.3398 -32.3325 -32.3304 -32.2970 -32.2921 -32.2827
   -32.2706 -32.2693 -32.2642 -32.2569 -32.2541 -32.2427 -32.2393 -32.2318
   -32.2310 -32.2102 -32.2050 -32.1971 -32.1931 -32.1916 -32.1854 -32.1657
   -32.1578 -32.1447 -32.1425 -32.1378 -32.1211 -32.1050 -32.0924 -32.0836
   -32.0316 -31.9964 -31.4666 -31.4652 -31.3861 -31.3853 -31.3469 -31.3460
   -17.4532 -16.3255 -16.3120 -16.0833 -16.0670 -16.0655 -16.0020 -15.9134
   -15.8954 -15.8690 -15.8642 -15.8094 -15.8031 -15.7840 -15.7218 -15.6921
   -15.6707 -15.6545 -15.6529 -15.5993 -15.5938 -15.5525 -15.5301 -15.5099
   -15.5001 -15.4794 -15.4745 -15.4149 -15.3750 -15.3034 -13.6479 -13.6455
    -5.3818  -3.6164  -3.6009  -3.3493  -3.2897  -3.2827  -3.2058  -3.1357
    -3.0764  -3.0325  -2.9987  -2.9925  -2.9836  -2.9724  -2.9675  -2.9498
    -2.9375  -2.9178  -2.8992  -2.8465  -2.8312  -2.7985  -2.7820  -2.7703
    -2.7620  -2.7254  -2.7060  -2.6955  -2.6780  -2.6767  -2.5943  -2.4530
    -2.4000  -2.3116  -2.2987  -2.2844  -2.2380  -2.2147  -2.1980  -2.1836
    -2.1385  -2.1103  -1.9511  -1.8804  -1.8606  -1.8434  -1.8099  -1.7487
    -1.6680  -1.6341  -1.5636  -1.5546  -1.5118  -1.4486  -1.3814  -1.3553
    -1.3123  -1.2578  -1.2163  -1.1608  -1.1270  -1.1057  -1.0996  -1.0457
    -0.9941  -0.9512  -0.8949  -0.8713  -0.8086  -0.7674  -0.7256  -0.6735
    -0.6434  -0.6077  -0.4994  -0.3855  -0.2598  -0.2166  -0.1244  -0.1024
    -0.0818  -0.0513   0.0667   0.0943   0.1283   0.1604   0.2447   0.3000
     0.3701   0.3901   0.4162   0.4764   1.2216   1.2229   1.3123   1.3235
     3.2428   3.2735   3.2939   3.3438   3.4966   3.5014   3.5201   3.5284
     3.5879   3.6596

     the Fermi energy is     3.0056 ev

!    total energy              =   -2917.56713675 Ry
     estimated scf accuracy    <       0.00000004 Ry
     smearing contrib. (-TS)   =      -0.02328191 Ry
     internal energy E=F+TS    =   -2917.54385485 Ry

     The total energy is F=E-TS. E is the sum of the following terms:
     one-electron contribution =  -25019.05972485 Ry
     hartree contribution      =   12589.96978198 Ry
     xc contribution           =    -476.91342424 Ry
     ewald contribution        =    9988.45858677 Ry
     electric field correction =       0.00092549 Ry

     convergence has been achieved in  51 iterations

     Forces acting on atoms (cartesian axes, Ry/au):

     atom    1 type  1   force =    -0.00084031    0.00105961   -0.00017692
     atom    2 type  2   force =     0.00033152   -0.00693652   -0.03315947
     atom    3 type  2   force =     0.00003719    0.00053830    0.04514287
     atom    4 type  2   force =    -0.02017866    0.00056742    0.00446798
     atom    5 type  2   force =     0.01812569   -0.00156955    0.00404860
     atom    6 type  2   force =     0.00015895   -0.00002124    0.00071637
     atom    7 type  2   force =     0.00001091   -0.00007899   -0.00049366
     atom    8 type  2   force =     0.00010698   -0.00030699    0.00003654
     atom    9 type  2   force =    -0.00024915   -0.00003064    0.00001341
     atom   10 type  2   force =     0.00054435    0.00062746    0.00110884
     atom   11 type  2   force =     0.00013295   -0.00045215   -0.00139119
     atom   12 type  2   force =    -0.00018855   -0.00005170    0.00024949
     atom   13 type  2   force =    -0.00050031   -0.00039332    0.00055159
     atom   14 type  2   force =     0.00004510    0.00005700    0.10424428
     atom   15 type  2   force =     0.00043569   -0.00052152    0.00106516
     atom   16 type  2   force =    -0.06898886    0.00075208   -0.02957101
     atom   17 type  2   force =     0.06874852    0.00130362   -0.02957635
     atom   18 type  2   force =     0.00035843    0.00395389   -0.02778523
     atom   19 type  2   force =     0.00080097    0.00083912    0.04709273
     atom   20 type  2   force =    -0.01786213    0.00131054    0.00376846
     atom   21 type  2   force =     0.01745279    0.00214655    0.00323285
     atom   22 type  2   force =     0.00014205   -0.00003373    0.00028674
     atom   23 type  2   force =    -0.00004323    0.00024303   -0.00023166
     atom   24 type  2   force =     0.00042720   -0.00010529   -0.00008655
     atom   25 type  2   force =     0.00000435   -0.00015189   -0.00021298
     atom   26 type  2   force =     0.00010212    0.00000487   -0.00030881
     atom   27 type  2   force =    -0.00004995    0.00001272   -0.00033681
     atom   28 type  2   force =    -0.00111124   -0.00076373    0.00030008
     atom   29 type  2   force =    -0.00020126   -0.00010543    0.00059332
     atom   30 type  2   force =     0.00004510    0.00003470    0.10429796
     atom   31 type  2   force =    -0.06855801   -0.00140994   -0.02962179
     atom   32 type  2   force =     0.06842846   -0.00102516   -0.02961382
     atom   33 type  2   force =     0.00066117    0.00157823   -0.00054157
     atom   34 type  3   force =     0.00000428   -0.00165044    0.10543135
     atom   35 type  3   force =    -0.00016034    0.00086286   -0.17979719
     atom   36 type  3   force =    -0.00026362    0.00003375    0.00008973
     atom   37 type  3   force =     0.00012487   -0.00054536    0.00010629
     atom   38 type  3   force =    -0.00021588    0.00026925    0.00004897
     atom   39 type  3   force =     0.00002535    0.00028082   -0.00007331
     atom   40 type  3   force =     0.00217256    0.00003072   -0.00048284
     atom   41 type  3   force =    -0.00036170   -0.00111126   -0.00087790
     atom   42 type  3   force =    -0.00001913    0.00127137    0.11803333
     atom   43 type  3   force =     0.00000339   -0.00036542   -0.17998062
     atom   44 type  3   force =     0.00029932    0.00001179    0.00024254
     atom   45 type  3   force =     0.00003172    0.00065651   -0.00025039
     atom   46 type  3   force =     0.00020167    0.00023758    0.00103240
     atom   47 type  3   force =     0.00008969   -0.00034176    0.00000215
     atom   48 type  3   force =     0.00272279   -0.00012679   -0.00039020
     atom   49 type  3   force =    -0.00298380   -0.00058500   -0.00124378

     Total force =     0.376246     Total SCF correction =     0.000458
  @ DRIVER MODE: Message from server: STATUS
  @ DRIVER MODE: Message from server: GETFORCE
  @ DRIVER MODE: Returning v,forces,stress,ensemble

     Writing output data file ./calc.save/
  @ DRIVER MODE: Message from server: EXIT
  @ DRIVE MODE: Exiting

     General routines

     Parallel routines

   This run was terminated on:  16:49:31   5Oct2021

   JOB DONE.