     Program PWSCF v.6.7GPU starts on 30Sep2021 at 18:14:11

     R & G space division:  proc/nbgrp/npool/nimage =       8
     Reading input from /storage/home/hcoda1/3/ntian30/research/carbon/CxH_vib/pristine/ads_slab/CH2N2_h/out_0017/pw.inp
Warning: card &CELL ignored
Warning: card   CELL_DYNAMICS='IPI', ignored
Warning: card / ignored

     Current dimensions of program PWSCF are:
     Max number of different atomic species (ntypx) = 10
     Max number of k-points (npk) =  40000
     Max angular momentum in pseudopotentials (lmaxx) =  3
     Presently no symmetry can be used with electric field

     Message from routine cell_base_init:
     DEPRECATED: use true lattice parameter, not A to a.u. conversion factor

     IMPORTANT: XC functional enforced from input :
     Exchange-correlation= BEEF-VDW
                           (   1   4  43  14   2   0   0)
     Any further DFT definition will be discarded
     Please, verify this is what you really want

  @ DRIVER MODE: Connecting to
 qe_1139763_3035237.sched-torque.pace.gatech.educ0f6fsp__scratch
  using UNIX socket
  @ DRIVER MODE: Message from server: STATUS
  @ DRIVER MODE: Message from server: INIT
  @ DRIVER MODE: Receiving replica           0          -1
  @ DRIVER MODE: Receiving encoded integer          25
  @ DRIVER MODE:  SCF:  T  FORCE:  T  STRESS:  F  VC:  F  ENSEMBLE:  F
  @ DRIVER MODE:  SCF:  T  FORCE:  T  STRESS:  F  VC:  F  ENSEMBLE:  F

     Using Slab Decomposition

     bravais-lattice index     =            0
     lattice parameter (alat)  =       1.8897  a.u.
     unit-cell volume          =    6658.9804 (a.u.)^3
     number of atoms/cell      =           53
     number of atomic types    =            5
     number of electrons       =       400.00
     number of Kohn-Sham states=          210
     kinetic-energy cutoff     =      29.3995  Ry
     charge density cutoff     =     293.9946  Ry
     scf convergence threshold =      7.3E-08
     mixing beta               =       0.0500
     number of iterations used =            8  plain     mixing
     Exchange-correlation= BEEF-VDW
                           (   1   4  43  14   2   0   0)

     celldm(1)=   1.889726  celldm(2)=   0.000000  celldm(3)=   0.000000
     celldm(4)=   0.000000  celldm(5)=   0.000000  celldm(6)=   0.000000

     crystal axes: (cart. coord. in units of alat)
               a(1) = (   6.579727   0.000000   0.000000 )
               a(2) = (  -0.000775   5.961596   0.000000 )
               a(3) = (   0.000000   0.000000  25.155947 )

     reciprocal axes: (cart. coord. in units 2 pi/alat)
               b(1) = (  0.151982  0.000020  0.000000 )
               b(2) = (  0.000000  0.167740  0.000000 )
               b(3) = (  0.000000  0.000000  0.039752 )

     PseudoPot. # 1 for Ti read from file:
     /storage/coda1/p-amedford6/0/shared/rich_project_chbe-medford/medford-share/data/pseudos_module/espresso/nninc/pbe/van/Ti.UPF
     MD5 check sum: 8e4df49b7f0d34bbd5052bf3f5ea0213
     Pseudo is Ultrasoft, Zval = 12.0
     Generated by new atomic code, or converted to UPF format
     Using radial grid of  851 points,  6 beta functions with:
                l(1) =   0
                l(2) =   0
                l(3) =   1
                l(4) =   1
                l(5) =   2
                l(6) =   2
     Q(r) pseudized with  8 coefficients,  rinner =    1.000   1.000   1.000
                                                       1.000   1.000

     PseudoPot. # 2 for O  read from file:
     /storage/coda1/p-amedford6/0/shared/rich_project_chbe-medford/medford-share/data/pseudos_module/espresso/nninc/pbe/van/O.UPF
     MD5 check sum: 78c19812648e8988a0fe644b0f25305e
     Pseudo is Ultrasoft, Zval =  6.0
     Generated by new atomic code, or converted to UPF format
     Using radial grid of  737 points,  4 beta functions with:
                l(1) =   0
                l(2) =   0
                l(3) =   1
                l(4) =   1
     Q(r) pseudized with  8 coefficients,  rinner =    0.800   0.800   0.800

     PseudoPot. # 3 for N  read from file:
     /storage/coda1/p-amedford6/0/shared/rich_project_chbe-medford/medford-share/data/pseudos_module/espresso/nninc/pbe/van/N.UPF
     MD5 check sum: 90d10febe142ad51ac9d5be1deb811c4
     Pseudo is Ultrasoft, Zval =  5.0
     Generated by new atomic code, or converted to UPF format
     Using radial grid of  729 points,  4 beta functions with:
                l(1) =   0
                l(2) =   0
                l(3) =   1
                l(4) =   1
     Q(r) pseudized with  8 coefficients,  rinner =    0.800   0.800   0.800

     PseudoPot. # 4 for C  read from file:
     /storage/coda1/p-amedford6/0/shared/rich_project_chbe-medford/medford-share/data/pseudos_module/espresso/nninc/pbe/van/C.UPF
     MD5 check sum: 1a69bf6b8db32088f5b2163dbdb77a27
     Pseudo is Ultrasoft, Zval =  4.0
     Generated by new atomic code, or converted to UPF format
     Using radial grid of  721 points,  4 beta functions with:
                l(1) =   0
                l(2) =   0
                l(3) =   1
                l(4) =   1
     Q(r) pseudized with  8 coefficients,  rinner =    0.800   0.800   0.800

     PseudoPot. # 5 for H  read from file:
     /storage/coda1/p-amedford6/0/shared/rich_project_chbe-medford/medford-share/data/pseudos_module/espresso/nninc/pbe/van/H.UPF
     MD5 check sum: b5ee9d7bfd3a09ee7748110bda690ff7
     Pseudo is Ultrasoft, Zval =  1.0
     Generated by new atomic code, or converted to UPF format
     Using radial grid of  615 points,  1 beta functions with:
                l(1) =   0
     Q(r) pseudized with  8 coefficients,  rinner =    0.800

     atomic species   valence    mass     pseudopotential
        Ti1           12.00    47.86700     Ti( 1.00)
        O1             6.00    15.99900     O ( 1.00)
        N1             5.00    14.00700     N ( 1.00)
        C1             4.00    12.01100     C ( 1.00)
        H1             1.00     1.00800     H ( 1.00)

     No symmetry found

   Cartesian axes

     site n.     atom                  positions (alat units)
         1           Ti1 tau(   1) = (   0.0004258   2.9801865   6.0000000  )
         2           Ti1 tau(   2) = (   3.2906075   1.4906267   6.0002472  )
         3           O1  tau(   3) = (   0.0006271   0.0005054   7.9858123  )
         4           O1  tau(   4) = (   3.2906025   0.0005020   7.3038282  )
         5           O1  tau(   5) = (   4.5942328   1.4918067   9.2879030  )
         6           O1  tau(   6) = (   1.9868534   1.4903216   9.2879459  )
         7           Ti1 tau(   7) = (   3.2940346   2.8698074   9.1684565  )
         8           Ti1 tau(   8) = (   0.0030225   1.4329613   9.3767462  )
         9           O1  tau(   9) = (   3.2994152   5.9581457  11.3549906  )
        10           O1  tau(  10) = (   6.5730281   5.9481945  10.5612412  )
        11           O1  tau(  11) = (   1.2782729   1.4799297  12.6138410  )
        12           O1  tau(  12) = (   5.2754995   1.4800591  12.6632238  )
        13           Ti1 tau(  13) = (   0.0766946   2.9556037  12.8068061  )
        14           Ti1 tau(  14) = (   3.3903493   1.4788161  12.4952579  )
        15           O1  tau(  15) = (   0.0876507   5.9454885  14.6519752  )
        16           O1  tau(  16) = (   3.2436869   5.9606251  13.9358461  )
        17           O1  tau(  17) = (   4.5879952   1.4894255  15.9985222  )
        18           O1  tau(  18) = (   2.0927145   1.4923104  16.0778241  )
        19           Ti1 tau(  19) = (   3.3818532   2.9747944  15.7863222  )
        20           Ti1 tau(  20) = (   0.1331232   1.5076923  16.1442520  )
        21           O1  tau(  21) = (   3.2904802   0.0005063   4.7018136  )
        22           O1  tau(  22) = (   6.5571263   5.9613239  17.2084283  )
        23           O1  tau(  23) = (   1.3043587   1.4918075   6.0039043  )
        24           O1  tau(  24) = (   5.2767064   1.4903225   6.0039473  )
        25           Ti1 tau(  25) = (   0.0000382   5.9609847   6.0000000  )
        26           Ti1 tau(  26) = (   3.2902200   4.4714249   6.0002472  )
        27           O1  tau(  27) = (   0.0002396   2.9813036   7.9858123  )
        28           O1  tau(  28) = (   3.2902150   2.9813002   7.3038282  )
        29           O1  tau(  29) = (   4.5938453   4.4726049   9.2879030  )
        30           O1  tau(  30) = (   1.9864658   4.4711199   9.2879459  )
        31           Ti1 tau(  31) = (   3.2881238   5.8488574   9.1742270  )
        32           Ti1 tau(  32) = (   0.0015652   4.4122313   9.3797820  )
        33           O1  tau(  33) = (   3.3067820   2.9727102  11.3461643  )
        34           O1  tau(  34) = (   6.5709248   2.9657579  10.5611975  )
        35           O1  tau(  35) = (   1.2701395   4.4574477  12.6080355  )
        36           O1  tau(  36) = (   5.2774107   4.4662555  12.6593532  )
        37           Ti1 tau(  37) = (   0.0866433   5.9395267  12.8007823  )
        38           Ti1 tau(  38) = (   3.3983582   4.4424157  12.5219168  )
        39           O1  tau(  39) = (   0.0671811   2.9517497  14.6463865  )
        40           O1  tau(  40) = (   3.2450650   3.0047677  13.9292835  )
        41           O1  tau(  41) = (   4.5850435   4.4841338  15.8299482  )
        42           O1  tau(  42) = (   2.0023688   4.4342503  16.0865826  )
        43           Ti1 tau(  43) = (   3.3875004   0.1080243  15.7411054  )
        44           Ti1 tau(  44) = (   6.4704293   4.4893485  16.1236300  )
        45           O1  tau(  45) = (   3.2900926   2.9813045   4.7018136  )
        46           O1  tau(  46) = (   6.5000697   2.9773305  17.2009514  )
        47           O1  tau(  47) = (   1.3039711   4.4726057   6.0039043  )
        48           O1  tau(  48) = (   5.2763189   4.4711207   6.0039473  )
        49           N1  tau(  49) = (   3.1734193   5.1894584  17.8228359  )
        50           N1  tau(  50) = (   2.5368264   4.0434087  17.4457212  )
        51           C1  tau(  51) = (   3.6285828   5.3156434  19.0044592  )
        52           H1  tau(  52) = (   3.4938138   4.5389551  19.7603617  )
        53           H1  tau(  53) = (   4.1761532   0.2557294  19.2464809  )

     number of k points=    10  Fermi-Dirac smearing, width (Ry)=  0.0073
                       cart. coord. in units 2pi/alat
        k(    1) = (   0.0000000   0.0000000   0.0000000), wk =   0.1250000
        k(    2) = (   0.0000000   0.0419351   0.0000000), wk =   0.2500000
        k(    3) = (   0.0000000  -0.0838702   0.0000000), wk =   0.1250000
        k(    4) = (   0.0379955   0.0000049   0.0000000), wk =   0.2500000
        k(    5) = (   0.0379955   0.0419400   0.0000000), wk =   0.2500000
        k(    6) = (   0.0379955  -0.0838652   0.0000000), wk =   0.2500000
        k(    7) = (   0.0379955  -0.0419301   0.0000000), wk =   0.2500000
        k(    8) = (  -0.0759910  -0.0000099   0.0000000), wk =   0.1250000
        k(    9) = (  -0.0759910   0.0419252   0.0000000), wk =   0.2500000
        k(   10) = (  -0.0759910  -0.0838800   0.0000000), wk =   0.1250000

     Initial potential from superposition of free atoms

     starting charge  383.99917, renormalised to  400.00000

     negative rho (up, down):  1.733E-02 0.000E+00

     %%%%%%%%%%%%%%%%%%%%%%%%%%%%%%%%%%%%%%%%%%%%%%%%%%%%%%%%%%%%%%%%%%%%%%%%
     %                                                                      %
     % You are using vdW-DF, which was implemented by the Thonhauser group. %
     % Please cite the following two papers that made this development      %
     % possible and the two reviews that describe the various versions:     %
     %                                                                      %
     %   T. Thonhauser et al., PRL 115, 136402 (2015).                      %
     %   T. Thonhauser et al., PRB 76, 125112 (2007).                       %
     %   K. Berland et al., Rep. Prog. Phys. 78, 066501 (2015).             %
     %   D.C. Langreth et al., J. Phys.: Condens. Matter 21, 084203 (2009). %
     %                                                                      %
     %                                                                      %
     % If you are calculating the stress with vdW-DF, please also cite:     %
     %                                                                      %
     %   R. Sabatini et al., J. Phys.: Condens. Matter 24, 424209 (2012).   %
     %                                                                      %
     %%%%%%%%%%%%%%%%%%%%%%%%%%%%%%%%%%%%%%%%%%%%%%%%%%%%%%%%%%%%%%%%%%%%%%%%

     Adding external electric field

     Computed dipole along edir(3) :
        Dipole               -9.1421 Ry au,        -23.2369 Debye
        Dipole field         -0.0173 Ry au,

        Potential amp.        1.5993 Ry
        Total length         46.3494 bohr

     Starting wfcs are  302 atomic wfcs
  @ DRIVER MODE: Message from server: STATUS
  @ DRIVER MODE: Message from server: POSDATA
  @ DRIVER MODE: Reading and sharing cell
  @ DRIVER MODE: Reading and sharing positions
  @ DRIVER MODE: Received positions

     Self-consistent Calculation

     iteration #  1     ecut=    29.40 Ry     beta= 0.05
     Davidson diagonalization with overlap
     c_bands:  1 eigenvalues not converged
     c_bands:  1 eigenvalues not converged
     c_bands:  1 eigenvalues not converged
     c_bands:  2 eigenvalues not converged
     c_bands:  2 eigenvalues not converged
     c_bands:  1 eigenvalues not converged
     c_bands:  2 eigenvalues not converged
     c_bands:  1 eigenvalues not converged
     c_bands:  2 eigenvalues not converged
     ethr =  1.00E-05,  avg # of iterations = 20.0

[...]

     total energy              =   -2547.01032564 Ry
     estimated scf accuracy    <    4697.01077954 Ry

     iteration #  2     ecut=    29.40 Ry     beta= 0.05
     Davidson diagonalization with overlap
     ethr =  1.00E-02,  avg # of iterations = 22.5

[...]

     iteration # 49     ecut=    29.40 Ry     beta= 0.05
     Davidson diagonalization with overlap
     c_bands:  1 eigenvalues not converged
     ethr =  1.14E-07,  avg # of iterations = 10.7

[...]

     total energy              =   -2970.21515580 Ry
     estimated scf accuracy    <       0.00000017 Ry

     iteration # 72     ecut=    29.40 Ry     beta= 0.05
     Davidson diagonalization with overlap
     ethr =  4.25E-11,  avg # of iterations =  2.6

     negative rho (up, down):  1.739E-02 0.000E+00

     Adding external electric field

     Computed dipole along edir(3) :
        Dipole                0.6254 Ry au,          1.5897 Debye
        Dipole field          0.0012 Ry au,

        Potential amp.       -0.1094 Ry
        Total length         46.3494 bohr

     End of self-consistent calculation

          k = 0.0000 0.0000 0.0000 ( 18029 PWs)   bands (ev):

   -56.1812 -56.1476 -55.8543 -55.7943 -55.7559 -55.7296 -55.5834 -55.5560
   -55.5479 -55.5219 -55.4846 -55.4689 -55.4494 -55.4106 -54.9466 -54.9126
   -32.6078 -32.4297 -32.4018 -32.4017 -32.3721 -32.3192 -32.2810 -32.2348
   -32.1549 -32.1225 -32.0852 -32.0518 -32.0447 -32.0173 -32.0136 -31.9895
   -31.9728 -31.9603 -31.9549 -31.9520 -31.9171 -31.9076 -31.8316 -31.8208
   -31.8111 -31.7944 -31.7657 -31.7643 -31.7516 -31.7507 -31.7356 -31.7287
   -31.7133 -31.7063 -31.6932 -31.6706 -31.6620 -31.6568 -31.6418 -31.6220
   -31.5885 -31.5239 -31.3460 -31.2744 -31.2505 -31.1640 -31.0790 -30.9674
   -19.5690 -16.7762 -16.4725 -16.3461 -16.2348 -15.9709 -15.8530 -15.8249
   -15.6545 -15.5433 -15.5220 -15.5073 -15.4715 -15.4225 -15.3793 -15.3226
   -15.3051 -15.2651 -15.2320 -15.2036 -15.1831 -15.1609 -15.1378 -15.0810
   -15.0764 -14.9394 -14.8211 -14.8065 -14.7904 -14.7127 -14.7053 -13.4413
   -13.3282 -11.8038  -7.2865  -5.5404  -5.0233  -4.5003  -3.9213  -3.8303
    -3.7324  -3.6651  -3.5469  -3.3089  -3.2634  -3.1681  -3.0073  -2.9802
    -2.9013  -2.8689  -2.8362  -2.8148  -2.7575  -2.7137  -2.6806  -2.6504
    -2.6147  -2.5882  -2.5745  -2.5406  -2.4936  -2.4312  -2.4020  -2.3619
    -2.3231  -2.2565  -2.1765  -2.1350  -2.1212  -2.0891  -2.0529  -1.9972
    -1.9719  -1.9630  -1.8836  -1.8628  -1.7463  -1.7168  -1.6176  -1.6115
    -1.5154  -1.4595  -1.4343  -1.3891  -1.2300  -1.1842  -1.1408  -1.1111
    -1.0952  -1.0155  -0.9908  -0.9577  -0.7923  -0.7772  -0.7399  -0.7170
    -0.6718  -0.6307  -0.5903  -0.5618  -0.5115  -0.4514  -0.3797  -0.3327
    -0.2214  -0.1690  -0.0980  -0.0738  -0.0572  -0.0171   0.0376   0.0477
     0.0784   0.0791   0.1130   0.1600   0.1731   0.2407   0.2549   0.3258
     0.3541   0.3842   0.4619   0.5940   0.6389   0.6823   0.7808   0.7938
     0.9392   1.0385   1.0799   1.2967   1.3016   1.6639   1.7359   1.8556
     3.0919   3.2729   3.3306   3.5761   3.5989   3.6745   3.7100   3.8405
     3.9064   3.9611

[...]

          k = 0.0380-0.0419 0.0000 ( 17876 PWs)   bands (ev):

[...]

          k =-0.0760-0.0000 0.0000 ( 17886 PWs)   bands (ev):

[...]

          k =-0.0760-0.0839 0.0000 ( 17948 PWs)   bands (ev):

   -56.1648 -56.1638 -55.8515 -55.7825 -55.7675 -55.7321 -55.5696 -55.5617
   -55.5400 -55.5376 -55.4691 -55.4650 -55.4627 -55.4167 -54.9296 -54.9295
   -32.4258 -32.4250 -32.4160 -32.4146 -32.3254 -32.3244 -32.2801 -32.1392
   -32.1373 -32.1096 -32.0965 -32.0838 -32.0410 -32.0228 -32.0024 -31.9942
   -31.9780 -31.9184 -31.8849 -31.8778 -31.8692 -31.8654 -31.8103 -31.8088
   -31.7978 -31.7889 -31.7880 -31.7830 -31.7811 -31.7764 -31.7737 -31.7688
   -31.7507 -31.7479 -31.7294 -31.7250 -31.6842 -31.6812 -31.6734 -31.6686
   -31.6655 -31.6342 -31.2635 -31.2634 -31.1602 -31.1600 -31.1217 -31.1215
   -19.5408 -16.7486 -16.0222 -15.9427 -15.8879 -15.8136 -15.7930 -15.6847
   -15.6725 -15.6460 -15.6448 -15.5382 -15.5278 -15.5165 -15.4840 -15.3497
   -15.3419 -15.3076 -15.2984 -15.2438 -15.2330 -15.1254 -15.1231 -15.1148
   -15.1139 -15.0225 -15.0182 -14.9592 -14.9546 -14.8705 -14.8686 -13.4310
   -13.4303 -11.8030  -7.2796  -5.5327  -4.9405  -4.1446  -3.2380  -3.1519
    -3.0830  -3.0359  -2.9877  -2.9174  -2.8870  -2.8574  -2.7915  -2.7785
    -2.7607  -2.7529  -2.6699  -2.6640  -2.6372  -2.6258  -2.5951  -2.5836
    -2.5535  -2.5462  -2.5432  -2.5077  -2.4941  -2.4935  -2.4810  -2.4705
    -2.4000  -2.3969  -2.3659  -2.3503  -2.3257  -2.0925  -2.0619  -2.0597
    -1.9834  -1.9339  -1.8765  -1.8744  -1.8627  -1.8452  -1.6642  -1.5966
    -1.5644  -1.5407  -1.5088  -1.4811  -1.4493  -1.3364  -1.2975  -1.2250
    -1.2208  -1.1525  -1.0874  -1.0400  -1.0234  -0.9622  -0.9578  -0.9403
    -0.9200  -0.8915  -0.8685  -0.7989  -0.7727  -0.7105  -0.6465  -0.6339
    -0.5289  -0.4800  -0.4672  -0.4541  -0.4373  -0.4068  -0.2960  -0.2894
    -0.0686  -0.0124   0.0580   0.1185   0.1268   0.1803   0.2032   0.3028
     0.3446   0.5071   0.5147   0.5504   0.5871   0.7095   0.7124   0.7439
     0.7571   0.8296   0.8364   1.4667   1.4687   1.5177   1.5184   1.7735
     3.6018   3.6354   3.6390   3.6534   3.6888   3.6931   3.7349   3.7606
     4.0482   4.0510

     the Fermi energy is     2.5467 ev

!    total energy              =   -2970.21516857 Ry
     estimated scf accuracy    <       0.00000006 Ry
     smearing contrib. (-TS)   =      -0.00021857 Ry
     internal energy E=F+TS    =   -2970.21495000 Ry

     The total energy is F=E-TS. E is the sum of the following terms:
     one-electron contribution =  -24506.63740993 Ry
     hartree contribution      =   12343.86989104 Ry
     xc contribution           =    -491.70626279 Ry
     ewald contribution        =    9684.25809349 Ry
     electric field correction =       0.00073818 Ry

     convergence has been achieved in  72 iterations

     Forces acting on atoms (cartesian axes, Ry/au):

     atom    1 type  1   force =     0.00007023   -0.00005182    0.14748838
     atom    2 type  1   force =    -0.00007858   -0.00169240   -0.16799232
     atom    3 type  2   force =    -0.00002673    0.00211871   -0.05938451
     atom    4 type  2   force =    -0.00002179   -0.00154770    0.04198553
     atom    5 type  2   force =    -0.02138498    0.00023010    0.00301454
     atom    6 type  2   force =     0.02080409    0.00097007    0.00408698
     atom    7 type  1   force =    -0.00000522   -0.00126687    0.00045448
     atom    8 type  1   force =     0.00008529   -0.00083850   -0.00049636
     atom    9 type  2   force =     0.00001415   -0.00051554   -0.00026465
     atom   10 type  2   force =     0.00011633   -0.00020314    0.00035741
     atom   11 type  2   force =    -0.00081967   -0.00064819   -0.00052772
     atom   12 type  2   force =    -0.00005391   -0.00028275   -0.00078041
     atom   13 type  1   force =     0.00030598    0.00042180   -0.00053670
     atom   14 type  1   force =    -0.00071749   -0.00044520    0.00021242
     atom   15 type  2   force =    -0.00048576    0.00031825   -0.00102408
     atom   16 type  2   force =     0.00032978    0.00046838   -0.00077395
     atom   17 type  2   force =     0.00019853    0.00008916    0.00002019
     atom   18 type  2   force =    -0.00072927   -0.00016076    0.00004238
     atom   19 type  1   force =     0.00107001    0.00005671   -0.00086593
     atom   20 type  1   force =    -0.00052377   -0.00040832    0.00002423
     atom   21 type  2   force =     0.00004804   -0.00007376    0.10181023
     atom   22 type  2   force =     0.00043136    0.00066984    0.00068956
     atom   23 type  2   force =    -0.07552127    0.00023881   -0.03470209
     atom   24 type  2   force =     0.07548886    0.00069576   -0.03476149
     atom   25 type  1   force =     0.00007095   -0.00019901    0.14780067
     atom   26 type  1   force =    -0.00002156    0.00033714   -0.16802538
     atom   27 type  2   force =     0.00003368    0.00240685   -0.05905562
     atom   28 type  2   force =     0.00011480   -0.00132746    0.04063175
     atom   29 type  2   force =    -0.02166490    0.00009801    0.00330633
     atom   30 type  2   force =     0.02041096    0.00022979    0.00436373
     atom   31 type  1   force =     0.00003478    0.00074095    0.00048868
     atom   32 type  1   force =    -0.00016312    0.00038345   -0.00038056
     atom   33 type  2   force =    -0.00004650    0.00040183   -0.00035769
     atom   34 type  2   force =     0.00021245    0.00005148   -0.00002930
     atom   35 type  2   force =     0.00008924    0.00080477    0.00034182
     atom   36 type  2   force =    -0.00057389   -0.00004867   -0.00046985
     atom   37 type  1   force =     0.00027709   -0.00057302    0.00047729
     atom   38 type  1   force =    -0.00056887   -0.00053786    0.00010788
     atom   39 type  2   force =     0.00022885   -0.00039648    0.00093777
     atom   40 type  2   force =     0.00020907    0.00007662    0.00001191
     atom   41 type  2   force =     0.00048036   -0.00051646    0.00000935
     atom   42 type  2   force =     0.00063194   -0.00000615    0.00146399
     atom   43 type  1   force =     0.00148849   -0.00054091   -0.00093702
     atom   44 type  1   force =     0.00039254    0.00054005   -0.00034047
     atom   45 type  2   force =     0.00004478   -0.00008044    0.10190864
     atom   46 type  2   force =     0.00006385   -0.00058929   -0.00001557
     atom   47 type  2   force =    -0.07554435    0.00003325   -0.03468523
     atom   48 type  2   force =     0.07549474    0.00045474   -0.03479107
     atom   49 type  3   force =    -0.00686864   -0.00097413   -0.01863712
     atom   50 type  3   force =    -0.00079900   -0.00048668   -0.00121883
     atom   51 type  4   force =     0.00750512   -0.00130090    0.02645632
     atom   52 type  5   force =     0.00123187    0.00430567   -0.00621005
     atom   53 type  5   force =    -0.00135894   -0.00142978   -0.00122850

     Total force =     0.402444     Total SCF correction =     0.000569
  @ DRIVER MODE: Message from server: STATUS
  @ DRIVER MODE: Message from server: GETFORCE
  @ DRIVER MODE: Returning v,forces,stress,ensemble

     Writing output data file ./calc.save/
  @ DRIVER MODE: Message from server: EXIT
  @ DRIVE MODE: Exiting

     General routines

     Parallel routines

   This run was terminated on:  18:38: 1  30Sep2021

   JOB DONE.