     Program PWSCF v.6.7GPU starts on 18Aug2021 at 16:35: 5

     R & G space division:  proc/nbgrp/npool/nimage =       8
     Reading input from /storage/home/hcoda1/3/ntian30/research/carbon/CH2_calc/ads_slab/CH2_a/CH2_calc.log/pw.inp
Warning: card &CELL ignored
Warning: card   CELL_DYNAMICS='IPI', ignored
Warning: card / ignored

     Current dimensions of program PWSCF are:
     Max number of different atomic species (ntypx) = 10
     Max number of k-points (npk) =  40000
     Max angular momentum in pseudopotentials (lmaxx) =  3
     Presently no symmetry can be used with electric field

     Message from routine cell_base_init:
     DEPRECATED: use true lattice parameter, not A to a.u. conversion factor

     IMPORTANT: XC functional enforced from input :
     Exchange-correlation= BEEF-VDW
                           (   1   4  43  14   2   0   0)
     Any further DFT definition will be discarded
     Please, verify this is what you really want

  @ DRIVER MODE: Connecting to
 qe_1139763_2595287.sched-torque.pace.gatech.edun91gce7u_scratch
  using UNIX socket
  @ DRIVER MODE: Message from server: STATUS
  @ DRIVER MODE: Message from server: INIT
  @ DRIVER MODE: Receiving replica           0          -1
  @ DRIVER MODE: Receiving encoded integer          25
  @ DRIVER MODE:  SCF:  T  FORCE:  T  STRESS:  F  VC:  F  ENSEMBLE:  F
  @ DRIVER MODE:  SCF:  T  FORCE:  T  STRESS:  F  VC:  F  ENSEMBLE:  F

     Using Slab Decomposition

     bravais-lattice index     =            0
     lattice parameter (alat)  =       1.8897  a.u.
     unit-cell volume          =    6658.9804 (a.u.)^3
     number of atoms/cell      =           50
     number of atomic types    =            4
     number of electrons       =       384.00
     number of Kohn-Sham states=          202
     kinetic-energy cutoff     =      29.3995  Ry
     charge density cutoff     =     293.9946  Ry
     scf convergence threshold =      7.3E-08
     mixing beta               =       0.0500
     number of iterations used =            8  plain     mixing
     Exchange-correlation= BEEF-VDW
                           (   1   4  43  14   2   0   0)

     celldm(1)=   1.889726  celldm(2)=   0.000000  celldm(3)=   0.000000
     celldm(4)=   0.000000  celldm(5)=   0.000000  celldm(6)=   0.000000

     crystal axes: (cart. coord. in units of alat)
               a(1) = (   6.579727   0.000000   0.000000 )
               a(2) = (  -0.000775   5.961596   0.000000 )
               a(3) = (   0.000000   0.000000  25.155947 )

     reciprocal axes: (cart. coord. in units 2 pi/alat)
               b(1) = (  0.151982  0.000020  0.000000 )
               b(2) = (  0.000000  0.167740  0.000000 )
               b(3) = (  0.000000  0.000000  0.039752 )

     PseudoPot. # 1 for Ti read from file:
     /storage/coda1/p-amedford6/0/shared/rich_project_chbe-medford/medford-share/data/pseudos_module/espresso/nninc/pbe/van/Ti.UPF
     MD5 check sum: 8e4df49b7f0d34bbd5052bf3f5ea0213
     Pseudo is Ultrasoft, Zval = 12.0
     Generated by new atomic code, or converted to UPF format
     Using radial grid of  851 points,  6 beta functions with:
                l(1) =   0
                l(2) =   0
                l(3) =   1
                l(4) =   1
                l(5) =   2
                l(6) =   2
     Q(r) pseudized with  8 coefficients,  rinner =    1.000   1.000   1.000
                                                       1.000   1.000

     PseudoPot. # 2 for O  read from file:
     /storage/coda1/p-amedford6/0/shared/rich_project_chbe-medford/medford-share/data/pseudos_module/espresso/nninc/pbe/van/O.UPF
     MD5 check sum: 78c19812648e8988a0fe644b0f25305e
     Pseudo is Ultrasoft, Zval =  6.0
     Generated by new atomic code, or converted to UPF format
     Using radial grid of  737 points,  4 beta functions with:
                l(1) =   0
                l(2) =   0
                l(3) =   1
                l(4) =   1
     Q(r) pseudized with  8 coefficients,  rinner =    0.800   0.800   0.800

     PseudoPot. # 3 for C  read from file:
     /storage/coda1/p-amedford6/0/shared/rich_project_chbe-medford/medford-share/data/pseudos_module/espresso/nninc/pbe/van/C.UPF
     MD5 check sum: 1a69bf6b8db32088f5b2163dbdb77a27
     Pseudo is Ultrasoft, Zval =  4.0
     Generated by new atomic code, or converted to UPF format
     Using radial grid of  721 points,  4 beta functions with:
                l(1) =   0
                l(2) =   0
                l(3) =   1
                l(4) =   1
     Q(r) pseudized with  8 coefficients,  rinner =    0.800   0.800   0.800

     PseudoPot. # 4 for H  read from file:
     /storage/coda1/p-amedford6/0/shared/rich_project_chbe-medford/medford-share/data/pseudos_module/espresso/nninc/pbe/van/H.UPF
     MD5 check sum: b5ee9d7bfd3a09ee7748110bda690ff7
     Pseudo is Ultrasoft, Zval =  1.0
     Generated by new atomic code, or converted to UPF format
     Using radial grid of  615 points,  1 beta functions with:
                l(1) =   0
     Q(r) pseudized with  8 coefficients,  rinner =    0.800

     atomic species   valence    mass     pseudopotential
        Ti1           12.00    47.86700     Ti( 1.00)
        O1             6.00    15.99900     O ( 1.00)
        C1             4.00    12.01100     C ( 1.00)
        H1             1.00     1.00800     H ( 1.00)

     No symmetry found

   Cartesian axes

     site n.     atom                  positions (alat units)
         1           Ti1 tau(   1) = (   0.0004258   2.9801865   6.0000000  )
         2           Ti1 tau(   2) = (   3.2906075   1.4906267   6.0002472  )
         3           O1  tau(   3) = (   0.0006271   0.0005054   7.9858123  )
         4           O1  tau(   4) = (   3.2906025   0.0005020   7.3038282  )
         5           O1  tau(   5) = (   4.5942328   1.4918067   9.2879030  )
         6           O1  tau(   6) = (   1.9868534   1.4903216   9.2879459  )
         7           Ti1 tau(   7) = (   3.3226903   2.9514341   9.1576891  )
         8           Ti1 tau(   8) = (   0.0343464   1.5915341   9.3698150  )
         9           O1  tau(   9) = (   3.2914246   5.9565917  11.3520874  )
        10           O1  tau(  10) = (   0.0056322   0.0001635  10.6062760  )
        11           O1  tau(  11) = (   1.2817320   1.4815673  12.6483243  )
        12           O1  tau(  12) = (   5.2831613   1.4908443  12.6423163  )
        13           Ti1 tau(  13) = (   0.0382653   2.9371430  12.8126397  )
        14           Ti1 tau(  14) = (   3.3532929   1.4821923  12.4951370  )
        15           O1  tau(  15) = (   6.5662424   5.9331786  14.6600200  )
        16           O1  tau(  16) = (   3.2816364   5.9551084  13.9465949  )
        17           O1  tau(  17) = (   4.5315606   1.5040344  16.0986503  )
        18           O1  tau(  18) = (   2.0287349   1.4998145  16.0995964  )
        19           Ti1 tau(  19) = (   3.2668404   2.9769305  15.7222481  )
        20           Ti1 tau(  20) = (   6.5415330   1.4777109  16.1743724  )
        21           O1  tau(  21) = (   3.2904802   0.0005063   4.7018136  )
        22           O1  tau(  22) = (   6.5659521   0.0029676  17.1944956  )
        23           O1  tau(  23) = (   1.3043587   1.4918075   6.0039043  )
        24           O1  tau(  24) = (   5.2767064   1.4903225   6.0039473  )
        25           Ti1 tau(  25) = (   0.0000382   5.9609847   6.0000000  )
        26           Ti1 tau(  26) = (   3.2902200   4.4714249   6.0002472  )
        27           O1  tau(  27) = (   0.0002396   2.9813036   7.9858123  )
        28           O1  tau(  28) = (   3.2902150   2.9813002   7.3038282  )
        29           O1  tau(  29) = (   4.5938453   4.4726049   9.2879030  )
        30           O1  tau(  30) = (   1.9864658   4.4711199   9.2879459  )
        31           Ti1 tau(  31) = (   3.3086233   5.9367107   9.1526142  )
        32           Ti1 tau(  32) = (   0.0357814   4.5182409   9.2638332  )
        33           O1  tau(  33) = (   3.2921447   2.9709340  11.3500156  )
        34           O1  tau(  34) = (   0.0064783   2.9842416  10.5732297  )
        35           O1  tau(  35) = (   1.2836142   4.4569143  12.6423601  )
        36           O1  tau(  36) = (   5.2821634   4.4598214  12.6376843  )
        37           Ti1 tau(  37) = (   0.0453433   5.9192801  12.5257453  )
        38           Ti1 tau(  38) = (   3.3504828   4.4607682  12.4868234  )
        39           O1  tau(  39) = (   0.0004961   2.9772524  14.7247240  )
        40           O1  tau(  40) = (   3.2810368   2.9729593  13.9290527  )
        41           O1  tau(  41) = (   4.5304642   4.4591278  16.0913236  )
        42           O1  tau(  42) = (   2.0231910   4.4609068  16.0933517  )
        43           Ti1 tau(  43) = (   3.2586866   5.9546939  15.7393459  )
        44           Ti1 tau(  44) = (   6.5465221   4.6060206  15.8931146  )
        45           O1  tau(  45) = (   3.2900926   2.9813045   4.7018136  )
        46           O1  tau(  46) = (   1.3039711   4.4726057   6.0039043  )
        47           O1  tau(  47) = (   5.2763189   4.4711207   6.0039473  )
        48           C1  tau(  48) = (   6.5676456   2.8990966  17.8516705  )
        49           H1  tau(  49) = (   6.5659762   3.9554521  18.1205428  )
        50           H1  tau(  50) = (   5.6845275   2.4719798  18.3396978  )

     number of k points=    10  Fermi-Dirac smearing, width (Ry)=  0.0073
                       cart. coord. in units 2pi/alat
        k(    1) = (   0.0000000   0.0000000   0.0000000), wk =   0.1250000
        k(    2) = (   0.0000000   0.0419351   0.0000000), wk =   0.2500000
        k(    3) = (   0.0000000  -0.0838702   0.0000000), wk =   0.1250000
        k(    4) = (   0.0379955   0.0000049   0.0000000), wk =   0.2500000
        k(    5) = (   0.0379955   0.0419400   0.0000000), wk =   0.2500000
        k(    6) = (   0.0379955  -0.0838652   0.0000000), wk =   0.2500000
        k(    7) = (   0.0379955  -0.0419301   0.0000000), wk =   0.2500000
        k(    8) = (  -0.0759910  -0.0000099   0.0000000), wk =   0.1250000
        k(    9) = (  -0.0759910   0.0419252   0.0000000), wk =   0.2500000
        k(   10) = (  -0.0759910  -0.0838800   0.0000000), wk =   0.1250000

     Initial potential from superposition of free atoms

     starting charge  367.99919, renormalised to  384.00000

     negative rho (up, down):  2.092E-02 0.000E+00

     %%%%%%%%%%%%%%%%%%%%%%%%%%%%%%%%%%%%%%%%%%%%%%%%%%%%%%%%%%%%%%%%%%%%%%%%
     %                                                                      %
     % You are using vdW-DF, which was implemented by the Thonhauser group. %
     % Please cite the following two papers that made this development      %
     % possible and the two reviews that describe the various versions:     %
     %                                                                      %
     %   T. Thonhauser et al., PRL 115, 136402 (2015).                      %
     %   T. Thonhauser et al., PRB 76, 125112 (2007).                       %
     %   K. Berland et al., Rep. Prog. Phys. 78, 066501 (2015).             %
     %   D.C. Langreth et al., J. Phys.: Condens. Matter 21, 084203 (2009). %
[...]
        32           Ti1 tau(  32) = (   6.5710426   4.4439091   9.3700995  )
        33           O1  tau(  33) = (   3.2607995   2.9818834  11.3491458  )
        34           O1  tau(  34) = (   6.5767809   2.9755375  10.5560524  )
        35           O1  tau(  35) = (   1.2576563   4.4492777  12.6401826  )
        36           O1  tau(  36) = (   5.2369307   4.4533630  12.6049633  )
        37           Ti1 tau(  37) = (   0.0463135   5.9585951  12.7968592  )
        38           Ti1 tau(  38) = (   3.3745043   4.4738556  12.4867413  )
        39           O1  tau(  39) = (   6.5338518   2.9698263  14.7042321  )
        40           O1  tau(  40) = (   3.2625254   3.0055488  13.9386183  )
        41           O1  tau(  41) = (   4.4840722   4.5082733  16.1147685  )
        42           O1  tau(  42) = (   2.0076910   4.5071961  16.1011579  )
        43           Ti1 tau(  43) = (   3.2743523   0.0449674  15.7539758  )
        44           Ti1 tau(  44) = (   6.5508008   4.6152137  16.1594245  )
        45           O1  tau(  45) = (   3.2900926   2.9813045   4.7018136  )
        46           O1  tau(  46) = (   1.3039711   4.4726057   6.0039043  )
        47           O1  tau(  47) = (   5.2763189   4.4711207   6.0039473  )
        48           C1  tau(  48) = (   6.5351404   3.0161902  17.6107334  )
        49           H1  tau(  49) = (   0.8195479   3.2064699  18.2561090  )
        50           H1  tau(  50) = (   5.6063820   3.0326600  18.1890351  )

     number of k points=    10  Fermi-Dirac smearing, width (Ry)=  0.0073
                       cart. coord. in units 2pi/alat
        k(    1) = (   0.0000000   0.0000000   0.0000000), wk =   0.1250000
        k(    2) = (   0.0000000   0.0419351   0.0000000), wk =   0.2500000
        k(    3) = (   0.0000000  -0.0838702   0.0000000), wk =   0.1250000
        k(    4) = (   0.0379955   0.0000049   0.0000000), wk =   0.2500000
        k(    5) = (   0.0379955   0.0419400   0.0000000), wk =   0.2500000
        k(    6) = (   0.0379955  -0.0838652   0.0000000), wk =   0.2500000
        k(    7) = (   0.0379955  -0.0419301   0.0000000), wk =   0.2500000
        k(    8) = (  -0.0759910  -0.0000099   0.0000000), wk =   0.1250000
        k(    9) = (  -0.0759910   0.0419252   0.0000000), wk =   0.2500000
        k(   10) = (  -0.0759910  -0.0838800   0.0000000), wk =   0.1250000

     Initial potential from superposition of free atoms

     starting charge  367.99919, renormalised to  384.00000

[...]

     %%%%%%%%%%%%%%%%%%%%%%%%%%%%%%%%%%%%%%%%%%%%%%%%%%%%%%%%%%%%%%%%%%%%%%%%
     %                                                                      %
     % You are using vdW-DF, which was implemented by the Thonhauser group. %
     % Please cite the following two papers that made this development      %
     % possible and the two reviews that describe the various versions:     %
     %                                                                      %
     %   T. Thonhauser et al., PRL 115, 136402 (2015).                      %
     %   T. Thonhauser et al., PRB 76, 125112 (2007).                       %
     %   K. Berland et al., Rep. Prog. Phys. 78, 066501 (2015).             %
     %   D.C. Langreth et al., J. Phys.: Condens. Matter 21, 084203 (2009). %
     %                                                                      %
     %                                                                      %
     % If you are calculating the stress with vdW-DF, please also cite:     %
     %                                                                      %
     %   R. Sabatini et al., J. Phys.: Condens. Matter 24, 424209 (2012).   %
     %                                                                      %
     %%%%%%%%%%%%%%%%%%%%%%%%%%%%%%%%%%%%%%%%%%%%%%%%%%%%%%%%%%%%%%%%%%%%%%%%

[...]

     Starting wfcs are  290 atomic wfcs
  @ DRIVER MODE: Message from server: STATUS
  @ DRIVER MODE: Message from server: POSDATA
  @ DRIVER MODE: Reading and sharing cell
  @ DRIVER MODE: Reading and sharing positions
  @ DRIVER MODE: Received positions

[...]

     iteration #  1     ecut=    29.40 Ry     beta= 0.05
     Davidson diagonalization with overlap
     c_bands:  1 eigenvalues not converged
     c_bands:  1 eigenvalues not converged
     ethr =  2.84E-11,  avg # of iterations = 35.3

[...]

     Self-consistent Calculation

[...]

     total energy              =   -2897.72468662 Ry
     estimated scf accuracy    <       0.00000015 Ry

     iteration # 32     ecut=    29.40 Ry     beta= 0.05
     Davidson diagonalization with overlap
     ethr =  3.82E-11,  avg # of iterations =  5.0

[...]

     End of self-consistent calculation

[...]

          k = 0.0380-0.0419 0.0000 ( 17876 PWs)   bands (ev):

[...]

          k =-0.0760-0.0839 0.0000 ( 17948 PWs)   bands (ev):

   -56.6378 -56.6323 -56.3840 -56.3764 -56.3189 -56.2790 -56.0879 -56.0689
   -56.0672 -55.9865 -55.9467 -55.9314 -55.5498 -55.4536 -55.4535 -55.4295
   -32.9013 -32.8967 -32.8897 -32.8829 -32.7974 -32.7928 -32.7526 -32.7462
   -32.6861 -32.6730 -32.6159 -32.6092 -32.5855 -32.5779 -32.5707 -32.5629
   -32.5184 -32.4820 -32.4081 -32.3915 -32.3907 -32.3314 -32.3225 -32.3194
   -32.3074 -32.2926 -32.2874 -32.2838 -32.2616 -32.2529 -32.2336 -32.2171
   -32.1589 -32.1579 -32.1471 -32.1443 -31.9281 -31.8587 -31.8103 -31.7834
   -31.7833 -31.7304 -31.6979 -31.6861 -31.6860 -31.6479 -31.6479 -31.4937
   -16.5188 -16.4916 -16.2729 -16.2594 -16.1494 -16.1468 -16.1345 -16.1334
   -16.0451 -16.0407 -15.9946 -15.9741 -15.9165 -15.9041 -15.8629 -15.8615
   -15.8394 -15.8381 -15.7966 -15.7940 -15.6515 -15.6497 -15.5374 -15.5299
   -15.4922 -15.4504 -15.4101 -15.3976 -15.2347 -13.9514 -13.9510  -8.3930
    -3.8223  -3.7851  -3.4872  -3.4788  -3.2788  -3.2755  -3.2567  -3.2482
    -3.2282  -3.2009  -3.1971  -3.1854  -3.1474  -3.1065  -3.0836  -3.0653
    -3.0542  -3.0464  -3.0417  -3.0407  -3.0206  -3.0015  -2.9865  -2.9618
    -2.9022  -2.8911  -2.8674  -2.8583  -2.7755  -2.6310  -2.5638  -2.5579
    -2.5486  -2.5283  -2.4871  -2.3975  -2.3929  -2.3562  -2.3490  -2.3302
    -2.1373  -2.0721  -2.0688  -2.0070  -1.9782  -1.8746  -1.7279  -1.6946
    -1.6702  -1.6477  -1.5656  -1.5261  -1.5121  -1.4886  -1.4811  -1.4538
    -1.4436  -1.3580  -1.3493  -1.3163  -1.2708  -1.2092  -1.2051  -1.1834
    -1.1629  -1.0641  -0.9951  -0.9788  -0.9644  -0.9226  -0.8559  -0.8030
    -0.7627  -0.6747  -0.6589  -0.3902  -0.3882  -0.2524  -0.2401  -0.1125
    -0.1004  -0.0076   0.0237   0.0676   0.1826   0.1963   0.2012   0.2268
     0.3281   0.3293   0.3624   0.9418   0.9421   1.0075   1.0088   1.9901
     3.0341   3.0510   3.1325   3.1498   3.1544   3.1719   3.2160   3.2185
     3.5124   3.5249

     the Fermi energy is     2.3277 ev

!    total energy              =   -2897.72468748 Ry
     estimated scf accuracy    <       0.00000005 Ry
     smearing contrib. (-TS)   =      -0.00185964 Ry
     internal energy E=F+TS    =   -2897.72282783 Ry

     The total energy is F=E-TS. E is the sum of the following terms:
     one-electron contribution =  -24685.00752983 Ry
     hartree contribution      =   12420.46491606 Ry
     xc contribution           =    -473.85559317 Ry
     ewald contribution        =    9840.67522740 Ry
     electric field correction =       0.00015170 Ry

     convergence has been achieved in  32 iterations

     Forces acting on atoms (cartesian axes, Ry/au):

     atom    1 type  1   force =     0.00029539   -0.00005155    0.14817660
     atom    2 type  1   force =     0.00006007   -0.00033374   -0.17142447
     atom    3 type  2   force =    -0.00004206    0.00264814   -0.05990002
     atom    4 type  2   force =    -0.00032437   -0.00141467    0.04062109
     atom    5 type  2   force =    -0.02534748    0.00093307    0.00494950
     atom    6 type  2   force =     0.02286049    0.00010761    0.00299963
     atom    7 type  1   force =    -0.00053707   -0.00072733   -0.00012352
     atom    8 type  1   force =     0.00076366   -0.00036956    0.00041244
     atom    9 type  2   force =     0.00087919   -0.00026607    0.00032962
     atom   10 type  2   force =    -0.00008499    0.00001048   -0.00022334
     atom   11 type  2   force =    -0.00015863    0.00004317    0.00015064
     atom   12 type  2   force =     0.00017187    0.00010283    0.00010111
     atom   13 type  1   force =     0.00004241   -0.00098437    0.00030572
     atom   14 type  1   force =    -0.00006108   -0.00112930   -0.00030319
     atom   15 type  2   force =     0.00023361   -0.00029626   -0.00046263
     atom   16 type  2   force =     0.00001993    0.00014404    0.00039889
     atom   17 type  2   force =     0.00112122    0.00007568    0.00028867
     atom   18 type  2   force =    -0.00074452   -0.00021967    0.00035855
     atom   19 type  1   force =     0.00052332   -0.00025754    0.00009610
     atom   20 type  1   force =     0.00012697   -0.00017264    0.00039293
     atom   21 type  2   force =     0.00014935   -0.00010468    0.10275654
     atom   22 type  2   force =     0.00008593   -0.00014763   -0.00027560
     atom   23 type  2   force =    -0.07352489    0.00029283   -0.03461342
     atom   24 type  2   force =     0.07357817    0.00073961   -0.03465944
     atom   25 type  1   force =     0.00008110   -0.00018721    0.14936779
     atom   26 type  1   force =     0.00000834   -0.00105341   -0.17158453
     atom   27 type  2   force =    -0.00006558    0.00191595   -0.05888527
     atom   28 type  2   force =    -0.00039542   -0.00137475    0.04059109
     atom   29 type  2   force =    -0.02527606    0.00190770    0.00523380
     atom   30 type  2   force =     0.02336694    0.00034240    0.00328293
     atom   31 type  1   force =    -0.00050151   -0.00019923   -0.00008528
     atom   32 type  1   force =     0.00064825   -0.00023178   -0.00001630
     atom   33 type  2   force =     0.00005210   -0.00037922    0.00041169
     atom   34 type  2   force =     0.00007596   -0.00014275    0.00006557
     atom   35 type  2   force =    -0.00019474   -0.00036112   -0.00037189
     atom   36 type  2   force =     0.00052617   -0.00064000   -0.00016215
     atom   37 type  1   force =     0.00089207    0.00034140   -0.00005475
     atom   38 type  1   force =    -0.00034954   -0.00012742    0.00018833
     atom   39 type  2   force =     0.00003316    0.00008010   -0.00111134
     atom   40 type  2   force =    -0.00001136    0.00031395   -0.00082408
     atom   41 type  2   force =     0.00025691    0.00021352    0.00028606
     atom   42 type  2   force =     0.00027235    0.00050962    0.00035503
     atom   43 type  1   force =     0.00041442    0.00081151   -0.00079409
     atom   44 type  1   force =    -0.00048503    0.00024189    0.00009346
     atom   45 type  2   force =     0.00014167   -0.00009711    0.10271946
     atom   46 type  2   force =    -0.07355020   -0.00012789   -0.03460174
     atom   47 type  2   force =     0.07361493    0.00033527   -0.03467116
     atom   48 type  3   force =     0.00147505    0.00004996    0.00041653
     atom   49 type  4   force =    -0.00114130   -0.00067305   -0.00014281
     atom   50 type  4   force =     0.00002481   -0.00009074   -0.00005874

     Total force =     0.404313     Total SCF correction =     0.000764
  @ DRIVER MODE: Message from server: STATUS
  @ DRIVER MODE: Message from server: GETFORCE
  @ DRIVER MODE: Returning v,forces,stress,ensemble

     Writing output data file ./calc.save/
  @ DRIVER MODE: Message from server: STATUS
  @ DRIVER MODE: Message from server: INIT
  @ DRIVER MODE: Receiving replica           0           0
  @ DRIVER MODE: Receiving encoded integer           2
  @ DRIVER MODE:  SCF:  T  FORCE:  T  STRESS:  F  VC:  F  ENSEMBLE:  F
  @ DRIVER MODE:  SCF:  F  FORCE:  F  STRESS:  F  VC:  F  ENSEMBLE:  T
  @ DRIVER MODE: Message from server: STATUS
  @ DRIVER MODE: Message from server: POSDATA
  @ DRIVER MODE: Reading and sharing positions
  @ DRIVER MODE: Received positions
     NEW-OLD atomic charge density approx. for the potential

[...]

     Adding external electric field

     Computed dipole along edir(3) :
        Dipole                0.2835 Ry au,          0.7207 Debye
        Dipole field          0.0005 Ry au,

        Potential amp.       -0.0496 Ry
        Total length         46.3494 bohr

  @ DRIVER MODE: BEEF-vdw

[...]

     negative rho (up, down):  2.038E-02 0.000E+00

     negative rho (up, down):  2.038E-02 0.000E+00
 BEEFens 2000 ensemble energies
             -0.340122052140472E+02
             -0.200217128809933E+01
             -0.700571686027764E+01
              0.236168241545451E+02
             -0.116971297539008E+02
             -0.903820068126615E+01
             -0.235829531780550E+02
             -0.493373535539575E+02
             -0.210810946835460E+02
             -0.221893655177265E+02
             -0.206369815127415E+02
              0.421070627081675E+01
              0.195886844267018E+01
             -0.104182994908386E+01
              0.168361255087021E+01
              0.260127423379303E+02
             -0.999437946225488E+01
             -0.706612374813864E+01
              0.115113107830559E+02
             -0.607644435668899E+02
              0.304795489437927E+02
             -0.130919460638247E+02
             -0.234688007136379E+01
             -0.549328987274731E+01
             -0.973583463475961E+00
             -0.207173617617255E+01
              0.470986009293468E+02
             -0.147856105901506E+02
             -0.392088745182610E+01
             -0.298007165488965E+02
              0.385044221272082E+02
             -0.425993616040124E+01
             -0.209360749310971E+02
              0.110248706850147E+02
             -0.202341617692102E+01
              0.127715540530561E+02
             -0.534336095059928E+00
              0.269871598587221E+01
              0.185763813160510E+02
             -0.535915083971665E+02
              0.298586389225677E+02
              0.799101450804415E+01
             -0.615681141240705E+01
             -0.171533105264836E+02
              0.676439932051608E+01
             -0.107709811903990E+02
              0.244027471593666E+02
              0.195288100095911E+02
             -0.125829644114617E+02
             -0.160710160472904E+02
             -0.169805534929533E+02
             -0.204047342473523E+02
              0.103433601998006E+02
             -0.265486608229439E+02
              0.813610438398922E+01
              0.339776632877140E+02
              0.391583744904372E+02
              0.182497071434391E+02
              0.812233921964885E+01
              0.170129902001377E+02
[...]
             -0.400332816952105E+02
              0.273527543021675E+01
             -0.145783393914937E+01
             -0.557720624932841E+01
              0.550859355992372E-01
             -0.356495418141691E+02
             -0.688526014713156E+01
              0.480835979471982E+01
              0.728420640812330E+01
              0.266994374287286E+02
             -0.233485414842139E+02
              0.304594951936984E+02
             -0.218036020053711E+02
              0.140137033403605E+02
              0.220703201197817E+02

 BEEF-vdW xc energy contributions
           1 :   -401.596468912120
           2 :    349.986793167444
           3 :   -266.593923403890
           4 :    179.459722636564
           5 :   -111.037514504455
           6 :    70.2455554831781
           7 :   -53.3314087737456
           8 :    50.3404498999429
           9 :   -52.0066807371415
          10 :    53.2564922968540
          11 :   -52.9120875871529
          12 :    51.4695600517404
          13 :   -49.2763579112602
          14 :    46.0783551117455
          15 :   -41.5840794298669
          16 :    36.0824211962149
          17 :   -30.5275106098309
          18 :    26.0755447770808
          19 :   -23.4974324329591
          20 :    22.8647965744337
          21 :   -23.6586129837234
          22 :    25.1181558872486
          23 :   -26.5599940445389
          24 :    27.5024259109755
          25 :   -27.6416563617569
          26 :    26.8020810479899
          27 :   -24.9585126063063
          28 :    22.3137928230334
          29 :   -19.3386832858410
          30 :    16.6684454589439
          31 :   -47.0879274256098
          32 :   -31.9789670006795
  @ DRIVER MODE: Message from server: STATUS
  @ DRIVER MODE: Message from server: GETFORCE
  @ DRIVER MODE: Returning v,forces,stress,ensemble
  @ DRIVE MODE: Returning Ensemble Energies

     Writing output data file ./calc.save/
  @ DRIVER MODE: Message from server: EXIT
  @ DRIVE MODE: Exiting

     General routines

     Parallel routines

   This run was terminated on:  11:21:48  19Aug2021

   JOB DONE.