     Program PWSCF v.6.7GPU starts on 22Sep2021 at 23:58:43

     R & G space division:  proc/nbgrp/npool/nimage =       8
     Reading input from /storage/home/hcoda1/3/ntian30/research/carbon/CxH_vib/H2O_calc/ads_slab/CH3N2HO_c/out_0005/pw.inp
Warning: card &CELL ignored
Warning: card   CELL_DYNAMICS='IPI', ignored
Warning: card / ignored

     Current dimensions of program PWSCF are:
     Max number of different atomic species (ntypx) = 10
     Max number of k-points (npk) =  40000
     Max angular momentum in pseudopotentials (lmaxx) =  3
     Presently no symmetry can be used with electric field

     Message from routine cell_base_init:
     DEPRECATED: use true lattice parameter, not A to a.u. conversion factor

     IMPORTANT: XC functional enforced from input :
     Exchange-correlation= BEEF-VDW
                           (   1   4  43  14   2   0   0)
     Any further DFT definition will be discarded
     Please, verify this is what you really want

  @ DRIVER MODE: Connecting to
 qe_1139763_2941007.sched-torque.pace.gatech.edu5tjo7qpf_scratch
  using UNIX socket
  @ DRIVER MODE: Message from server: STATUS
  @ DRIVER MODE: Message from server: INIT
  @ DRIVER MODE: Receiving replica           0          -1
  @ DRIVER MODE: Receiving encoded integer          25
  @ DRIVER MODE:  SCF:  T  FORCE:  T  STRESS:  F  VC:  F  ENSEMBLE:  F
  @ DRIVER MODE:  SCF:  T  FORCE:  T  STRESS:  F  VC:  F  ENSEMBLE:  F

     Using Slab Decomposition

     bravais-lattice index     =            0
     lattice parameter (alat)  =       1.8897  a.u.
     unit-cell volume          =    6658.9804 (a.u.)^3
     number of atoms/cell      =           55
     number of atomic types    =            5
     number of electrons       =       402.00
     number of Kohn-Sham states=          211
     kinetic-energy cutoff     =      29.3995  Ry
     charge density cutoff     =     293.9946  Ry
     scf convergence threshold =      7.3E-08
     mixing beta               =       0.0500
     number of iterations used =            8  plain     mixing
     Exchange-correlation= BEEF-VDW
                           (   1   4  43  14   2   0   0)

     celldm(1)=   1.889726  celldm(2)=   0.000000  celldm(3)=   0.000000
     celldm(4)=   0.000000  celldm(5)=   0.000000  celldm(6)=   0.000000

     crystal axes: (cart. coord. in units of alat)
               a(1) = (   6.579727   0.000000   0.000000 )
               a(2) = (  -0.000775   5.961596   0.000000 )
               a(3) = (   0.000000   0.000000  25.155947 )

     reciprocal axes: (cart. coord. in units 2 pi/alat)
               b(1) = (  0.151982  0.000020  0.000000 )
               b(2) = (  0.000000  0.167740  0.000000 )
               b(3) = (  0.000000  0.000000  0.039752 )

     PseudoPot. # 1 for Ti read from file:
     /storage/coda1/p-amedford6/0/shared/rich_project_chbe-medford/medford-share/data/pseudos_module/espresso/nninc/pbe/van/Ti.UPF
     MD5 check sum: 8e4df49b7f0d34bbd5052bf3f5ea0213
     Pseudo is Ultrasoft, Zval = 12.0
     Generated by new atomic code, or converted to UPF format
     Using radial grid of  851 points,  6 beta functions with:
                l(1) =   0
                l(2) =   0
                l(3) =   1
                l(4) =   1
                l(5) =   2
                l(6) =   2
     Q(r) pseudized with  8 coefficients,  rinner =    1.000   1.000   1.000
                                                       1.000   1.000

     PseudoPot. # 2 for O  read from file:
     /storage/coda1/p-amedford6/0/shared/rich_project_chbe-medford/medford-share/data/pseudos_module/espresso/nninc/pbe/van/O.UPF
     MD5 check sum: 78c19812648e8988a0fe644b0f25305e
     Pseudo is Ultrasoft, Zval =  6.0
     Generated by new atomic code, or converted to UPF format
     Using radial grid of  737 points,  4 beta functions with:
                l(1) =   0
                l(2) =   0
                l(3) =   1
                l(4) =   1
     Q(r) pseudized with  8 coefficients,  rinner =    0.800   0.800   0.800

     PseudoPot. # 3 for N  read from file:
     /storage/coda1/p-amedford6/0/shared/rich_project_chbe-medford/medford-share/data/pseudos_module/espresso/nninc/pbe/van/N.UPF
     MD5 check sum: 90d10febe142ad51ac9d5be1deb811c4
     Pseudo is Ultrasoft, Zval =  5.0
     Generated by new atomic code, or converted to UPF format
     Using radial grid of  729 points,  4 beta functions with:
                l(1) =   0
                l(2) =   0
                l(3) =   1
                l(4) =   1
     Q(r) pseudized with  8 coefficients,  rinner =    0.800   0.800   0.800

     PseudoPot. # 4 for C  read from file:
     /storage/coda1/p-amedford6/0/shared/rich_project_chbe-medford/medford-share/data/pseudos_module/espresso/nninc/pbe/van/C.UPF
     MD5 check sum: 1a69bf6b8db32088f5b2163dbdb77a27
     Pseudo is Ultrasoft, Zval =  4.0
     Generated by new atomic code, or converted to UPF format
     Using radial grid of  721 points,  4 beta functions with:
                l(1) =   0
                l(2) =   0
                l(3) =   1
                l(4) =   1
     Q(r) pseudized with  8 coefficients,  rinner =    0.800   0.800   0.800

     PseudoPot. # 5 for H  read from file:
     /storage/coda1/p-amedford6/0/shared/rich_project_chbe-medford/medford-share/data/pseudos_module/espresso/nninc/pbe/van/H.UPF
     MD5 check sum: b5ee9d7bfd3a09ee7748110bda690ff7
     Pseudo is Ultrasoft, Zval =  1.0
     Generated by new atomic code, or converted to UPF format
     Using radial grid of  615 points,  1 beta functions with:
                l(1) =   0
     Q(r) pseudized with  8 coefficients,  rinner =    0.800

     atomic species   valence    mass     pseudopotential
        Ti1           12.00    47.86700     Ti( 1.00)
        O1             6.00    15.99900     O ( 1.00)
        N1             5.00    14.00700     N ( 1.00)
        C1             4.00    12.01100     C ( 1.00)
        H1             1.00     1.00800     H ( 1.00)

     No symmetry found

   Cartesian axes

     site n.     atom                  positions (alat units)
         1           Ti1 tau(   1) = (   0.0004258   2.9801865   6.0000000  )
         2           Ti1 tau(   2) = (   3.2906075   1.4906267   6.0002472  )
         3           O1  tau(   3) = (   0.0006271   0.0005054   7.9858123  )
         4           O1  tau(   4) = (   3.2906025   0.0005020   7.3038282  )
         5           O1  tau(   5) = (   4.5942328   1.4918067   9.2879030  )
         6           O1  tau(   6) = (   1.9868534   1.4903216   9.2879459  )
         7           Ti1 tau(   7) = (   3.2907910   2.8959150   9.1758416  )
         8           Ti1 tau(   8) = (   0.0015273   1.4827037   9.2680791  )
         9           O1  tau(   9) = (   3.2989311   0.0219330  11.3020621  )
        10           O1  tau(  10) = (   0.0116148   5.9584955  10.6183126  )
        11           O1  tau(  11) = (   1.3029919   1.4976758  12.6257209  )
        12           O1  tau(  12) = (   5.3026591   1.4951023  12.6306759  )
        13           Ti1 tau(  13) = (   0.0286689   2.8598525  12.6759356  )
        14           Ti1 tau(  14) = (   3.3054201   1.5706400  12.4108957  )
        15           O1  tau(  15) = (   0.0066217   5.9386728  14.6456674  )
        16           O1  tau(  16) = (   3.2936494   5.9217248  13.9190535  )
        17           O1  tau(  17) = (   4.5783085   1.5227378  16.0725395  )
        18           O1  tau(  18) = (   2.0661487   1.5008106  16.0935948  )
        19           Ti1 tau(  19) = (   3.3004316   2.9577776  15.6622982  )
        20           Ti1 tau(  20) = (   6.5114840   1.4532315  15.8500040  )
        21           O1  tau(  21) = (   3.2904802   0.0005063   4.7018136  )
        22           O1  tau(  22) = (   0.0101108   5.9483577  17.1703567  )
        23           O1  tau(  23) = (   1.3043587   1.4918075   6.0039043  )
        24           O1  tau(  24) = (   5.2767064   1.4903225   6.0039473  )
        25           Ti1 tau(  25) = (   0.0000382   5.9609847   6.0000000  )
        26           Ti1 tau(  26) = (   3.2902200   4.4714249   6.0002472  )
        27           O1  tau(  27) = (   0.0002396   2.9813036   7.9858123  )
        28           O1  tau(  28) = (   3.2902150   2.9813002   7.3038282  )
        29           O1  tau(  29) = (   4.5938453   4.4726049   9.2879030  )
        30           O1  tau(  30) = (   1.9864658   4.4711199   9.2879459  )
        31           Ti1 tau(  31) = (   3.2891106   5.8743827   9.1763621  )
        32           Ti1 tau(  32) = (   0.0006254   4.4649316   9.2693709  )
        33           O1  tau(  33) = (   3.2985377   2.9527140  11.2683515  )
        34           O1  tau(  34) = (   0.0092240   2.9805883  10.6323155  )
        35           O1  tau(  35) = (   1.2869011   4.4751273  12.6337776  )
        36           O1  tau(  36) = (   5.3033013   4.4751711  12.6363117  )
        37           Ti1 tau(  37) = (   6.5677423   5.8343599  12.5653580  )
        38           Ti1 tau(  38) = (   3.2861748   4.6640272  12.6826305  )
        39           O1  tau(  39) = (   0.0268303   2.9326313  14.6927244  )
        40           O1  tau(  40) = (   3.2973518   2.9805258  13.8830516  )
        41           O1  tau(  41) = (   4.5656241   4.3944478  16.1024780  )
        42           O1  tau(  42) = (   2.0389263   4.3990843  16.1000718  )
        43           Ti1 tau(  43) = (   3.2183859   5.9292641  16.3327267  )
        44           Ti1 tau(  44) = (   6.5399727   4.6159235  16.0325440  )
        45           O1  tau(  45) = (   3.2900926   2.9813045   4.7018136  )
        46           O1  tau(  46) = (   1.3039711   4.4726057   6.0039043  )
        47           O1  tau(  47) = (   5.2763189   4.4711207   6.0039473  )
        48           N1  tau(  48) = (   0.1383159   2.7169024  18.6905470  )
        49           N1  tau(  49) = (   0.0454196   2.8879789  17.5111406  )
        50           C1  tau(  50) = (   0.1807782   3.8735959  19.6428767  )
        51           H1  tau(  51) = (   6.4938760   4.8136915  19.1652781  )
        52           H1  tau(  52) = (   6.0945921   3.6282151  20.4682347  )
        53           H1  tau(  53) = (   1.2016282   3.9139503  20.0277151  )
        54           O1  tau(  54) = (   3.2907091   5.9158944  18.1602194  )
        55           H1  tau(  55) = (   3.1351319   0.7410148  18.7017648  )

     number of k points=    10  Fermi-Dirac smearing, width (Ry)=  0.0073
                       cart. coord. in units 2pi/alat
        k(    1) = (   0.0000000   0.0000000   0.0000000), wk =   0.1250000
        k(    2) = (   0.0000000   0.0419351   0.0000000), wk =   0.2500000
        k(    3) = (   0.0000000  -0.0838702   0.0000000), wk =   0.1250000
        k(    4) = (   0.0379955   0.0000049   0.0000000), wk =   0.2500000
        k(    5) = (   0.0379955   0.0419400   0.0000000), wk =   0.2500000
        k(    6) = (   0.0379955  -0.0838652   0.0000000), wk =   0.2500000
        k(    7) = (   0.0379955  -0.0419301   0.0000000), wk =   0.2500000
        k(    8) = (  -0.0759910  -0.0000099   0.0000000), wk =   0.1250000
        k(    9) = (  -0.0759910   0.0419252   0.0000000), wk =   0.2500000
        k(   10) = (  -0.0759910  -0.0838800   0.0000000), wk =   0.1250000

     Initial potential from superposition of free atoms

     starting charge  385.99915, renormalised to  402.00000

     negative rho (up, down):  1.431E-02 0.000E+00

     %%%%%%%%%%%%%%%%%%%%%%%%%%%%%%%%%%%%%%%%%%%%%%%%%%%%%%%%%%%%%%%%%%%%%%%%
     %                                                                      %
     % You are using vdW-DF, which was implemented by the Thonhauser group. %
     % Please cite the following two papers that made this development      %
     % possible and the two reviews that describe the various versions:     %
     %                                                                      %
     %   T. Thonhauser et al., PRL 115, 136402 (2015).                      %
     %   T. Thonhauser et al., PRB 76, 125112 (2007).                       %
     %   K. Berland et al., Rep. Prog. Phys. 78, 066501 (2015).             %
     %   D.C. Langreth et al., J. Phys.: Condens. Matter 21, 084203 (2009). %
     %                                                                      %
     %                                                                      %
     % If you are calculating the stress with vdW-DF, please also cite:     %
     %                                                                      %
     %   R. Sabatini et al., J. Phys.: Condens. Matter 24, 424209 (2012).   %
     %                                                                      %
     %%%%%%%%%%%%%%%%%%%%%%%%%%%%%%%%%%%%%%%%%%%%%%%%%%%%%%%%%%%%%%%%%%%%%%%%

     Adding external electric field

     Computed dipole along edir(3) :
        Dipole              -12.0423 Ry au,        -30.6084 Debye
        Dipole field         -0.0227 Ry au,

        Potential amp.        2.1066 Ry
        Total length         46.3494 bohr

     Starting wfcs are  304 atomic wfcs
  @ DRIVER MODE: Message from server: STATUS
  @ DRIVER MODE: Message from server: POSDATA
  @ DRIVER MODE: Reading and sharing cell
  @ DRIVER MODE: Reading and sharing positions
  @ DRIVER MODE: Received positions

     Self-consistent Calculation

     iteration #  1     ecut=    29.40 Ry     beta= 0.05
     Davidson diagonalization with overlap
     c_bands:  4 eigenvalues not converged
     c_bands:  3 eigenvalues not converged
     c_bands:  5 eigenvalues not converged
     c_bands:  3 eigenvalues not converged
     c_bands:  3 eigenvalues not converged
     c_bands:  2 eigenvalues not converged
     c_bands:  5 eigenvalues not converged
     c_bands:  5 eigenvalues not converged
     ethr =  1.00E-05,  avg # of iterations = 21.5

[...]

     total energy              =   -2397.69351561 Ry
     estimated scf accuracy    <    6480.42014186 Ry

     iteration #  2     ecut=    29.40 Ry     beta= 0.05
     Davidson diagonalization with overlap
     ethr =  1.00E-02,  avg # of iterations = 23.0

[...]

     iteration # 33     ecut=    29.40 Ry     beta= 0.05
     Davidson diagonalization with overlap
     c_bands:  1 eigenvalues not converged
     c_bands:  1 eigenvalues not converged
     ethr =  2.02E-06,  avg # of iterations = 12.2

[...]

     total energy              =   -2972.75276833 Ry
     estimated scf accuracy    <       0.00000010 Ry

     iteration # 63     ecut=    29.40 Ry     beta= 0.05
     Davidson diagonalization with overlap
     ethr =  2.39E-11,  avg # of iterations =  3.4

     negative rho (up, down):  1.490E-02 0.000E+00

     Adding external electric field

     Computed dipole along edir(3) :
        Dipole                0.6669 Ry au,          1.6951 Debye
        Dipole field          0.0013 Ry au,

        Potential amp.       -0.1167 Ry
        Total length         46.3494 bohr

     End of self-consistent calculation

          k = 0.0000 0.0000 0.0000 ( 18029 PWs)   bands (ev):

   -56.1830 -56.1492 -55.7734 -55.7398 -55.5912 -55.5344 -55.4846 -55.3436
   -55.3192 -55.3081 -55.1634 -55.1572 -55.0249 -55.0110 -54.9571 -54.9231
   -32.6338 -32.4756 -32.4487 -32.3414 -32.2579 -32.2528 -32.2487 -32.0185
   -31.9921 -31.9730 -31.9336 -31.9209 -31.9153 -31.8804 -31.8411 -31.8282
   -31.8003 -31.7574 -31.7549 -31.7214 -31.7045 -31.6888 -31.6847 -31.6424
   -31.6344 -31.6199 -31.5493 -31.5385 -31.5300 -31.5161 -31.4944 -31.4603
   -31.4301 -31.4051 -31.3611 -31.3581 -31.3538 -31.2901 -31.2815 -31.2665
   -31.2535 -31.2467 -31.2426 -31.2367 -31.2206 -31.1725 -31.0879 -30.9759
   -18.9768 -16.4794 -16.4531 -16.1488 -15.9509 -15.7674 -15.6958 -15.6684
   -15.6158 -15.4984 -15.4947 -15.3738 -15.2874 -15.2079 -15.1960 -15.1851
   -15.0885 -15.0537 -15.0177 -14.9902 -14.9769 -14.9740 -14.9342 -14.8268
   -14.8107 -14.7890 -14.6931 -14.6866 -14.5776 -14.2911 -14.2679 -13.4549
   -13.3426 -11.4374  -6.8980  -4.3936  -4.1713  -4.0213  -3.9876  -3.9803
    -3.6960  -3.4839  -3.4053  -3.2553  -3.1795  -3.1097  -2.9054  -2.8944
    -2.8367  -2.7684  -2.6994  -2.6404  -2.5919  -2.5746  -2.4906  -2.4423
    -2.4249  -2.4112  -2.4018  -2.3743  -2.2542  -2.2502  -2.2202  -2.1700
    -2.1019  -2.0926  -2.0249  -2.0182  -1.9952  -1.9504  -1.9301  -1.8694
    -1.8347  -1.8115  -1.6673  -1.6307  -1.6234  -1.5532  -1.5040  -1.4893
    -1.4556  -1.2897  -1.2176  -1.1765  -1.1633  -1.0264  -1.0168  -0.9806
    -0.8970  -0.8633  -0.7719  -0.7664  -0.7611  -0.7539  -0.6593  -0.6190
    -0.6098  -0.5843  -0.3980  -0.3770  -0.3173  -0.2513  -0.1554  -0.1149
    -0.1071  -0.0963  -0.0600   0.0003   0.0175   0.0350   0.1281   0.1464
     0.1985   0.2767   0.3093   0.3796   0.4023   0.4105   0.4187   0.4766
     0.5642   0.6597   0.7053   0.7153   0.7855   0.7963   0.9338   0.9482
     1.0673   1.1033   1.1085   1.1633   1.2977   1.5711   1.6156   1.6549
     2.7773   3.0423   3.1693   3.3233   3.4743   3.5660   3.8412   3.9039
     3.9439   3.9574   3.9990

[...]

          k = 0.0380-0.0419 0.0000 ( 17876 PWs)   bands (ev):

[...]

          k =-0.0760-0.0000 0.0000 ( 17886 PWs)   bands (ev):

[...]

          k =-0.0760-0.0839 0.0000 ( 17948 PWs)   bands (ev):

   -56.1662 -56.1659 -55.7573 -55.7558 -55.5905 -55.5278 -55.4912 -55.3305
   -55.3209 -55.3197 -55.1615 -55.1552 -55.0268 -55.0128 -54.9401 -54.9399
   -32.4612 -32.4609 -32.4498 -32.4497 -32.2935 -32.2930 -32.0776 -32.0739
   -31.9513 -31.9490 -31.9460 -31.9455 -31.8778 -31.8335 -31.8292 -31.8072
   -31.7910 -31.7500 -31.7492 -31.7159 -31.7081 -31.6954 -31.6646 -31.6534
   -31.6096 -31.6011 -31.5695 -31.5536 -31.5377 -31.5372 -31.5312 -31.5016
   -31.4223 -31.4095 -31.3690 -31.3642 -31.3598 -31.3053 -31.2865 -31.2794
   -31.2794 -31.2557 -31.2472 -31.2422 -31.1686 -31.1682 -31.1305 -31.1301
   -18.9742 -16.4443 -15.8883 -15.8790 -15.7519 -15.7467 -15.5752 -15.5730
   -15.5585 -15.4791 -15.4489 -15.4159 -15.2766 -15.2641 -15.2065 -15.1832
   -15.1749 -15.1476 -15.1256 -15.0989 -15.0900 -15.0449 -14.9867 -14.9746
   -14.9145 -14.9070 -14.7526 -14.6859 -14.6396 -14.5074 -14.4032 -13.4459
   -13.4453 -11.4351  -6.9117  -4.3365  -4.1949  -4.0059  -3.9757  -3.0554
    -3.0054  -2.9058  -2.8649  -2.7889  -2.7784  -2.6623  -2.6497  -2.5977
    -2.5826  -2.5754  -2.5347  -2.4892  -2.4808  -2.4569  -2.4319  -2.4245
    -2.4010  -2.3749  -2.3214  -2.3028  -2.2979  -2.2720  -2.1692  -2.1471
    -2.1157  -2.1113  -2.0988  -2.0688  -2.0377  -1.9556  -1.9143  -1.8768
    -1.8660  -1.8081  -1.7549  -1.7264  -1.6898  -1.6125  -1.5860  -1.5296
    -1.4547  -1.3932  -1.2805  -1.2722  -1.2510  -1.1859  -1.1695  -1.1253
    -1.0998  -1.0364  -0.9752  -0.9552  -0.9525  -0.9420  -0.8817  -0.8149
    -0.7202  -0.6632  -0.6467  -0.6034  -0.6005  -0.5687  -0.5399  -0.5063
    -0.4017  -0.3873  -0.3807  -0.3232  -0.3165  -0.2460  -0.1631  -0.0508
     0.0637   0.1444   0.1596   0.1763   0.2223   0.2967   0.3839   0.4239
     0.4635   0.5232   0.5640   0.5982   0.6653   0.8154   0.8617   0.8773
     0.9725   1.0086   1.0769   1.1679   1.4551   1.4659   1.4710   1.4720
     2.8302   3.5911   3.5936   3.6224   3.6333   3.7312   3.8263   3.8443
     3.9650   4.0238   4.0873

     the Fermi energy is     2.9795 ev

!    total energy              =   -2972.75280389 Ry
     estimated scf accuracy    <       0.00000006 Ry
     smearing contrib. (-TS)   =      -0.01297042 Ry
     internal energy E=F+TS    =   -2972.73983347 Ry

     The total energy is F=E-TS. E is the sum of the following terms:
     one-electron contribution =  -23541.21765801 Ry
     hartree contribution      =   11864.26093557 Ry
     xc contribution           =    -493.08337644 Ry
     ewald contribution        =    9197.29942608 Ry
     electric field correction =       0.00083933 Ry

     convergence has been achieved in  63 iterations

     Forces acting on atoms (cartesian axes, Ry/au):

     atom    1 type  1   force =     0.00007974   -0.00037179    0.10661711
     atom    2 type  1   force =    -0.00012638    0.00015837   -0.16556586
     atom    3 type  2   force =     0.00006861   -0.00044524   -0.03861919
     atom    4 type  2   force =     0.00000309    0.00015051    0.03558515
     atom    5 type  2   force =    -0.00268309   -0.00317570   -0.00903733
     atom    6 type  2   force =     0.00450124   -0.00251009   -0.00932379
     atom    7 type  1   force =    -0.00000823    0.00134431    0.03402057
     atom    8 type  1   force =     0.00023674    0.01557254    0.06037285
     atom    9 type  2   force =    -0.00018052   -0.00047387    0.00043796
     atom   10 type  2   force =    -0.00256009    0.00086276   -0.04200479
     atom   11 type  2   force =    -0.00100658    0.00037034    0.00052496
     atom   12 type  2   force =     0.00050191    0.00026905    0.00041934
     atom   13 type  1   force =     0.00045347    0.00065637   -0.00121534
     atom   14 type  1   force =     0.00026186   -0.00020243   -0.00007319
     atom   15 type  2   force =     0.00023975    0.00054838    0.00062931
     atom   16 type  2   force =    -0.00009568   -0.00032393   -0.00040743
     atom   17 type  2   force =    -0.00011458    0.00025711    0.00033344
     atom   18 type  2   force =     0.00006872   -0.00000129    0.00011060
     atom   19 type  1   force =     0.00023473   -0.00097077   -0.00052481
     atom   20 type  1   force =     0.00012328   -0.00012881   -0.00214209
     atom   21 type  2   force =     0.00003489    0.00013510    0.10046916
     atom   22 type  2   force =     0.00018820    0.00082278    0.00049571
     atom   23 type  2   force =    -0.07674486   -0.00000404   -0.03006445
     atom   24 type  2   force =     0.07661704    0.00046539   -0.03011023
     atom   25 type  1   force =    -0.00008287   -0.00045701    0.10698558
     atom   26 type  1   force =    -0.00021326   -0.00132314   -0.16563264
     atom   27 type  2   force =     0.00010177   -0.00031714   -0.03691455
     atom   28 type  2   force =     0.00004665   -0.00001236    0.03075385
     atom   29 type  2   force =    -0.00571591    0.00365868   -0.00690850
     atom   30 type  2   force =     0.00735173    0.00400713   -0.00718533
     atom   31 type  1   force =    -0.00012122   -0.00226918    0.02223388
     atom   32 type  1   force =     0.00032588   -0.01776756    0.06084677
     atom   33 type  2   force =    -0.00016940    0.00011251    0.00024479
     atom   34 type  2   force =    -0.00143357    0.00000211   -0.05377019
     atom   35 type  2   force =     0.00002850   -0.00019969   -0.00007731
     atom   36 type  2   force =    -0.00034530    0.00002603    0.00007773
     atom   37 type  1   force =     0.00014131    0.00000112   -0.00019923
     atom   38 type  1   force =     0.00033788    0.00008324   -0.00038886
     atom   39 type  2   force =    -0.00012227    0.00030026    0.00024747
     atom   40 type  2   force =     0.00001089    0.00031840    0.00105955
     atom   41 type  2   force =    -0.00014225    0.00019987    0.00011024
     atom   42 type  2   force =     0.00011279   -0.00001048    0.00020509
     atom   43 type  1   force =     0.00019508    0.00050276   -0.00018726
     atom   44 type  1   force =     0.00022932    0.00067352   -0.00180189
     atom   45 type  2   force =     0.00003760    0.00013348    0.10031412
     atom   46 type  2   force =    -0.07671811    0.00003341   -0.03005017
     atom   47 type  2   force =     0.07657834    0.00046878   -0.03007093
     atom   48 type  3   force =     0.00243196   -0.00155012    0.02961522
     atom   49 type  3   force =    -0.00163673    0.00343502   -0.02687130
     atom   50 type  4   force =     0.00043194   -0.00060352   -0.00163508
     atom   51 type  5   force =    -0.00024794   -0.00050847   -0.00048105
     atom   52 type  5   force =    -0.00036858   -0.00127305   -0.00105965
     atom   53 type  5   force =     0.00008829   -0.00037148   -0.00113978
     atom   54 type  2   force =     0.00019390   -0.00016225    0.00194064
     atom   55 type  5   force =    -0.00141967   -0.00013592   -0.00118889

     Total force =     0.382527     Total SCF correction =     0.000725
  @ DRIVER MODE: Message from server: STATUS
  @ DRIVER MODE: Message from server: GETFORCE
  @ DRIVER MODE: Returning v,forces,stress,ensemble

     Writing output data file ./calc.save/
  @ DRIVER MODE: Message from server: EXIT
  @ DRIVE MODE: Exiting

     General routines

     Parallel routines

   This run was terminated on:   0:20:27  23Sep2021

   JOB DONE.