     Program PWSCF v.6.7GPU starts on 24Aug2021 at 14:31:58

     R & G space division:  proc/nbgrp/npool/nimage =      72
     Reading input from /storage/home/hcoda1/3/ntian30/research/carbon/CH2_vib/ads_slab/CH2N_a/out_0017/pw.inp
Warning: card &CELL ignored
Warning: card   CELL_DYNAMICS='IPI', ignored
Warning: card / ignored

     Current dimensions of program PWSCF are:
     Max number of different atomic species (ntypx) = 10
     Max number of k-points (npk) =  40000
     Max angular momentum in pseudopotentials (lmaxx) =  3
     Presently no symmetry can be used with electric field

     Message from routine cell_base_init:
     DEPRECATED: use true lattice parameter, not A to a.u. conversion factor

     IMPORTANT: XC functional enforced from input :
     Exchange-correlation= BEEF-VDW
                           (   1   4  43  14   2   0   0)
     Any further DFT definition will be discarded
     Please, verify this is what you really want

  @ DRIVER MODE: Connecting to
 qe_1139763_2641441.sched-torque.pace.gatech.edui66vmkeq_scratch
  using UNIX socket
  @ DRIVER MODE: Message from server: STATUS
  @ DRIVER MODE: Message from server: INIT
  @ DRIVER MODE: Receiving replica           0          -1
  @ DRIVER MODE: Receiving encoded integer          25
  @ DRIVER MODE:  SCF:  T  FORCE:  T  STRESS:  F  VC:  F  ENSEMBLE:  F
  @ DRIVER MODE:  SCF:  T  FORCE:  T  STRESS:  F  VC:  F  ENSEMBLE:  F

     Using Slab Decomposition

     bravais-lattice index     =            0
     lattice parameter (alat)  =       1.8897  a.u.
     unit-cell volume          =    6658.9804 (a.u.)^3
     number of atoms/cell      =           51
     number of atomic types    =            5
     number of electrons       =       389.00
     number of Kohn-Sham states=          204
     kinetic-energy cutoff     =      29.3995  Ry
     charge density cutoff     =     293.9946  Ry
     scf convergence threshold =      7.3E-08
     mixing beta               =       0.0500
     number of iterations used =            8  plain     mixing
     Exchange-correlation= BEEF-VDW
                           (   1   4  43  14   2   0   0)

     celldm(1)=   1.889726  celldm(2)=   0.000000  celldm(3)=   0.000000
     celldm(4)=   0.000000  celldm(5)=   0.000000  celldm(6)=   0.000000

     crystal axes: (cart. coord. in units of alat)
               a(1) = (   6.579727   0.000000   0.000000 )
               a(2) = (  -0.000775   5.961596   0.000000 )
               a(3) = (   0.000000   0.000000  25.155947 )

     reciprocal axes: (cart. coord. in units 2 pi/alat)
               b(1) = (  0.151982  0.000020  0.000000 )
               b(2) = (  0.000000  0.167740  0.000000 )
               b(3) = (  0.000000  0.000000  0.039752 )

     PseudoPot. # 1 for Ti read from file:
     /storage/coda1/p-amedford6/0/shared/rich_project_chbe-medford/medford-share/data/pseudos_module/espresso/nninc/pbe/van/Ti.UPF
     MD5 check sum: 8e4df49b7f0d34bbd5052bf3f5ea0213
     Pseudo is Ultrasoft, Zval = 12.0
     Generated by new atomic code, or converted to UPF format
     Using radial grid of  851 points,  6 beta functions with:
                l(1) =   0
                l(2) =   0
                l(3) =   1
                l(4) =   1
                l(5) =   2
                l(6) =   2
     Q(r) pseudized with  8 coefficients,  rinner =    1.000   1.000   1.000
                                                       1.000   1.000

     PseudoPot. # 2 for O  read from file:
     /storage/coda1/p-amedford6/0/shared/rich_project_chbe-medford/medford-share/data/pseudos_module/espresso/nninc/pbe/van/O.UPF
     MD5 check sum: 78c19812648e8988a0fe644b0f25305e
     Pseudo is Ultrasoft, Zval =  6.0
     Generated by new atomic code, or converted to UPF format
     Using radial grid of  737 points,  4 beta functions with:
                l(1) =   0
                l(2) =   0
                l(3) =   1
                l(4) =   1
     Q(r) pseudized with  8 coefficients,  rinner =    0.800   0.800   0.800

     PseudoPot. # 3 for N  read from file:
     /storage/coda1/p-amedford6/0/shared/rich_project_chbe-medford/medford-share/data/pseudos_module/espresso/nninc/pbe/van/N.UPF
     MD5 check sum: 90d10febe142ad51ac9d5be1deb811c4
     Pseudo is Ultrasoft, Zval =  5.0
     Generated by new atomic code, or converted to UPF format
     Using radial grid of  729 points,  4 beta functions with:
                l(1) =   0
                l(2) =   0
                l(3) =   1
                l(4) =   1
     Q(r) pseudized with  8 coefficients,  rinner =    0.800   0.800   0.800

     PseudoPot. # 4 for C  read from file:
     /storage/coda1/p-amedford6/0/shared/rich_project_chbe-medford/medford-share/data/pseudos_module/espresso/nninc/pbe/van/C.UPF
     MD5 check sum: 1a69bf6b8db32088f5b2163dbdb77a27
     Pseudo is Ultrasoft, Zval =  4.0
     Generated by new atomic code, or converted to UPF format
     Using radial grid of  721 points,  4 beta functions with:
                l(1) =   0
                l(2) =   0
                l(3) =   1
                l(4) =   1
     Q(r) pseudized with  8 coefficients,  rinner =    0.800   0.800   0.800

     PseudoPot. # 5 for H  read from file:
     /storage/coda1/p-amedford6/0/shared/rich_project_chbe-medford/medford-share/data/pseudos_module/espresso/nninc/pbe/van/H.UPF
     MD5 check sum: b5ee9d7bfd3a09ee7748110bda690ff7
     Pseudo is Ultrasoft, Zval =  1.0
     Generated by new atomic code, or converted to UPF format
     Using radial grid of  615 points,  1 beta functions with:
                l(1) =   0
     Q(r) pseudized with  8 coefficients,  rinner =    0.800

     atomic species   valence    mass     pseudopotential
        Ti1           12.00    47.86700     Ti( 1.00)
        O1             6.00    15.99900     O ( 1.00)
        N1             5.00    14.00700     N ( 1.00)
        C1             4.00    12.01100     C ( 1.00)
        H1             1.00     1.00800     H ( 1.00)

     No symmetry found

   Cartesian axes

     site n.     atom                  positions (alat units)
         1           Ti1 tau(   1) = (   0.0004258   2.9801865   6.0000000  )
         2           Ti1 tau(   2) = (   3.2906075   1.4906267   6.0002472  )
         3           O1  tau(   3) = (   0.0006271   0.0005054   7.9858123  )
         4           O1  tau(   4) = (   3.2906025   0.0005020   7.3038282  )
         5           O1  tau(   5) = (   4.5942328   1.4918067   9.2879030  )
         6           O1  tau(   6) = (   1.9868534   1.4903216   9.2879459  )
         7           Ti1 tau(   7) = (   3.2907910   2.8959150   9.1758416  )
         8           Ti1 tau(   8) = (   0.0015273   1.4827037   9.2680791  )
         9           O1  tau(   9) = (   3.3121109   0.0111249  11.3310253  )
        10           O1  tau(  10) = (   0.0116148   5.9584955  10.6183126  )
        11           O1  tau(  11) = (   1.3329579   1.5011098  12.6063046  )
        12           O1  tau(  12) = (   5.3158149   1.4916659  12.6245769  )
        13           Ti1 tau(  13) = (   6.5431557   2.9598450  12.6156978  )
        14           Ti1 tau(  14) = (   3.2273839   1.5049138  12.4779161  )
        15           O1  tau(  15) = (   0.0471551   0.0364395  14.6528705  )
        16           O1  tau(  16) = (   3.3160098   0.0207640  13.9215624  )
        17           O1  tau(  17) = (   4.5810600   1.5471256  16.0564497  )
        18           O1  tau(  18) = (   2.0947546   1.5446786  16.0656860  )
        19           Ti1 tau(  19) = (   3.3354243   3.0239694  15.7034691  )
        20           Ti1 tau(  20) = (   0.0419518   1.5622418  15.8401859  )
        21           O1  tau(  21) = (   3.2904802   0.0005063   4.7018136  )
        22           O1  tau(  22) = (   0.0415632   0.0558952  17.2248266  )
        23           O1  tau(  23) = (   1.3043587   1.4918075   6.0039043  )
        24           O1  tau(  24) = (   5.2767064   1.4903225   6.0039473  )
        25           Ti1 tau(  25) = (   0.0000382   5.9609847   6.0000000  )
        26           Ti1 tau(  26) = (   3.2902200   4.4714249   6.0002472  )
        27           O1  tau(  27) = (   0.0002396   2.9813036   7.9858123  )
        28           O1  tau(  28) = (   3.2902150   2.9813002   7.3038282  )
        29           O1  tau(  29) = (   4.5938453   4.4726049   9.2879030  )
        30           O1  tau(  30) = (   1.9864658   4.4711199   9.2879459  )
        31           Ti1 tau(  31) = (   3.2891106   5.8743827   9.1763621  )
        32           Ti1 tau(  32) = (   0.0006254   4.4649316   9.2693709  )
        33           O1  tau(  33) = (   3.3101407   2.9955762  11.3294870  )
        34           O1  tau(  34) = (   0.0092240   2.9805883  10.6323155  )
        35           O1  tau(  35) = (   1.3272401   4.4878838  12.6173354  )
        36           O1  tau(  36) = (   5.3164082   4.4812184  12.6342743  )
        37           Ti1 tau(  37) = (   6.5430856   5.9365306  12.5602028  )
        38           Ti1 tau(  38) = (   3.2246414   4.4845729  12.4831641  )
        39           O1  tau(  39) = (   0.0420920   2.9623338  14.6463429  )
        40           O1  tau(  40) = (   3.3182946   3.0055568  13.9055467  )
        41           O1  tau(  41) = (   4.5797692   4.5125808  16.0776662  )
        42           O1  tau(  42) = (   2.0972274   4.5146901  16.0918111  )
        43           Ti1 tau(  43) = (   3.3319946   0.0399457  15.7186693  )
        44           Ti1 tau(  44) = (   0.0407629   4.6953510  16.1098173  )
        45           O1  tau(  45) = (   3.2900926   2.9813045   4.7018136  )
        46           O1  tau(  46) = (   1.3039711   4.4726057   6.0039043  )
        47           O1  tau(  47) = (   5.2763189   4.4711207   6.0039473  )
        48           N1  tau(  48) = (   0.0554023   2.9932257  17.3910969  )
        49           C1  tau(  49) = (   0.1090839   2.9222626  18.6472186  )
        50           H1  tau(  50) = (   0.1225839   3.8204711  19.2673028  )
        51           H1  tau(  51) = (   0.1417253   1.9549180  19.1625725  )

     number of k points=    10  Fermi-Dirac smearing, width (Ry)=  0.0073
                       cart. coord. in units 2pi/alat
        k(    1) = (   0.0000000   0.0000000   0.0000000), wk =   0.1250000
        k(    2) = (   0.0000000   0.0419351   0.0000000), wk =   0.2500000
        k(    3) = (   0.0000000  -0.0838702   0.0000000), wk =   0.1250000
        k(    4) = (   0.0379955   0.0000049   0.0000000), wk =   0.2500000
        k(    5) = (   0.0379955   0.0419400   0.0000000), wk =   0.2500000
        k(    6) = (   0.0379955  -0.0838652   0.0000000), wk =   0.2500000
        k(    7) = (   0.0379955  -0.0419301   0.0000000), wk =   0.2500000
        k(    8) = (  -0.0759910  -0.0000099   0.0000000), wk =   0.1250000
        k(    9) = (  -0.0759910   0.0419252   0.0000000), wk =   0.2500000
        k(   10) = (  -0.0759910  -0.0838800   0.0000000), wk =   0.1250000

     Initial potential from superposition of free atoms

     starting charge  372.99918, renormalised to  389.00000

     negative rho (up, down):  1.814E-02 0.000E+00

     %%%%%%%%%%%%%%%%%%%%%%%%%%%%%%%%%%%%%%%%%%%%%%%%%%%%%%%%%%%%%%%%%%%%%%%%
     %                                                                      %
     % You are using vdW-DF, which was implemented by the Thonhauser group. %
     % Please cite the following two papers that made this development      %
     % possible and the two reviews that describe the various versions:     %
     %                                                                      %
     %   T. Thonhauser et al., PRL 115, 136402 (2015).                      %
     %   T. Thonhauser et al., PRB 76, 125112 (2007).                       %
     %   K. Berland et al., Rep. Prog. Phys. 78, 066501 (2015).             %
     %   D.C. Langreth et al., J. Phys.: Condens. Matter 21, 084203 (2009). %
     %                                                                      %
     %                                                                      %
     % If you are calculating the stress with vdW-DF, please also cite:     %
     %                                                                      %
     %   R. Sabatini et al., J. Phys.: Condens. Matter 24, 424209 (2012).   %
     %                                                                      %
     %%%%%%%%%%%%%%%%%%%%%%%%%%%%%%%%%%%%%%%%%%%%%%%%%%%%%%%%%%%%%%%%%%%%%%%%

     Adding external electric field

     Computed dipole along edir(3) :
        Dipole               -4.6848 Ry au,        -11.9076 Debye
        Dipole field         -0.0088 Ry au,

        Potential amp.        0.8195 Ry
        Total length         46.3494 bohr

     Starting wfcs are  294 atomic wfcs
  @ DRIVER MODE: Message from server: STATUS
  @ DRIVER MODE: Message from server: POSDATA
  @ DRIVER MODE: Reading and sharing cell
  @ DRIVER MODE: Reading and sharing positions
  @ DRIVER MODE: Received positions

     Self-consistent Calculation

     iteration #  1     ecut=    29.40 Ry     beta= 0.05
     Davidson diagonalization with overlap
     c_bands:  3 eigenvalues not converged
     c_bands:  1 eigenvalues not converged
     c_bands:  1 eigenvalues not converged
     c_bands:  2 eigenvalues not converged
     c_bands:  3 eigenvalues not converged
     c_bands:  2 eigenvalues not converged
     c_bands:  2 eigenvalues not converged
     ethr =  1.00E-05,  avg # of iterations = 19.8

[...]

     total energy              =   -2866.20240036 Ry
     estimated scf accuracy    <     589.94883630 Ry

     iteration #  2     ecut=    29.40 Ry     beta= 0.05
     Davidson diagonalization with overlap
     ethr =  1.00E-02,  avg # of iterations = 15.2

[...]

     iteration # 45     ecut=    29.40 Ry     beta= 0.05
     Davidson diagonalization with overlap
     c_bands:  1 eigenvalues not converged
     ethr =  3.15E-09,  avg # of iterations = 14.5

[...]

     total energy              =   -2917.92288168 Ry
     estimated scf accuracy    <       0.00000008 Ry

     iteration # 54     ecut=    29.40 Ry     beta= 0.05
     Davidson diagonalization with overlap
     ethr =  2.05E-11,  avg # of iterations =  9.3

     negative rho (up, down):  1.845E-02 0.000E+00

     Adding external electric field

     Computed dipole along edir(3) :
        Dipole                0.7716 Ry au,          1.9613 Debye
        Dipole field          0.0015 Ry au,

        Potential amp.       -0.1350 Ry
        Total length         46.3494 bohr

     End of self-consistent calculation

          k = 0.0000 0.0000 0.0000 ( 18029 PWs)   bands (ev):

   -55.9938 -55.9847 -55.9598 -55.9483 -55.8715 -55.8415 -55.8215 -55.8071
   -55.8027 -55.7687 -55.7662 -55.7325 -55.5196 -55.2469 -54.9708 -54.9368
   -32.5391 -32.4762 -32.3427 -32.3236 -32.3015 -32.2965 -32.2868 -32.2568
   -32.2364 -32.2114 -32.2046 -32.1825 -32.1648 -32.1460 -32.1378 -32.1245
   -32.1040 -32.0981 -32.0834 -32.0509 -32.0502 -32.0473 -32.0012 -31.9998
   -31.9984 -31.9968 -31.9906 -31.9828 -31.9685 -31.9564 -31.9484 -31.9418
   -31.9331 -31.9330 -31.9194 -31.9101 -31.8784 -31.7695 -31.7015 -31.5358
   -31.5015 -31.4589 -31.3780 -31.2897 -31.2673 -31.1947 -31.1082 -30.9972
   -16.7362 -16.4678 -16.2429 -16.1458 -16.1148 -15.9984 -15.8325 -15.7140
   -15.6631 -15.5650 -15.5513 -15.5297 -15.4960 -15.4655 -15.4633 -15.4370
   -15.4336 -15.4142 -15.4010 -15.3531 -15.3307 -15.2963 -15.1986 -15.1677
   -15.1278 -15.1000 -15.0588 -15.0493 -14.9277 -14.5616 -13.4735 -13.3571
    -7.5680  -4.3616  -4.1136  -4.0010  -3.9484  -3.8991  -3.8404  -3.6333
    -3.5425  -3.5183  -3.2241  -3.1775  -3.1601  -3.1476  -3.1092  -2.8936
    -2.8402  -2.8085  -2.7874  -2.7732  -2.7620  -2.7542  -2.7341  -2.7072
    -2.5940  -2.5383  -2.5348  -2.4117  -2.3840  -2.3269  -2.3058  -2.2588
    -2.2432  -2.2345  -2.2078  -2.1965  -2.1834  -2.1521  -2.0752  -1.9613
    -1.8110  -1.7917  -1.7563  -1.6306  -1.6008  -1.5397  -1.4495  -1.4337
    -1.4192  -1.3849  -1.3680  -1.2964  -1.1708  -1.1463  -1.1366  -1.0360
    -0.9893  -0.9709  -0.8744  -0.8390  -0.7692  -0.7577  -0.7465  -0.7094
    -0.5486  -0.4916  -0.4622  -0.3954  -0.3658  -0.3072  -0.2940  -0.2651
    -0.1828  -0.1305  -0.1102  -0.1041  -0.0552  -0.0189  -0.0022   0.0074
     0.0185   0.0326   0.2051   0.2781   0.2850   0.3640   0.3738   0.5350
     0.5955   0.6634   0.7714   0.9766   1.0510   1.1403   1.2435   1.4387
     1.6223   1.6679   3.1426   3.2263   3.2745   3.2839   3.3853   3.4219
     3.5958   3.6022   3.6163   3.6906

[...]

          k = 0.0380-0.0419 0.0000 ( 17876 PWs)   bands (ev):

[...]

          k =-0.0760-0.0000 0.0000 ( 17886 PWs)   bands (ev):

[...]

          k =-0.0760-0.0839 0.0000 ( 17948 PWs)   bands (ev):

   -55.9772 -55.9763 -55.9691 -55.9637 -55.8645 -55.8283 -55.8247 -55.8239
   -55.7862 -55.7847 -55.7503 -55.7486 -55.5186 -55.2477 -54.9538 -54.9537
   -32.3448 -32.3397 -32.2918 -32.2912 -32.2725 -32.2717 -32.2546 -32.2425
   -32.1944 -32.1883 -32.1821 -32.1753 -32.1385 -32.1201 -32.1151 -32.1138
   -32.1044 -32.0985 -32.0966 -32.0958 -32.0892 -32.0867 -32.0679 -32.0436
   -32.0401 -32.0296 -32.0200 -32.0063 -31.9851 -31.9847 -31.9819 -31.9804
   -31.9649 -31.9640 -31.9604 -31.9574 -31.8820 -31.7720 -31.6977 -31.6013
   -31.5032 -31.4798 -31.2800 -31.2799 -31.1908 -31.1907 -31.1515 -31.1515
   -16.1685 -16.1492 -15.9374 -15.9102 -15.9053 -15.8938 -15.7654 -15.7049
   -15.6884 -15.6865 -15.6078 -15.5862 -15.5646 -15.5371 -15.5254 -15.5131
   -15.5069 -15.4987 -15.4553 -15.4492 -15.4297 -15.4225 -15.3197 -15.3101
   -15.3060 -15.2502 -15.1765 -15.0378 -14.9449 -14.7298 -13.4589 -13.4588
    -7.5640  -4.3441  -3.6842  -3.4589  -3.4362  -3.1676  -3.1505  -3.1416
    -3.0814  -2.9088  -2.8929  -2.8699  -2.8489  -2.8202  -2.8184  -2.7972
    -2.7951  -2.7843  -2.7402  -2.7329  -2.7073  -2.6705  -2.6603  -2.6488
    -2.6404  -2.6164  -2.6061  -2.5643  -2.5347  -2.5276  -2.5127  -2.4891
    -2.3035  -2.2208  -2.1944  -2.1311  -2.1237  -2.0889  -2.0575  -2.0455
    -2.0296  -1.9789  -1.9013  -1.7268  -1.6938  -1.6758  -1.6182  -1.5892
    -1.5485  -1.4625  -1.3942  -1.3696  -1.3635  -1.3150  -1.2063  -1.1847
    -1.1708  -1.0971  -1.0618  -1.0441  -1.0021  -0.9872  -0.9539  -0.9486
    -0.8551  -0.8058  -0.7590  -0.7567  -0.7111  -0.6448  -0.6319  -0.6044
    -0.4954  -0.4765  -0.4062  -0.3776  -0.2759  -0.2082  -0.0099   0.0523
     0.0780   0.1363   0.2165   0.2973   0.3120   0.3257   0.3262   0.3736
     0.4422   0.5388   0.5482   0.6018   0.7065   1.3327   1.4148   1.4154
     1.4877   1.4878   3.4283   3.4381   3.4775   3.4993   3.6355   3.6511
     3.6741   3.6752   3.7303   3.8118

     the Fermi energy is     3.1403 ev

!    total energy              =   -2917.92294756 Ry
     estimated scf accuracy    <       0.00000002 Ry
     smearing contrib. (-TS)   =      -0.02181645 Ry
     internal energy E=F+TS    =   -2917.90113111 Ry

     The total energy is F=E-TS. E is the sum of the following terms:
     one-electron contribution =  -24778.71603071 Ry
     hartree contribution      =   12473.03226535 Ry
     xc contribution           =    -479.18966381 Ry
     ewald contribution        =    9866.97117442 Ry
     electric field correction =       0.00112364 Ry

     convergence has been achieved in  54 iterations

     Forces acting on atoms (cartesian axes, Ry/au):

     atom    1 type  1   force =     0.00017422   -0.00024050    0.09669608
     atom    2 type  1   force =     0.00006813   -0.00053594   -0.17539879
     atom    3 type  2   force =     0.00017950    0.00000491   -0.02478933
     atom    4 type  2   force =     0.00005660   -0.00133326    0.05291011
     atom    5 type  2   force =    -0.01178045    0.00012758    0.00258863
     atom    6 type  2   force =     0.01394905    0.00051462    0.00339108
     atom    7 type  1   force =     0.00129375    0.00071182   -0.01177780
     atom    8 type  1   force =    -0.00005277    0.00766326    0.02820773
     atom    9 type  2   force =    -0.00024207   -0.00023730   -0.00011728
     atom   10 type  2   force =    -0.00220727    0.00207430   -0.01528112
     atom   11 type  2   force =     0.00000594   -0.00009400    0.00022973
     atom   12 type  2   force =    -0.00003959    0.00014593   -0.00006235
     atom   13 type  1   force =    -0.00104529   -0.00025108   -0.00000681
     atom   14 type  1   force =    -0.00023382   -0.00026316    0.00058058
     atom   15 type  2   force =    -0.00030539   -0.00010223   -0.00023403
     atom   16 type  2   force =     0.00025498    0.00007441   -0.00051586
     atom   17 type  2   force =     0.00004894    0.00007526   -0.00019691
     atom   18 type  2   force =    -0.00012025    0.00031883   -0.00050437
     atom   19 type  1   force =    -0.00062582    0.00008679   -0.00035801
     atom   20 type  1   force =     0.00013949   -0.00083164    0.00021910
     atom   21 type  2   force =     0.00008972   -0.00004983    0.10322860
     atom   22 type  2   force =     0.00044379   -0.00029601    0.00011097
     atom   23 type  2   force =    -0.07149115   -0.00015930   -0.02769157
     atom   24 type  2   force =     0.07148343    0.00033177   -0.02777836
     atom   25 type  1   force =     0.00018635   -0.00022540    0.09620188
     atom   26 type  1   force =     0.00011153   -0.00028829   -0.17553764
     atom   27 type  2   force =     0.00022243   -0.00011761   -0.02387230
     atom   28 type  2   force =     0.00008958   -0.00110073    0.05285674
     atom   29 type  2   force =    -0.01198596    0.00068212    0.00233838
     atom   30 type  2   force =     0.01401890    0.00103173    0.00318890
     atom   31 type  1   force =     0.00114041    0.00335232   -0.01209737
     atom   32 type  1   force =    -0.00024303   -0.00974334    0.02864659
     atom   33 type  2   force =    -0.00017477    0.00031371   -0.00009041
     atom   34 type  2   force =    -0.00172847    0.00175423   -0.02357124
     atom   35 type  2   force =     0.00000358    0.00008927    0.00022910
     atom   36 type  2   force =     0.00055433    0.00012136    0.00021476
     atom   37 type  1   force =    -0.00098571   -0.00038751    0.00027994
     atom   38 type  1   force =     0.00022695   -0.00011947    0.00051856
     atom   39 type  2   force =    -0.00005783   -0.00052925   -0.00073898
     atom   40 type  2   force =    -0.00004334    0.00025637    0.00048139
     atom   41 type  2   force =    -0.00065889   -0.00046472   -0.00013868
     atom   42 type  2   force =    -0.00013298   -0.00074346   -0.00069774
     atom   43 type  1   force =    -0.00047411    0.00003253   -0.00012919
     atom   44 type  1   force =     0.00013392    0.00018464    0.00032706
     atom   45 type  2   force =     0.00006667   -0.00006796    0.10323995
     atom   46 type  2   force =    -0.07149526   -0.00008202   -0.02770429
     atom   47 type  2   force =     0.07150879    0.00033824   -0.02778280
     atom   48 type  3   force =     0.00093797   -0.00164380   -0.00124490
     atom   49 type  4   force =    -0.00153631   -0.00439742   -0.00460180
     atom   50 type  5   force =     0.00045886    0.00431922    0.00541314
     atom   51 type  5   force =    -0.00018727   -0.00029998    0.00082093

     Total force =     0.368094     Total SCF correction =     0.000311
  @ DRIVER MODE: Message from server: STATUS
  @ DRIVER MODE: Message from server: GETFORCE
  @ DRIVER MODE: Returning v,forces,stress,ensemble

     Writing output data file ./calc.save/
  @ DRIVER MODE: Message from server: EXIT
  @ DRIVE MODE: Exiting

     General routines

     Parallel routines

   This run was terminated on:  14:46:17  24Aug2021

   JOB DONE.