     Program PWSCF v.6.7GPU starts on 16Jul2021 at  3:22: 7

     R & G space division:  proc/nbgrp/npool/nimage =      16
     Reading input from /storage/home/hcoda1/3/ntian30/research/carbon/15Jul_vib/ads_slab/CH3NNH3_a/out_0021/pw.inp
Warning: card &CELL ignored
Warning: card   CELL_DYNAMICS='IPI', ignored
Warning: card / ignored

     Current dimensions of program PWSCF are:
     Max number of different atomic species (ntypx) = 10
     Max number of k-points (npk) =  40000
     Max angular momentum in pseudopotentials (lmaxx) =  3
     Presently no symmetry can be used with electric field

     Message from routine cell_base_init:
     DEPRECATED: use true lattice parameter, not A to a.u. conversion factor

     IMPORTANT: XC functional enforced from input :
     Exchange-correlation= BEEF-VDW
                           (   1   4  43  14   2   0   0)
     Any further DFT definition will be discarded
     Please, verify this is what you really want

  @ DRIVER MODE: Connecting to
 qe_1139763_2351650.sched-torque.pace.gatech.eduewdqf_a7_scratch
  using UNIX socket
  @ DRIVER MODE: Message from server: STATUS
  @ DRIVER MODE: Message from server: INIT
  @ DRIVER MODE: Receiving replica           0          -1
  @ DRIVER MODE: Receiving encoded integer          25
  @ DRIVER MODE:  SCF:  T  FORCE:  T  STRESS:  F  VC:  F  ENSEMBLE:  F
  @ DRIVER MODE:  SCF:  T  FORCE:  T  STRESS:  F  VC:  F  ENSEMBLE:  F

     Using Slab Decomposition

     bravais-lattice index     =            0
     lattice parameter (alat)  =       1.8897  a.u.
     unit-cell volume          =    6658.9804 (a.u.)^3
     number of atoms/cell      =           56
     number of atomic types    =            5
     number of electrons       =       398.00
     number of Kohn-Sham states=          209
     kinetic-energy cutoff     =      29.3995  Ry
     charge density cutoff     =     293.9946  Ry
     scf convergence threshold =      7.3E-08
     mixing beta               =       0.0500
     number of iterations used =            8  plain     mixing
     Exchange-correlation= BEEF-VDW
                           (   1   4  43  14   2   0   0)

     celldm(1)=   1.889726  celldm(2)=   0.000000  celldm(3)=   0.000000
     celldm(4)=   0.000000  celldm(5)=   0.000000  celldm(6)=   0.000000

     crystal axes: (cart. coord. in units of alat)
               a(1) = (   6.579727   0.000000   0.000000 )
               a(2) = (  -0.000775   5.961596   0.000000 )
               a(3) = (   0.000000   0.000000  25.155947 )

     reciprocal axes: (cart. coord. in units 2 pi/alat)
               b(1) = (  0.151982  0.000020  0.000000 )
               b(2) = (  0.000000  0.167740  0.000000 )
               b(3) = (  0.000000  0.000000  0.039752 )

     PseudoPot. # 1 for Ti read from file:
     /storage/coda1/p-amedford6/0/shared/rich_project_chbe-medford/medford-share/data/pseudos_module/espresso/nninc/pbe/van/Ti.UPF
     MD5 check sum: 8e4df49b7f0d34bbd5052bf3f5ea0213
     Pseudo is Ultrasoft, Zval = 12.0
     Generated by new atomic code, or converted to UPF format
     Using radial grid of  851 points,  6 beta functions with:
                l(1) =   0
                l(2) =   0
                l(3) =   1
                l(4) =   1
                l(5) =   2
                l(6) =   2
     Q(r) pseudized with  8 coefficients,  rinner =    1.000   1.000   1.000
                                                       1.000   1.000

     PseudoPot. # 2 for O  read from file:
     /storage/coda1/p-amedford6/0/shared/rich_project_chbe-medford/medford-share/data/pseudos_module/espresso/nninc/pbe/van/O.UPF
     MD5 check sum: 78c19812648e8988a0fe644b0f25305e
     Pseudo is Ultrasoft, Zval =  6.0
     Generated by new atomic code, or converted to UPF format
     Using radial grid of  737 points,  4 beta functions with:
                l(1) =   0
                l(2) =   0
                l(3) =   1
                l(4) =   1
     Q(r) pseudized with  8 coefficients,  rinner =    0.800   0.800   0.800

     PseudoPot. # 3 for N  read from file:
     /storage/coda1/p-amedford6/0/shared/rich_project_chbe-medford/medford-share/data/pseudos_module/espresso/nninc/pbe/van/N.UPF
     MD5 check sum: 90d10febe142ad51ac9d5be1deb811c4
     Pseudo is Ultrasoft, Zval =  5.0
     Generated by new atomic code, or converted to UPF format
     Using radial grid of  729 points,  4 beta functions with:
                l(1) =   0
                l(2) =   0
                l(3) =   1
                l(4) =   1
     Q(r) pseudized with  8 coefficients,  rinner =    0.800   0.800   0.800

     PseudoPot. # 4 for C  read from file:
     /storage/coda1/p-amedford6/0/shared/rich_project_chbe-medford/medford-share/data/pseudos_module/espresso/nninc/pbe/van/C.UPF
     MD5 check sum: 1a69bf6b8db32088f5b2163dbdb77a27
     Pseudo is Ultrasoft, Zval =  4.0
     Generated by new atomic code, or converted to UPF format
     Using radial grid of  721 points,  4 beta functions with:
                l(1) =   0
                l(2) =   0
                l(3) =   1
                l(4) =   1
     Q(r) pseudized with  8 coefficients,  rinner =    0.800   0.800   0.800

     PseudoPot. # 5 for H  read from file:
     /storage/coda1/p-amedford6/0/shared/rich_project_chbe-medford/medford-share/data/pseudos_module/espresso/nninc/pbe/van/H.UPF
     MD5 check sum: b5ee9d7bfd3a09ee7748110bda690ff7
     Pseudo is Ultrasoft, Zval =  1.0
     Generated by new atomic code, or converted to UPF format
     Using radial grid of  615 points,  1 beta functions with:
                l(1) =   0
     Q(r) pseudized with  8 coefficients,  rinner =    0.800

     atomic species   valence    mass     pseudopotential
        Ti1           12.00    47.86700     Ti( 1.00)
        O1             6.00    15.99900     O ( 1.00)
        N1             5.00    14.00700     N ( 1.00)
        C1             4.00    12.01100     C ( 1.00)
        H1             1.00     1.00800     H ( 1.00)

     Starting magnetic structure
     atomic species   magnetization
        Ti1          0.000
        O1           0.000
        N1           0.000
        C1           0.025
        H1           0.000

     No symmetry found

   Cartesian axes

     site n.     atom                  positions (alat units)
         1           Ti1 tau(   1) = (   0.0004258   2.9801865   6.0000000  )
         2           Ti1 tau(   2) = (   3.2906075   1.4906267   6.0002472  )
         3           O1  tau(   3) = (   0.0006271   0.0005054   7.9858123  )
         4           O1  tau(   4) = (   3.2906025   0.0005020   7.3038282  )
         5           O1  tau(   5) = (   4.5942328   1.4918067   9.2879030  )
         6           O1  tau(   6) = (   1.9868534   1.4903216   9.2879459  )
         7           Ti1 tau(   7) = (   3.2907910   2.8959150   9.1758416  )
         8           Ti1 tau(   8) = (   0.0015273   1.4827037   9.2680791  )
         9           O1  tau(   9) = (   3.3019049   5.9598586  11.2958584  )
        10           O1  tau(  10) = (   0.0116148   5.9584955  10.6183126  )
        11           O1  tau(  11) = (   1.3346742   1.4914638  12.6145280  )
        12           O1  tau(  12) = (   5.3113054   1.4894223  12.6320738  )
        13           Ti1 tau(  13) = (   6.4919192   2.9607050  12.7581921  )
        14           Ti1 tau(  14) = (   3.1808934   1.4809541  12.4628303  )
        15           O1  tau(  15) = (   0.0259758   5.9327586  14.5948705  )
        16           O1  tau(  16) = (   3.3179433   0.0111293  13.8771559  )
        17           O1  tau(  17) = (   4.5450242   1.5254396  16.0425357  )
        18           O1  tau(  18) = (   2.0945915   1.5254857  16.0466093  )
        19           Ti1 tau(  19) = (   3.3175380   3.0118254  15.6854273  )
        20           Ti1 tau(  20) = (   0.0287691   1.6153805  16.0968480  )
        21           O1  tau(  21) = (   3.2904802   0.0005063   4.7018136  )
        22           O1  tau(  22) = (   0.0272082   0.0527987  17.2096484  )
        23           O1  tau(  23) = (   1.3043587   1.4918075   6.0039043  )
        24           O1  tau(  24) = (   5.2767064   1.4903225   6.0039473  )
        25           Ti1 tau(  25) = (   0.0000382   5.9609847   6.0000000  )
        26           Ti1 tau(  26) = (   3.2902200   4.4714249   6.0002472  )
        27           O1  tau(  27) = (   0.0002396   2.9813036   7.9858123  )
        28           O1  tau(  28) = (   3.2902150   2.9813002   7.3038282  )
        29           O1  tau(  29) = (   4.5938453   4.4726049   9.2879030  )
        30           O1  tau(  30) = (   1.9864658   4.4711199   9.2879459  )
        31           Ti1 tau(  31) = (   3.2891106   5.8743827   9.1763621  )
        32           Ti1 tau(  32) = (   0.0006254   4.4649316   9.2693709  )
        33           O1  tau(  33) = (   3.3007599   2.9794320  11.2948048  )
        34           O1  tau(  34) = (   0.0092240   2.9805883  10.6323155  )
        35           O1  tau(  35) = (   1.3367187   4.4652043  12.6121808  )
        36           O1  tau(  36) = (   5.3110114   4.4536366  12.6300246  )
        37           Ti1 tau(  37) = (   6.5175235   5.9394146  12.7678677  )
        38           Ti1 tau(  38) = (   3.1810223   4.4618757  12.4682998  )
        39           O1  tau(  39) = (   0.0141956   2.9656780  14.6533049  )
        40           O1  tau(  40) = (   3.3125561   2.9946134  13.8784269  )
        41           O1  tau(  41) = (   4.5469694   4.5079638  16.0550352  )
        42           O1  tau(  42) = (   2.0896055   4.5089645  16.0567747  )
        43           Ti1 tau(  43) = (   3.3249511   0.0336637  15.6879192  )
        44           Ti1 tau(  44) = (   0.0309337   4.5948497  16.1324869  )
        45           O1  tau(  45) = (   3.2900926   2.9813045   4.7018136  )
        46           O1  tau(  46) = (   1.3039711   4.4726057   6.0039043  )
        47           O1  tau(  47) = (   5.2763189   4.4711207   6.0039473  )
        48           N1  tau(  48) = (   0.0510883   3.0100077  17.3315927  )
        49           C1  tau(  49) = (   0.2149723   3.0659314  18.7643681  )
        50           H1  tau(  50) = (   6.1109748   3.7957518  19.2115106  )
        51           H1  tau(  51) = (   0.0391147   2.0819789  19.2277120  )
        52           H1  tau(  52) = (   1.2341903   3.3897193  19.0223879  )
        53           N1  tau(  53) = (   4.7717085   1.8344328  21.5424420  )
        54           H1  tau(  54) = (   4.4711387   2.7986659  21.4441960  )
        55           H1  tau(  55) = (   4.1840297   1.2822813  20.9257432  )
        56           H1  tau(  56) = (   4.5427024   1.5537098  22.4892962  )

     number of k points=    10  Fermi-Dirac smearing, width (Ry)=  0.0073
                       cart. coord. in units 2pi/alat
        k(    1) = (   0.0000000   0.0000000   0.0000000), wk =   0.0625000
        k(    2) = (   0.0000000   0.0419351   0.0000000), wk =   0.1250000
        k(    3) = (   0.0000000  -0.0838702   0.0000000), wk =   0.0625000
        k(    4) = (   0.0379955   0.0000049   0.0000000), wk =   0.1250000
        k(    5) = (   0.0379955   0.0419400   0.0000000), wk =   0.1250000
[...]
     % Please cite the following two papers that made this development      %
     % possible and the two reviews that describe the various versions:     %
     %                                                                      %
     %   T. Thonhauser et al., PRL 115, 136402 (2015).                      %
     %   T. Thonhauser et al., PRB 76, 125112 (2007).                       %
     %   K. Berland et al., Rep. Prog. Phys. 78, 066501 (2015).             %
     %   D.C. Langreth et al., J. Phys.: Condens. Matter 21, 084203 (2009). %
     %                                                                      %
     %                                                                      %
     % If you are calculating the stress with vdW-DF, please also cite:     %
     %                                                                      %
     %   R. Sabatini et al., J. Phys.: Condens. Matter 24, 424209 (2012).   %
     %                                                                      %
     %%%%%%%%%%%%%%%%%%%%%%%%%%%%%%%%%%%%%%%%%%%%%%%%%%%%%%%%%%%%%%%%%%%%%%%%

     Adding external electric field

     Computed dipole along edir(3) :
        Dipole              -11.2917 Ry au,        -28.7007 Debye
        Dipole field         -0.0213 Ry au,

        Potential amp.        1.9753 Ry
        Total length         46.3494 bohr

[...]

     Starting wfcs are  302 atomic wfcs
  @ DRIVER MODE: Message from server: STATUS
  @ DRIVER MODE: Message from server: POSDATA
  @ DRIVER MODE: Reading and sharing cell
  @ DRIVER MODE: Reading and sharing positions
  @ DRIVER MODE: Received positions

     Self-consistent Calculation

     iteration #  1     ecut=    29.40 Ry     beta= 0.05
     Davidson diagonalization with overlap
     c_bands:  1 eigenvalues not converged
     c_bands:  1 eigenvalues not converged
     c_bands:  2 eigenvalues not converged
     c_bands:  1 eigenvalues not converged
     c_bands:  1 eigenvalues not converged
     c_bands:  1 eigenvalues not converged
     c_bands:  2 eigenvalues not converged
     c_bands:  2 eigenvalues not converged
     c_bands:  1 eigenvalues not converged
     c_bands:  1 eigenvalues not converged
     c_bands:  2 eigenvalues not converged
     c_bands:  1 eigenvalues not converged
     c_bands:  1 eigenvalues not converged
     c_bands:  1 eigenvalues not converged
     c_bands:  2 eigenvalues not converged
     c_bands:  2 eigenvalues not converged
     ethr =  1.00E-05,  avg # of iterations = 19.6

[...]

     total energy              =   -2520.83708392 Ry
     estimated scf accuracy    <    4704.48770313 Ry

     total magnetization       =     0.00 Bohr mag/cell
     absolute magnetization    =     0.01 Bohr mag/cell

     iteration #  2     ecut=    29.40 Ry     beta= 0.05
     Davidson diagonalization with overlap
     ethr =  1.00E-02,  avg # of iterations = 21.8

[...]

     iteration # 55     ecut=    29.40 Ry     beta= 0.05
     Davidson diagonalization with overlap
     c_bands:  1 eigenvalues not converged
     c_bands:  2 eigenvalues not converged
     ethr =  7.27E-07,  avg # of iterations = 10.6

[...]

     total energy              =   -2942.90769759 Ry
     estimated scf accuracy    <       0.00000009 Ry

[...]

     iteration # 87     ecut=    29.40 Ry     beta= 0.05
     Davidson diagonalization with overlap
     ethr =  2.25E-11,  avg # of iterations =  5.4

     negative rho (up, down):  5.679E-03 5.679E-03

[...]

     Adding external electric field

     Computed dipole along edir(3) :
        Dipole                0.4175 Ry au,          1.0611 Debye
        Dipole field          0.0008 Ry au,

        Potential amp.       -0.0730 Ry
        Total length         46.3494 bohr

     Magnetic moment per site  (integrated on atomic sphere of radius R)
     atom   1 (R=0.735)  charge=  8.0053  magn=  0.0005
     atom   2 (R=0.735)  charge=  8.0011  magn= -0.0001
     atom   3 (R=0.735)  charge=  4.9958  magn= -0.0001
     atom   4 (R=0.735)  charge=  5.0345  magn=  0.0000
     atom   5 (R=0.735)  charge=  4.9982  magn=  0.0000
     atom   6 (R=0.735)  charge=  4.9994  magn= -0.0000
     atom   7 (R=0.735)  charge=  7.9947  magn= -0.0000
     atom   8 (R=0.735)  charge=  7.9823  magn=  0.0000
     atom   9 (R=0.735)  charge=  5.0128  magn=  0.0001
     atom  10 (R=0.735)  charge=  4.9434  magn=  0.0000
     atom  11 (R=0.735)  charge=  4.9999  magn=  0.0000
     atom  12 (R=0.735)  charge=  5.0035  magn=  0.0000
     atom  13 (R=0.735)  charge=  7.9933  magn= -0.0000
     atom  14 (R=0.735)  charge=  8.0007  magn= -0.0001
     atom  15 (R=0.735)  charge=  4.9894  magn=  0.0000
     atom  16 (R=0.735)  charge=  5.0146  magn=  0.0000
     atom  17 (R=0.735)  charge=  4.9900  magn=  0.0000
     atom  18 (R=0.735)  charge=  4.9888  magn=  0.0000
     atom  19 (R=0.735)  charge=  8.0209  magn= -0.0000
     atom  20 (R=0.735)  charge=  8.0242  magn= -0.0001
     atom  21 (R=0.735)  charge=  4.8827  magn=  0.0002
     atom  22 (R=0.735)  charge=  4.9720  magn=  0.0000
     atom  23 (R=0.735)  charge=  4.9884  magn= -0.0002
     atom  24 (R=0.735)  charge=  4.9885  magn= -0.0002
     atom  25 (R=0.735)  charge=  8.0053  magn=  0.0004
     atom  26 (R=0.735)  charge=  8.0011  magn= -0.0001
     atom  27 (R=0.735)  charge=  4.9957  magn= -0.0001
     atom  28 (R=0.735)  charge=  5.0347  magn=  0.0000
     atom  29 (R=0.735)  charge=  4.9989  magn= -0.0000
     atom  30 (R=0.735)  charge=  5.0001  magn= -0.0000
     atom  31 (R=0.735)  charge=  7.9948  magn= -0.0000
     atom  32 (R=0.735)  charge=  7.9826  magn=  0.0000
     atom  33 (R=0.735)  charge=  5.0125  magn=  0.0001
     atom  34 (R=0.735)  charge=  4.9424  magn=  0.0000
     atom  35 (R=0.735)  charge=  5.0005  magn=  0.0000
     atom  36 (R=0.735)  charge=  5.0043  magn=  0.0000
     atom  37 (R=0.735)  charge=  7.9990  magn= -0.0000
     atom  38 (R=0.735)  charge=  8.0004  magn= -0.0001
     atom  39 (R=0.735)  charge=  4.9853  magn=  0.0000
     atom  40 (R=0.735)  charge=  5.0160  magn=  0.0000
     atom  41 (R=0.735)  charge=  4.9884  magn=  0.0000
     atom  42 (R=0.735)  charge=  4.9879  magn=  0.0000
     atom  43 (R=0.735)  charge=  8.0214  magn= -0.0000
     atom  44 (R=0.735)  charge=  8.0216  magn= -0.0001
     atom  45 (R=0.735)  charge=  4.8827  magn=  0.0002
     atom  46 (R=0.735)  charge=  4.9884  magn= -0.0002
     atom  47 (R=0.735)  charge=  4.9885  magn= -0.0002
     atom  48 (R=0.418)  charge=  1.3137  magn=  0.0001
     atom  49 (R=0.452)  charge=  0.8575  magn=  0.0000
     atom  50 (R=0.418)  charge=  0.4371  magn= -0.0000
     atom  51 (R=0.418)  charge=  0.4334  magn= -0.0000
     atom  52 (R=0.418)  charge=  0.4339  magn=  0.0000
     atom  53 (R=0.418)  charge=  1.3299  magn=  0.0000
     atom  54 (R=0.418)  charge=  0.4522  magn= -0.0000
     atom  55 (R=0.418)  charge=  0.4511  magn= -0.0000
     atom  56 (R=0.418)  charge=  0.4538  magn= -0.0000

     End of self-consistent calculation

 ------ SPIN UP ------------

          k = 0.0000 0.0000 0.0000 ( 18029 PWs)   bands (ev):

   -56.6324 -56.5987 -55.7563 -55.7444 -55.7214 -55.7115 -55.6107 -55.5754
   -55.3935 -55.3577 -55.2970 -55.2917 -55.2630 -55.1939 -54.7283 -54.6166
   -33.0598 -32.9071 -32.8789 -32.8081 -32.7170 -32.6858 -32.2270 -32.2208
   -32.1534 -32.0403 -31.9942 -31.9699 -31.9515 -31.9302 -31.8966 -31.8922
   -31.8908 -31.8853 -31.8597 -31.8573 -31.8457 -31.8182 -31.7935 -31.7785
   -31.7655 -31.7470 -31.7378 -31.7132 -31.6891 -31.6352 -31.6242 -31.6111
   -31.5345 -31.5317 -31.5077 -31.4674 -31.4595 -31.4242 -31.4220 -31.3976
   -31.3751 -31.3134 -31.2340 -30.9741 -30.9587 -30.8758 -30.8385 -30.7484
   -16.7962 -16.3645 -16.1339 -15.9941 -15.9288 -15.8723 -15.8296 -15.7044
   -15.6364 -15.6281 -15.5861 -15.5587 -15.4872 -15.3474 -15.2488 -15.1963
   -15.1518 -15.0313 -14.9701 -14.9378 -14.9274 -14.8847 -14.8750 -14.6811
   -14.6581 -14.5643 -14.5431 -14.4224 -14.1879 -13.7958 -13.7005 -13.6857
   -12.7982  -7.4795  -4.3617  -3.8603  -3.7672  -3.7426  -3.6218  -3.5353
    -3.4282  -3.4141  -3.3277  -3.2130  -3.1688  -3.1211  -3.0047  -3.0034
    -2.8552  -2.8083  -2.8073  -2.8031  -2.7530  -2.6970  -2.6728  -2.6415
    -2.6328  -2.5907  -2.4762  -2.3802  -2.3076  -2.2855  -2.2797  -2.2438
    -2.1680  -2.1387  -2.1305  -2.1269  -2.0196  -1.8741  -1.8679  -1.8448
    -1.8029  -1.7975  -1.7547  -1.7419  -1.6235  -1.5334  -1.4305  -1.4147
    -1.3707  -1.3143  -1.3065  -1.2168  -1.1387  -1.0477  -1.0466  -0.9366
    -0.8896  -0.8726  -0.7825  -0.7226  -0.6833  -0.6572  -0.6447  -0.5445
    -0.5217  -0.5120  -0.4279  -0.4160  -0.3669  -0.2778  -0.2550  -0.2463
    -0.1641  -0.1614  -0.0659  -0.0243   0.0157   0.0510   0.1670   0.1841
     0.2829   0.3112   0.3396   0.4516   0.4677   0.5334   0.6076   0.6702
     0.6983   0.7243   0.7538   0.7731   0.8477   0.9596   0.9686   1.0708
     1.1031   1.2770   1.3160   1.3928   1.6020   1.6378   2.3043   2.6424
     2.8013   3.1001   3.2883   3.4014   3.6167   3.6329   3.6380   3.8078
     3.8602

[...]

          k =-0.0760-0.0000 0.0000 ( 17886 PWs)   bands (ev):

[...]

 ------ SPIN DOWN ----------

[...]

          k = 0.0380-0.0419 0.0000 ( 17876 PWs)   bands (ev):

[...]

          k =-0.0760-0.0839 0.0000 ( 17948 PWs)   bands (ev):

   -56.6139 -56.6137 -55.7412 -55.7353 -55.7287 -55.7282 -55.5937 -55.5929
   -55.3798 -55.3714 -55.2885 -55.2803 -55.2803 -55.1971 -54.7256 -54.6195
   -32.8909 -32.8908 -32.8757 -32.8756 -32.7593 -32.7591 -32.0569 -32.0546
   -32.0453 -32.0387 -31.9857 -31.9847 -31.9421 -31.9417 -31.9396 -31.9384
   -31.9306 -31.9277 -31.9255 -31.9239 -31.8463 -31.8442 -31.7952 -31.7924
   -31.7305 -31.7202 -31.6614 -31.6534 -31.6244 -31.6244 -31.6177 -31.5782
   -31.5739 -31.5460 -31.5118 -31.5057 -31.5057 -31.4666 -31.4665 -31.4628
   -31.4395 -31.4000 -31.1143 -30.9939 -30.9584 -30.9279 -30.8411 -30.8039
   -16.1453 -16.1433 -16.1104 -16.1101 -15.8417 -15.8381 -15.7954 -15.7929
   -15.6192 -15.6130 -15.4065 -15.3978 -15.3911 -15.3897 -15.2617 -15.2559
   -15.1904 -15.1800 -15.0908 -15.0817 -15.0251 -15.0186 -14.9762 -14.9552
   -14.6450 -14.6357 -14.5149 -14.4976 -14.3316 -13.7885 -13.7884 -13.6996
   -12.8139  -7.4691  -3.7744  -3.7507  -3.2441  -3.2438  -3.1802  -3.1791
    -3.0578  -3.0538  -2.9746  -2.9740  -2.8762  -2.8749  -2.7541  -2.7321
    -2.7292  -2.7267  -2.7074  -2.6628  -2.5757  -2.5707  -2.5615  -2.5476
    -2.4893  -2.4873  -2.4616  -2.3989  -2.3851  -2.3541  -2.3164  -2.2023
    -2.1920  -2.1796  -2.1482  -2.0841  -2.0777  -2.0648  -2.0223  -1.9896
    -1.9126  -1.8392  -1.8024  -1.6889  -1.6843  -1.6723  -1.6605  -1.5069
    -1.4667  -1.4361  -1.4290  -1.4229  -1.3751  -1.2801  -1.2726  -1.1407
    -1.1390  -1.0650  -0.9832  -0.9622  -0.9337  -0.8051  -0.7611  -0.7265
    -0.7188  -0.6908  -0.6708  -0.6489  -0.6050  -0.4696  -0.4578  -0.4190
    -0.3845  -0.3624  -0.3280  -0.2705  -0.1845  -0.1059  -0.1055  -0.0505
     0.0183   0.0783   0.1659   0.1756   0.1814   0.4620   0.5407   0.6303
     0.7060   0.7720   0.8356   0.8668   0.9218   0.9668   1.1032   1.1065
     1.1259   1.1263   1.1852   1.1890   1.3757   1.6436   2.1951   3.2161
     3.2165   3.2837   3.2842   3.6074   3.6131   3.7212   3.7305   3.8370
     3.8419

     the Fermi energy is     2.4834 ev

!    total energy              =   -2942.90770720 Ry
     estimated scf accuracy    <       0.00000005 Ry
     smearing contrib. (-TS)   =      -0.00487994 Ry
     internal energy E=F+TS    =   -2942.90282726 Ry

     The total energy is F=E-TS. E is the sum of the following terms:
     one-electron contribution =  -23242.32265803 Ry
     hartree contribution      =   11711.36188500 Ry
     xc contribution           =    -487.46613361 Ry
     ewald contribution        =    9075.52375053 Ry
     electric field correction =       0.00032886 Ry

     total magnetization       =     0.00 Bohr mag/cell
     absolute magnetization    =     0.01 Bohr mag/cell

     convergence has been achieved in  87 iterations

     Forces acting on atoms (cartesian axes, Ry/au):

     atom    1 type  1   force =     0.00003924   -0.00040457    0.12405883
     atom    2 type  1   force =    -0.00010393   -0.00057424   -0.16066179
     atom    3 type  2   force =     0.00023432   -0.00026785   -0.06798141
     atom    4 type  2   force =     0.00001290   -0.00029352    0.02758938
     atom    5 type  2   force =    -0.01615344    0.00175466   -0.00936258
     atom    6 type  2   force =     0.01818543    0.00219265   -0.00898369
     atom    7 type  1   force =     0.00115218   -0.00378073    0.02170454
     atom    8 type  1   force =    -0.00057728   -0.00290713    0.11107723
     atom    9 type  2   force =    -0.00018293    0.00030782   -0.00044652
     atom   10 type  2   force =    -0.00196013    0.00129213   -0.07321917
     atom   11 type  2   force =     0.00021938   -0.00010808    0.00017538
     atom   12 type  2   force =    -0.00025721    0.00022140    0.00021172
     atom   13 type  1   force =    -0.00008800    0.00008534   -0.00043805
     atom   14 type  1   force =    -0.00058252    0.00045063    0.00040051
     atom   15 type  2   force =     0.00027725    0.00000626    0.00018254
     atom   16 type  2   force =    -0.00048984   -0.00036812    0.00056782
     atom   17 type  2   force =    -0.00059798    0.00024453    0.00009033
     atom   18 type  2   force =     0.00003035    0.00024423    0.00008844
     atom   19 type  1   force =     0.00038061   -0.00056509   -0.00000704
     atom   20 type  1   force =    -0.00009661    0.00010607    0.00008712
     atom   21 type  2   force =     0.00004871   -0.00000702    0.09971880
     atom   22 type  2   force =     0.00026672   -0.00001837   -0.00036103
     atom   23 type  2   force =    -0.07915494    0.00000119   -0.03242750
     atom   24 type  2   force =     0.07903938    0.00043794   -0.03245346
     atom   25 type  1   force =     0.00002019   -0.00041018    0.12357976
     atom   26 type  1   force =    -0.00009904   -0.00046861   -0.16079952
     atom   27 type  2   force =     0.00032952   -0.00048313   -0.06703036
     atom   28 type  2   force =     0.00002768   -0.00012066    0.02731845
     atom   29 type  2   force =    -0.01662904    0.00127824   -0.00946756
     atom   30 type  2   force =     0.01855853    0.00165570   -0.00910198
     atom   31 type  1   force =     0.00116792   -0.00138634    0.02113512
     atom   32 type  1   force =    -0.00053326    0.00034817    0.11172433
     atom   33 type  2   force =    -0.00016339   -0.00024892    0.00007829
     atom   34 type  2   force =    -0.00132699    0.00066790   -0.07267368
     atom   35 type  2   force =    -0.00078941   -0.00043036   -0.00001955
     atom   36 type  2   force =     0.00010854   -0.00001894    0.00011544
     atom   37 type  1   force =     0.00007467    0.00063718    0.00019946
     atom   38 type  1   force =    -0.00021452    0.00002979   -0.00017388
     atom   39 type  2   force =     0.00013003   -0.00018255    0.00090270
     atom   40 type  2   force =    -0.00018180   -0.00046505    0.00032883
     atom   41 type  2   force =     0.00007617   -0.00008963    0.00006027
     atom   42 type  2   force =     0.00040045    0.00001803    0.00002387
     atom   43 type  1   force =    -0.00023337   -0.00011726    0.00006836
     atom   44 type  1   force =    -0.00027092    0.00049936    0.00004560
     atom   45 type  2   force =     0.00002496   -0.00003063    0.09974036
     atom   46 type  2   force =    -0.07915958    0.00005494   -0.03243085
     atom   47 type  2   force =     0.07903831    0.00047816   -0.03244660
     atom   48 type  3   force =     0.00096275    0.00097964   -0.00122971
     atom   49 type  4   force =    -0.00126227   -0.00972705    0.00315152
     atom   50 type  5   force =    -0.00024495    0.00009542    0.00107381
     atom   51 type  5   force =     0.00177295    0.01043077   -0.00366783
     atom   52 type  5   force =    -0.00030524   -0.00053093    0.00009109
     atom   53 type  3   force =     0.00002534   -0.00089819   -0.00005769
     atom   54 type  5   force =    -0.00001464    0.00020341   -0.00055229
     atom   55 type  5   force =     0.00015021    0.00032284   -0.00082865
     atom   56 type  5   force =    -0.00108144   -0.00014126    0.00123248

     Total force =     0.424632     Total SCF correction =     0.000308
  @ DRIVER MODE: Message from server: STATUS
  @ DRIVER MODE: Message from server: GETFORCE
  @ DRIVER MODE: Returning v,forces,stress,ensemble

     Writing output data file ./calc.save/
  @ DRIVER MODE: Message from server: EXIT
  @ DRIVE MODE: Exiting

     General routines

     Parallel routines

   This run was terminated on:   4: 0:49  16Jul2021

   JOB DONE.