     Program PWSCF v.6.7GPU starts on 16Sep2021 at 10:46:11

     R & G space division:  proc/nbgrp/npool/nimage =      10
     Reading input from /storage/home/hcoda1/3/ntian30/research/carbon/CxH_vib/H2O_calc/ads_slab/CH3NHNHH2O_a/out_0056/pw.inp
Warning: card &CELL ignored
Warning: card   CELL_DYNAMICS='IPI', ignored
Warning: card / ignored

     Current dimensions of program PWSCF are:
     Max number of different atomic species (ntypx) = 10
     Max number of k-points (npk) =  40000
     Max angular momentum in pseudopotentials (lmaxx) =  3
     Presently no symmetry can be used with electric field

     Message from routine cell_base_init:
     DEPRECATED: use true lattice parameter, not A to a.u. conversion factor

     IMPORTANT: XC functional enforced from input :
     Exchange-correlation= BEEF-VDW
                           (   1   4  43  14   2   0   0)
     Any further DFT definition will be discarded
     Please, verify this is what you really want

  @ DRIVER MODE: Connecting to
 qe_1139763_2852620.sched-torque.pace.gatech.eduwza29xvs_scratch
  using UNIX socket
  @ DRIVER MODE: Message from server: STATUS
  @ DRIVER MODE: Message from server: INIT
  @ DRIVER MODE: Receiving replica           0          -1
  @ DRIVER MODE: Receiving encoded integer          25
  @ DRIVER MODE:  SCF:  T  FORCE:  T  STRESS:  F  VC:  F  ENSEMBLE:  F
  @ DRIVER MODE:  SCF:  T  FORCE:  T  STRESS:  F  VC:  F  ENSEMBLE:  F

     Using Slab Decomposition

     bravais-lattice index     =            0
     lattice parameter (alat)  =       1.8897  a.u.
     unit-cell volume          =    6658.9804 (a.u.)^3
     number of atoms/cell      =           58
     number of atomic types    =            5
     number of electrons       =       405.00
     number of Kohn-Sham states=          212
     kinetic-energy cutoff     =      29.3995  Ry
     charge density cutoff     =     293.9946  Ry
     scf convergence threshold =      7.3E-08
     mixing beta               =       0.0500
     number of iterations used =            8  plain     mixing
     Exchange-correlation= BEEF-VDW
                           (   1   4  43  14   2   0   0)

     celldm(1)=   1.889726  celldm(2)=   0.000000  celldm(3)=   0.000000
     celldm(4)=   0.000000  celldm(5)=   0.000000  celldm(6)=   0.000000

     crystal axes: (cart. coord. in units of alat)
               a(1) = (   6.579727   0.000000   0.000000 )
               a(2) = (  -0.000775   5.961596   0.000000 )
               a(3) = (   0.000000   0.000000  25.155947 )

     reciprocal axes: (cart. coord. in units 2 pi/alat)
               b(1) = (  0.151982  0.000020  0.000000 )
               b(2) = (  0.000000  0.167740  0.000000 )
               b(3) = (  0.000000  0.000000  0.039752 )

     PseudoPot. # 1 for Ti read from file:
     /storage/coda1/p-amedford6/0/shared/rich_project_chbe-medford/medford-share/data/pseudos_module/espresso/nninc/pbe/van/Ti.UPF
     MD5 check sum: 8e4df49b7f0d34bbd5052bf3f5ea0213
     Pseudo is Ultrasoft, Zval = 12.0
     Generated by new atomic code, or converted to UPF format
     Using radial grid of  851 points,  6 beta functions with:
                l(1) =   0
                l(2) =   0
                l(3) =   1
                l(4) =   1
                l(5) =   2
                l(6) =   2
     Q(r) pseudized with  8 coefficients,  rinner =    1.000   1.000   1.000
                                                       1.000   1.000

     PseudoPot. # 2 for O  read from file:
     /storage/coda1/p-amedford6/0/shared/rich_project_chbe-medford/medford-share/data/pseudos_module/espresso/nninc/pbe/van/O.UPF
     MD5 check sum: 78c19812648e8988a0fe644b0f25305e
     Pseudo is Ultrasoft, Zval =  6.0
     Generated by new atomic code, or converted to UPF format
     Using radial grid of  737 points,  4 beta functions with:
                l(1) =   0
                l(2) =   0
                l(3) =   1
                l(4) =   1
     Q(r) pseudized with  8 coefficients,  rinner =    0.800   0.800   0.800

     PseudoPot. # 3 for N  read from file:
     /storage/coda1/p-amedford6/0/shared/rich_project_chbe-medford/medford-share/data/pseudos_module/espresso/nninc/pbe/van/N.UPF
     MD5 check sum: 90d10febe142ad51ac9d5be1deb811c4
     Pseudo is Ultrasoft, Zval =  5.0
     Generated by new atomic code, or converted to UPF format
     Using radial grid of  729 points,  4 beta functions with:
                l(1) =   0
                l(2) =   0
                l(3) =   1
                l(4) =   1
     Q(r) pseudized with  8 coefficients,  rinner =    0.800   0.800   0.800

     PseudoPot. # 4 for C  read from file:
     /storage/coda1/p-amedford6/0/shared/rich_project_chbe-medford/medford-share/data/pseudos_module/espresso/nninc/pbe/van/C.UPF
     MD5 check sum: 1a69bf6b8db32088f5b2163dbdb77a27
     Pseudo is Ultrasoft, Zval =  4.0
     Generated by new atomic code, or converted to UPF format
     Using radial grid of  721 points,  4 beta functions with:
                l(1) =   0
                l(2) =   0
                l(3) =   1
                l(4) =   1
     Q(r) pseudized with  8 coefficients,  rinner =    0.800   0.800   0.800

     PseudoPot. # 5 for H  read from file:
     /storage/coda1/p-amedford6/0/shared/rich_project_chbe-medford/medford-share/data/pseudos_module/espresso/nninc/pbe/van/H.UPF
     MD5 check sum: b5ee9d7bfd3a09ee7748110bda690ff7
     Pseudo is Ultrasoft, Zval =  1.0
     Generated by new atomic code, or converted to UPF format
     Using radial grid of  615 points,  1 beta functions with:
                l(1) =   0
     Q(r) pseudized with  8 coefficients,  rinner =    0.800

     atomic species   valence    mass     pseudopotential
        Ti1           12.00    47.86700     Ti( 1.00)
        O1             6.00    15.99900     O ( 1.00)
        N1             5.00    14.00700     N ( 1.00)
        C1             4.00    12.01100     C ( 1.00)
        H1             1.00     1.00800     H ( 1.00)

     No symmetry found

   Cartesian axes

     site n.     atom                  positions (alat units)
         1           Ti1 tau(   1) = (   0.0004258   2.9801865   6.0000000  )
         2           Ti1 tau(   2) = (   3.2906075   1.4906267   6.0002472  )
         3           O1  tau(   3) = (   0.0006271   0.0005054   7.9858123  )
         4           O1  tau(   4) = (   3.2906025   0.0005020   7.3038282  )
         5           O1  tau(   5) = (   4.5942328   1.4918067   9.2879030  )
         6           O1  tau(   6) = (   1.9868534   1.4903216   9.2879459  )
         7           Ti1 tau(   7) = (   3.2907910   2.8959150   9.1758416  )
         8           Ti1 tau(   8) = (   0.0015273   1.4827037   9.2680791  )
         9           O1  tau(   9) = (   3.2925356   5.9605122  11.3387169  )
        10           O1  tau(  10) = (   0.0116148   5.9584955  10.6183126  )
        11           O1  tau(  11) = (   1.2897729   1.4809555  12.6268520  )
        12           O1  tau(  12) = (   5.2791511   1.4810064  12.6173870  )
        13           Ti1 tau(  13) = (   0.0595640   3.0140846  12.5912772  )
        14           Ti1 tau(  14) = (   3.3761946   1.4800080  12.4968112  )
        15           O1  tau(  15) = (   6.5629824   0.0009262  14.6613707  )
        16           O1  tau(  16) = (   3.3123588   5.9604043  13.9421911  )
        17           O1  tau(  17) = (   4.5376415   1.5680301  16.0260299  )
        18           O1  tau(  18) = (   2.0142527   1.4857506  15.9764776  )
        19           Ti1 tau(  19) = (   3.2467940   3.0138708  15.6952036  )
        20           Ti1 tau(  20) = (   6.5376764   1.5432071  15.7832198  )
        21           O1  tau(  21) = (   3.2904802   0.0005063   4.7018136  )
        22           O1  tau(  22) = (   6.4898080   0.0110182  17.2547379  )
        23           O1  tau(  23) = (   1.3043587   1.4918075   6.0039043  )
        24           O1  tau(  24) = (   5.2767064   1.4903225   6.0039473  )
        25           Ti1 tau(  25) = (   0.0000382   5.9609847   6.0000000  )
        26           Ti1 tau(  26) = (   3.2902200   4.4714249   6.0002472  )
        27           O1  tau(  27) = (   0.0002396   2.9813036   7.9858123  )
        28           O1  tau(  28) = (   3.2902150   2.9813002   7.3038282  )
        29           O1  tau(  29) = (   4.5938453   4.4726049   9.2879030  )
        30           O1  tau(  30) = (   1.9864658   4.4711199   9.2879459  )
        31           Ti1 tau(  31) = (   3.2891106   5.8743827   9.1763621  )
        32           Ti1 tau(  32) = (   0.0006254   4.4649316   9.2693709  )
        33           O1  tau(  33) = (   3.2967638   2.9790471  11.3409087  )
        34           O1  tau(  34) = (   0.0092240   2.9805883  10.6323155  )
        35           O1  tau(  35) = (   1.2869154   4.4778632  12.6304858  )
        36           O1  tau(  36) = (   5.2845859   4.4648683  12.6187650  )
        37           Ti1 tau(  37) = (   0.0627082   0.0241251  12.5486904  )
        38           Ti1 tau(  38) = (   3.3788516   4.4738568  12.4976958  )
        39           O1  tau(  39) = (   6.5772583   2.9562949  14.6416036  )
        40           O1  tau(  40) = (   3.2725681   2.9944745  13.9013672  )
        41           O1  tau(  41) = (   4.5452577   4.4055011  16.0651929  )
        42           O1  tau(  42) = (   2.0228361   4.5129635  16.0417754  )
        43           Ti1 tau(  43) = (   3.2583029   0.0391736  15.7773877  )
        44           Ti1 tau(  44) = (   6.5476622   4.6515957  16.1089089  )
        45           O1  tau(  45) = (   3.2900926   2.9813045   4.7018136  )
        46           O1  tau(  46) = (   1.3039711   4.4726057   6.0039043  )
        47           O1  tau(  47) = (   5.2763189   4.4711207   6.0039473  )
        48           N1  tau(  48) = (   1.2275869   2.8250850  18.3327965  )
        49           N1  tau(  49) = (   0.1007212   2.9268546  17.4424539  )
        50           C1  tau(  50) = (   0.9834745   3.5098297  19.5973225  )
        51           H1  tau(  51) = (   0.0800711   3.1483545  20.1177682  )
        52           H1  tau(  52) = (   1.8428167   3.3484677  20.2521386  )
        53           H1  tau(  53) = (   0.8645268   4.5787652  19.4145101  )
        54           H1  tau(  54) = (   1.4038961   1.8348574  18.5000659  )
        55           H1  tau(  55) = (   5.8167727   2.7947134  17.9807349  )
        56           O1  tau(  56) = (   3.6251350   0.0523402  18.1652986  )
        57           H1  tau(  57) = (   4.6163402   0.0342754  18.1216558  )
        58           H1  tau(  58) = (   3.3562690   5.1322054  18.4688733  )

     number of k points=    10  Fermi-Dirac smearing, width (Ry)=  0.0073
                       cart. coord. in units 2pi/alat
        k(    1) = (   0.0000000   0.0000000   0.0000000), wk =   0.1250000
        k(    2) = (   0.0000000   0.0419351   0.0000000), wk =   0.2500000
        k(    3) = (   0.0000000  -0.0838702   0.0000000), wk =   0.1250000
        k(    4) = (   0.0379955   0.0000049   0.0000000), wk =   0.2500000
        k(    5) = (   0.0379955   0.0419400   0.0000000), wk =   0.2500000
        k(    6) = (   0.0379955  -0.0838652   0.0000000), wk =   0.2500000
        k(    7) = (   0.0379955  -0.0419301   0.0000000), wk =   0.2500000
        k(    8) = (  -0.0759910  -0.0000099   0.0000000), wk =   0.1250000
        k(    9) = (  -0.0759910   0.0419252   0.0000000), wk =   0.2500000
        k(   10) = (  -0.0759910  -0.0838800   0.0000000), wk =   0.1250000

     Initial potential from superposition of free atoms

     starting charge  388.99913, renormalised to  405.00000

     negative rho (up, down):  1.444E-02 0.000E+00

     %%%%%%%%%%%%%%%%%%%%%%%%%%%%%%%%%%%%%%%%%%%%%%%%%%%%%%%%%%%%%%%%%%%%%%%%
     %                                                                      %
     % You are using vdW-DF, which was implemented by the Thonhauser group. %
     % Please cite the following two papers that made this development      %
     % possible and the two reviews that describe the various versions:     %
     %                                                                      %
     %   T. Thonhauser et al., PRL 115, 136402 (2015).                      %
     %   T. Thonhauser et al., PRB 76, 125112 (2007).                       %
     %   K. Berland et al., Rep. Prog. Phys. 78, 066501 (2015).             %
     %   D.C. Langreth et al., J. Phys.: Condens. Matter 21, 084203 (2009). %
     %                                                                      %
     %                                                                      %
     % If you are calculating the stress with vdW-DF, please also cite:     %
     %                                                                      %
     %   R. Sabatini et al., J. Phys.: Condens. Matter 24, 424209 (2012).   %
     %                                                                      %
     %%%%%%%%%%%%%%%%%%%%%%%%%%%%%%%%%%%%%%%%%%%%%%%%%%%%%%%%%%%%%%%%%%%%%%%%

     Adding external electric field

     Computed dipole along edir(3) :
        Dipole              -14.1501 Ry au,        -35.9660 Debye
        Dipole field         -0.0267 Ry au,

        Potential amp.        2.4753 Ry
        Total length         46.3494 bohr

     Starting wfcs are  307 atomic wfcs
  @ DRIVER MODE: Message from server: STATUS
  @ DRIVER MODE: Message from server: POSDATA
  @ DRIVER MODE: Reading and sharing cell
  @ DRIVER MODE: Reading and sharing positions
  @ DRIVER MODE: Received positions

     Self-consistent Calculation

     iteration #  1     ecut=    29.40 Ry     beta= 0.05
     Davidson diagonalization with overlap
     c_bands:  5 eigenvalues not converged
     c_bands:  1 eigenvalues not converged
     c_bands:  1 eigenvalues not converged
     c_bands:  3 eigenvalues not converged
     c_bands:  2 eigenvalues not converged
     ethr =  1.00E-05,  avg # of iterations = 29.5

[...]

     total energy              =   -2231.16223337 Ry
     estimated scf accuracy    <    8457.68068355 Ry

     iteration #  2     ecut=    29.40 Ry     beta= 0.05
     Davidson diagonalization with overlap
     ethr =  1.00E-02,  avg # of iterations = 27.9

[...]

     iteration # 48     ecut=    29.40 Ry     beta= 0.05
     Davidson diagonalization with overlap
     c_bands:  1 eigenvalues not converged
     ethr =  4.54E-07,  avg # of iterations = 13.0

[...]

     total energy              =   -2976.50542195 Ry
     estimated scf accuracy    <       0.00000010 Ry

     iteration # 74     ecut=    29.40 Ry     beta= 0.05
     Davidson diagonalization with overlap
     ethr =  2.40E-11,  avg # of iterations =  8.3

     negative rho (up, down):  1.504E-02 0.000E+00

     Adding external electric field

     Computed dipole along edir(3) :
        Dipole                0.9837 Ry au,          2.5002 Debye
        Dipole field          0.0019 Ry au,

        Potential amp.       -0.1721 Ry
        Total length         46.3494 bohr

     End of self-consistent calculation

          k = 0.0000 0.0000 0.0000 ( 18029 PWs)   bands (ev):

   -55.5116 -55.4812 -55.4775 -55.4474 -55.4451 -55.3601 -55.3292 -55.3270
   -55.3250 -55.2953 -55.2942 -55.2605 -55.0524 -54.8901 -54.4945 -54.4604
   -32.0255 -31.9953 -31.8835 -31.8613 -31.8273 -31.8041 -31.7854 -31.7844
   -31.7561 -31.7128 -31.7006 -31.6813 -31.6780 -31.6638 -31.6582 -31.6364
   -31.6171 -31.6120 -31.6107 -31.5786 -31.5687 -31.5599 -31.5347 -31.5222
   -31.5194 -31.5171 -31.5145 -31.5088 -31.4937 -31.4863 -31.4820 -31.4728
   -31.4704 -31.4588 -31.4476 -31.4383 -31.4065 -31.3080 -31.2630 -31.1531
   -31.1449 -31.0801 -30.9017 -30.8130 -30.7906 -30.7185 -30.6320 -30.5209
   -18.6593 -16.5584 -16.2218 -15.9845 -15.7620 -15.6689 -15.6268 -15.4297
   -15.3355 -15.2508 -15.1305 -15.0791 -15.0536 -15.0459 -15.0325 -15.0080
   -14.9727 -14.9662 -14.9637 -14.9394 -14.9200 -14.8688 -14.8634 -14.8560
   -14.7629 -14.6981 -14.6637 -14.6508 -14.6409 -14.5753 -14.2082 -12.9967
   -12.8802 -11.6404  -8.8689  -6.4033  -5.1554  -4.2804  -3.6991  -3.5961
    -3.4683  -3.4204  -3.3708  -3.3443  -3.1521  -3.0855  -2.9375  -2.7726
    -2.6989  -2.6601  -2.6271  -2.5919  -2.5565  -2.4347  -2.4096  -2.3348
    -2.3204  -2.3091  -2.2769  -2.2673  -2.2523  -2.2324  -2.1581  -2.1490
    -2.0635  -1.9510  -1.9015  -1.8863  -1.8682  -1.8268  -1.7882  -1.7759
    -1.7629  -1.7443  -1.7314  -1.6930  -1.5771  -1.5277  -1.4451  -1.3678
    -1.2961  -1.2098  -1.1328  -1.1048  -1.0361  -1.0104  -0.9519  -0.9274
    -0.9132  -0.9070  -0.7898  -0.6818  -0.6637  -0.5936  -0.5328  -0.4559
    -0.4130  -0.3867  -0.3150  -0.2843  -0.2736  -0.2595  -0.2336  -0.2182
    -0.1639  -0.0154   0.0615   0.0801   0.1389   0.1797   0.2309   0.2563
     0.2835   0.3326   0.3633   0.4035   0.4530   0.4567   0.4687   0.4930
     0.5071   0.6655   0.7212   0.7542   0.7798   0.8288   0.9393   0.9841
     1.1378   1.2063   1.2712   1.4540   1.5279   1.6088   1.7196   2.0661
     2.0993   2.1452   3.6140   3.7063   3.7473   3.7687   3.8558   3.8581
     4.0691   4.1138   4.1219   4.1885

[...]

          k = 0.0380-0.0419 0.0000 ( 17876 PWs)   bands (ev):

[...]

          k =-0.0760-0.0000 0.0000 ( 17886 PWs)   bands (ev):

[...]

          k =-0.0760-0.0839 0.0000 ( 17948 PWs)   bands (ev):

   -55.4947 -55.4942 -55.4653 -55.4609 -55.4447 -55.3458 -55.3393 -55.3294
   -55.3123 -55.3117 -55.2785 -55.2764 -55.0509 -54.8915 -54.4775 -54.4773
   -31.8389 -31.8222 -31.8107 -31.8104 -31.7897 -31.7892 -31.7488 -31.7412
   -31.7336 -31.7059 -31.6949 -31.6753 -31.6596 -31.6581 -31.6331 -31.6306
   -31.6285 -31.6265 -31.6184 -31.6176 -31.6151 -31.6137 -31.6133 -31.5616
   -31.5533 -31.5470 -31.5390 -31.5279 -31.5141 -31.5130 -31.5087 -31.5042
   -31.4940 -31.4915 -31.4861 -31.4841 -31.4141 -31.3108 -31.2586 -31.2147
   -31.1556 -31.1080 -30.8033 -30.8032 -30.7145 -30.7143 -30.6753 -30.6752
   -18.6578 -16.5350 -15.6586 -15.5876 -15.4718 -15.4428 -15.3830 -15.3327
   -15.3155 -15.2462 -15.2098 -15.1975 -15.1455 -15.1428 -15.0949 -15.0713
   -15.0446 -15.0408 -15.0256 -14.9829 -14.9724 -14.9571 -14.9530 -14.9496
   -14.8725 -14.8365 -14.8324 -14.8279 -14.7585 -14.6250 -14.3584 -12.9820
   -12.9819 -11.6474  -8.8778  -6.3990  -5.1588  -4.2751  -3.6414  -3.0679
    -2.9438  -2.7827  -2.7212  -2.6401  -2.6391  -2.5966  -2.4703  -2.4474
    -2.4087  -2.3815  -2.3505  -2.3403  -2.3311  -2.3268  -2.3152  -2.3013
    -2.2883  -2.2487  -2.2030  -2.1877  -2.1791  -2.1738  -2.1596  -2.1463
    -2.1304  -2.1281  -2.0915  -2.0633  -2.0361  -1.9998  -1.9453  -1.7462
    -1.7169  -1.6967  -1.6697  -1.6581  -1.6462  -1.6130  -1.5745  -1.5643
    -1.4921  -1.4035  -1.3118  -1.2378  -1.2046  -1.1915  -1.1233  -1.0376
    -0.9948  -0.9565  -0.9195  -0.8595  -0.8005  -0.7629  -0.7253  -0.6439
    -0.6266  -0.6152  -0.5542  -0.5377  -0.4774  -0.4692  -0.3907  -0.3483
    -0.3125  -0.2660  -0.2384  -0.2322  -0.2135  -0.1792  -0.1716  -0.1165
    -0.0014   0.0074   0.0271   0.1311   0.2200   0.4592   0.5160   0.5486
     0.6289   0.6912   0.7529   0.7741   0.7959   0.7997   0.8354   0.8948
     1.0104   1.0202   1.0587   1.1469   1.1734   1.8912   1.8920   1.9649
     1.9651   2.0691   3.9263   3.9526   3.9783   4.0142   4.1145   4.1319
     4.1542   4.1563   4.2701   4.2908

     the Fermi energy is     3.6192 ev

!    total energy              =   -2976.50544284 Ry
     estimated scf accuracy    <       0.00000007 Ry
     smearing contrib. (-TS)   =      -0.02132333 Ry
     internal energy E=F+TS    =   -2976.48411951 Ry

     The total energy is F=E-TS. E is the sum of the following terms:
     one-electron contribution =  -23892.14515536 Ry
     hartree contribution      =   12042.59026327 Ry
     xc contribution           =    -495.74561570 Ry
     ewald contribution        =    9368.81456228 Ry
     electric field correction =       0.00182600 Ry

     convergence has been achieved in  74 iterations

     Forces acting on atoms (cartesian axes, Ry/au):

     atom    1 type  1   force =     0.00015566   -0.00027939    0.09584675
     atom    2 type  1   force =    -0.00022656   -0.00062897   -0.17569800
     atom    3 type  2   force =     0.00006387   -0.00014912   -0.02383340
     atom    4 type  2   force =     0.00006560   -0.00154517    0.05351105
     atom    5 type  2   force =    -0.01127474   -0.00076072    0.00355594
     atom    6 type  2   force =     0.01297495    0.00005627    0.00267891
     atom    7 type  1   force =    -0.00096319    0.00065614   -0.00792806
     atom    8 type  1   force =     0.00042787    0.00624299    0.02298765
     atom    9 type  2   force =    -0.00005392   -0.00030882   -0.00095200
     atom   10 type  2   force =    -0.00136442    0.00128041   -0.01513367
     atom   11 type  2   force =    -0.00031955    0.00024834   -0.00022505
     atom   12 type  2   force =    -0.00020180    0.00022852   -0.00032752
     atom   13 type  1   force =     0.00074162   -0.00046437    0.00024566
     atom   14 type  1   force =    -0.00019039    0.00041635    0.00153574
     atom   15 type  2   force =     0.00001710   -0.00007347    0.00039380
     atom   16 type  2   force =     0.00026929    0.00005103    0.00002972
     atom   17 type  2   force =     0.00071810   -0.00018787    0.00025617
     atom   18 type  2   force =     0.00007243   -0.00044761    0.00041973
     atom   19 type  1   force =    -0.00120828    0.00019746    0.00069435
     atom   20 type  1   force =     0.00073083    0.00018913   -0.00018110
     atom   21 type  2   force =     0.00008680   -0.00009077    0.10324284
     atom   22 type  2   force =    -0.00109734   -0.00027624   -0.00008049
     atom   23 type  2   force =    -0.07142905   -0.00018370   -0.02769452
     atom   24 type  2   force =     0.07139940    0.00027466   -0.02769533
     atom   25 type  1   force =     0.00002723   -0.00031443    0.09556427
     atom   26 type  1   force =    -0.00017685   -0.00031424   -0.17597548
     atom   27 type  2   force =     0.00009733   -0.00011831   -0.02294100
     atom   28 type  2   force =     0.00011529   -0.00127293    0.05316269
     atom   29 type  2   force =    -0.01152248    0.00015195    0.00361284
     atom   30 type  2   force =     0.01317336    0.00046321    0.00270244
     atom   31 type  1   force =    -0.00100851    0.00373875   -0.01104343
     atom   32 type  1   force =     0.00051300   -0.00740617    0.02338855
     atom   33 type  2   force =    -0.00023806    0.00031266   -0.00031871
     atom   34 type  2   force =    -0.00033285    0.00024772   -0.02185833
     atom   35 type  2   force =     0.00009634    0.00029774   -0.00036390
     atom   36 type  2   force =    -0.00036004    0.00030128   -0.00028773
     atom   37 type  1   force =     0.00040023    0.00057698   -0.00030147
     atom   38 type  1   force =    -0.00023319   -0.00041535    0.00137152
     atom   39 type  2   force =    -0.00006981   -0.00029687    0.00043931
     atom   40 type  2   force =     0.00031983    0.00008816   -0.00086467
     atom   41 type  2   force =     0.00131330    0.00044155    0.00002558
     atom   42 type  2   force =    -0.00079682    0.00029268   -0.00000032
     atom   43 type  1   force =    -0.00083433   -0.00105566    0.00033753
     atom   44 type  1   force =     0.00076481    0.00010484   -0.00049287
     atom   45 type  2   force =     0.00008787   -0.00010058    0.10324016
     atom   46 type  2   force =    -0.07144043   -0.00013964   -0.02767221
     atom   47 type  2   force =     0.07144222    0.00029643   -0.02770496
     atom   48 type  3   force =    -0.00039418   -0.00080912   -0.00034832
     atom   49 type  3   force =    -0.00067287    0.00037495   -0.00052476
     atom   50 type  4   force =    -0.00016441    0.00024175    0.00003447
     atom   51 type  5   force =     0.00011182    0.00070905    0.00008925
     atom   52 type  5   force =    -0.00047922   -0.00024143    0.00002673
     atom   53 type  5   force =     0.00037993   -0.00040960    0.00034536
     atom   54 type  5   force =     0.00014753    0.00011741    0.00004221
     atom   55 type  5   force =     0.00016276   -0.00008194    0.00049471
     atom   56 type  2   force =     0.01518207    0.00039557   -0.00093681
     atom   57 type  5   force =    -0.01541570   -0.00020945    0.00042064
     atom   58 type  5   force =     0.00041052   -0.00041204    0.00068753

     Total force =     0.367363     Total SCF correction =     0.000618
  @ DRIVER MODE: Message from server: STATUS
  @ DRIVER MODE: Message from server: GETFORCE
  @ DRIVER MODE: Returning v,forces,stress,ensemble

     Writing output data file ./calc.save/
  @ DRIVER MODE: Message from server: EXIT
  @ DRIVE MODE: Exiting

     General routines

     Parallel routines

   This run was terminated on:  11: 6:59  16Sep2021

   JOB DONE.