     Program PWSCF v.6.7GPU starts on 15Sep2021 at 19:55:45

     R & G space division:  proc/nbgrp/npool/nimage =      10
     Reading input from /storage/home/hcoda1/3/ntian30/research/carbon/CxH_vib/H2O_calc/ads_slab/CH2NHH2O_a/out_0013/pw.inp
Warning: card &CELL ignored
Warning: card   CELL_DYNAMICS='IPI', ignored
Warning: card / ignored

     Current dimensions of program PWSCF are:
     Max number of different atomic species (ntypx) = 10
     Max number of k-points (npk) =  40000
     Max angular momentum in pseudopotentials (lmaxx) =  3
     Presently no symmetry can be used with electric field

     Message from routine cell_base_init:
     DEPRECATED: use true lattice parameter, not A to a.u. conversion factor

     IMPORTANT: XC functional enforced from input :
     Exchange-correlation= BEEF-VDW
                           (   1   4  43  14   2   0   0)
     Any further DFT definition will be discarded
     Please, verify this is what you really want

  @ DRIVER MODE: Connecting to
 qe_1139763_2852608.sched-torque.pace.gatech.eduehwk782x_scratch
  using UNIX socket
  @ DRIVER MODE: Message from server: STATUS
  @ DRIVER MODE: Message from server: INIT
  @ DRIVER MODE: Receiving replica           0          -1
  @ DRIVER MODE: Receiving encoded integer          25
  @ DRIVER MODE:  SCF:  T  FORCE:  T  STRESS:  F  VC:  F  ENSEMBLE:  F
  @ DRIVER MODE:  SCF:  T  FORCE:  T  STRESS:  F  VC:  F  ENSEMBLE:  F

     Using Slab Decomposition

     bravais-lattice index     =            0
     lattice parameter (alat)  =       1.8897  a.u.
     unit-cell volume          =    6658.9804 (a.u.)^3
     number of atoms/cell      =           55
     number of atomic types    =            5
     number of electrons       =       398.00
     number of Kohn-Sham states=          209
     kinetic-energy cutoff     =      29.3995  Ry
     charge density cutoff     =     293.9946  Ry
     scf convergence threshold =      7.3E-08
     mixing beta               =       0.0500
     number of iterations used =            8  plain     mixing
     Exchange-correlation= BEEF-VDW
                           (   1   4  43  14   2   0   0)

     celldm(1)=   1.889726  celldm(2)=   0.000000  celldm(3)=   0.000000
     celldm(4)=   0.000000  celldm(5)=   0.000000  celldm(6)=   0.000000

     crystal axes: (cart. coord. in units of alat)
               a(1) = (   6.579727   0.000000   0.000000 )
               a(2) = (  -0.000775   5.961596   0.000000 )
               a(3) = (   0.000000   0.000000  25.155947 )

     reciprocal axes: (cart. coord. in units 2 pi/alat)
               b(1) = (  0.151982  0.000020  0.000000 )
               b(2) = (  0.000000  0.167740  0.000000 )
               b(3) = (  0.000000  0.000000  0.039752 )

     PseudoPot. # 1 for Ti read from file:
     /storage/coda1/p-amedford6/0/shared/rich_project_chbe-medford/medford-share/data/pseudos_module/espresso/nninc/pbe/van/Ti.UPF
     MD5 check sum: 8e4df49b7f0d34bbd5052bf3f5ea0213
     Pseudo is Ultrasoft, Zval = 12.0
     Generated by new atomic code, or converted to UPF format
     Using radial grid of  851 points,  6 beta functions with:
                l(1) =   0
                l(2) =   0
                l(3) =   1
                l(4) =   1
                l(5) =   2
                l(6) =   2
     Q(r) pseudized with  8 coefficients,  rinner =    1.000   1.000   1.000
                                                       1.000   1.000

     PseudoPot. # 2 for O  read from file:
     /storage/coda1/p-amedford6/0/shared/rich_project_chbe-medford/medford-share/data/pseudos_module/espresso/nninc/pbe/van/O.UPF
     MD5 check sum: 78c19812648e8988a0fe644b0f25305e
     Pseudo is Ultrasoft, Zval =  6.0
     Generated by new atomic code, or converted to UPF format
     Using radial grid of  737 points,  4 beta functions with:
                l(1) =   0
                l(2) =   0
                l(3) =   1
                l(4) =   1
     Q(r) pseudized with  8 coefficients,  rinner =    0.800   0.800   0.800

     PseudoPot. # 3 for N  read from file:
     /storage/coda1/p-amedford6/0/shared/rich_project_chbe-medford/medford-share/data/pseudos_module/espresso/nninc/pbe/van/N.UPF
     MD5 check sum: 90d10febe142ad51ac9d5be1deb811c4
     Pseudo is Ultrasoft, Zval =  5.0
     Generated by new atomic code, or converted to UPF format
     Using radial grid of  729 points,  4 beta functions with:
                l(1) =   0
                l(2) =   0
                l(3) =   1
                l(4) =   1
     Q(r) pseudized with  8 coefficients,  rinner =    0.800   0.800   0.800

     PseudoPot. # 4 for C  read from file:
     /storage/coda1/p-amedford6/0/shared/rich_project_chbe-medford/medford-share/data/pseudos_module/espresso/nninc/pbe/van/C.UPF
     MD5 check sum: 1a69bf6b8db32088f5b2163dbdb77a27
     Pseudo is Ultrasoft, Zval =  4.0
     Generated by new atomic code, or converted to UPF format
     Using radial grid of  721 points,  4 beta functions with:
                l(1) =   0
                l(2) =   0
                l(3) =   1
                l(4) =   1
     Q(r) pseudized with  8 coefficients,  rinner =    0.800   0.800   0.800

     PseudoPot. # 5 for H  read from file:
     /storage/coda1/p-amedford6/0/shared/rich_project_chbe-medford/medford-share/data/pseudos_module/espresso/nninc/pbe/van/H.UPF
     MD5 check sum: b5ee9d7bfd3a09ee7748110bda690ff7
     Pseudo is Ultrasoft, Zval =  1.0
     Generated by new atomic code, or converted to UPF format
     Using radial grid of  615 points,  1 beta functions with:
                l(1) =   0
     Q(r) pseudized with  8 coefficients,  rinner =    0.800

     atomic species   valence    mass     pseudopotential
        Ti1           12.00    47.86700     Ti( 1.00)
        O1             6.00    15.99900     O ( 1.00)
        N1             5.00    14.00700     N ( 1.00)
        C1             4.00    12.01100     C ( 1.00)
        H1             1.00     1.00800     H ( 1.00)

     No symmetry found

   Cartesian axes

     site n.     atom                  positions (alat units)
         1           Ti1 tau(   1) = (   0.0004258   2.9801865   6.0000000  )
         2           Ti1 tau(   2) = (   3.2906075   1.4906267   6.0002472  )
         3           O1  tau(   3) = (   0.0006271   0.0005054   7.9858123  )
         4           O1  tau(   4) = (   3.2906025   0.0005020   7.3038282  )
         5           O1  tau(   5) = (   4.5942328   1.4918067   9.2879030  )
         6           O1  tau(   6) = (   1.9868534   1.4903216   9.2879459  )
         7           Ti1 tau(   7) = (   3.2907910   2.8959150   9.1758416  )
         8           Ti1 tau(   8) = (   0.0015273   1.4827037   9.2680791  )
         9           O1  tau(   9) = (   3.2898722   0.0008919  11.3582996  )
        10           O1  tau(  10) = (   0.0116148   5.9584955  10.6183126  )
        11           O1  tau(  11) = (   1.2941175   1.4997011  12.6415926  )
        12           O1  tau(  12) = (   5.2900041   1.4988670  12.6311679  )
        13           Ti1 tau(  13) = (   0.0286627   2.9677426  12.5549903  )
        14           Ti1 tau(  14) = (   3.3305619   1.4761135  12.5169476  )
        15           O1  tau(  15) = (   0.0011522   0.0488603  14.6479508  )
        16           O1  tau(  16) = (   3.3026717   0.0283160  13.9913086  )
        17           O1  tau(  17) = (   4.5493611   1.5432082  16.1208237  )
        18           O1  tau(  18) = (   2.0202358   1.5417912  16.1150647  )
        19           Ti1 tau(  19) = (   3.2887705   3.0075965  15.7001020  )
        20           Ti1 tau(  20) = (   0.0091052   1.4341126  16.0176487  )
        21           O1  tau(  21) = (   3.2904802   0.0005063   4.7018136  )
        22           O1  tau(  22) = (   6.5755782   5.8726442  17.1894482  )
        23           O1  tau(  23) = (   1.3043587   1.4918075   6.0039043  )
        24           O1  tau(  24) = (   5.2767064   1.4903225   6.0039473  )
        25           Ti1 tau(  25) = (   0.0000382   5.9609847   6.0000000  )
        26           Ti1 tau(  26) = (   3.2902200   4.4714249   6.0002472  )
        27           O1  tau(  27) = (   0.0002396   2.9813036   7.9858123  )
        28           O1  tau(  28) = (   3.2902150   2.9813002   7.3038282  )
        29           O1  tau(  29) = (   4.5938453   4.4726049   9.2879030  )
        30           O1  tau(  30) = (   1.9864658   4.4711199   9.2879459  )
        31           Ti1 tau(  31) = (   3.2891106   5.8743827   9.1763621  )
        32           Ti1 tau(  32) = (   0.0006254   4.4649316   9.2693709  )
        33           O1  tau(  33) = (   3.2934734   2.9861727  11.3537610  )
        34           O1  tau(  34) = (   0.0092240   2.9805883  10.6323155  )
        35           O1  tau(  35) = (   1.2909626   4.4766429  12.6619247  )
        36           O1  tau(  36) = (   5.2900193   4.4803912  12.6490267  )
        37           Ti1 tau(  37) = (   0.0281377   5.9553508  12.5047683  )
        38           Ti1 tau(  38) = (   3.3302429   4.4653876  12.5079491  )
        39           O1  tau(  39) = (   6.5693844   2.9599090  14.8264494  )
        40           O1  tau(  40) = (   3.2969629   2.9925989  13.9157470  )
        41           O1  tau(  41) = (   4.5484520   4.4472025  16.1223275  )
        42           O1  tau(  42) = (   2.0280084   4.4594140  16.0867804  )
        43           Ti1 tau(  43) = (   3.2969344   0.0408593  15.8189202  )
        44           Ti1 tau(  44) = (   0.0203989   4.6198729  15.8219907  )
        45           O1  tau(  45) = (   3.2900926   2.9813045   4.7018136  )
        46           O1  tau(  46) = (   1.3039711   4.4726057   6.0039043  )
        47           O1  tau(  47) = (   5.2763189   4.4711207   6.0039473  )
        48           N1  tau(  48) = (   6.4956655   2.7544209  17.8339637  )
        49           C1  tau(  49) = (   0.7364952   2.7663736  18.8366375  )
        50           H1  tau(  50) = (   0.4384493   3.1383336  19.8159577  )
        51           H1  tau(  51) = (   1.7396475   2.3816028  18.7013769  )
        52           H1  tau(  52) = (   5.5670006   3.0916272  18.0761613  )
        53           O1  tau(  53) = (   3.3072362   0.1002980  18.2711691  )
        54           H1  tau(  54) = (   4.1501014   5.6086691  18.4387546  )
        55           H1  tau(  55) = (   2.5909652   5.4478326  18.5068232  )

     number of k points=    10  Fermi-Dirac smearing, width (Ry)=  0.0073
                       cart. coord. in units 2pi/alat
        k(    1) = (   0.0000000   0.0000000   0.0000000), wk =   0.1250000
        k(    2) = (   0.0000000   0.0419351   0.0000000), wk =   0.2500000
        k(    3) = (   0.0000000  -0.0838702   0.0000000), wk =   0.1250000
        k(    4) = (   0.0379955   0.0000049   0.0000000), wk =   0.2500000
        k(    5) = (   0.0379955   0.0419400   0.0000000), wk =   0.2500000
        k(    6) = (   0.0379955  -0.0838652   0.0000000), wk =   0.2500000
        k(    7) = (   0.0379955  -0.0419301   0.0000000), wk =   0.2500000
        k(    8) = (  -0.0759910  -0.0000099   0.0000000), wk =   0.1250000
        k(    9) = (  -0.0759910   0.0419252   0.0000000), wk =   0.2500000
        k(   10) = (  -0.0759910  -0.0838800   0.0000000), wk =   0.1250000

     Initial potential from superposition of free atoms

     starting charge  381.99915, renormalised to  398.00000

     negative rho (up, down):  1.643E-02 0.000E+00

     %%%%%%%%%%%%%%%%%%%%%%%%%%%%%%%%%%%%%%%%%%%%%%%%%%%%%%%%%%%%%%%%%%%%%%%%
     %                                                                      %
     % You are using vdW-DF, which was implemented by the Thonhauser group. %
     % Please cite the following two papers that made this development      %
     % possible and the two reviews that describe the various versions:     %
     %                                                                      %
     %   T. Thonhauser et al., PRL 115, 136402 (2015).                      %
     %   T. Thonhauser et al., PRB 76, 125112 (2007).                       %
     %   K. Berland et al., Rep. Prog. Phys. 78, 066501 (2015).             %
     %   D.C. Langreth et al., J. Phys.: Condens. Matter 21, 084203 (2009). %
     %                                                                      %
     %                                                                      %
     % If you are calculating the stress with vdW-DF, please also cite:     %
     %                                                                      %
     %   R. Sabatini et al., J. Phys.: Condens. Matter 24, 424209 (2012).   %
     %                                                                      %
     %%%%%%%%%%%%%%%%%%%%%%%%%%%%%%%%%%%%%%%%%%%%%%%%%%%%%%%%%%%%%%%%%%%%%%%%

     Adding external electric field

     Computed dipole along edir(3) :
        Dipole              -10.4007 Ry au,        -26.4360 Debye
        Dipole field         -0.0196 Ry au,

        Potential amp.        1.8194 Ry
        Total length         46.3494 bohr

     Starting wfcs are  301 atomic wfcs
  @ DRIVER MODE: Message from server: STATUS
  @ DRIVER MODE: Message from server: POSDATA
  @ DRIVER MODE: Reading and sharing cell
  @ DRIVER MODE: Reading and sharing positions
  @ DRIVER MODE: Received positions

     Self-consistent Calculation

     iteration #  1     ecut=    29.40 Ry     beta= 0.05
     Davidson diagonalization with overlap
     c_bands:  3 eigenvalues not converged
     c_bands:  3 eigenvalues not converged
     c_bands:  1 eigenvalues not converged
     c_bands:  4 eigenvalues not converged
     c_bands:  4 eigenvalues not converged
     c_bands:  4 eigenvalues not converged
     c_bands:  2 eigenvalues not converged
     c_bands:  3 eigenvalues not converged
     c_bands:  2 eigenvalues not converged
     ethr =  1.00E-05,  avg # of iterations = 19.9

[...]

     total energy              =   -2485.32906962 Ry
     estimated scf accuracy    <    5245.66665461 Ry

     iteration #  2     ecut=    29.40 Ry     beta= 0.05
     Davidson diagonalization with overlap
     ethr =  1.00E-02,  avg # of iterations = 24.5

[...]

     iteration # 57     ecut=    29.40 Ry     beta= 0.05
     Davidson diagonalization with overlap
     c_bands:  1 eigenvalues not converged
     ethr =  1.85E-08,  avg # of iterations = 13.9

[...]

     total energy              =   -2953.94958633 Ry
     estimated scf accuracy    <       0.00000010 Ry

     iteration # 70     ecut=    29.40 Ry     beta= 0.05
     Davidson diagonalization with overlap
     ethr =  2.64E-11,  avg # of iterations = 12.9

     negative rho (up, down):  1.568E-02 0.000E+00

     Adding external electric field

     Computed dipole along edir(3) :
        Dipole                1.2816 Ry au,          3.2574 Debye
        Dipole field          0.0024 Ry au,

        Potential amp.       -0.2242 Ry
        Total length         46.3494 bohr

     End of self-consistent calculation

          k = 0.0000 0.0000 0.0000 ( 18029 PWs)   bands (ev):

   -55.3919 -55.3723 -55.3559 -55.3392 -55.3382 -55.2720 -55.2274 -55.2071
   -55.1974 -55.1885 -55.1715 -55.1649 -55.1218 -54.9939 -54.3822 -54.3481
   -31.9522 -31.8616 -31.7598 -31.7456 -31.7002 -31.6973 -31.6957 -31.6623
   -31.6555 -31.6225 -31.6169 -31.6057 -31.5860 -31.5689 -31.5684 -31.5340
   -31.5313 -31.5251 -31.5104 -31.5075 -31.4832 -31.4555 -31.4524 -31.4351
   -31.4294 -31.4061 -31.4051 -31.4019 -31.4001 -31.3937 -31.3740 -31.3675
   -31.3614 -31.3569 -31.3476 -31.3306 -31.3285 -31.3219 -31.3047 -31.2936
   -31.2206 -31.1076 -30.7906 -30.6987 -30.6765 -30.6071 -30.5205 -30.4095
   -19.1656 -16.2535 -16.1583 -15.9144 -15.7338 -15.6448 -15.5829 -15.3934
   -15.3522 -15.2612 -15.1785 -15.0867 -15.0327 -14.9887 -14.9791 -14.9578
   -14.9322 -14.9219 -14.8844 -14.8695 -14.8679 -14.8212 -14.8189 -14.7800
   -14.7713 -14.7272 -14.7057 -14.5964 -14.5407 -14.4865 -14.0588 -12.8845
   -12.7675  -9.0861  -6.9819  -5.9722  -4.4724  -3.5502  -3.4019  -3.3889
    -3.3024  -3.2959  -3.2286  -3.1176  -2.9282  -2.7741  -2.6880  -2.6445
    -2.5932  -2.5688  -2.5103  -2.4564  -2.3613  -2.2899  -2.2596  -2.2269
    -2.2094  -2.1903  -2.1665  -2.1438  -2.1031  -2.0785  -2.0417  -1.9398
    -1.8537  -1.8000  -1.7852  -1.7148  -1.6920  -1.6862  -1.6777  -1.6681
    -1.6639  -1.6555  -1.6029  -1.5793  -1.5376  -1.4099  -1.3384  -1.2332
    -1.1219  -1.0715  -1.0307  -1.0119  -0.9249  -0.9192  -0.8643  -0.7880
    -0.7550  -0.7140  -0.7011  -0.5742  -0.4922  -0.4814  -0.4302  -0.3564
    -0.2985  -0.2578  -0.2014  -0.1770  -0.1545  -0.1376   0.0024   0.0350
     0.0787   0.1066   0.1351   0.2103   0.2471   0.3091   0.3571   0.3641
     0.4121   0.4986   0.5122   0.5620   0.5661   0.6109   0.6299   0.7260
     0.7605   0.7691   0.8350   0.8689   1.0115   1.2277   1.2351   1.2824
     1.5554   1.6172   1.6406   1.8275   2.2145   2.2617   3.7016   3.7926
     3.8315   3.8500   3.8629   3.9373   4.0766   4.1921   4.1964   4.2262
     4.2397

[...]

          k = 0.0380-0.0419 0.0000 ( 17876 PWs)   bands (ev):

[...]

          k =-0.0760-0.0000 0.0000 ( 17886 PWs)   bands (ev):

[...]

          k =-0.0760-0.0839 0.0000 ( 17948 PWs)   bands (ev):

   -55.3758 -55.3719 -55.3553 -55.3551 -55.3372 -55.2640 -55.2354 -55.1911
   -55.1903 -55.1860 -55.1820 -55.1815 -55.1194 -54.9962 -54.3652 -54.3650
   -31.7620 -31.7510 -31.6768 -31.6766 -31.6595 -31.6487 -31.6478 -31.6476
   -31.6202 -31.6084 -31.5900 -31.5860 -31.5784 -31.5598 -31.5403 -31.5257
   -31.5243 -31.5213 -31.5169 -31.5120 -31.5064 -31.4938 -31.4749 -31.4745
   -31.4680 -31.4665 -31.4648 -31.4344 -31.4235 -31.4158 -31.4055 -31.4016
   -31.4008 -31.4005 -31.3889 -31.3833 -31.3614 -31.3598 -31.3390 -31.2897
   -31.2240 -31.1934 -30.6892 -30.6892 -30.6033 -30.6031 -30.5638 -30.5638
   -19.1648 -16.1967 -15.6511 -15.5919 -15.5213 -15.3668 -15.3607 -15.3354
   -15.2737 -15.1753 -15.1620 -15.1298 -15.1221 -15.0874 -15.0760 -15.0557
   -15.0345 -14.9618 -14.9535 -14.9489 -14.9261 -14.8949 -14.8801 -14.8713
   -14.8494 -14.8448 -14.7891 -14.7421 -14.7391 -14.5478 -14.3542 -12.8691
   -12.8690  -9.0914  -6.9801  -5.9707  -4.4544  -3.3321  -2.9264  -2.7960
    -2.7443  -2.5943  -2.5673  -2.5198  -2.4625  -2.4024  -2.3752  -2.3564
    -2.3081  -2.3023  -2.2547  -2.2412  -2.2204  -2.2192  -2.2102  -2.1638
    -2.1473  -2.1394  -2.1206  -2.1055  -2.0945  -2.0754  -2.0474  -2.0377
    -2.0036  -1.9733  -1.9597  -1.9375  -1.8844  -1.7672  -1.7377  -1.6942
    -1.5830  -1.5752  -1.5698  -1.5270  -1.4812  -1.4752  -1.4475  -1.4180
    -1.3492  -1.3209  -1.1300  -1.1176  -1.1041  -1.0386  -1.0121  -0.9147
    -0.8959  -0.8287  -0.8115  -0.7965  -0.7101  -0.6784  -0.5732  -0.5648
    -0.5487  -0.5140  -0.4072  -0.3597  -0.3518  -0.3468  -0.3257  -0.2426
    -0.2274  -0.2096  -0.1755  -0.1474  -0.1141  -0.1007  -0.0171   0.1530
     0.1627   0.2505   0.3502   0.4445   0.5654   0.6361   0.6450   0.6998
     0.7430   0.8243   0.8679   0.9057   0.9250   1.0362   1.0684   1.0846
     1.0910   1.1465   1.9997   2.0011   2.0816   2.0818   3.7824   3.9319
     4.0010   4.0183   4.0582   4.1840   4.2231   4.2749   4.2766   4.2817
     4.3706

     the Fermi energy is     3.7474 ev

!    total energy              =   -2953.94961359 Ry
     estimated scf accuracy    <       0.00000007 Ry
     smearing contrib. (-TS)   =      -0.03631923 Ry
     internal energy E=F+TS    =   -2953.91329436 Ry

     The total energy is F=E-TS. E is the sum of the following terms:
     one-electron contribution =  -24165.71715095 Ry
     hartree contribution      =   12176.24693199 Ry
     xc contribution           =    -488.89217128 Ry
     ewald contribution        =    9524.44599639 Ry
     electric field correction =       0.00309948 Ry

     convergence has been achieved in  70 iterations

     Forces acting on atoms (cartesian axes, Ry/au):

     atom    1 type  1   force =     0.00005752   -0.00021624    0.09434413
     atom    2 type  1   force =    -0.00029399   -0.00033136   -0.17713138
     atom    3 type  2   force =     0.00001546   -0.00013820   -0.02176627
     atom    4 type  2   force =    -0.00002158   -0.00175119    0.05662499
     atom    5 type  2   force =    -0.01064595   -0.00111061    0.00625753
     atom    6 type  2   force =     0.01214805   -0.00036456    0.00530401
     atom    7 type  1   force =    -0.00069727    0.00165142   -0.01075542
     atom    8 type  1   force =     0.00018710    0.00660392    0.00670755
     atom    9 type  2   force =     0.00024967   -0.00039543   -0.00053872
     atom   10 type  2   force =    -0.00109529    0.00064509   -0.01011212
     atom   11 type  2   force =    -0.00027587   -0.00016608   -0.00022042
     atom   12 type  2   force =     0.00039199   -0.00023546    0.00001603
     atom   13 type  1   force =     0.00019480   -0.00051110    0.00119989
     atom   14 type  1   force =    -0.00007478    0.00039028    0.00040861
     atom   15 type  2   force =     0.00008311    0.00017994    0.00118098
     atom   16 type  2   force =    -0.00018213   -0.00066011    0.00024700
     atom   17 type  2   force =    -0.00006700   -0.00008646   -0.00020791
     atom   18 type  2   force =    -0.00102926    0.00001609    0.00053533
     atom   19 type  1   force =     0.00112777   -0.00036778   -0.00055805
     atom   20 type  1   force =    -0.00139854    0.00076101   -0.00060610
     atom   21 type  2   force =     0.00000333   -0.00004619    0.10369250
     atom   22 type  2   force =    -0.00002635    0.00054852    0.00066777
     atom   23 type  2   force =    -0.07087261   -0.00014557   -0.02715831
     atom   24 type  2   force =     0.07071821    0.00029622   -0.02722644
     atom   25 type  1   force =     0.00000614   -0.00014025    0.09409557
     atom   26 type  1   force =    -0.00022604   -0.00036524   -0.17728871
     atom   27 type  2   force =     0.00005471   -0.00031956   -0.02068308
     atom   28 type  2   force =     0.00005150   -0.00136127    0.05587155
     atom   29 type  2   force =    -0.01087365    0.00028962    0.00603929
     atom   30 type  2   force =     0.01227790    0.00055072    0.00507717
     atom   31 type  1   force =    -0.00057230    0.00495739   -0.01401980
     atom   32 type  1   force =     0.00030807   -0.00744040    0.00637634
     atom   33 type  2   force =     0.00025097    0.00012844   -0.00020744
     atom   34 type  2   force =    -0.00066681    0.00182712   -0.00594919
     atom   35 type  2   force =    -0.00003419   -0.00024377    0.00002650
     atom   36 type  2   force =     0.00026381   -0.00031871    0.00018758
     atom   37 type  1   force =     0.00022237    0.00091096    0.00050851
     atom   38 type  1   force =    -0.00008794    0.00005599    0.00066011
     atom   39 type  2   force =     0.00034313    0.00026384    0.00004680
     atom   40 type  2   force =    -0.00012202   -0.00037697    0.00058850
     atom   41 type  2   force =    -0.00058125   -0.00027818   -0.00037901
     atom   42 type  2   force =    -0.00025928    0.00009455    0.00037369
     atom   43 type  1   force =     0.00077849   -0.00143123   -0.00065504
     atom   44 type  1   force =    -0.00107619    0.00032322   -0.00154862
     atom   45 type  2   force =     0.00000428   -0.00009523    0.10366699
     atom   46 type  2   force =    -0.07090054   -0.00009657   -0.02716114
     atom   47 type  2   force =     0.07074469    0.00033098   -0.02721381
     atom   48 type  3   force =     0.00156117   -0.00056571   -0.00086263
     atom   49 type  4   force =    -0.00308572    0.00102136    0.00273453
     atom   50 type  5   force =     0.00279681   -0.00164964   -0.00267041
     atom   51 type  5   force =     0.00031224   -0.00003718    0.00065954
     atom   52 type  5   force =    -0.00116846    0.00088363    0.00048184
     atom   53 type  2   force =     0.00086764   -0.00121079    0.00076827
     atom   54 type  5   force =    -0.00037103    0.00048684   -0.00003208
     atom   55 type  5   force =     0.00068516   -0.00076013   -0.00039699

     Total force =     0.365659     Total SCF correction =     0.000583
  @ DRIVER MODE: Message from server: STATUS
  @ DRIVER MODE: Message from server: GETFORCE
  @ DRIVER MODE: Returning v,forces,stress,ensemble

     Writing output data file ./calc.save/
  @ DRIVER MODE: Message from server: EXIT
  @ DRIVE MODE: Exiting

     General routines

     Parallel routines

   This run was terminated on:  20:15: 7  15Sep2021

   JOB DONE.