     Program PWSCF v.6.7GPU starts on 24Aug2021 at  4:34:28

     R & G space division:  proc/nbgrp/npool/nimage =       6
     Reading input from /storage/home/hcoda1/3/ntian30/research/carbon/CH_vib/ads_slab/CHNNHHH_a/out_0030/pw.inp
Warning: card &CELL ignored
Warning: card   CELL_DYNAMICS='IPI', ignored
Warning: card / ignored

     Current dimensions of program PWSCF are:
     Max number of different atomic species (ntypx) = 10
     Max number of k-points (npk) =  40000
     Max angular momentum in pseudopotentials (lmaxx) =  3
     Presently no symmetry can be used with electric field

     Message from routine cell_base_init:
     DEPRECATED: use true lattice parameter, not A to a.u. conversion factor

     IMPORTANT: XC functional enforced from input :
     Exchange-correlation= BEEF-VDW
                           (   1   4  43  14   2   0   0)
     Any further DFT definition will be discarded
     Please, verify this is what you really want

  @ DRIVER MODE: Connecting to
 qe_1139763_2632795.sched-torque.pace.gatech.eduzmwodkiu_scratch
  using UNIX socket
  @ DRIVER MODE: Message from server: STATUS
  @ DRIVER MODE: Message from server: INIT
  @ DRIVER MODE: Receiving replica           0          -1
  @ DRIVER MODE: Receiving encoded integer          25
  @ DRIVER MODE:  SCF:  T  FORCE:  T  STRESS:  F  VC:  F  ENSEMBLE:  F
  @ DRIVER MODE:  SCF:  T  FORCE:  T  STRESS:  F  VC:  F  ENSEMBLE:  F

     Using Slab Decomposition

     bravais-lattice index     =            0
     lattice parameter (alat)  =       1.8897  a.u.
     unit-cell volume          =    6658.9804 (a.u.)^3
     number of atoms/cell      =           54
     number of atomic types    =            5
     number of electrons       =       396.00
     number of Kohn-Sham states=          208
     kinetic-energy cutoff     =      29.3995  Ry
     charge density cutoff     =     293.9946  Ry
     scf convergence threshold =      7.3E-08
     mixing beta               =       0.0500
     number of iterations used =            8  plain     mixing
     Exchange-correlation= BEEF-VDW
                           (   1   4  43  14   2   0   0)

     celldm(1)=   1.889726  celldm(2)=   0.000000  celldm(3)=   0.000000
     celldm(4)=   0.000000  celldm(5)=   0.000000  celldm(6)=   0.000000

     crystal axes: (cart. coord. in units of alat)
               a(1) = (   6.579727   0.000000   0.000000 )
               a(2) = (  -0.000775   5.961596   0.000000 )
               a(3) = (   0.000000   0.000000  25.155947 )

     reciprocal axes: (cart. coord. in units 2 pi/alat)
               b(1) = (  0.151982  0.000020  0.000000 )
               b(2) = (  0.000000  0.167740  0.000000 )
               b(3) = (  0.000000  0.000000  0.039752 )

     PseudoPot. # 1 for Ti read from file:
     /storage/coda1/p-amedford6/0/shared/rich_project_chbe-medford/medford-share/data/pseudos_module/espresso/nninc/pbe/van/Ti.UPF
     MD5 check sum: 8e4df49b7f0d34bbd5052bf3f5ea0213
     Pseudo is Ultrasoft, Zval = 12.0
     Generated by new atomic code, or converted to UPF format
     Using radial grid of  851 points,  6 beta functions with:
                l(1) =   0
                l(2) =   0
                l(3) =   1
                l(4) =   1
                l(5) =   2
                l(6) =   2
     Q(r) pseudized with  8 coefficients,  rinner =    1.000   1.000   1.000
                                                       1.000   1.000

     PseudoPot. # 2 for O  read from file:
     /storage/coda1/p-amedford6/0/shared/rich_project_chbe-medford/medford-share/data/pseudos_module/espresso/nninc/pbe/van/O.UPF
     MD5 check sum: 78c19812648e8988a0fe644b0f25305e
     Pseudo is Ultrasoft, Zval =  6.0
     Generated by new atomic code, or converted to UPF format
     Using radial grid of  737 points,  4 beta functions with:
                l(1) =   0
                l(2) =   0
                l(3) =   1
                l(4) =   1
     Q(r) pseudized with  8 coefficients,  rinner =    0.800   0.800   0.800

     PseudoPot. # 3 for N  read from file:
     /storage/coda1/p-amedford6/0/shared/rich_project_chbe-medford/medford-share/data/pseudos_module/espresso/nninc/pbe/van/N.UPF
     MD5 check sum: 90d10febe142ad51ac9d5be1deb811c4
     Pseudo is Ultrasoft, Zval =  5.0
     Generated by new atomic code, or converted to UPF format
     Using radial grid of  729 points,  4 beta functions with:
                l(1) =   0
                l(2) =   0
                l(3) =   1
                l(4) =   1
     Q(r) pseudized with  8 coefficients,  rinner =    0.800   0.800   0.800

     PseudoPot. # 4 for C  read from file:
     /storage/coda1/p-amedford6/0/shared/rich_project_chbe-medford/medford-share/data/pseudos_module/espresso/nninc/pbe/van/C.UPF
     MD5 check sum: 1a69bf6b8db32088f5b2163dbdb77a27
     Pseudo is Ultrasoft, Zval =  4.0
     Generated by new atomic code, or converted to UPF format
     Using radial grid of  721 points,  4 beta functions with:
                l(1) =   0
                l(2) =   0
                l(3) =   1
                l(4) =   1
     Q(r) pseudized with  8 coefficients,  rinner =    0.800   0.800   0.800

     PseudoPot. # 5 for H  read from file:
     /storage/coda1/p-amedford6/0/shared/rich_project_chbe-medford/medford-share/data/pseudos_module/espresso/nninc/pbe/van/H.UPF
     MD5 check sum: b5ee9d7bfd3a09ee7748110bda690ff7
     Pseudo is Ultrasoft, Zval =  1.0
     Generated by new atomic code, or converted to UPF format
     Using radial grid of  615 points,  1 beta functions with:
                l(1) =   0
     Q(r) pseudized with  8 coefficients,  rinner =    0.800

     atomic species   valence    mass     pseudopotential
        Ti1           12.00    47.86700     Ti( 1.00)
        O1             6.00    15.99900     O ( 1.00)
        N1             5.00    14.00700     N ( 1.00)
        C1             4.00    12.01100     C ( 1.00)
        H1             1.00     1.00800     H ( 1.00)

     No symmetry found

   Cartesian axes

     site n.     atom                  positions (alat units)
         1           Ti1 tau(   1) = (   0.0004258   2.9801865   6.0000000  )
         2           Ti1 tau(   2) = (   3.2906075   1.4906267   6.0002472  )
         3           O1  tau(   3) = (   0.0006271   0.0005054   7.9858123  )
         4           O1  tau(   4) = (   3.2906025   0.0005020   7.3038282  )
         5           O1  tau(   5) = (   4.5942328   1.4918067   9.2879030  )
         6           O1  tau(   6) = (   1.9868534   1.4903216   9.2879459  )
         7           Ti1 tau(   7) = (   3.2907910   2.8959150   9.1758416  )
         8           Ti1 tau(   8) = (   0.0015273   1.4827037   9.2680791  )
         9           O1  tau(   9) = (   3.3116888   5.9365513  11.3741315  )
        10           O1  tau(  10) = (   0.0116148   5.9584955  10.6183126  )
        11           O1  tau(  11) = (   1.3152863   1.4773744  12.6583839  )
        12           O1  tau(  12) = (   5.3185463   1.4781915  12.6604289  )
        13           Ti1 tau(  13) = (   0.0312267   2.9553392  12.5172039  )
        14           Ti1 tau(  14) = (   3.3247105   1.4628205  12.5237724  )
        15           O1  tau(  15) = (   0.0176705   0.0150782  14.7085838  )
        16           O1  tau(  16) = (   3.3263678   5.9469243  13.9928752  )
        17           O1  tau(  17) = (   4.5829619   1.4750097  16.2211409  )
        18           O1  tau(  18) = (   2.0801478   1.4636096  16.1819230  )
        19           Ti1 tau(  19) = (   3.3264833   2.9461821  15.7545810  )
        20           Ti1 tau(  20) = (   0.0064452   1.3478264  16.0581623  )
        21           O1  tau(  21) = (   3.2904802   0.0005063   4.7018136  )
        22           O1  tau(  22) = (   0.0393124   5.8647722  17.2449945  )
        23           O1  tau(  23) = (   1.3043587   1.4918075   6.0039043  )
        24           O1  tau(  24) = (   5.2767064   1.4903225   6.0039473  )
        25           Ti1 tau(  25) = (   0.0000382   5.9609847   6.0000000  )
        26           Ti1 tau(  26) = (   3.2902200   4.4714249   6.0002472  )
        27           O1  tau(  27) = (   0.0002396   2.9813036   7.9858123  )
        28           O1  tau(  28) = (   3.2902150   2.9813002   7.3038282  )
        29           O1  tau(  29) = (   4.5938453   4.4726049   9.2879030  )
        30           O1  tau(  30) = (   1.9864658   4.4711199   9.2879459  )
        31           Ti1 tau(  31) = (   3.2891106   5.8743827   9.1763621  )
        32           Ti1 tau(  32) = (   0.0006254   4.4649316   9.2693709  )
        33           O1  tau(  33) = (   3.3126387   2.9639063  11.3704323  )
        34           O1  tau(  34) = (   0.0092240   2.9805883  10.6323155  )
        35           O1  tau(  35) = (   1.3140505   4.4512041  12.6779488  )
        36           O1  tau(  36) = (   5.3186431   4.4503656  12.6784002  )
        37           Ti1 tau(  37) = (   0.0306983   5.9434578  12.5012515  )
        38           Ti1 tau(  38) = (   3.3249252   4.4426326  12.5284913  )
        39           O1  tau(  39) = (   0.0332616   2.9308952  14.9693926  )
        40           O1  tau(  40) = (   3.3269026   2.9510973  13.9662216  )
        41           O1  tau(  41) = (   4.5816979   4.4256876  16.1885362  )
        42           O1  tau(  42) = (   2.0739833   4.4348339  16.1471384  )
        43           Ti1 tau(  43) = (   3.3139036   5.9323143  15.7909994  )
        44           Ti1 tau(  44) = (   0.0257917   4.5791344  15.8913375  )
        45           O1  tau(  45) = (   3.2900926   2.9813045   4.7018136  )
        46           O1  tau(  46) = (   1.3039711   4.4726057   6.0039043  )
        47           O1  tau(  47) = (   5.2763189   4.4711207   6.0039473  )
        48           N1  tau(  48) = (   0.2611162   2.7486399  18.0384573  )
        49           C1  tau(  49) = (   1.0666652   3.1333113  18.7681872  )
        50           H1  tau(  50) = (   1.9496291   3.4674532  19.3170853  )
        51           N1  tau(  51) = (   3.9312863   3.7371558  19.5917579  )
        52           H1  tau(  52) = (   4.2637485   4.0673035  20.5013501  )
        53           H1  tau(  53) = (   4.3024207   4.3757745  18.8906580  )
        54           H1  tau(  54) = (   4.4024832   2.8518033  19.4177320  )

     number of k points=    10  Fermi-Dirac smearing, width (Ry)=  0.0073
                       cart. coord. in units 2pi/alat
        k(    1) = (   0.0000000   0.0000000   0.0000000), wk =   0.1250000
        k(    2) = (   0.0000000   0.0419351   0.0000000), wk =   0.2500000
        k(    3) = (   0.0000000  -0.0838702   0.0000000), wk =   0.1250000
        k(    4) = (   0.0379955   0.0000049   0.0000000), wk =   0.2500000
        k(    5) = (   0.0379955   0.0419400   0.0000000), wk =   0.2500000
        k(    6) = (   0.0379955  -0.0838652   0.0000000), wk =   0.2500000
        k(    7) = (   0.0379955  -0.0419301   0.0000000), wk =   0.2500000
        k(    8) = (  -0.0759910  -0.0000099   0.0000000), wk =   0.1250000
        k(    9) = (  -0.0759910   0.0419252   0.0000000), wk =   0.2500000
        k(   10) = (  -0.0759910  -0.0838800   0.0000000), wk =   0.1250000

     Initial potential from superposition of free atoms

     starting charge  379.99915, renormalised to  396.00000

     negative rho (up, down):  1.479E-02 0.000E+00

     %%%%%%%%%%%%%%%%%%%%%%%%%%%%%%%%%%%%%%%%%%%%%%%%%%%%%%%%%%%%%%%%%%%%%%%%
     %                                                                      %
     % You are using vdW-DF, which was implemented by the Thonhauser group. %
     % Please cite the following two papers that made this development      %
     % possible and the two reviews that describe the various versions:     %
     %                                                                      %
     %   T. Thonhauser et al., PRL 115, 136402 (2015).                      %
     %   T. Thonhauser et al., PRB 76, 125112 (2007).                       %
     %   K. Berland et al., Rep. Prog. Phys. 78, 066501 (2015).             %
     %   D.C. Langreth et al., J. Phys.: Condens. Matter 21, 084203 (2009). %
     %                                                                      %
     %                                                                      %
     % If you are calculating the stress with vdW-DF, please also cite:     %
     %                                                                      %
     %   R. Sabatini et al., J. Phys.: Condens. Matter 24, 424209 (2012).   %
     %                                                                      %
     %%%%%%%%%%%%%%%%%%%%%%%%%%%%%%%%%%%%%%%%%%%%%%%%%%%%%%%%%%%%%%%%%%%%%%%%

     Adding external electric field

     Computed dipole along edir(3) :
        Dipole              -10.3179 Ry au,        -26.2255 Debye
        Dipole field         -0.0195 Ry au,

        Potential amp.        1.8050 Ry
        Total length         46.3494 bohr

     Starting wfcs are  300 atomic wfcs
  @ DRIVER MODE: Message from server: STATUS
  @ DRIVER MODE: Message from server: POSDATA
  @ DRIVER MODE: Reading and sharing cell
  @ DRIVER MODE: Reading and sharing positions
  @ DRIVER MODE: Received positions

     Self-consistent Calculation

     iteration #  1     ecut=    29.40 Ry     beta= 0.05
     Davidson diagonalization with overlap
     c_bands:  1 eigenvalues not converged
     c_bands:  2 eigenvalues not converged
     c_bands:  2 eigenvalues not converged
     c_bands:  1 eigenvalues not converged
     c_bands:  3 eigenvalues not converged
     c_bands:  2 eigenvalues not converged
     c_bands:  3 eigenvalues not converged
     c_bands:  2 eigenvalues not converged
     c_bands:  2 eigenvalues not converged
     c_bands:  2 eigenvalues not converged
     ethr =  1.00E-05,  avg # of iterations = 20.0

[...]

     total energy              =   -2522.36975496 Ry
     estimated scf accuracy    <    4676.57831671 Ry

     iteration #  2     ecut=    29.40 Ry     beta= 0.05
     Davidson diagonalization with overlap
     ethr =  1.00E-02,  avg # of iterations = 24.0

[...]

     iteration # 74     ecut=    29.40 Ry     beta= 0.05
     Davidson diagonalization with overlap
     c_bands:  1 eigenvalues not converged
     c_bands:  3 eigenvalues not converged
     c_bands:  1 eigenvalues not converged
     c_bands:  1 eigenvalues not converged
     c_bands:  1 eigenvalues not converged
     ethr =  1.62E-10,  avg # of iterations = 19.0

[...]

     total energy              =   -2940.41300644 Ry
     estimated scf accuracy    <       0.00000017 Ry

     iteration # 78     ecut=    29.40 Ry     beta= 0.05
     Davidson diagonalization with overlap
     ethr =  4.35E-11,  avg # of iterations = 11.8

     negative rho (up, down):  1.577E-02 0.000E+00

     Adding external electric field

     Computed dipole along edir(3) :
        Dipole                1.4875 Ry au,          3.7808 Debye
        Dipole field          0.0028 Ry au,

        Potential amp.       -0.2602 Ry
        Total length         46.3494 bohr

     End of self-consistent calculation

          k = 0.0000 0.0000 0.0000 ( 18029 PWs)   bands (ev):

   -55.2539 -55.2180 -55.2056 -55.1714 -55.1313 -55.1231 -55.0991 -55.0959
   -55.0717 -55.0524 -55.0374 -55.0344 -55.0008 -54.9840 -54.2331 -54.1991
   -31.8225 -31.7022 -31.6979 -31.6190 -31.5633 -31.5613 -31.5527 -31.5397
   -31.4944 -31.4818 -31.4627 -31.4595 -31.4500 -31.4251 -31.4091 -31.4047
   -31.3903 -31.3788 -31.3698 -31.3684 -31.3580 -31.3456 -31.3193 -31.3168
   -31.3090 -31.3024 -31.2743 -31.2724 -31.2628 -31.2614 -31.2527 -31.2339
   -31.2328 -31.2247 -31.2209 -31.2192 -31.1856 -31.1855 -31.1678 -31.1623
   -31.1454 -31.0939 -30.6425 -30.5484 -30.5263 -30.4588 -30.3720 -30.2611
   -16.7722 -16.0788 -15.8091 -15.6667 -15.5607 -15.4495 -15.3345 -15.3143
   -15.1773 -15.1142 -15.0888 -14.9701 -14.9193 -14.9007 -14.8863 -14.8724
   -14.8659 -14.7947 -14.7895 -14.7662 -14.7458 -14.7331 -14.6902 -14.6884
   -14.6479 -14.6270 -14.5807 -14.4916 -14.4088 -14.3395 -14.0171 -12.7358
   -12.6184  -7.9742  -5.2114  -5.0384  -4.0114  -3.4178  -3.2673  -3.1714
    -3.1451  -3.1293  -2.9998  -2.8526  -2.8429  -2.7475  -2.6381  -2.5869
    -2.5043  -2.4557  -2.4434  -2.4251  -2.2419  -2.2250  -2.1720  -2.1239
    -2.0940  -2.0582  -2.0378  -2.0186  -2.0014  -1.9920  -1.9280  -1.8142
    -1.7786  -1.7265  -1.6750  -1.6497  -1.5957  -1.5750  -1.5391  -1.5331
    -1.5326  -1.4845  -1.4584  -1.4351  -1.3580  -1.2721  -1.1576  -1.1062
    -0.9513  -0.8889  -0.8326  -0.8203  -0.7567  -0.7369  -0.7070  -0.6308
    -0.6229  -0.5903  -0.4715  -0.3773  -0.3378  -0.3234  -0.2707  -0.2342
    -0.2069  -0.1598  -0.0638  -0.0316  -0.0148  -0.0104   0.1397   0.1536
     0.2226   0.2700   0.2917   0.2924   0.4055   0.4219   0.4943   0.5313
     0.5673   0.6406   0.6805   0.6964   0.6991   0.7327   0.7366   0.8276
     0.8497   0.8581   0.9302   1.0798   1.3063   1.3542   1.3621   1.6958
     1.6974   1.7896   1.9732   2.3654   2.4136   3.8446   3.9161   3.9903
     3.9969   4.0225   4.0827   4.3243   4.3346   4.3473   4.3504   4.3916

[...]

          k = 0.0380-0.0419 0.0000 ( 17876 PWs)   bands (ev):

[...]

          k =-0.0760-0.0000 0.0000 ( 17886 PWs)   bands (ev):

[...]

          k =-0.0760-0.0839 0.0000 ( 17948 PWs)   bands (ev):

   -55.2359 -55.2357 -55.1886 -55.1883 -55.1184 -55.1177 -55.1095 -55.0963
   -55.0567 -55.0555 -55.0531 -55.0180 -55.0173 -54.9869 -54.2161 -54.2160
   -31.6263 -31.6258 -31.6253 -31.5250 -31.5131 -31.5129 -31.5123 -31.4797
   -31.4796 -31.4613 -31.4541 -31.4484 -31.4440 -31.3933 -31.3886 -31.3864
   -31.3853 -31.3852 -31.3795 -31.3740 -31.3500 -31.3466 -31.3360 -31.3269
   -31.3259 -31.3199 -31.3113 -31.3083 -31.3080 -31.3016 -31.2887 -31.2860
   -31.2810 -31.2686 -31.2660 -31.2492 -31.2477 -31.2439 -31.1985 -31.1982
   -31.1926 -31.1861 -30.5390 -30.5389 -30.4550 -30.4549 -30.4155 -30.4154
   -16.7634 -15.6113 -15.4948 -15.4537 -15.2660 -15.2575 -15.2267 -15.2145
   -15.1225 -15.0634 -15.0361 -15.0260 -15.0131 -14.9615 -14.9554 -14.9499
   -14.9284 -14.8574 -14.8489 -14.8470 -14.8299 -14.7638 -14.7590 -14.7547
   -14.7438 -14.7008 -14.6979 -14.6036 -14.6016 -14.5075 -14.3839 -12.7200
   -12.7198  -7.9706  -5.2067  -5.0493  -3.9981  -2.7965  -2.7690  -2.7220
    -2.7131  -2.6966  -2.4775  -2.4547  -2.4177  -2.3677  -2.3063  -2.2550
    -2.2467  -2.2300  -2.1629  -2.1242  -2.1077  -2.0942  -2.0758  -2.0602
    -2.0458  -2.0203  -1.9778  -1.9702  -1.9491  -1.9287  -1.8989  -1.8905
    -1.8594  -1.8384  -1.8232  -1.8058  -1.6911  -1.6674  -1.6089  -1.5697
    -1.5284  -1.4560  -1.4508  -1.3537  -1.3463  -1.2920  -1.2803  -1.2541
    -1.1612  -1.0622  -1.0000  -0.9935  -0.9871  -0.8610  -0.8227  -0.7984
    -0.7617  -0.7334  -0.6741  -0.5961  -0.5746  -0.5400  -0.4558  -0.4475
    -0.3907  -0.3100  -0.2761  -0.2456  -0.2160  -0.2085  -0.1988  -0.1455
    -0.1390  -0.0679  -0.0179   0.0155   0.0266   0.0606   0.2654   0.2821
     0.3350   0.4333   0.5060   0.6262   0.6840   0.7052   0.7764   0.8167
     0.8606   0.9231   1.0255   1.0558   1.0588   1.1334   1.1652   1.2071
     1.2111   2.1466   2.1469   2.2334   2.2338   3.9886   4.0825   4.1046
     4.1528   4.2440   4.2792   4.3622   4.3803   4.4305   4.4321   4.5000

     the Fermi energy is     3.9076 ev

!    total energy              =   -2940.41302559 Ry
     estimated scf accuracy    <       0.00000005 Ry
     smearing contrib. (-TS)   =      -0.03731374 Ry
     internal energy E=F+TS    =   -2940.37571186 Ry

     The total energy is F=E-TS. E is the sum of the following terms:
     one-electron contribution =  -23552.77984996 Ry
     hartree contribution      =   11869.08327154 Ry
     xc contribution           =    -485.96068317 Ry
     ewald contribution        =    9229.27737430 Ry
     electric field correction =       0.00417544 Ry

     convergence has been achieved in  78 iterations

     Forces acting on atoms (cartesian axes, Ry/au):

     atom    1 type  1   force =    -0.00002467   -0.00017693    0.09329266
     atom    2 type  1   force =    -0.00014931   -0.00023057   -0.17813652
     atom    3 type  2   force =     0.00006496   -0.00020085   -0.02050663
     atom    4 type  2   force =     0.00000465   -0.00194732    0.05844925
     atom    5 type  2   force =    -0.01028352   -0.00134969    0.00735606
     atom    6 type  2   force =     0.01228005   -0.00075162    0.00784815
     atom    7 type  1   force =     0.00036123    0.00277062   -0.01404393
     atom    8 type  1   force =    -0.00055792    0.00107179   -0.00333835
     atom    9 type  2   force =     0.00004131    0.00050082   -0.00007951
     atom   10 type  2   force =    -0.00055165   -0.00102936   -0.00004654
     atom   11 type  2   force =     0.00010811    0.00011068    0.00005141
     atom   12 type  2   force =    -0.00027468    0.00015959   -0.00006249
     atom   13 type  1   force =    -0.00001850    0.00089533   -0.00028787
     atom   14 type  1   force =     0.00010153    0.00024882   -0.00017814
     atom   15 type  2   force =    -0.00013507    0.00011479    0.00094533
     atom   16 type  2   force =     0.00004671    0.00011119   -0.00006102
     atom   17 type  2   force =     0.00027870   -0.00030665    0.00002267
     atom   18 type  2   force =    -0.00022654   -0.00046090   -0.00047701
     atom   19 type  1   force =    -0.00063832   -0.00022228    0.00007819
     atom   20 type  1   force =    -0.00022950    0.00069905    0.00006439
     atom   21 type  2   force =    -0.00001834    0.00000792    0.10390804
     atom   22 type  2   force =    -0.00028493   -0.00066859   -0.00102684
     atom   23 type  2   force =    -0.07045855   -0.00008693   -0.02688649
     atom   24 type  2   force =     0.07029962    0.00034844   -0.02694086
     atom   25 type  1   force =     0.00004417   -0.00006379    0.09291960
     atom   26 type  1   force =    -0.00017254   -0.00017026   -0.17816997
     atom   27 type  2   force =     0.00012315   -0.00033697   -0.01951604
     atom   28 type  2   force =     0.00003341   -0.00168049    0.05802330
     atom   29 type  2   force =    -0.01039923   -0.00124646    0.00692640
     atom   30 type  2   force =     0.01228383   -0.00091918    0.00743633
     atom   31 type  1   force =     0.00034507    0.00516122   -0.01507445
     atom   32 type  1   force =    -0.00046516   -0.00161488   -0.00356353
     atom   33 type  2   force =    -0.00019367   -0.00022059   -0.00019823
     atom   34 type  2   force =     0.00029217   -0.00052772    0.00104989
     atom   35 type  2   force =    -0.00038274    0.00005907    0.00024196
     atom   36 type  2   force =     0.00031516   -0.00002478    0.00030457
     atom   37 type  1   force =    -0.00011841   -0.00043217   -0.00005041
     atom   38 type  1   force =     0.00013624    0.00033388   -0.00030339
     atom   39 type  2   force =    -0.00034271   -0.00042845    0.00114611
     atom   40 type  2   force =     0.00006800    0.00007104   -0.00019223
     atom   41 type  2   force =    -0.00001794    0.00023490   -0.00028852
     atom   42 type  2   force =    -0.00014274    0.00000526   -0.00039408
     atom   43 type  1   force =    -0.00080839   -0.00014484    0.00009678
     atom   44 type  1   force =     0.00010652    0.00049986    0.00002245
     atom   45 type  2   force =    -0.00001033    0.00000575    0.10386933
     atom   46 type  2   force =    -0.07047561   -0.00004144   -0.02689016
     atom   47 type  2   force =     0.07030067    0.00040064   -0.02696010
     atom   48 type  3   force =     0.00002761   -0.00081512    0.00015623
     atom   49 type  4   force =    -0.00077316    0.00054932   -0.00061043
     atom   50 type  5   force =     0.00014455   -0.00003941    0.00078426
     atom   51 type  3   force =     0.00336932    0.00255458    0.01117666
     atom   52 type  5   force =    -0.00329216   -0.00322323   -0.01245340
     atom   53 type  5   force =     0.00065750    0.00096977    0.00040987
     atom   54 type  5   force =    -0.00038793    0.00147717    0.00015722

     Total force =     0.366430     Total SCF correction =     0.000618
  @ DRIVER MODE: Message from server: STATUS
  @ DRIVER MODE: Message from server: GETFORCE
  @ DRIVER MODE: Returning v,forces,stress,ensemble

     Writing output data file ./calc.save/
  @ DRIVER MODE: Message from server: EXIT
  @ DRIVE MODE: Exiting

     General routines

     Parallel routines

   This run was terminated on:   5: 9:36  24Aug2021

   JOB DONE.