     Program PWSCF v.6.7GPU starts on 16Sep2021 at  3:57:32

     R & G space division:  proc/nbgrp/npool/nimage =      10
     Reading input from /storage/home/hcoda1/3/ntian30/research/carbon/CxH_vib/H2O_calc/ads_slab/CH2NHNH2O_a/out_0039/pw.inp
Warning: card &CELL ignored
Warning: card   CELL_DYNAMICS='IPI', ignored
Warning: card / ignored

     Current dimensions of program PWSCF are:
     Max number of different atomic species (ntypx) = 10
     Max number of k-points (npk) =  40000
     Max angular momentum in pseudopotentials (lmaxx) =  3
     Presently no symmetry can be used with electric field

     Message from routine cell_base_init:
     DEPRECATED: use true lattice parameter, not A to a.u. conversion factor

     IMPORTANT: XC functional enforced from input :
     Exchange-correlation= BEEF-VDW
                           (   1   4  43  14   2   0   0)
     Any further DFT definition will be discarded
     Please, verify this is what you really want

  @ DRIVER MODE: Connecting to
 qe_1139763_2852610.sched-torque.pace.gatech.eduhohlleyw_scratch
  using UNIX socket
  @ DRIVER MODE: Message from server: STATUS
  @ DRIVER MODE: Message from server: INIT
  @ DRIVER MODE: Receiving replica           0          -1
  @ DRIVER MODE: Receiving encoded integer          25
  @ DRIVER MODE:  SCF:  T  FORCE:  T  STRESS:  F  VC:  F  ENSEMBLE:  F
  @ DRIVER MODE:  SCF:  T  FORCE:  T  STRESS:  F  VC:  F  ENSEMBLE:  F

     Using Slab Decomposition

     bravais-lattice index     =            0
     lattice parameter (alat)  =       1.8897  a.u.
     unit-cell volume          =    6658.9804 (a.u.)^3
     number of atoms/cell      =           56
     number of atomic types    =            5
     number of electrons       =       403.00
     number of Kohn-Sham states=          211
     kinetic-energy cutoff     =      29.3995  Ry
     charge density cutoff     =     293.9946  Ry
     scf convergence threshold =      7.3E-08
     mixing beta               =       0.0500
     number of iterations used =            8  plain     mixing
     Exchange-correlation= BEEF-VDW
                           (   1   4  43  14   2   0   0)

     celldm(1)=   1.889726  celldm(2)=   0.000000  celldm(3)=   0.000000
     celldm(4)=   0.000000  celldm(5)=   0.000000  celldm(6)=   0.000000

     crystal axes: (cart. coord. in units of alat)
               a(1) = (   6.579727   0.000000   0.000000 )
               a(2) = (  -0.000775   5.961596   0.000000 )
               a(3) = (   0.000000   0.000000  25.155947 )

     reciprocal axes: (cart. coord. in units 2 pi/alat)
               b(1) = (  0.151982  0.000020  0.000000 )
               b(2) = (  0.000000  0.167740  0.000000 )
               b(3) = (  0.000000  0.000000  0.039752 )

     PseudoPot. # 1 for Ti read from file:
     /storage/coda1/p-amedford6/0/shared/rich_project_chbe-medford/medford-share/data/pseudos_module/espresso/nninc/pbe/van/Ti.UPF
     MD5 check sum: 8e4df49b7f0d34bbd5052bf3f5ea0213
     Pseudo is Ultrasoft, Zval = 12.0
     Generated by new atomic code, or converted to UPF format
     Using radial grid of  851 points,  6 beta functions with:
                l(1) =   0
                l(2) =   0
                l(3) =   1
                l(4) =   1
                l(5) =   2
                l(6) =   2
     Q(r) pseudized with  8 coefficients,  rinner =    1.000   1.000   1.000
                                                       1.000   1.000

     PseudoPot. # 2 for O  read from file:
     /storage/coda1/p-amedford6/0/shared/rich_project_chbe-medford/medford-share/data/pseudos_module/espresso/nninc/pbe/van/O.UPF
     MD5 check sum: 78c19812648e8988a0fe644b0f25305e
     Pseudo is Ultrasoft, Zval =  6.0
     Generated by new atomic code, or converted to UPF format
     Using radial grid of  737 points,  4 beta functions with:
                l(1) =   0
                l(2) =   0
                l(3) =   1
                l(4) =   1
     Q(r) pseudized with  8 coefficients,  rinner =    0.800   0.800   0.800

     PseudoPot. # 3 for H  read from file:
     /storage/coda1/p-amedford6/0/shared/rich_project_chbe-medford/medford-share/data/pseudos_module/espresso/nninc/pbe/van/H.UPF
     MD5 check sum: b5ee9d7bfd3a09ee7748110bda690ff7
     Pseudo is Ultrasoft, Zval =  1.0
     Generated by new atomic code, or converted to UPF format
     Using radial grid of  615 points,  1 beta functions with:
                l(1) =   0
     Q(r) pseudized with  8 coefficients,  rinner =    0.800

     PseudoPot. # 4 for N  read from file:
     /storage/coda1/p-amedford6/0/shared/rich_project_chbe-medford/medford-share/data/pseudos_module/espresso/nninc/pbe/van/N.UPF
     MD5 check sum: 90d10febe142ad51ac9d5be1deb811c4
     Pseudo is Ultrasoft, Zval =  5.0
     Generated by new atomic code, or converted to UPF format
     Using radial grid of  729 points,  4 beta functions with:
                l(1) =   0
                l(2) =   0
                l(3) =   1
                l(4) =   1
     Q(r) pseudized with  8 coefficients,  rinner =    0.800   0.800   0.800

     PseudoPot. # 5 for C  read from file:
     /storage/coda1/p-amedford6/0/shared/rich_project_chbe-medford/medford-share/data/pseudos_module/espresso/nninc/pbe/van/C.UPF
     MD5 check sum: 1a69bf6b8db32088f5b2163dbdb77a27
     Pseudo is Ultrasoft, Zval =  4.0
     Generated by new atomic code, or converted to UPF format
     Using radial grid of  721 points,  4 beta functions with:
                l(1) =   0
                l(2) =   0
                l(3) =   1
                l(4) =   1
     Q(r) pseudized with  8 coefficients,  rinner =    0.800   0.800   0.800

     atomic species   valence    mass     pseudopotential
        Ti1           12.00    47.86700     Ti( 1.00)
        O1             6.00    15.99900     O ( 1.00)
        H1             1.00     1.00800     H ( 1.00)
        N1             5.00    14.00700     N ( 1.00)
        C1             4.00    12.01100     C ( 1.00)

     No symmetry found

   Cartesian axes

     site n.     atom                  positions (alat units)
         1           Ti1 tau(   1) = (   0.0004258   2.9801865   6.0000000  )
         2           Ti1 tau(   2) = (   3.2906075   1.4906267   6.0002472  )
         3           O1  tau(   3) = (   0.0006271   0.0005054   7.9858123  )
         4           O1  tau(   4) = (   3.2906025   0.0005020   7.3038282  )
         5           O1  tau(   5) = (   4.5942328   1.4918067   9.2879030  )
         6           O1  tau(   6) = (   1.9868534   1.4903216   9.2879459  )
         7           Ti1 tau(   7) = (   3.2907910   2.8959150   9.1758416  )
         8           Ti1 tau(   8) = (   0.0015273   1.4827037   9.2680791  )
         9           O1  tau(   9) = (   3.2960012   0.0062018  11.3595187  )
        10           O1  tau(  10) = (   0.0116148   5.9584955  10.6183126  )
        11           O1  tau(  11) = (   1.2731109   1.5057875  12.6314550  )
        12           O1  tau(  12) = (   5.2959999   1.4755877  12.6679080  )
        13           Ti1 tau(  13) = (   0.0553992   2.9538365  12.5526742  )
        14           Ti1 tau(  14) = (   3.3268292   1.5427496  12.5634199  )
        15           O1  tau(  15) = (   0.1371361   5.9015051  14.6217027  )
        16           O1  tau(  16) = (   3.1880369   0.0098958  13.9252199  )
        17           O1  tau(  17) = (   4.6462182   1.4014471  15.8552565  )
        18           O1  tau(  18) = (   2.0822703   1.5558083  16.1249119  )
        19           Ti1 tau(  19) = (   3.3548958   3.0525267  15.8597497  )
        20           Ti1 tau(  20) = (   0.0948755   1.3182250  15.7908873  )
        21           O1  tau(  21) = (   3.2904802   0.0005063   4.7018136  )
        22           O1  tau(  22) = (   0.0722171   0.0319689  17.1393915  )
        23           O1  tau(  23) = (   1.3043587   1.4918075   6.0039043  )
        24           O1  tau(  24) = (   5.2767064   1.4903225   6.0039473  )
        25           Ti1 tau(  25) = (   0.0000382   5.9609847   6.0000000  )
        26           Ti1 tau(  26) = (   3.2902200   4.4714249   6.0002472  )
        27           O1  tau(  27) = (   0.0002396   2.9813036   7.9858123  )
        28           O1  tau(  28) = (   3.2902150   2.9813002   7.3038282  )
        29           O1  tau(  29) = (   4.5938453   4.4726049   9.2879030  )
        30           O1  tau(  30) = (   1.9864658   4.4711199   9.2879459  )
        31           Ti1 tau(  31) = (   3.2891106   5.8743827   9.1763621  )
        32           Ti1 tau(  32) = (   0.0006254   4.4649316   9.2693709  )
        33           O1  tau(  33) = (   3.2982667   2.9897935  11.3544942  )
        34           O1  tau(  34) = (   0.0092240   2.9805883  10.6323155  )
        35           O1  tau(  35) = (   1.2737041   4.4504026  12.6113924  )
        36           O1  tau(  36) = (   5.2903739   4.4874249  12.6576873  )
        37           Ti1 tau(  37) = (   6.5697415   5.9260651  12.4959683  )
        38           Ti1 tau(  38) = (   3.3125242   4.5024033  12.5372123  )
        39           O1  tau(  39) = (   0.0674008   2.9793056  14.8363759  )
        40           O1  tau(  40) = (   3.2999477   2.9756493  13.9369993  )
        41           O1  tau(  41) = (   4.6108370   4.5787535  15.7719701  )
        42           O1  tau(  42) = (   2.0428421   4.3627697  16.1441833  )
        43           Ti1 tau(  43) = (   3.3552955   0.0804576  15.7648105  )
        44           Ti1 tau(  44) = (   6.5672415   4.5273692  15.9765751  )
        45           O1  tau(  45) = (   3.2900926   2.9813045   4.7018136  )
        46           O1  tau(  46) = (   1.3039711   4.4726057   6.0039043  )
        47           O1  tau(  47) = (   5.2763189   4.4711207   6.0039473  )
        48           H1  tau(  48) = (   4.1035413   2.4672077  18.5646977  )
        49           N1  tau(  49) = (   5.6961598   3.2907635  17.7856741  )
        50           C1  tau(  50) = (   6.4968133   2.7471819  18.6454045  )
        51           H1  tau(  51) = (   6.1325458   2.1374441  19.4677963  )
        52           H1  tau(  52) = (   0.9799315   2.9096255  18.5325614  )
        53           N1  tau(  53) = (   4.3409097   3.1788467  17.8642182  )
        54           O1  tau(  54) = (   3.3174094   5.8509012  18.0981057  )
        55           H1  tau(  55) = (   3.6736973   4.9388346  18.2201127  )
        56           H1  tau(  56) = (   2.3597147   5.7972335  18.2603650  )

     number of k points=    10  Fermi-Dirac smearing, width (Ry)=  0.0073
                       cart. coord. in units 2pi/alat
        k(    1) = (   0.0000000   0.0000000   0.0000000), wk =   0.1250000
        k(    2) = (   0.0000000   0.0419351   0.0000000), wk =   0.2500000
        k(    3) = (   0.0000000  -0.0838702   0.0000000), wk =   0.1250000
        k(    4) = (   0.0379955   0.0000049   0.0000000), wk =   0.2500000
        k(    5) = (   0.0379955   0.0419400   0.0000000), wk =   0.2500000
        k(    6) = (   0.0379955  -0.0838652   0.0000000), wk =   0.2500000
        k(    7) = (   0.0379955  -0.0419301   0.0000000), wk =   0.2500000
        k(    8) = (  -0.0759910  -0.0000099   0.0000000), wk =   0.1250000
        k(    9) = (  -0.0759910   0.0419252   0.0000000), wk =   0.2500000
        k(   10) = (  -0.0759910  -0.0838800   0.0000000), wk =   0.1250000

     Initial potential from superposition of free atoms

     starting charge  386.99914, renormalised to  403.00000

     negative rho (up, down):  1.703E-02 0.000E+00

     %%%%%%%%%%%%%%%%%%%%%%%%%%%%%%%%%%%%%%%%%%%%%%%%%%%%%%%%%%%%%%%%%%%%%%%%
     %                                                                      %
     % You are using vdW-DF, which was implemented by the Thonhauser group. %
     % Please cite the following two papers that made this development      %
     % possible and the two reviews that describe the various versions:     %
     %                                                                      %
     %   T. Thonhauser et al., PRL 115, 136402 (2015).                      %
     %   T. Thonhauser et al., PRB 76, 125112 (2007).                       %
     %   K. Berland et al., Rep. Prog. Phys. 78, 066501 (2015).             %
     %   D.C. Langreth et al., J. Phys.: Condens. Matter 21, 084203 (2009). %
     %                                                                      %
     %                                                                      %
     % If you are calculating the stress with vdW-DF, please also cite:     %
     %                                                                      %
     %   R. Sabatini et al., J. Phys.: Condens. Matter 24, 424209 (2012).   %
     %                                                                      %
     %%%%%%%%%%%%%%%%%%%%%%%%%%%%%%%%%%%%%%%%%%%%%%%%%%%%%%%%%%%%%%%%%%%%%%%%

     Adding external electric field

     Computed dipole along edir(3) :
        Dipole              -12.3736 Ry au,        -31.4507 Debye
        Dipole field         -0.0234 Ry au,

        Potential amp.        2.1646 Ry
        Total length         46.3494 bohr

     Starting wfcs are  305 atomic wfcs
  @ DRIVER MODE: Message from server: STATUS
  @ DRIVER MODE: Message from server: POSDATA
  @ DRIVER MODE: Reading and sharing cell
  @ DRIVER MODE: Reading and sharing positions
  @ DRIVER MODE: Received positions

     Self-consistent Calculation

     iteration #  1     ecut=    29.40 Ry     beta= 0.05
     Davidson diagonalization with overlap
     c_bands:  4 eigenvalues not converged
     c_bands:  3 eigenvalues not converged
     c_bands:  3 eigenvalues not converged
     c_bands:  1 eigenvalues not converged
     c_bands:  1 eigenvalues not converged
     c_bands:  4 eigenvalues not converged
     c_bands:  3 eigenvalues not converged
     ethr =  1.00E-05,  avg # of iterations = 27.4

[...]

     total energy              =   -2355.27833982 Ry
     estimated scf accuracy    <    7011.00043586 Ry

     iteration #  2     ecut=    29.40 Ry     beta= 0.05
     Davidson diagonalization with overlap
     ethr =  1.00E-02,  avg # of iterations = 26.2

[...]

     iteration # 57     ecut=    29.40 Ry     beta= 0.05
     Davidson diagonalization with overlap
     c_bands:  1 eigenvalues not converged
     ethr =  6.12E-09,  avg # of iterations = 12.9

[...]

     total energy              =   -2973.97636814 Ry
     estimated scf accuracy    <       0.00000015 Ry

     iteration # 67     ecut=    29.40 Ry     beta= 0.05
     Davidson diagonalization with overlap
     ethr =  2.66E-11,  avg # of iterations =  7.6

     negative rho (up, down):  1.700E-02 0.000E+00

     Adding external electric field

     Computed dipole along edir(3) :
        Dipole                0.9081 Ry au,          2.3082 Debye
        Dipole field          0.0017 Ry au,

        Potential amp.       -0.1589 Ry
        Total length         46.3494 bohr

     End of self-consistent calculation

          k = 0.0000 0.0000 0.0000 ( 18029 PWs)   bands (ev):

   -55.6368 -55.6027 -55.5185 -55.4827 -55.4763 -55.4632 -55.4415 -55.4294
   -55.4244 -55.4068 -55.3903 -55.3896 -55.3560 -55.2390 -54.6229 -54.5889
   -32.1225 -32.0244 -31.9709 -31.9652 -31.9575 -31.9279 -31.9142 -31.8959
   -31.8825 -31.7894 -31.7834 -31.7774 -31.7497 -31.7443 -31.7392 -31.7046
   -31.6942 -31.6811 -31.6761 -31.6682 -31.6614 -31.6598 -31.6442 -31.6411
   -31.6350 -31.6257 -31.6231 -31.6186 -31.6130 -31.6073 -31.6022 -31.5929
   -31.5830 -31.5807 -31.5803 -31.5785 -31.5724 -31.5372 -31.5282 -31.5135
   -31.4399 -31.3674 -31.0298 -30.9414 -30.9190 -30.8469 -30.7604 -30.6490
   -18.4835 -17.7362 -16.3001 -16.1096 -15.8843 -15.7824 -15.7426 -15.5692
   -15.4385 -15.3959 -15.2693 -15.2038 -15.1800 -15.1612 -15.1474 -15.1149
   -15.0915 -15.0677 -15.0658 -15.0466 -15.0222 -14.9996 -14.9715 -14.9535
   -14.9113 -14.7855 -14.7773 -14.7659 -14.7282 -14.6909 -14.2919 -13.1231
   -13.0065 -12.3705  -7.9234  -6.2947  -5.4240  -4.8365  -3.6715  -3.5795
    -3.5469  -3.5236  -3.4436  -3.3220  -3.2286  -3.0345  -2.9250  -2.8959
    -2.8721  -2.7887  -2.7075  -2.6654  -2.5630  -2.5307  -2.5201  -2.4763
    -2.4210  -2.4064  -2.3761  -2.3624  -2.3272  -2.1941  -2.1755  -2.1375
    -2.0252  -2.0087  -2.0008  -1.9588  -1.9546  -1.9242  -1.9141  -1.8960
    -1.8798  -1.8675  -1.8009  -1.7188  -1.6857  -1.6365  -1.5818  -1.5747
    -1.2738  -1.2575  -1.1906  -1.1587  -1.0881  -1.0543  -1.0402  -1.0256
    -0.9958  -0.8943  -0.8044  -0.7854  -0.7222  -0.6611  -0.5619  -0.5473
    -0.4472  -0.3975  -0.3922  -0.3790  -0.3479  -0.2881  -0.2313  -0.1748
    -0.1249  -0.0427   0.0119   0.0211   0.0636   0.1067   0.1363   0.1948
     0.2571   0.2844   0.3175   0.3328   0.3739   0.4340   0.4556   0.4685
     0.5474   0.5869   0.6122   0.7100   0.7193   0.7587   0.8301   1.0148
     1.0604   1.1997   1.3384   1.4018   1.4675   1.5938   1.8735   1.9718
     2.0180   3.4532   3.5873   3.6081   3.6437   3.7154   3.7618   3.9350
     4.0307   4.0525   4.1145

[...]

          k = 0.0380-0.0419 0.0000 ( 17876 PWs)   bands (ev):

[...]

          k =-0.0760-0.0000 0.0000 ( 17886 PWs)   bands (ev):

[...]

          k =-0.0760-0.0839 0.0000 ( 17948 PWs)   bands (ev):

   -55.6197 -55.6197 -55.5037 -55.4971 -55.4610 -55.4570 -55.4462 -55.4458
   -55.4104 -55.4045 -55.4045 -55.3736 -55.3722 -55.2409 -54.6059 -54.6058
   -31.9377 -31.9377 -31.9135 -31.9134 -31.8834 -31.8476 -31.8188 -31.8001
   -31.7895 -31.7743 -31.7651 -31.7528 -31.7484 -31.7395 -31.7393 -31.7323
   -31.7315 -31.7189 -31.7167 -31.7098 -31.6837 -31.6814 -31.6763 -31.6702
   -31.6556 -31.6532 -31.6522 -31.6387 -31.6327 -31.6308 -31.6277 -31.6272
   -31.6232 -31.6203 -31.6197 -31.6152 -31.6135 -31.6031 -31.5871 -31.5355
   -31.4498 -31.4468 -30.9317 -30.9317 -30.8426 -30.8425 -30.8037 -30.8036
   -18.4766 -17.7362 -15.8510 -15.6070 -15.5933 -15.5571 -15.5380 -15.4188
   -15.3737 -15.3697 -15.3488 -15.2936 -15.2588 -15.2214 -15.1898 -15.1722
   -15.1485 -15.1375 -15.0953 -15.0924 -15.0855 -15.0636 -15.0220 -15.0116
   -14.9872 -14.9668 -14.9623 -14.9499 -14.9170 -14.7491 -14.6401 -13.1083
   -13.1082 -12.3864  -7.8834  -6.2793  -5.4824  -4.7588  -3.1435  -3.0642
    -3.0125  -2.7999  -2.7551  -2.7342  -2.7014  -2.6414  -2.5883  -2.5709
    -2.5527  -2.5237  -2.5147  -2.4620  -2.4362  -2.4106  -2.3862  -2.3698
    -2.3610  -2.3473  -2.3213  -2.3020  -2.2817  -2.2695  -2.2468  -2.2362
    -2.2137  -2.2054  -2.1913  -2.1690  -2.0805  -1.9992  -1.8979  -1.8379
    -1.7939  -1.7936  -1.7632  -1.7341  -1.7061  -1.7016  -1.6624  -1.6330
    -1.5612  -1.5025  -1.3194  -1.3053  -1.2608  -1.1763  -1.1748  -1.1281
    -1.1189  -1.0671  -1.0401  -0.9935  -0.9440  -0.9106  -0.8231  -0.6697
    -0.6210  -0.6011  -0.5952  -0.5801  -0.5395  -0.5247  -0.4727  -0.4552
    -0.4395  -0.3741  -0.3420  -0.3377  -0.2884  -0.2692  -0.1564  -0.0573
    -0.0315   0.0225   0.0619   0.1817   0.2944   0.3630   0.4644   0.4788
     0.4969   0.5506   0.6587   0.6687   0.7133   0.7767   0.8415   0.8472
     0.8775   0.9418   0.9534   0.9904   1.7647   1.7663   1.8229   1.8380
     1.8381   3.8620   3.9025   3.9532   3.9593   3.9832   4.0333   4.0407
     4.0714   4.1216   4.1373

     the Fermi energy is     3.4857 ev

!    total energy              =   -2973.97640569 Ry
     estimated scf accuracy    <       0.00000006 Ry
     smearing contrib. (-TS)   =      -0.01978213 Ry
     internal energy E=F+TS    =   -2973.95662357 Ry

     The total energy is F=E-TS. E is the sum of the following terms:
     one-electron contribution =  -24367.79161111 Ry
     hartree contribution      =   12278.45413663 Ry
     xc contribution           =    -494.14033851 Ry
     ewald contribution        =    9609.51963310 Ry
     electric field correction =       0.00155632 Ry

     convergence has been achieved in  67 iterations

     Forces acting on atoms (cartesian axes, Ry/au):

     atom    1 type  1   force =     0.00016172   -0.00031582    0.09441075
     atom    2 type  1   force =    -0.00007238   -0.00076628   -0.17586082
     atom    3 type  2   force =     0.00005883   -0.00019215   -0.02182967
     atom    4 type  2   force =     0.00003794   -0.00133637    0.05332959
     atom    5 type  2   force =    -0.00870375   -0.00018347    0.00367018
     atom    6 type  2   force =     0.01037164    0.00046891    0.00302231
     atom    7 type  1   force =    -0.00045596    0.00080913   -0.00105202
     atom    8 type  1   force =     0.00044556    0.00750750    0.00862690
     atom    9 type  2   force =     0.00046567    0.00015434    0.00005144
     atom   10 type  2   force =    -0.00262779    0.00131838   -0.01722500
     atom   11 type  2   force =    -0.00009184    0.00008971   -0.00039569
     atom   12 type  2   force =     0.00031712    0.00007463   -0.00007377
     atom   13 type  1   force =    -0.00041418   -0.00038435   -0.00022629
     atom   14 type  1   force =     0.00036227    0.00012690    0.00019902
     atom   15 type  2   force =     0.00012958   -0.00003310   -0.00027052
     atom   16 type  2   force =     0.00022054    0.00018839    0.00019998
     atom   17 type  2   force =    -0.00011944   -0.00016436    0.00014813
     atom   18 type  2   force =     0.00015422   -0.00029415    0.00018748
     atom   19 type  1   force =    -0.00043210    0.00047250   -0.00059131
     atom   20 type  1   force =     0.00007695   -0.00012597    0.00005464
     atom   21 type  2   force =     0.00006629   -0.00000170    0.10326724
     atom   22 type  2   force =    -0.00021267   -0.00040208   -0.00003019
     atom   23 type  2   force =    -0.07152779   -0.00011283   -0.02735554
     atom   24 type  2   force =     0.07146398    0.00037431   -0.02736552
     atom   25 type  1   force =     0.00004556   -0.00021257    0.09440023
     atom   26 type  1   force =    -0.00013570   -0.00029781   -0.17598661
     atom   27 type  2   force =     0.00003780   -0.00019138   -0.02072779
     atom   28 type  2   force =     0.00009502   -0.00112962    0.05371994
     atom   29 type  2   force =    -0.00878471   -0.00002345    0.00343699
     atom   30 type  2   force =     0.01029831    0.00036434    0.00286835
     atom   31 type  1   force =    -0.00032821    0.00465551    0.00188803
     atom   32 type  1   force =     0.00042937   -0.00852225    0.00857663
     atom   33 type  2   force =    -0.00003661    0.00003168   -0.00002148
     atom   34 type  2   force =    -0.00403250   -0.00112336   -0.01182146
     atom   35 type  2   force =     0.00013372    0.00007547    0.00033922
     atom   36 type  2   force =     0.00054134    0.00005668   -0.00021574
     atom   37 type  1   force =     0.00061047   -0.00020043   -0.00002793
     atom   38 type  1   force =     0.00022411   -0.00020310   -0.00012509
     atom   39 type  2   force =    -0.00013384   -0.00007598   -0.00021028
     atom   40 type  2   force =     0.00046228   -0.00000947    0.00036742
     atom   41 type  2   force =    -0.00010233    0.00044035   -0.00001013
     atom   42 type  2   force =    -0.00000721    0.00001200   -0.00040912
     atom   43 type  1   force =    -0.00018147   -0.00045297   -0.00024959
     atom   44 type  1   force =     0.00033951    0.00046474    0.00092767
     atom   45 type  2   force =     0.00005247    0.00000096    0.10333507
     atom   46 type  2   force =    -0.07152420   -0.00004101   -0.02734475
     atom   47 type  2   force =     0.07146501    0.00035485   -0.02736753
     atom   48 type  3   force =     0.00050812   -0.00059732   -0.00064234
     atom   49 type  4   force =    -0.00009631   -0.00000094   -0.00044752
     atom   50 type  5   force =     0.00017073   -0.00160842   -0.00096048
     atom   51 type  3   force =    -0.00043125    0.00042245    0.00098869
     atom   52 type  3   force =    -0.00006921   -0.00021440    0.00006237
     atom   53 type  4   force =     0.00043346   -0.00050505    0.00067826
     atom   54 type  2   force =    -0.00309322    0.01539312   -0.00146975
     atom   55 type  3   force =     0.00279909   -0.01250734    0.00148347
     atom   56 type  3   force =     0.00063602   -0.00162734    0.00007397

     Total force =     0.364354     Total SCF correction =     0.000640
  @ DRIVER MODE: Message from server: STATUS
  @ DRIVER MODE: Message from server: GETFORCE
  @ DRIVER MODE: Returning v,forces,stress,ensemble

     Writing output data file ./calc.save/
  @ DRIVER MODE: Message from server: EXIT
  @ DRIVE MODE: Exiting

     General routines

     Parallel routines

   This run was terminated on:   4:16:15  16Sep2021

   JOB DONE.