     Program PWSCF v.6.7GPU starts on 22Sep2021 at 23:50:18

     R & G space division:  proc/nbgrp/npool/nimage =      10
     Reading input from /storage/home/hcoda1/3/ntian30/research/carbon/CxH_vib/H2O_calc/ads_slab/CHNHNH2H2O_b/out_0022/pw.inp
Warning: card &CELL ignored
Warning: card   CELL_DYNAMICS='IPI', ignored
Warning: card / ignored

     Current dimensions of program PWSCF are:
     Max number of different atomic species (ntypx) = 10
     Max number of k-points (npk) =  40000
     Max angular momentum in pseudopotentials (lmaxx) =  3
     Presently no symmetry can be used with electric field

     Message from routine cell_base_init:
     DEPRECATED: use true lattice parameter, not A to a.u. conversion factor

     IMPORTANT: XC functional enforced from input :
     Exchange-correlation= BEEF-VDW
                           (   1   4  43  14   2   0   0)
     Any further DFT definition will be discarded
     Please, verify this is what you really want

  @ DRIVER MODE: Connecting to
 qe_1139763_2937312.sched-torque.pace.gatech.eduaqxwbve8_scratch
  using UNIX socket
  @ DRIVER MODE: Message from server: STATUS
  @ DRIVER MODE: Message from server: INIT
  @ DRIVER MODE: Receiving replica           0          -1
  @ DRIVER MODE: Receiving encoded integer          25
  @ DRIVER MODE:  SCF:  T  FORCE:  T  STRESS:  F  VC:  F  ENSEMBLE:  F
  @ DRIVER MODE:  SCF:  T  FORCE:  T  STRESS:  F  VC:  F  ENSEMBLE:  F

     Using Slab Decomposition

     bravais-lattice index     =            0
     lattice parameter (alat)  =       1.8897  a.u.
     unit-cell volume          =    6658.9804 (a.u.)^3
     number of atoms/cell      =           57
     number of atomic types    =            5
     number of electrons       =       404.00
     number of Kohn-Sham states=          212
     kinetic-energy cutoff     =      29.3995  Ry
     charge density cutoff     =     293.9946  Ry
     scf convergence threshold =      7.3E-08
     mixing beta               =       0.0500
     number of iterations used =            8  plain     mixing
     Exchange-correlation= BEEF-VDW
                           (   1   4  43  14   2   0   0)

     celldm(1)=   1.889726  celldm(2)=   0.000000  celldm(3)=   0.000000
     celldm(4)=   0.000000  celldm(5)=   0.000000  celldm(6)=   0.000000

     crystal axes: (cart. coord. in units of alat)
               a(1) = (   6.579727   0.000000   0.000000 )
               a(2) = (  -0.000775   5.961596   0.000000 )
               a(3) = (   0.000000   0.000000  25.155947 )

     reciprocal axes: (cart. coord. in units 2 pi/alat)
               b(1) = (  0.151982  0.000020  0.000000 )
               b(2) = (  0.000000  0.167740  0.000000 )
               b(3) = (  0.000000  0.000000  0.039752 )

     PseudoPot. # 1 for Ti read from file:
     /storage/coda1/p-amedford6/0/shared/rich_project_chbe-medford/medford-share/data/pseudos_module/espresso/nninc/pbe/van/Ti.UPF
     MD5 check sum: 8e4df49b7f0d34bbd5052bf3f5ea0213
     Pseudo is Ultrasoft, Zval = 12.0
     Generated by new atomic code, or converted to UPF format
     Using radial grid of  851 points,  6 beta functions with:
                l(1) =   0
                l(2) =   0
                l(3) =   1
                l(4) =   1
                l(5) =   2
                l(6) =   2
     Q(r) pseudized with  8 coefficients,  rinner =    1.000   1.000   1.000
                                                       1.000   1.000

     PseudoPot. # 2 for O  read from file:
     /storage/coda1/p-amedford6/0/shared/rich_project_chbe-medford/medford-share/data/pseudos_module/espresso/nninc/pbe/van/O.UPF
     MD5 check sum: 78c19812648e8988a0fe644b0f25305e
     Pseudo is Ultrasoft, Zval =  6.0
     Generated by new atomic code, or converted to UPF format
     Using radial grid of  737 points,  4 beta functions with:
                l(1) =   0
                l(2) =   0
                l(3) =   1
                l(4) =   1
     Q(r) pseudized with  8 coefficients,  rinner =    0.800   0.800   0.800

     PseudoPot. # 3 for N  read from file:
     /storage/coda1/p-amedford6/0/shared/rich_project_chbe-medford/medford-share/data/pseudos_module/espresso/nninc/pbe/van/N.UPF
     MD5 check sum: 90d10febe142ad51ac9d5be1deb811c4
     Pseudo is Ultrasoft, Zval =  5.0
     Generated by new atomic code, or converted to UPF format
     Using radial grid of  729 points,  4 beta functions with:
                l(1) =   0
                l(2) =   0
                l(3) =   1
                l(4) =   1
     Q(r) pseudized with  8 coefficients,  rinner =    0.800   0.800   0.800

     PseudoPot. # 4 for C  read from file:
     /storage/coda1/p-amedford6/0/shared/rich_project_chbe-medford/medford-share/data/pseudos_module/espresso/nninc/pbe/van/C.UPF
     MD5 check sum: 1a69bf6b8db32088f5b2163dbdb77a27
     Pseudo is Ultrasoft, Zval =  4.0
     Generated by new atomic code, or converted to UPF format
     Using radial grid of  721 points,  4 beta functions with:
                l(1) =   0
                l(2) =   0
                l(3) =   1
                l(4) =   1
     Q(r) pseudized with  8 coefficients,  rinner =    0.800   0.800   0.800

     PseudoPot. # 5 for H  read from file:
     /storage/coda1/p-amedford6/0/shared/rich_project_chbe-medford/medford-share/data/pseudos_module/espresso/nninc/pbe/van/H.UPF
     MD5 check sum: b5ee9d7bfd3a09ee7748110bda690ff7
     Pseudo is Ultrasoft, Zval =  1.0
     Generated by new atomic code, or converted to UPF format
     Using radial grid of  615 points,  1 beta functions with:
                l(1) =   0
     Q(r) pseudized with  8 coefficients,  rinner =    0.800

     atomic species   valence    mass     pseudopotential
        Ti1           12.00    47.86700     Ti( 1.00)
        O1             6.00    15.99900     O ( 1.00)
        N1             5.00    14.00700     N ( 1.00)
        C1             4.00    12.01100     C ( 1.00)
        H1             1.00     1.00800     H ( 1.00)

     No symmetry found

   Cartesian axes

     site n.     atom                  positions (alat units)
         1           Ti1 tau(   1) = (   0.0004258   2.9801865   6.0000000  )
         2           Ti1 tau(   2) = (   3.2906075   1.4906267   6.0002472  )
         3           O1  tau(   3) = (   0.0006271   0.0005054   7.9858123  )
         4           O1  tau(   4) = (   3.2906025   0.0005020   7.3038282  )
         5           O1  tau(   5) = (   4.5942328   1.4918067   9.2879030  )
         6           O1  tau(   6) = (   1.9868534   1.4903216   9.2879459  )
         7           Ti1 tau(   7) = (   3.2907910   2.8959150   9.1758416  )
         8           Ti1 tau(   8) = (   0.0015273   1.4827037   9.2680791  )
         9           O1  tau(   9) = (   3.3066417   5.9496923  11.3845403  )
        10           O1  tau(  10) = (   0.0116148   5.9584955  10.6183126  )
        11           O1  tau(  11) = (   1.3010148   1.4986442  12.6442229  )
        12           O1  tau(  12) = (   5.3085967   1.5001388  12.6592367  )
        13           Ti1 tau(  13) = (   0.0282779   2.9853959  12.5065338  )
        14           Ti1 tau(  14) = (   3.3279724   1.4707331  12.5413945  )
        15           O1  tau(  15) = (   0.0378505   0.0859181  14.6860672  )
        16           O1  tau(  16) = (   3.3018867   0.0259462  14.0338077  )
        17           O1  tau(  17) = (   4.5998927   1.5484098  16.1661054  )
        18           O1  tau(  18) = (   2.0454451   1.5021798  16.2221046  )
        19           Ti1 tau(  19) = (   3.3206312   2.9825829  15.7321521  )
        20           Ti1 tau(  20) = (   0.0140791   1.4435866  15.9983415  )
        21           O1  tau(  21) = (   3.2904802   0.0005063   4.7018136  )
        22           O1  tau(  22) = (   6.5273045   5.8164216  17.2577718  )
        23           O1  tau(  23) = (   1.3043587   1.4918075   6.0039043  )
        24           O1  tau(  24) = (   5.2767064   1.4903225   6.0039473  )
        25           Ti1 tau(  25) = (   0.0000382   5.9609847   6.0000000  )
        26           Ti1 tau(  26) = (   3.2902200   4.4714249   6.0002472  )
        27           O1  tau(  27) = (   0.0002396   2.9813036   7.9858123  )
        28           O1  tau(  28) = (   3.2902150   2.9813002   7.3038282  )
        29           O1  tau(  29) = (   4.5938453   4.4726049   9.2879030  )
        30           O1  tau(  30) = (   1.9864658   4.4711199   9.2879459  )
        31           Ti1 tau(  31) = (   3.2891106   5.8743827   9.1763621  )
        32           Ti1 tau(  32) = (   0.0006254   4.4649316   9.2693709  )
        33           O1  tau(  33) = (   3.3068470   2.9864458  11.3814114  )
        34           O1  tau(  34) = (   0.0092240   2.9805883  10.6323155  )
        35           O1  tau(  35) = (   1.2982948   4.4740332  12.6840172  )
        36           O1  tau(  36) = (   5.3097620   4.4704985  12.6972095  )
        37           Ti1 tau(  37) = (   0.0348817   0.0130325  12.4954113  )
        38           Ti1 tau(  38) = (   3.3270268   4.4633798  12.5435021  )
        39           O1  tau(  39) = (   0.0563025   2.9439880  14.9425960  )
        40           O1  tau(  40) = (   3.2900316   2.9661073  13.9503945  )
        41           O1  tau(  41) = (   4.5967999   4.4093095  16.0633277  )
        42           O1  tau(  42) = (   2.0412097   4.4536800  16.1303113  )
        43           Ti1 tau(  43) = (   3.2964201   5.9600488  15.8742613  )
        44           Ti1 tau(  44) = (   0.0241369   4.6516137  15.8518307  )
        45           O1  tau(  45) = (   3.2900926   2.9813045   4.7018136  )
        46           O1  tau(  46) = (   1.3039711   4.4726057   6.0039043  )
        47           O1  tau(  47) = (   5.2763189   4.4711207   6.0039473  )
        48           N1  tau(  48) = (   1.4509408   2.7109095  18.7602185  )
        49           N1  tau(  49) = (   0.0917387   2.5303350  18.2207845  )
        50           C1  tau(  50) = (   1.9503960   3.7723240  19.2784661  )
        51           H1  tau(  51) = (   1.1612915   4.5373475  19.4152495  )
        52           H1  tau(  52) = (   2.0208952   1.9183395  18.4664618  )
        53           H1  tau(  53) = (   6.1377449   3.3539424  18.4987646  )
        54           H1  tau(  54) = (   6.2616785   1.7135167  18.6767212  )
        55           O1  tau(  55) = (   3.7012217   5.9496235  18.2853534  )
        56           H1  tau(  56) = (   4.6684668   5.8470116  18.1670174  )
        57           H1  tau(  57) = (   3.3852657   5.1278045  18.7338684  )

     number of k points=    10  Fermi-Dirac smearing, width (Ry)=  0.0073
                       cart. coord. in units 2pi/alat
        k(    1) = (   0.0000000   0.0000000   0.0000000), wk =   0.1250000
        k(    2) = (   0.0000000   0.0419351   0.0000000), wk =   0.2500000
        k(    3) = (   0.0000000  -0.0838702   0.0000000), wk =   0.1250000
        k(    4) = (   0.0379955   0.0000049   0.0000000), wk =   0.2500000
        k(    5) = (   0.0379955   0.0419400   0.0000000), wk =   0.2500000
        k(    6) = (   0.0379955  -0.0838652   0.0000000), wk =   0.2500000
        k(    7) = (   0.0379955  -0.0419301   0.0000000), wk =   0.2500000
        k(    8) = (  -0.0759910  -0.0000099   0.0000000), wk =   0.1250000
        k(    9) = (  -0.0759910   0.0419252   0.0000000), wk =   0.2500000
        k(   10) = (  -0.0759910  -0.0838800   0.0000000), wk =   0.1250000

     Initial potential from superposition of free atoms

     starting charge  387.99913, renormalised to  404.00000

     negative rho (up, down):  1.598E-02 0.000E+00

     %%%%%%%%%%%%%%%%%%%%%%%%%%%%%%%%%%%%%%%%%%%%%%%%%%%%%%%%%%%%%%%%%%%%%%%%
     %                                                                      %
     % You are using vdW-DF, which was implemented by the Thonhauser group. %
     % Please cite the following two papers that made this development      %
     % possible and the two reviews that describe the various versions:     %
     %                                                                      %
     %   T. Thonhauser et al., PRL 115, 136402 (2015).                      %
     %   T. Thonhauser et al., PRB 76, 125112 (2007).                       %
     %   K. Berland et al., Rep. Prog. Phys. 78, 066501 (2015).             %
     %   D.C. Langreth et al., J. Phys.: Condens. Matter 21, 084203 (2009). %
     %                                                                      %
     %                                                                      %
     % If you are calculating the stress with vdW-DF, please also cite:     %
     %                                                                      %
     %   R. Sabatini et al., J. Phys.: Condens. Matter 24, 424209 (2012).   %
     %                                                                      %
     %%%%%%%%%%%%%%%%%%%%%%%%%%%%%%%%%%%%%%%%%%%%%%%%%%%%%%%%%%%%%%%%%%%%%%%%

     Adding external electric field

     Computed dipole along edir(3) :
        Dipole              -14.3585 Ry au,        -36.4957 Debye
        Dipole field         -0.0271 Ry au,

        Potential amp.        2.5118 Ry
        Total length         46.3494 bohr

     Starting wfcs are  306 atomic wfcs
  @ DRIVER MODE: Message from server: STATUS
  @ DRIVER MODE: Message from server: POSDATA
  @ DRIVER MODE: Reading and sharing cell
  @ DRIVER MODE: Reading and sharing positions
  @ DRIVER MODE: Received positions

     Self-consistent Calculation

     iteration #  1     ecut=    29.40 Ry     beta= 0.05
     Davidson diagonalization with overlap
     c_bands:  3 eigenvalues not converged
     c_bands:  4 eigenvalues not converged
     c_bands:  4 eigenvalues not converged
     c_bands:  4 eigenvalues not converged
     c_bands:  5 eigenvalues not converged
     c_bands:  3 eigenvalues not converged
     c_bands:  2 eigenvalues not converged
     c_bands:  4 eigenvalues not converged
     ethr =  1.00E-05,  avg # of iterations = 21.9

[...]

     total energy              =   -2220.95434815 Ry
     estimated scf accuracy    <    8587.35243217 Ry

     iteration #  2     ecut=    29.40 Ry     beta= 0.05
     Davidson diagonalization with overlap
     ethr =  1.00E-02,  avg # of iterations = 28.1

[...]

     iteration # 74     ecut=    29.40 Ry     beta= 0.05
     Davidson diagonalization with overlap
     ethr =  3.96E-11,  avg # of iterations =  5.1

[...]

     total energy              =   -2975.10520420 Ry
     estimated scf accuracy    <       0.00000009 Ry

     iteration # 75     ecut=    29.40 Ry     beta= 0.05
     Davidson diagonalization with overlap
     c_bands:  2 eigenvalues not converged
     c_bands:  1 eigenvalues not converged
     c_bands:  1 eigenvalues not converged
     ethr =  2.12E-11,  avg # of iterations = 14.6

     negative rho (up, down):  1.578E-02 0.000E+00

     Adding external electric field

     Computed dipole along edir(3) :
        Dipole                1.0232 Ry au,          2.6007 Debye
        Dipole field          0.0019 Ry au,

        Potential amp.       -0.1790 Ry
        Total length         46.3494 bohr

     End of self-consistent calculation

          k = 0.0000 0.0000 0.0000 ( 18029 PWs)   bands (ev):

   -55.3850 -55.3492 -55.3450 -55.3109 -55.3078 -55.3021 -55.2669 -55.2316
   -55.2165 -55.1816 -55.1750 -55.1593 -55.1413 -55.1120 -54.3765 -54.3425
   -31.9440 -31.8799 -31.8377 -31.7565 -31.7076 -31.7050 -31.6809 -31.6779
   -31.6338 -31.5980 -31.5910 -31.5896 -31.5826 -31.5789 -31.5610 -31.5590
   -31.5343 -31.5263 -31.5234 -31.5120 -31.4977 -31.4911 -31.4723 -31.4674
   -31.4591 -31.4462 -31.4454 -31.4167 -31.4023 -31.3985 -31.3956 -31.3734
   -31.3694 -31.3654 -31.3619 -31.3404 -31.3296 -31.3173 -31.3027 -31.3025
   -31.2923 -31.2861 -30.7860 -30.6915 -30.6694 -30.6023 -30.5156 -30.4047
   -18.8799 -18.4569 -16.2198 -15.9725 -15.8364 -15.7319 -15.5947 -15.4965
   -15.3873 -15.2740 -15.2510 -15.1571 -15.0829 -15.0789 -15.0417 -15.0161
   -14.9536 -14.9322 -14.9084 -14.9023 -14.8878 -14.8776 -14.8411 -14.8302
   -14.7971 -14.7864 -14.7690 -14.6479 -14.6263 -14.5517 -14.4811 -14.3438
   -12.8791 -12.7616  -9.8236  -6.9995  -6.3789  -6.0784  -4.4215  -3.7295
    -3.5434  -3.4100  -3.3317  -3.3026  -3.2854  -3.1538  -3.0613  -2.9018
    -2.8631  -2.8068  -2.6734  -2.5976  -2.5912  -2.5032  -2.4308  -2.4075
    -2.3745  -2.2654  -2.2590  -2.2093  -2.1919  -2.1689  -2.1595  -2.1128
    -2.0668  -2.0396  -1.9546  -1.8531  -1.8093  -1.7895  -1.7532  -1.7306
    -1.7258  -1.6822  -1.6759  -1.6521  -1.6135  -1.5891  -1.5437  -1.4316
    -1.3905  -1.2316  -1.1940  -1.0399  -1.0194  -0.9801  -0.9597  -0.9234
    -0.8933  -0.8770  -0.8616  -0.7720  -0.7137  -0.6475  -0.5834  -0.4926
    -0.4821  -0.4082  -0.3824  -0.3173  -0.2300  -0.1851  -0.1755  -0.1507
    -0.1474  -0.0336   0.0112   0.0715   0.0901   0.1475   0.1633   0.1855
     0.2556   0.3091   0.3786   0.4093   0.4884   0.5066   0.5417   0.5509
     0.5832   0.5937   0.6699   0.6847   0.7129   0.8156   0.9131   1.0065
     1.2167   1.2186   1.2596   1.5510   1.5532   1.6463   1.8297   2.2227
     2.2711   3.7048   3.7832   3.8327   3.8504   3.8550   3.9398   4.1943
     4.2087   4.2213   4.2275   4.2682

[...]

          k = 0.0380-0.0419 0.0000 ( 17876 PWs)   bands (ev):

[...]

          k =-0.0760-0.0000 0.0000 ( 17886 PWs)   bands (ev):

[...]

          k =-0.0760-0.0839 0.0000 ( 17948 PWs)   bands (ev):

   -55.3681 -55.3658 -55.3279 -55.3279 -55.3049 -55.3012 -55.2532 -55.2452
   -55.2022 -55.1955 -55.1611 -55.1591 -55.1574 -55.1137 -54.3594 -54.3594
   -31.7945 -31.7564 -31.7423 -31.6528 -31.6528 -31.6382 -31.6264 -31.6191
   -31.6190 -31.5981 -31.5931 -31.5899 -31.5671 -31.5592 -31.5473 -31.5335
   -31.5304 -31.5277 -31.5238 -31.5157 -31.5110 -31.5090 -31.5079 -31.5002
   -31.4685 -31.4671 -31.4477 -31.4477 -31.4472 -31.4420 -31.4395 -31.4351
   -31.4257 -31.4143 -31.4085 -31.3919 -31.3902 -31.3801 -31.3390 -31.3379
   -31.3370 -31.3184 -30.6821 -30.6820 -30.5986 -30.5984 -30.5590 -30.5590
   -18.8740 -18.4593 -15.8392 -15.6527 -15.5013 -15.4296 -15.4093 -15.3260
   -15.2706 -15.2674 -15.1943 -15.1763 -15.1638 -15.1423 -15.1326 -15.0853
   -15.0481 -15.0115 -14.9927 -14.9700 -14.9269 -14.9043 -14.9027 -14.8959
   -14.8882 -14.8477 -14.8426 -14.8393 -14.7477 -14.7458 -14.7071 -14.5592
   -12.8631 -12.8631  -9.8330  -6.9883  -6.3543  -6.0542  -4.4353  -3.6562
    -3.0235  -2.9108  -2.9002  -2.6713  -2.6530  -2.5919  -2.5794  -2.4914
    -2.4757  -2.4152  -2.3916  -2.3415  -2.3185  -2.2806  -2.2668  -2.2451
    -2.2241  -2.2104  -2.1837  -2.1677  -2.1509  -2.1311  -2.1201  -2.1087
    -2.0534  -2.0478  -2.0389  -2.0136  -1.9905  -1.9545  -1.9445  -1.9282
    -1.7727  -1.7570  -1.7356  -1.6002  -1.5959  -1.5617  -1.5216  -1.4941
    -1.4362  -1.4276  -1.3994  -1.3406  -1.1469  -1.1364  -1.1243  -1.1064
    -1.0353  -0.9798  -0.9659  -0.9479  -0.8943  -0.8162  -0.7823  -0.7298
    -0.6410  -0.5887  -0.5793  -0.5535  -0.4322  -0.4094  -0.3668  -0.3488
    -0.3326  -0.2981  -0.2966  -0.2392  -0.1865  -0.1510  -0.1280  -0.1138
    -0.0768   0.0780   0.1300   0.1463   0.2606   0.2899   0.4680   0.5108
     0.5325   0.6376   0.7208   0.7491   0.7633   0.8890   0.9110   0.9133
     0.9817   1.0039   1.0639   1.0697   1.2165   2.0024   2.0036   2.0909
     2.0912   3.8299   3.9527   3.9970   4.0328   4.1089   4.1615   4.2186
     4.2777   4.2895   4.2932   4.3591

     the Fermi energy is     3.7669 ev

!    total energy              =   -2975.10523662 Ry
     estimated scf accuracy    <       0.00000005 Ry
     smearing contrib. (-TS)   =      -0.03671980 Ry
     internal energy E=F+TS    =   -2975.06851682 Ry

     The total energy is F=E-TS. E is the sum of the following terms:
     one-electron contribution =  -23505.37892298 Ry
     hartree contribution      =   11848.70704907 Ry
     xc contribution           =    -494.91318052 Ry
     ewald contribution        =    9176.51456198 Ry
     electric field correction =       0.00197564 Ry

     convergence has been achieved in  75 iterations

     Forces acting on atoms (cartesian axes, Ry/au):

     atom    1 type  1   force =     0.00002762   -0.00025173    0.09309546
     atom    2 type  1   force =    -0.00018662   -0.00032189   -0.17836539
     atom    3 type  2   force =     0.00006092   -0.00017528   -0.02024593
     atom    4 type  2   force =     0.00001769   -0.00203792    0.05925625
     atom    5 type  2   force =    -0.01034723   -0.00110078    0.00808244
     atom    6 type  2   force =     0.01219278   -0.00054615    0.00816199
     atom    7 type  1   force =     0.00014818    0.00329195   -0.01111156
     atom    8 type  1   force =    -0.00030171    0.00053201   -0.00561914
     atom    9 type  2   force =     0.00004216    0.00017507   -0.00015895
     atom   10 type  2   force =    -0.00146344   -0.00004027   -0.00172365
     atom   11 type  2   force =     0.00037435   -0.00003860   -0.00006101
     atom   12 type  2   force =    -0.00009513    0.00010309   -0.00009058
     atom   13 type  1   force =    -0.00009858   -0.00017263   -0.00023233
     atom   14 type  1   force =    -0.00021280   -0.00035840    0.00035309
     atom   15 type  2   force =     0.00007002   -0.00048881    0.00005967
     atom   16 type  2   force =     0.00021807    0.00009402    0.00024630
     atom   17 type  2   force =     0.00035400   -0.00015913    0.00017699
     atom   18 type  2   force =    -0.00006427   -0.00011612   -0.00009011
     atom   19 type  1   force =    -0.00028075   -0.00044618   -0.00001188
     atom   20 type  1   force =     0.00011677    0.00030371    0.00056623
     atom   21 type  2   force =    -0.00000423   -0.00007556    0.10403088
     atom   22 type  2   force =    -0.00012190   -0.00001296   -0.00012980
     atom   23 type  2   force =    -0.07035433   -0.00015556   -0.02683319
     atom   24 type  2   force =     0.07022393    0.00029186   -0.02691040
     atom   25 type  1   force =     0.00001793   -0.00015803    0.09275507
     atom   26 type  1   force =    -0.00016166   -0.00039628   -0.17831516
     atom   27 type  2   force =     0.00011203   -0.00030363   -0.01919207
     atom   28 type  2   force =     0.00004799   -0.00163593    0.05840453
     atom   29 type  2   force =    -0.01029664   -0.00064108    0.00728771
     atom   30 type  2   force =     0.01203474   -0.00030973    0.00742301
     atom   31 type  1   force =     0.00007777    0.00515402   -0.01464966
     atom   32 type  1   force =    -0.00013688   -0.00052128   -0.00596478
     atom   33 type  2   force =     0.00012950   -0.00039368   -0.00025016
     atom   34 type  2   force =    -0.00078696    0.00261111   -0.00104747
     atom   35 type  2   force =    -0.00007469   -0.00011218   -0.00012494
     atom   36 type  2   force =     0.00023785    0.00000528   -0.00015257
     atom   37 type  1   force =    -0.00044643    0.00008044    0.00003994
     atom   38 type  1   force =    -0.00002562   -0.00024555   -0.00023343
     atom   39 type  2   force =    -0.00030208   -0.00020883   -0.00017812
     atom   40 type  2   force =    -0.00013558   -0.00006159   -0.00003707
     atom   41 type  2   force =    -0.00014528   -0.00016485    0.00036591
     atom   42 type  2   force =    -0.00006579   -0.00027097    0.00014531
     atom   43 type  1   force =     0.00001930   -0.00031377    0.00007817
     atom   44 type  1   force =     0.00000427   -0.00001370    0.00019571
     atom   45 type  2   force =     0.00000871   -0.00011322    0.10400106
     atom   46 type  2   force =    -0.07037450   -0.00012450   -0.02685412
     atom   47 type  2   force =     0.07022120    0.00030982   -0.02691460
     atom   48 type  3   force =    -0.00090527    0.00231892    0.00087583
     atom   49 type  3   force =    -0.00100563   -0.00084288   -0.00005259
     atom   50 type  4   force =    -0.00328023    0.00643761    0.00140981
     atom   51 type  5   force =     0.00464459   -0.00733346   -0.00165613
     atom   52 type  5   force =     0.00008044   -0.00101281   -0.00009437
     atom   53 type  5   force =    -0.00000245    0.00005975    0.00004531
     atom   54 type  5   force =     0.00023842    0.00053781   -0.00004567
     atom   55 type  2   force =     0.00005797   -0.00013116    0.00060318
     atom   56 type  5   force =     0.00024593   -0.00037700   -0.00041761
     atom   57 type  5   force =    -0.00034843   -0.00012240    0.00010462

     Total force =     0.366380     Total SCF correction =     0.000685
  @ DRIVER MODE: Message from server: STATUS
  @ DRIVER MODE: Message from server: GETFORCE
  @ DRIVER MODE: Returning v,forces,stress,ensemble

     Writing output data file ./calc.save/
  @ DRIVER MODE: Message from server: EXIT
  @ DRIVE MODE: Exiting

     General routines

     Parallel routines

   This run was terminated on:   0:11:17  23Sep2021

   JOB DONE.