     Program PWSCF v.6.7GPU starts on 24Aug2021 at 18:40:18

     R & G space division:  proc/nbgrp/npool/nimage =      72
     Reading input from /storage/home/hcoda1/3/ntian30/research/carbon/CH2_vib/ads_slab/CH2NNH3_a/out_0024/pw.inp
Warning: card &CELL ignored
Warning: card   CELL_DYNAMICS='IPI', ignored
Warning: card / ignored

     Current dimensions of program PWSCF are:
     Max number of different atomic species (ntypx) = 10
     Max number of k-points (npk) =  40000
     Max angular momentum in pseudopotentials (lmaxx) =  3
     Presently no symmetry can be used with electric field

     Message from routine cell_base_init:
     DEPRECATED: use true lattice parameter, not A to a.u. conversion factor

     IMPORTANT: XC functional enforced from input :
     Exchange-correlation= BEEF-VDW
                           (   1   4  43  14   2   0   0)
     Any further DFT definition will be discarded
     Please, verify this is what you really want

  @ DRIVER MODE: Connecting to
 qe_1139763_2641442.sched-torque.pace.gatech.edupsw6bgfx_scratch
  using UNIX socket
  @ DRIVER MODE: Message from server: STATUS
  @ DRIVER MODE: Message from server: INIT
  @ DRIVER MODE: Receiving replica           0          -1
  @ DRIVER MODE: Receiving encoded integer          25
  @ DRIVER MODE:  SCF:  T  FORCE:  T  STRESS:  F  VC:  F  ENSEMBLE:  F
  @ DRIVER MODE:  SCF:  T  FORCE:  T  STRESS:  F  VC:  F  ENSEMBLE:  F

     Using Slab Decomposition

     bravais-lattice index     =            0
     lattice parameter (alat)  =       1.8897  a.u.
     unit-cell volume          =    6658.9804 (a.u.)^3
     number of atoms/cell      =           55
     number of atomic types    =            5
     number of electrons       =       397.00
     number of Kohn-Sham states=          208
     kinetic-energy cutoff     =      29.3995  Ry
     charge density cutoff     =     293.9946  Ry
     scf convergence threshold =      7.3E-08
     mixing beta               =       0.0500
     number of iterations used =            8  plain     mixing
     Exchange-correlation= BEEF-VDW
                           (   1   4  43  14   2   0   0)

     celldm(1)=   1.889726  celldm(2)=   0.000000  celldm(3)=   0.000000
     celldm(4)=   0.000000  celldm(5)=   0.000000  celldm(6)=   0.000000

     crystal axes: (cart. coord. in units of alat)
               a(1) = (   6.579727   0.000000   0.000000 )
               a(2) = (  -0.000775   5.961596   0.000000 )
               a(3) = (   0.000000   0.000000  25.155947 )

     reciprocal axes: (cart. coord. in units 2 pi/alat)
               b(1) = (  0.151982  0.000020  0.000000 )
               b(2) = (  0.000000  0.167740  0.000000 )
               b(3) = (  0.000000  0.000000  0.039752 )

     PseudoPot. # 1 for Ti read from file:
     /storage/coda1/p-amedford6/0/shared/rich_project_chbe-medford/medford-share/data/pseudos_module/espresso/nninc/pbe/van/Ti.UPF
     MD5 check sum: 8e4df49b7f0d34bbd5052bf3f5ea0213
     Pseudo is Ultrasoft, Zval = 12.0
     Generated by new atomic code, or converted to UPF format
     Using radial grid of  851 points,  6 beta functions with:
                l(1) =   0
                l(2) =   0
                l(3) =   1
                l(4) =   1
                l(5) =   2
                l(6) =   2
     Q(r) pseudized with  8 coefficients,  rinner =    1.000   1.000   1.000
                                                       1.000   1.000

     PseudoPot. # 2 for O  read from file:
     /storage/coda1/p-amedford6/0/shared/rich_project_chbe-medford/medford-share/data/pseudos_module/espresso/nninc/pbe/van/O.UPF
     MD5 check sum: 78c19812648e8988a0fe644b0f25305e
     Pseudo is Ultrasoft, Zval =  6.0
     Generated by new atomic code, or converted to UPF format
     Using radial grid of  737 points,  4 beta functions with:
                l(1) =   0
                l(2) =   0
                l(3) =   1
                l(4) =   1
     Q(r) pseudized with  8 coefficients,  rinner =    0.800   0.800   0.800

     PseudoPot. # 3 for N  read from file:
     /storage/coda1/p-amedford6/0/shared/rich_project_chbe-medford/medford-share/data/pseudos_module/espresso/nninc/pbe/van/N.UPF
     MD5 check sum: 90d10febe142ad51ac9d5be1deb811c4
     Pseudo is Ultrasoft, Zval =  5.0
     Generated by new atomic code, or converted to UPF format
     Using radial grid of  729 points,  4 beta functions with:
                l(1) =   0
                l(2) =   0
                l(3) =   1
                l(4) =   1
     Q(r) pseudized with  8 coefficients,  rinner =    0.800   0.800   0.800

     PseudoPot. # 4 for C  read from file:
     /storage/coda1/p-amedford6/0/shared/rich_project_chbe-medford/medford-share/data/pseudos_module/espresso/nninc/pbe/van/C.UPF
     MD5 check sum: 1a69bf6b8db32088f5b2163dbdb77a27
     Pseudo is Ultrasoft, Zval =  4.0
     Generated by new atomic code, or converted to UPF format
     Using radial grid of  721 points,  4 beta functions with:
                l(1) =   0
                l(2) =   0
                l(3) =   1
                l(4) =   1
     Q(r) pseudized with  8 coefficients,  rinner =    0.800   0.800   0.800

     PseudoPot. # 5 for H  read from file:
     /storage/coda1/p-amedford6/0/shared/rich_project_chbe-medford/medford-share/data/pseudos_module/espresso/nninc/pbe/van/H.UPF
     MD5 check sum: b5ee9d7bfd3a09ee7748110bda690ff7
     Pseudo is Ultrasoft, Zval =  1.0
     Generated by new atomic code, or converted to UPF format
     Using radial grid of  615 points,  1 beta functions with:
                l(1) =   0
     Q(r) pseudized with  8 coefficients,  rinner =    0.800

     atomic species   valence    mass     pseudopotential
        Ti1           12.00    47.86700     Ti( 1.00)
        O1             6.00    15.99900     O ( 1.00)
        N1             5.00    14.00700     N ( 1.00)
        C1             4.00    12.01100     C ( 1.00)
        H1             1.00     1.00800     H ( 1.00)

     No symmetry found

   Cartesian axes

     site n.     atom                  positions (alat units)
         1           Ti1 tau(   1) = (   0.0004258   2.9801865   6.0000000  )
         2           Ti1 tau(   2) = (   3.2906075   1.4906267   6.0002472  )
         3           O1  tau(   3) = (   0.0006271   0.0005054   7.9858123  )
         4           O1  tau(   4) = (   3.2906025   0.0005020   7.3038282  )
         5           O1  tau(   5) = (   4.5942328   1.4918067   9.2879030  )
         6           O1  tau(   6) = (   1.9868534   1.4903216   9.2879459  )
         7           Ti1 tau(   7) = (   3.2907910   2.8959150   9.1758416  )
         8           Ti1 tau(   8) = (   0.0015273   1.4827037   9.2680791  )
         9           O1  tau(   9) = (   3.2870044   0.0008392  11.3329265  )
        10           O1  tau(  10) = (   0.0116148   5.9584955  10.6183126  )
        11           O1  tau(  11) = (   1.3103063   1.4923116  12.6208530  )
        12           O1  tau(  12) = (   5.2933663   1.4849185  12.6124200  )
        13           Ti1 tau(  13) = (   6.5212574   2.9536302  12.6166858  )
        14           Ti1 tau(  14) = (   3.2058376   1.4897313  12.4816367  )
        15           O1  tau(  15) = (   6.5713238   0.0136578  14.6546308  )
        16           O1  tau(  16) = (   3.3039920   0.0133407  13.9274802  )
        17           O1  tau(  17) = (   4.5398155   1.5323753  16.0810081  )
        18           O1  tau(  18) = (   2.0543055   1.5218724  16.0470058  )
        19           Ti1 tau(  19) = (   3.2774803   3.0107093  15.7022328  )
        20           Ti1 tau(  20) = (   6.5342633   1.5374647  15.8423947  )
        21           O1  tau(  21) = (   3.2904802   0.0005063   4.7018136  )
        22           O1  tau(  22) = (   0.0034288   0.0322173  17.2228558  )
        23           O1  tau(  23) = (   1.3043587   1.4918075   6.0039043  )
        24           O1  tau(  24) = (   5.2767064   1.4903225   6.0039473  )
        25           Ti1 tau(  25) = (   0.0000382   5.9609847   6.0000000  )
        26           Ti1 tau(  26) = (   3.2902200   4.4714249   6.0002472  )
        27           O1  tau(  27) = (   0.0002396   2.9813036   7.9858123  )
        28           O1  tau(  28) = (   3.2902150   2.9813002   7.3038282  )
        29           O1  tau(  29) = (   4.5938453   4.4726049   9.2879030  )
        30           O1  tau(  30) = (   1.9864658   4.4711199   9.2879459  )
        31           Ti1 tau(  31) = (   3.2891106   5.8743827   9.1763621  )
        32           Ti1 tau(  32) = (   0.0006254   4.4649316   9.2693709  )
        33           O1  tau(  33) = (   3.2848367   2.9872869  11.3311783  )
        34           O1  tau(  34) = (   0.0092240   2.9805883  10.6323155  )
        35           O1  tau(  35) = (   1.3050274   4.4824158  12.6313026  )
        36           O1  tau(  36) = (   5.2955027   4.4751037  12.6224712  )
        37           Ti1 tau(  37) = (   6.5218534   5.9301143  12.5590122  )
        38           Ti1 tau(  38) = (   3.2037265   4.4702053  12.4865905  )
        39           O1  tau(  39) = (   6.5652647   2.9430126  14.6458727  )
        40           O1  tau(  40) = (   3.3006234   2.9978660  13.9063397  )
        41           O1  tau(  41) = (   4.5289998   4.4870283  16.1192093  )
        42           O1  tau(  42) = (   2.0463452   4.4937679  16.0531255  )
        43           Ti1 tau(  43) = (   3.2679282   0.0255942  15.7259849  )
        44           Ti1 tau(  44) = (   6.5624932   4.6695214  16.1100661  )
        45           O1  tau(  45) = (   3.2900926   2.9813045   4.7018136  )
        46           O1  tau(  46) = (   1.3039711   4.4726057   6.0039043  )
        47           O1  tau(  47) = (   5.2763189   4.4711207   6.0039473  )
        48           N1  tau(  48) = (   0.0665130   2.9625449  17.3937163  )
        49           C1  tau(  49) = (   0.2662726   2.8715582  18.6342609  )
        50           H1  tau(  50) = (   0.3859136   3.7587535  19.2661104  )
        51           H1  tau(  51) = (   0.3502417   1.8926937  19.1373272  )
        52           N1  tau(  52) = (   3.5829462   4.8819607  19.5834040  )
        53           H1  tau(  53) = (   4.1394342   5.6873527  19.8504637  )
        54           H1  tau(  54) = (   4.0752263   4.4438539  18.8113048  )
        55           H1  tau(  55) = (   3.6086599   4.2347498  20.3655469  )

     number of k points=    10  Fermi-Dirac smearing, width (Ry)=  0.0073
                       cart. coord. in units 2pi/alat
        k(    1) = (   0.0000000   0.0000000   0.0000000), wk =   0.1250000
        k(    2) = (   0.0000000   0.0419351   0.0000000), wk =   0.2500000
        k(    3) = (   0.0000000  -0.0838702   0.0000000), wk =   0.1250000
        k(    4) = (   0.0379955   0.0000049   0.0000000), wk =   0.2500000
        k(    5) = (   0.0379955   0.0419400   0.0000000), wk =   0.2500000
        k(    6) = (   0.0379955  -0.0838652   0.0000000), wk =   0.2500000
        k(    7) = (   0.0379955  -0.0419301   0.0000000), wk =   0.2500000
        k(    8) = (  -0.0759910  -0.0000099   0.0000000), wk =   0.1250000
        k(    9) = (  -0.0759910   0.0419252   0.0000000), wk =   0.2500000
        k(   10) = (  -0.0759910  -0.0838800   0.0000000), wk =   0.1250000

     Initial potential from superposition of free atoms

     starting charge  380.99914, renormalised to  397.00000

     negative rho (up, down):  1.455E-02 0.000E+00

     %%%%%%%%%%%%%%%%%%%%%%%%%%%%%%%%%%%%%%%%%%%%%%%%%%%%%%%%%%%%%%%%%%%%%%%%
     %                                                                      %
     % You are using vdW-DF, which was implemented by the Thonhauser group. %
     % Please cite the following two papers that made this development      %
     % possible and the two reviews that describe the various versions:     %
     %                                                                      %
     %   T. Thonhauser et al., PRL 115, 136402 (2015).                      %
     %   T. Thonhauser et al., PRB 76, 125112 (2007).                       %
     %   K. Berland et al., Rep. Prog. Phys. 78, 066501 (2015).             %
     %   D.C. Langreth et al., J. Phys.: Condens. Matter 21, 084203 (2009). %
     %                                                                      %
     %                                                                      %
     % If you are calculating the stress with vdW-DF, please also cite:     %
     %                                                                      %
     %   R. Sabatini et al., J. Phys.: Condens. Matter 24, 424209 (2012).   %
     %                                                                      %
     %%%%%%%%%%%%%%%%%%%%%%%%%%%%%%%%%%%%%%%%%%%%%%%%%%%%%%%%%%%%%%%%%%%%%%%%

     Adding external electric field

     Computed dipole along edir(3) :
        Dipole              -10.1110 Ry au,        -25.6997 Debye
        Dipole field         -0.0191 Ry au,

        Potential amp.        1.7688 Ry
        Total length         46.3494 bohr

     Starting wfcs are  301 atomic wfcs
  @ DRIVER MODE: Message from server: STATUS
  @ DRIVER MODE: Message from server: POSDATA
  @ DRIVER MODE: Reading and sharing cell
  @ DRIVER MODE: Reading and sharing positions
  @ DRIVER MODE: Received positions

     Self-consistent Calculation

     iteration #  1     ecut=    29.40 Ry     beta= 0.05
     Davidson diagonalization with overlap
     c_bands:  2 eigenvalues not converged
     c_bands:  1 eigenvalues not converged
     c_bands:  1 eigenvalues not converged
     c_bands:  1 eigenvalues not converged
     c_bands:  1 eigenvalues not converged
     c_bands:  1 eigenvalues not converged
     c_bands:  1 eigenvalues not converged
     c_bands:  2 eigenvalues not converged
     ethr =  1.00E-05,  avg # of iterations = 19.0

[...]

     total energy              =   -2537.38749734 Ry
     estimated scf accuracy    <    4509.65832118 Ry

     iteration #  2     ecut=    29.40 Ry     beta= 0.05
     Davidson diagonalization with overlap
     ethr =  1.00E-02,  avg # of iterations = 24.7

[...]

     iteration # 68     ecut=    29.40 Ry     beta= 0.05
     Davidson diagonalization with overlap
     ethr =  3.42E-11,  avg # of iterations =  1.2

[...]

     total energy              =   -2941.70789931 Ry
     estimated scf accuracy    <       0.00000011 Ry

     iteration # 69     ecut=    29.40 Ry     beta= 0.05
     Davidson diagonalization with overlap
     c_bands:  1 eigenvalues not converged
     ethr =  2.71E-11,  avg # of iterations =  9.3

     negative rho (up, down):  1.501E-02 0.000E+00

     Adding external electric field

     Computed dipole along edir(3) :
        Dipole                0.8856 Ry au,          2.2509 Debye
        Dipole field          0.0017 Ry au,

        Potential amp.       -0.1549 Ry
        Total length         46.3494 bohr

     End of self-consistent calculation

          k = 0.0000 0.0000 0.0000 ( 18029 PWs)   bands (ev):

   -55.7594 -55.7513 -55.7253 -55.7154 -55.6454 -55.6048 -55.5885 -55.5703
   -55.5683 -55.5343 -55.5323 -55.4987 -55.2794 -55.0275 -54.7366 -54.7026
   -32.3043 -32.2416 -32.1060 -32.0952 -32.0670 -32.0639 -32.0523 -32.0228
   -32.0019 -31.9783 -31.9716 -31.9512 -31.9310 -31.9116 -31.9033 -31.8904
   -31.8763 -31.8635 -31.8492 -31.8165 -31.8142 -31.8114 -31.7699 -31.7633
   -31.7627 -31.7609 -31.7561 -31.7469 -31.7343 -31.7197 -31.7120 -31.7076
   -31.7026 -31.6986 -31.6853 -31.6755 -31.6445 -31.5335 -31.4604 -31.3086
   -31.2812 -31.2351 -31.1437 -31.0553 -31.0329 -30.9604 -30.8739 -30.7629
   -16.4998 -16.2343 -16.0176 -15.9131 -15.8781 -15.7624 -15.5981 -15.4789
   -15.4266 -15.3285 -15.3148 -15.2951 -15.2616 -15.2453 -15.2246 -15.2057
   -15.2010 -15.1834 -15.1699 -15.1185 -15.0957 -15.0584 -14.9612 -14.9317
   -14.8938 -14.8774 -14.8195 -14.8144 -14.6780 -14.3305 -14.0417 -13.2390
   -13.1226  -7.2921  -4.1710  -4.1196  -4.0020  -3.8756  -3.7681  -3.7131
    -3.6645  -3.6045  -3.3991  -3.3084  -3.2845  -2.9867  -2.9409  -2.9258
    -2.9039  -2.8784  -2.6588  -2.6040  -2.5724  -2.5553  -2.5406  -2.5274
    -2.5197  -2.5002  -2.4662  -2.3686  -2.3148  -2.2999  -2.1769  -2.1485
    -2.0883  -2.0712  -2.0246  -2.0097  -1.9967  -1.9919  -1.9639  -1.9474
    -1.9226  -1.8436  -1.7282  -1.5755  -1.5574  -1.5236  -1.4036  -1.3663
    -1.3025  -1.2189  -1.2007  -1.1845  -1.1504  -1.1391  -1.0597  -0.9467
    -0.9066  -0.8981  -0.7946  -0.7546  -0.7344  -0.6303  -0.6067  -0.5382
    -0.5219  -0.5119  -0.4790  -0.3186  -0.2612  -0.2263  -0.1617  -0.1385
    -0.0791  -0.0613  -0.0311   0.0519   0.0998   0.1264   0.1282   0.1771
     0.2155   0.2322   0.2361   0.2510   0.2712   0.4382   0.5141   0.5280
     0.5975   0.6091   0.7715   0.8161   0.8982   1.0004   1.0435   1.2112
     1.2855   1.3749   1.4777   1.6796   1.8567   1.9023   3.3776   3.4609
     3.5093   3.5216   3.6199   3.6610   3.8305   3.8384   3.8488   3.9231

[...]

          k = 0.0380-0.0419 0.0000 ( 17876 PWs)   bands (ev):

[...]

          k =-0.0760-0.0000 0.0000 ( 17886 PWs)   bands (ev):

[...]

          k =-0.0760-0.0839 0.0000 ( 17948 PWs)   bands (ev):

   -55.7427 -55.7419 -55.7340 -55.7324 -55.6395 -55.5943 -55.5893 -55.5858
   -55.5519 -55.5502 -55.5163 -55.5150 -55.2783 -55.0284 -54.7196 -54.7195
   -32.1092 -32.1066 -32.0572 -32.0566 -32.0381 -32.0372 -32.0226 -32.0104
   -31.9579 -31.9539 -31.9493 -31.9451 -31.9105 -31.8838 -31.8823 -31.8792
   -31.8698 -31.8638 -31.8622 -31.8614 -31.8551 -31.8527 -31.8427 -31.8085
   -31.8024 -31.7951 -31.7828 -31.7701 -31.7508 -31.7504 -31.7474 -31.7464
   -31.7308 -31.7301 -31.7251 -31.7222 -31.6430 -31.5360 -31.4569 -31.3754
   -31.2829 -31.2571 -31.0457 -31.0456 -30.9565 -30.9564 -30.9172 -30.9172
   -15.9392 -15.9079 -15.7025 -15.6755 -15.6720 -15.6559 -15.5310 -15.4679
   -15.4545 -15.4522 -15.3883 -15.3680 -15.3313 -15.3039 -15.2898 -15.2796
   -15.2739 -15.2677 -15.2189 -15.2131 -15.1952 -15.1881 -15.0852 -15.0755
   -15.0716 -15.0168 -14.9363 -14.7944 -14.6945 -14.5040 -14.0414 -13.2244
   -13.2244  -7.2886  -4.1870  -4.0918  -4.0148  -3.4445  -3.2290  -3.1918
    -2.9323  -2.9143  -2.9007  -2.8454  -2.6727  -2.6553  -2.6339  -2.6159
    -2.5820  -2.5811  -2.5619  -2.5603  -2.5491  -2.5148  -2.5031  -2.4733
    -2.4359  -2.4255  -2.4137  -2.4124  -2.3822  -2.3725  -2.3337  -2.3043
    -2.2952  -2.2767  -2.2619  -2.0929  -1.9843  -1.9591  -1.8958  -1.8880
    -1.8591  -1.8228  -1.8155  -1.7949  -1.7440  -1.6581  -1.4910  -1.4588
    -1.4405  -1.3784  -1.3610  -1.3100  -1.2301  -1.1562  -1.1340  -1.1286
    -1.0790  -0.9696  -0.9468  -0.9387  -0.8689  -0.8227  -0.8155  -0.7803
    -0.7517  -0.7187  -0.7144  -0.6225  -0.5730  -0.5300  -0.5250  -0.4767
    -0.4094  -0.3982  -0.3695  -0.2604  -0.2377  -0.1802  -0.1453  -0.0355
     0.0280   0.2258   0.2796   0.3159   0.3731   0.4480   0.5303   0.5457
     0.5501   0.5606   0.6162   0.6700   0.7743   0.7831   0.8381   0.9451
     1.0102   1.6036   1.6492   1.6499   1.7222   1.7222   3.6599   3.6717
     3.7105   3.7312   3.8695   3.8849   3.9087   3.9097   3.9608   4.0482

     the Fermi energy is     3.3748 ev

!    total energy              =   -2941.70792046 Ry
     estimated scf accuracy    <       0.00000002 Ry
     smearing contrib. (-TS)   =      -0.02185905 Ry
     internal energy E=F+TS    =   -2941.68606142 Ry

     The total energy is F=E-TS. E is the sum of the following terms:
     one-electron contribution =  -23924.77543748 Ry
     hartree contribution      =   12052.01521746 Ry
     xc contribution           =    -486.76146681 Ry
     ewald contribution        =    9417.83414549 Ry
     electric field correction =       0.00147991 Ry

     convergence has been achieved in  69 iterations

     Forces acting on atoms (cartesian axes, Ry/au):

     atom    1 type  1   force =     0.00003158   -0.00025505    0.09663084
     atom    2 type  1   force =     0.00003551   -0.00058153   -0.17538862
     atom    3 type  2   force =     0.00011433   -0.00004268   -0.02486072
     atom    4 type  2   force =    -0.00000150   -0.00141769    0.05293225
     atom    5 type  2   force =    -0.01227078   -0.00026738    0.00348652
     atom    6 type  2   force =     0.01362409    0.00026119    0.00256139
     atom    7 type  1   force =     0.00031630    0.00058156   -0.01139973
     atom    8 type  1   force =     0.00052130    0.00784058    0.02842263
     atom    9 type  2   force =     0.00020455    0.00041374    0.00053315
     atom   10 type  2   force =    -0.00292019    0.00138078   -0.01554939
     atom   11 type  2   force =     0.00067307   -0.00000622   -0.00001166
     atom   12 type  2   force =    -0.00008388   -0.00013815   -0.00013353
     atom   13 type  1   force =    -0.00018271   -0.00031911    0.00096250
     atom   14 type  1   force =     0.00018714   -0.00007626   -0.00022039
     atom   15 type  2   force =     0.00017452    0.00046834    0.00025816
     atom   16 type  2   force =    -0.00033304   -0.00036117   -0.00030713
     atom   17 type  2   force =    -0.00066185    0.00001978   -0.00047702
     atom   18 type  2   force =     0.00038579    0.00044287   -0.00006854
     atom   19 type  1   force =    -0.00050430   -0.00080509   -0.00018801
     atom   20 type  1   force =     0.00046495    0.00083857   -0.00113205
     atom   21 type  2   force =     0.00005421   -0.00006240    0.10319924
     atom   22 type  2   force =    -0.00080104   -0.00002975    0.00051959
     atom   23 type  2   force =    -0.07149710   -0.00014398   -0.02771341
     atom   24 type  2   force =     0.07142252    0.00031699   -0.02778956
     atom   25 type  1   force =     0.00016597   -0.00024495    0.09626580
     atom   26 type  1   force =     0.00009258   -0.00022542   -0.17563024
     atom   27 type  2   force =     0.00017080   -0.00018845   -0.02391068
     atom   28 type  2   force =    -0.00000021   -0.00117729    0.05284765
     atom   29 type  2   force =    -0.01240038    0.00039137    0.00318102
     atom   30 type  2   force =     0.01365357    0.00085462    0.00222747
     atom   31 type  1   force =     0.00028694    0.00324147   -0.01198934
     atom   32 type  1   force =     0.00065452   -0.01007461    0.02882780
     atom   33 type  2   force =     0.00024206   -0.00024629    0.00066744
     atom   34 type  2   force =    -0.00238119    0.00102594   -0.02369250
     atom   35 type  2   force =     0.00059664   -0.00070749   -0.00008591
     atom   36 type  2   force =    -0.00016167   -0.00079036    0.00017724
     atom   37 type  1   force =    -0.00017181   -0.00014146    0.00046233
     atom   38 type  1   force =     0.00030605    0.00036959   -0.00067092
     atom   39 type  2   force =    -0.00009828   -0.00076812    0.00122641
     atom   40 type  2   force =     0.00026463   -0.00062118   -0.00013715
     atom   41 type  2   force =    -0.00023996   -0.00063055   -0.00003023
     atom   42 type  2   force =    -0.00034505   -0.00024564   -0.00004150
     atom   43 type  1   force =    -0.00050297    0.00071789    0.00009034
     atom   44 type  1   force =    -0.00015198    0.00028602   -0.00034689
     atom   45 type  2   force =     0.00007295   -0.00006798    0.10321829
     atom   46 type  2   force =    -0.07153319   -0.00008526   -0.02773899
     atom   47 type  2   force =     0.07143805    0.00033763   -0.02780183
     atom   48 type  3   force =     0.00005477   -0.00184935   -0.00005885
     atom   49 type  4   force =     0.00085728   -0.00383242    0.00397563
     atom   50 type  5   force =    -0.00039177    0.00121955    0.00081754
     atom   51 type  5   force =    -0.00080436    0.00429041   -0.00450903
     atom   52 type  3   force =    -0.00158981    0.00029374   -0.00061369
     atom   53 type  5   force =     0.00138180    0.00075568   -0.00012798
     atom   54 type  5   force =     0.00138401   -0.00040239    0.00101137
     atom   55 type  5   force =     0.00019653    0.00045739   -0.00187713

     Total force =     0.368162     Total SCF correction =     0.000293
  @ DRIVER MODE: Message from server: STATUS
  @ DRIVER MODE: Message from server: GETFORCE
  @ DRIVER MODE: Returning v,forces,stress,ensemble

     Writing output data file ./calc.save/
  @ DRIVER MODE: Message from server: EXIT
  @ DRIVE MODE: Exiting

     General routines

     Parallel routines

   This run was terminated on:  19: 5:29  24Aug2021

   JOB DONE.