     Program PWSCF v.6.7GPU starts on 18Oct2021 at 23:29:34

     R & G space division:  proc/nbgrp/npool/nimage =       8
     Reading input from /storage/home/hcoda1/3/ntian30/research/carbon/CxH_vib/Thiel_calc/ads_slab/NH2NHH_perslab/out_0026/pw.inp
Warning: card &CELL ignored
Warning: card   CELL_DYNAMICS='IPI', ignored
Warning: card / ignored

     Current dimensions of program PWSCF are:
     Max number of different atomic species (ntypx) = 10
     Max number of k-points (npk) =  40000
     Max angular momentum in pseudopotentials (lmaxx) =  3
     Presently no symmetry can be used with electric field

     Message from routine cell_base_init:
     DEPRECATED: use true lattice parameter, not A to a.u. conversion factor

     IMPORTANT: XC functional enforced from input :
     Exchange-correlation= BEEF-VDW
                           (   1   4  43  14   2   0   0)
     Any further DFT definition will be discarded
     Please, verify this is what you really want

  @ DRIVER MODE: Connecting to
 qe_1139763_3255134.sched-torque.pace.gatech.edu8116_12k_scratch
  using UNIX socket
  @ DRIVER MODE: Message from server: STATUS
  @ DRIVER MODE: Message from server: INIT
  @ DRIVER MODE: Receiving replica           0          -1
  @ DRIVER MODE: Receiving encoded integer          25
  @ DRIVER MODE:  SCF:  T  FORCE:  T  STRESS:  F  VC:  F  ENSEMBLE:  F
  @ DRIVER MODE:  SCF:  T  FORCE:  T  STRESS:  F  VC:  F  ENSEMBLE:  F

     Using Slab Decomposition

     bravais-lattice index     =            0
     lattice parameter (alat)  =       1.8897  a.u.
     unit-cell volume          =    9988.4706 (a.u.)^3
     number of atoms/cell      =           59
     number of atomic types    =            4
     number of electrons       =       440.00
     number of Kohn-Sham states=          230
     kinetic-energy cutoff     =      29.3995  Ry
     charge density cutoff     =     293.9946  Ry
     scf convergence threshold =      7.3E-08
     mixing beta               =       0.0500
     number of iterations used =            8  plain     mixing
     Exchange-correlation= BEEF-VDW
                           (   1   4  43  14   2   0   0)

     celldm(1)=   1.889726  celldm(2)=   0.000000  celldm(3)=   0.000000
     celldm(4)=   0.000000  celldm(5)=   0.000000  celldm(6)=   0.000000

     crystal axes: (cart. coord. in units of alat)
               a(1) = (   6.579727   0.000000   0.000000 )
               a(2) = (  -0.001163   8.942395   0.000000 )
               a(3) = (   0.000000   0.000000  25.155947 )

     reciprocal axes: (cart. coord. in units 2 pi/alat)
               b(1) = (  0.151982  0.000020  0.000000 )
               b(2) = (  0.000000  0.111827  0.000000 )
               b(3) = (  0.000000  0.000000  0.039752 )

     PseudoPot. # 1 for O  read from file:
     /storage/coda1/p-amedford6/0/shared/rich_project_chbe-medford/medford-share/data/pseudos_module/espresso/nninc/pbe/van/O.UPF
     MD5 check sum: 78c19812648e8988a0fe644b0f25305e
     Pseudo is Ultrasoft, Zval =  6.0
     Generated by new atomic code, or converted to UPF format
     Using radial grid of  737 points,  4 beta functions with:
                l(1) =   0
                l(2) =   0
                l(3) =   1
                l(4) =   1
     Q(r) pseudized with  8 coefficients,  rinner =    0.800   0.800   0.800

     PseudoPot. # 2 for Ti read from file:
     /storage/coda1/p-amedford6/0/shared/rich_project_chbe-medford/medford-share/data/pseudos_module/espresso/nninc/pbe/van/Ti.UPF
     MD5 check sum: 8e4df49b7f0d34bbd5052bf3f5ea0213
     Pseudo is Ultrasoft, Zval = 12.0
     Generated by new atomic code, or converted to UPF format
     Using radial grid of  851 points,  6 beta functions with:
                l(1) =   0
                l(2) =   0
                l(3) =   1
                l(4) =   1
                l(5) =   2
                l(6) =   2
     Q(r) pseudized with  8 coefficients,  rinner =    1.000   1.000   1.000
                                                       1.000   1.000

     PseudoPot. # 3 for H  read from file:
     /storage/coda1/p-amedford6/0/shared/rich_project_chbe-medford/medford-share/data/pseudos_module/espresso/nninc/pbe/van/H.UPF
     MD5 check sum: b5ee9d7bfd3a09ee7748110bda690ff7
     Pseudo is Ultrasoft, Zval =  1.0
     Generated by new atomic code, or converted to UPF format
     Using radial grid of  615 points,  1 beta functions with:
                l(1) =   0
     Q(r) pseudized with  8 coefficients,  rinner =    0.800

     PseudoPot. # 4 for N  read from file:
     /storage/coda1/p-amedford6/0/shared/rich_project_chbe-medford/medford-share/data/pseudos_module/espresso/nninc/pbe/van/N.UPF
     MD5 check sum: 90d10febe142ad51ac9d5be1deb811c4
     Pseudo is Ultrasoft, Zval =  5.0
     Generated by new atomic code, or converted to UPF format
     Using radial grid of  729 points,  4 beta functions with:
                l(1) =   0
                l(2) =   0
                l(3) =   1
                l(4) =   1
     Q(r) pseudized with  8 coefficients,  rinner =    0.800   0.800   0.800

     atomic species   valence    mass     pseudopotential
        O1             6.00    15.99900     O ( 1.00)
        Ti1           12.00    47.86700     Ti( 1.00)
        H1             1.00     1.00800     H ( 1.00)
        N1             5.00    14.00700     N ( 1.00)

     No symmetry found

   Cartesian axes

     site n.     atom                  positions (alat units)
         1           O1  tau(   1) = (   0.0007354   0.0005023  10.5931620  )
         2           O1  tau(   2) = (   3.2887669   8.9343558  13.7857904  )
         3           O1  tau(   3) = (  -0.0004435   8.9037079  17.1656601  )
         4           O1  tau(   4) = (   0.0006271   0.0005054   7.9858123  )
         5           O1  tau(   5) = (   3.2907596   0.0056730  11.1454013  )
         6           O1  tau(   6) = (   0.0000918   8.9024801  14.5153886  )
         7           O1  tau(   7) = (   1.9868534   1.4903216   9.2879459  )
         8           O1  tau(   8) = (   5.2129768   1.5767634  12.5412193  )
         9           O1  tau(   9) = (   2.0410104   1.4081166  15.9738913  )
        10           Ti1 tau(  10) = (   0.0007404   1.4906270   9.2895810  )
        11           Ti1 tau(  11) = (   3.2923993   1.3029312  12.4395176  )
        12           Ti1 tau(  12) = (   6.5786190   1.6682186  16.0479855  )
        13           O1  tau(  13) = (   4.5942328   1.4918067   9.2879030  )
        14           O1  tau(  14) = (   1.3693608   1.5763615  12.5409223  )
        15           O1  tau(  15) = (   4.5388119   1.4066068  15.9736107  )
        16           Ti1 tau(  16) = (   3.2902859   2.9801868   9.2893338  )
        17           Ti1 tau(  17) = (   0.0025983   2.7818652  12.5490862  )
        18           Ti1 tau(  18) = (   3.2890997   3.0957086  15.6341045  )
        19           O1  tau(  19) = (   0.0003479   2.9813005  10.5931620  )
        20           O1  tau(  20) = (   3.2906043   2.9558292  13.7911244  )
        21           O1  tau(  21) = (   0.0002396   2.9813036   7.9858123  )
        22           O1  tau(  22) = (   3.2907828   2.9846389  11.1656624  )
        23           O1  tau(  23) = (   0.0000664   2.9755257  14.5967958  )
        24           O1  tau(  24) = (   1.9864658   4.4711199   9.2879459  )
        25           O1  tau(  25) = (   5.2254851   4.5442098  12.5530165  )
        26           O1  tau(  26) = (   2.0413797   4.3804877  15.9810922  )
        27           Ti1 tau(  27) = (   0.0003529   4.4714252   9.2895810  )
        28           Ti1 tau(  28) = (   3.2927641   4.3249026  12.5337624  )
        29           Ti1 tau(  29) = (  -0.0001393   4.3779101  16.0758329  )
        30           O1  tau(  30) = (   4.5938453   4.4726049   9.2879030  )
        31           O1  tau(  31) = (   1.3554856   4.5423027  12.5528228  )
        32           O1  tau(  32) = (   4.5375453   4.3808357  15.9816482  )
        33           Ti1 tau(  33) = (   3.2898983   5.9609850   9.2893338  )
        34           Ti1 tau(  34) = (   0.0022780   5.7553130  12.5179661  )
        35           Ti1 tau(  35) = (   3.2911749   6.0723021  16.2828521  )
        36           O1  tau(  36) = (  -0.0000397   5.9620987  10.5931620  )
        37           O1  tau(  37) = (   3.2898444   5.9099340  13.7874885  )
        38           O1  tau(  38) = (  -0.0002305   5.9963729  17.1613877  )
        39           O1  tau(  39) = (  -0.0001480   5.9621018   7.9858123  )
        40           O1  tau(  40) = (   3.2898933   5.9403142  11.1650959  )
        41           O1  tau(  41) = (   0.0001730   6.0398540  14.5337486  )
        42           O1  tau(  42) = (   1.9860782   7.4519181   9.2879459  )
        43           O1  tau(  43) = (   5.2203866   7.5240042  12.5266709  )
        44           O1  tau(  44) = (   2.0308607   7.4363189  15.9936472  )
        45           Ti1 tau(  45) = (  -0.0000347   7.4522234   9.2895810  )
        46           Ti1 tau(  46) = (   3.2897547   7.2013570  12.5904776  )
        47           Ti1 tau(  47) = (  -0.0001197   7.5007381  15.6461876  )
        48           O1  tau(  48) = (   4.5934577   7.4534031   9.2879030  )
        49           O1  tau(  49) = (   1.3580612   7.5226468  12.5263262  )
        50           O1  tau(  50) = (   4.5486487   7.4363691  15.9933312  )
        51           Ti1 tau(  51) = (   3.2895107   8.9417832   9.2893338  )
        52           Ti1 tau(  52) = (  -0.0005051   8.7269297  12.4809553  )
        53           Ti1 tau(  53) = (   3.2886672   0.0795926  15.6360096  )
        54           H1  tau(  54) = (   6.5784023   6.0277306  18.1241331  )
        55           H1  tau(  55) = (   6.5784455   8.8634660  18.1266539  )
        56           N1  tau(  56) = (   6.5791914   3.0063145  17.2269018  )
        57           N1  tau(  57) = (   3.2902358   5.9939226  18.1904466  )
        58           H1  tau(  58) = (   3.2986139   5.1344262  18.7255412  )
        59           H1  tau(  59) = (   3.2892998   6.7958846  18.8069972  )

     number of k points=    10  Fermi-Dirac smearing, width (Ry)=  0.0073
                       cart. coord. in units 2pi/alat
        k(    1) = (   0.0000000   0.0000000   0.0000000), wk =   0.1250000
        k(    2) = (   0.0000000   0.0279567   0.0000000), wk =   0.2500000
        k(    3) = (   0.0000000  -0.0559134   0.0000000), wk =   0.1250000
        k(    4) = (   0.0379955   0.0000049   0.0000000), wk =   0.2500000
        k(    5) = (   0.0379955   0.0279617   0.0000000), wk =   0.2500000
        k(    6) = (   0.0379955  -0.0559085   0.0000000), wk =   0.2500000
        k(    7) = (   0.0379955  -0.0279518   0.0000000), wk =   0.2500000
        k(    8) = (  -0.0759910  -0.0000099   0.0000000), wk =   0.1250000
        k(    9) = (  -0.0759910   0.0279468   0.0000000), wk =   0.2500000
        k(   10) = (  -0.0759910  -0.0559233   0.0000000), wk =   0.1250000

     Initial potential from superposition of free atoms

     starting charge  421.99910, renormalised to  440.00000

     negative rho (up, down):  3.748E-02 0.000E+00

     %%%%%%%%%%%%%%%%%%%%%%%%%%%%%%%%%%%%%%%%%%%%%%%%%%%%%%%%%%%%%%%%%%%%%%%%
     %                                                                      %
     % You are using vdW-DF, which was implemented by the Thonhauser group. %
     % Please cite the following two papers that made this development      %
     % possible and the two reviews that describe the various versions:     %
     %                                                                      %
     %   T. Thonhauser et al., PRL 115, 136402 (2015).                      %
     %   T. Thonhauser et al., PRB 76, 125112 (2007).                       %
     %   K. Berland et al., Rep. Prog. Phys. 78, 066501 (2015).             %
     %   D.C. Langreth et al., J. Phys.: Condens. Matter 21, 084203 (2009). %
     %                                                                      %
     %                                                                      %
     % If you are calculating the stress with vdW-DF, please also cite:     %
     %                                                                      %
     %   R. Sabatini et al., J. Phys.: Condens. Matter 24, 424209 (2012).   %
     %                                                                      %
     %%%%%%%%%%%%%%%%%%%%%%%%%%%%%%%%%%%%%%%%%%%%%%%%%%%%%%%%%%%%%%%%%%%%%%%%

     Adding external electric field

     Computed dipole along edir(3) :
        Dipole               -3.9322 Ry au,         -9.9948 Debye
        Dipole field         -0.0049 Ry au,

        Potential amp.        0.4586 Ry
        Total length         46.3494 bohr

     Starting wfcs are  332 atomic wfcs
  @ DRIVER MODE: Message from server: STATUS
  @ DRIVER MODE: Message from server: POSDATA
  @ DRIVER MODE: Reading and sharing cell
  @ DRIVER MODE: Reading and sharing positions
  @ DRIVER MODE: Received positions

     Self-consistent Calculation

     iteration #  1     ecut=    29.40 Ry     beta= 0.05
     Davidson diagonalization with overlap
     c_bands:  2 eigenvalues not converged
     c_bands:  3 eigenvalues not converged
     c_bands:  5 eigenvalues not converged
     c_bands:  4 eigenvalues not converged
     c_bands:  1 eigenvalues not converged
     c_bands:  4 eigenvalues not converged
     c_bands:  5 eigenvalues not converged
     c_bands:  3 eigenvalues not converged
     c_bands:  3 eigenvalues not converged
     ethr =  1.00E-05,  avg # of iterations = 19.8

[...]

     total energy              =   -3294.69842905 Ry
     estimated scf accuracy    <      19.95544930 Ry

     iteration #  2     ecut=    29.40 Ry     beta= 0.05
     Davidson diagonalization with overlap
     ethr =  4.54E-03,  avg # of iterations =  1.4

[...]

     iteration # 28     ecut=    29.40 Ry     beta= 0.05
     Davidson diagonalization with overlap
     c_bands:  1 eigenvalues not converged
     ethr =  1.82E-07,  avg # of iterations =  6.5

[...]

     total energy              =   -3293.27273998 Ry
     estimated scf accuracy    <       0.00000043 Ry

     iteration # 53     ecut=    29.40 Ry     beta= 0.05
     Davidson diagonalization with overlap
     ethr =  2.66E-11,  avg # of iterations =  5.0

     negative rho (up, down):  3.595E-02 0.000E+00

     Adding external electric field

     Computed dipole along edir(3) :
        Dipole                1.3171 Ry au,          3.3478 Debye
        Dipole field          0.0017 Ry au,

        Potential amp.       -0.1536 Ry
        Total length         46.3494 bohr

     End of self-consistent calculation

          k = 0.0000 0.0000 0.0000 ( 26871 PWs)   bands (ev):

   -58.2798 -58.2565 -58.2511 -58.2265 -58.1670 -57.7780 -57.7740 -57.7544
   -57.6692 -57.5727 -57.5683 -57.5458 -57.3361 -56.8616 -56.8376 -56.8209
   -56.7387 -56.6386 -34.6899 -34.6503 -34.6175 -34.6020 -34.5977 -34.5964
   -34.5472 -34.4926 -34.4550 -34.4116 -34.4053 -34.3891 -34.3841 -34.3639
   -34.3163 -34.1923 -34.1414 -34.1348 -34.1259 -34.1216 -34.0768 -34.0549
   -34.0539 -34.0137 -34.0010 -33.9576 -33.9560 -33.8578 -33.8537 -33.8263
   -33.8190 -33.8034 -33.7693 -33.7573 -33.7513 -33.7325 -33.6840 -33.5761
   -33.5445 -33.2339 -33.2064 -33.1882 -33.1715 -33.1655 -33.1483 -33.0697
   -33.0569 -33.0112 -32.9927 -32.9838 -32.9509 -32.8881 -32.8702 -32.7666
   -18.9500 -18.8274 -18.7368 -18.3606 -18.3012 -18.1684 -18.1114 -18.1044
   -18.0110 -17.9419 -17.7180 -17.6699 -17.6580 -17.6335 -17.5378 -17.5252
   -17.5157 -17.4837 -17.4594 -17.4536 -17.3511 -17.3137 -17.2991 -17.2941
   -17.2628 -17.1839 -17.1345 -17.0395 -17.0065 -17.0043 -16.8346 -16.7946
   -15.3385 -15.2975 -15.2887 -15.2483 -11.6043  -6.9831  -6.8108  -6.6990
    -6.1801  -5.9692  -5.7728  -5.6108  -5.5135  -5.4469  -5.3770  -5.3104
    -5.2755  -5.2542  -5.2031  -5.1629  -5.0627  -5.0544  -4.9619  -4.9057
    -4.8763  -4.8451  -4.7665  -4.7445  -4.7280  -4.6787  -4.6179  -4.6084
    -4.5692  -4.4937  -4.4853  -4.4705  -4.4321  -4.4258  -4.3716  -4.2827
    -4.1942  -4.1637  -4.1539  -4.1129  -4.0407  -4.0315  -4.0085  -3.9815
    -3.9749  -3.9447  -3.8683  -3.8425  -3.7360  -3.6447  -3.6155  -3.6001
    -3.5114  -3.4297  -3.3732  -3.3467  -3.1723  -3.1458  -3.1029  -3.0394
    -3.0288  -2.9673  -2.9440  -2.9200  -2.8905  -2.8680  -2.8034  -2.7944
    -2.7932  -2.7728  -2.7482  -2.7010  -2.6512  -2.6304  -2.5680  -2.5384
    -2.5240  -2.4996  -2.4545  -2.4343  -2.3191  -2.2687  -2.2563  -2.2376
    -2.2322  -2.1530  -2.0752  -2.0178  -1.9991  -1.8718  -1.8664  -1.7511
    -1.7080  -1.7022  -1.6492  -1.5764  -1.5307  -1.4831  -1.3721  -1.2408
    -1.1755  -1.0929  -1.0280  -0.7639  -0.6709  -0.5546  -0.5477  -0.5351
    -0.5149  -0.3665  -0.3520  -0.2557   0.9954   1.1314   1.2894   1.3128
     1.5131   1.6011   1.6244   1.6666   1.7663   1.8167

[...]

          k = 0.0380-0.0280 0.0000 ( 26873 PWs)   bands (ev):

[...]

          k =-0.0760-0.0000 0.0000 ( 26902 PWs)   bands (ev):

[...]

          k =-0.0760-0.0559 0.0000 ( 26868 PWs)   bands (ev):

   -58.2734 -58.2688 -58.2451 -58.2263 -58.1671 -57.7777 -57.7739 -57.7548
   -57.6690 -57.5726 -57.5692 -57.5451 -57.3361 -56.8584 -56.8436 -56.8181
   -56.7387 -56.6386 -34.7181 -34.6927 -34.6509 -34.6232 -34.5917 -34.5060
   -34.4914 -34.4324 -34.4275 -34.4178 -34.4099 -34.4063 -34.4015 -34.3655
   -34.3638 -34.2326 -34.1726 -34.1587 -34.1291 -34.1213 -34.0605 -34.0079
   -33.9939 -33.9894 -33.9665 -33.9587 -33.9258 -33.9013 -33.8831 -33.8749
   -33.8306 -33.8030 -33.7693 -33.7551 -33.7501 -33.7335 -33.6859 -33.5758
   -33.5492 -33.2487 -33.2208 -33.2073 -33.1935 -33.1688 -33.0594 -33.0560
   -33.0389 -32.9836 -32.9813 -32.9735 -32.9584 -32.9513 -32.8886 -32.7736
   -18.9098 -18.7524 -18.6281 -18.4710 -18.2344 -18.1318 -17.9703 -17.8867
   -17.8625 -17.8597 -17.8438 -17.7443 -17.7384 -17.7032 -17.6458 -17.6187
   -17.6081 -17.6037 -17.5548 -17.5517 -17.3569 -17.3473 -17.2921 -17.2506
   -17.2260 -17.2037 -17.1039 -17.1022 -17.0317 -16.9570 -16.8536 -16.7704
   -15.3490 -15.3384 -15.2487 -15.2275 -11.6012  -6.9236  -6.8338  -6.6996
    -5.9556  -5.7458  -5.7183  -5.6691  -5.3507  -5.2966  -5.1958  -5.1678
    -5.1292  -5.1130  -5.0724  -5.0705  -5.0004  -4.9561  -4.9421  -4.9154
    -4.9011  -4.8714  -4.8411  -4.8162  -4.7536  -4.7496  -4.7346  -4.6913
    -4.6443  -4.5592  -4.5365  -4.5182  -4.4677  -4.4283  -4.2538  -4.2077
    -4.1815  -4.1666  -4.0808  -4.0561  -3.9795  -3.9497  -3.9059  -3.8302
    -3.7357  -3.6883  -3.6385  -3.5832  -3.5576  -3.5268  -3.5215  -3.4689
    -3.4406  -3.3909  -3.3585  -3.3528  -3.3018  -3.2452  -3.1992  -3.1804
    -3.1540  -3.1489  -3.1260  -3.1002  -3.0697  -3.0470  -3.0425  -2.9845
    -2.9369  -2.9240  -2.8494  -2.8176  -2.7635  -2.7103  -2.6866  -2.6306
    -2.6235  -2.5696  -2.5639  -2.4995  -2.4716  -2.4231  -2.4101  -2.3388
    -2.1600  -2.0960  -1.9912  -1.9465  -1.9356  -1.8663  -1.8331  -1.8207
    -1.6813  -1.6707  -1.6076  -1.6045  -1.5794  -1.3673  -1.3397  -1.3038
    -1.2737  -1.2355  -1.2022  -1.0901  -0.7975  -0.7099  -0.6740  -0.4839
    -0.4619  -0.4177  -0.3870  -0.3726   1.0405   1.2089   1.2773   1.3585
     1.3796   1.4218   1.4517   1.6380   1.6696   1.6999

     the Fermi energy is     0.3953 ev

!    total energy              =   -3293.27281703 Ry
     estimated scf accuracy    <       0.00000005 Ry
     smearing contrib. (-TS)   =      -0.00047508 Ry
     internal energy E=F+TS    =   -3293.27234194 Ry

     The total energy is F=E-TS. E is the sum of the following terms:
     one-electron contribution =  -34645.90133101 Ry
     hartree contribution      =   17387.48488450 Ry
     xc contribution           =    -542.12975990 Ry
     ewald contribution        =   14507.27168192 Ry
     electric field correction =       0.00218255 Ry

     convergence has been achieved in  53 iterations

     Forces acting on atoms (cartesian axes, Ry/au):

     atom    1 type  1   force =     0.00002373    0.00608899    0.04336615
     atom    2 type  1   force =     0.00000229   -0.00403555   -0.00308622
     atom    3 type  1   force =     0.00003187    0.00280169   -0.00208190
     atom    4 type  1   force =     0.00005037   -0.00044825    0.10164136
     atom    5 type  1   force =    -0.00000410    0.00013565    0.00747945
     atom    6 type  1   force =    -0.00000071    0.00311722    0.00046709
     atom    7 type  1   force =     0.07786448    0.00122558   -0.03553504
     atom    8 type  1   force =     0.00794965   -0.02606304    0.00024945
     atom    9 type  1   force =     0.00929413    0.01907615    0.00058113
     atom   10 type  2   force =    -0.00006542    0.00812231   -0.15939210
     atom   11 type  2   force =    -0.00006629    0.02226860   -0.00327230
     atom   12 type  2   force =     0.00002689   -0.02375160   -0.00519743
     atom   13 type  1   force =    -0.07795219    0.00076058   -0.03552590
     atom   14 type  1   force =    -0.00807355   -0.02593947    0.00026840
     atom   15 type  1   force =    -0.00940167    0.01915287    0.00062360
     atom   16 type  2   force =     0.00009823    0.00151724    0.07237589
     atom   17 type  2   force =     0.00009095    0.03130467    0.00147472
     atom   18 type  2   force =    -0.00009802   -0.02630047    0.00309410
     atom   19 type  1   force =     0.00005481    0.00277725    0.05723047
     atom   20 type  1   force =     0.00001368   -0.00178950    0.00096781
     atom   21 type  1   force =     0.00004973   -0.00089376    0.10056900
     atom   22 type  1   force =     0.00000590   -0.00255967    0.00650476
     atom   23 type  1   force =    -0.00003788    0.00310938    0.00434744
     atom   24 type  1   force =     0.07898179    0.00059624   -0.03635081
     atom   25 type  1   force =     0.00961761   -0.02997782    0.00063185
     atom   26 type  1   force =     0.01026728    0.01548941    0.00392030
     atom   27 type  2   force =    -0.00008691   -0.00571049   -0.15462324
     atom   28 type  2   force =     0.00001414    0.02796794   -0.00280537
     atom   29 type  2   force =     0.00011609   -0.01128838   -0.01283450
     atom   30 type  1   force =    -0.07906360    0.00019449   -0.03635573
     atom   31 type  1   force =    -0.00970069   -0.02981189    0.00063502
     atom   32 type  1   force =    -0.01026324    0.01564496    0.00408385
     atom   33 type  2   force =     0.00011806   -0.00295350    0.07719457
     atom   34 type  2   force =     0.00004188    0.03528928    0.00329633
     atom   35 type  2   force =    -0.00016903   -0.01751061   -0.00023801
     atom   36 type  1   force =     0.00008463    0.00417061    0.05151683
     atom   37 type  1   force =     0.00000685   -0.00284012   -0.00285230
     atom   38 type  1   force =    -0.00003176    0.00203418    0.00345205
     atom   39 type  1   force =     0.00004535    0.00293634    0.10097565
     atom   40 type  1   force =    -0.00000573   -0.00195125    0.00747981
     atom   41 type  1   force =     0.00000615    0.00063406    0.00073716
     atom   42 type  1   force =     0.07839065    0.00162911   -0.03445287
     atom   43 type  1   force =     0.00608511   -0.02323448   -0.00032733
     atom   44 type  1   force =     0.01018150    0.01571445   -0.00656176
     atom   45 type  2   force =    -0.00005398   -0.00740068   -0.16393545
     atom   46 type  2   force =    -0.00002911    0.01847834    0.00056354
     atom   47 type  2   force =    -0.00009313   -0.01468737    0.01691559
     atom   48 type  1   force =    -0.07849326    0.00118538   -0.03443741
     atom   49 type  1   force =    -0.00607202   -0.02326124   -0.00032159
     atom   50 type  1   force =    -0.01000460    0.01594456   -0.00677723
     atom   51 type  2   force =     0.00010172   -0.00344273    0.06018914
     atom   52 type  2   force =     0.00004568    0.02832376    0.00339540
     atom   53 type  2   force =     0.00017980   -0.02107373    0.00087863
     atom   54 type  3   force =     0.00002294    0.00068762   -0.00179449
     atom   55 type  3   force =    -0.00002412   -0.00074392   -0.00042497
     atom   56 type  4   force =    -0.00005689    0.00036886    0.00165366
     atom   57 type  4   force =     0.00008095   -0.00080887    0.00054968
     atom   58 type  3   force =    -0.00005960   -0.00041078   -0.00036947
     atom   59 type  3   force =    -0.00003735    0.00014138    0.00024355

     Total force =     0.434792     Total SCF correction =     0.000380
  @ DRIVER MODE: Message from server: STATUS
  @ DRIVER MODE: Message from server: GETFORCE
  @ DRIVER MODE: Returning v,forces,stress,ensemble

     Writing output data file ./calc.save/
  @ DRIVER MODE: Message from server: EXIT
  @ DRIVE MODE: Exiting

     General routines

     Parallel routines

   This run was terminated on:  23:55:44  18Oct2021

   JOB DONE.