     Program PWSCF v.6.7GPU starts on 14Sep2021 at 22:18:50

     R & G space division:  proc/nbgrp/npool/nimage =      10
     Reading input from /storage/home/hcoda1/3/ntian30/research/carbon/CxH_vib/CH2_calc/ads_slab/CH2OHN2_a/out_0025/pw.inp
Warning: card &CELL ignored
Warning: card   CELL_DYNAMICS='IPI', ignored
Warning: card / ignored

     Current dimensions of program PWSCF are:
     Max number of different atomic species (ntypx) = 10
     Max number of k-points (npk) =  40000
     Max angular momentum in pseudopotentials (lmaxx) =  3
     Presently no symmetry can be used with electric field

     Message from routine cell_base_init:
     DEPRECATED: use true lattice parameter, not A to a.u. conversion factor

     IMPORTANT: XC functional enforced from input :
     Exchange-correlation= BEEF-VDW
                           (   1   4  43  14   2   0   0)
     Any further DFT definition will be discarded
     Please, verify this is what you really want

  @ DRIVER MODE: Connecting to
 qe_1139763_2840440.sched-torque.pace.gatech.edupgqz6i8d_scratch
  using UNIX socket
  @ DRIVER MODE: Message from server: STATUS
  @ DRIVER MODE: Message from server: INIT
  @ DRIVER MODE: Receiving replica           0          -1
  @ DRIVER MODE: Receiving encoded integer          25
  @ DRIVER MODE:  SCF:  T  FORCE:  T  STRESS:  F  VC:  F  ENSEMBLE:  F
  @ DRIVER MODE:  SCF:  T  FORCE:  T  STRESS:  F  VC:  F  ENSEMBLE:  F

     Using Slab Decomposition

     bravais-lattice index     =            0
     lattice parameter (alat)  =       1.8897  a.u.
     unit-cell volume          =    6658.9804 (a.u.)^3
     number of atoms/cell      =           54
     number of atomic types    =            5
     number of electrons       =       401.00
     number of Kohn-Sham states=          210
     kinetic-energy cutoff     =      29.3995  Ry
     charge density cutoff     =     293.9946  Ry
     scf convergence threshold =      7.3E-08
     mixing beta               =       0.0500
     number of iterations used =            8  plain     mixing
     Exchange-correlation= BEEF-VDW
                           (   1   4  43  14   2   0   0)

     celldm(1)=   1.889726  celldm(2)=   0.000000  celldm(3)=   0.000000
     celldm(4)=   0.000000  celldm(5)=   0.000000  celldm(6)=   0.000000

     crystal axes: (cart. coord. in units of alat)
               a(1) = (   6.579727   0.000000   0.000000 )
               a(2) = (  -0.000775   5.961596   0.000000 )
               a(3) = (   0.000000   0.000000  25.155947 )

     reciprocal axes: (cart. coord. in units 2 pi/alat)
               b(1) = (  0.151982  0.000020  0.000000 )
               b(2) = (  0.000000  0.167740  0.000000 )
               b(3) = (  0.000000  0.000000  0.039752 )

     PseudoPot. # 1 for C  read from file:
     /storage/coda1/p-amedford6/0/shared/rich_project_chbe-medford/medford-share/data/pseudos_module/espresso/nninc/pbe/van/C.UPF
     MD5 check sum: 1a69bf6b8db32088f5b2163dbdb77a27
     Pseudo is Ultrasoft, Zval =  4.0
     Generated by new atomic code, or converted to UPF format
     Using radial grid of  721 points,  4 beta functions with:
                l(1) =   0
                l(2) =   0
                l(3) =   1
                l(4) =   1
     Q(r) pseudized with  8 coefficients,  rinner =    0.800   0.800   0.800

     PseudoPot. # 2 for H  read from file:
     /storage/coda1/p-amedford6/0/shared/rich_project_chbe-medford/medford-share/data/pseudos_module/espresso/nninc/pbe/van/H.UPF
     MD5 check sum: b5ee9d7bfd3a09ee7748110bda690ff7
     Pseudo is Ultrasoft, Zval =  1.0
     Generated by new atomic code, or converted to UPF format
     Using radial grid of  615 points,  1 beta functions with:
                l(1) =   0
     Q(r) pseudized with  8 coefficients,  rinner =    0.800

     PseudoPot. # 3 for O  read from file:
     /storage/coda1/p-amedford6/0/shared/rich_project_chbe-medford/medford-share/data/pseudos_module/espresso/nninc/pbe/van/O.UPF
     MD5 check sum: 78c19812648e8988a0fe644b0f25305e
     Pseudo is Ultrasoft, Zval =  6.0
     Generated by new atomic code, or converted to UPF format
     Using radial grid of  737 points,  4 beta functions with:
                l(1) =   0
                l(2) =   0
                l(3) =   1
                l(4) =   1
     Q(r) pseudized with  8 coefficients,  rinner =    0.800   0.800   0.800

     PseudoPot. # 4 for Ti read from file:
     /storage/coda1/p-amedford6/0/shared/rich_project_chbe-medford/medford-share/data/pseudos_module/espresso/nninc/pbe/van/Ti.UPF
     MD5 check sum: 8e4df49b7f0d34bbd5052bf3f5ea0213
     Pseudo is Ultrasoft, Zval = 12.0
     Generated by new atomic code, or converted to UPF format
     Using radial grid of  851 points,  6 beta functions with:
                l(1) =   0
                l(2) =   0
                l(3) =   1
                l(4) =   1
                l(5) =   2
                l(6) =   2
     Q(r) pseudized with  8 coefficients,  rinner =    1.000   1.000   1.000
                                                       1.000   1.000

     PseudoPot. # 5 for N  read from file:
     /storage/coda1/p-amedford6/0/shared/rich_project_chbe-medford/medford-share/data/pseudos_module/espresso/nninc/pbe/van/N.UPF
     MD5 check sum: 90d10febe142ad51ac9d5be1deb811c4
     Pseudo is Ultrasoft, Zval =  5.0
     Generated by new atomic code, or converted to UPF format
     Using radial grid of  729 points,  4 beta functions with:
                l(1) =   0
                l(2) =   0
                l(3) =   1
                l(4) =   1
     Q(r) pseudized with  8 coefficients,  rinner =    0.800   0.800   0.800

     atomic species   valence    mass     pseudopotential
        C1             4.00    12.01100     C ( 1.00)
        H1             1.00     1.00800     H ( 1.00)
        O1             6.00    15.99900     O ( 1.00)
        Ti1           12.00    47.86700     Ti( 1.00)
        N1             5.00    14.00700     N ( 1.00)

     No symmetry found

   Cartesian axes

     site n.     atom                  positions (alat units)
         1           C1  tau(   1) = (   5.1764158   1.5385028  19.8564928  )
         2           H1  tau(   2) = (   4.2418317   1.4168958  19.3325039  )
         3           H1  tau(   3) = (   6.1328006   2.9100337  18.2018079  )
         4           H1  tau(   4) = (   6.0297582   0.9181690  19.6386741  )
         5           O1  tau(   5) = (   0.0006271   0.0005054   7.9858123  )
         6           O1  tau(   6) = (   3.2906025   0.0005020   7.3038282  )
         7           O1  tau(   7) = (   4.5942328   1.4918067   9.2879030  )
         8           O1  tau(   8) = (   1.9868534   1.4903216   9.2879459  )
         9           O1  tau(   9) = (   3.2696825   0.0177092  11.3460806  )
        10           O1  tau(  10) = (   6.5743896   0.0111799  10.6115589  )
        11           O1  tau(  11) = (   1.2770957   1.5070501  12.6511825  )
        12           O1  tau(  12) = (   5.2749141   1.5057152  12.6378801  )
        13           O1  tau(  13) = (   6.5263050   0.0247340  14.7317399  )
        14           O1  tau(  14) = (   3.2747511   0.0213673  13.9312909  )
        15           O1  tau(  15) = (   4.4933390   1.5239927  16.1070736  )
        16           O1  tau(  16) = (   2.0026543   1.5217075  16.0711130  )
        17           O1  tau(  17) = (   3.2904802   0.0005063   4.7018136  )
        18           O1  tau(  18) = (   6.5469758   0.0421337  17.2556835  )
        19           O1  tau(  19) = (   1.3043587   1.4918075   6.0039043  )
        20           O1  tau(  20) = (   5.2767064   1.4903225   6.0039473  )
        21           O1  tau(  21) = (   0.0002396   2.9813036   7.9858123  )
        22           O1  tau(  22) = (   3.2902150   2.9813002   7.3038282  )
        23           O1  tau(  23) = (   4.5938453   4.4726049   9.2879030  )
        24           O1  tau(  24) = (   1.9864658   4.4711199   9.2879459  )
        25           O1  tau(  25) = (   3.2722311   3.0011533  11.3472759  )
        26           O1  tau(  26) = (   6.5787409   2.9955660  10.5677177  )
        27           O1  tau(  27) = (   1.2755865   4.4883074  12.6550720  )
        28           O1  tau(  28) = (   5.2773609   4.4903743  12.6413705  )
        29           O1  tau(  29) = (   6.5451067   2.9841024  14.7029789  )
        30           O1  tau(  30) = (   3.2773495   3.0062142  13.9304278  )
        31           O1  tau(  31) = (   4.4941242   4.5002890  16.1165364  )
        32           O1  tau(  32) = (   2.0016379   4.5015838  16.0818063  )
        33           O1  tau(  33) = (   3.2900926   2.9813045   4.7018136  )
        34           O1  tau(  34) = (   1.3039711   4.4726057   6.0039043  )
        35           O1  tau(  35) = (   5.2763189   4.4711207   6.0039473  )
        36           O1  tau(  36) = (   6.5536212   3.0044252  17.3297899  )
        37           Ti1 tau(  37) = (   0.0004258   2.9801865   6.0000000  )
        38           Ti1 tau(  38) = (   3.2906075   1.4906267   6.0002472  )
        39           Ti1 tau(  39) = (   3.3348906   3.0327224   9.1579215  )
        40           Ti1 tau(  40) = (   0.0203972   1.6099837   9.3624797  )
        41           Ti1 tau(  41) = (   6.5380572   3.0081639  12.8251979  )
        42           Ti1 tau(  42) = (   3.2225065   1.5141752  12.4854623  )
        43           Ti1 tau(  43) = (   3.2525775   3.0161725  15.7233172  )
        44           Ti1 tau(  44) = (   6.5465844   1.4469101  15.9770741  )
        45           Ti1 tau(  45) = (   0.0000382   5.9609847   6.0000000  )
        46           Ti1 tau(  46) = (   3.2902200   4.4714249   6.0002472  )
        47           Ti1 tau(  47) = (   3.2831171   0.0558662   9.1532617  )
        48           Ti1 tau(  48) = (   0.0294011   4.5318189   9.2743274  )
        49           Ti1 tau(  49) = (   6.5160019   0.0223579  12.5245727  )
        50           Ti1 tau(  50) = (   3.2207252   4.4944464  12.4919313  )
        51           Ti1 tau(  51) = (   3.2545639   0.0336594  15.7221480  )
        52           Ti1 tau(  52) = (   6.5327997   4.6104004  16.1309301  )
        53           N1  tau(  53) = (   5.0796009   2.6163306  22.0446247  )
        54           N1  tau(  54) = (   5.1188049   2.0915644  21.0330699  )

     number of k points=    10  Fermi-Dirac smearing, width (Ry)=  0.0073
                       cart. coord. in units 2pi/alat
        k(    1) = (   0.0000000   0.0000000   0.0000000), wk =   0.1250000
        k(    2) = (   0.0000000   0.0419351   0.0000000), wk =   0.2500000
        k(    3) = (   0.0000000  -0.0838702   0.0000000), wk =   0.1250000
        k(    4) = (   0.0379955   0.0000049   0.0000000), wk =   0.2500000
        k(    5) = (   0.0379955   0.0419400   0.0000000), wk =   0.2500000
        k(    6) = (   0.0379955  -0.0838652   0.0000000), wk =   0.2500000
        k(    7) = (   0.0379955  -0.0419301   0.0000000), wk =   0.2500000
        k(    8) = (  -0.0759910  -0.0000099   0.0000000), wk =   0.1250000
        k(    9) = (  -0.0759910   0.0419252   0.0000000), wk =   0.2500000
        k(   10) = (  -0.0759910  -0.0838800   0.0000000), wk =   0.1250000

     Initial potential from superposition of free atoms

     starting charge  384.99916, renormalised to  401.00000

     negative rho (up, down):  1.197E-02 0.000E+00

     %%%%%%%%%%%%%%%%%%%%%%%%%%%%%%%%%%%%%%%%%%%%%%%%%%%%%%%%%%%%%%%%%%%%%%%%
     %                                                                      %
     % You are using vdW-DF, which was implemented by the Thonhauser group. %
     % Please cite the following two papers that made this development      %
     % possible and the two reviews that describe the various versions:     %
     %                                                                      %
     %   T. Thonhauser et al., PRL 115, 136402 (2015).                      %
     %   T. Thonhauser et al., PRB 76, 125112 (2007).                       %
     %   K. Berland et al., Rep. Prog. Phys. 78, 066501 (2015).             %
     %   D.C. Langreth et al., J. Phys.: Condens. Matter 21, 084203 (2009). %
     %                                                                      %
     %                                                                      %
     % If you are calculating the stress with vdW-DF, please also cite:     %
     %                                                                      %
     %   R. Sabatini et al., J. Phys.: Condens. Matter 24, 424209 (2012).   %
     %                                                                      %
     %%%%%%%%%%%%%%%%%%%%%%%%%%%%%%%%%%%%%%%%%%%%%%%%%%%%%%%%%%%%%%%%%%%%%%%%

     Adding external electric field

     Computed dipole along edir(3) :
        Dipole              -14.0962 Ry au,        -35.8290 Debye
        Dipole field         -0.0266 Ry au,

        Potential amp.        2.4659 Ry
        Total length         46.3494 bohr

     Starting wfcs are  303 atomic wfcs
  @ DRIVER MODE: Message from server: STATUS
  @ DRIVER MODE: Message from server: POSDATA
  @ DRIVER MODE: Reading and sharing cell
  @ DRIVER MODE: Reading and sharing positions
  @ DRIVER MODE: Received positions

     Self-consistent Calculation

     iteration #  1     ecut=    29.40 Ry     beta= 0.05
     Davidson diagonalization with overlap
     c_bands:  5 eigenvalues not converged
     c_bands:  4 eigenvalues not converged
     c_bands:  5 eigenvalues not converged
     c_bands:  2 eigenvalues not converged
     c_bands:  4 eigenvalues not converged
     c_bands:  4 eigenvalues not converged
     c_bands:  4 eigenvalues not converged
     c_bands:  4 eigenvalues not converged
     c_bands:  5 eigenvalues not converged
     ethr =  1.00E-05,  avg # of iterations = 22.0

[...]

     total energy              =   -2410.43739983 Ry
     estimated scf accuracy    <    6378.89025625 Ry

     iteration #  2     ecut=    29.40 Ry     beta= 0.05
     Davidson diagonalization with overlap
     ethr =  1.00E-02,  avg # of iterations = 23.8

[...]

     iteration # 66     ecut=    29.40 Ry     beta= 0.05
     Davidson diagonalization with overlap
     c_bands:  1 eigenvalues not converged
     ethr =  1.46E-10,  avg # of iterations = 12.3

[...]

     total energy              =   -2971.53802441 Ry
     estimated scf accuracy    <       0.00000009 Ry

     iteration # 71     ecut=    29.40 Ry     beta= 0.05
     Davidson diagonalization with overlap
     ethr =  2.06E-11,  avg # of iterations =  8.8

     negative rho (up, down):  1.326E-02 0.000E+00

     Adding external electric field

     Computed dipole along edir(3) :
        Dipole                0.4419 Ry au,          1.1233 Debye
        Dipole field          0.0008 Ry au,

        Potential amp.       -0.0773 Ry
        Total length         46.3494 bohr

     End of self-consistent calculation

          k = 0.0000 0.0000 0.0000 ( 18029 PWs)   bands (ev):

   -55.7652 -55.7522 -55.7280 -55.7159 -55.6727 -55.6517 -55.6260 -55.5929
   -55.5896 -55.5798 -55.5383 -55.5150 -55.4814 -55.4152 -54.7757 -54.7416
   -32.3164 -32.2323 -32.1987 -32.1136 -32.0843 -32.0666 -32.0569 -32.0335
   -31.9947 -31.9904 -31.9756 -31.9677 -31.9622 -31.9332 -31.9255 -31.9219
   -31.9179 -31.8963 -31.8886 -31.8610 -31.8544 -31.8311 -31.8303 -31.8242
   -31.8076 -31.8010 -31.7827 -31.7788 -31.7715 -31.7691 -31.7617 -31.7543
   -31.7426 -31.7392 -31.7341 -31.6953 -31.6945 -31.6599 -31.6372 -31.6212
   -31.6039 -31.6010 -31.1854 -31.0885 -31.0661 -31.0021 -30.9160 -30.8048
   -20.7427 -17.0000 -16.5006 -16.2064 -16.0399 -15.9124 -15.8838 -15.7829
   -15.5920 -15.4576 -15.4407 -15.3663 -15.3324 -15.3241 -15.2967 -15.2844
   -15.2754 -15.2680 -15.2209 -15.1960 -15.1807 -15.1658 -15.1397 -15.0880
   -15.0407 -14.9678 -14.9212 -14.8811 -14.8611 -14.7624 -14.7437 -13.9458
   -13.2764 -13.1583  -6.5489  -5.5899  -4.9804  -4.5200  -3.8642  -3.6880
    -3.6705  -3.6522  -3.5691  -3.5137  -3.3261  -3.3104  -3.0100  -2.9347
    -2.9044  -2.9012  -2.8871  -2.7091  -2.6458  -2.6046  -2.5907  -2.5742
    -2.5720  -2.5488  -2.5294  -2.5184  -2.4906  -2.4689  -2.4648  -2.3202
    -2.2925  -2.1772  -2.1569  -2.1464  -2.0883  -2.0644  -2.0334  -2.0128
    -1.9981  -1.9873  -1.9655  -1.9303  -1.8450  -1.8212  -1.6963  -1.5913
    -1.5546  -1.4610  -1.3144  -1.2426  -1.2199  -1.1904  -1.1641  -1.1492
    -1.1021  -1.0773  -1.0264  -0.9628  -0.9561  -0.8525  -0.7796  -0.7421
    -0.6644  -0.6444  -0.6263  -0.5071  -0.4861  -0.4753  -0.3023  -0.2388
    -0.2326  -0.2268  -0.0983  -0.0564  -0.0224  -0.0088   0.0202   0.0512
     0.0971   0.1394   0.1982   0.2226   0.2337   0.2416   0.2646   0.2908
     0.4069   0.4227   0.4352   0.5516   0.5711   0.7604   0.7681   0.8849
     0.9852   1.1527   1.2486   1.3198   1.4197   1.7202   1.8375   1.8979
     3.4247   3.4556   3.4865   3.5042   3.5755   3.6986   3.8064   3.8620
     3.8831   3.9048

[...]

          k = 0.0380-0.0419 0.0000 ( 17876 PWs)   bands (ev):

[...]

          k =-0.0760-0.0000 0.0000 ( 17886 PWs)   bands (ev):

[...]

          k =-0.0760-0.0839 0.0000 ( 17948 PWs)   bands (ev):

   -55.7540 -55.7390 -55.7350 -55.7328 -55.6692 -55.6469 -55.6139 -55.6017
   -55.5978 -55.5830 -55.5355 -55.4990 -55.4974 -55.4176 -54.7592 -54.7580
   -32.1200 -32.1160 -32.0987 -32.0563 -32.0461 -32.0406 -32.0232 -32.0223
   -32.0156 -31.9790 -31.9545 -31.9469 -31.9446 -31.9102 -31.9052 -31.8969
   -31.8855 -31.8817 -31.8803 -31.8707 -31.8698 -31.8598 -31.8549 -31.8480
   -31.8445 -31.8227 -31.8179 -31.8136 -31.8062 -31.8061 -31.8022 -31.7834
   -31.7766 -31.7587 -31.7556 -31.7496 -31.7339 -31.7173 -31.7042 -31.6971
   -31.6456 -31.6104 -31.0795 -31.0781 -30.9988 -30.9979 -30.9596 -30.9586
   -20.7426 -16.9344 -15.9429 -15.9338 -15.6920 -15.6851 -15.6808 -15.6105
   -15.5268 -15.5057 -15.4834 -15.4792 -15.4293 -15.4211 -15.4007 -15.3384
   -15.3054 -15.2880 -15.2703 -15.2660 -15.2120 -15.2072 -15.1629 -15.1393
   -15.1207 -15.1155 -15.0909 -15.0866 -15.0468 -14.9863 -14.9178 -13.9457
   -13.2607 -13.2583  -6.5431  -5.5922  -4.9187  -4.5186  -3.5133  -3.2345
    -3.2237  -2.9577  -2.9091  -2.8962  -2.8142  -2.7520  -2.6864  -2.6459
    -2.6205  -2.6110  -2.5973  -2.5894  -2.5844  -2.5690  -2.5667  -2.5460
    -2.5267  -2.5159  -2.4587  -2.4352  -2.4137  -2.3940  -2.3869  -2.3747
    -2.3379  -2.3195  -2.3083  -2.2921  -2.2882  -2.2065  -2.0616  -2.0158
    -1.9228  -1.8997  -1.8883  -1.8481  -1.8267  -1.8099  -1.7948  -1.7460
    -1.7290  -1.5613  -1.4920  -1.4744  -1.4576  -1.4254  -1.3690  -1.2807
    -1.2491  -1.1735  -1.1685  -1.1266  -1.0659  -0.9890  -0.9690  -0.9284
    -0.8692  -0.8339  -0.7751  -0.7431  -0.7213  -0.7135  -0.6627  -0.6053
    -0.5675  -0.5074  -0.4811  -0.4179  -0.3781  -0.3418  -0.2852  -0.2591
    -0.2223  -0.1135  -0.0063   0.1298   0.1921   0.2680   0.2799   0.3070
     0.3299   0.4461   0.4755   0.5066   0.5475   0.6347   0.6887   0.7583
     0.7780   0.8063   0.8629   1.6091   1.6103   1.6996   1.7104   1.7235
     3.6217   3.6581   3.6760   3.7254   3.8830   3.8877   3.9064   3.9143
     3.9667   4.0455

     the Fermi energy is     3.3905 ev

!    total energy              =   -2971.53804542 Ry
     estimated scf accuracy    <       0.00000005 Ry
     smearing contrib. (-TS)   =      -0.02329506 Ry
     internal energy E=F+TS    =   -2971.51475036 Ry

     The total energy is F=E-TS. E is the sum of the following terms:
     one-electron contribution =  -22751.45198428 Ry
     hartree contribution      =   11466.79737632 Ry
     xc contribution           =    -492.33138316 Ry
     ewald contribution        =    8805.47087218 Ry
     electric field correction =       0.00036858 Ry

     convergence has been achieved in  71 iterations

     Forces acting on atoms (cartesian axes, Ry/au):

     atom    1 type  1   force =    -0.00064850    0.00096013    0.00073692
     atom    2 type  2   force =    -0.00047044    0.00082972   -0.00060566
     atom    3 type  2   force =    -0.00140797   -0.00080559   -0.00044808
     atom    4 type  2   force =     0.00082131   -0.00049886   -0.00026596
     atom    5 type  3   force =     0.00033655   -0.00680772   -0.03337505
     atom    6 type  3   force =    -0.00002402    0.00055174    0.04533099
     atom    7 type  3   force =    -0.02048440    0.00052750    0.00451564
     atom    8 type  3   force =     0.01815792   -0.00160201    0.00414703
     atom    9 type  3   force =     0.00013512    0.00001402   -0.00007448
     atom   10 type  3   force =    -0.00005731   -0.00004990    0.00018944
     atom   11 type  3   force =     0.00023272   -0.00010232   -0.00030289
     atom   12 type  3   force =     0.00048377    0.00010835   -0.00016228
     atom   13 type  3   force =    -0.00018153   -0.00020172   -0.00023987
     atom   14 type  3   force =     0.00046513    0.00021205   -0.00007226
     atom   15 type  3   force =     0.00001380   -0.00013114    0.00050730
     atom   16 type  3   force =     0.00054986   -0.00011508   -0.00007885
     atom   17 type  3   force =     0.00002927    0.00006364    0.10412936
     atom   18 type  3   force =    -0.00064805    0.00009928    0.00055849
     atom   19 type  3   force =    -0.06901301    0.00070240   -0.02967274
     atom   20 type  3   force =     0.06877867    0.00126630   -0.02966418
     atom   21 type  3   force =     0.00038038    0.00378481   -0.02830635
     atom   22 type  3   force =     0.00085132    0.00084169    0.04702141
     atom   23 type  3   force =    -0.01800233    0.00140952    0.00376033
     atom   24 type  3   force =     0.01769366    0.00227172    0.00328948
     atom   25 type  3   force =    -0.00016020   -0.00020359    0.00005788
     atom   26 type  3   force =     0.00016142   -0.00003855    0.00040160
     atom   27 type  3   force =    -0.00026158   -0.00013824    0.00022064
     atom   28 type  3   force =    -0.00003694   -0.00021102    0.00061664
     atom   29 type  3   force =    -0.00018061   -0.00054414    0.00008917
     atom   30 type  3   force =    -0.00010650   -0.00034585    0.00035485
     atom   31 type  3   force =     0.00047176   -0.00009038    0.00033428
     atom   32 type  3   force =     0.00073750   -0.00023394   -0.00059280
     atom   33 type  3   force =     0.00004081    0.00003440    0.10421038
     atom   34 type  3   force =    -0.06859274   -0.00135959   -0.02971036
     atom   35 type  3   force =     0.06847001   -0.00098765   -0.02968897
     atom   36 type  3   force =     0.00085462    0.00051161    0.00010031
     atom   37 type  4   force =    -0.00001710   -0.00158627    0.10640361
     atom   38 type  4   force =    -0.00016616    0.00073899   -0.17959466
     atom   39 type  4   force =    -0.00039944    0.00006112   -0.00013389
     atom   40 type  4   force =    -0.00000503    0.00005306   -0.00011327
     atom   41 type  4   force =     0.00003289    0.00055316   -0.00055782
     atom   42 type  4   force =    -0.00013353    0.00000902    0.00022893
     atom   43 type  4   force =    -0.00246528   -0.00021548   -0.00045852
     atom   44 type  4   force =     0.00120175    0.00050325   -0.00035956
     atom   45 type  4   force =    -0.00001588    0.00122523    0.11836831
     atom   46 type  4   force =    -0.00000244   -0.00033919   -0.17985631
     atom   47 type  4   force =     0.00035119    0.00005174   -0.00026667
     atom   48 type  4   force =    -0.00003176    0.00025285   -0.00035356
     atom   49 type  4   force =     0.00063766    0.00058225   -0.00006448
     atom   50 type  4   force =     0.00006544    0.00012347   -0.00078518
     atom   51 type  4   force =    -0.00196038   -0.00078693   -0.00015556
     atom   52 type  4   force =     0.00411110   -0.00093590    0.00045783
     atom   53 type  5   force =     0.00067256    0.00128598   -0.00000273
     atom   54 type  5   force =    -0.00126505   -0.00129794   -0.00006781

     Total force =     0.376581     Total SCF correction =     0.000884
  @ DRIVER MODE: Message from server: STATUS
  @ DRIVER MODE: Message from server: GETFORCE
  @ DRIVER MODE: Returning v,forces,stress,ensemble

     Writing output data file ./calc.save/
  @ DRIVER MODE: Message from server: EXIT
  @ DRIVE MODE: Exiting

     General routines

     Parallel routines

   This run was terminated on:  22:37:55  14Sep2021

   JOB DONE.