     Program PWSCF v.6.7GPU starts on 15Sep2021 at 17:20:47

     R & G space division:  proc/nbgrp/npool/nimage =      10
     Reading input from /storage/home/hcoda1/3/ntian30/research/carbon/CxH_vib/H2O_calc/ads_slab/CH3NHNH2H2O_a/out_0005/pw.inp
Warning: card &CELL ignored
Warning: card   CELL_DYNAMICS='IPI', ignored
Warning: card / ignored

     Current dimensions of program PWSCF are:
     Max number of different atomic species (ntypx) = 10
     Max number of k-points (npk) =  40000
     Max angular momentum in pseudopotentials (lmaxx) =  3
     Presently no symmetry can be used with electric field

     Message from routine cell_base_init:
     DEPRECATED: use true lattice parameter, not A to a.u. conversion factor

     IMPORTANT: XC functional enforced from input :
     Exchange-correlation= BEEF-VDW
                           (   1   4  43  14   2   0   0)
     Any further DFT definition will be discarded
     Please, verify this is what you really want

  @ DRIVER MODE: Connecting to
 qe_1139763_2852619.sched-torque.pace.gatech.eduded8x0go_scratch
  using UNIX socket
  @ DRIVER MODE: Message from server: STATUS
  @ DRIVER MODE: Message from server: INIT
  @ DRIVER MODE: Receiving replica           0          -1
  @ DRIVER MODE: Receiving encoded integer          25
  @ DRIVER MODE:  SCF:  T  FORCE:  T  STRESS:  F  VC:  F  ENSEMBLE:  F
  @ DRIVER MODE:  SCF:  T  FORCE:  T  STRESS:  F  VC:  F  ENSEMBLE:  F

     Using Slab Decomposition

     bravais-lattice index     =            0
     lattice parameter (alat)  =       1.8897  a.u.
     unit-cell volume          =    6658.9804 (a.u.)^3
     number of atoms/cell      =           59
     number of atomic types    =            5
     number of electrons       =       406.00
     number of Kohn-Sham states=          213
     kinetic-energy cutoff     =      29.3995  Ry
     charge density cutoff     =     293.9946  Ry
     scf convergence threshold =      7.3E-08
     mixing beta               =       0.0500
     number of iterations used =            8  plain     mixing
     Exchange-correlation= BEEF-VDW
                           (   1   4  43  14   2   0   0)

     celldm(1)=   1.889726  celldm(2)=   0.000000  celldm(3)=   0.000000
     celldm(4)=   0.000000  celldm(5)=   0.000000  celldm(6)=   0.000000

     crystal axes: (cart. coord. in units of alat)
               a(1) = (   6.579727   0.000000   0.000000 )
               a(2) = (  -0.000775   5.961596   0.000000 )
               a(3) = (   0.000000   0.000000  25.155947 )

     reciprocal axes: (cart. coord. in units 2 pi/alat)
               b(1) = (  0.151982  0.000020  0.000000 )
               b(2) = (  0.000000  0.167740  0.000000 )
               b(3) = (  0.000000  0.000000  0.039752 )

     PseudoPot. # 1 for Ti read from file:
     /storage/coda1/p-amedford6/0/shared/rich_project_chbe-medford/medford-share/data/pseudos_module/espresso/nninc/pbe/van/Ti.UPF
     MD5 check sum: 8e4df49b7f0d34bbd5052bf3f5ea0213
     Pseudo is Ultrasoft, Zval = 12.0
     Generated by new atomic code, or converted to UPF format
     Using radial grid of  851 points,  6 beta functions with:
                l(1) =   0
                l(2) =   0
                l(3) =   1
                l(4) =   1
                l(5) =   2
                l(6) =   2
     Q(r) pseudized with  8 coefficients,  rinner =    1.000   1.000   1.000
                                                       1.000   1.000

     PseudoPot. # 2 for O  read from file:
     /storage/coda1/p-amedford6/0/shared/rich_project_chbe-medford/medford-share/data/pseudos_module/espresso/nninc/pbe/van/O.UPF
     MD5 check sum: 78c19812648e8988a0fe644b0f25305e
     Pseudo is Ultrasoft, Zval =  6.0
     Generated by new atomic code, or converted to UPF format
     Using radial grid of  737 points,  4 beta functions with:
                l(1) =   0
                l(2) =   0
                l(3) =   1
                l(4) =   1
     Q(r) pseudized with  8 coefficients,  rinner =    0.800   0.800   0.800

     PseudoPot. # 3 for N  read from file:
     /storage/coda1/p-amedford6/0/shared/rich_project_chbe-medford/medford-share/data/pseudos_module/espresso/nninc/pbe/van/N.UPF
     MD5 check sum: 90d10febe142ad51ac9d5be1deb811c4
     Pseudo is Ultrasoft, Zval =  5.0
     Generated by new atomic code, or converted to UPF format
     Using radial grid of  729 points,  4 beta functions with:
                l(1) =   0
                l(2) =   0
                l(3) =   1
                l(4) =   1
     Q(r) pseudized with  8 coefficients,  rinner =    0.800   0.800   0.800

     PseudoPot. # 4 for C  read from file:
     /storage/coda1/p-amedford6/0/shared/rich_project_chbe-medford/medford-share/data/pseudos_module/espresso/nninc/pbe/van/C.UPF
     MD5 check sum: 1a69bf6b8db32088f5b2163dbdb77a27
     Pseudo is Ultrasoft, Zval =  4.0
     Generated by new atomic code, or converted to UPF format
     Using radial grid of  721 points,  4 beta functions with:
                l(1) =   0
                l(2) =   0
                l(3) =   1
                l(4) =   1
     Q(r) pseudized with  8 coefficients,  rinner =    0.800   0.800   0.800

     PseudoPot. # 5 for H  read from file:
     /storage/coda1/p-amedford6/0/shared/rich_project_chbe-medford/medford-share/data/pseudos_module/espresso/nninc/pbe/van/H.UPF
     MD5 check sum: b5ee9d7bfd3a09ee7748110bda690ff7
     Pseudo is Ultrasoft, Zval =  1.0
     Generated by new atomic code, or converted to UPF format
     Using radial grid of  615 points,  1 beta functions with:
                l(1) =   0
     Q(r) pseudized with  8 coefficients,  rinner =    0.800

     atomic species   valence    mass     pseudopotential
        Ti1           12.00    47.86700     Ti( 1.00)
        O1             6.00    15.99900     O ( 1.00)
        N1             5.00    14.00700     N ( 1.00)
        C1             4.00    12.01100     C ( 1.00)
        H1             1.00     1.00800     H ( 1.00)

     No symmetry found

   Cartesian axes

     site n.     atom                  positions (alat units)
         1           Ti1 tau(   1) = (   0.0004258   2.9801865   6.0000000  )
         2           Ti1 tau(   2) = (   3.2906075   1.4906267   6.0002472  )
         3           O1  tau(   3) = (   0.0006271   0.0005054   7.9858123  )
         4           O1  tau(   4) = (   3.2906025   0.0005020   7.3038282  )
         5           O1  tau(   5) = (   4.5942328   1.4918067   9.2879030  )
         6           O1  tau(   6) = (   1.9868534   1.4903216   9.2879459  )
         7           Ti1 tau(   7) = (   3.2907910   2.8959150   9.1758416  )
         8           Ti1 tau(   8) = (   0.0015273   1.4827037   9.2680791  )
         9           O1  tau(   9) = (   3.2683845   0.0132936  11.3796717  )
        10           O1  tau(  10) = (   0.0116148   5.9584955  10.6183126  )
        11           O1  tau(  11) = (   1.2681313   1.5011218  12.7194972  )
        12           O1  tau(  12) = (   5.2787963   1.4993765  12.6897032  )
        13           Ti1 tau(  13) = (   6.5560253   2.9823375  12.4990790  )
        14           Ti1 tau(  14) = (   3.2673924   1.4925278  12.5394213  )
        15           O1  tau(  15) = (   6.5345332   5.8735037  14.6996474  )
        16           O1  tau(  16) = (   3.2898196   5.9462848  13.9939205  )
        17           O1  tau(  17) = (   4.4957945   1.5291507  16.1605787  )
        18           O1  tau(  18) = (   1.9883785   1.5110281  16.0762771  )
        19           Ti1 tau(  19) = (   3.2526948   3.0056396  15.7740191  )
        20           Ti1 tau(  20) = (   0.0000763   1.3299063  15.8143521  )
        21           O1  tau(  21) = (   3.2904802   0.0005063   4.7018136  )
        22           O1  tau(  22) = (   6.5205728   0.2065101  17.2442985  )
        23           O1  tau(  23) = (   1.3043587   1.4918075   6.0039043  )
        24           O1  tau(  24) = (   5.2767064   1.4903225   6.0039473  )
        25           Ti1 tau(  25) = (   0.0000382   5.9609847   6.0000000  )
        26           Ti1 tau(  26) = (   3.2902200   4.4714249   6.0002472  )
        27           O1  tau(  27) = (   0.0002396   2.9813036   7.9858123  )
        28           O1  tau(  28) = (   3.2902150   2.9813002   7.3038282  )
        29           O1  tau(  29) = (   4.5938453   4.4726049   9.2879030  )
        30           O1  tau(  30) = (   1.9864658   4.4711199   9.2879459  )
        31           Ti1 tau(  31) = (   3.2891106   5.8743827   9.1763621  )
        32           Ti1 tau(  32) = (   0.0006254   4.4649316   9.2693709  )
        33           O1  tau(  33) = (   3.2688559   2.9716192  11.3757022  )
        34           O1  tau(  34) = (   0.0092240   2.9805883  10.6323155  )
        35           O1  tau(  35) = (   1.2711362   4.4646907  12.6658965  )
        36           O1  tau(  36) = (   5.2748280   4.4660984  12.6332574  )
        37           Ti1 tau(  37) = (   6.5627654   5.9477838  12.5072267  )
        38           Ti1 tau(  38) = (   3.2667511   4.4702655  12.5260729  )
        39           O1  tau(  39) = (   6.5087961   3.0586107  15.0099536  )
        40           O1  tau(  40) = (   3.2849776   3.0149387  13.9815115  )
        41           O1  tau(  41) = (   4.4906635   4.4862850  16.2792570  )
        42           O1  tau(  42) = (   1.9756856   4.4939852  16.2100911  )
        43           Ti1 tau(  43) = (   3.2747729   0.0241646  15.7895078  )
        44           Ti1 tau(  44) = (   6.5697470   4.5456975  16.1185117  )
        45           O1  tau(  45) = (   3.2900926   2.9813045   4.7018136  )
        46           O1  tau(  46) = (   1.3039711   4.4726057   6.0039043  )
        47           O1  tau(  47) = (   5.2763189   4.4711207   6.0039473  )
        48           N1  tau(  48) = (   0.9980056   3.0961469  18.9953282  )
        49           N1  tau(  49) = (   6.4063515   3.4839273  18.2229180  )
        50           C1  tau(  50) = (   1.6570833   4.2684698  19.5811903  )
        51           H1  tau(  51) = (   0.9936588   4.8902639  20.1979557  )
        52           H1  tau(  52) = (   2.4789334   3.9063689  20.1993048  )
        53           H1  tau(  53) = (   2.0598354   4.8861676  18.7819781  )
        54           H1  tau(  54) = (   0.6510520   2.5058952  19.7602174  )
        55           H1  tau(  55) = (   5.8507131   4.1735594  18.7414995  )
        56           H1  tau(  56) = (   5.8147758   2.6545292  18.1916272  )
        57           O1  tau(  57) = (   5.1718451   0.7889162  19.5681371  )
        58           H1  tau(  58) = (   5.5516362   0.5215711  18.6954158  )
        59           H1  tau(  59) = (   4.2099197   0.7512590  19.4668632  )

     number of k points=    10  Fermi-Dirac smearing, width (Ry)=  0.0073
                       cart. coord. in units 2pi/alat
        k(    1) = (   0.0000000   0.0000000   0.0000000), wk =   0.1250000
        k(    2) = (   0.0000000   0.0419351   0.0000000), wk =   0.2500000
        k(    3) = (   0.0000000  -0.0838702   0.0000000), wk =   0.1250000
        k(    4) = (   0.0379955   0.0000049   0.0000000), wk =   0.2500000
        k(    5) = (   0.0379955   0.0419400   0.0000000), wk =   0.2500000
        k(    6) = (   0.0379955  -0.0838652   0.0000000), wk =   0.2500000
        k(    7) = (   0.0379955  -0.0419301   0.0000000), wk =   0.2500000
        k(    8) = (  -0.0759910  -0.0000099   0.0000000), wk =   0.1250000
        k(    9) = (  -0.0759910   0.0419252   0.0000000), wk =   0.2500000
        k(   10) = (  -0.0759910  -0.0838800   0.0000000), wk =   0.1250000

     Initial potential from superposition of free atoms

     starting charge  389.99912, renormalised to  406.00000

     negative rho (up, down):  1.389E-02 0.000E+00

     %%%%%%%%%%%%%%%%%%%%%%%%%%%%%%%%%%%%%%%%%%%%%%%%%%%%%%%%%%%%%%%%%%%%%%%%
     %                                                                      %
     % You are using vdW-DF, which was implemented by the Thonhauser group. %
     % Please cite the following two papers that made this development      %
     % possible and the two reviews that describe the various versions:     %
     %                                                                      %
     %   T. Thonhauser et al., PRL 115, 136402 (2015).                      %
     %   T. Thonhauser et al., PRB 76, 125112 (2007).                       %
     %   K. Berland et al., Rep. Prog. Phys. 78, 066501 (2015).             %
     %   D.C. Langreth et al., J. Phys.: Condens. Matter 21, 084203 (2009). %
     %                                                                      %
     %                                                                      %
     % If you are calculating the stress with vdW-DF, please also cite:     %
     %                                                                      %
     %   R. Sabatini et al., J. Phys.: Condens. Matter 24, 424209 (2012).   %
     %                                                                      %
     %%%%%%%%%%%%%%%%%%%%%%%%%%%%%%%%%%%%%%%%%%%%%%%%%%%%%%%%%%%%%%%%%%%%%%%%

     Adding external electric field

     Computed dipole along edir(3) :
        Dipole              -16.7138 Ry au,        -42.4821 Debye
        Dipole field         -0.0315 Ry au,

        Potential amp.        2.9238 Ry
        Total length         46.3494 bohr

     Starting wfcs are  308 atomic wfcs
  @ DRIVER MODE: Message from server: STATUS
  @ DRIVER MODE: Message from server: POSDATA
  @ DRIVER MODE: Reading and sharing cell
  @ DRIVER MODE: Reading and sharing positions
  @ DRIVER MODE: Received positions

     Self-consistent Calculation

     iteration #  1     ecut=    29.40 Ry     beta= 0.05
     Davidson diagonalization with overlap
     c_bands:  2 eigenvalues not converged
     c_bands:  3 eigenvalues not converged
     c_bands:  2 eigenvalues not converged
     c_bands:  4 eigenvalues not converged
     c_bands:  3 eigenvalues not converged
     c_bands:  4 eigenvalues not converged
     c_bands:  3 eigenvalues not converged
     c_bands:  5 eigenvalues not converged
     c_bands:  3 eigenvalues not converged
     ethr =  1.00E-05,  avg # of iterations = 24.8

[...]

     total energy              =   -2136.67341158 Ry
     estimated scf accuracy    <    9692.59250703 Ry

     iteration #  2     ecut=    29.40 Ry     beta= 0.05
     Davidson diagonalization with overlap
     ethr =  1.00E-02,  avg # of iterations = 33.7

[...]

     iteration # 58     ecut=    29.40 Ry     beta= 0.05
     Davidson diagonalization with overlap
     c_bands:  1 eigenvalues not converged
     c_bands:  1 eigenvalues not converged
     ethr =  1.58E-10,  avg # of iterations = 16.0

[...]

     total energy              =   -2977.68366959 Ry
     estimated scf accuracy    <       0.00000008 Ry

     iteration # 63     ecut=    29.40 Ry     beta= 0.05
     Davidson diagonalization with overlap
     ethr =  1.92E-11,  avg # of iterations =  2.0

     negative rho (up, down):  1.438E-02 0.000E+00

     Adding external electric field

     Computed dipole along edir(3) :
        Dipole                1.0214 Ry au,          2.5961 Debye
        Dipole field          0.0019 Ry au,

        Potential amp.       -0.1787 Ry
        Total length         46.3494 bohr

     End of self-consistent calculation

          k = 0.0000 0.0000 0.0000 ( 18029 PWs)   bands (ev):

   -55.3575 -55.3202 -55.3080 -55.2903 -55.2739 -55.2384 -55.2366 -55.2019
   -55.1805 -55.1793 -55.1461 -55.1403 -55.1066 -55.0161 -54.3401 -54.3061
   -31.9238 -31.8062 -31.8010 -31.7253 -31.6737 -31.6697 -31.6697 -31.6467
   -31.5969 -31.5927 -31.5696 -31.5671 -31.5530 -31.5366 -31.5277 -31.5244
   -31.5119 -31.5048 -31.4944 -31.4768 -31.4619 -31.4607 -31.4328 -31.4223
   -31.4151 -31.4111 -31.3908 -31.3830 -31.3669 -31.3652 -31.3605 -31.3516
   -31.3394 -31.3385 -31.3296 -31.3271 -31.2941 -31.2910 -31.2686 -31.2515
   -31.2283 -31.2261 -30.7496 -30.6550 -30.6330 -30.5660 -30.4792 -30.3683
   -18.0071 -17.6655 -16.1911 -15.9304 -15.7850 -15.6564 -15.5589 -15.4306
   -15.4113 -15.2894 -15.2192 -15.1156 -15.0643 -15.0459 -15.0100 -14.9998
   -14.9768 -14.9060 -14.8999 -14.8859 -14.8620 -14.8532 -14.8071 -14.7993
   -14.7580 -14.7337 -14.7094 -14.6105 -14.5205 -14.4457 -14.3387 -13.1251
   -12.8427 -12.7252  -9.4002  -6.3192  -5.8809  -5.7583  -4.2471  -3.5296
    -3.3808  -3.3121  -3.2759  -3.2505  -3.1170  -2.9585  -2.9070  -2.8085
    -2.7858  -2.6868  -2.6415  -2.5711  -2.5545  -2.5391  -2.3930  -2.3710
    -2.3453  -2.2785  -2.2518  -2.1852  -2.1631  -2.1530  -2.1430  -2.1197
    -2.0916  -2.0505  -1.9891  -1.9311  -1.8378  -1.8129  -1.7618  -1.7317
    -1.7114  -1.6944  -1.6488  -1.6378  -1.5984  -1.5838  -1.5642  -1.5495
    -1.3870  -1.3644  -1.2621  -1.2008  -1.1013  -0.9977  -0.9620  -0.9474
    -0.8504  -0.8319  -0.7788  -0.7386  -0.7356  -0.7011  -0.5893  -0.5269
    -0.4744  -0.4109  -0.3881  -0.3479  -0.2800  -0.1972  -0.1409  -0.1269
    -0.1126  -0.0966   0.0156   0.0279   0.0796   0.1544   0.1640   0.1701
     0.2435   0.3003   0.3706   0.3952   0.4133   0.5183   0.5339   0.5663
     0.5720   0.6018   0.6226   0.6476   0.7078   0.7381   0.8213   0.9430
     1.1336   1.2236   1.2515   1.3516   1.5745   1.5871   1.6827   1.8659
     2.2590   2.3074   3.7395   3.8106   3.8855   3.8895   3.9120   3.9759
     4.2126   4.2300   4.2445   4.2482   4.2722

[...]

          k = 0.0380-0.0419 0.0000 ( 17876 PWs)   bands (ev):

[...]

          k =-0.0760-0.0000 0.0000 ( 17886 PWs)   bands (ev):

[...]

          k =-0.0760-0.0839 0.0000 ( 17948 PWs)   bands (ev):

   -55.3438 -55.3337 -55.2912 -55.2906 -55.2890 -55.2310 -55.2263 -55.2139
   -55.1848 -55.1645 -55.1616 -55.1238 -55.1233 -55.0172 -54.3232 -54.3229
   -31.7319 -31.7240 -31.7217 -31.6374 -31.6178 -31.6163 -31.6158 -31.5823
   -31.5820 -31.5710 -31.5569 -31.5557 -31.5489 -31.5289 -31.5172 -31.5039
   -31.4974 -31.4942 -31.4927 -31.4913 -31.4845 -31.4771 -31.4448 -31.4372
   -31.4342 -31.4339 -31.4200 -31.4154 -31.4109 -31.4104 -31.4050 -31.3973
   -31.3949 -31.3777 -31.3745 -31.3723 -31.3575 -31.3544 -31.3047 -31.3043
   -31.2985 -31.2321 -30.6458 -30.6455 -30.5622 -30.5620 -30.5227 -30.5225
   -17.9944 -17.6752 -15.6717 -15.5866 -15.5657 -15.4106 -15.3590 -15.3324
   -15.3215 -15.2061 -15.1636 -15.1448 -15.1300 -15.1081 -15.0699 -15.0603
   -15.0535 -14.9903 -14.9700 -14.9611 -14.9352 -14.8813 -14.8737 -14.8657
   -14.8580 -14.8081 -14.8043 -14.7646 -14.7135 -14.7100 -14.6351 -13.1312
   -12.8267 -12.8267  -9.4048  -6.3431  -5.9106  -5.6736  -4.2250  -2.9240
    -2.8446  -2.8345  -2.8277  -2.6941  -2.6237  -2.5484  -2.5264  -2.5035
    -2.4200  -2.4070  -2.3762  -2.3508  -2.3220  -2.2824  -2.2451  -2.2381
    -2.2023  -2.1936  -2.1776  -2.1611  -2.1390  -2.1233  -2.0902  -2.0795
    -2.0656  -2.0217  -1.9961  -1.9816  -1.9608  -1.9403  -1.9329  -1.9141
    -1.8401  -1.7489  -1.7246  -1.6396  -1.5694  -1.5681  -1.5616  -1.5002
    -1.4569  -1.4183  -1.3934  -1.3764  -1.2379  -1.1658  -1.1216  -1.1073
    -1.0927  -0.9619  -0.9554  -0.8795  -0.8571  -0.8506  -0.7574  -0.7123
    -0.6740  -0.6672  -0.5804  -0.5684  -0.4924  -0.3940  -0.3721  -0.3582
    -0.3131  -0.3113  -0.2739  -0.2609  -0.1645  -0.1292  -0.1105  -0.0952
    -0.0792  -0.0370   0.1136   0.1630   0.1693   0.3019   0.3344   0.4728
     0.5028   0.5670   0.6468   0.6955   0.7480   0.7809   0.8671   0.9421
     0.9453   1.0087   1.0243   1.0904   1.1026   1.3558   2.0389   2.0394
     2.1272   2.1275   3.8876   4.0025   4.0062   4.0354   4.1574   4.1810
     4.2573   4.2848   4.3241   4.3276   4.3884

     the Fermi energy is     3.8036 ev

!    total energy              =   -2977.68371619 Ry
     estimated scf accuracy    <       0.00000005 Ry
     smearing contrib. (-TS)   =      -0.03717579 Ry
     internal energy E=F+TS    =   -2977.64654040 Ry

     The total energy is F=E-TS. E is the sum of the following terms:
     one-electron contribution =  -22684.10095584 Ry
     hartree contribution      =   11439.43642011 Ry
     xc contribution           =    -496.61100735 Ry
     ewald contribution        =    8763.62703400 Ry
     electric field correction =       0.00196868 Ry

     convergence has been achieved in  63 iterations

     Forces acting on atoms (cartesian axes, Ry/au):

     atom    1 type  1   force =     0.00024127   -0.00037577    0.09323993
     atom    2 type  1   force =     0.00002440   -0.00037400   -0.17816708
     atom    3 type  2   force =     0.00004791   -0.00041937   -0.02001576
     atom    4 type  2   force =     0.00001074   -0.00190094    0.05912125
     atom    5 type  2   force =    -0.01036286   -0.00059198    0.00860870
     atom    6 type  2   force =     0.01130907    0.00009859    0.00627668
     atom    7 type  1   force =    -0.00096724    0.00198409   -0.01426056
     atom    8 type  1   force =     0.00098045   -0.00256500   -0.00597113
     atom    9 type  2   force =     0.00016776   -0.00001528    0.00009081
     atom   10 type  2   force =    -0.00231140    0.00309093    0.00261258
     atom   11 type  2   force =     0.00041538   -0.00043002   -0.00057230
     atom   12 type  2   force =     0.00004213   -0.00040940   -0.00057813
     atom   13 type  1   force =     0.00033710   -0.00027340   -0.00021270
     atom   14 type  1   force =     0.00004298   -0.00008078   -0.00008018
     atom   15 type  2   force =    -0.00000338    0.00065427   -0.00005383
     atom   16 type  2   force =     0.00030652    0.00027681   -0.00013287
     atom   17 type  2   force =     0.00040024    0.00024226    0.00039008
     atom   18 type  2   force =    -0.00050350    0.00016175   -0.00016101
     atom   19 type  1   force =    -0.00017453    0.00003903    0.00038261
     atom   20 type  1   force =    -0.00006828   -0.00014250    0.00051574
     atom   21 type  2   force =     0.00011729   -0.00010991    0.10404270
     atom   22 type  2   force =     0.00014744   -0.00027347    0.00065918
     atom   23 type  2   force =    -0.07030514   -0.00019415   -0.02688719
     atom   24 type  2   force =     0.07028484    0.00024938   -0.02688664
     atom   25 type  1   force =     0.00017655   -0.00030437    0.09241308
     atom   26 type  1   force =     0.00005672   -0.00054651   -0.17850146
     atom   27 type  2   force =     0.00008175   -0.00020649   -0.01908371
     atom   28 type  2   force =     0.00006035   -0.00173226    0.05853626
     atom   29 type  2   force =    -0.01102852   -0.00113925    0.00944563
     atom   30 type  2   force =     0.01188474   -0.00069456    0.00722797
     atom   31 type  1   force =    -0.00087612    0.00646669   -0.01492640
     atom   32 type  1   force =     0.00101611    0.00220455   -0.00639213
     atom   33 type  2   force =     0.00025953    0.00009419    0.00002486
     atom   34 type  2   force =    -0.00214720   -0.00243111   -0.00031733
     atom   35 type  2   force =     0.00026970    0.00012999   -0.00001242
     atom   36 type  2   force =     0.00026439    0.00003798    0.00050445
     atom   37 type  1   force =    -0.00009606    0.00002586   -0.00005078
     atom   38 type  1   force =     0.00015130   -0.00006730    0.00000047
     atom   39 type  2   force =    -0.00010180   -0.00022081    0.00044533
     atom   40 type  2   force =    -0.00014421    0.00008458    0.00005910
     atom   41 type  2   force =    -0.00046136    0.00015931    0.00026186
     atom   42 type  2   force =     0.00019659   -0.00008297   -0.00013087
     atom   43 type  1   force =     0.00038220    0.00030558   -0.00006532
     atom   44 type  1   force =    -0.00019486   -0.00019568   -0.00011579
     atom   45 type  2   force =     0.00012252   -0.00011247    0.10397894
     atom   46 type  2   force =    -0.07027180   -0.00012980   -0.02682421
     atom   47 type  2   force =     0.07026207    0.00027763   -0.02689133
     atom   48 type  3   force =     0.00075712   -0.00502237    0.01587885
     atom   49 type  3   force =    -0.00316082    0.00148291   -0.00423813
     atom   50 type  4   force =    -0.00064757   -0.00083799   -0.00396897
     atom   51 type  5   force =    -0.00121211   -0.00044903    0.00008726
     atom   52 type  5   force =     0.00001249   -0.00076430   -0.00000313
     atom   53 type  5   force =     0.00030941    0.00097600    0.00003005
     atom   54 type  5   force =     0.00371872    0.00469867   -0.00879528
     atom   55 type  5   force =     0.00046517    0.00043418    0.00001940
     atom   56 type  5   force =    -0.00047694   -0.00068477    0.00027097
     atom   57 type  2   force =    -0.00103664   -0.00062066    0.00088753
     atom   58 type  5   force =     0.00011487   -0.00027619   -0.00023908
     atom   59 type  5   force =     0.00111451    0.00049963   -0.00147653

     Total force =     0.366909     Total SCF correction =     0.000581
  @ DRIVER MODE: Message from server: STATUS
  @ DRIVER MODE: Message from server: GETFORCE
  @ DRIVER MODE: Returning v,forces,stress,ensemble

     Writing output data file ./calc.save/
  @ DRIVER MODE: Message from server: EXIT
  @ DRIVE MODE: Exiting

     General routines

     Parallel routines

   This run was terminated on:  17:39:28  15Sep2021

   JOB DONE.