     Program PWSCF v.6.7GPU starts on 16Sep2021 at  0:57:40

     R & G space division:  proc/nbgrp/npool/nimage =      10
     Reading input from /storage/home/hcoda1/3/ntian30/research/carbon/CxH_vib/H2O_calc/ads_slab/CHNHH2O_a/out_0028/pw.inp
Warning: card &CELL ignored
Warning: card   CELL_DYNAMICS='IPI', ignored
Warning: card / ignored

     Current dimensions of program PWSCF are:
     Max number of different atomic species (ntypx) = 10
     Max number of k-points (npk) =  40000
     Max angular momentum in pseudopotentials (lmaxx) =  3
     Presently no symmetry can be used with electric field

     Message from routine cell_base_init:
     DEPRECATED: use true lattice parameter, not A to a.u. conversion factor

     IMPORTANT: XC functional enforced from input :
     Exchange-correlation= BEEF-VDW
                           (   1   4  43  14   2   0   0)
     Any further DFT definition will be discarded
     Please, verify this is what you really want

  @ DRIVER MODE: Connecting to
 qe_1139763_2852628.sched-torque.pace.gatech.edun3o85qxe_scratch
  using UNIX socket
  @ DRIVER MODE: Message from server: STATUS
  @ DRIVER MODE: Message from server: INIT
  @ DRIVER MODE: Receiving replica           0          -1
  @ DRIVER MODE: Receiving encoded integer          25
  @ DRIVER MODE:  SCF:  T  FORCE:  T  STRESS:  F  VC:  F  ENSEMBLE:  F
  @ DRIVER MODE:  SCF:  T  FORCE:  T  STRESS:  F  VC:  F  ENSEMBLE:  F

     Using Slab Decomposition

     bravais-lattice index     =            0
     lattice parameter (alat)  =       1.8897  a.u.
     unit-cell volume          =    6658.9804 (a.u.)^3
     number of atoms/cell      =           54
     number of atomic types    =            5
     number of electrons       =       397.00
     number of Kohn-Sham states=          208
     kinetic-energy cutoff     =      29.3995  Ry
     charge density cutoff     =     293.9946  Ry
     scf convergence threshold =      7.3E-08
     mixing beta               =       0.0500
     number of iterations used =            8  plain     mixing
     Exchange-correlation= BEEF-VDW
                           (   1   4  43  14   2   0   0)

     celldm(1)=   1.889726  celldm(2)=   0.000000  celldm(3)=   0.000000
     celldm(4)=   0.000000  celldm(5)=   0.000000  celldm(6)=   0.000000

     crystal axes: (cart. coord. in units of alat)
               a(1) = (   6.579727   0.000000   0.000000 )
               a(2) = (  -0.000775   5.961596   0.000000 )
               a(3) = (   0.000000   0.000000  25.155947 )

     reciprocal axes: (cart. coord. in units 2 pi/alat)
               b(1) = (  0.151982  0.000020  0.000000 )
               b(2) = (  0.000000  0.167740  0.000000 )
               b(3) = (  0.000000  0.000000  0.039752 )

     PseudoPot. # 1 for Ti read from file:
     /storage/coda1/p-amedford6/0/shared/rich_project_chbe-medford/medford-share/data/pseudos_module/espresso/nninc/pbe/van/Ti.UPF
     MD5 check sum: 8e4df49b7f0d34bbd5052bf3f5ea0213
     Pseudo is Ultrasoft, Zval = 12.0
     Generated by new atomic code, or converted to UPF format
     Using radial grid of  851 points,  6 beta functions with:
                l(1) =   0
                l(2) =   0
                l(3) =   1
                l(4) =   1
                l(5) =   2
                l(6) =   2
     Q(r) pseudized with  8 coefficients,  rinner =    1.000   1.000   1.000
                                                       1.000   1.000

     PseudoPot. # 2 for O  read from file:
     /storage/coda1/p-amedford6/0/shared/rich_project_chbe-medford/medford-share/data/pseudos_module/espresso/nninc/pbe/van/O.UPF
     MD5 check sum: 78c19812648e8988a0fe644b0f25305e
     Pseudo is Ultrasoft, Zval =  6.0
     Generated by new atomic code, or converted to UPF format
     Using radial grid of  737 points,  4 beta functions with:
                l(1) =   0
                l(2) =   0
                l(3) =   1
                l(4) =   1
     Q(r) pseudized with  8 coefficients,  rinner =    0.800   0.800   0.800

     PseudoPot. # 3 for N  read from file:
     /storage/coda1/p-amedford6/0/shared/rich_project_chbe-medford/medford-share/data/pseudos_module/espresso/nninc/pbe/van/N.UPF
     MD5 check sum: 90d10febe142ad51ac9d5be1deb811c4
     Pseudo is Ultrasoft, Zval =  5.0
     Generated by new atomic code, or converted to UPF format
     Using radial grid of  729 points,  4 beta functions with:
                l(1) =   0
                l(2) =   0
                l(3) =   1
                l(4) =   1
     Q(r) pseudized with  8 coefficients,  rinner =    0.800   0.800   0.800

     PseudoPot. # 4 for C  read from file:
     /storage/coda1/p-amedford6/0/shared/rich_project_chbe-medford/medford-share/data/pseudos_module/espresso/nninc/pbe/van/C.UPF
     MD5 check sum: 1a69bf6b8db32088f5b2163dbdb77a27
     Pseudo is Ultrasoft, Zval =  4.0
     Generated by new atomic code, or converted to UPF format
     Using radial grid of  721 points,  4 beta functions with:
                l(1) =   0
                l(2) =   0
                l(3) =   1
                l(4) =   1
     Q(r) pseudized with  8 coefficients,  rinner =    0.800   0.800   0.800

     PseudoPot. # 5 for H  read from file:
     /storage/coda1/p-amedford6/0/shared/rich_project_chbe-medford/medford-share/data/pseudos_module/espresso/nninc/pbe/van/H.UPF
     MD5 check sum: b5ee9d7bfd3a09ee7748110bda690ff7
     Pseudo is Ultrasoft, Zval =  1.0
     Generated by new atomic code, or converted to UPF format
     Using radial grid of  615 points,  1 beta functions with:
                l(1) =   0
     Q(r) pseudized with  8 coefficients,  rinner =    0.800

     atomic species   valence    mass     pseudopotential
        Ti1           12.00    47.86700     Ti( 1.00)
        O1             6.00    15.99900     O ( 1.00)
        N1             5.00    14.00700     N ( 1.00)
        C1             4.00    12.01100     C ( 1.00)
        H1             1.00     1.00800     H ( 1.00)

     No symmetry found

   Cartesian axes

     site n.     atom                  positions (alat units)
         1           Ti1 tau(   1) = (   0.0004258   2.9801865   6.0000000  )
         2           Ti1 tau(   2) = (   3.2906075   1.4906267   6.0002472  )
         3           O1  tau(   3) = (   0.0006271   0.0005054   7.9858123  )
         4           O1  tau(   4) = (   3.2906025   0.0005020   7.3038282  )
         5           O1  tau(   5) = (   4.5942328   1.4918067   9.2879030  )
         6           O1  tau(   6) = (   1.9868534   1.4903216   9.2879459  )
         7           Ti1 tau(   7) = (   3.2907910   2.8959150   9.1758416  )
         8           Ti1 tau(   8) = (   0.0015273   1.4827037   9.2680791  )
         9           O1  tau(   9) = (   3.2914171   5.9475995  11.3455371  )
        10           O1  tau(  10) = (   0.0116148   5.9584955  10.6183126  )
        11           O1  tau(  11) = (   1.3057669   1.4807986  12.6390077  )
        12           O1  tau(  12) = (   5.3035249   1.4749620  12.6227664  )
        13           Ti1 tau(  13) = (   6.5294082   2.9362577  12.6231083  )
        14           Ti1 tau(  14) = (   3.2175537   1.4615748  12.5070279  )
        15           O1  tau(  15) = (   6.5585639   5.9474800  14.6380151  )
        16           O1  tau(  16) = (   3.3125803   5.9531145  13.9695519  )
        17           O1  tau(  17) = (   4.5393379   1.5011389  16.1071157  )
        18           O1  tau(  18) = (   2.0094023   1.5044898  16.0307267  )
        19           Ti1 tau(  19) = (   3.2760958   2.9523363  15.6877793  )
        20           Ti1 tau(  20) = (   0.0277933   1.3451898  16.0452527  )
        21           O1  tau(  21) = (   3.2904802   0.0005063   4.7018136  )
        22           O1  tau(  22) = (   0.0198929   5.9263875  17.1601691  )
        23           O1  tau(  23) = (   1.3043587   1.4918075   6.0039043  )
        24           O1  tau(  24) = (   5.2767064   1.4903225   6.0039473  )
        25           Ti1 tau(  25) = (   0.0000382   5.9609847   6.0000000  )
        26           Ti1 tau(  26) = (   3.2902200   4.4714249   6.0002472  )
        27           O1  tau(  27) = (   0.0002396   2.9813036   7.9858123  )
        28           O1  tau(  28) = (   3.2902150   2.9813002   7.3038282  )
        29           O1  tau(  29) = (   4.5938453   4.4726049   9.2879030  )
        30           O1  tau(  30) = (   1.9864658   4.4711199   9.2879459  )
        31           Ti1 tau(  31) = (   3.2891106   5.8743827   9.1763621  )
        32           Ti1 tau(  32) = (   0.0006254   4.4649316   9.2693709  )
        33           O1  tau(  33) = (   3.2862706   2.9662616  11.3468726  )
        34           O1  tau(  34) = (   0.0092240   2.9805883  10.6323155  )
        35           O1  tau(  35) = (   1.3102706   4.4726941  12.6361575  )
        36           O1  tau(  36) = (   5.3014905   4.4644878  12.6181669  )
        37           Ti1 tau(  37) = (   6.5311680   5.9227251  12.5202533  )
        38           Ti1 tau(  38) = (   3.2191334   4.4553394  12.5017427  )
        39           O1  tau(  39) = (   6.5614274   2.9920157  14.6796082  )
        40           O1  tau(  40) = (   3.3146075   2.9603188  13.8993185  )
        41           O1  tau(  41) = (   4.5484517   4.4144432  16.0509510  )
        42           O1  tau(  42) = (   2.0146171   4.4214036  15.9967612  )
        43           Ti1 tau(  43) = (   3.3303817   5.9274347  15.8100502  )
        44           Ti1 tau(  44) = (   0.0273359   4.4939047  15.8144843  )
        45           O1  tau(  45) = (   3.2900926   2.9813045   4.7018136  )
        46           O1  tau(  46) = (   1.3039711   4.4726057   6.0039043  )
        47           O1  tau(  47) = (   5.2763189   4.4711207   6.0039473  )
        48           N1  tau(  48) = (   6.5134970   2.9613368  17.6459670  )
        49           C1  tau(  49) = (   0.7931072   3.0267964  18.6255283  )
        50           H1  tau(  50) = (   1.8307262   2.9311331  18.2395185  )
        51           H1  tau(  51) = (   5.5494773   3.0666896  17.9713127  )
        52           O1  tau(  52) = (   3.1855344   5.8158271  18.1612476  )
        53           H1  tau(  53) = (   3.8461454   0.3022996  18.7034462  )
        54           H1  tau(  54) = (   2.3120581   0.0053998  18.5533318  )

     number of k points=    10  Fermi-Dirac smearing, width (Ry)=  0.0073
                       cart. coord. in units 2pi/alat
        k(    1) = (   0.0000000   0.0000000   0.0000000), wk =   0.1250000
        k(    2) = (   0.0000000   0.0419351   0.0000000), wk =   0.2500000
        k(    3) = (   0.0000000  -0.0838702   0.0000000), wk =   0.1250000
        k(    4) = (   0.0379955   0.0000049   0.0000000), wk =   0.2500000
        k(    5) = (   0.0379955   0.0419400   0.0000000), wk =   0.2500000
        k(    6) = (   0.0379955  -0.0838652   0.0000000), wk =   0.2500000
        k(    7) = (   0.0379955  -0.0419301   0.0000000), wk =   0.2500000
        k(    8) = (  -0.0759910  -0.0000099   0.0000000), wk =   0.1250000
        k(    9) = (  -0.0759910   0.0419252   0.0000000), wk =   0.2500000
        k(   10) = (  -0.0759910  -0.0838800   0.0000000), wk =   0.1250000

     Initial potential from superposition of free atoms

     starting charge  380.99916, renormalised to  397.00000

     negative rho (up, down):  1.755E-02 0.000E+00

     %%%%%%%%%%%%%%%%%%%%%%%%%%%%%%%%%%%%%%%%%%%%%%%%%%%%%%%%%%%%%%%%%%%%%%%%
     %                                                                      %
     % You are using vdW-DF, which was implemented by the Thonhauser group. %
     % Please cite the following two papers that made this development      %
     % possible and the two reviews that describe the various versions:     %
     %                                                                      %
     %   T. Thonhauser et al., PRL 115, 136402 (2015).                      %
     %   T. Thonhauser et al., PRB 76, 125112 (2007).                       %
     %   K. Berland et al., Rep. Prog. Phys. 78, 066501 (2015).             %
     %   D.C. Langreth et al., J. Phys.: Condens. Matter 21, 084203 (2009). %
     %                                                                      %
     %                                                                      %
     % If you are calculating the stress with vdW-DF, please also cite:     %
     %                                                                      %
     %   R. Sabatini et al., J. Phys.: Condens. Matter 24, 424209 (2012).   %
     %                                                                      %
     %%%%%%%%%%%%%%%%%%%%%%%%%%%%%%%%%%%%%%%%%%%%%%%%%%%%%%%%%%%%%%%%%%%%%%%%

     Adding external electric field

     Computed dipole along edir(3) :
        Dipole               -9.1667 Ry au,        -23.2993 Debye
        Dipole field         -0.0173 Ry au,

        Potential amp.        1.6036 Ry
        Total length         46.3494 bohr

     Starting wfcs are  300 atomic wfcs
  @ DRIVER MODE: Message from server: STATUS
  @ DRIVER MODE: Message from server: POSDATA
  @ DRIVER MODE: Reading and sharing cell
  @ DRIVER MODE: Reading and sharing positions
  @ DRIVER MODE: Received positions

     Self-consistent Calculation

     iteration #  1     ecut=    29.40 Ry     beta= 0.05
     Davidson diagonalization with overlap
     c_bands:  1 eigenvalues not converged
     c_bands:  1 eigenvalues not converged
     c_bands:  1 eigenvalues not converged
     c_bands:  1 eigenvalues not converged
     c_bands:  1 eigenvalues not converged
     c_bands:  1 eigenvalues not converged
     c_bands:  1 eigenvalues not converged
     c_bands:  1 eigenvalues not converged
     ethr =  1.00E-05,  avg # of iterations = 19.7

[...]

     total energy              =   -2547.25241666 Ry
     estimated scf accuracy    <    4504.91576258 Ry

     iteration #  2     ecut=    29.40 Ry     beta= 0.05
     Davidson diagonalization with overlap
     ethr =  1.00E-02,  avg # of iterations = 25.1

[...]

     iteration # 62     ecut=    29.40 Ry     beta= 0.05
     Davidson diagonalization with overlap
     c_bands:  1 eigenvalues not converged
     ethr =  1.25E-07,  avg # of iterations = 12.8

[...]

     total energy              =   -2952.61568039 Ry
     estimated scf accuracy    <       0.00000008 Ry

     iteration # 78     ecut=    29.40 Ry     beta= 0.05
     Davidson diagonalization with overlap
     ethr =  1.99E-11,  avg # of iterations = 13.7

     negative rho (up, down):  1.616E-02 0.000E+00

     Adding external electric field

     Computed dipole along edir(3) :
        Dipole                0.4084 Ry au,          1.0380 Debye
        Dipole field          0.0008 Ry au,

        Potential amp.       -0.0714 Ry
        Total length         46.3494 bohr

     End of self-consistent calculation

          k = 0.0000 0.0000 0.0000 ( 18029 PWs)   bands (ev):

   -56.0236 -55.9985 -55.9921 -55.9895 -55.9622 -55.8690 -55.8366 -55.8275
   -55.8238 -55.8110 -55.8024 -55.7775 -55.7480 -55.5782 -55.0088 -54.9748
   -32.5443 -32.5077 -32.4003 -32.3684 -32.3356 -32.3157 -32.3061 -32.3010
   -32.2669 -32.2361 -32.2240 -32.2178 -32.2084 -32.1952 -32.1775 -32.1759
   -32.1508 -32.1295 -32.1273 -32.1246 -32.0917 -32.0807 -32.0716 -32.0395
   -32.0287 -32.0272 -32.0231 -32.0189 -32.0161 -32.0109 -31.9958 -31.9854
   -31.9831 -31.9815 -31.9696 -31.9638 -31.9601 -31.9414 -31.9221 -31.8388
   -31.8219 -31.7353 -31.4162 -31.3271 -31.3047 -31.2329 -31.1464 -31.0353
   -19.2576 -16.7558 -16.5157 -16.3407 -16.2006 -16.1698 -15.9530 -15.8515
   -15.7806 -15.7262 -15.6570 -15.6053 -15.5714 -15.5624 -15.5455 -15.5216
   -15.5021 -15.4793 -15.4563 -15.4444 -15.4379 -15.3957 -15.3885 -15.3725
   -15.3538 -15.2471 -15.1837 -15.1596 -15.1142 -15.0910 -14.7379 -13.5112
   -13.3947  -7.8686  -7.1387  -4.1536  -4.0588  -3.9842  -3.9425  -3.9281
    -3.7685  -3.6942  -3.5449  -3.5190  -3.3073  -3.2746  -3.2198  -3.1950
    -3.1330  -3.0706  -2.9761  -2.9322  -2.8558  -2.8397  -2.8271  -2.8049
    -2.7835  -2.7674  -2.7281  -2.6635  -2.5935  -2.5597  -2.4461  -2.4202
    -2.4133  -2.3462  -2.3391  -2.3264  -2.3134  -2.2825  -2.2605  -2.2575
    -2.1857  -2.1541  -2.0835  -2.0316  -1.9708  -1.8525  -1.6982  -1.6388
    -1.5884  -1.5279  -1.5032  -1.4673  -1.4449  -1.4211  -1.3601  -1.3038
    -1.2391  -1.2273  -1.1567  -1.0644  -0.9930  -0.9565  -0.8851  -0.8228
    -0.8015  -0.7733  -0.7648  -0.7562  -0.7082  -0.5347  -0.4788  -0.4651
    -0.4244  -0.3425  -0.3108  -0.3023  -0.2533  -0.2449  -0.2049  -0.1163
    -0.0973  -0.0623  -0.0444  -0.0308   0.0020   0.0215   0.1765   0.1973
     0.2397   0.2612   0.3640   0.4699   0.5366   0.6241   0.7187   0.9374
     1.0134   1.0907   1.2044   1.5854   1.6315   2.7806   3.1047   3.1934
     3.2315   3.2377   3.2720   3.3423   3.5585   3.5900   3.6074   3.6637

[...]

          k = 0.0380-0.0419 0.0000 ( 17876 PWs)   bands (ev):

[...]

          k =-0.0760-0.0000 0.0000 ( 17886 PWs)   bands (ev):

[...]

          k =-0.0760-0.0839 0.0000 ( 17948 PWs)   bands (ev):

   -56.0071 -56.0059 -55.9908 -55.9823 -55.9779 -55.8598 -55.8368 -55.8254
   -55.8201 -55.8182 -55.7949 -55.7940 -55.7464 -55.5797 -54.9919 -54.9916
   -32.3581 -32.3423 -32.3232 -32.3226 -32.3016 -32.3007 -32.2794 -32.2714
   -32.2515 -32.2189 -32.2038 -32.1998 -32.1950 -32.1734 -32.1460 -32.1408
   -32.1360 -32.1342 -32.1326 -32.1310 -32.1303 -32.1270 -32.1264 -32.1252
   -32.0778 -32.0588 -32.0498 -32.0384 -32.0266 -32.0242 -32.0229 -32.0212
   -32.0201 -32.0099 -32.0082 -31.9979 -31.9914 -31.9773 -31.9718 -31.8427
   -31.8270 -31.8221 -31.3175 -31.3173 -31.2291 -31.2288 -31.1898 -31.1896
   -19.2566 -16.2146 -16.0951 -16.0405 -15.9476 -15.9221 -15.9075 -15.8337
   -15.7811 -15.7281 -15.7182 -15.6942 -15.6799 -15.6723 -15.6136 -15.5853
   -15.5612 -15.5500 -15.5066 -15.4938 -15.4858 -15.4722 -15.4701 -15.4640
   -15.4202 -15.3887 -15.3520 -15.3480 -15.2086 -15.0999 -15.0100 -13.4966
   -13.4962  -7.8773  -7.1409  -3.9083  -3.6480  -3.4926  -3.3158  -3.2630
    -3.1659  -3.1544  -3.1232  -3.1029  -2.9937  -2.9340  -2.9214  -2.8996
    -2.8588  -2.8492  -2.8424  -2.8372  -2.8030  -2.8013  -2.7647  -2.7460
    -2.7147  -2.7009  -2.6952  -2.6883  -2.6644  -2.6449  -2.6053  -2.5905
    -2.5742  -2.5437  -2.5082  -2.3733  -2.3041  -2.2263  -2.2191  -2.1788
    -2.1663  -2.1461  -2.1035  -2.0859  -2.0584  -1.9774  -1.9017  -1.7473
    -1.7289  -1.7057  -1.6723  -1.6140  -1.5217  -1.4962  -1.4688  -1.4224
    -1.4059  -1.3476  -1.3265  -1.2958  -1.2394  -1.1780  -1.1409  -1.1136
    -1.0681  -1.0035  -0.9827  -0.9625  -0.9480  -0.8867  -0.7789  -0.7720
    -0.7664  -0.7166  -0.7013  -0.6716  -0.6494  -0.5589  -0.4790  -0.4192
    -0.3225  -0.1585  -0.0786   0.0196   0.0565   0.1010   0.1458   0.1879
     0.2844   0.2865   0.3593   0.3898   0.4066   0.4890   0.5000   0.5231
     0.6836   1.3760   1.3772   1.4510   1.4515   2.8155   3.3626   3.4088
     3.4430   3.4897   3.5922   3.6123   3.6406   3.6426   3.7216   3.7689

     the Fermi energy is     3.1080 ev

!    total energy              =   -2952.61569158 Ry
     estimated scf accuracy    <       0.00000007 Ry
     smearing contrib. (-TS)   =      -0.02582714 Ry
     internal energy E=F+TS    =   -2952.58986444 Ry

     The total energy is F=E-TS. E is the sum of the following terms:
     one-electron contribution =  -24509.58894122 Ry
     hartree contribution      =   12341.98954574 Ry
     xc contribution           =    -487.96844619 Ry
     ewald contribution        =    9702.97766249 Ry
     electric field correction =       0.00031474 Ry

     convergence has been achieved in  78 iterations

     Forces acting on atoms (cartesian axes, Ry/au):

     atom    1 type  1   force =    -0.00003474   -0.00029643    0.09592871
     atom    2 type  1   force =     0.00005362   -0.00049427   -0.17609762
     atom    3 type  2   force =     0.00010269   -0.00008971   -0.02433452
     atom    4 type  2   force =     0.00000958   -0.00163314    0.05388643
     atom    5 type  2   force =    -0.01176314   -0.00141862    0.00393662
     atom    6 type  2   force =     0.01319015   -0.00102781    0.00317782
     atom    7 type  1   force =     0.00034387    0.00067785   -0.00764141
     atom    8 type  1   force =     0.00026242    0.01496438    0.02334464
     atom    9 type  2   force =    -0.00004983    0.00018951    0.00011404
     atom   10 type  2   force =    -0.00219294    0.00051084   -0.01743408
     atom   11 type  2   force =     0.00047376   -0.00027358   -0.00021907
     atom   12 type  2   force =    -0.00083615   -0.00018322    0.00000075
     atom   13 type  1   force =     0.00045453    0.00043450    0.00005883
     atom   14 type  1   force =    -0.00018535    0.00003933    0.00089879
     atom   15 type  2   force =    -0.00013559   -0.00005070   -0.00076130
     atom   16 type  2   force =     0.00001298    0.00052052   -0.00022516
     atom   17 type  2   force =    -0.00039787    0.00036347   -0.00011474
     atom   18 type  2   force =     0.00015594    0.00028263   -0.00043944
     atom   19 type  1   force =     0.00071735    0.00039393   -0.00040609
     atom   20 type  1   force =    -0.00053048    0.00040037   -0.00005374
     atom   21 type  2   force =     0.00006589   -0.00000387    0.10332907
     atom   22 type  2   force =    -0.00025469   -0.00024294    0.00067803
     atom   23 type  2   force =    -0.07136795   -0.00012204   -0.02762699
     atom   24 type  2   force =     0.07128900    0.00032712   -0.02769934
     atom   25 type  1   force =     0.00023838   -0.00029633    0.09577045
     atom   26 type  1   force =     0.00011630   -0.00028732   -0.17602899
     atom   27 type  2   force =     0.00014062   -0.00029950   -0.02321801
     atom   28 type  2   force =     0.00000283   -0.00132606    0.05364491
     atom   29 type  2   force =    -0.01211598    0.00040161    0.00378003
     atom   30 type  2   force =     0.01350096    0.00101455    0.00302456
     atom   31 type  1   force =     0.00024683    0.00375330   -0.01143133
     atom   32 type  1   force =     0.00044309   -0.01661741    0.02315421
     atom   33 type  2   force =     0.00017986    0.00009979   -0.00033449
     atom   34 type  2   force =    -0.00191424   -0.00011494   -0.02071310
     atom   35 type  2   force =     0.00046703    0.00006510    0.00007490
     atom   36 type  2   force =    -0.00088573    0.00000052    0.00032950
     atom   37 type  1   force =     0.00080628    0.00005294   -0.00028936
     atom   38 type  1   force =     0.00000140    0.00012304    0.00039701
     atom   39 type  2   force =    -0.00025500    0.00046295   -0.00054924
     atom   40 type  2   force =    -0.00039188   -0.00006897   -0.00021205
     atom   41 type  2   force =    -0.00065015    0.00035944    0.00035511
     atom   42 type  2   force =     0.00012968    0.00030458    0.00029444
     atom   43 type  1   force =     0.00039247    0.00010514    0.00050958
     atom   44 type  1   force =    -0.00008829   -0.00029833    0.00038918
     atom   45 type  2   force =     0.00007020   -0.00000154    0.10328748
     atom   46 type  2   force =    -0.07134808   -0.00003373   -0.02760940
     atom   47 type  2   force =     0.07126983    0.00039629   -0.02768181
     atom   48 type  3   force =     0.00128191    0.00101833    0.00040228
     atom   49 type  4   force =    -0.00023584   -0.00015912   -0.00054855
     atom   50 type  5   force =    -0.00002250   -0.00061800    0.00018634
     atom   51 type  5   force =     0.00018159   -0.00061145    0.00010011
     atom   52 type  2   force =    -0.00374001   -0.00590921   -0.00587290
     atom   53 type  5   force =     0.00450892    0.00415223    0.00526138
     atom   54 type  5   force =    -0.00171350    0.00106398    0.00122752

     Total force =     0.368007     Total SCF correction =     0.000626
  @ DRIVER MODE: Message from server: STATUS
  @ DRIVER MODE: Message from server: GETFORCE
  @ DRIVER MODE: Returning v,forces,stress,ensemble

     Writing output data file ./calc.save/
  @ DRIVER MODE: Message from server: EXIT
  @ DRIVE MODE: Exiting

     General routines

     Parallel routines

   This run was terminated on:   1:17:22  16Sep2021

   JOB DONE.