     Program PWSCF v.6.7GPU starts on 11Sep2021 at  2:53:47

     R & G space division:  proc/nbgrp/npool/nimage =      10
     Reading input from /storage/home/hcoda1/3/ntian30/research/carbon/CxH_vib/CH2_calc/ads_slab/CH2N2H_e/out_0027/pw.inp
Warning: card &CELL ignored
Warning: card   CELL_DYNAMICS='IPI', ignored
Warning: card / ignored

     Current dimensions of program PWSCF are:
     Max number of different atomic species (ntypx) = 10
     Max number of k-points (npk) =  40000
     Max angular momentum in pseudopotentials (lmaxx) =  3
     Presently no symmetry can be used with electric field

     Message from routine cell_base_init:
     DEPRECATED: use true lattice parameter, not A to a.u. conversion factor

     IMPORTANT: XC functional enforced from input :
     Exchange-correlation= BEEF-VDW
                           (   1   4  43  14   2   0   0)
     Any further DFT definition will be discarded
     Please, verify this is what you really want

  @ DRIVER MODE: Connecting to
 qe_1139763_2792041.sched-torque.pace.gatech.edusiqng5cy_scratch
  using UNIX socket
  @ DRIVER MODE: Message from server: STATUS
  @ DRIVER MODE: Message from server: INIT
  @ DRIVER MODE: Receiving replica           0          -1
  @ DRIVER MODE: Receiving encoded integer          25
  @ DRIVER MODE:  SCF:  T  FORCE:  T  STRESS:  F  VC:  F  ENSEMBLE:  F
  @ DRIVER MODE:  SCF:  T  FORCE:  T  STRESS:  F  VC:  F  ENSEMBLE:  F

     Using Slab Decomposition

     bravais-lattice index     =            0
     lattice parameter (alat)  =       1.8897  a.u.
     unit-cell volume          =    6658.9804 (a.u.)^3
     number of atoms/cell      =           53
     number of atomic types    =            5
     number of electrons       =       395.00
     number of Kohn-Sham states=          207
     kinetic-energy cutoff     =      29.3995  Ry
     charge density cutoff     =     293.9946  Ry
     scf convergence threshold =      7.3E-08
     mixing beta               =       0.0500
     number of iterations used =            8  plain     mixing
     Exchange-correlation= BEEF-VDW
                           (   1   4  43  14   2   0   0)

     celldm(1)=   1.889726  celldm(2)=   0.000000  celldm(3)=   0.000000
     celldm(4)=   0.000000  celldm(5)=   0.000000  celldm(6)=   0.000000

     crystal axes: (cart. coord. in units of alat)
               a(1) = (   6.579727   0.000000   0.000000 )
               a(2) = (  -0.000775   5.961596   0.000000 )
               a(3) = (   0.000000   0.000000  25.155947 )

     reciprocal axes: (cart. coord. in units 2 pi/alat)
               b(1) = (  0.151982  0.000020  0.000000 )
               b(2) = (  0.000000  0.167740  0.000000 )
               b(3) = (  0.000000  0.000000  0.039752 )

     PseudoPot. # 1 for Ti read from file:
     /storage/coda1/p-amedford6/0/shared/rich_project_chbe-medford/medford-share/data/pseudos_module/espresso/nninc/pbe/van/Ti.UPF
     MD5 check sum: 8e4df49b7f0d34bbd5052bf3f5ea0213
     Pseudo is Ultrasoft, Zval = 12.0
     Generated by new atomic code, or converted to UPF format
     Using radial grid of  851 points,  6 beta functions with:
                l(1) =   0
                l(2) =   0
                l(3) =   1
                l(4) =   1
                l(5) =   2
                l(6) =   2
     Q(r) pseudized with  8 coefficients,  rinner =    1.000   1.000   1.000
                                                       1.000   1.000

     PseudoPot. # 2 for O  read from file:
     /storage/coda1/p-amedford6/0/shared/rich_project_chbe-medford/medford-share/data/pseudos_module/espresso/nninc/pbe/van/O.UPF
     MD5 check sum: 78c19812648e8988a0fe644b0f25305e
     Pseudo is Ultrasoft, Zval =  6.0
     Generated by new atomic code, or converted to UPF format
     Using radial grid of  737 points,  4 beta functions with:
                l(1) =   0
                l(2) =   0
                l(3) =   1
                l(4) =   1
     Q(r) pseudized with  8 coefficients,  rinner =    0.800   0.800   0.800

     PseudoPot. # 3 for N  read from file:
     /storage/coda1/p-amedford6/0/shared/rich_project_chbe-medford/medford-share/data/pseudos_module/espresso/nninc/pbe/van/N.UPF
     MD5 check sum: 90d10febe142ad51ac9d5be1deb811c4
     Pseudo is Ultrasoft, Zval =  5.0
     Generated by new atomic code, or converted to UPF format
     Using radial grid of  729 points,  4 beta functions with:
                l(1) =   0
                l(2) =   0
                l(3) =   1
                l(4) =   1
     Q(r) pseudized with  8 coefficients,  rinner =    0.800   0.800   0.800

     PseudoPot. # 4 for C  read from file:
     /storage/coda1/p-amedford6/0/shared/rich_project_chbe-medford/medford-share/data/pseudos_module/espresso/nninc/pbe/van/C.UPF
     MD5 check sum: 1a69bf6b8db32088f5b2163dbdb77a27
     Pseudo is Ultrasoft, Zval =  4.0
     Generated by new atomic code, or converted to UPF format
     Using radial grid of  721 points,  4 beta functions with:
                l(1) =   0
                l(2) =   0
                l(3) =   1
                l(4) =   1
     Q(r) pseudized with  8 coefficients,  rinner =    0.800   0.800   0.800

     PseudoPot. # 5 for H  read from file:
     /storage/coda1/p-amedford6/0/shared/rich_project_chbe-medford/medford-share/data/pseudos_module/espresso/nninc/pbe/van/H.UPF
     MD5 check sum: b5ee9d7bfd3a09ee7748110bda690ff7
     Pseudo is Ultrasoft, Zval =  1.0
     Generated by new atomic code, or converted to UPF format
     Using radial grid of  615 points,  1 beta functions with:
                l(1) =   0
     Q(r) pseudized with  8 coefficients,  rinner =    0.800

     atomic species   valence    mass     pseudopotential
        Ti1           12.00    47.86700     Ti( 1.00)
        O1             6.00    15.99900     O ( 1.00)
        N1             5.00    14.00700     N ( 1.00)
        C1             4.00    12.01100     C ( 1.00)
        H1             1.00     1.00800     H ( 1.00)

     No symmetry found

   Cartesian axes

     site n.     atom                  positions (alat units)
         1           Ti1 tau(   1) = (   0.0004258   2.9801865   6.0000000  )
         2           Ti1 tau(   2) = (   3.2906075   1.4906267   6.0002472  )
         3           O1  tau(   3) = (   0.0006271   0.0005054   7.9858123  )
         4           O1  tau(   4) = (   3.2906025   0.0005020   7.3038282  )
         5           O1  tau(   5) = (   4.5942328   1.4918067   9.2879030  )
         6           O1  tau(   6) = (   1.9868534   1.4903216   9.2879459  )
         7           Ti1 tau(   7) = (   3.2907910   2.8959150   9.1758416  )
         8           Ti1 tau(   8) = (   0.0015273   1.4827037   9.2680791  )
         9           O1  tau(   9) = (   3.2922140   0.0036562  11.3253104  )
        10           O1  tau(  10) = (   0.0116148   5.9584955  10.6183126  )
        11           O1  tau(  11) = (   1.2860832   1.4889729  12.6258215  )
        12           O1  tau(  12) = (   5.2729595   1.4828594  12.6177116  )
        13           Ti1 tau(  13) = (   0.0641184   3.0073180  12.5883652  )
        14           Ti1 tau(  14) = (   3.3767723   1.4911129  12.4765728  )
        15           O1  tau(  15) = (   6.5781935   5.9569561  14.6821271  )
        16           O1  tau(  16) = (   3.2819581   0.0025077  13.9050320  )
        17           O1  tau(  17) = (   4.5172158   1.5234625  16.0337941  )
        18           O1  tau(  18) = (   2.0475084   1.5263597  16.0453316  )
        19           Ti1 tau(  19) = (   3.2743797   3.0127756  15.6984511  )
        20           Ti1 tau(  20) = (   6.5512008   1.5842238  15.7855373  )
        21           O1  tau(  21) = (   3.2904802   0.0005063   4.7018136  )
        22           O1  tau(  22) = (   6.5742344   0.0609322  17.2932839  )
        23           O1  tau(  23) = (   1.3043587   1.4918075   6.0039043  )
        24           O1  tau(  24) = (   5.2767064   1.4903225   6.0039473  )
        25           Ti1 tau(  25) = (   0.0000382   5.9609847   6.0000000  )
        26           Ti1 tau(  26) = (   3.2902200   4.4714249   6.0002472  )
        27           O1  tau(  27) = (   0.0002396   2.9813036   7.9858123  )
        28           O1  tau(  28) = (   3.2902150   2.9813002   7.3038282  )
        29           O1  tau(  29) = (   4.5938453   4.4726049   9.2879030  )
        30           O1  tau(  30) = (   1.9864658   4.4711199   9.2879459  )
        31           Ti1 tau(  31) = (   3.2891106   5.8743827   9.1763621  )
        32           Ti1 tau(  32) = (   0.0006254   4.4649316   9.2693709  )
        33           O1  tau(  33) = (   3.2917412   2.9831059  11.3263362  )
        34           O1  tau(  34) = (   0.0092240   2.9805883  10.6323155  )
        35           O1  tau(  35) = (   1.2859270   4.4784489  12.6216084  )
        36           O1  tau(  36) = (   5.2779610   4.4756213  12.6128944  )
        37           Ti1 tau(  37) = (   0.0616295   0.0157230  12.5710002  )
        38           Ti1 tau(  38) = (   3.3796684   4.4726909  12.4790056  )
        39           O1  tau(  39) = (   6.5693437   2.9756239  14.6354252  )
        40           O1  tau(  40) = (   3.2842310   3.0020566  13.9003041  )
        41           O1  tau(  41) = (   4.5171552   4.5052370  16.0986928  )
        42           O1  tau(  42) = (   2.0408908   4.5012300  16.0971631  )
        43           Ti1 tau(  43) = (   3.2680294   0.0293594  15.7040856  )
        44           Ti1 tau(  44) = (   6.5592110   4.6908586  16.1766550  )
        45           O1  tau(  45) = (   3.2900926   2.9813045   4.7018136  )
        46           O1  tau(  46) = (   1.3039711   4.4726057   6.0039043  )
        47           O1  tau(  47) = (   5.2763189   4.4711207   6.0039473  )
        48           N1  tau(  48) = (   0.0931655   2.5901963  18.5587852  )
        49           N1  tau(  49) = (   6.5755498   2.9338716  17.3126873  )
        50           C1  tau(  50) = (   0.1889803   3.3462807  19.6294495  )
        51           H1  tau(  51) = (   0.2540540   2.8541835  20.5836859  )
        52           H1  tau(  52) = (   0.1890997   4.4071571  19.5098884  )
        53           H1  tau(  53) = (   0.0969130   1.5623892  18.6894177  )

     number of k points=    10  Fermi-Dirac smearing, width (Ry)=  0.0073
                       cart. coord. in units 2pi/alat
        k(    1) = (   0.0000000   0.0000000   0.0000000), wk =   0.1250000
        k(    2) = (   0.0000000   0.0419351   0.0000000), wk =   0.2500000
        k(    3) = (   0.0000000  -0.0838702   0.0000000), wk =   0.1250000
        k(    4) = (   0.0379955   0.0000049   0.0000000), wk =   0.2500000
        k(    5) = (   0.0379955   0.0419400   0.0000000), wk =   0.2500000
        k(    6) = (   0.0379955  -0.0838652   0.0000000), wk =   0.2500000
        k(    7) = (   0.0379955  -0.0419301   0.0000000), wk =   0.2500000
        k(    8) = (  -0.0759910  -0.0000099   0.0000000), wk =   0.1250000
        k(    9) = (  -0.0759910   0.0419252   0.0000000), wk =   0.2500000
        k(   10) = (  -0.0759910  -0.0838800   0.0000000), wk =   0.1250000

     Initial potential from superposition of free atoms

     starting charge  378.99916, renormalised to  395.00000

     negative rho (up, down):  1.523E-02 0.000E+00

     %%%%%%%%%%%%%%%%%%%%%%%%%%%%%%%%%%%%%%%%%%%%%%%%%%%%%%%%%%%%%%%%%%%%%%%%
     %                                                                      %
     % You are using vdW-DF, which was implemented by the Thonhauser group. %
     % Please cite the following two papers that made this development      %
     % possible and the two reviews that describe the various versions:     %
     %                                                                      %
     %   T. Thonhauser et al., PRL 115, 136402 (2015).                      %
     %   T. Thonhauser et al., PRB 76, 125112 (2007).                       %
     %   K. Berland et al., Rep. Prog. Phys. 78, 066501 (2015).             %
     %   D.C. Langreth et al., J. Phys.: Condens. Matter 21, 084203 (2009). %
     %                                                                      %
     %                                                                      %
     % If you are calculating the stress with vdW-DF, please also cite:     %
     %                                                                      %
     %   R. Sabatini et al., J. Phys.: Condens. Matter 24, 424209 (2012).   %
     %                                                                      %
     %%%%%%%%%%%%%%%%%%%%%%%%%%%%%%%%%%%%%%%%%%%%%%%%%%%%%%%%%%%%%%%%%%%%%%%%

     Adding external electric field

     Computed dipole along edir(3) :
        Dipole               -8.7485 Ry au,        -22.2364 Debye
        Dipole field         -0.0165 Ry au,

        Potential amp.        1.5304 Ry
        Total length         46.3494 bohr

     Starting wfcs are  299 atomic wfcs
  @ DRIVER MODE: Message from server: STATUS
  @ DRIVER MODE: Message from server: POSDATA
  @ DRIVER MODE: Reading and sharing cell
  @ DRIVER MODE: Reading and sharing positions
  @ DRIVER MODE: Received positions

     Self-consistent Calculation

     iteration #  1     ecut=    29.40 Ry     beta= 0.05
     Davidson diagonalization with overlap
     c_bands:  2 eigenvalues not converged
     c_bands:  1 eigenvalues not converged
     c_bands:  1 eigenvalues not converged
     c_bands:  3 eigenvalues not converged
     c_bands:  2 eigenvalues not converged
     c_bands:  1 eigenvalues not converged
     c_bands:  1 eigenvalues not converged
     ethr =  1.00E-05,  avg # of iterations = 19.1

[...]

     total energy              =   -2617.00695930 Ry
     estimated scf accuracy    <    3577.25550773 Ry

     iteration #  2     ecut=    29.40 Ry     beta= 0.05
     Davidson diagonalization with overlap
     ethr =  1.00E-02,  avg # of iterations = 22.2

[...]

     iteration # 61     ecut=    29.40 Ry     beta= 0.05
     Davidson diagonalization with overlap
     c_bands:  1 eigenvalues not converged
     ethr =  5.36E-10,  avg # of iterations = 13.1

[...]

     total energy              =   -2939.15577672 Ry
     estimated scf accuracy    <       0.00000025 Ry

     iteration # 72     ecut=    29.40 Ry     beta= 0.05
     Davidson diagonalization with overlap
     ethr =  1.89E-11,  avg # of iterations =  5.6

     negative rho (up, down):  1.570E-02 0.000E+00

     Adding external electric field

     Computed dipole along edir(3) :
        Dipole                1.1192 Ry au,          2.8447 Debye
        Dipole field          0.0021 Ry au,

        Potential amp.       -0.1958 Ry
        Total length         46.3494 bohr

     End of self-consistent calculation

          k = 0.0000 0.0000 0.0000 ( 18029 PWs)   bands (ev):

   -55.5874 -55.5843 -55.5534 -55.5483 -55.4554 -55.4358 -55.4191 -55.4012
   -55.4006 -55.3673 -55.3625 -55.3288 -54.9568 -54.8687 -54.5656 -54.5316
   -32.1390 -32.0703 -31.9562 -31.8996 -31.8966 -31.8885 -31.8802 -31.8537
   -31.8313 -31.8116 -31.7794 -31.7698 -31.7635 -31.7396 -31.7371 -31.7241
   -31.6922 -31.6818 -31.6719 -31.6589 -31.6558 -31.6446 -31.6100 -31.6036
   -31.5939 -31.5902 -31.5859 -31.5772 -31.5667 -31.5645 -31.5400 -31.5301
   -31.5162 -31.5109 -31.5026 -31.4754 -31.4636 -31.1959 -31.1881 -31.1493
   -31.1014 -31.0477 -30.9727 -30.8845 -30.8621 -30.7895 -30.7030 -30.5919
   -18.9373 -16.3425 -16.0658 -15.8181 -15.7378 -15.7213 -15.6054 -15.4330
   -15.3167 -15.2653 -15.1623 -15.1614 -15.1248 -15.0907 -15.0424 -15.0392
   -15.0345 -15.0074 -14.9982 -14.9779 -14.9481 -14.9297 -14.8904 -14.7913
   -14.7728 -14.7232 -14.6943 -14.6681 -14.6481 -14.2635 -13.0676 -12.9512
   -12.7059  -8.8933  -6.3314  -4.8748  -3.7179  -3.6505  -3.5602  -3.4952
    -3.4651  -3.4353  -3.2373  -3.1947  -3.1431  -2.8365  -2.7758  -2.7574
    -2.7473  -2.7177  -2.4930  -2.4542  -2.4030  -2.3723  -2.3606  -2.3582
    -2.3566  -2.3268  -2.3085  -2.1674  -2.1327  -2.0423  -2.0029  -1.9965
    -1.9876  -1.9006  -1.8686  -1.8421  -1.8321  -1.8220  -1.7944  -1.7850
    -1.7765  -1.6425  -1.5636  -1.4116  -1.3914  -1.3508  -1.2195  -1.1958
    -1.0638  -1.0469  -1.0178  -0.9809  -0.9610  -0.8923  -0.7722  -0.7505
    -0.7148  -0.6997  -0.6092  -0.5710  -0.5032  -0.4687  -0.4447  -0.3969
    -0.3584  -0.3493  -0.3273  -0.2009  -0.0712  -0.0136  -0.0044   0.0229
     0.0913   0.1290   0.1894   0.2396   0.2494   0.2858   0.3373   0.3819
     0.3939   0.3962   0.4115   0.4496   0.5908   0.6073   0.6726   0.7181
     0.7613   0.8765   0.9283   1.0643   1.1562   1.3150   1.3841   1.4569
     1.5292   1.6491   2.0275   2.0457   2.0734   3.5428   3.6315   3.6756
     3.6809   3.7868   3.8823   3.9941   4.0138   4.0342   4.0895

[...]

          k = 0.0380-0.0419 0.0000 ( 17876 PWs)   bands (ev):

[...]

          k =-0.0760-0.0000 0.0000 ( 17886 PWs)   bands (ev):

[...]

          k =-0.0760-0.0839 0.0000 ( 17948 PWs)   bands (ev):

   -55.5705 -55.5701 -55.5665 -55.5658 -55.4428 -55.4316 -55.4215 -55.4148
   -55.3842 -55.3839 -55.3463 -55.3451 -54.9540 -54.8713 -54.5486 -54.5485
   -31.9423 -31.9406 -31.8858 -31.8854 -31.8659 -31.8653 -31.8385 -31.8382
   -31.8038 -31.7913 -31.7671 -31.7609 -31.7264 -31.7184 -31.7034 -31.7010
   -31.6990 -31.6959 -31.6900 -31.6897 -31.6865 -31.6839 -31.6561 -31.6484
   -31.6300 -31.6274 -31.6209 -31.6150 -31.5847 -31.5833 -31.5780 -31.5765
   -31.5618 -31.5613 -31.5610 -31.5590 -31.3664 -31.2324 -31.1968 -31.1636
   -31.1035 -31.0917 -30.8748 -30.8747 -30.7855 -30.7854 -30.7463 -30.7463
   -18.9335 -15.7726 -15.7579 -15.5316 -15.5163 -15.5052 -15.4963 -15.3489
   -15.3219 -15.2837 -15.2807 -15.2089 -15.1635 -15.1470 -15.1314 -15.1288
   -15.1103 -15.1021 -15.0537 -15.0468 -15.0456 -15.0276 -15.0211 -14.9067
   -14.9028 -14.8948 -14.8424 -14.7932 -14.6763 -14.3910 -13.0530 -13.0530
   -12.7117  -8.8934  -6.3256  -4.8364  -3.6646  -3.3530  -3.0603  -3.0490
    -2.7591  -2.7482  -2.7458  -2.7027  -2.5103  -2.5054  -2.4914  -2.4593
    -2.4258  -2.4146  -2.4048  -2.3905  -2.3849  -2.3363  -2.3143  -2.2693
    -2.2562  -2.2529  -2.2515  -2.2161  -2.2057  -2.1636  -2.1531  -2.1298
    -2.1176  -2.0857  -2.0547  -1.9079  -1.8217  -1.8027  -1.7288  -1.7219
    -1.6896  -1.6525  -1.6388  -1.5942  -1.5594  -1.4429  -1.3306  -1.2887
    -1.2742  -1.1740  -1.1377  -1.0993  -1.0470  -0.9728  -0.9647  -0.9357
    -0.8696  -0.7975  -0.7811  -0.7584  -0.6941  -0.6699  -0.5964  -0.5752
    -0.5502  -0.5453  -0.4888  -0.4231  -0.4073  -0.3557  -0.3476  -0.3065
    -0.2720  -0.2429  -0.2234  -0.0841  -0.0827  -0.0424   0.0925   0.1482
     0.3806   0.4301   0.4501   0.5215   0.6215   0.6699   0.6834   0.7251
     0.7344   0.7495   0.8098   0.9395   0.9450   1.0136   1.0545   1.1563
     1.8209   1.8213   1.8933   1.8933   1.9056   3.8389   3.8653   3.8781
     3.9018   4.0496   4.0596   4.0794   4.0801   4.1998   4.2207

     the Fermi energy is     3.5443 ev

!    total energy              =   -2939.15578879 Ry
     estimated scf accuracy    <       0.00000006 Ry
     smearing contrib. (-TS)   =      -0.02147510 Ry
     internal energy E=F+TS    =   -2939.13431369 Ry

     The total energy is F=E-TS. E is the sum of the following terms:
     one-electron contribution =  -24212.92103115 Ry
     hartree contribution      =   12196.30884072 Ry
     xc contribution           =    -485.26180925 Ry
     ewald contribution        =    9562.73732227 Ry
     electric field correction =       0.00236372 Ry

     convergence has been achieved in  72 iterations

     Forces acting on atoms (cartesian axes, Ry/au):

     atom    1 type  1   force =     0.00008698   -0.00017820    0.09641176
     atom    2 type  1   force =    -0.00018632   -0.00072465   -0.17540649
     atom    3 type  2   force =     0.00004543   -0.00013259   -0.02408356
     atom    4 type  2   force =     0.00007698   -0.00140983    0.05268097
     atom    5 type  2   force =    -0.01131035   -0.00007412    0.00339250
     atom    6 type  2   force =     0.01296389    0.00064084    0.00223754
     atom    7 type  1   force =    -0.00120015    0.00046900   -0.01224757
     atom    8 type  1   force =     0.00043102    0.00232988    0.02519140
     atom    9 type  2   force =    -0.00025237    0.00018884    0.00003901
     atom   10 type  2   force =    -0.00120574    0.00198594   -0.01304737
     atom   11 type  2   force =     0.00057326    0.00016053    0.00023883
     atom   12 type  2   force =    -0.00050066    0.00006695    0.00011664
     atom   13 type  1   force =    -0.00049594    0.00027612    0.00018276
     atom   14 type  1   force =     0.00060881   -0.00037028   -0.00028517
     atom   15 type  2   force =    -0.00006582    0.00029635    0.00002896
     atom   16 type  2   force =    -0.00002137    0.00018204    0.00057447
     atom   17 type  2   force =    -0.00053642   -0.00003730   -0.00004921
     atom   18 type  2   force =     0.00018219   -0.00012006   -0.00029070
     atom   19 type  1   force =     0.00012495    0.00075854    0.00047387
     atom   20 type  1   force =    -0.00000090    0.00029281   -0.00010726
     atom   21 type  2   force =     0.00010080   -0.00012440    0.10317194
     atom   22 type  2   force =    -0.00024761    0.00008645    0.00006872
     atom   23 type  2   force =    -0.07150388   -0.00021200   -0.02774526
     atom   24 type  2   force =     0.07150588    0.00025325   -0.02775306
     atom   25 type  1   force =     0.00012167   -0.00025523    0.09593191
     atom   26 type  1   force =    -0.00011287   -0.00044482   -0.17555325
     atom   27 type  2   force =     0.00009644   -0.00013119   -0.02333008
     atom   28 type  2   force =     0.00011067   -0.00121654    0.05264403
     atom   29 type  2   force =    -0.01155937   -0.00029667    0.00347616
     atom   30 type  2   force =     0.01314436    0.00016441    0.00228187
     atom   31 type  1   force =    -0.00120558    0.00345414   -0.01236370
     atom   32 type  1   force =     0.00054568   -0.00378416    0.02548136
     atom   33 type  2   force =     0.00002672   -0.00017382   -0.00001654
     atom   34 type  2   force =    -0.00098397    0.00046534   -0.02168356
     atom   35 type  2   force =     0.00013640    0.00001148    0.00018553
     atom   36 type  2   force =    -0.00014592    0.00002241    0.00007038
     atom   37 type  1   force =    -0.00044159   -0.00032602    0.00015566
     atom   38 type  1   force =     0.00043340    0.00027967   -0.00028094
     atom   39 type  2   force =    -0.00001652   -0.00044743    0.00029926
     atom   40 type  2   force =    -0.00013087   -0.00008259    0.00012503
     atom   41 type  2   force =    -0.00082084   -0.00017286   -0.00024264
     atom   42 type  2   force =     0.00088834    0.00001347   -0.00000534
     atom   43 type  1   force =    -0.00001190   -0.00076244    0.00010927
     atom   44 type  1   force =    -0.00004344    0.00009021    0.00017021
     atom   45 type  2   force =     0.00010479   -0.00010792    0.10319564
     atom   46 type  2   force =    -0.07150453   -0.00015403   -0.02773341
     atom   47 type  2   force =     0.07151315    0.00029247   -0.02774097
     atom   48 type  3   force =     0.00033109   -0.00227125   -0.00065221
     atom   49 type  3   force =     0.00021748   -0.00003365   -0.00010443
     atom   50 type  4   force =    -0.00023197   -0.01236984    0.00222700
     atom   51 type  5   force =     0.00023524   -0.00053819    0.00016131
     atom   52 type  5   force =     0.00021961    0.01330877   -0.00079849
     atom   53 type  5   force =    -0.00008834    0.00086215    0.00019722

     Total force =     0.367207     Total SCF correction =     0.000783
  @ DRIVER MODE: Message from server: STATUS
  @ DRIVER MODE: Message from server: GETFORCE
  @ DRIVER MODE: Returning v,forces,stress,ensemble

     Writing output data file ./calc.save/
  @ DRIVER MODE: Message from server: EXIT
  @ DRIVE MODE: Exiting

     General routines

     Parallel routines

   This run was terminated on:   3:12:29  11Sep2021

   JOB DONE.