     Program PWSCF v.6.7GPU starts on 23Sep2021 at 11:36: 9

     R & G space division:  proc/nbgrp/npool/nimage =       8
     Reading input from /storage/home/hcoda1/3/ntian30/research/carbon/CxH_vib/H2O_calc/ads_slab/CH3NH2NHHO_c/out_0002/pw.inp
Warning: card &CELL ignored
Warning: card   CELL_DYNAMICS='IPI', ignored
Warning: card / ignored

     Current dimensions of program PWSCF are:
     Max number of different atomic species (ntypx) = 10
     Max number of k-points (npk) =  40000
     Max angular momentum in pseudopotentials (lmaxx) =  3
     Presently no symmetry can be used with electric field

     Message from routine cell_base_init:
     DEPRECATED: use true lattice parameter, not A to a.u. conversion factor

     IMPORTANT: XC functional enforced from input :
     Exchange-correlation= BEEF-VDW
                           (   1   4  43  14   2   0   0)
     Any further DFT definition will be discarded
     Please, verify this is what you really want

  @ DRIVER MODE: Connecting to
 qe_1139763_2947310.sched-torque.pace.gatech.edu8flhsfqs_scratch
  using UNIX socket
  @ DRIVER MODE: Message from server: STATUS
  @ DRIVER MODE: Message from server: INIT
  @ DRIVER MODE: Receiving replica           0          -1
  @ DRIVER MODE: Receiving encoded integer          25
  @ DRIVER MODE:  SCF:  T  FORCE:  T  STRESS:  F  VC:  F  ENSEMBLE:  F
  @ DRIVER MODE:  SCF:  T  FORCE:  T  STRESS:  F  VC:  F  ENSEMBLE:  F

     Using Slab Decomposition

     bravais-lattice index     =            0
     lattice parameter (alat)  =       1.8897  a.u.
     unit-cell volume          =    6658.9804 (a.u.)^3
     number of atoms/cell      =           58
     number of atomic types    =            5
     number of electrons       =       405.00
     number of Kohn-Sham states=          212
     kinetic-energy cutoff     =      29.3995  Ry
     charge density cutoff     =     293.9946  Ry
     scf convergence threshold =      7.3E-08
     mixing beta               =       0.0500
     number of iterations used =            8  plain     mixing
     Exchange-correlation= BEEF-VDW
                           (   1   4  43  14   2   0   0)

     celldm(1)=   1.889726  celldm(2)=   0.000000  celldm(3)=   0.000000
     celldm(4)=   0.000000  celldm(5)=   0.000000  celldm(6)=   0.000000

     crystal axes: (cart. coord. in units of alat)
               a(1) = (   6.579727   0.000000   0.000000 )
               a(2) = (  -0.000775   5.961596   0.000000 )
               a(3) = (   0.000000   0.000000  25.155947 )

     reciprocal axes: (cart. coord. in units 2 pi/alat)
               b(1) = (  0.151982  0.000020  0.000000 )
               b(2) = (  0.000000  0.167740  0.000000 )
               b(3) = (  0.000000  0.000000  0.039752 )

     PseudoPot. # 1 for Ti read from file:
     /storage/coda1/p-amedford6/0/shared/rich_project_chbe-medford/medford-share/data/pseudos_module/espresso/nninc/pbe/van/Ti.UPF
     MD5 check sum: 8e4df49b7f0d34bbd5052bf3f5ea0213
     Pseudo is Ultrasoft, Zval = 12.0
     Generated by new atomic code, or converted to UPF format
     Using radial grid of  851 points,  6 beta functions with:
                l(1) =   0
                l(2) =   0
                l(3) =   1
                l(4) =   1
                l(5) =   2
                l(6) =   2
     Q(r) pseudized with  8 coefficients,  rinner =    1.000   1.000   1.000
                                                       1.000   1.000

     PseudoPot. # 2 for O  read from file:
     /storage/coda1/p-amedford6/0/shared/rich_project_chbe-medford/medford-share/data/pseudos_module/espresso/nninc/pbe/van/O.UPF
     MD5 check sum: 78c19812648e8988a0fe644b0f25305e
     Pseudo is Ultrasoft, Zval =  6.0
     Generated by new atomic code, or converted to UPF format
     Using radial grid of  737 points,  4 beta functions with:
                l(1) =   0
                l(2) =   0
                l(3) =   1
                l(4) =   1
     Q(r) pseudized with  8 coefficients,  rinner =    0.800   0.800   0.800

     PseudoPot. # 3 for N  read from file:
     /storage/coda1/p-amedford6/0/shared/rich_project_chbe-medford/medford-share/data/pseudos_module/espresso/nninc/pbe/van/N.UPF
     MD5 check sum: 90d10febe142ad51ac9d5be1deb811c4
     Pseudo is Ultrasoft, Zval =  5.0
     Generated by new atomic code, or converted to UPF format
     Using radial grid of  729 points,  4 beta functions with:
                l(1) =   0
                l(2) =   0
                l(3) =   1
                l(4) =   1
     Q(r) pseudized with  8 coefficients,  rinner =    0.800   0.800   0.800

     PseudoPot. # 4 for C  read from file:
     /storage/coda1/p-amedford6/0/shared/rich_project_chbe-medford/medford-share/data/pseudos_module/espresso/nninc/pbe/van/C.UPF
     MD5 check sum: 1a69bf6b8db32088f5b2163dbdb77a27
     Pseudo is Ultrasoft, Zval =  4.0
     Generated by new atomic code, or converted to UPF format
     Using radial grid of  721 points,  4 beta functions with:
                l(1) =   0
                l(2) =   0
                l(3) =   1
                l(4) =   1
     Q(r) pseudized with  8 coefficients,  rinner =    0.800   0.800   0.800

     PseudoPot. # 5 for H  read from file:
     /storage/coda1/p-amedford6/0/shared/rich_project_chbe-medford/medford-share/data/pseudos_module/espresso/nninc/pbe/van/H.UPF
     MD5 check sum: b5ee9d7bfd3a09ee7748110bda690ff7
     Pseudo is Ultrasoft, Zval =  1.0
     Generated by new atomic code, or converted to UPF format
     Using radial grid of  615 points,  1 beta functions with:
                l(1) =   0
     Q(r) pseudized with  8 coefficients,  rinner =    0.800

     atomic species   valence    mass     pseudopotential
        Ti1           12.00    47.86700     Ti( 1.00)
        O1             6.00    15.99900     O ( 1.00)
        N1             5.00    14.00700     N ( 1.00)
        C1             4.00    12.01100     C ( 1.00)
        H1             1.00     1.00800     H ( 1.00)

     No symmetry found

   Cartesian axes

     site n.     atom                  positions (alat units)
         1           Ti1 tau(   1) = (   0.0004258   2.9801865   6.0000000  )
         2           Ti1 tau(   2) = (   3.2906075   1.4906267   6.0002472  )
         3           O1  tau(   3) = (   0.0006271   0.0005054   7.9858123  )
         4           O1  tau(   4) = (   3.2906025   0.0005020   7.3038282  )
         5           O1  tau(   5) = (   4.5942328   1.4918067   9.2879030  )
         6           O1  tau(   6) = (   1.9868534   1.4903216   9.2879459  )
         7           Ti1 tau(   7) = (   3.2907910   2.8959150   9.1758416  )
         8           Ti1 tau(   8) = (   0.0015273   1.4827037   9.2680791  )
         9           O1  tau(   9) = (   3.2766908   5.9368450  11.3531397  )
        10           O1  tau(  10) = (   0.0116148   5.9584955  10.6183126  )
        11           O1  tau(  11) = (   1.2656210   1.4746568  12.6519442  )
        12           O1  tau(  12) = (   5.2821112   1.4671822  12.6528637  )
        13           Ti1 tau(  13) = (   0.0097886   3.0246942  12.5604876  )
        14           Ti1 tau(  14) = (   3.2716845   1.2919425  12.6923688  )
        15           O1  tau(  15) = (   6.5701288   5.9533353  14.7096902  )
        16           O1  tau(  16) = (   3.2612835   0.0684280  14.0222998  )
        17           O1  tau(  17) = (   4.5366247   1.5847279  16.0182572  )
        18           O1  tau(  18) = (   1.9973522   1.5932486  16.1410213  )
        19           Ti1 tau(  19) = (   3.3011230   3.0369928  15.6528835  )
        20           Ti1 tau(  20) = (   6.4616919   1.5442775  15.7581475  )
        21           O1  tau(  21) = (   3.2904802   0.0005063   4.7018136  )
        22           O1  tau(  22) = (   6.5264998   0.0144113  17.2942622  )
        23           O1  tau(  23) = (   1.3043587   1.4918075   6.0039043  )
        24           O1  tau(  24) = (   5.2767064   1.4903225   6.0039473  )
        25           Ti1 tau(  25) = (   0.0000382   5.9609847   6.0000000  )
        26           Ti1 tau(  26) = (   3.2902200   4.4714249   6.0002472  )
        27           O1  tau(  27) = (   0.0002396   2.9813036   7.9858123  )
        28           O1  tau(  28) = (   3.2902150   2.9813002   7.3038282  )
        29           O1  tau(  29) = (   4.5938453   4.4726049   9.2879030  )
        30           O1  tau(  30) = (   1.9864658   4.4711199   9.2879459  )
        31           Ti1 tau(  31) = (   3.2891106   5.8743827   9.1763621  )
        32           Ti1 tau(  32) = (   0.0006254   4.4649316   9.2693709  )
        33           O1  tau(  33) = (   3.2807216   2.9716845  11.3098041  )
        34           O1  tau(  34) = (   0.0092240   2.9805883  10.6323155  )
        35           O1  tau(  35) = (   1.2724369   4.4570745  12.6376724  )
        36           O1  tau(  36) = (   5.2808598   4.4590940  12.6336130  )
        37           Ti1 tau(  37) = (   6.5522345   0.0346224  12.5198063  )
        38           Ti1 tau(  38) = (   3.2841791   4.3624788  12.4156291  )
        39           O1  tau(  39) = (   6.5678423   2.9906399  14.7075790  )
        40           O1  tau(  40) = (   3.2630306   2.9991211  13.8878987  )
        41           O1  tau(  41) = (   4.5399391   4.4365880  16.1202346  )
        42           O1  tau(  42) = (   1.9952260   4.4486394  16.1468368  )
        43           Ti1 tau(  43) = (   3.1909378   0.0332154  16.1742435  )
        44           Ti1 tau(  44) = (   6.5525253   4.6749982  16.1158565  )
        45           O1  tau(  45) = (   3.2900926   2.9813045   4.7018136  )
        46           O1  tau(  46) = (   1.3039711   4.4726057   6.0039043  )
        47           O1  tau(  47) = (   5.2763189   4.4711207   6.0039473  )
        48           N1  tau(  48) = (   0.9451815   2.3805788  18.4294677  )
        49           N1  tau(  49) = (   6.5001775   2.8750743  17.5309975  )
        50           C1  tau(  50) = (   1.3386797   3.2909482  19.5301671  )
        51           H1  tau(  51) = (   0.4734699   3.4817333  20.1622224  )
        52           H1  tau(  52) = (   2.1262835   2.8019037  20.1042238  )
        53           H1  tau(  53) = (   1.7016266   4.2178517  19.0939426  )
        54           H1  tau(  54) = (   0.6429753   1.4474929  18.7566963  )
        55           H1  tau(  55) = (   5.6191021   2.8022447  18.0351622  )
        56           H1  tau(  56) = (   1.7303324   2.1440475  17.7969061  )
        57           O1  tau(  57) = (   3.3671931   0.1367260  18.0860582  )
        58           H1  tau(  58) = (   4.3009782   5.9598238  18.3144400  )

     number of k points=    10  Fermi-Dirac smearing, width (Ry)=  0.0073
                       cart. coord. in units 2pi/alat
        k(    1) = (   0.0000000   0.0000000   0.0000000), wk =   0.1250000
        k(    2) = (   0.0000000   0.0419351   0.0000000), wk =   0.2500000
        k(    3) = (   0.0000000  -0.0838702   0.0000000), wk =   0.1250000
        k(    4) = (   0.0379955   0.0000049   0.0000000), wk =   0.2500000
        k(    5) = (   0.0379955   0.0419400   0.0000000), wk =   0.2500000
        k(    6) = (   0.0379955  -0.0838652   0.0000000), wk =   0.2500000
        k(    7) = (   0.0379955  -0.0419301   0.0000000), wk =   0.2500000
        k(    8) = (  -0.0759910  -0.0000099   0.0000000), wk =   0.1250000
        k(    9) = (  -0.0759910   0.0419252   0.0000000), wk =   0.2500000
        k(   10) = (  -0.0759910  -0.0838800   0.0000000), wk =   0.1250000

     Initial potential from superposition of free atoms

     starting charge  388.99913, renormalised to  405.00000

     negative rho (up, down):  1.469E-02 0.000E+00

     %%%%%%%%%%%%%%%%%%%%%%%%%%%%%%%%%%%%%%%%%%%%%%%%%%%%%%%%%%%%%%%%%%%%%%%%
     %                                                                      %
     % You are using vdW-DF, which was implemented by the Thonhauser group. %
     % Please cite the following two papers that made this development      %
     % possible and the two reviews that describe the various versions:     %
     %                                                                      %
     %   T. Thonhauser et al., PRL 115, 136402 (2015).                      %
     %   T. Thonhauser et al., PRB 76, 125112 (2007).                       %
     %   K. Berland et al., Rep. Prog. Phys. 78, 066501 (2015).             %
     %   D.C. Langreth et al., J. Phys.: Condens. Matter 21, 084203 (2009). %
     %                                                                      %
     %                                                                      %
     % If you are calculating the stress with vdW-DF, please also cite:     %
     %                                                                      %
     %   R. Sabatini et al., J. Phys.: Condens. Matter 24, 424209 (2012).   %
     %                                                                      %
     %%%%%%%%%%%%%%%%%%%%%%%%%%%%%%%%%%%%%%%%%%%%%%%%%%%%%%%%%%%%%%%%%%%%%%%%

     Adding external electric field

     Computed dipole along edir(3) :
        Dipole              -13.9957 Ry au,        -35.5736 Debye
        Dipole field         -0.0264 Ry au,

        Potential amp.        2.4483 Ry
        Total length         46.3494 bohr

     Starting wfcs are  307 atomic wfcs
  @ DRIVER MODE: Message from server: STATUS
  @ DRIVER MODE: Message from server: POSDATA
  @ DRIVER MODE: Reading and sharing cell
  @ DRIVER MODE: Reading and sharing positions
  @ DRIVER MODE: Received positions

     Self-consistent Calculation

     iteration #  1     ecut=    29.40 Ry     beta= 0.05
     Davidson diagonalization with overlap
     c_bands:  5 eigenvalues not converged
     c_bands:  5 eigenvalues not converged
     c_bands:  1 eigenvalues not converged
     c_bands:  2 eigenvalues not converged
     c_bands:  3 eigenvalues not converged
     ethr =  1.00E-05,  avg # of iterations = 28.4

[...]

     total energy              =   -2225.12836678 Ry
     estimated scf accuracy    <    8520.72424657 Ry

     iteration #  2     ecut=    29.40 Ry     beta= 0.05
     Davidson diagonalization with overlap
     ethr =  1.00E-02,  avg # of iterations = 25.0

[...]

     iteration # 66     ecut=    29.40 Ry     beta= 0.05
     Davidson diagonalization with overlap
     c_bands:  1 eigenvalues not converged
     ethr =  4.18E-11,  avg # of iterations = 15.8

[...]

     total energy              =   -2976.49303173 Ry
     estimated scf accuracy    <       0.00000011 Ry

     iteration # 68     ecut=    29.40 Ry     beta= 0.05
     Davidson diagonalization with overlap
     ethr =  2.70E-11,  avg # of iterations = 10.3

     negative rho (up, down):  1.567E-02 0.000E+00

     Adding external electric field

     Computed dipole along edir(3) :
        Dipole                1.5043 Ry au,          3.8236 Debye
        Dipole field          0.0028 Ry au,

        Potential amp.       -0.2632 Ry
        Total length         46.3494 bohr

     End of self-consistent calculation

          k = 0.0000 0.0000 0.0000 ( 18029 PWs)   bands (ev):

   -55.2963 -55.1718 -55.1377 -55.0017 -54.9927 -54.9886 -54.9669 -54.9590
   -54.9288 -54.8801 -54.8479 -54.8116 -54.7895 -54.7486 -54.1351 -54.1011
   -31.6545 -31.6238 -31.5427 -31.4939 -31.4913 -31.4872 -31.4640 -31.4450
   -31.4174 -31.4128 -31.3682 -31.3322 -31.3241 -31.2765 -31.2638 -31.2561
   -31.2495 -31.2291 -31.2139 -31.1969 -31.1830 -31.1803 -31.1700 -31.1664
   -31.1474 -31.1247 -31.1225 -31.1189 -31.1089 -31.1011 -31.0951 -31.0748
   -31.0659 -31.0528 -31.0355 -31.0223 -31.0212 -31.0094 -31.0062 -31.0045
   -30.9779 -30.9387 -30.5408 -30.4555 -30.4330 -30.3584 -30.2720 -30.1602
   -18.8492 -16.0443 -15.8043 -15.6533 -15.4850 -15.3393 -15.2529 -15.0534
   -14.9375 -14.8979 -14.8798 -14.8066 -14.7034 -14.7027 -14.6588 -14.6317
   -14.6275 -14.5989 -14.5872 -14.5853 -14.5674 -14.5186 -14.5035 -14.4586
   -14.4524 -14.4133 -14.3009 -14.2314 -14.1869 -14.1144 -13.9976 -13.0804
   -12.6345 -12.5184 -10.8088  -7.5803  -6.2487  -5.5928  -3.7425  -3.6332
    -3.4431  -3.1657  -3.1012  -3.0696  -3.0425  -2.8892  -2.7640  -2.5827
    -2.4751  -2.4292  -2.3109  -2.2937  -2.2129  -2.1632  -2.1191  -2.0709
    -2.0409  -1.9754  -1.9583  -1.9538  -1.9260  -1.8589  -1.8313  -1.7159
    -1.6867  -1.6235  -1.5657  -1.4939  -1.4795  -1.4720  -1.4653  -1.4550
    -1.4261  -1.4109  -1.3795  -1.3400  -1.2594  -1.2047  -1.1980  -1.1591
    -1.0744  -0.8901  -0.7660  -0.7426  -0.6843  -0.6406  -0.5891  -0.5774
    -0.5536  -0.5159  -0.4094  -0.3958  -0.3324  -0.3035  -0.2405  -0.1899
    -0.1623  -0.0989  -0.0373   0.0496   0.0703   0.0887   0.1302   0.1767
     0.2483   0.2837   0.3232   0.3535   0.4419   0.4958   0.5558   0.5628
     0.5949   0.6675   0.7238   0.7712   0.7917   0.8110   0.8620   0.8780
     0.9213   0.9761   1.0171   1.0325   1.1033   1.1619   1.2084   1.2422
     1.3403   1.3577   1.5151   1.5704   1.8380   1.8903   1.9582   2.0840
     2.4569   2.5017   3.9368   4.0573   4.0685   4.0910   4.1700   4.2329
     4.4000   4.4070   4.5191   4.6187

[...]

          k = 0.0380-0.0419 0.0000 ( 17876 PWs)   bands (ev):

[...]

          k =-0.0760-0.0000 0.0000 ( 17886 PWs)   bands (ev):

[...]

          k =-0.0760-0.0839 0.0000 ( 17948 PWs)   bands (ev):

   -55.2956 -55.1552 -55.1542 -54.9891 -54.9856 -54.9829 -54.9767 -54.9746
   -54.9221 -54.8868 -54.8376 -54.8217 -54.7824 -54.7556 -54.1185 -54.1176
   -31.5570 -31.5341 -31.4885 -31.4701 -31.4695 -31.4498 -31.4489 -31.4118
   -31.3120 -31.3054 -31.2999 -31.2984 -31.2933 -31.2748 -31.2738 -31.2648
   -31.2646 -31.2435 -31.2414 -31.2125 -31.1997 -31.1958 -31.1950 -31.1885
   -31.1744 -31.1641 -31.1557 -31.1506 -31.1481 -31.1432 -31.1389 -31.1195
   -31.1081 -31.0863 -31.0710 -31.0652 -31.0300 -31.0283 -31.0158 -31.0137
   -31.0081 -30.9905 -30.4460 -30.4454 -30.3543 -30.3532 -30.3156 -30.3149
   -18.8450 -16.0102 -15.3718 -15.1676 -15.1051 -15.0812 -15.0670 -15.0300
   -15.0047 -14.9500 -14.9309 -14.8732 -14.8423 -14.8294 -14.7577 -14.7420
   -14.6865 -14.6572 -14.6446 -14.6050 -14.6003 -14.5780 -14.5457 -14.5372
   -14.4718 -14.4579 -14.4544 -14.3624 -14.3527 -14.2320 -14.1843 -13.0915
   -12.6206 -12.6200 -10.8111  -7.5911  -6.2346  -5.5830  -3.6872  -3.6484
    -3.3998  -2.5837  -2.4486  -2.4389  -2.3000  -2.2875  -2.1918  -2.1444
    -2.0915  -2.0730  -2.0511  -2.0319  -2.0012  -1.9681  -1.9520  -1.9446
    -1.9162  -1.8942  -1.8690  -1.8633  -1.8276  -1.8228  -1.8015  -1.7782
    -1.7680  -1.7333  -1.7196  -1.7155  -1.7012  -1.6481  -1.6287  -1.4653
    -1.4357  -1.3448  -1.3111  -1.2880  -1.2786  -1.2530  -1.2356  -1.2149
    -1.1598  -1.1072  -1.0460  -0.9194  -0.8743  -0.8096  -0.7738  -0.6958
    -0.6552  -0.6216  -0.5937  -0.5696  -0.5377  -0.4802  -0.4024  -0.3478
    -0.3021  -0.2605  -0.1627  -0.1436  -0.1213  -0.1099  -0.0764  -0.0173
    -0.0105   0.0454   0.0644   0.1272   0.1424   0.1581   0.1760   0.2586
     0.3539   0.4343   0.4581   0.5491   0.5678   0.6569   0.7037   0.8041
     0.9166   0.9623   1.0018   1.0114   1.0953   1.1004   1.1567   1.1795
     1.2620   1.3511   1.4152   1.4236   1.4436   1.4972   2.2533   2.2618
     2.3219   2.3222   4.1869   4.3502   4.4300   4.4415   4.4735   4.4846
     4.5169   4.5194   4.6054   4.6148

     the Fermi energy is     3.9559 ev

!    total energy              =   -2976.49305701 Ry
     estimated scf accuracy    <       0.00000006 Ry
     smearing contrib. (-TS)   =      -0.02056927 Ry
     internal energy E=F+TS    =   -2976.47248774 Ry

     The total energy is F=E-TS. E is the sum of the following terms:
     one-electron contribution =  -23617.03182381 Ry
     hartree contribution      =   11908.26097556 Ry
     xc contribution           =    -495.76634754 Ry
     ewald contribution        =    9228.06043741 Ry
     electric field correction =       0.00427064 Ry

     convergence has been achieved in  68 iterations

     Forces acting on atoms (cartesian axes, Ry/au):

     atom    1 type  1   force =     0.00014358   -0.00012904    0.09535885
     atom    2 type  1   force =    -0.00002618    0.00040605   -0.17472972
     atom    3 type  2   force =     0.00004179   -0.00018469   -0.02256032
     atom    4 type  2   force =     0.00001363   -0.00200608    0.05319381
     atom    5 type  2   force =    -0.00814840   -0.00302118    0.00227385
     atom    6 type  2   force =     0.00924593   -0.00231658    0.00056821
     atom    7 type  1   force =    -0.00079265   -0.00510205    0.00571007
     atom    8 type  1   force =     0.00083602    0.00656355    0.01468601
     atom    9 type  2   force =     0.00011600    0.00043474    0.00073249
     atom   10 type  2   force =    -0.00346552    0.00091738   -0.01236281
     atom   11 type  2   force =    -0.00002198   -0.00056037    0.00027936
     atom   12 type  2   force =     0.00008351   -0.00043529    0.00023246
     atom   13 type  1   force =     0.00093342    0.00087233    0.00010909
     atom   14 type  1   force =    -0.00019233    0.00011158   -0.00043526
     atom   15 type  2   force =     0.00013148   -0.00079079   -0.00076441
     atom   16 type  2   force =     0.00013170   -0.00013898    0.00093342
     atom   17 type  2   force =    -0.00002461    0.00015371   -0.00001280
     atom   18 type  2   force =     0.00013646    0.00001508   -0.00049001
     atom   19 type  1   force =     0.00012967   -0.00014414   -0.00017621
     atom   20 type  1   force =     0.00025555    0.00018274   -0.00005030
     atom   21 type  2   force =     0.00009407    0.00000051    0.10302086
     atom   22 type  2   force =     0.00013625    0.00033298    0.00092193
     atom   23 type  2   force =    -0.07211657   -0.00022258   -0.02756817
     atom   24 type  2   force =     0.07207234    0.00026337   -0.02758726
     atom   25 type  1   force =     0.00015850   -0.00028845    0.09518715
     atom   26 type  1   force =     0.00000979   -0.00124338   -0.17521278
     atom   27 type  2   force =    -0.00000479    0.00008662   -0.02152443
     atom   28 type  2   force =     0.00005423   -0.00043806    0.04876954
     atom   29 type  2   force =    -0.00786902    0.00198426    0.00251625
     atom   30 type  2   force =     0.00889536    0.00234269    0.00069590
     atom   31 type  1   force =    -0.00068697    0.00834638   -0.00447713
     atom   32 type  1   force =     0.00106352   -0.00751909    0.01446062
     atom   33 type  2   force =     0.00012712    0.00022493   -0.00002152
     atom   34 type  2   force =    -0.00269877   -0.00027465   -0.01824323
     atom   35 type  2   force =    -0.00057306    0.00026666    0.00008012
     atom   36 type  2   force =     0.00073871    0.00039612    0.00023352
     atom   37 type  1   force =     0.00018730   -0.00037363    0.00027289
     atom   38 type  1   force =    -0.00006842   -0.00006626   -0.00073840
     atom   39 type  2   force =     0.00028654    0.00032942   -0.00014246
     atom   40 type  2   force =     0.00023362    0.00001759    0.00070025
     atom   41 type  2   force =    -0.00015001   -0.00037760    0.00005996
     atom   42 type  2   force =     0.00046466   -0.00016387    0.00051837
     atom   43 type  1   force =    -0.00012978    0.00037833   -0.00056553
     atom   44 type  1   force =     0.00032211   -0.00030485   -0.00006628
     atom   45 type  2   force =     0.00008914   -0.00010044    0.10283371
     atom   46 type  2   force =    -0.07216176   -0.00003721   -0.02759564
     atom   47 type  2   force =     0.07210733    0.00036099   -0.02760300
     atom   48 type  3   force =    -0.02065389   -0.00105909    0.00434496
     atom   49 type  3   force =     0.00427780    0.00003490   -0.00032521
     atom   50 type  4   force =     0.00353098    0.00117216    0.00054046
     atom   51 type  5   force =    -0.00011653   -0.00031681   -0.00107260
     atom   52 type  5   force =     0.00001296    0.00050294    0.00022979
     atom   53 type  5   force =     0.00056834    0.00046019    0.00022256
     atom   54 type  5   force =     0.00291788    0.00284812   -0.00141608
     atom   55 type  5   force =     0.00082807   -0.00108853    0.00139287
     atom   56 type  5   force =     0.00799597   -0.00133455   -0.00540068
     atom   57 type  2   force =     0.00018174   -0.00051619   -0.00003085
     atom   58 type  5   force =     0.00034817    0.00054813    0.00009378

     Total force =     0.364316     Total SCF correction =     0.000801
  @ DRIVER MODE: Message from server: STATUS
  @ DRIVER MODE: Message from server: GETFORCE
  @ DRIVER MODE: Returning v,forces,stress,ensemble

     Writing output data file ./calc.save/
  @ DRIVER MODE: Message from server: EXIT
  @ DRIVE MODE: Exiting

     General routines

     Parallel routines

   This run was terminated on:  12: 1:29  23Sep2021

   JOB DONE.