     Program PWSCF v.6.7GPU starts on 24Aug2021 at  7:44:51

     R & G space division:  proc/nbgrp/npool/nimage =       6
     Reading input from /storage/home/hcoda1/3/ntian30/research/carbon/CH_vib/ads_slab/CHNHHH_a/out_0035/pw.inp
Warning: card &CELL ignored
Warning: card   CELL_DYNAMICS='IPI', ignored
Warning: card / ignored

     Current dimensions of program PWSCF are:
     Max number of different atomic species (ntypx) = 10
     Max number of k-points (npk) =  40000
     Max angular momentum in pseudopotentials (lmaxx) =  3
     Presently no symmetry can be used with electric field

     Message from routine cell_base_init:
     DEPRECATED: use true lattice parameter, not A to a.u. conversion factor

     IMPORTANT: XC functional enforced from input :
     Exchange-correlation= BEEF-VDW
                           (   1   4  43  14   2   0   0)
     Any further DFT definition will be discarded
     Please, verify this is what you really want

  @ DRIVER MODE: Connecting to
 qe_1139763_2632793.sched-torque.pace.gatech.eduyiq_zkgu_scratch
  using UNIX socket
  @ DRIVER MODE: Message from server: STATUS
  @ DRIVER MODE: Message from server: INIT
  @ DRIVER MODE: Receiving replica           0          -1
  @ DRIVER MODE: Receiving encoded integer          25
  @ DRIVER MODE:  SCF:  T  FORCE:  T  STRESS:  F  VC:  F  ENSEMBLE:  F
  @ DRIVER MODE:  SCF:  T  FORCE:  T  STRESS:  F  VC:  F  ENSEMBLE:  F

     Using Slab Decomposition

     bravais-lattice index     =            0
     lattice parameter (alat)  =       1.8897  a.u.
     unit-cell volume          =    6658.9804 (a.u.)^3
     number of atoms/cell      =           53
     number of atomic types    =            5
     number of electrons       =       391.00
     number of Kohn-Sham states=          205
     kinetic-energy cutoff     =      29.3995  Ry
     charge density cutoff     =     293.9946  Ry
     scf convergence threshold =      7.3E-08
     mixing beta               =       0.0500
     number of iterations used =            8  plain     mixing
     Exchange-correlation= BEEF-VDW
                           (   1   4  43  14   2   0   0)

     celldm(1)=   1.889726  celldm(2)=   0.000000  celldm(3)=   0.000000
     celldm(4)=   0.000000  celldm(5)=   0.000000  celldm(6)=   0.000000

     crystal axes: (cart. coord. in units of alat)
               a(1) = (   6.579727   0.000000   0.000000 )
               a(2) = (  -0.000775   5.961596   0.000000 )
               a(3) = (   0.000000   0.000000  25.155947 )

     reciprocal axes: (cart. coord. in units 2 pi/alat)
               b(1) = (  0.151982  0.000020  0.000000 )
               b(2) = (  0.000000  0.167740  0.000000 )
               b(3) = (  0.000000  0.000000  0.039752 )

     PseudoPot. # 1 for Ti read from file:
     /storage/coda1/p-amedford6/0/shared/rich_project_chbe-medford/medford-share/data/pseudos_module/espresso/nninc/pbe/van/Ti.UPF
     MD5 check sum: 8e4df49b7f0d34bbd5052bf3f5ea0213
     Pseudo is Ultrasoft, Zval = 12.0
     Generated by new atomic code, or converted to UPF format
     Using radial grid of  851 points,  6 beta functions with:
                l(1) =   0
                l(2) =   0
                l(3) =   1
                l(4) =   1
                l(5) =   2
                l(6) =   2
     Q(r) pseudized with  8 coefficients,  rinner =    1.000   1.000   1.000
                                                       1.000   1.000

     PseudoPot. # 2 for O  read from file:
     /storage/coda1/p-amedford6/0/shared/rich_project_chbe-medford/medford-share/data/pseudos_module/espresso/nninc/pbe/van/O.UPF
     MD5 check sum: 78c19812648e8988a0fe644b0f25305e
     Pseudo is Ultrasoft, Zval =  6.0
     Generated by new atomic code, or converted to UPF format
     Using radial grid of  737 points,  4 beta functions with:
                l(1) =   0
                l(2) =   0
                l(3) =   1
                l(4) =   1
     Q(r) pseudized with  8 coefficients,  rinner =    0.800   0.800   0.800

     PseudoPot. # 3 for N  read from file:
     /storage/coda1/p-amedford6/0/shared/rich_project_chbe-medford/medford-share/data/pseudos_module/espresso/nninc/pbe/van/N.UPF
     MD5 check sum: 90d10febe142ad51ac9d5be1deb811c4
     Pseudo is Ultrasoft, Zval =  5.0
     Generated by new atomic code, or converted to UPF format
     Using radial grid of  729 points,  4 beta functions with:
                l(1) =   0
                l(2) =   0
                l(3) =   1
                l(4) =   1
     Q(r) pseudized with  8 coefficients,  rinner =    0.800   0.800   0.800

     PseudoPot. # 4 for C  read from file:
     /storage/coda1/p-amedford6/0/shared/rich_project_chbe-medford/medford-share/data/pseudos_module/espresso/nninc/pbe/van/C.UPF
     MD5 check sum: 1a69bf6b8db32088f5b2163dbdb77a27
     Pseudo is Ultrasoft, Zval =  4.0
     Generated by new atomic code, or converted to UPF format
     Using radial grid of  721 points,  4 beta functions with:
                l(1) =   0
                l(2) =   0
                l(3) =   1
                l(4) =   1
     Q(r) pseudized with  8 coefficients,  rinner =    0.800   0.800   0.800

     PseudoPot. # 5 for H  read from file:
     /storage/coda1/p-amedford6/0/shared/rich_project_chbe-medford/medford-share/data/pseudos_module/espresso/nninc/pbe/van/H.UPF
     MD5 check sum: b5ee9d7bfd3a09ee7748110bda690ff7
     Pseudo is Ultrasoft, Zval =  1.0
     Generated by new atomic code, or converted to UPF format
     Using radial grid of  615 points,  1 beta functions with:
                l(1) =   0
     Q(r) pseudized with  8 coefficients,  rinner =    0.800

     atomic species   valence    mass     pseudopotential
        Ti1           12.00    47.86700     Ti( 1.00)
        O1             6.00    15.99900     O ( 1.00)
        N1             5.00    14.00700     N ( 1.00)
        C1             4.00    12.01100     C ( 1.00)
        H1             1.00     1.00800     H ( 1.00)

     No symmetry found

   Cartesian axes

     site n.     atom                  positions (alat units)
         1           Ti1 tau(   1) = (   0.0004258   2.9801865   6.0000000  )
         2           Ti1 tau(   2) = (   3.2906075   1.4906267   6.0002472  )
         3           O1  tau(   3) = (   0.0006271   0.0005054   7.9858123  )
         4           O1  tau(   4) = (   3.2906025   0.0005020   7.3038282  )
         5           O1  tau(   5) = (   4.5942328   1.4918067   9.2879030  )
         6           O1  tau(   6) = (   1.9868534   1.4903216   9.2879459  )
         7           Ti1 tau(   7) = (   3.2907910   2.8959150   9.1758416  )
         8           Ti1 tau(   8) = (   0.0015273   1.4827037   9.2680791  )
         9           O1  tau(   9) = (   3.3113122   5.9567026  11.3833813  )
        10           O1  tau(  10) = (   0.0116148   5.9584955  10.6183126  )
        11           O1  tau(  11) = (   1.3074368   1.4838846  12.6958875  )
        12           O1  tau(  12) = (   5.3165545   1.4905306  12.6890028  )
        13           Ti1 tau(  13) = (   0.0319163   2.9634337  12.5060949  )
        14           Ti1 tau(  14) = (   3.3348194   1.4676286  12.5406051  )
        15           O1  tau(  15) = (   6.5718004   5.8756060  14.7032446  )
        16           O1  tau(  16) = (   3.3285255   5.9545307  14.0046557  )
        17           O1  tau(  17) = (   4.5620449   1.5282301  16.1894795  )
        18           O1  tau(  18) = (   2.0507131   1.5111456  16.1254446  )
        19           Ti1 tau(  19) = (   3.3090684   3.0029381  15.7706148  )
        20           Ti1 tau(  20) = (   0.0350077   1.2886257  15.8758580  )
        21           O1  tau(  21) = (   3.2904802   0.0005063   4.7018136  )
        22           O1  tau(  22) = (   0.0240991   0.1326893  17.2553962  )
        23           O1  tau(  23) = (   1.3043587   1.4918075   6.0039043  )
        24           O1  tau(  24) = (   5.2767064   1.4903225   6.0039473  )
        25           Ti1 tau(  25) = (   0.0000382   5.9609847   6.0000000  )
        26           Ti1 tau(  26) = (   3.2902200   4.4714249   6.0002472  )
        27           O1  tau(  27) = (   0.0002396   2.9813036   7.9858123  )
        28           O1  tau(  28) = (   3.2902150   2.9813002   7.3038282  )
        29           O1  tau(  29) = (   4.5938453   4.4726049   9.2879030  )
        30           O1  tau(  30) = (   1.9864658   4.4711199   9.2879459  )
        31           Ti1 tau(  31) = (   3.2891106   5.8743827   9.1763621  )
        32           Ti1 tau(  32) = (   0.0006254   4.4649316   9.2693709  )
        33           O1  tau(  33) = (   3.3073171   2.9646269  11.3784001  )
        34           O1  tau(  34) = (   0.0092240   2.9805883  10.6323155  )
        35           O1  tau(  35) = (   1.3112202   4.4579144  12.6624112  )
        36           O1  tau(  36) = (   5.3138049   4.4530836  12.6532163  )
        37           Ti1 tau(  37) = (   0.0383750   5.9352221  12.5084026  )
        38           Ti1 tau(  38) = (   3.3346062   4.4465110  12.5317211  )
        39           O1  tau(  39) = (   0.0124192   3.0170750  14.9941726  )
        40           O1  tau(  40) = (   3.3221393   2.9969786  13.9787254  )
        41           O1  tau(  41) = (   4.5445774   4.4782521  16.2319081  )
        42           O1  tau(  42) = (   2.0501905   4.4790704  16.2078326  )
        43           Ti1 tau(  43) = (   3.3285819   0.0194352  15.8051934  )
        44           Ti1 tau(  44) = (   0.0611752   4.5099810  16.0683830  )
        45           O1  tau(  45) = (   3.2900926   2.9813045   4.7018136  )
        46           O1  tau(  46) = (   1.3039711   4.4726057   6.0039043  )
        47           O1  tau(  47) = (   5.2763189   4.4711207   6.0039473  )
        48           N1  tau(  48) = (   6.2166669   3.4226028  18.2351681  )
        49           C1  tau(  49) = (   0.7325778   3.1430902  19.0455235  )
        50           H1  tau(  50) = (   1.1688338   2.1628109  18.9760543  )
        51           H1  tau(  51) = (   5.7007151   4.2593073  18.4945226  )
        52           H1  tau(  52) = (   5.5741914   2.6425579  18.1107425  )
        53           H1  tau(  53) = (   1.2593429   3.9788434  19.4621980  )

     number of k points=    10  Fermi-Dirac smearing, width (Ry)=  0.0073
                       cart. coord. in units 2pi/alat
        k(    1) = (   0.0000000   0.0000000   0.0000000), wk =   0.1250000
        k(    2) = (   0.0000000   0.0419351   0.0000000), wk =   0.2500000
        k(    3) = (   0.0000000  -0.0838702   0.0000000), wk =   0.1250000
        k(    4) = (   0.0379955   0.0000049   0.0000000), wk =   0.2500000
        k(    5) = (   0.0379955   0.0419400   0.0000000), wk =   0.2500000
        k(    6) = (   0.0379955  -0.0838652   0.0000000), wk =   0.2500000
        k(    7) = (   0.0379955  -0.0419301   0.0000000), wk =   0.2500000
        k(    8) = (  -0.0759910  -0.0000099   0.0000000), wk =   0.1250000
        k(    9) = (  -0.0759910   0.0419252   0.0000000), wk =   0.2500000
        k(   10) = (  -0.0759910  -0.0838800   0.0000000), wk =   0.1250000

     Initial potential from superposition of free atoms

     starting charge  374.99916, renormalised to  391.00000

     negative rho (up, down):  1.699E-02 0.000E+00

     %%%%%%%%%%%%%%%%%%%%%%%%%%%%%%%%%%%%%%%%%%%%%%%%%%%%%%%%%%%%%%%%%%%%%%%%
     %                                                                      %
     % You are using vdW-DF, which was implemented by the Thonhauser group. %
     % Please cite the following two papers that made this development      %
     % possible and the two reviews that describe the various versions:     %
     %                                                                      %
     %   T. Thonhauser et al., PRL 115, 136402 (2015).                      %
     %   T. Thonhauser et al., PRB 76, 125112 (2007).                       %
     %   K. Berland et al., Rep. Prog. Phys. 78, 066501 (2015).             %
     %   D.C. Langreth et al., J. Phys.: Condens. Matter 21, 084203 (2009). %
     %                                                                      %
     %                                                                      %
     % If you are calculating the stress with vdW-DF, please also cite:     %
     %                                                                      %
     %   R. Sabatini et al., J. Phys.: Condens. Matter 24, 424209 (2012).   %
     %                                                                      %
     %%%%%%%%%%%%%%%%%%%%%%%%%%%%%%%%%%%%%%%%%%%%%%%%%%%%%%%%%%%%%%%%%%%%%%%%

     Adding external electric field

     Computed dipole along edir(3) :
        Dipole               -6.8863 Ry au,        -17.5032 Debye
        Dipole field         -0.0130 Ry au,

        Potential amp.        1.2046 Ry
        Total length         46.3494 bohr

     Starting wfcs are  296 atomic wfcs
  @ DRIVER MODE: Message from server: STATUS
  @ DRIVER MODE: Message from server: POSDATA
  @ DRIVER MODE: Reading and sharing cell
  @ DRIVER MODE: Reading and sharing positions
  @ DRIVER MODE: Received positions

     Self-consistent Calculation

     iteration #  1     ecut=    29.40 Ry     beta= 0.05
     Davidson diagonalization with overlap
     c_bands:  1 eigenvalues not converged
     c_bands:  2 eigenvalues not converged
     ethr =  1.00E-05,  avg # of iterations = 15.9

[...]

     total energy              =   -2713.95833064 Ry
     estimated scf accuracy    <    2275.97909628 Ry

     iteration #  2     ecut=    29.40 Ry     beta= 0.05
     Davidson diagonalization with overlap
     ethr =  1.00E-02,  avg # of iterations = 18.2

[...]

     iteration # 67     ecut=    29.40 Ry     beta= 0.05
     Davidson diagonalization with overlap
     ethr =  2.16E-11,  avg # of iterations = 14.8

[...]

     total energy              =   -2920.25696717 Ry
     estimated scf accuracy    <       0.00000009 Ry

     iteration # 68     ecut=    29.40 Ry     beta= 0.05
     Davidson diagonalization with overlap
     c_bands:  1 eigenvalues not converged
     ethr =  2.16E-11,  avg # of iterations = 13.4

     negative rho (up, down):  1.634E-02 0.000E+00

     Adding external electric field

     Computed dipole along edir(3) :
        Dipole                0.8993 Ry au,          2.2858 Debye
        Dipole field          0.0017 Ry au,

        Potential amp.       -0.1573 Ry
        Total length         46.3494 bohr

     End of self-consistent calculation

          k = 0.0000 0.0000 0.0000 ( 18029 PWs)   bands (ev):

   -55.7225 -55.6861 -55.6759 -55.6418 -55.6092 -55.6058 -55.5714 -55.5473
   -55.5395 -55.5129 -55.5079 -55.4743 -55.4533 -55.2911 -54.7073 -54.6732
   -32.2875 -32.1688 -32.0932 -32.0440 -32.0404 -32.0363 -32.0318 -32.0138
   -31.9649 -31.9550 -31.9348 -31.9298 -31.9209 -31.8913 -31.8763 -31.8758
   -31.8611 -31.8473 -31.8433 -31.8285 -31.8235 -31.7902 -31.7830 -31.7778
   -31.7496 -31.7375 -31.7373 -31.7331 -31.7271 -31.7200 -31.7077 -31.7059
   -31.6963 -31.6936 -31.6608 -31.6598 -31.6556 -31.6359 -31.6257 -31.6194
   -31.5108 -31.4638 -31.1168 -31.0222 -31.0002 -30.9331 -30.8463 -30.7355
   -16.6862 -16.5284 -16.2724 -16.1063 -16.0079 -15.9224 -15.7806 -15.7616
   -15.6456 -15.5689 -15.4264 -15.3896 -15.3766 -15.3601 -15.3372 -15.3248
   -15.2705 -15.2649 -15.2439 -15.2197 -15.2154 -15.1674 -15.1642 -15.1237
   -15.1005 -15.0384 -14.9685 -14.8849 -14.8126 -14.4820 -13.2102 -13.0927
    -9.5392  -6.8728  -4.9586  -3.8860  -3.7430  -3.6763  -3.6237  -3.6173
    -3.4731  -3.3019  -3.1561  -3.1346  -3.1015  -2.9915  -2.9275  -2.9131
    -2.8891  -2.7578  -2.7332  -2.6822  -2.6467  -2.5723  -2.5688  -2.5283
    -2.5146  -2.4698  -2.4639  -2.4378  -2.3053  -2.2907  -2.2536  -2.1899
    -2.1299  -2.1280  -2.0714  -2.0536  -2.0139  -2.0051  -1.9937  -1.9520
    -1.9465  -1.9116  -1.8093  -1.7470  -1.6146  -1.5805  -1.4346  -1.3644
    -1.3158  -1.2973  -1.2139  -1.1925  -1.1413  -1.1031  -1.0924  -1.0606
    -0.9472  -0.8611  -0.8103  -0.7557  -0.7229  -0.7071  -0.6179  -0.5251
    -0.5035  -0.4903  -0.4484  -0.3467  -0.3258  -0.2629  -0.2040  -0.1883
    -0.1792  -0.0831  -0.0520   0.0204   0.0712   0.0923   0.1637   0.1895
     0.2085   0.2139   0.2493   0.2605   0.3367   0.3533   0.3778   0.4647
     0.5905   0.8371   0.8859   0.8995   1.2159   1.2201   1.3152   1.4984
     1.8916   1.9400   3.3685   3.3864   3.4503   3.5194   3.5231   3.5874
     3.6102   3.8553   3.8765   3.8839   3.9006

[...]

          k = 0.0380-0.0419 0.0000 ( 17876 PWs)   bands (ev):

[...]

          k =-0.0760-0.0000 0.0000 ( 17886 PWs)   bands (ev):

[...]

          k =-0.0760-0.0839 0.0000 ( 17948 PWs)   bands (ev):

   -55.7073 -55.7010 -55.6590 -55.6587 -55.6047 -55.5892 -55.5879 -55.5438
   -55.5317 -55.5281 -55.4916 -55.4908 -55.4512 -55.2931 -54.6903 -54.6901
   -32.0942 -32.0895 -31.9981 -31.9840 -31.9838 -31.9801 -31.9529 -31.9502
   -31.9502 -31.9340 -31.9275 -31.9186 -31.9133 -31.8728 -31.8693 -31.8640
   -31.8600 -31.8555 -31.8500 -31.8467 -31.8308 -31.8106 -31.8025 -31.8018
   -31.7843 -31.7796 -31.7787 -31.7783 -31.7645 -31.7609 -31.7445 -31.7409
   -31.7406 -31.7260 -31.7241 -31.7213 -31.6741 -31.6717 -31.6707 -31.6318
   -31.5551 -31.5130 -31.0129 -31.0127 -30.9293 -30.9292 -30.8897 -30.8897
   -16.6544 -16.0120 -15.9468 -15.9088 -15.7607 -15.7196 -15.6848 -15.6731
   -15.5498 -15.5180 -15.4968 -15.4768 -15.4407 -15.4268 -15.4201 -15.3675
   -15.3415 -15.3215 -15.3173 -15.3033 -15.2410 -15.2346 -15.2297 -15.2224
   -15.1747 -15.1711 -15.0797 -15.0768 -15.0532 -14.7688 -13.1941 -13.1941
    -9.5412  -6.8545  -4.9379  -3.2169  -3.1979  -3.1631  -3.1383  -2.9807
    -2.9192  -2.9044  -2.8744  -2.8017  -2.7499  -2.7339  -2.6898  -2.6858
    -2.6324  -2.5991  -2.5745  -2.5605  -2.5544  -2.5406  -2.5190  -2.4827
    -2.4540  -2.4521  -2.4432  -2.3974  -2.3711  -2.3605  -2.3227  -2.3164
    -2.3085  -2.2808  -2.2174  -2.1168  -2.0874  -2.0593  -1.9631  -1.9320
    -1.9269  -1.8470  -1.8138  -1.7589  -1.7521  -1.7442  -1.5789  -1.5071
    -1.4709  -1.4676  -1.4452  -1.3179  -1.3032  -1.2249  -1.2010  -1.1886
    -1.1000  -1.0798  -1.0366  -1.0097  -0.9332  -0.9039  -0.8420  -0.7552
    -0.7166  -0.7096  -0.6804  -0.6766  -0.6275  -0.6165  -0.5313  -0.4927
    -0.4579  -0.4475  -0.3992  -0.2139  -0.1974  -0.1669  -0.0282   0.0226
     0.1478   0.1709   0.2321   0.3058   0.3462   0.3898   0.4265   0.5715
     0.5812   0.6136   0.6587   0.6698   0.7280   0.7368   1.6715   1.6721
     1.7598   1.7601   3.3826   3.6294   3.6318   3.6671   3.6899   3.8450
     3.8898   3.9335   3.9553   3.9588   3.9802

     the Fermi energy is     3.4367 ev

!    total energy              =   -2920.25698917 Ry
     estimated scf accuracy    <       0.00000004 Ry
     smearing contrib. (-TS)   =      -0.04245870 Ry
     internal energy E=F+TS    =   -2920.21453047 Ry

     The total energy is F=E-TS. E is the sum of the following terms:
     one-electron contribution =  -24059.73735489 Ry
     hartree contribution      =   12116.04859375 Ry
     xc contribution           =    -480.86108366 Ry
     ewald contribution        =    9504.33378807 Ry
     electric field correction =       0.00152626 Ry

     convergence has been achieved in  68 iterations

     Forces acting on atoms (cartesian axes, Ry/au):

     atom    1 type  1   force =    -0.00001803   -0.00019276    0.09317461
     atom    2 type  1   force =    -0.00011041   -0.00033405   -0.17839683
     atom    3 type  2   force =     0.00009108   -0.00039497   -0.02005269
     atom    4 type  2   force =     0.00004665   -0.00199672    0.05912158
     atom    5 type  2   force =    -0.01019791   -0.00082271    0.00743069
     atom    6 type  2   force =     0.01220676   -0.00043047    0.00774431
     atom    7 type  1   force =     0.00015165    0.00229333   -0.01370791
     atom    8 type  1   force =    -0.00035423   -0.00182965   -0.00452994
     atom    9 type  2   force =    -0.00034243    0.00036654   -0.00023379
     atom   10 type  2   force =    -0.00026881    0.00141434    0.00222148
     atom   11 type  2   force =    -0.00012610    0.00011141   -0.00010612
     atom   12 type  2   force =    -0.00027916   -0.00022220   -0.00061961
     atom   13 type  1   force =    -0.00049088    0.00090909   -0.00024302
     atom   14 type  1   force =    -0.00069631    0.00043172   -0.00048500
     atom   15 type  2   force =     0.00003902   -0.00018851    0.00015054
     atom   16 type  2   force =    -0.00041287   -0.00009941    0.00003112
     atom   17 type  2   force =    -0.00014680   -0.00032092   -0.00047021
     atom   18 type  2   force =    -0.00028070   -0.00016129    0.00046397
     atom   19 type  1   force =    -0.00058845   -0.00011482    0.00000723
     atom   20 type  1   force =    -0.00011342   -0.00025548   -0.00028530
     atom   21 type  2   force =     0.00002436   -0.00006130    0.10398146
     atom   22 type  2   force =    -0.00051084   -0.00003740    0.00012627
     atom   23 type  2   force =    -0.07033994   -0.00014526   -0.02686716
     atom   24 type  2   force =     0.07021624    0.00029485   -0.02695261
     atom   25 type  1   force =     0.00002431   -0.00014410    0.09256384
     atom   26 type  1   force =    -0.00014358   -0.00046334   -0.17846442
     atom   27 type  2   force =     0.00015947   -0.00028320   -0.01913461
     atom   28 type  2   force =     0.00005790   -0.00176845    0.05850190
     atom   29 type  2   force =    -0.01067981   -0.00130193    0.00790152
     atom   30 type  2   force =     0.01255576   -0.00083244    0.00816732
     atom   31 type  1   force =     0.00028589    0.00601016   -0.01443473
     atom   32 type  1   force =    -0.00036821    0.00121531   -0.00500760
     atom   33 type  2   force =    -0.00004803   -0.00045834   -0.00008358
     atom   34 type  2   force =     0.00078290   -0.00258380    0.00062437
     atom   35 type  2   force =    -0.00059541   -0.00028968   -0.00012381
     atom   36 type  2   force =     0.00058883    0.00005179    0.00004629
     atom   37 type  1   force =    -0.00047170   -0.00042752    0.00006250
     atom   38 type  1   force =    -0.00026172    0.00035326   -0.00085038
     atom   39 type  2   force =    -0.00062774    0.00036425   -0.00013837
     atom   40 type  2   force =    -0.00015288   -0.00035972   -0.00054972
     atom   41 type  2   force =    -0.00106630    0.00011568    0.00000316
     atom   42 type  2   force =     0.00005118   -0.00013853    0.00031345
     atom   43 type  1   force =     0.00052324   -0.00000457   -0.00044958
     atom   44 type  1   force =     0.00041636    0.00059513   -0.00009276
     atom   45 type  2   force =     0.00003892   -0.00007661    0.10393336
     atom   46 type  2   force =    -0.07031191   -0.00009391   -0.02684850
     atom   47 type  2   force =     0.07021561    0.00034867   -0.02690487
     atom   48 type  3   force =    -0.00113342    0.00110227   -0.00035143
     atom   49 type  4   force =    -0.00306857   -0.00188726   -0.00157252
     atom   50 type  5   force =     0.00054934   -0.00086322   -0.00023780
     atom   51 type  5   force =     0.00157318   -0.00097902   -0.00035286
     atom   52 type  5   force =    -0.00010808    0.00070727   -0.00003531
     atom   53 type  5   force =     0.00371601    0.00387851    0.00201209

     Total force =     0.366360     Total SCF correction =     0.000595
  @ DRIVER MODE: Message from server: STATUS
  @ DRIVER MODE: Message from server: GETFORCE
  @ DRIVER MODE: Returning v,forces,stress,ensemble

     Writing output data file ./calc.save/
  @ DRIVER MODE: Message from server: EXIT
  @ DRIVE MODE: Exiting

     General routines

     Parallel routines

   This run was terminated on:   8:12:51  24Aug2021

   JOB DONE.