     Program PWSCF v.6.7GPU starts on 24Aug2021 at  2:11:34

     R & G space division:  proc/nbgrp/npool/nimage =       6
     Reading input from /storage/home/hcoda1/3/ntian30/research/carbon/CH2_vib/ads_slab/CH2NHN_a/out_0024/pw.inp
Warning: card &CELL ignored
Warning: card   CELL_DYNAMICS='IPI', ignored
Warning: card / ignored

     Current dimensions of program PWSCF are:
     Max number of different atomic species (ntypx) = 10
     Max number of k-points (npk) =  40000
     Max angular momentum in pseudopotentials (lmaxx) =  3
     Presently no symmetry can be used with electric field

     Message from routine cell_base_init:
     DEPRECATED: use true lattice parameter, not A to a.u. conversion factor

     IMPORTANT: XC functional enforced from input :
     Exchange-correlation= BEEF-VDW
                           (   1   4  43  14   2   0   0)
     Any further DFT definition will be discarded
     Please, verify this is what you really want

  @ DRIVER MODE: Connecting to
 qe_1139763_2632804.sched-torque.pace.gatech.edueb1_bpnm_scratch
  using UNIX socket
  @ DRIVER MODE: Message from server: STATUS
  @ DRIVER MODE: Message from server: INIT
  @ DRIVER MODE: Receiving replica           0          -1
  @ DRIVER MODE: Receiving encoded integer          25
  @ DRIVER MODE:  SCF:  T  FORCE:  T  STRESS:  F  VC:  F  ENSEMBLE:  F
  @ DRIVER MODE:  SCF:  T  FORCE:  T  STRESS:  F  VC:  F  ENSEMBLE:  F

     Using Slab Decomposition

     bravais-lattice index     =            0
     lattice parameter (alat)  =       1.8897  a.u.
     unit-cell volume          =    6658.9804 (a.u.)^3
     number of atoms/cell      =           53
     number of atomic types    =            5
     number of electrons       =       395.00
     number of Kohn-Sham states=          207
     kinetic-energy cutoff     =      29.3995  Ry
     charge density cutoff     =     293.9946  Ry
     scf convergence threshold =      7.3E-08
     mixing beta               =       0.0500
     number of iterations used =            8  plain     mixing
     Exchange-correlation= BEEF-VDW
                           (   1   4  43  14   2   0   0)

     celldm(1)=   1.889726  celldm(2)=   0.000000  celldm(3)=   0.000000
     celldm(4)=   0.000000  celldm(5)=   0.000000  celldm(6)=   0.000000

     crystal axes: (cart. coord. in units of alat)
               a(1) = (   6.579727   0.000000   0.000000 )
               a(2) = (  -0.000775   5.961596   0.000000 )
               a(3) = (   0.000000   0.000000  25.155947 )

     reciprocal axes: (cart. coord. in units 2 pi/alat)
               b(1) = (  0.151982  0.000020  0.000000 )
               b(2) = (  0.000000  0.167740  0.000000 )
               b(3) = (  0.000000  0.000000  0.039752 )

     PseudoPot. # 1 for Ti read from file:
     /storage/coda1/p-amedford6/0/shared/rich_project_chbe-medford/medford-share/data/pseudos_module/espresso/nninc/pbe/van/Ti.UPF
     MD5 check sum: 8e4df49b7f0d34bbd5052bf3f5ea0213
     Pseudo is Ultrasoft, Zval = 12.0
     Generated by new atomic code, or converted to UPF format
     Using radial grid of  851 points,  6 beta functions with:
                l(1) =   0
                l(2) =   0
                l(3) =   1
                l(4) =   1
                l(5) =   2
                l(6) =   2
     Q(r) pseudized with  8 coefficients,  rinner =    1.000   1.000   1.000
                                                       1.000   1.000

     PseudoPot. # 2 for O  read from file:
     /storage/coda1/p-amedford6/0/shared/rich_project_chbe-medford/medford-share/data/pseudos_module/espresso/nninc/pbe/van/O.UPF
     MD5 check sum: 78c19812648e8988a0fe644b0f25305e
     Pseudo is Ultrasoft, Zval =  6.0
     Generated by new atomic code, or converted to UPF format
     Using radial grid of  737 points,  4 beta functions with:
                l(1) =   0
                l(2) =   0
                l(3) =   1
                l(4) =   1
     Q(r) pseudized with  8 coefficients,  rinner =    0.800   0.800   0.800

     PseudoPot. # 3 for H  read from file:
     /storage/coda1/p-amedford6/0/shared/rich_project_chbe-medford/medford-share/data/pseudos_module/espresso/nninc/pbe/van/H.UPF
     MD5 check sum: b5ee9d7bfd3a09ee7748110bda690ff7
     Pseudo is Ultrasoft, Zval =  1.0
     Generated by new atomic code, or converted to UPF format
     Using radial grid of  615 points,  1 beta functions with:
                l(1) =   0
     Q(r) pseudized with  8 coefficients,  rinner =    0.800

     PseudoPot. # 4 for N  read from file:
     /storage/coda1/p-amedford6/0/shared/rich_project_chbe-medford/medford-share/data/pseudos_module/espresso/nninc/pbe/van/N.UPF
     MD5 check sum: 90d10febe142ad51ac9d5be1deb811c4
     Pseudo is Ultrasoft, Zval =  5.0
     Generated by new atomic code, or converted to UPF format
     Using radial grid of  729 points,  4 beta functions with:
                l(1) =   0
                l(2) =   0
                l(3) =   1
                l(4) =   1
     Q(r) pseudized with  8 coefficients,  rinner =    0.800   0.800   0.800

     PseudoPot. # 5 for C  read from file:
     /storage/coda1/p-amedford6/0/shared/rich_project_chbe-medford/medford-share/data/pseudos_module/espresso/nninc/pbe/van/C.UPF
     MD5 check sum: 1a69bf6b8db32088f5b2163dbdb77a27
     Pseudo is Ultrasoft, Zval =  4.0
     Generated by new atomic code, or converted to UPF format
     Using radial grid of  721 points,  4 beta functions with:
                l(1) =   0
                l(2) =   0
                l(3) =   1
                l(4) =   1
     Q(r) pseudized with  8 coefficients,  rinner =    0.800   0.800   0.800

     atomic species   valence    mass     pseudopotential
        Ti1           12.00    47.86700     Ti( 1.00)
        O1             6.00    15.99900     O ( 1.00)
        H1             1.00     1.00800     H ( 1.00)
        N1             5.00    14.00700     N ( 1.00)
        C1             4.00    12.01100     C ( 1.00)

     No symmetry found

   Cartesian axes

     site n.     atom                  positions (alat units)
         1           Ti1 tau(   1) = (   0.0004258   2.9801865   6.0000000  )
         2           Ti1 tau(   2) = (   3.2906075   1.4906267   6.0002472  )
         3           O1  tau(   3) = (   0.0006271   0.0005054   7.9858123  )
         4           O1  tau(   4) = (   3.2906025   0.0005020   7.3038282  )
         5           O1  tau(   5) = (   4.5942328   1.4918067   9.2879030  )
         6           O1  tau(   6) = (   1.9868534   1.4903216   9.2879459  )
         7           Ti1 tau(   7) = (   3.2907910   2.8959150   9.1758416  )
         8           Ti1 tau(   8) = (   0.0015273   1.4827037   9.2680791  )
         9           O1  tau(   9) = (   3.2899722   5.9582610  11.3470199  )
        10           O1  tau(  10) = (   0.0116148   5.9584955  10.6183126  )
        11           O1  tau(  11) = (   1.3017974   1.5038179  12.6264390  )
        12           O1  tau(  12) = (   5.3008627   1.4977989  12.6274213  )
        13           Ti1 tau(  13) = (   6.5569486   2.9952213  12.5532680  )
        14           Ti1 tau(  14) = (   3.2411515   1.4937708  12.4940153  )
        15           O1  tau(  15) = (   0.0420230   0.0496738  14.6358928  )
        16           O1  tau(  16) = (   3.2967895   0.0255587  13.9395418  )
        17           O1  tau(  17) = (   4.5559197   1.4885259  16.1071037  )
        18           O1  tau(  18) = (   2.0591626   1.5161495  16.1621771  )
        19           Ti1 tau(  19) = (   3.3530411   3.0041182  15.7164831  )
        20           Ti1 tau(  20) = (   0.0838170   1.4186333  16.1871295  )
        21           O1  tau(  21) = (   3.2904802   0.0005063   4.7018136  )
        22           O1  tau(  22) = (   0.0186128   5.8515937  17.1570623  )
        23           O1  tau(  23) = (   1.3043587   1.4918075   6.0039043  )
        24           O1  tau(  24) = (   5.2767064   1.4903225   6.0039473  )
        25           Ti1 tau(  25) = (   0.0000382   5.9609847   6.0000000  )
        26           Ti1 tau(  26) = (   3.2902200   4.4714249   6.0002472  )
        27           O1  tau(  27) = (   0.0002396   2.9813036   7.9858123  )
        28           O1  tau(  28) = (   3.2902150   2.9813002   7.3038282  )
        29           O1  tau(  29) = (   4.5938453   4.4726049   9.2879030  )
        30           O1  tau(  30) = (   1.9864658   4.4711199   9.2879459  )
        31           Ti1 tau(  31) = (   3.2891106   5.8743827   9.1763621  )
        32           Ti1 tau(  32) = (   0.0006254   4.4649316   9.2693709  )
        33           O1  tau(  33) = (   3.2942209   2.9913469  11.3437431  )
        34           O1  tau(  34) = (   0.0092240   2.9805883  10.6323155  )
        35           O1  tau(  35) = (   1.3035300   4.4624727  12.6575770  )
        36           O1  tau(  36) = (   5.3036227   4.4740614  12.6577195  )
        37           Ti1 tau(  37) = (   6.5462442   0.0298550  12.5256591  )
        38           Ti1 tau(  38) = (   3.2421849   4.4737490  12.5077532  )
        39           O1  tau(  39) = (   0.0112388   2.9415499  14.8853239  )
        40           O1  tau(  40) = (   3.3099764   2.9718378  13.9238501  )
        41           O1  tau(  41) = (   4.5641009   4.4837371  16.0358624  )
        42           O1  tau(  42) = (   2.0725645   4.4682733  16.0457710  )
        43           Ti1 tau(  43) = (   3.3278145   0.0095312  15.7444629  )
        44           Ti1 tau(  44) = (   0.0453891   4.6133464  15.7643304  )
        45           O1  tau(  45) = (   3.2900926   2.9813045   4.7018136  )
        46           O1  tau(  46) = (   1.3039711   4.4726057   6.0039043  )
        47           O1  tau(  47) = (   5.2763189   4.4711207   6.0039473  )
        48           H1  tau(  48) = (   4.6525291   2.0178258  18.2241430  )
        49           N1  tau(  49) = (   6.4431608   2.5827981  18.1004554  )
        50           C1  tau(  50) = (   0.9260493   3.0590344  18.7174074  )
        51           H1  tau(  51) = (   0.8415052   3.4111086  19.7459056  )
        52           H1  tau(  52) = (   1.8727361   3.0611994  18.2151121  )
        53           N1  tau(  53) = (   5.2929592   2.6053404  18.7594781  )

     number of k points=    10  Fermi-Dirac smearing, width (Ry)=  0.0073
                       cart. coord. in units 2pi/alat
        k(    1) = (   0.0000000   0.0000000   0.0000000), wk =   0.1250000
        k(    2) = (   0.0000000   0.0419351   0.0000000), wk =   0.2500000
        k(    3) = (   0.0000000  -0.0838702   0.0000000), wk =   0.1250000
        k(    4) = (   0.0379955   0.0000049   0.0000000), wk =   0.2500000
        k(    5) = (   0.0379955   0.0419400   0.0000000), wk =   0.2500000
        k(    6) = (   0.0379955  -0.0838652   0.0000000), wk =   0.2500000
        k(    7) = (   0.0379955  -0.0419301   0.0000000), wk =   0.2500000
        k(    8) = (  -0.0759910  -0.0000099   0.0000000), wk =   0.1250000
        k(    9) = (  -0.0759910   0.0419252   0.0000000), wk =   0.2500000
        k(   10) = (  -0.0759910  -0.0838800   0.0000000), wk =   0.1250000

     Initial potential from superposition of free atoms

     starting charge  378.99916, renormalised to  395.00000

     negative rho (up, down):  1.715E-02 0.000E+00

     %%%%%%%%%%%%%%%%%%%%%%%%%%%%%%%%%%%%%%%%%%%%%%%%%%%%%%%%%%%%%%%%%%%%%%%%
     %                                                                      %
     % You are using vdW-DF, which was implemented by the Thonhauser group. %
     % Please cite the following two papers that made this development      %
     % possible and the two reviews that describe the various versions:     %
     %                                                                      %
     %   T. Thonhauser et al., PRL 115, 136402 (2015).                      %
     %   T. Thonhauser et al., PRB 76, 125112 (2007).                       %
     %   K. Berland et al., Rep. Prog. Phys. 78, 066501 (2015).             %
     %   D.C. Langreth et al., J. Phys.: Condens. Matter 21, 084203 (2009). %
     %                                                                      %
     %                                                                      %
     % If you are calculating the stress with vdW-DF, please also cite:     %
     %                                                                      %
     %   R. Sabatini et al., J. Phys.: Condens. Matter 24, 424209 (2012).   %
     %                                                                      %
     %%%%%%%%%%%%%%%%%%%%%%%%%%%%%%%%%%%%%%%%%%%%%%%%%%%%%%%%%%%%%%%%%%%%%%%%

     Adding external electric field

     Computed dipole along edir(3) :
        Dipole               -8.7897 Ry au,        -22.3411 Debye
        Dipole field         -0.0166 Ry au,

        Potential amp.        1.5376 Ry
        Total length         46.3494 bohr

     Starting wfcs are  299 atomic wfcs
  @ DRIVER MODE: Message from server: STATUS
  @ DRIVER MODE: Message from server: POSDATA
  @ DRIVER MODE: Reading and sharing cell
  @ DRIVER MODE: Reading and sharing positions
  @ DRIVER MODE: Received positions

     Self-consistent Calculation

     iteration #  1     ecut=    29.40 Ry     beta= 0.05
     Davidson diagonalization with overlap
     c_bands:  1 eigenvalues not converged
     c_bands:  1 eigenvalues not converged
     c_bands:  1 eigenvalues not converged
     c_bands:  2 eigenvalues not converged
     c_bands:  2 eigenvalues not converged
     c_bands:  1 eigenvalues not converged
     c_bands:  2 eigenvalues not converged
     ethr =  1.00E-05,  avg # of iterations = 18.8

[...]

     total energy              =   -2593.25607167 Ry
     estimated scf accuracy    <    3846.19199577 Ry

     iteration #  2     ecut=    29.40 Ry     beta= 0.05
     Davidson diagonalization with overlap
     ethr =  1.00E-02,  avg # of iterations = 22.2

[...]

     iteration # 82     ecut=    29.40 Ry     beta= 0.05
     Davidson diagonalization with overlap
     c_bands:  2 eigenvalues not converged
     c_bands:  1 eigenvalues not converged
     c_bands:  1 eigenvalues not converged
     ethr =  3.18E-11,  avg # of iterations = 16.6

[...]

     total energy              =   -2939.05439309 Ry
     estimated scf accuracy    <       0.00000021 Ry

     iteration # 83     ecut=    29.40 Ry     beta= 0.05
     Davidson diagonalization with overlap
     ethr =  3.18E-11,  avg # of iterations = 10.8

     negative rho (up, down):  1.682E-02 0.000E+00

     Adding external electric field

     Computed dipole along edir(3) :
        Dipole                0.0817 Ry au,          0.2076 Debye
        Dipole field          0.0002 Ry au,

        Potential amp.       -0.0143 Ry
        Total length         46.3494 bohr

     End of self-consistent calculation

          k = 0.0000 0.0000 0.0000 ( 18029 PWs)   bands (ev):

   -56.2637 -56.2401 -56.2267 -56.2060 -56.1470 -56.1443 -56.1096 -56.1080
   -56.0708 -56.0612 -56.0356 -56.0285 -55.9036 -55.7001 -55.2439 -55.2098
   -32.8242 -32.7284 -32.6400 -32.6062 -32.5716 -32.5701 -32.5533 -32.5308
   -32.4856 -32.4836 -32.4787 -32.4671 -32.4369 -32.4102 -32.4054 -32.3925
   -32.3858 -32.3831 -32.3721 -32.3698 -32.3500 -32.3323 -32.3177 -32.2970
   -32.2923 -32.2864 -32.2854 -32.2714 -32.2645 -32.2640 -32.2518 -32.2299
   -32.2152 -32.2149 -32.1981 -32.1857 -32.1711 -32.1532 -32.1218 -32.0498
   -31.9255 -31.8600 -31.6520 -31.5611 -31.5388 -31.4687 -31.3821 -31.2709
   -17.6131 -17.0443 -16.7704 -16.5576 -16.4576 -16.4377 -16.2933 -16.1522
   -16.0571 -15.9736 -15.9391 -15.8723 -15.8608 -15.8050 -15.7958 -15.7847
   -15.7621 -15.7434 -15.7302 -15.6840 -15.6736 -15.6419 -15.6316 -15.6098
   -15.5667 -15.4797 -15.4366 -15.4026 -15.3480 -14.7961 -13.7462 -13.6292
   -11.9830  -7.0160  -5.2659  -4.4107  -4.2574  -4.1658  -4.1592  -4.1325
    -3.9589  -3.8366  -3.6556  -3.5877  -3.4879  -3.4428  -3.4408  -3.4129
    -3.3248  -3.2004  -3.1731  -3.1046  -3.0737  -3.0612  -3.0569  -3.0363
    -2.9957  -2.9524  -2.9439  -2.8768  -2.8452  -2.7772  -2.6996  -2.6743
    -2.5992  -2.5784  -2.5499  -2.5362  -2.5337  -2.5255  -2.5009  -2.4741
    -2.4056  -2.3056  -2.2272  -2.1324  -2.0621  -1.9873  -1.9262  -1.8866
    -1.8261  -1.7864  -1.7475  -1.7215  -1.6528  -1.5841  -1.5048  -1.4636
    -1.4004  -1.3657  -1.3134  -1.2461  -1.1869  -1.1313  -1.0544  -1.0454
    -1.0419  -1.0233  -0.9915  -0.8142  -0.7665  -0.7555  -0.7406  -0.6946
    -0.6382  -0.6044  -0.4995  -0.4837  -0.4427  -0.4246  -0.3504  -0.3300
    -0.2957  -0.2869  -0.2619  -0.1994  -0.1088  -0.0916  -0.0673  -0.0186
     0.0286   0.1800   0.3683   0.4263   0.4758   0.6966   0.7764   0.7788
     0.9668   1.3518   1.3986   1.5555   2.7382   2.8513   2.9419   2.9657
     2.9896   3.0845   3.1135   3.3192   3.3246   3.3656   3.3757

[...]

          k = 0.0380-0.0419 0.0000 ( 17876 PWs)   bands (ev):

[...]

          k =-0.0760-0.0000 0.0000 ( 17886 PWs)   bands (ev):

[...]

          k =-0.0760-0.0839 0.0000 ( 17948 PWs)   bands (ev):

   -56.2494 -56.2407 -56.2230 -56.2229 -56.1367 -56.1289 -56.1248 -56.1182
   -56.0538 -56.0512 -56.0461 -56.0449 -55.9023 -55.7013 -55.2268 -55.2268
   -32.6298 -32.6248 -32.5436 -32.5435 -32.5321 -32.5172 -32.5163 -32.5162
   -32.4842 -32.4686 -32.4639 -32.4482 -32.4176 -32.4026 -32.3970 -32.3936
   -32.3843 -32.3835 -32.3810 -32.3784 -32.3441 -32.3423 -32.3422 -32.3396
   -32.3365 -32.3363 -32.3233 -32.3208 -32.2892 -32.2779 -32.2764 -32.2674
   -32.2663 -32.2615 -32.2599 -32.2334 -32.2302 -32.1566 -32.1298 -32.0573
   -31.9280 -31.9269 -31.5515 -31.5515 -31.4647 -31.4646 -31.4255 -31.4254
   -17.6059 -16.4705 -16.4369 -16.2931 -16.2252 -16.2008 -16.1849 -16.1619
   -16.0255 -15.9785 -15.9686 -15.9428 -15.9137 -15.9079 -15.8489 -15.8340
   -15.8228 -15.8145 -15.8043 -15.7518 -15.7475 -15.7390 -15.7172 -15.7122
   -15.6886 -15.6566 -15.6005 -15.5986 -15.2304 -15.1877 -13.7309 -13.7309
   -11.9981  -6.9371  -5.2241  -3.8108  -3.7434  -3.7105  -3.5655  -3.4395
    -3.4231  -3.4201  -3.2765  -3.2312  -3.2123  -3.1901  -3.1324  -3.1160
    -3.1057  -3.0839  -3.0690  -3.0559  -3.0304  -3.0006  -2.9873  -2.9667
    -2.9568  -2.9386  -2.9209  -2.8964  -2.8916  -2.8753  -2.8346  -2.8252
    -2.8005  -2.7816  -2.6100  -2.5539  -2.5374  -2.4397  -2.4376  -2.4110
    -2.3760  -2.3302  -2.3100  -2.2594  -2.2178  -2.1856  -2.0457  -1.9960
    -1.9824  -1.9337  -1.9132  -1.8505  -1.7622  -1.7291  -1.6889  -1.6544
    -1.5642  -1.5191  -1.5091  -1.4667  -1.4213  -1.4095  -1.3361  -1.2853
    -1.2220  -1.2203  -1.2135  -1.1703  -1.0554  -1.0387  -1.0246  -1.0217
    -0.9748  -0.9640  -0.9074  -0.8243  -0.7035  -0.6480  -0.6190  -0.4496
    -0.3679  -0.2977  -0.1935  -0.1532  -0.1067  -0.0841  -0.0282   0.0368
     0.0436   0.1047   0.1292   0.2168   0.2282   0.2352   0.3072   1.1393
     1.1399   1.2186   1.2189   1.5522   2.6972   3.1160   3.1494   3.1760
     3.1855   3.3459   3.3706   3.4099   3.4122   3.4839   3.5097

     the Fermi energy is     2.8812 ev

!    total energy              =   -2939.05439760 Ry
     estimated scf accuracy    <       0.00000005 Ry
     smearing contrib. (-TS)   =      -0.03337122 Ry
     internal energy E=F+TS    =   -2939.02102639 Ry

     The total energy is F=E-TS. E is the sum of the following terms:
     one-electron contribution =  -24157.15599503 Ry
     hartree contribution      =   12161.83129381 Ry
     xc contribution           =    -485.16709118 Ry
     ewald contribution        =    9541.47075343 Ry
     electric field correction =       0.00001258 Ry

     convergence has been achieved in  83 iterations

     Forces acting on atoms (cartesian axes, Ry/au):

     atom    1 type  1   force =     0.00008853   -0.00024776    0.09466966
     atom    2 type  1   force =     0.00009839   -0.00054048   -0.17676786
     atom    3 type  2   force =     0.00011949   -0.00001373   -0.02174387
     atom    4 type  2   force =     0.00001673   -0.00163344    0.05555335
     atom    5 type  2   force =    -0.01057841   -0.00065599    0.00570803
     atom    6 type  2   force =     0.01211992    0.00002919    0.00515161
     atom    7 type  1   force =     0.00035310    0.00219354   -0.01237361
     atom    8 type  1   force =     0.00038091    0.00262953    0.00924062
     atom    9 type  2   force =     0.00020866   -0.00033142   -0.00022549
     atom   10 type  2   force =    -0.00209238    0.00002690   -0.00884649
     atom   11 type  2   force =     0.00084876   -0.00014448    0.00005599
     atom   12 type  2   force =    -0.00026054   -0.00009288    0.00044822
     atom   13 type  1   force =    -0.00036233   -0.00039291    0.00076185
     atom   14 type  1   force =     0.00055902   -0.00042447    0.00065285
     atom   15 type  2   force =    -0.00019719   -0.00022338    0.00031899
     atom   16 type  2   force =    -0.00003800   -0.00041258    0.00076126
     atom   17 type  2   force =     0.00061752   -0.00031299   -0.00031072
     atom   18 type  2   force =     0.00007923   -0.00036364   -0.00048824
     atom   19 type  1   force =    -0.00053431   -0.00054390   -0.00005262
     atom   20 type  1   force =     0.00057245    0.00011073   -0.00071162
     atom   21 type  2   force =     0.00009389   -0.00011345    0.10358260
     atom   22 type  2   force =    -0.00016181    0.00010334    0.00096972
     atom   23 type  2   force =    -0.07097669   -0.00024627   -0.02724102
     atom   24 type  2   force =     0.07096556    0.00023127   -0.02729361
     atom   25 type  1   force =     0.00027599   -0.00026222    0.09408954
     atom   26 type  1   force =     0.00011778   -0.00040994   -0.17692974
     atom   27 type  2   force =     0.00011036   -0.00041673   -0.02063111
     atom   28 type  2   force =     0.00010165   -0.00137061    0.05523685
     atom   29 type  2   force =    -0.01064535   -0.00021991    0.00494644
     atom   30 type  2   force =     0.01206255   -0.00000859    0.00431224
     atom   31 type  1   force =     0.00037283    0.00374675   -0.01356168
     atom   32 type  1   force =     0.00033104   -0.00313616    0.00922424
     atom   33 type  2   force =     0.00004840   -0.00000571    0.00008453
     atom   34 type  2   force =    -0.00266131    0.00248996   -0.00568866
     atom   35 type  2   force =     0.00102333    0.00033500    0.00010755
     atom   36 type  2   force =    -0.00074989    0.00005405    0.00082167
     atom   37 type  1   force =    -0.00056865    0.00022726   -0.00007387
     atom   38 type  1   force =     0.00059643    0.00015141   -0.00027544
     atom   39 type  2   force =     0.00038264   -0.00006570   -0.00017415
     atom   40 type  2   force =     0.00008353   -0.00009859   -0.00041825
     atom   41 type  2   force =     0.00064265   -0.00004059   -0.00039389
     atom   42 type  2   force =     0.00031995    0.00003934   -0.00017176
     atom   43 type  1   force =    -0.00100385   -0.00028615   -0.00102081
     atom   44 type  1   force =     0.00028129   -0.00103032   -0.00032741
     atom   45 type  2   force =     0.00008448   -0.00014477    0.10356861
     atom   46 type  2   force =    -0.07099617   -0.00015344   -0.02724175
     atom   47 type  2   force =     0.07098385    0.00023030   -0.02726395
     atom   48 type  3   force =    -0.00075831   -0.00024836    0.00059437
     atom   49 type  4   force =    -0.00057798    0.00052500   -0.00106608
     atom   50 type  5   force =    -0.00150634    0.00423476    0.01143618
     atom   51 type  3   force =    -0.00022025   -0.00306628   -0.01020275
     atom   52 type  3   force =     0.00071493    0.00056654    0.00026905
     atom   53 type  4   force =    -0.00076609   -0.00026707   -0.00106955

     Total force =     0.365467     Total SCF correction =     0.000388
  @ DRIVER MODE: Message from server: STATUS
  @ DRIVER MODE: Message from server: GETFORCE
  @ DRIVER MODE: Returning v,forces,stress,ensemble

     Writing output data file ./calc.save/
  @ DRIVER MODE: Message from server: EXIT
  @ DRIVE MODE: Exiting

     General routines

     Parallel routines

   This run was terminated on:   2:47:23  24Aug2021

   JOB DONE.