     Program PWSCF v.6.7GPU starts on  9Sep2021 at  6:26:56

     R & G space division:  proc/nbgrp/npool/nimage =      10
     Reading input from /storage/home/hcoda1/3/ntian30/research/carbon/CxH_vib/CH2_calc/ads_slab/CH2NH_a/out_0029/pw.inp
Warning: card &CELL ignored
Warning: card   CELL_DYNAMICS='IPI', ignored
Warning: card / ignored

     Current dimensions of program PWSCF are:
     Max number of different atomic species (ntypx) = 10
     Max number of k-points (npk) =  40000
     Max angular momentum in pseudopotentials (lmaxx) =  3
     Presently no symmetry can be used with electric field

     Message from routine cell_base_init:
     DEPRECATED: use true lattice parameter, not A to a.u. conversion factor

     IMPORTANT: XC functional enforced from input :
     Exchange-correlation= BEEF-VDW
                           (   1   4  43  14   2   0   0)
     Any further DFT definition will be discarded
     Please, verify this is what you really want

  @ DRIVER MODE: Connecting to
 qe_1139763_2767389.sched-torque.pace.gatech.eduy2ipi4bn_scratch
  using UNIX socket
  @ DRIVER MODE: Message from server: STATUS
  @ DRIVER MODE: Message from server: INIT
  @ DRIVER MODE: Receiving replica           0          -1
  @ DRIVER MODE: Receiving encoded integer          25
  @ DRIVER MODE:  SCF:  T  FORCE:  T  STRESS:  F  VC:  F  ENSEMBLE:  F
  @ DRIVER MODE:  SCF:  T  FORCE:  T  STRESS:  F  VC:  F  ENSEMBLE:  F

     Using Slab Decomposition

     bravais-lattice index     =            0
     lattice parameter (alat)  =       1.8897  a.u.
     unit-cell volume          =    6658.9804 (a.u.)^3
     number of atoms/cell      =           52
     number of atomic types    =            5
     number of electrons       =       390.00
     number of Kohn-Sham states=          205
     kinetic-energy cutoff     =      29.3995  Ry
     charge density cutoff     =     293.9946  Ry
     scf convergence threshold =      7.3E-08
     mixing beta               =       0.0500
     number of iterations used =            8  plain     mixing
     Exchange-correlation= BEEF-VDW
                           (   1   4  43  14   2   0   0)

     celldm(1)=   1.889726  celldm(2)=   0.000000  celldm(3)=   0.000000
     celldm(4)=   0.000000  celldm(5)=   0.000000  celldm(6)=   0.000000

     crystal axes: (cart. coord. in units of alat)
               a(1) = (   6.579727   0.000000   0.000000 )
               a(2) = (  -0.000775   5.961596   0.000000 )
               a(3) = (   0.000000   0.000000  25.155947 )

     reciprocal axes: (cart. coord. in units 2 pi/alat)
               b(1) = (  0.151982  0.000020  0.000000 )
               b(2) = (  0.000000  0.167740  0.000000 )
               b(3) = (  0.000000  0.000000  0.039752 )

     PseudoPot. # 1 for Ti read from file:
     /storage/coda1/p-amedford6/0/shared/rich_project_chbe-medford/medford-share/data/pseudos_module/espresso/nninc/pbe/van/Ti.UPF
     MD5 check sum: 8e4df49b7f0d34bbd5052bf3f5ea0213
     Pseudo is Ultrasoft, Zval = 12.0
     Generated by new atomic code, or converted to UPF format
     Using radial grid of  851 points,  6 beta functions with:
                l(1) =   0
                l(2) =   0
                l(3) =   1
                l(4) =   1
                l(5) =   2
                l(6) =   2
     Q(r) pseudized with  8 coefficients,  rinner =    1.000   1.000   1.000
                                                       1.000   1.000

     PseudoPot. # 2 for O  read from file:
     /storage/coda1/p-amedford6/0/shared/rich_project_chbe-medford/medford-share/data/pseudos_module/espresso/nninc/pbe/van/O.UPF
     MD5 check sum: 78c19812648e8988a0fe644b0f25305e
     Pseudo is Ultrasoft, Zval =  6.0
     Generated by new atomic code, or converted to UPF format
     Using radial grid of  737 points,  4 beta functions with:
                l(1) =   0
                l(2) =   0
                l(3) =   1
                l(4) =   1
     Q(r) pseudized with  8 coefficients,  rinner =    0.800   0.800   0.800

     PseudoPot. # 3 for N  read from file:
     /storage/coda1/p-amedford6/0/shared/rich_project_chbe-medford/medford-share/data/pseudos_module/espresso/nninc/pbe/van/N.UPF
     MD5 check sum: 90d10febe142ad51ac9d5be1deb811c4
     Pseudo is Ultrasoft, Zval =  5.0
     Generated by new atomic code, or converted to UPF format
     Using radial grid of  729 points,  4 beta functions with:
                l(1) =   0
                l(2) =   0
                l(3) =   1
                l(4) =   1
     Q(r) pseudized with  8 coefficients,  rinner =    0.800   0.800   0.800

     PseudoPot. # 4 for C  read from file:
     /storage/coda1/p-amedford6/0/shared/rich_project_chbe-medford/medford-share/data/pseudos_module/espresso/nninc/pbe/van/C.UPF
     MD5 check sum: 1a69bf6b8db32088f5b2163dbdb77a27
     Pseudo is Ultrasoft, Zval =  4.0
     Generated by new atomic code, or converted to UPF format
     Using radial grid of  721 points,  4 beta functions with:
                l(1) =   0
                l(2) =   0
                l(3) =   1
                l(4) =   1
     Q(r) pseudized with  8 coefficients,  rinner =    0.800   0.800   0.800

     PseudoPot. # 5 for H  read from file:
     /storage/coda1/p-amedford6/0/shared/rich_project_chbe-medford/medford-share/data/pseudos_module/espresso/nninc/pbe/van/H.UPF
     MD5 check sum: b5ee9d7bfd3a09ee7748110bda690ff7
     Pseudo is Ultrasoft, Zval =  1.0
     Generated by new atomic code, or converted to UPF format
     Using radial grid of  615 points,  1 beta functions with:
                l(1) =   0
     Q(r) pseudized with  8 coefficients,  rinner =    0.800

     atomic species   valence    mass     pseudopotential
        Ti1           12.00    47.86700     Ti( 1.00)
        O1             6.00    15.99900     O ( 1.00)
        N1             5.00    14.00700     N ( 1.00)
        C1             4.00    12.01100     C ( 1.00)
        H1             1.00     1.00800     H ( 1.00)

     No symmetry found

   Cartesian axes

     site n.     atom                  positions (alat units)
         1           Ti1 tau(   1) = (   0.0004258   2.9801865   6.0000000  )
         2           Ti1 tau(   2) = (   3.2906075   1.4906267   6.0002472  )
         3           O1  tau(   3) = (   0.0006271   0.0005054   7.9858123  )
         4           O1  tau(   4) = (   3.2906025   0.0005020   7.3038282  )
         5           O1  tau(   5) = (   4.5942328   1.4918067   9.2879030  )
         6           O1  tau(   6) = (   1.9868534   1.4903216   9.2879459  )
         7           Ti1 tau(   7) = (   3.2907910   2.8959150   9.1758416  )
         8           Ti1 tau(   8) = (   0.0015273   1.4827037   9.2680791  )
         9           O1  tau(   9) = (   3.2859541   5.9290403  11.3715426  )
        10           O1  tau(  10) = (   0.0116148   5.9584955  10.6183126  )
        11           O1  tau(  11) = (   1.2917987   1.4688796  12.6526629  )
        12           O1  tau(  12) = (   5.2888266   1.4686376  12.6403033  )
        13           Ti1 tau(  13) = (   0.0074927   2.9495069  12.5376589  )
        14           Ti1 tau(  14) = (   3.2957121   1.4606513  12.5174744  )
        15           O1  tau(  15) = (   6.5702453   0.0264740  14.6787910  )
        16           O1  tau(  16) = (   3.3001739   5.9406727  13.9930656  )
        17           O1  tau(  17) = (   4.5367710   1.4643441  16.2106543  )
        18           O1  tau(  18) = (   2.0349547   1.4576396  16.1973481  )
        19           Ti1 tau(  19) = (   3.2821410   2.9383233  15.7467721  )
        20           Ti1 tau(  20) = (   6.5624771   1.3975196  16.0657228  )
        21           O1  tau(  21) = (   3.2904802   0.0005063   4.7018136  )
        22           O1  tau(  22) = (   0.0049924   5.8117904  17.2112648  )
        23           O1  tau(  23) = (   1.3043587   1.4918075   6.0039043  )
        24           O1  tau(  24) = (   5.2767064   1.4903225   6.0039473  )
        25           Ti1 tau(  25) = (   0.0000382   5.9609847   6.0000000  )
        26           Ti1 tau(  26) = (   3.2902200   4.4714249   6.0002472  )
        27           O1  tau(  27) = (   0.0002396   2.9813036   7.9858123  )
        28           O1  tau(  28) = (   3.2902150   2.9813002   7.3038282  )
        29           O1  tau(  29) = (   4.5938453   4.4726049   9.2879030  )
        30           O1  tau(  30) = (   1.9864658   4.4711199   9.2879459  )
        31           Ti1 tau(  31) = (   3.2891106   5.8743827   9.1763621  )
        32           Ti1 tau(  32) = (   0.0006254   4.4649316   9.2693709  )
        33           O1  tau(  33) = (   3.2878059   2.9597088  11.3652031  )
        34           O1  tau(  34) = (   0.0092240   2.9805883  10.6323155  )
        35           O1  tau(  35) = (   1.2887225   4.4431869  12.6829221  )
        36           O1  tau(  36) = (   5.2901277   4.4428847  12.6690855  )
        37           Ti1 tau(  37) = (   0.0035388   5.9380168  12.5099366  )
        38           Ti1 tau(  38) = (   3.2962120   4.4389810  12.5267566  )
        39           O1  tau(  39) = (   6.5655450   2.9014274  14.9049457  )
        40           O1  tau(  40) = (   3.2937888   2.9365130  13.9572806  )
        41           O1  tau(  41) = (   4.5374039   4.4072578  16.1608974  )
        42           O1  tau(  42) = (   2.0345115   4.4188705  16.1151926  )
        43           Ti1 tau(  43) = (   3.2925710   5.9161036  15.7896908  )
        44           Ti1 tau(  44) = (   0.0121651   4.6006060  15.8502786  )
        45           O1  tau(  45) = (   3.2900926   2.9813045   4.7018136  )
        46           O1  tau(  46) = (   1.3039711   4.4726057   6.0039043  )
        47           O1  tau(  47) = (   5.2763189   4.4711207   6.0039473  )
        48           N1  tau(  48) = (   6.5581919   2.6818180  17.9522317  )
        49           C1  tau(  49) = (   0.8403426   2.5546117  18.8965076  )
        50           H1  tau(  50) = (   0.6793733   2.9585088  19.8916666  )
        51           H1  tau(  51) = (   1.7584391   2.0155774  18.6961775  )
        52           H1  tau(  52) = (   5.7198555   3.1867788  18.2293814  )

     number of k points=    10  Fermi-Dirac smearing, width (Ry)=  0.0073
                       cart. coord. in units 2pi/alat
        k(    1) = (   0.0000000   0.0000000   0.0000000), wk =   0.1250000
        k(    2) = (   0.0000000   0.0419351   0.0000000), wk =   0.2500000
        k(    3) = (   0.0000000  -0.0838702   0.0000000), wk =   0.1250000
        k(    4) = (   0.0379955   0.0000049   0.0000000), wk =   0.2500000
        k(    5) = (   0.0379955   0.0419400   0.0000000), wk =   0.2500000
        k(    6) = (   0.0379955  -0.0838652   0.0000000), wk =   0.2500000
        k(    7) = (   0.0379955  -0.0419301   0.0000000), wk =   0.2500000
        k(    8) = (  -0.0759910  -0.0000099   0.0000000), wk =   0.1250000
        k(    9) = (  -0.0759910   0.0419252   0.0000000), wk =   0.2500000
        k(   10) = (  -0.0759910  -0.0838800   0.0000000), wk =   0.1250000

     Initial potential from superposition of free atoms

     starting charge  373.99917, renormalised to  390.00000

     negative rho (up, down):  1.699E-02 0.000E+00

     %%%%%%%%%%%%%%%%%%%%%%%%%%%%%%%%%%%%%%%%%%%%%%%%%%%%%%%%%%%%%%%%%%%%%%%%
     %                                                                      %
     % You are using vdW-DF, which was implemented by the Thonhauser group. %
     % Please cite the following two papers that made this development      %
     % possible and the two reviews that describe the various versions:     %
     %                                                                      %
     %   T. Thonhauser et al., PRL 115, 136402 (2015).                      %
     %   T. Thonhauser et al., PRB 76, 125112 (2007).                       %
     %   K. Berland et al., Rep. Prog. Phys. 78, 066501 (2015).             %
     %   D.C. Langreth et al., J. Phys.: Condens. Matter 21, 084203 (2009). %
     %                                                                      %
     %                                                                      %
     % If you are calculating the stress with vdW-DF, please also cite:     %
     %                                                                      %
     %   R. Sabatini et al., J. Phys.: Condens. Matter 24, 424209 (2012).   %
     %                                                                      %
     %%%%%%%%%%%%%%%%%%%%%%%%%%%%%%%%%%%%%%%%%%%%%%%%%%%%%%%%%%%%%%%%%%%%%%%%

     Adding external electric field

     Computed dipole along edir(3) :
        Dipole               -6.0472 Ry au,        -15.3704 Debye
        Dipole field         -0.0114 Ry au,

        Potential amp.        1.0579 Ry
        Total length         46.3494 bohr

     Starting wfcs are  295 atomic wfcs
  @ DRIVER MODE: Message from server: STATUS
  @ DRIVER MODE: Message from server: POSDATA
  @ DRIVER MODE: Reading and sharing cell
  @ DRIVER MODE: Reading and sharing positions
  @ DRIVER MODE: Received positions

     Self-consistent Calculation

     iteration #  1     ecut=    29.40 Ry     beta= 0.05
     Davidson diagonalization with overlap
     c_bands:  1 eigenvalues not converged
     c_bands:  1 eigenvalues not converged
     ethr =  1.00E-05,  avg # of iterations = 16.8

[...]

     total energy              =   -2758.77297955 Ry
     estimated scf accuracy    <    1760.39981092 Ry

     iteration #  2     ecut=    29.40 Ry     beta= 0.05
     Davidson diagonalization with overlap
     ethr =  1.00E-02,  avg # of iterations = 18.4

[...]

     iteration # 63     ecut=    29.40 Ry     beta= 0.05
     Davidson diagonalization with overlap
     c_bands:  1 eigenvalues not converged
     ethr =  2.92E-10,  avg # of iterations = 12.3

[...]

     total energy              =   -2919.11587276 Ry
     estimated scf accuracy    <       0.00000011 Ry

     iteration # 68     ecut=    29.40 Ry     beta= 0.05
     Davidson diagonalization with overlap
     ethr =  2.93E-11,  avg # of iterations =  6.6

     negative rho (up, down):  1.722E-02 0.000E+00

     Adding external electric field

     Computed dipole along edir(3) :
        Dipole                1.2589 Ry au,          3.1998 Debye
        Dipole field          0.0024 Ry au,

        Potential amp.       -0.2202 Ry
        Total length         46.3494 bohr

     End of self-consistent calculation

          k = 0.0000 0.0000 0.0000 ( 18029 PWs)   bands (ev):

   -55.5467 -55.5099 -55.5084 -55.4743 -55.4389 -55.4221 -55.3845 -55.3620
   -55.3618 -55.3368 -55.3273 -55.3130 -55.3034 -55.1309 -54.5289 -54.4948
   -32.1133 -31.9994 -31.9096 -31.8681 -31.8616 -31.8510 -31.8414 -31.8364
   -31.7980 -31.7865 -31.7549 -31.7532 -31.7529 -31.7176 -31.6999 -31.6820
   -31.6768 -31.6688 -31.6627 -31.6588 -31.6209 -31.6174 -31.6021 -31.5919
   -31.5654 -31.5637 -31.5617 -31.5537 -31.5489 -31.5432 -31.5331 -31.5249
   -31.5150 -31.5139 -31.5106 -31.4831 -31.4760 -31.4694 -31.4654 -31.4466
   -31.3546 -31.2720 -30.9379 -30.8447 -30.8226 -30.7544 -30.6676 -30.5567
   -16.5474 -16.3423 -16.0763 -15.8997 -15.7958 -15.7357 -15.5992 -15.5231
   -15.4455 -15.3430 -15.2525 -15.1859 -15.1699 -15.1496 -15.1448 -15.0835
   -15.0801 -15.0556 -15.0385 -15.0370 -14.9825 -14.9751 -14.9434 -14.9312
   -14.9205 -14.8480 -14.7639 -14.6951 -14.6350 -14.2076 -13.0317 -12.9145
    -9.3257  -6.2731  -4.7012  -3.7011  -3.5479  -3.4537  -3.4426  -3.4211
    -3.2723  -3.1344  -2.9283  -2.8472  -2.8014  -2.7521  -2.7240  -2.7063
    -2.6213  -2.5211  -2.4461  -2.4017  -2.3765  -2.3631  -2.3526  -2.3254
    -2.3138  -2.2800  -2.2415  -2.1995  -2.0950  -2.0071  -1.9662  -1.9311
    -1.8744  -1.8630  -1.8366  -1.8305  -1.8238  -1.8021  -1.7637  -1.7540
    -1.7064  -1.5647  -1.5534  -1.4364  -1.3970  -1.2827  -1.1823  -1.1806
    -1.0941  -1.0909  -1.0224  -0.9685  -0.9377  -0.9299  -0.8790  -0.8303
    -0.7413  -0.6481  -0.5866  -0.5446  -0.5099  -0.4808  -0.4134  -0.3224
    -0.3173  -0.3068  -0.2042  -0.1254  -0.1029  -0.0504  -0.0179   0.0254
     0.0415   0.1518   0.1948   0.2363   0.2541   0.3333   0.3549   0.4104
     0.4156   0.4507   0.4598   0.5263   0.5732   0.5927   0.6424   0.6615
     0.8197   1.0723   1.0795   1.1269   1.4025   1.4327   1.4934   1.6784
     2.0689   2.1166   3.5530   3.6254   3.6904   3.7032   3.7447   3.7898
     3.9568   4.0378   4.0541   4.0585   4.0899

[...]

          k = 0.0380-0.0419 0.0000 ( 17876 PWs)   bands (ev):

[...]

          k =-0.0760-0.0000 0.0000 ( 17886 PWs)   bands (ev):

[...]

          k =-0.0760-0.0839 0.0000 ( 17948 PWs)   bands (ev):

   -55.5321 -55.5243 -55.4913 -55.4912 -55.4349 -55.4109 -55.3956 -55.3659
   -55.3456 -55.3428 -55.3205 -55.3201 -55.3113 -55.1326 -54.5118 -54.5118
   -31.9197 -31.9145 -31.8306 -31.8146 -31.8145 -31.8060 -31.7834 -31.7833
   -31.7593 -31.7532 -31.7461 -31.7443 -31.7390 -31.7009 -31.6792 -31.6758
   -31.6717 -31.6674 -31.6637 -31.6587 -31.6543 -31.6350 -31.6211 -31.6202
   -31.6108 -31.6107 -31.6080 -31.5909 -31.5784 -31.5753 -31.5649 -31.5589
   -31.5561 -31.5545 -31.5456 -31.5447 -31.5120 -31.5000 -31.4996 -31.4869
   -31.3594 -31.3535 -30.8353 -30.8352 -30.7505 -30.7504 -30.7110 -30.7110
   -16.5240 -15.7810 -15.7469 -15.7315 -15.5277 -15.5194 -15.5117 -15.4937
   -15.3333 -15.3201 -15.2933 -15.2770 -15.2452 -15.2418 -15.2121 -15.1787
   -15.1257 -15.1212 -15.1129 -15.1106 -15.0508 -15.0465 -15.0263 -14.9977
   -14.9958 -14.9895 -14.8948 -14.8928 -14.7206 -14.5276 -13.0160 -13.0160
    -9.3300  -6.2687  -4.6839  -3.0560  -2.9947  -2.9342  -2.7372  -2.7338
    -2.7029  -2.6205  -2.5512  -2.5396  -2.5129  -2.4844  -2.4818  -2.4337
    -2.3896  -2.3799  -2.3686  -2.3614  -2.3430  -2.3290  -2.2999  -2.2632
    -2.2542  -2.2237  -2.2099  -2.1851  -2.1833  -2.1469  -2.1232  -2.1088
    -2.0971  -2.0352  -1.9340  -1.8817  -1.7956  -1.7690  -1.7403  -1.7342
    -1.6495  -1.6255  -1.5979  -1.5578  -1.5446  -1.5108  -1.3082  -1.2783
    -1.2686  -1.2547  -1.2307  -1.0815  -1.0718  -1.0219  -0.9907  -0.9433
    -0.8858  -0.8498  -0.8343  -0.7526  -0.7222  -0.6772  -0.6382  -0.5149
    -0.5119  -0.5048  -0.5032  -0.4854  -0.3986  -0.3866  -0.3438  -0.3104
    -0.2693  -0.2550  -0.1900  -0.0080   0.0088   0.0749   0.1818   0.2764
     0.3704   0.4497   0.4696   0.5205   0.5637   0.5838   0.6629   0.7560
     0.7678   0.8361   0.8821   0.9233   0.9276   0.9327   1.8513   1.8519
     1.9365   1.9367   3.6761   3.8010   3.8215   3.8595   3.8777   4.0270
     4.0725   4.1107   4.1325   4.1348   4.2132

     the Fermi energy is     3.6084 ev

!    total energy              =   -2919.11589247 Ry
     estimated scf accuracy    <       0.00000005 Ry
     smearing contrib. (-TS)   =      -0.03731364 Ry
     internal energy E=F+TS    =   -2919.07857882 Ry

     The total energy is F=E-TS. E is the sum of the following terms:
     one-electron contribution =  -24307.75542389 Ry
     hartree contribution      =   12241.26938435 Ry
     xc contribution           =    -480.01709454 Ry
     ewald contribution        =    9627.42156458 Ry
     electric field correction =       0.00299069 Ry

     convergence has been achieved in  68 iterations

     Forces acting on atoms (cartesian axes, Ry/au):

     atom    1 type  1   force =     0.00004709   -0.00016086    0.09380130
     atom    2 type  1   force =    -0.00018034   -0.00018699   -0.17777611
     atom    3 type  2   force =     0.00002560   -0.00023049   -0.02114351
     atom    4 type  2   force =    -0.00001660   -0.00198961    0.05774856
     atom    5 type  2   force =    -0.01107827   -0.00164983    0.00750003
     atom    6 type  2   force =     0.01244199   -0.00098439    0.00638137
     atom    7 type  1   force =    -0.00048236    0.00245722   -0.01334374
     atom    8 type  1   force =     0.00030231    0.00294027    0.00275411
     atom    9 type  2   force =     0.00007532   -0.00007897    0.00013566
     atom   10 type  2   force =    -0.00176307   -0.00228956   -0.00366765
     atom   11 type  2   force =     0.00016853    0.00060173   -0.00028336
     atom   12 type  2   force =     0.00044081    0.00053746   -0.00009991
     atom   13 type  1   force =    -0.00071844   -0.00094675   -0.00031484
     atom   14 type  1   force =     0.00082442    0.00027009   -0.00051529
     atom   15 type  2   force =     0.00025993    0.00010674   -0.00008369
     atom   16 type  2   force =    -0.00007556    0.00033942   -0.00061634
     atom   17 type  2   force =     0.00006153    0.00016024    0.00032878
     atom   18 type  2   force =     0.00062217   -0.00003013    0.00014386
     atom   19 type  1   force =     0.00011918   -0.00101007    0.00032059
     atom   20 type  1   force =     0.00008346    0.00063138    0.00055556
     atom   21 type  2   force =     0.00004449   -0.00002408    0.10383130
     atom   22 type  2   force =     0.00000442   -0.00074029    0.00002967
     atom   23 type  2   force =    -0.07058811   -0.00013958   -0.02705967
     atom   24 type  2   force =     0.07046417    0.00032473   -0.02710647
     atom   25 type  1   force =     0.00008564   -0.00017564    0.09359766
     atom   26 type  1   force =    -0.00009689   -0.00027074   -0.17781701
     atom   27 type  2   force =     0.00008276   -0.00044366   -0.02017320
     atom   28 type  2   force =     0.00002585   -0.00168974    0.05723797
     atom   29 type  2   force =    -0.01116013   -0.00114734    0.00695890
     atom   30 type  2   force =     0.01241184   -0.00080526    0.00582221
     atom   31 type  1   force =    -0.00039178    0.00468660   -0.01442112
     atom   32 type  1   force =     0.00037220   -0.00362332    0.00246836
     atom   33 type  2   force =    -0.00000360    0.00057600    0.00039688
     atom   34 type  2   force =    -0.00117932   -0.00057522   -0.00103534
     atom   35 type  2   force =     0.00039564    0.00025038    0.00020911
     atom   36 type  2   force =     0.00013801    0.00032464    0.00017878
     atom   37 type  1   force =    -0.00053249    0.00131166    0.00009648
     atom   38 type  1   force =     0.00086711    0.00007339   -0.00087250
     atom   39 type  2   force =     0.00010371    0.00046371    0.00028960
     atom   40 type  2   force =     0.00018190    0.00020492   -0.00053298
     atom   41 type  2   force =     0.00032939    0.00001350   -0.00062218
     atom   42 type  2   force =    -0.00006780    0.00006468   -0.00076086
     atom   43 type  1   force =    -0.00008236    0.00110770    0.00012348
     atom   44 type  1   force =    -0.00002224    0.00042442   -0.00080806
     atom   45 type  2   force =     0.00004489   -0.00003814    0.10379347
     atom   46 type  2   force =    -0.07061359   -0.00007247   -0.02705621
     atom   47 type  2   force =     0.07049078    0.00034361   -0.02708574
     atom   48 type  3   force =     0.00332945   -0.00325364   -0.00420049
     atom   49 type  4   force =    -0.00261672    0.00098332   -0.00008748
     atom   50 type  5   force =    -0.00020279    0.00140432    0.00037081
     atom   51 type  5   force =    -0.00025261   -0.00007309    0.00032857
     atom   52 type  5   force =    -0.00271949    0.00202770    0.00208066

     Total force =     0.365980     Total SCF correction =     0.000487
  @ DRIVER MODE: Message from server: STATUS
  @ DRIVER MODE: Message from server: GETFORCE
  @ DRIVER MODE: Returning v,forces,stress,ensemble

     Writing output data file ./calc.save/
  @ DRIVER MODE: Message from server: EXIT
  @ DRIVE MODE: Exiting

     General routines

     Parallel routines

   This run was terminated on:   6:44:16   9Sep2021

   JOB DONE.