     Program PWSCF v.6.7GPU starts on  3Aug2021 at  1:18:31

     R & G space division:  proc/nbgrp/npool/nimage =      16
     Reading input from /storage/home/hcoda1/3/ntian30/research/carbon/02Aug_vib_paired/ads_slab/CH3NHHH_a/out_0043/pw.inp
Warning: card &CELL ignored
Warning: card   CELL_DYNAMICS='IPI', ignored
Warning: card / ignored

     Current dimensions of program PWSCF are:
     Max number of different atomic species (ntypx) = 10
     Max number of k-points (npk) =  40000
     Max angular momentum in pseudopotentials (lmaxx) =  3
     Presently no symmetry can be used with electric field

     Message from routine cell_base_init:
     DEPRECATED: use true lattice parameter, not A to a.u. conversion factor

     IMPORTANT: XC functional enforced from input :
     Exchange-correlation= BEEF-VDW
                           (   1   4  43  14   2   0   0)
     Any further DFT definition will be discarded
     Please, verify this is what you really want

  @ DRIVER MODE: Connecting to
 qe_1139763_2482537.sched-torque.pace.gatech.edu817q9hhc_scratch
  using UNIX socket
  @ DRIVER MODE: Message from server: STATUS
  @ DRIVER MODE: Message from server: INIT
  @ DRIVER MODE: Receiving replica           0          -1
  @ DRIVER MODE: Receiving encoded integer          25
  @ DRIVER MODE:  SCF:  T  FORCE:  T  STRESS:  F  VC:  F  ENSEMBLE:  F
  @ DRIVER MODE:  SCF:  T  FORCE:  T  STRESS:  F  VC:  F  ENSEMBLE:  F

     Using Slab Decomposition

     bravais-lattice index     =            0
     lattice parameter (alat)  =       1.8897  a.u.
     unit-cell volume          =    6658.9804 (a.u.)^3
     number of atoms/cell      =           55
     number of atomic types    =            5
     number of electrons       =       393.00
     number of Kohn-Sham states=          206
     kinetic-energy cutoff     =      29.3995  Ry
     charge density cutoff     =     293.9946  Ry
     scf convergence threshold =      7.3E-08
     mixing beta               =       0.0500
     number of iterations used =            8  plain     mixing
     Exchange-correlation= BEEF-VDW
                           (   1   4  43  14   2   0   0)

     celldm(1)=   1.889726  celldm(2)=   0.000000  celldm(3)=   0.000000
     celldm(4)=   0.000000  celldm(5)=   0.000000  celldm(6)=   0.000000

     crystal axes: (cart. coord. in units of alat)
               a(1) = (   6.579727   0.000000   0.000000 )
               a(2) = (  -0.000775   5.961596   0.000000 )
               a(3) = (   0.000000   0.000000  25.155947 )

     reciprocal axes: (cart. coord. in units 2 pi/alat)
               b(1) = (  0.151982  0.000020  0.000000 )
               b(2) = (  0.000000  0.167740  0.000000 )
               b(3) = (  0.000000  0.000000  0.039752 )

     PseudoPot. # 1 for Ti read from file:
     /storage/coda1/p-amedford6/0/shared/rich_project_chbe-medford/medford-share/data/pseudos_module/espresso/nninc/pbe/van/Ti.UPF
     MD5 check sum: 8e4df49b7f0d34bbd5052bf3f5ea0213
     Pseudo is Ultrasoft, Zval = 12.0
     Generated by new atomic code, or converted to UPF format
     Using radial grid of  851 points,  6 beta functions with:
                l(1) =   0
                l(2) =   0
                l(3) =   1
                l(4) =   1
                l(5) =   2
                l(6) =   2
     Q(r) pseudized with  8 coefficients,  rinner =    1.000   1.000   1.000
                                                       1.000   1.000

     PseudoPot. # 2 for O  read from file:
     /storage/coda1/p-amedford6/0/shared/rich_project_chbe-medford/medford-share/data/pseudos_module/espresso/nninc/pbe/van/O.UPF
     MD5 check sum: 78c19812648e8988a0fe644b0f25305e
     Pseudo is Ultrasoft, Zval =  6.0
     Generated by new atomic code, or converted to UPF format
     Using radial grid of  737 points,  4 beta functions with:
                l(1) =   0
                l(2) =   0
                l(3) =   1
                l(4) =   1
     Q(r) pseudized with  8 coefficients,  rinner =    0.800   0.800   0.800

     PseudoPot. # 3 for N  read from file:
     /storage/coda1/p-amedford6/0/shared/rich_project_chbe-medford/medford-share/data/pseudos_module/espresso/nninc/pbe/van/N.UPF
     MD5 check sum: 90d10febe142ad51ac9d5be1deb811c4
     Pseudo is Ultrasoft, Zval =  5.0
     Generated by new atomic code, or converted to UPF format
     Using radial grid of  729 points,  4 beta functions with:
                l(1) =   0
                l(2) =   0
                l(3) =   1
                l(4) =   1
     Q(r) pseudized with  8 coefficients,  rinner =    0.800   0.800   0.800

     PseudoPot. # 4 for C  read from file:
     /storage/coda1/p-amedford6/0/shared/rich_project_chbe-medford/medford-share/data/pseudos_module/espresso/nninc/pbe/van/C.UPF
     MD5 check sum: 1a69bf6b8db32088f5b2163dbdb77a27
     Pseudo is Ultrasoft, Zval =  4.0
     Generated by new atomic code, or converted to UPF format
     Using radial grid of  721 points,  4 beta functions with:
                l(1) =   0
                l(2) =   0
                l(3) =   1
                l(4) =   1
     Q(r) pseudized with  8 coefficients,  rinner =    0.800   0.800   0.800

     PseudoPot. # 5 for H  read from file:
     /storage/coda1/p-amedford6/0/shared/rich_project_chbe-medford/medford-share/data/pseudos_module/espresso/nninc/pbe/van/H.UPF
     MD5 check sum: b5ee9d7bfd3a09ee7748110bda690ff7
     Pseudo is Ultrasoft, Zval =  1.0
     Generated by new atomic code, or converted to UPF format
     Using radial grid of  615 points,  1 beta functions with:
                l(1) =   0
     Q(r) pseudized with  8 coefficients,  rinner =    0.800

     atomic species   valence    mass     pseudopotential
        Ti1           12.00    47.86700     Ti( 1.00)
        O1             6.00    15.99900     O ( 1.00)
        N1             5.00    14.00700     N ( 1.00)
        C1             4.00    12.01100     C ( 1.00)
        H1             1.00     1.00800     H ( 1.00)

     No symmetry found

   Cartesian axes

     site n.     atom                  positions (alat units)
         1           Ti1 tau(   1) = (   0.0004258   2.9801865   6.0000000  )
         2           Ti1 tau(   2) = (   3.2906075   1.4906267   6.0002472  )
         3           O1  tau(   3) = (   0.0006271   0.0005054   7.9858123  )
         4           O1  tau(   4) = (   3.2906025   0.0005020   7.3038282  )
         5           O1  tau(   5) = (   4.5942328   1.4918067   9.2879030  )
         6           O1  tau(   6) = (   1.9868534   1.4903216   9.2879459  )
         7           Ti1 tau(   7) = (   3.2907910   2.8959150   9.1758416  )
         8           Ti1 tau(   8) = (   0.0015273   1.4827037   9.2680791  )
         9           O1  tau(   9) = (   3.2636084   5.9406443  11.4082010  )
        10           O1  tau(  10) = (   0.0116148   5.9584955  10.6183126  )
        11           O1  tau(  11) = (   1.2642105   1.4849797  12.6947803  )
        12           O1  tau(  12) = (   5.2691575   1.4821021  12.6650678  )
        13           Ti1 tau(  13) = (   6.5574234   2.9640577  12.4921542  )
        14           Ti1 tau(  14) = (   3.2619390   1.4709553  12.5527290  )
        15           O1  tau(  15) = (   6.5247406   5.9594380  14.6832748  )
        16           O1  tau(  16) = (   3.2695906   5.9428997  14.0562986  )
        17           O1  tau(  17) = (   4.5175969   1.4707097  16.2986306  )
        18           O1  tau(  18) = (   1.9406912   1.4777946  16.2473769  )
        19           Ti1 tau(  19) = (   3.2491105   2.9422209  15.8109686  )
        20           Ti1 tau(  20) = (   6.5361480   1.3378720  15.9626387  )
        21           O1  tau(  21) = (   3.2904802   0.0005063   4.7018136  )
        22           O1  tau(  22) = (   6.5280740   5.8897732  17.4332532  )
        23           O1  tau(  23) = (   1.3043587   1.4918075   6.0039043  )
        24           O1  tau(  24) = (   5.2767064   1.4903225   6.0039473  )
        25           Ti1 tau(  25) = (   0.0000382   5.9609847   6.0000000  )
        26           Ti1 tau(  26) = (   3.2902200   4.4714249   6.0002472  )
        27           O1  tau(  27) = (   0.0002396   2.9813036   7.9858123  )
        28           O1  tau(  28) = (   3.2902150   2.9813002   7.3038282  )
        29           O1  tau(  29) = (   4.5938453   4.4726049   9.2879030  )
        30           O1  tau(  30) = (   1.9864658   4.4711199   9.2879459  )
        31           Ti1 tau(  31) = (   3.2891106   5.8743827   9.1763621  )
        32           Ti1 tau(  32) = (   0.0006254   4.4649316   9.2693709  )
        33           O1  tau(  33) = (   3.2649920   2.9642658  11.3997388  )
        34           O1  tau(  34) = (   0.0092240   2.9805883  10.6323155  )
        35           O1  tau(  35) = (   1.2634527   4.4478426  12.7061968  )
        36           O1  tau(  36) = (   5.2693862   4.4495813  12.6755241  )
        37           Ti1 tau(  37) = (   6.5522441   5.9483113  12.5008436  )
        38           Ti1 tau(  38) = (   3.2626494   4.4468850  12.5575576  )
        39           O1  tau(  39) = (   6.4970557   2.9363996  15.0046851  )
        40           O1  tau(  40) = (   3.2722650   2.9529576  14.0194401  )
        41           O1  tau(  41) = (   4.5170401   4.4205294  16.2730734  )
        42           O1  tau(  42) = (   1.9466746   4.4191161  16.2235312  )
        43           Ti1 tau(  43) = (   3.2419262   5.9323414  15.8513663  )
        44           Ti1 tau(  44) = (   6.5549466   4.5556212  15.8889459  )
        45           O1  tau(  45) = (   3.2900926   2.9813045   4.7018136  )
        46           O1  tau(  46) = (   1.3039711   4.4726057   6.0039043  )
        47           O1  tau(  47) = (   5.2763189   4.4711207   6.0039473  )
        48           N1  tau(  48) = (   4.8657738   4.5798987  19.4796958  )
        49           C1  tau(  49) = (   5.7271871   3.4329544  19.8049648  )
        50           H1  tau(  50) = (   6.3241292   3.1721029  18.9298488  )
        51           H1  tau(  51) = (   6.4229137   3.7195585  20.5942015  )
        52           H1  tau(  52) = (   5.1874390   2.5328885  20.1195193  )
        53           H1  tau(  53) = (   5.9066942   5.7389963  18.1772939  )
        54           H1  tau(  54) = (   4.2103208   4.3266459  18.7469397  )
        55           H1  tau(  55) = (   4.3087305   4.8545830  20.2870342  )

     number of k points=    10  Fermi-Dirac smearing, width (Ry)=  0.0073
                       cart. coord. in units 2pi/alat
        k(    1) = (   0.0000000   0.0000000   0.0000000), wk =   0.1250000
        k(    2) = (   0.0000000   0.0419351   0.0000000), wk =   0.2500000
        k(    3) = (   0.0000000  -0.0838702   0.0000000), wk =   0.1250000
        k(    4) = (   0.0379955   0.0000049   0.0000000), wk =   0.2500000
        k(    5) = (   0.0379955   0.0419400   0.0000000), wk =   0.2500000
        k(    6) = (   0.0379955  -0.0838652   0.0000000), wk =   0.2500000
        k(    7) = (   0.0379955  -0.0419301   0.0000000), wk =   0.2500000
        k(    8) = (  -0.0759910  -0.0000099   0.0000000), wk =   0.1250000
        k(    9) = (  -0.0759910   0.0419252   0.0000000), wk =   0.2500000
        k(   10) = (  -0.0759910  -0.0838800   0.0000000), wk =   0.1250000

     Initial potential from superposition of free atoms

     starting charge  376.99914, renormalised to  393.00000

     negative rho (up, down):  1.329E-02 0.000E+00

     %%%%%%%%%%%%%%%%%%%%%%%%%%%%%%%%%%%%%%%%%%%%%%%%%%%%%%%%%%%%%%%%%%%%%%%%
     %                                                                      %
     % You are using vdW-DF, which was implemented by the Thonhauser group. %
     % Please cite the following two papers that made this development      %
     % possible and the two reviews that describe the various versions:     %
     %                                                                      %
     %   T. Thonhauser et al., PRL 115, 136402 (2015).                      %
     %   T. Thonhauser et al., PRB 76, 125112 (2007).                       %
     %   K. Berland et al., Rep. Prog. Phys. 78, 066501 (2015).             %
     %   D.C. Langreth et al., J. Phys.: Condens. Matter 21, 084203 (2009). %
     %                                                                      %
     %                                                                      %
     % If you are calculating the stress with vdW-DF, please also cite:     %
     %                                                                      %
     %   R. Sabatini et al., J. Phys.: Condens. Matter 24, 424209 (2012).   %
     %                                                                      %
     %%%%%%%%%%%%%%%%%%%%%%%%%%%%%%%%%%%%%%%%%%%%%%%%%%%%%%%%%%%%%%%%%%%%%%%%

     Adding external electric field

     Computed dipole along edir(3) :
        Dipole               -9.4918 Ry au,        -24.1257 Debye
        Dipole field         -0.0179 Ry au,

        Potential amp.        1.6604 Ry
        Total length         46.3494 bohr

     Starting wfcs are  298 atomic wfcs
  @ DRIVER MODE: Message from server: STATUS
  @ DRIVER MODE: Message from server: POSDATA
  @ DRIVER MODE: Reading and sharing cell
  @ DRIVER MODE: Reading and sharing positions
  @ DRIVER MODE: Received positions

     Self-consistent Calculation

     iteration #  1     ecut=    29.40 Ry     beta= 0.05
     Davidson diagonalization with overlap
     c_bands:  2 eigenvalues not converged
     c_bands:  1 eigenvalues not converged
     c_bands:  2 eigenvalues not converged
     c_bands:  3 eigenvalues not converged
     c_bands:  3 eigenvalues not converged
     c_bands:  1 eigenvalues not converged
     ethr =  1.00E-05,  avg # of iterations = 18.9

[...]

     total energy              =   -2620.45882601 Ry
     estimated scf accuracy    <    3390.29211925 Ry

     iteration #  2     ecut=    29.40 Ry     beta= 0.05
     Davidson diagonalization with overlap
     ethr =  1.00E-02,  avg # of iterations = 23.4

[...]

     iteration # 64     ecut=    29.40 Ry     beta= 0.05
     Davidson diagonalization with overlap
     c_bands:  1 eigenvalues not converged
     ethr =  2.50E-11,  avg # of iterations = 16.1

[...]

     total energy              =   -2922.77376934 Ry
     estimated scf accuracy    <       0.00000008 Ry

     iteration # 65     ecut=    29.40 Ry     beta= 0.05
     Davidson diagonalization with overlap
     ethr =  1.93E-11,  avg # of iterations =  8.5

     negative rho (up, down):  1.444E-02 0.000E+00

     Adding external electric field

     Computed dipole along edir(3) :
        Dipole                1.4038 Ry au,          3.5680 Debye
        Dipole field          0.0026 Ry au,

        Potential amp.       -0.2456 Ry
        Total length         46.3494 bohr

     End of self-consistent calculation

          k = 0.0000 0.0000 0.0000 ( 18029 PWs)   bands (ev):

   -55.3091 -55.2733 -55.2575 -55.2233 -55.1731 -55.1491 -55.1480 -55.1387
   -55.1146 -55.0844 -55.0736 -55.0505 -55.0318 -54.9737 -54.3015 -54.2674
   -31.8761 -31.7519 -31.6894 -31.6614 -31.6369 -31.6161 -31.5915 -31.5510
   -31.5468 -31.5456 -31.5164 -31.5052 -31.5015 -31.4767 -31.4661 -31.4611
   -31.4478 -31.4378 -31.4103 -31.4019 -31.3976 -31.3814 -31.3731 -31.3557
   -31.3531 -31.3155 -31.3146 -31.3053 -31.3032 -31.2901 -31.2851 -31.2832
   -31.2766 -31.2757 -31.2608 -31.2576 -31.2254 -31.2118 -31.2008 -31.1951
   -31.1824 -31.1074 -30.7117 -30.6154 -30.5934 -30.5278 -30.4409 -30.3303
   -16.8253 -16.1481 -15.8919 -15.7710 -15.6617 -15.5757 -15.5214 -15.4422
   -15.3583 -15.2578 -15.1963 -15.0913 -15.0567 -15.0171 -15.0022 -14.9833
   -14.9564 -14.8767 -14.8655 -14.8548 -14.8292 -14.8110 -14.7825 -14.7738
   -14.7671 -14.7280 -14.6906 -14.5780 -14.4877 -14.4023 -12.8048 -12.6870
   -10.0107  -5.8224  -4.7436  -4.4301  -3.5202  -3.4755  -3.3440  -3.2391
    -3.2057  -3.1973  -3.0765  -2.8933  -2.7983  -2.7711  -2.6830  -2.6299
    -2.5343  -2.5305  -2.4903  -2.3900  -2.3522  -2.3255  -2.2423  -2.2154
    -2.1691  -2.1184  -2.1082  -2.1050  -2.0844  -2.0439  -2.0051  -1.8865
    -1.8015  -1.7796  -1.7060  -1.6897  -1.6837  -1.6555  -1.6127  -1.5934
    -1.5441  -1.5270  -1.4864  -1.4175  -1.3563  -1.2740  -1.2371  -1.2000
    -0.9941  -0.9656  -0.9147  -0.9122  -0.8838  -0.8155  -0.7859  -0.7563
    -0.6904  -0.6878  -0.6595  -0.5531  -0.5103  -0.3896  -0.3190  -0.2393
    -0.1176  -0.1044  -0.0805  -0.0309  -0.0073   0.0523   0.1123   0.1490
     0.1884   0.2011   0.2884   0.3178   0.3948   0.4092   0.4468   0.5107
     0.5270   0.5530   0.5699   0.5830   0.6171   0.6330   0.6670   0.7338
     0.7659   0.8674   0.9161   1.1998   1.2850   1.5941   1.6173   1.7207
     1.9020   2.2992   2.3483   3.7852   3.8464   3.8869   3.9294   3.9331
     4.0147   4.1454   4.2884   4.2978   4.3091   4.3159

[...]

          k = 0.0380-0.0419 0.0000 ( 17876 PWs)   bands (ev):

[...]

          k =-0.0760-0.0000 0.0000 ( 17886 PWs)   bands (ev):

[...]

          k =-0.0760-0.0839 0.0000 ( 17948 PWs)   bands (ev):

   -55.2925 -55.2897 -55.2410 -55.2397 -55.1564 -55.1554 -55.1440 -55.1339
   -55.1295 -55.0774 -55.0688 -55.0662 -55.0248 -54.9808 -54.2844 -54.2843
   -31.6838 -31.6787 -31.5886 -31.5831 -31.5675 -31.5663 -31.5574 -31.5315
   -31.5302 -31.5098 -31.5049 -31.5031 -31.4897 -31.4637 -31.4587 -31.4575
   -31.4317 -31.4311 -31.4247 -31.4037 -31.3811 -31.3790 -31.3691 -31.3650
   -31.3644 -31.3603 -31.3593 -31.3508 -31.3491 -31.3432 -31.3392 -31.3239
   -31.3211 -31.3084 -31.3052 -31.2941 -31.2656 -31.2485 -31.2464 -31.2439
   -31.2269 -31.1738 -30.6061 -30.6060 -30.5242 -30.5241 -30.4844 -30.4843
   -16.7639 -15.8210 -15.5773 -15.5403 -15.4998 -15.4053 -15.3316 -15.3006
   -15.2903 -15.2773 -15.1512 -15.1232 -15.1137 -15.0855 -15.0537 -15.0294
   -15.0256 -14.9904 -14.9333 -14.9272 -14.9193 -14.9111 -14.8475 -14.8393
   -14.8355 -14.8287 -14.7632 -14.7608 -14.6790 -14.6770 -12.7884 -12.7884
   -10.0203  -5.8228  -4.8705  -4.4120  -3.5329  -2.8244  -2.7969  -2.7446
    -2.6998  -2.6137  -2.5280  -2.5007  -2.4643  -2.4065  -2.3543  -2.3069
    -2.3048  -2.2691  -2.2496  -2.2307  -2.1871  -2.1656  -2.1431  -2.1248
    -2.1101  -2.0563  -2.0535  -2.0444  -2.0199  -1.9859  -1.9685  -1.9552
    -1.9391  -1.9207  -1.8953  -1.8760  -1.7329  -1.7119  -1.6714  -1.5542
    -1.5363  -1.5328  -1.4998  -1.4560  -1.4312  -1.4237  -1.3499  -1.3428
    -1.3102  -1.1529  -1.0808  -1.0790  -1.0556  -1.0317  -0.9366  -0.8851
    -0.8447  -0.7949  -0.7189  -0.6876  -0.6689  -0.5964  -0.5695  -0.4780
    -0.3885  -0.3618  -0.3536  -0.2763  -0.2748  -0.2413  -0.2282  -0.1592
    -0.0990  -0.0475  -0.0435  -0.0393   0.0895   0.1264   0.2065   0.3205
     0.4009   0.4094   0.4604   0.5209   0.6031   0.6498   0.6652   0.7875
     0.7894   0.9759   0.9791   1.0276   1.0427   1.1229   1.1281   2.0748
     2.0755   2.1679   2.1682   3.7605   3.9437   3.9978   4.0707   4.0962
     4.1942   4.2790   4.3127   4.3427   4.3647   4.4102

     the Fermi energy is     3.8537 ev

!    total energy              =   -2922.77379355 Ry
     estimated scf accuracy    <       0.00000004 Ry
     smearing contrib. (-TS)   =      -0.04551429 Ry
     internal energy E=F+TS    =   -2922.72827926 Ry

     The total energy is F=E-TS. E is the sum of the following terms:
     one-electron contribution =  -23201.57839218 Ry
     hartree contribution      =   11691.06873420 Ry
     xc contribution           =    -482.54380609 Ry
     ewald contribution        =    9070.32146616 Ry
     electric field correction =       0.00371866 Ry

     convergence has been achieved in  65 iterations

     Forces acting on atoms (cartesian axes, Ry/au):

     atom    1 type  1   force =     0.00016534   -0.00008353    0.09302674
     atom    2 type  1   force =    -0.00000556   -0.00014067   -0.17879557
     atom    3 type  2   force =     0.00002177   -0.00029690   -0.02021521
     atom    4 type  2   force =    -0.00000193   -0.00224004    0.06097251
     atom    5 type  2   force =    -0.01151199   -0.00128730    0.01054911
     atom    6 type  2   force =     0.01242445   -0.00059089    0.00811142
     atom    7 type  1   force =    -0.00124551    0.00346669   -0.01486901
     atom    8 type  1   force =     0.00122837   -0.00357237   -0.00845145
     atom    9 type  2   force =     0.00001671   -0.00004904   -0.00025860
     atom   10 type  2   force =    -0.00281359   -0.00047988    0.00152814
     atom   11 type  2   force =     0.00012127   -0.00023523   -0.00029783
     atom   12 type  2   force =     0.00000531    0.00008744   -0.00010706
     atom   13 type  1   force =    -0.00019089   -0.00031188   -0.00063235
     atom   14 type  1   force =    -0.00003231   -0.00004226    0.00019735
     atom   15 type  2   force =    -0.00011417   -0.00023814   -0.00012143
     atom   16 type  2   force =     0.00032361    0.00035058   -0.00011478
     atom   17 type  2   force =     0.00078063    0.00028128   -0.00024604
     atom   18 type  2   force =     0.00008995   -0.00027409   -0.00003524
     atom   19 type  1   force =     0.00028144    0.00045926   -0.00036629
     atom   20 type  1   force =     0.00010396    0.00006847    0.00049132
     atom   21 type  2   force =     0.00012430   -0.00003553    0.10423935
     atom   22 type  2   force =    -0.00053411    0.00014089    0.00022598
     atom   23 type  2   force =    -0.06991672   -0.00010202   -0.02678347
     atom   24 type  2   force =     0.06988973    0.00035372   -0.02678576
     atom   25 type  1   force =     0.00019351   -0.00020854    0.09229785
     atom   26 type  1   force =    -0.00007570   -0.00037173   -0.17900301
     atom   27 type  2   force =     0.00004135   -0.00025576   -0.01896650
     atom   28 type  2   force =     0.00006677   -0.00192498    0.06021966
     atom   29 type  2   force =    -0.01170262   -0.00161993    0.01034274
     atom   30 type  2   force =     0.01248957   -0.00120272    0.00787256
     atom   31 type  1   force =    -0.00101270    0.00608408   -0.01575721
     atom   32 type  1   force =     0.00116452    0.00332186   -0.00863052
     atom   33 type  2   force =     0.00003247    0.00020084   -0.00025031
     atom   34 type  2   force =    -0.00240615   -0.00053589    0.00058675
     atom   35 type  2   force =     0.00000391   -0.00000112    0.00004700
     atom   36 type  2   force =     0.00003757   -0.00007625    0.00036037
     atom   37 type  1   force =     0.00035961   -0.00003529   -0.00005307
     atom   38 type  1   force =    -0.00035017   -0.00030276    0.00045191
     atom   39 type  2   force =     0.00036795   -0.00015234    0.00063082
     atom   40 type  2   force =     0.00025092   -0.00017525    0.00002709
     atom   41 type  2   force =     0.00005201    0.00036935   -0.00044381
     atom   42 type  2   force =     0.00050127    0.00022140   -0.00017777
     atom   43 type  1   force =     0.00027492   -0.00019281   -0.00034081
     atom   44 type  1   force =     0.00013889   -0.00128878    0.00058795
     atom   45 type  2   force =     0.00011834   -0.00005223    0.10419078
     atom   46 type  2   force =    -0.06993877   -0.00006303   -0.02677834
     atom   47 type  2   force =     0.06992990    0.00034177   -0.02679933
     atom   48 type  3   force =    -0.00450366    0.00304433    0.00459679
     atom   49 type  4   force =     0.00008374    0.00126413    0.00018094
     atom   50 type  5   force =    -0.00003038    0.00021180   -0.00014730
     atom   51 type  5   force =    -0.00067901   -0.00032927    0.00023047
     atom   52 type  5   force =    -0.00008472   -0.00032581    0.00025490
     atom   53 type  5   force =     0.00014519    0.00078954   -0.00103459
     atom   54 type  5   force =     0.00015763   -0.00014085   -0.00129456
     atom   55 type  5   force =     0.00516374   -0.00182234   -0.00446328

     Total force =     0.367705     Total SCF correction =     0.000417
  @ DRIVER MODE: Message from server: STATUS
  @ DRIVER MODE: Message from server: GETFORCE
  @ DRIVER MODE: Returning v,forces,stress,ensemble

     Writing output data file ./calc.save/
  @ DRIVER MODE: Message from server: EXIT
  @ DRIVE MODE: Exiting

     General routines

     Parallel routines

   This run was terminated on:   1:33:35   3Aug2021

   JOB DONE.