     Program PWSCF v.6.7GPU starts on 13Oct2021 at  2:15: 4

     R & G space division:  proc/nbgrp/npool/nimage =       8
     Reading input from /storage/home/hcoda1/3/ntian30/research/carbon/ACS_vib/ads_slab/H2NNH2/out_0026/pw.inp
Warning: card &CELL ignored
Warning: card   CELL_DYNAMICS='IPI', ignored
Warning: card / ignored

     Current dimensions of program PWSCF are:
     Max number of different atomic species (ntypx) = 10
     Max number of k-points (npk) =  40000
     Max angular momentum in pseudopotentials (lmaxx) =  3
     Presently no symmetry can be used with electric field

     Message from routine cell_base_init:
     DEPRECATED: use true lattice parameter, not A to a.u. conversion factor

     IMPORTANT: XC functional enforced from input :
     Exchange-correlation= BEEF-VDW
                           (   1   4  43  14   2   0   0)
     Any further DFT definition will be discarded
     Please, verify this is what you really want

  @ DRIVER MODE: Connecting to
 qe_1139763_3181310.sched-torque.pace.gatech.edu6gx1g7hw_scratch
  using UNIX socket
  @ DRIVER MODE: Message from server: STATUS
  @ DRIVER MODE: Message from server: INIT
  @ DRIVER MODE: Receiving replica           0          -1
  @ DRIVER MODE: Receiving encoded integer          25
  @ DRIVER MODE:  SCF:  T  FORCE:  T  STRESS:  F  VC:  F  ENSEMBLE:  F
  @ DRIVER MODE:  SCF:  T  FORCE:  T  STRESS:  F  VC:  F  ENSEMBLE:  F

     Using Slab Decomposition

     bravais-lattice index     =            0
     lattice parameter (alat)  =       1.8897  a.u.
     unit-cell volume          =    6658.9804 (a.u.)^3
     number of atoms/cell      =           53
     number of atomic types    =            4
     number of electrons       =       392.00
     number of Kohn-Sham states=          206
     kinetic-energy cutoff     =      29.3995  Ry
     charge density cutoff     =     293.9946  Ry
     scf convergence threshold =      7.3E-08
     mixing beta               =       0.0500
     number of iterations used =            8  plain     mixing
     Exchange-correlation= BEEF-VDW
                           (   1   4  43  14   2   0   0)

     celldm(1)=   1.889726  celldm(2)=   0.000000  celldm(3)=   0.000000
     celldm(4)=   0.000000  celldm(5)=   0.000000  celldm(6)=   0.000000

     crystal axes: (cart. coord. in units of alat)
               a(1) = (   6.579727   0.000000   0.000000 )
               a(2) = (  -0.000775   5.961596   0.000000 )
               a(3) = (   0.000000   0.000000  25.155947 )

     reciprocal axes: (cart. coord. in units 2 pi/alat)
               b(1) = (  0.151982  0.000020  0.000000 )
               b(2) = (  0.000000  0.167740  0.000000 )
               b(3) = (  0.000000  0.000000  0.039752 )

     PseudoPot. # 1 for Ti read from file:
     /storage/coda1/p-amedford6/0/shared/rich_project_chbe-medford/medford-share/data/pseudos_module/espresso/nninc/pbe/van/Ti.UPF
     MD5 check sum: 8e4df49b7f0d34bbd5052bf3f5ea0213
     Pseudo is Ultrasoft, Zval = 12.0
     Generated by new atomic code, or converted to UPF format
     Using radial grid of  851 points,  6 beta functions with:
                l(1) =   0
                l(2) =   0
                l(3) =   1
                l(4) =   1
                l(5) =   2
                l(6) =   2
     Q(r) pseudized with  8 coefficients,  rinner =    1.000   1.000   1.000
                                                       1.000   1.000

     PseudoPot. # 2 for O  read from file:
     /storage/coda1/p-amedford6/0/shared/rich_project_chbe-medford/medford-share/data/pseudos_module/espresso/nninc/pbe/van/O.UPF
     MD5 check sum: 78c19812648e8988a0fe644b0f25305e
     Pseudo is Ultrasoft, Zval =  6.0
     Generated by new atomic code, or converted to UPF format
     Using radial grid of  737 points,  4 beta functions with:
                l(1) =   0
                l(2) =   0
                l(3) =   1
                l(4) =   1
     Q(r) pseudized with  8 coefficients,  rinner =    0.800   0.800   0.800

     PseudoPot. # 3 for H  read from file:
     /storage/coda1/p-amedford6/0/shared/rich_project_chbe-medford/medford-share/data/pseudos_module/espresso/nninc/pbe/van/H.UPF
     MD5 check sum: b5ee9d7bfd3a09ee7748110bda690ff7
     Pseudo is Ultrasoft, Zval =  1.0
     Generated by new atomic code, or converted to UPF format
     Using radial grid of  615 points,  1 beta functions with:
                l(1) =   0
     Q(r) pseudized with  8 coefficients,  rinner =    0.800

     PseudoPot. # 4 for N  read from file:
     /storage/coda1/p-amedford6/0/shared/rich_project_chbe-medford/medford-share/data/pseudos_module/espresso/nninc/pbe/van/N.UPF
     MD5 check sum: 90d10febe142ad51ac9d5be1deb811c4
     Pseudo is Ultrasoft, Zval =  5.0
     Generated by new atomic code, or converted to UPF format
     Using radial grid of  729 points,  4 beta functions with:
                l(1) =   0
                l(2) =   0
                l(3) =   1
                l(4) =   1
     Q(r) pseudized with  8 coefficients,  rinner =    0.800   0.800   0.800

     atomic species   valence    mass     pseudopotential
        Ti1           12.00    47.86700     Ti( 1.00)
        O1             6.00    15.99900     O ( 1.00)
        H1             1.00     1.00800     H ( 1.00)
        N1             5.00    14.00700     N ( 1.00)

     No symmetry found

   Cartesian axes

     site n.     atom                  positions (alat units)
         1           Ti1 tau(   1) = (   0.0004258   2.9801865   6.0000000  )
         2           Ti1 tau(   2) = (   3.2906075   1.4906267   6.0002472  )
         3           O1  tau(   3) = (   0.0006271   0.0005054   7.9858123  )
         4           O1  tau(   4) = (   3.2906025   0.0005020   7.3038282  )
         5           O1  tau(   5) = (   4.5942328   1.4918067   9.2879030  )
         6           O1  tau(   6) = (   1.9868534   1.4903216   9.2879459  )
         7           Ti1 tau(   7) = (   3.2907910   2.8959150   9.1758416  )
         8           Ti1 tau(   8) = (   0.0001184   1.4796821   9.2618995  )
         9           O1  tau(   9) = (   3.3033009   5.9571037  11.3689245  )
        10           O1  tau(  10) = (   0.0046093   5.9606512  10.6148452  )
        11           O1  tau(  11) = (   1.3031693   1.4924284  12.6635891  )
        12           O1  tau(  12) = (   5.3048943   1.4931164  12.6630676  )
        13           Ti1 tau(  13) = (   0.0220873   2.9701805  12.5026553  )
        14           Ti1 tau(  14) = (   3.3209497   1.4853901  12.5165241  )
        15           O1  tau(  15) = (   0.0111090   5.9548334  14.6950652  )
        16           O1  tau(  16) = (   3.3059555   5.9578033  13.9930857  )
        17           O1  tau(  17) = (   4.5400856   1.4977043  16.1996482  )
        18           O1  tau(  18) = (   2.0449602   1.5055634  16.1912035  )
        19           Ti1 tau(  19) = (   3.3033294   2.9754315  15.7369611  )
        20           Ti1 tau(  20) = (   0.0669189   1.3514287  15.9855452  )
        21           O1  tau(  21) = (   3.2904802   0.0005063   4.7018136  )
        22           O1  tau(  22) = (   0.0169155   5.9572437  17.2386537  )
        23           O1  tau(  23) = (   1.3043587   1.4918075   6.0039043  )
        24           O1  tau(  24) = (   5.2767064   1.4903225   6.0039473  )
        25           Ti1 tau(  25) = (   0.0000382   5.9609847   6.0000000  )
        26           Ti1 tau(  26) = (   3.2902200   4.4714249   6.0002472  )
        27           O1  tau(  27) = (   0.0002396   2.9813036   7.9858123  )
        28           O1  tau(  28) = (   3.2902150   2.9813002   7.3038282  )
        29           O1  tau(  29) = (   4.5938453   4.4726049   9.2879030  )
        30           O1  tau(  30) = (   1.9864658   4.4711199   9.2879459  )
        31           Ti1 tau(  31) = (   3.2891106   5.8743827   9.1763621  )
        32           Ti1 tau(  32) = (  -0.0005703   4.4645639   9.2621285  )
        33           O1  tau(  33) = (   3.3036452   2.9764387  11.3618117  )
        34           O1  tau(  34) = (   0.0064946   2.9800876  10.6274040  )
        35           O1  tau(  35) = (   1.3025983   4.4627906  12.6614389  )
        36           O1  tau(  36) = (   5.3044333   4.4622094  12.6652126  )
        37           Ti1 tau(  37) = (   0.0242538   5.9517307  12.5043500  )
        38           Ti1 tau(  38) = (   3.3173473   4.4639239  12.5158395  )
        39           O1  tau(  39) = (   0.0133908   2.9741471  14.9664594  )
        40           O1  tau(  40) = (   3.3068033   2.9766936  13.9537582  )
        41           O1  tau(  41) = (   4.5624531   4.4468677  16.1922021  )
        42           O1  tau(  42) = (   2.0658021   4.4533190  16.1937748  )
        43           Ti1 tau(  43) = (   3.3070936   5.9559909  15.7859554  )
        44           Ti1 tau(  44) = (   6.5464735   4.5686029  15.9538643  )
        45           O1  tau(  45) = (   3.2900926   2.9813045   4.7018136  )
        46           O1  tau(  46) = (   1.3039711   4.4726057   6.0039043  )
        47           O1  tau(  47) = (   5.2763189   4.4711207   6.0039473  )
        48           H1  tau(  48) = (   6.1991321   4.2482542  18.7414658  )
        49           H1  tau(  49) = (   1.1283133   3.8395711  18.1715982  )
        50           N1  tau(  50) = (   0.1317752   3.6792193  18.0720352  )
        51           N1  tau(  51) = (   6.4315599   2.2892659  18.0961467  )
        52           H1  tau(  52) = (   5.4385218   2.1347736  18.1483859  )
        53           H1  tau(  53) = (   0.3235236   1.7579878  18.8239140  )

     number of k points=    10  Fermi-Dirac smearing, width (Ry)=  0.0073
                       cart. coord. in units 2pi/alat
        k(    1) = (   0.0000000   0.0000000   0.0000000), wk =   0.1250000
        k(    2) = (   0.0000000   0.0419351   0.0000000), wk =   0.2500000
        k(    3) = (   0.0000000  -0.0838702   0.0000000), wk =   0.1250000
        k(    4) = (   0.0379955   0.0000049   0.0000000), wk =   0.2500000
        k(    5) = (   0.0379955   0.0419400   0.0000000), wk =   0.2500000
        k(    6) = (   0.0379955  -0.0838652   0.0000000), wk =   0.2500000
        k(    7) = (   0.0379955  -0.0419301   0.0000000), wk =   0.2500000
        k(    8) = (  -0.0759910  -0.0000099   0.0000000), wk =   0.1250000
        k(    9) = (  -0.0759910   0.0419252   0.0000000), wk =   0.2500000
        k(   10) = (  -0.0759910  -0.0838800   0.0000000), wk =   0.1250000

     Initial potential from superposition of free atoms

     starting charge  375.99919, renormalised to  392.00000

     negative rho (up, down):  1.865E-02 0.000E+00

     %%%%%%%%%%%%%%%%%%%%%%%%%%%%%%%%%%%%%%%%%%%%%%%%%%%%%%%%%%%%%%%%%%%%%%%%
     %                                                                      %
     % You are using vdW-DF, which was implemented by the Thonhauser group. %
     % Please cite the following two papers that made this development      %
     % possible and the two reviews that describe the various versions:     %
     %                                                                      %
     %   T. Thonhauser et al., PRL 115, 136402 (2015).                      %
     %   T. Thonhauser et al., PRB 76, 125112 (2007).                       %
     %   K. Berland et al., Rep. Prog. Phys. 78, 066501 (2015).             %
     %   D.C. Langreth et al., J. Phys.: Condens. Matter 21, 084203 (2009). %
     %                                                                      %
     %                                                                      %
     % If you are calculating the stress with vdW-DF, please also cite:     %
     %                                                                      %
     %   R. Sabatini et al., J. Phys.: Condens. Matter 24, 424209 (2012).   %
     %                                                                      %
     %%%%%%%%%%%%%%%%%%%%%%%%%%%%%%%%%%%%%%%%%%%%%%%%%%%%%%%%%%%%%%%%%%%%%%%%

     Adding external electric field

     Computed dipole along edir(3) :
        Dipole               -7.0277 Ry au,        -17.8625 Debye
        Dipole field         -0.0133 Ry au,

        Potential amp.        1.2294 Ry
        Total length         46.3494 bohr

     Starting wfcs are  296 atomic wfcs
  @ DRIVER MODE: Message from server: STATUS
  @ DRIVER MODE: Message from server: POSDATA
  @ DRIVER MODE: Reading and sharing cell
  @ DRIVER MODE: Reading and sharing positions
  @ DRIVER MODE: Received positions

     Self-consistent Calculation

     iteration #  1     ecut=    29.40 Ry     beta= 0.05
     Davidson diagonalization with overlap
     c_bands:  1 eigenvalues not converged
     c_bands:  1 eigenvalues not converged
     c_bands:  2 eigenvalues not converged
     c_bands:  1 eigenvalues not converged
     c_bands:  1 eigenvalues not converged
     c_bands:  1 eigenvalues not converged
     ethr =  1.00E-05,  avg # of iterations = 19.6

[...]

     total energy              =   -2685.29955358 Ry
     estimated scf accuracy    <    2688.06063177 Ry

[...]

     iteration #  3     ecut=    29.40 Ry     beta= 0.05
     Davidson diagonalization with overlap
     ethr =  1.00E-02,  avg # of iterations = 14.6

[...]

     iteration # 81     ecut=    29.40 Ry     beta= 0.05
     Davidson diagonalization with overlap
     ethr =  8.66E-11,  avg # of iterations =  7.6

[...]

     total energy              =   -2928.89046181 Ry
     estimated scf accuracy    <       0.00000009 Ry

     iteration # 84     ecut=    29.40 Ry     beta= 0.05
     Davidson diagonalization with overlap
     c_bands:  1 eigenvalues not converged
     ethr =  2.40E-11,  avg # of iterations =  9.6

     negative rho (up, down):  1.642E-02 0.000E+00

     Adding external electric field

     Computed dipole along edir(3) :
        Dipole                1.6257 Ry au,          4.1322 Debye
        Dipole field          0.0031 Ry au,

        Potential amp.       -0.2844 Ry
        Total length         46.3494 bohr

     End of self-consistent calculation

          k = 0.0000 0.0000 0.0000 ( 18029 PWs)   bands (ev):

   -55.3060 -55.2700 -55.2547 -55.2206 -55.1803 -55.1747 -55.1460 -55.1195
   -55.0983 -55.0879 -55.0849 -55.0803 -55.0541 -55.0257 -54.2842 -54.2501
   -31.8782 -31.7485 -31.6943 -31.6678 -31.6232 -31.6094 -31.6040 -31.5960
   -31.5462 -31.5452 -31.5165 -31.5146 -31.5007 -31.4788 -31.4630 -31.4497
   -31.4435 -31.4242 -31.4180 -31.4063 -31.3971 -31.3717 -31.3697 -31.3589
   -31.3509 -31.3226 -31.3111 -31.3108 -31.3037 -31.2977 -31.2932 -31.2886
   -31.2829 -31.2741 -31.2717 -31.2676 -31.2619 -31.2338 -31.2184 -31.2155
   -31.1998 -31.1301 -30.6935 -30.5996 -30.5776 -30.5099 -30.4231 -30.3122
   -18.6363 -16.1471 -15.8852 -15.7503 -15.5956 -15.5039 -15.3996 -15.3421
   -15.2360 -15.1542 -15.0671 -15.0544 -15.0300 -15.0031 -14.9641 -14.9310
   -14.8465 -14.8416 -14.8187 -14.7987 -14.7969 -14.7487 -14.7398 -14.7206
   -14.7011 -14.6801 -14.5458 -14.4606 -14.3925 -14.1311 -13.3537 -12.7871
   -12.6697  -7.5653  -7.0129  -5.5442  -3.4842  -3.3195  -3.2950  -3.2371
    -3.1987  -3.0584  -2.9444  -2.7253  -2.7120  -2.6217  -2.5857  -2.5378
    -2.5157  -2.4971  -2.3311  -2.3018  -2.2886  -2.2322  -2.1715  -2.1171
    -2.1022  -2.0981  -2.0871  -2.0688  -2.0635  -1.9442  -1.8690  -1.7951
    -1.7315  -1.6985  -1.6618  -1.6531  -1.6346  -1.5943  -1.5865  -1.5562
    -1.5416  -1.4959  -1.4680  -1.3381  -1.2858  -1.2146  -1.0288  -0.9407
    -0.8949  -0.8807  -0.8471  -0.8013  -0.7876  -0.6836  -0.6715  -0.6488
    -0.6035  -0.5397  -0.4836  -0.4322  -0.3627  -0.3034  -0.2948  -0.1911
    -0.0938  -0.0842  -0.0631   0.0343   0.0695   0.1172   0.1960   0.2127
     0.2247   0.3109   0.3535   0.3897   0.4286   0.4531   0.5764   0.6204
     0.6340   0.6482   0.6526   0.6782   0.7046   0.7696   0.8002   0.8695
     0.9951   1.0987   1.1685   1.2668   1.3093   1.6419   1.6452   1.7383
     1.9222   2.3130   2.3599   3.7948   3.8637   3.9379   3.9472   3.9570
     4.0291   4.1141   4.2681   4.2921   4.3001   4.3163

[...]

          k = 0.0380-0.0419 0.0000 ( 17876 PWs)   bands (ev):

[...]

          k =-0.0760-0.0000 0.0000 ( 17886 PWs)   bands (ev):

[...]

          k =-0.0760-0.0839 0.0000 ( 17948 PWs)   bands (ev):

   -55.2881 -55.2877 -55.2379 -55.2373 -55.1705 -55.1633 -55.1630 -55.1042
   -55.1022 -55.0997 -55.0734 -55.0724 -55.0698 -55.0327 -54.2671 -54.2670
   -31.6821 -31.6803 -31.6020 -31.5899 -31.5698 -31.5638 -31.5632 -31.5314
   -31.5298 -31.5096 -31.5069 -31.5051 -31.4988 -31.4436 -31.4406 -31.4376
   -31.4329 -31.4319 -31.4301 -31.4268 -31.3964 -31.3840 -31.3803 -31.3702
   -31.3565 -31.3562 -31.3557 -31.3554 -31.3425 -31.3382 -31.3334 -31.3256
   -31.3180 -31.3134 -31.3018 -31.2979 -31.2979 -31.2892 -31.2697 -31.2548
   -31.2531 -31.2352 -30.5903 -30.5902 -30.5061 -30.5059 -30.4665 -30.4665
   -18.6213 -15.5916 -15.5707 -15.5293 -15.3350 -15.3248 -15.3117 -15.3087
   -15.2060 -15.1916 -15.1193 -15.0945 -15.0469 -15.0277 -15.0123 -15.0107
   -14.9178 -14.8983 -14.8927 -14.8903 -14.8197 -14.8115 -14.8032 -14.7942
   -14.7640 -14.7571 -14.6553 -14.6526 -14.6231 -14.6056 -13.1819 -12.7712
   -12.7712  -7.5644  -7.0379  -5.5949  -3.0670  -2.8595  -2.7858  -2.7101
    -2.5525  -2.5320  -2.4918  -2.3815  -2.3425  -2.3283  -2.3213  -2.2898
    -2.2371  -2.2184  -2.2076  -2.1466  -2.1445  -2.1245  -2.1154  -2.0897
    -2.0792  -2.0345  -2.0258  -2.0069  -1.9698  -1.9529  -1.9288  -1.9038
    -1.8986  -1.8808  -1.8228  -1.7902  -1.6820  -1.6685  -1.6051  -1.5118
    -1.5045  -1.4227  -1.3951  -1.3602  -1.3384  -1.3361  -1.2167  -1.1349
    -1.0806  -1.0493  -1.0424  -0.9332  -0.8969  -0.8152  -0.8018  -0.7885
    -0.7308  -0.6473  -0.6249  -0.6092  -0.5242  -0.4626  -0.4540  -0.3591
    -0.3366  -0.2742  -0.2605  -0.2588  -0.2167  -0.1981  -0.1716  -0.1119
    -0.0759  -0.0388  -0.0170   0.0226   0.2194   0.2402   0.2637   0.3935
     0.5118   0.5341   0.5678   0.6053   0.7001   0.7650   0.8048   0.8511
     0.9019   0.9873   0.9965   1.0913   1.0976   1.1528   1.1594   2.0948
     2.0958   2.1808   2.1816   3.9645   4.0068   4.0672   4.0968   4.1801
     4.3083   4.3239   4.3778   4.3799   4.4463   4.4505

     the Fermi energy is     3.8579 ev

!    total energy              =   -2928.89046585 Ry
     estimated scf accuracy    <       0.00000005 Ry
     smearing contrib. (-TS)   =      -0.03700691 Ry
     internal energy E=F+TS    =   -2928.85345894 Ry

     The total energy is F=E-TS. E is the sum of the following terms:
     one-electron contribution =  -24387.07057075 Ry
     hartree contribution      =   12285.06018059 Ry
     xc contribution           =    -482.75226657 Ry
     ewald contribution        =    9655.90421015 Ry
     electric field correction =       0.00498764 Ry

     convergence has been achieved in  84 iterations

     Forces acting on atoms (cartesian axes, Ry/au):

     atom    1 type  1   force =     0.00007452   -0.00017983    0.09194218
     atom    2 type  1   force =    -0.00017811   -0.00022276   -0.17806520
     atom    3 type  2   force =     0.00000568   -0.00050141   -0.02213196
     atom    4 type  2   force =     0.00002851   -0.00184529    0.05826888
     atom    5 type  2   force =    -0.01042494   -0.00081196    0.00667510
     atom    6 type  2   force =     0.01172070   -0.00036536    0.00699843
     atom    7 type  1   force =    -0.00031763    0.00235849   -0.01476890
     atom    8 type  1   force =     0.00006529    0.00001034    0.00015766
     atom    9 type  2   force =    -0.00010712   -0.00011468   -0.00082713
     atom   10 type  2   force =     0.00012334   -0.00005212    0.00051098
     atom   11 type  2   force =     0.00011561   -0.00006595   -0.00028300
     atom   12 type  2   force =    -0.00032518   -0.00005345   -0.00019709
     atom   13 type  1   force =     0.00006532    0.00019385    0.00011109
     atom   14 type  1   force =    -0.00009677   -0.00010588   -0.00013265
     atom   15 type  2   force =     0.00024343    0.00014545    0.00078507
     atom   16 type  2   force =    -0.00010231    0.00007279   -0.00032735
     atom   17 type  2   force =    -0.00024688   -0.00009408    0.00025264
     atom   18 type  2   force =     0.00060959   -0.00013621    0.00036665
     atom   19 type  1   force =     0.00002700   -0.00009549    0.00049210
     atom   20 type  1   force =    -0.00081149   -0.00053917    0.00037151
     atom   21 type  2   force =     0.00000708   -0.00002607    0.10390114
     atom   22 type  2   force =    -0.00006037    0.00035403   -0.00105141
     atom   23 type  2   force =    -0.07049116   -0.00019927   -0.02662243
     atom   24 type  2   force =     0.07033539    0.00022848   -0.02668114
     atom   25 type  1   force =     0.00003090   -0.00012768    0.09064495
     atom   26 type  1   force =    -0.00018358   -0.00036666   -0.17822301
     atom   27 type  2   force =     0.00000626   -0.00018220   -0.02113321
     atom   28 type  2   force =     0.00006289   -0.00153116    0.05748396
     atom   29 type  2   force =    -0.01050198   -0.00096711    0.00672582
     atom   30 type  2   force =     0.01166678   -0.00039041    0.00703331
     atom   31 type  1   force =    -0.00036679    0.00547371   -0.01570258
     atom   32 type  1   force =     0.00004217    0.00000972    0.00009197
     atom   33 type  2   force =    -0.00010494   -0.00008750   -0.00052543
     atom   34 type  2   force =    -0.00003098    0.00000643    0.00020595
     atom   35 type  2   force =     0.00015543   -0.00021313   -0.00015702
     atom   36 type  2   force =    -0.00036924   -0.00019038   -0.00015395
     atom   37 type  1   force =     0.00004031   -0.00007047    0.00073426
     atom   38 type  1   force =    -0.00016438   -0.00038023   -0.00010460
     atom   39 type  2   force =     0.00000696    0.00003929   -0.00007105
     atom   40 type  2   force =    -0.00039304   -0.00004348   -0.00030339
     atom   41 type  2   force =    -0.00055718    0.00005153    0.00032930
     atom   42 type  2   force =     0.00035842    0.00006738    0.00060925
     atom   43 type  1   force =    -0.00008603   -0.00004703   -0.00012925
     atom   44 type  1   force =     0.00023541    0.00097948    0.00123796
     atom   45 type  2   force =     0.00000893   -0.00004170    0.10387896
     atom   46 type  2   force =    -0.07049477   -0.00003183   -0.02666949
     atom   47 type  2   force =     0.07034786    0.00043042   -0.02670187
     atom   48 type  3   force =     0.00057151   -0.00055461    0.00038069
     atom   49 type  3   force =     0.00093341   -0.00004539    0.00007170
     atom   50 type  4   force =    -0.00144187   -0.00048942    0.00071108
     atom   51 type  4   force =     0.01441168    0.00241303    0.00005573
     atom   52 type  3   force =    -0.01490728   -0.00155958    0.00053244
     atom   53 type  3   force =     0.00046367   -0.00010546   -0.00059762

     Total force =     0.365631     Total SCF correction =     0.000471
  @ DRIVER MODE: Message from server: STATUS
  @ DRIVER MODE: Message from server: GETFORCE
  @ DRIVER MODE: Returning v,forces,stress,ensemble

     Writing output data file ./calc.save/
  @ DRIVER MODE: Message from server: EXIT
  @ DRIVE MODE: Exiting

     General routines

     Parallel routines

   This run was terminated on:   2:44:36  13Oct2021

   JOB DONE.