     Program PWSCF v.6.7GPU starts on 24Aug2021 at 16:37:48

     R & G space division:  proc/nbgrp/npool/nimage =      72
     Reading input from /storage/home/hcoda1/3/ntian30/research/carbon/CH2_vib/ads_slab/CH2NHH_a/out_0019/pw.inp
Warning: card &CELL ignored
Warning: card   CELL_DYNAMICS='IPI', ignored
Warning: card / ignored

     Current dimensions of program PWSCF are:
     Max number of different atomic species (ntypx) = 10
     Max number of k-points (npk) =  40000
     Max angular momentum in pseudopotentials (lmaxx) =  3
     Presently no symmetry can be used with electric field

     Message from routine cell_base_init:
     DEPRECATED: use true lattice parameter, not A to a.u. conversion factor

     IMPORTANT: XC functional enforced from input :
     Exchange-correlation= BEEF-VDW
                           (   1   4  43  14   2   0   0)
     Any further DFT definition will be discarded
     Please, verify this is what you really want

  @ DRIVER MODE: Connecting to
 qe_1139763_2641439.sched-torque.pace.gatech.edu09fwkszt_scratch
  using UNIX socket
  @ DRIVER MODE: Message from server: STATUS
  @ DRIVER MODE: Message from server: INIT
  @ DRIVER MODE: Receiving replica           0          -1
  @ DRIVER MODE: Receiving encoded integer          25
  @ DRIVER MODE:  SCF:  T  FORCE:  T  STRESS:  F  VC:  F  ENSEMBLE:  F
  @ DRIVER MODE:  SCF:  T  FORCE:  T  STRESS:  F  VC:  F  ENSEMBLE:  F

     Using Slab Decomposition

     bravais-lattice index     =            0
     lattice parameter (alat)  =       1.8897  a.u.
     unit-cell volume          =    6658.9804 (a.u.)^3
     number of atoms/cell      =           53
     number of atomic types    =            5
     number of electrons       =       391.00
     number of Kohn-Sham states=          205
     kinetic-energy cutoff     =      29.3995  Ry
     charge density cutoff     =     293.9946  Ry
     scf convergence threshold =      7.3E-08
     mixing beta               =       0.0500
     number of iterations used =            8  plain     mixing
     Exchange-correlation= BEEF-VDW
                           (   1   4  43  14   2   0   0)

     celldm(1)=   1.889726  celldm(2)=   0.000000  celldm(3)=   0.000000
     celldm(4)=   0.000000  celldm(5)=   0.000000  celldm(6)=   0.000000

     crystal axes: (cart. coord. in units of alat)
               a(1) = (   6.579727   0.000000   0.000000 )
               a(2) = (  -0.000775   5.961596   0.000000 )
               a(3) = (   0.000000   0.000000  25.155947 )

     reciprocal axes: (cart. coord. in units 2 pi/alat)
               b(1) = (  0.151982  0.000020  0.000000 )
               b(2) = (  0.000000  0.167740  0.000000 )
               b(3) = (  0.000000  0.000000  0.039752 )

     PseudoPot. # 1 for Ti read from file:
     /storage/coda1/p-amedford6/0/shared/rich_project_chbe-medford/medford-share/data/pseudos_module/espresso/nninc/pbe/van/Ti.UPF
     MD5 check sum: 8e4df49b7f0d34bbd5052bf3f5ea0213
     Pseudo is Ultrasoft, Zval = 12.0
     Generated by new atomic code, or converted to UPF format
     Using radial grid of  851 points,  6 beta functions with:
                l(1) =   0
                l(2) =   0
                l(3) =   1
                l(4) =   1
                l(5) =   2
                l(6) =   2
     Q(r) pseudized with  8 coefficients,  rinner =    1.000   1.000   1.000
                                                       1.000   1.000

     PseudoPot. # 2 for O  read from file:
     /storage/coda1/p-amedford6/0/shared/rich_project_chbe-medford/medford-share/data/pseudos_module/espresso/nninc/pbe/van/O.UPF
     MD5 check sum: 78c19812648e8988a0fe644b0f25305e
     Pseudo is Ultrasoft, Zval =  6.0
     Generated by new atomic code, or converted to UPF format
     Using radial grid of  737 points,  4 beta functions with:
                l(1) =   0
                l(2) =   0
                l(3) =   1
                l(4) =   1
     Q(r) pseudized with  8 coefficients,  rinner =    0.800   0.800   0.800

     PseudoPot. # 3 for N  read from file:
     /storage/coda1/p-amedford6/0/shared/rich_project_chbe-medford/medford-share/data/pseudos_module/espresso/nninc/pbe/van/N.UPF
     MD5 check sum: 90d10febe142ad51ac9d5be1deb811c4
     Pseudo is Ultrasoft, Zval =  5.0
     Generated by new atomic code, or converted to UPF format
     Using radial grid of  729 points,  4 beta functions with:
                l(1) =   0
                l(2) =   0
                l(3) =   1
                l(4) =   1
     Q(r) pseudized with  8 coefficients,  rinner =    0.800   0.800   0.800

     PseudoPot. # 4 for C  read from file:
     /storage/coda1/p-amedford6/0/shared/rich_project_chbe-medford/medford-share/data/pseudos_module/espresso/nninc/pbe/van/C.UPF
     MD5 check sum: 1a69bf6b8db32088f5b2163dbdb77a27
     Pseudo is Ultrasoft, Zval =  4.0
     Generated by new atomic code, or converted to UPF format
     Using radial grid of  721 points,  4 beta functions with:
                l(1) =   0
                l(2) =   0
                l(3) =   1
                l(4) =   1
     Q(r) pseudized with  8 coefficients,  rinner =    0.800   0.800   0.800

     PseudoPot. # 5 for H  read from file:
     /storage/coda1/p-amedford6/0/shared/rich_project_chbe-medford/medford-share/data/pseudos_module/espresso/nninc/pbe/van/H.UPF
     MD5 check sum: b5ee9d7bfd3a09ee7748110bda690ff7
     Pseudo is Ultrasoft, Zval =  1.0
     Generated by new atomic code, or converted to UPF format
     Using radial grid of  615 points,  1 beta functions with:
                l(1) =   0
     Q(r) pseudized with  8 coefficients,  rinner =    0.800

     atomic species   valence    mass     pseudopotential
        Ti1           12.00    47.86700     Ti( 1.00)
        O1             6.00    15.99900     O ( 1.00)
        N1             5.00    14.00700     N ( 1.00)
        C1             4.00    12.01100     C ( 1.00)
        H1             1.00     1.00800     H ( 1.00)

     No symmetry found

   Cartesian axes

     site n.     atom                  positions (alat units)
         1           Ti1 tau(   1) = (   0.0004258   2.9801865   6.0000000  )
         2           Ti1 tau(   2) = (   3.2906075   1.4906267   6.0002472  )
         3           O1  tau(   3) = (   0.0006271   0.0005054   7.9858123  )
         4           O1  tau(   4) = (   3.2906025   0.0005020   7.3038282  )
         5           O1  tau(   5) = (   4.5942328   1.4918067   9.2879030  )
         6           O1  tau(   6) = (   1.9868534   1.4903216   9.2879459  )
         7           Ti1 tau(   7) = (   3.2907910   2.8959150   9.1758416  )
         8           Ti1 tau(   8) = (   0.0015273   1.4827037   9.2680791  )
         9           O1  tau(   9) = (   3.2941312   5.9515177  11.3840049  )
        10           O1  tau(  10) = (   0.0116148   5.9584955  10.6183126  )
        11           O1  tau(  11) = (   1.2915503   1.4777401  12.6967708  )
        12           O1  tau(  12) = (   5.3002239   1.4803738  12.6794006  )
        13           Ti1 tau(  13) = (   0.0161863   2.9610389  12.5056540  )
        14           Ti1 tau(  14) = (   3.3199580   1.4690355  12.5397617  )
        15           O1  tau(  15) = (   6.5577523   5.8663973  14.6994336  )
        16           O1  tau(  16) = (   3.3105950   5.9380289  14.0083265  )
        17           O1  tau(  17) = (   4.5355139   1.5078041  16.1868020  )
        18           O1  tau(  18) = (   2.0231344   1.4922588  16.1350940  )
        19           Ti1 tau(  19) = (   3.2781988   2.9761027  15.7713632  )
        20           Ti1 tau(  20) = (   0.0162001   1.2772015  15.8797579  )
        21           O1  tau(  21) = (   3.2904802   0.0005063   4.7018136  )
        22           O1  tau(  22) = (   6.5682446   0.1140876  17.2519115  )
        23           O1  tau(  23) = (   1.3043587   1.4918075   6.0039043  )
        24           O1  tau(  24) = (   5.2767064   1.4903225   6.0039473  )
        25           Ti1 tau(  25) = (   0.0000382   5.9609847   6.0000000  )
        26           Ti1 tau(  26) = (   3.2902200   4.4714249   6.0002472  )
        27           O1  tau(  27) = (   0.0002396   2.9813036   7.9858123  )
        28           O1  tau(  28) = (   3.2902150   2.9813002   7.3038282  )
        29           O1  tau(  29) = (   4.5938453   4.4726049   9.2879030  )
        30           O1  tau(  30) = (   1.9864658   4.4711199   9.2879459  )
        31           Ti1 tau(  31) = (   3.2891106   5.8743827   9.1763621  )
        32           Ti1 tau(  32) = (   0.0006254   4.4649316   9.2693709  )
        33           O1  tau(  33) = (   3.2958891   2.9587481  11.3780895  )
        34           O1  tau(  34) = (   0.0092240   2.9805883  10.6323155  )
        35           O1  tau(  35) = (   1.2947421   4.4484190  12.6652604  )
        36           O1  tau(  36) = (   5.2996063   4.4466420  12.6515021  )
        37           Ti1 tau(  37) = (   0.0283143   5.9336383  12.5061025  )
        38           Ti1 tau(  38) = (   3.3214233   4.4478814  12.5310514  )
        39           O1  tau(  39) = (   6.5589476   3.0029366  14.9874712  )
        40           O1  tau(  40) = (   3.3011147   2.9794859  13.9794371  )
        41           O1  tau(  41) = (   4.5155863   4.4560770  16.2359875  )
        42           O1  tau(  42) = (   2.0187475   4.4548860  16.2131175  )
        43           Ti1 tau(  43) = (   3.3138217   5.9556645  15.8088081  )
        44           Ti1 tau(  44) = (   0.0451788   4.5003401  16.0524233  )
        45           O1  tau(  45) = (   3.2900926   2.9813045   4.7018136  )
        46           O1  tau(  46) = (   1.3039711   4.4726057   6.0039043  )
        47           O1  tau(  47) = (   5.2763189   4.4711207   6.0039473  )
        48           N1  tau(  48) = (   6.2013940   3.4221407  18.2524812  )
        49           C1  tau(  49) = (   0.6861764   3.1362451  19.0985974  )
        50           H1  tau(  50) = (   1.2250757   3.9700495  19.5149693  )
        51           H1  tau(  51) = (   1.1026790   2.1486344  19.0481404  )
        52           H1  tau(  52) = (   5.7034377   4.2789310  18.4761913  )
        53           H1  tau(  53) = (   5.5430662   2.6552022  18.1284619  )

     number of k points=    10  Fermi-Dirac smearing, width (Ry)=  0.0073
                       cart. coord. in units 2pi/alat
        k(    1) = (   0.0000000   0.0000000   0.0000000), wk =   0.1250000
        k(    2) = (   0.0000000   0.0419351   0.0000000), wk =   0.2500000
        k(    3) = (   0.0000000  -0.0838702   0.0000000), wk =   0.1250000
        k(    4) = (   0.0379955   0.0000049   0.0000000), wk =   0.2500000
        k(    5) = (   0.0379955   0.0419400   0.0000000), wk =   0.2500000
        k(    6) = (   0.0379955  -0.0838652   0.0000000), wk =   0.2500000
        k(    7) = (   0.0379955  -0.0419301   0.0000000), wk =   0.2500000
        k(    8) = (  -0.0759910  -0.0000099   0.0000000), wk =   0.1250000
        k(    9) = (  -0.0759910   0.0419252   0.0000000), wk =   0.2500000
        k(   10) = (  -0.0759910  -0.0838800   0.0000000), wk =   0.1250000

     Initial potential from superposition of free atoms

     starting charge  374.99916, renormalised to  391.00000

     negative rho (up, down):  1.684E-02 0.000E+00

     %%%%%%%%%%%%%%%%%%%%%%%%%%%%%%%%%%%%%%%%%%%%%%%%%%%%%%%%%%%%%%%%%%%%%%%%
     %                                                                      %
     % You are using vdW-DF, which was implemented by the Thonhauser group. %
     % Please cite the following two papers that made this development      %
     % possible and the two reviews that describe the various versions:     %
     %                                                                      %
     %   T. Thonhauser et al., PRL 115, 136402 (2015).                      %
     %   T. Thonhauser et al., PRB 76, 125112 (2007).                       %
     %   K. Berland et al., Rep. Prog. Phys. 78, 066501 (2015).             %
     %   D.C. Langreth et al., J. Phys.: Condens. Matter 21, 084203 (2009). %
     %                                                                      %
     %                                                                      %
     % If you are calculating the stress with vdW-DF, please also cite:     %
     %                                                                      %
     %   R. Sabatini et al., J. Phys.: Condens. Matter 24, 424209 (2012).   %
     %                                                                      %
     %%%%%%%%%%%%%%%%%%%%%%%%%%%%%%%%%%%%%%%%%%%%%%%%%%%%%%%%%%%%%%%%%%%%%%%%

     Adding external electric field

     Computed dipole along edir(3) :
        Dipole               -6.9321 Ry au,        -17.6197 Debye
        Dipole field         -0.0131 Ry au,

        Potential amp.        1.2127 Ry
        Total length         46.3494 bohr

     Starting wfcs are  296 atomic wfcs
  @ DRIVER MODE: Message from server: STATUS
  @ DRIVER MODE: Message from server: POSDATA
  @ DRIVER MODE: Reading and sharing cell
  @ DRIVER MODE: Reading and sharing positions
  @ DRIVER MODE: Received positions

     Self-consistent Calculation

     iteration #  1     ecut=    29.40 Ry     beta= 0.05
     Davidson diagonalization with overlap
     c_bands:  1 eigenvalues not converged
     ethr =  1.00E-05,  avg # of iterations = 15.4

[...]

     total energy              =   -2713.44318011 Ry
     estimated scf accuracy    <    2282.63960276 Ry

     iteration #  2     ecut=    29.40 Ry     beta= 0.05
     Davidson diagonalization with overlap
     ethr =  1.00E-02,  avg # of iterations = 18.1

[...]

     iteration # 75     ecut=    29.40 Ry     beta= 0.05
     Davidson diagonalization with overlap
     c_bands:  1 eigenvalues not converged
     ethr =  1.31E-10,  avg # of iterations = 13.8

[...]

     total energy              =   -2920.25694838 Ry
     estimated scf accuracy    <       0.00000014 Ry

     iteration # 76     ecut=    29.40 Ry     beta= 0.05
     Davidson diagonalization with overlap
     ethr =  3.67E-11,  avg # of iterations =  8.6

     negative rho (up, down):  1.610E-02 0.000E+00

     Adding external electric field

     Computed dipole along edir(3) :
        Dipole                0.8945 Ry au,          2.2736 Debye
        Dipole field          0.0017 Ry au,

        Potential amp.       -0.1565 Ry
        Total length         46.3494 bohr

     End of self-consistent calculation

          k = 0.0000 0.0000 0.0000 ( 18029 PWs)   bands (ev):

   -55.7216 -55.6856 -55.6738 -55.6397 -55.6111 -55.6019 -55.5675 -55.5460
   -55.5380 -55.5116 -55.5050 -55.4713 -55.4648 -55.3043 -54.7057 -54.6717
   -32.2869 -32.1670 -32.0899 -32.0572 -32.0424 -32.0350 -32.0316 -32.0110
   -31.9626 -31.9566 -31.9335 -31.9277 -31.9186 -31.8906 -31.8752 -31.8734
   -31.8604 -31.8493 -31.8414 -31.8262 -31.8205 -31.7883 -31.7805 -31.7766
   -31.7484 -31.7446 -31.7341 -31.7308 -31.7247 -31.7204 -31.7045 -31.7028
   -31.6943 -31.6916 -31.6713 -31.6593 -31.6569 -31.6422 -31.6330 -31.6165
   -31.5249 -31.4723 -31.1152 -31.0207 -30.9987 -30.9316 -30.8448 -30.7339
   -16.6732 -16.5287 -16.2730 -16.1130 -16.0181 -15.9217 -15.7900 -15.7623
   -15.6462 -15.5695 -15.4280 -15.3974 -15.3817 -15.3602 -15.3428 -15.3305
   -15.2694 -15.2634 -15.2435 -15.2181 -15.2146 -15.1677 -15.1630 -15.1225
   -15.0988 -15.0457 -14.9679 -14.8835 -14.8109 -14.4894 -13.2086 -13.0911
    -9.5285  -6.8628  -4.9399  -3.8861  -3.7426  -3.6743  -3.6244  -3.6157
    -3.4740  -3.3001  -3.1618  -3.1395  -3.1031  -2.9950  -2.9271  -2.9131
    -2.8885  -2.7477  -2.7339  -2.6801  -2.6516  -2.5745  -2.5698  -2.5269
    -2.5078  -2.4731  -2.4689  -2.4389  -2.2999  -2.2918  -2.2522  -2.1902
    -2.1310  -2.1282  -2.0730  -2.0538  -2.0126  -2.0035  -1.9945  -1.9512
    -1.9467  -1.9128  -1.8179  -1.7474  -1.6203  -1.5839  -1.4413  -1.3631
    -1.3154  -1.2951  -1.2143  -1.2072  -1.1476  -1.1028  -1.1014  -1.0607
    -0.9493  -0.8678  -0.8153  -0.7578  -0.7238  -0.7073  -0.6224  -0.5250
    -0.5015  -0.4891  -0.4530  -0.3532  -0.3281  -0.2672  -0.2032  -0.1909
    -0.1780  -0.0929  -0.0555   0.0172   0.0671   0.0871   0.1641   0.1863
     0.2100   0.2159   0.2466   0.2621   0.3340   0.3533   0.3782   0.4655
     0.5863   0.8284   0.8873   0.8961   1.2163   1.2212   1.3168   1.5000
     1.8932   1.9416   3.3711   3.3887   3.4529   3.5210   3.5249   3.5870
     3.6118   3.8585   3.8777   3.8857   3.9034

[...]

          k = 0.0380-0.0419 0.0000 ( 17876 PWs)   bands (ev):

[...]

          k =-0.0760-0.0000 0.0000 ( 17886 PWs)   bands (ev):

[...]

          k =-0.0760-0.0839 0.0000 ( 17948 PWs)   bands (ev):

   -55.7049 -55.7021 -55.6567 -55.6566 -55.6068 -55.5856 -55.5839 -55.5421
   -55.5304 -55.5267 -55.4885 -55.4880 -55.4627 -55.3064 -54.6887 -54.6885
   -32.0925 -32.0900 -31.9995 -31.9821 -31.9820 -31.9784 -31.9690 -31.9480
   -31.9478 -31.9315 -31.9249 -31.9178 -31.9134 -31.8740 -31.8658 -31.8626
   -31.8584 -31.8536 -31.8493 -31.8443 -31.8306 -31.8116 -31.7998 -31.7988
   -31.7805 -31.7768 -31.7764 -31.7760 -31.7634 -31.7596 -31.7431 -31.7412
   -31.7392 -31.7297 -31.7214 -31.7189 -31.6854 -31.6688 -31.6685 -31.6500
   -31.5645 -31.5270 -31.0114 -31.0113 -30.9278 -30.9276 -30.8882 -30.8882
   -16.6401 -16.0380 -15.9452 -15.9072 -15.7594 -15.7217 -15.6865 -15.6742
   -15.5518 -15.5256 -15.5000 -15.4790 -15.4436 -15.4275 -15.4205 -15.3728
   -15.3411 -15.3216 -15.3160 -15.3039 -15.2410 -15.2330 -15.2292 -15.2221
   -15.1729 -15.1693 -15.0782 -15.0752 -15.0628 -14.7749 -13.1926 -13.1925
    -9.5301  -6.8453  -4.9208  -3.2158  -3.1972  -3.1605  -3.1427  -2.9780
    -2.9099  -2.8986  -2.8741  -2.7973  -2.7555  -2.7343  -2.6935  -2.6828
    -2.6303  -2.6037  -2.5765  -2.5605  -2.5558  -2.5394  -2.5184  -2.4845
    -2.4553  -2.4524  -2.4419  -2.4017  -2.3747  -2.3608  -2.3269  -2.3173
    -2.3097  -2.2804  -2.2206  -2.1144  -2.0905  -2.0584  -1.9643  -1.9309
    -1.9261  -1.8460  -1.8157  -1.7576  -1.7545  -1.7433  -1.5968  -1.5147
    -1.4715  -1.4689  -1.4469  -1.3198  -1.3104  -1.2257  -1.2033  -1.1936
    -1.1049  -1.0804  -1.0426  -1.0172  -0.9347  -0.9094  -0.8436  -0.7553
    -0.7190  -0.7110  -0.6796  -0.6769  -0.6275  -0.6160  -0.5350  -0.4927
    -0.4565  -0.4463  -0.4053  -0.2204  -0.2036  -0.1605  -0.0320   0.0135
     0.1458   0.1634   0.2280   0.3047   0.3368   0.3909   0.4269   0.5730
     0.5828   0.6152   0.6597   0.6691   0.7288   0.7379   1.6730   1.6737
     1.7615   1.7617   3.3935   3.6198   3.6266   3.6656   3.6884   3.8409
     3.8917   3.9297   3.9558   3.9746   4.0272

     the Fermi energy is     3.4391 ev

!    total energy              =   -2920.25695780 Ry
     estimated scf accuracy    <       0.00000007 Ry
     smearing contrib. (-TS)   =      -0.04299948 Ry
     internal energy E=F+TS    =   -2920.21395832 Ry

     The total energy is F=E-TS. E is the sum of the following terms:
     one-electron contribution =  -24044.06359437 Ry
     hartree contribution      =   12108.17103687 Ry
     xc contribution           =    -480.86013156 Ry
     ewald contribution        =    9496.53722082 Ry
     electric field correction =       0.00150992 Ry

     convergence has been achieved in  76 iterations

     Forces acting on atoms (cartesian axes, Ry/au):

     atom    1 type  1   force =     0.00008874   -0.00016385    0.09318430
     atom    2 type  1   force =    -0.00020294   -0.00025179   -0.17844554
     atom    3 type  2   force =     0.00003909   -0.00036601   -0.02009233
     atom    4 type  2   force =    -0.00002023   -0.00199658    0.05916224
     atom    5 type  2   force =    -0.01041473   -0.00113192    0.00789476
     atom    6 type  2   force =     0.01197143   -0.00051545    0.00731928
     atom    7 type  1   force =    -0.00041683    0.00230365   -0.01385480
     atom    8 type  1   force =     0.00003788   -0.00144613   -0.00477321
     atom    9 type  2   force =     0.00000394   -0.00028308   -0.00033782
     atom   10 type  2   force =    -0.00082638    0.00066105    0.00151566
     atom   11 type  2   force =     0.00011137   -0.00003966    0.00025306
     atom   12 type  2   force =    -0.00008625    0.00008490    0.00033791
     atom   13 type  1   force =    -0.00057380    0.00062345   -0.00009432
     atom   14 type  1   force =     0.00025660    0.00021511    0.00009946
     atom   15 type  2   force =    -0.00017083    0.00053318    0.00041446
     atom   16 type  2   force =    -0.00016273   -0.00006290   -0.00010368
     atom   17 type  2   force =    -0.00012478   -0.00005479   -0.00003745
     atom   18 type  2   force =    -0.00020139   -0.00013470   -0.00045665
     atom   19 type  1   force =    -0.00006021    0.00006486   -0.00012425
     atom   20 type  1   force =    -0.00008091   -0.00009232   -0.00018072
     atom   21 type  2   force =     0.00001166   -0.00001909    0.10397189
     atom   22 type  2   force =    -0.00000406    0.00041827    0.00072674
     atom   23 type  2   force =    -0.07037641   -0.00011398   -0.02689595
     atom   24 type  2   force =     0.07019119    0.00031540   -0.02695459
     atom   25 type  1   force =    -0.00000779   -0.00012071    0.09259035
     atom   26 type  1   force =    -0.00017742   -0.00038922   -0.17849367
     atom   27 type  2   force =     0.00009535   -0.00027020   -0.01916013
     atom   28 type  2   force =     0.00002780   -0.00176148    0.05848165
     atom   29 type  2   force =    -0.01090342   -0.00133137    0.00842895
     atom   30 type  2   force =     0.01235583   -0.00099242    0.00777851
     atom   31 type  1   force =    -0.00022782    0.00598036   -0.01473346
     atom   32 type  1   force =     0.00005651    0.00098681   -0.00535888
     atom   33 type  2   force =    -0.00030680    0.00023834    0.00015753
     atom   34 type  2   force =    -0.00022178   -0.00291137    0.00009731
     atom   35 type  2   force =     0.00060782    0.00021967   -0.00003564
     atom   36 type  2   force =    -0.00065595    0.00017937   -0.00026264
     atom   37 type  1   force =    -0.00055337   -0.00047411   -0.00008590
     atom   38 type  1   force =     0.00016556   -0.00049916    0.00012072
     atom   39 type  2   force =     0.00003259   -0.00022142    0.00037866
     atom   40 type  2   force =    -0.00000846    0.00044953   -0.00056496
     atom   41 type  2   force =    -0.00004514    0.00049290   -0.00020393
     atom   42 type  2   force =     0.00006802    0.00055553   -0.00013575
     atom   43 type  1   force =    -0.00009750    0.00031579   -0.00069617
     atom   44 type  1   force =    -0.00051699   -0.00026105    0.00009781
     atom   45 type  2   force =     0.00000330   -0.00001909    0.10394158
     atom   46 type  2   force =    -0.07036965   -0.00004129   -0.02686403
     atom   47 type  2   force =     0.07020138    0.00038756   -0.02691403
     atom   48 type  3   force =    -0.00123203    0.00084944    0.00030043
     atom   49 type  4   force =    -0.00180958    0.00365999   -0.00159608
     atom   50 type  5   force =     0.00057255   -0.00064198   -0.00047674
     atom   51 type  5   force =     0.00299817   -0.00385776    0.00072017
     atom   52 type  5   force =     0.00043260   -0.00023584    0.00003036
     atom   53 type  5   force =     0.00052677    0.00116555   -0.00007045

     Total force =     0.366436     Total SCF correction =     0.000483
  @ DRIVER MODE: Message from server: STATUS
  @ DRIVER MODE: Message from server: GETFORCE
  @ DRIVER MODE: Returning v,forces,stress,ensemble

     Writing output data file ./calc.save/
  @ DRIVER MODE: Message from server: EXIT
  @ DRIVE MODE: Exiting

     General routines

     Parallel routines

   This run was terminated on:  16:56:17  24Aug2021

   JOB DONE.