     Program PWSCF v.6.7GPU starts on 23Sep2021 at  7:41:15

     R & G space division:  proc/nbgrp/npool/nimage =      10
     Reading input from /storage/home/hcoda1/3/ntian30/research/carbon/CxH_vib/H2O_calc/ads_slab/CH2NHNHH2O_b/out_0044/pw.inp
Warning: card &CELL ignored
Warning: card   CELL_DYNAMICS='IPI', ignored
Warning: card / ignored

     Current dimensions of program PWSCF are:
     Max number of different atomic species (ntypx) = 10
     Max number of k-points (npk) =  40000
     Max angular momentum in pseudopotentials (lmaxx) =  3
     Presently no symmetry can be used with electric field

     Message from routine cell_base_init:
     DEPRECATED: use true lattice parameter, not A to a.u. conversion factor

     IMPORTANT: XC functional enforced from input :
     Exchange-correlation= BEEF-VDW
                           (   1   4  43  14   2   0   0)
     Any further DFT definition will be discarded
     Please, verify this is what you really want

  @ DRIVER MODE: Connecting to
 qe_1139763_2937310.sched-torque.pace.gatech.eduq6m2izvq_scratch
  using UNIX socket
  @ DRIVER MODE: Message from server: STATUS
  @ DRIVER MODE: Message from server: INIT
  @ DRIVER MODE: Receiving replica           0          -1
  @ DRIVER MODE: Receiving encoded integer          25
  @ DRIVER MODE:  SCF:  T  FORCE:  T  STRESS:  F  VC:  F  ENSEMBLE:  F
  @ DRIVER MODE:  SCF:  T  FORCE:  T  STRESS:  F  VC:  F  ENSEMBLE:  F

     Using Slab Decomposition

     bravais-lattice index     =            0
     lattice parameter (alat)  =       1.8897  a.u.
     unit-cell volume          =    6658.9804 (a.u.)^3
     number of atoms/cell      =           57
     number of atomic types    =            5
     number of electrons       =       404.00
     number of Kohn-Sham states=          212
     kinetic-energy cutoff     =      29.3995  Ry
     charge density cutoff     =     293.9946  Ry
     scf convergence threshold =      7.3E-08
     mixing beta               =       0.0500
     number of iterations used =            8  plain     mixing
     Exchange-correlation= BEEF-VDW
                           (   1   4  43  14   2   0   0)

     celldm(1)=   1.889726  celldm(2)=   0.000000  celldm(3)=   0.000000
     celldm(4)=   0.000000  celldm(5)=   0.000000  celldm(6)=   0.000000

     crystal axes: (cart. coord. in units of alat)
               a(1) = (   6.579727   0.000000   0.000000 )
               a(2) = (  -0.000775   5.961596   0.000000 )
               a(3) = (   0.000000   0.000000  25.155947 )

     reciprocal axes: (cart. coord. in units 2 pi/alat)
               b(1) = (  0.151982  0.000020  0.000000 )
               b(2) = (  0.000000  0.167740  0.000000 )
               b(3) = (  0.000000  0.000000  0.039752 )

     PseudoPot. # 1 for Ti read from file:
     /storage/coda1/p-amedford6/0/shared/rich_project_chbe-medford/medford-share/data/pseudos_module/espresso/nninc/pbe/van/Ti.UPF
     MD5 check sum: 8e4df49b7f0d34bbd5052bf3f5ea0213
     Pseudo is Ultrasoft, Zval = 12.0
     Generated by new atomic code, or converted to UPF format
     Using radial grid of  851 points,  6 beta functions with:
                l(1) =   0
                l(2) =   0
                l(3) =   1
                l(4) =   1
                l(5) =   2
                l(6) =   2
     Q(r) pseudized with  8 coefficients,  rinner =    1.000   1.000   1.000
                                                       1.000   1.000

     PseudoPot. # 2 for O  read from file:
     /storage/coda1/p-amedford6/0/shared/rich_project_chbe-medford/medford-share/data/pseudos_module/espresso/nninc/pbe/van/O.UPF
     MD5 check sum: 78c19812648e8988a0fe644b0f25305e
     Pseudo is Ultrasoft, Zval =  6.0
     Generated by new atomic code, or converted to UPF format
     Using radial grid of  737 points,  4 beta functions with:
                l(1) =   0
                l(2) =   0
                l(3) =   1
                l(4) =   1
     Q(r) pseudized with  8 coefficients,  rinner =    0.800   0.800   0.800

     PseudoPot. # 3 for N  read from file:
     /storage/coda1/p-amedford6/0/shared/rich_project_chbe-medford/medford-share/data/pseudos_module/espresso/nninc/pbe/van/N.UPF
     MD5 check sum: 90d10febe142ad51ac9d5be1deb811c4
     Pseudo is Ultrasoft, Zval =  5.0
     Generated by new atomic code, or converted to UPF format
     Using radial grid of  729 points,  4 beta functions with:
                l(1) =   0
                l(2) =   0
                l(3) =   1
                l(4) =   1
     Q(r) pseudized with  8 coefficients,  rinner =    0.800   0.800   0.800

     PseudoPot. # 4 for C  read from file:
     /storage/coda1/p-amedford6/0/shared/rich_project_chbe-medford/medford-share/data/pseudos_module/espresso/nninc/pbe/van/C.UPF
     MD5 check sum: 1a69bf6b8db32088f5b2163dbdb77a27
     Pseudo is Ultrasoft, Zval =  4.0
     Generated by new atomic code, or converted to UPF format
     Using radial grid of  721 points,  4 beta functions with:
                l(1) =   0
                l(2) =   0
                l(3) =   1
                l(4) =   1
     Q(r) pseudized with  8 coefficients,  rinner =    0.800   0.800   0.800

     PseudoPot. # 5 for H  read from file:
     /storage/coda1/p-amedford6/0/shared/rich_project_chbe-medford/medford-share/data/pseudos_module/espresso/nninc/pbe/van/H.UPF
     MD5 check sum: b5ee9d7bfd3a09ee7748110bda690ff7
     Pseudo is Ultrasoft, Zval =  1.0
     Generated by new atomic code, or converted to UPF format
     Using radial grid of  615 points,  1 beta functions with:
                l(1) =   0
     Q(r) pseudized with  8 coefficients,  rinner =    0.800

     atomic species   valence    mass     pseudopotential
        Ti1           12.00    47.86700     Ti( 1.00)
        O1             6.00    15.99900     O ( 1.00)
        N1             5.00    14.00700     N ( 1.00)
        C1             4.00    12.01100     C ( 1.00)
        H1             1.00     1.00800     H ( 1.00)

     No symmetry found

   Cartesian axes

     site n.     atom                  positions (alat units)
         1           Ti1 tau(   1) = (   0.0004258   2.9801865   6.0000000  )
         2           Ti1 tau(   2) = (   3.2906075   1.4906267   6.0002472  )
         3           O1  tau(   3) = (   0.0006271   0.0005054   7.9858123  )
         4           O1  tau(   4) = (   3.2906025   0.0005020   7.3038282  )
         5           O1  tau(   5) = (   4.5942328   1.4918067   9.2879030  )
         6           O1  tau(   6) = (   1.9868534   1.4903216   9.2879459  )
         7           Ti1 tau(   7) = (   3.2907910   2.8959150   9.1758416  )
         8           Ti1 tau(   8) = (   0.0015273   1.4827037   9.2680791  )
         9           O1  tau(   9) = (   3.2740695   5.9399032  11.3612631  )
        10           O1  tau(  10) = (   0.0116148   5.9584955  10.6183126  )
        11           O1  tau(  11) = (   1.2665466   1.4659349  12.6457467  )
        12           O1  tau(  12) = (   5.2636777   1.4644475  12.6520517  )
        13           Ti1 tau(  13) = (   0.0254019   2.9535957  12.5508080  )
        14           Ti1 tau(  14) = (   3.3235577   1.4585364  12.5144190  )
        15           O1  tau(  15) = (   0.0066209   5.9388471  14.7046414  )
        16           O1  tau(  16) = (   3.2471877   5.9405099  14.0100224  )
        17           O1  tau(  17) = (   4.5302733   1.5208160  16.0462967  )
        18           O1  tau(  18) = (   1.9955500   1.4995475  16.2009832  )
        19           Ti1 tau(  19) = (   3.2567830   2.9699832  15.6929747  )
        20           Ti1 tau(  20) = (   6.4949666   1.4732860  15.8443191  )
        21           O1  tau(  21) = (   3.2904802   0.0005063   4.7018136  )
        22           O1  tau(  22) = (   6.4419287   5.8812218  17.2824568  )
        23           O1  tau(  23) = (   1.3043587   1.4918075   6.0039043  )
        24           O1  tau(  24) = (   5.2767064   1.4903225   6.0039473  )
        25           Ti1 tau(  25) = (   0.0000382   5.9609847   6.0000000  )
        26           Ti1 tau(  26) = (   3.2902200   4.4714249   6.0002472  )
        27           O1  tau(  27) = (   0.0002396   2.9813036   7.9858123  )
        28           O1  tau(  28) = (   3.2902150   2.9813002   7.3038282  )
        29           O1  tau(  29) = (   4.5938453   4.4726049   9.2879030  )
        30           O1  tau(  30) = (   1.9864658   4.4711199   9.2879459  )
        31           Ti1 tau(  31) = (   3.2891106   5.8743827   9.1763621  )
        32           Ti1 tau(  32) = (   0.0006254   4.4649316   9.2693709  )
        33           O1  tau(  33) = (   3.2800166   2.9600013  11.3546200  )
        34           O1  tau(  34) = (   0.0092240   2.9805883  10.6323155  )
        35           O1  tau(  35) = (   1.2663080   4.4508225  12.6496728  )
        36           O1  tau(  36) = (   5.2650692   4.4524444  12.6537221  )
        37           Ti1 tau(  37) = (   0.0180281   5.9297397  12.5120547  )
        38           Ti1 tau(  38) = (   3.3242103   4.4456960  12.5094407  )
        39           O1  tau(  39) = (   0.0028395   2.9305241  14.7702868  )
        40           O1  tau(  40) = (   3.2369197   2.9632653  13.9133312  )
        41           O1  tau(  41) = (   4.5259019   4.3784886  16.1008109  )
        42           O1  tau(  42) = (   2.0017919   4.4285960  16.1845674  )
        43           Ti1 tau(  43) = (   3.2453488   5.9423767  15.8283900  )
        44           Ti1 tau(  44) = (   6.5728488   4.6138345  16.0446011  )
        45           O1  tau(  45) = (   3.2900926   2.9813045   4.7018136  )
        46           O1  tau(  46) = (   1.3039711   4.4726057   6.0039043  )
        47           O1  tau(  47) = (   5.2763189   4.4711207   6.0039473  )
        48           N1  tau(  48) = (   0.9567011   2.5879941  18.4848429  )
        49           N1  tau(  49) = (   6.5185693   2.8362889  17.6364570  )
        50           C1  tau(  50) = (   1.0658718   2.8740630  19.7563100  )
        51           H1  tau(  51) = (   1.9437682   2.5238050  20.2723566  )
        52           H1  tau(  52) = (   0.2809834   3.4210577  20.2544045  )
        53           H1  tau(  53) = (   1.7014144   2.0656717  17.9989220  )
        54           H1  tau(  54) = (   5.6742842   3.0275795  18.1730567  )
        55           O1  tau(  55) = (   3.7718585   0.1297276  18.3074903  )
        56           H1  tau(  56) = (   4.7330396   0.0541995  18.1289380  )
        57           H1  tau(  57) = (   3.4892521   5.2388606  18.6788193  )

     number of k points=    10  Fermi-Dirac smearing, width (Ry)=  0.0073
                       cart. coord. in units 2pi/alat
        k(    1) = (   0.0000000   0.0000000   0.0000000), wk =   0.1250000
        k(    2) = (   0.0000000   0.0419351   0.0000000), wk =   0.2500000
        k(    3) = (   0.0000000  -0.0838702   0.0000000), wk =   0.1250000
        k(    4) = (   0.0379955   0.0000049   0.0000000), wk =   0.2500000
        k(    5) = (   0.0379955   0.0419400   0.0000000), wk =   0.2500000
        k(    6) = (   0.0379955  -0.0838652   0.0000000), wk =   0.2500000
        k(    7) = (   0.0379955  -0.0419301   0.0000000), wk =   0.2500000
        k(    8) = (  -0.0759910  -0.0000099   0.0000000), wk =   0.1250000
        k(    9) = (  -0.0759910   0.0419252   0.0000000), wk =   0.2500000
        k(   10) = (  -0.0759910  -0.0838800   0.0000000), wk =   0.1250000

     Initial potential from superposition of free atoms

     starting charge  387.99913, renormalised to  404.00000

     negative rho (up, down):  1.394E-02 0.000E+00

     %%%%%%%%%%%%%%%%%%%%%%%%%%%%%%%%%%%%%%%%%%%%%%%%%%%%%%%%%%%%%%%%%%%%%%%%
     %                                                                      %
     % You are using vdW-DF, which was implemented by the Thonhauser group. %
     % Please cite the following two papers that made this development      %
     % possible and the two reviews that describe the various versions:     %
     %                                                                      %
     %   T. Thonhauser et al., PRL 115, 136402 (2015).                      %
     %   T. Thonhauser et al., PRB 76, 125112 (2007).                       %
     %   K. Berland et al., Rep. Prog. Phys. 78, 066501 (2015).             %
     %   D.C. Langreth et al., J. Phys.: Condens. Matter 21, 084203 (2009). %
     %                                                                      %
     %                                                                      %
     % If you are calculating the stress with vdW-DF, please also cite:     %
     %                                                                      %
     %   R. Sabatini et al., J. Phys.: Condens. Matter 24, 424209 (2012).   %
     %                                                                      %
     %%%%%%%%%%%%%%%%%%%%%%%%%%%%%%%%%%%%%%%%%%%%%%%%%%%%%%%%%%%%%%%%%%%%%%%%

     Adding external electric field

     Computed dipole along edir(3) :
        Dipole              -14.1772 Ry au,        -36.0349 Debye
        Dipole field         -0.0268 Ry au,

        Potential amp.        2.4801 Ry
        Total length         46.3494 bohr

     Starting wfcs are  306 atomic wfcs
  @ DRIVER MODE: Message from server: STATUS
  @ DRIVER MODE: Message from server: POSDATA
  @ DRIVER MODE: Reading and sharing cell
  @ DRIVER MODE: Reading and sharing positions
  @ DRIVER MODE: Received positions

     Self-consistent Calculation

     iteration #  1     ecut=    29.40 Ry     beta= 0.05
     Davidson diagonalization with overlap
     c_bands:  4 eigenvalues not converged
     c_bands:  2 eigenvalues not converged
     c_bands:  2 eigenvalues not converged
     c_bands:  2 eigenvalues not converged
     c_bands:  1 eigenvalues not converged
     c_bands:  5 eigenvalues not converged
     c_bands:  2 eigenvalues not converged
     c_bands:  4 eigenvalues not converged
     c_bands:  1 eigenvalues not converged
     c_bands:  1 eigenvalues not converged
     ethr =  1.00E-05,  avg # of iterations = 30.0

[...]

     total energy              =   -2249.24513498 Ry
     estimated scf accuracy    <    8255.62556997 Ry

     iteration #  2     ecut=    29.40 Ry     beta= 0.05
     Davidson diagonalization with overlap
     ethr =  1.00E-02,  avg # of iterations = 26.7

[...]

     iteration # 80     ecut=    29.40 Ry     beta= 0.05
     Davidson diagonalization with overlap
     c_bands:  1 eigenvalues not converged
     ethr =  5.78E-11,  avg # of iterations = 13.7

[...]

     total energy              =   -2975.20147084 Ry
     estimated scf accuracy    <       0.00000011 Ry

     iteration # 81     ecut=    29.40 Ry     beta= 0.05
     Davidson diagonalization with overlap
     ethr =  2.72E-11,  avg # of iterations =  8.5

     negative rho (up, down):  1.354E-02 0.000E+00

     Adding external electric field

     Computed dipole along edir(3) :
        Dipole                1.4209 Ry au,          3.6116 Debye
        Dipole field          0.0027 Ry au,

        Potential amp.       -0.2486 Ry
        Total length         46.3494 bohr

     End of self-consistent calculation

          k = 0.0000 0.0000 0.0000 ( 18029 PWs)   bands (ev):

   -55.1451 -55.1166 -55.1084 -55.0825 -55.0801 -55.0310 -54.9891 -54.9565
   -54.9413 -54.9254 -54.9212 -54.9175 -54.9082 -54.8349 -54.1294 -54.0953
   -31.7081 -31.6064 -31.5241 -31.4810 -31.4600 -31.4559 -31.4456 -31.4433
   -31.4064 -31.3867 -31.3644 -31.3609 -31.3448 -31.3225 -31.3057 -31.2920
   -31.2862 -31.2694 -31.2667 -31.2576 -31.2279 -31.2150 -31.2111 -31.1862
   -31.1788 -31.1736 -31.1641 -31.1583 -31.1568 -31.1495 -31.1379 -31.1360
   -31.1141 -31.1057 -31.1019 -31.0927 -31.0852 -31.0726 -31.0701 -31.0515
   -31.0494 -31.0150 -30.5379 -30.4458 -30.4236 -30.3545 -30.2678 -30.1568
   -19.2638 -18.6205 -15.9621 -15.6974 -15.5664 -15.4005 -15.3369 -15.1657
   -15.0848 -15.0198 -14.9341 -14.8759 -14.8616 -14.8555 -14.7631 -14.7449
   -14.6920 -14.6799 -14.6732 -14.6421 -14.6341 -14.5766 -14.5720 -14.5670
   -14.5327 -14.5199 -14.4899 -14.3721 -14.2917 -14.2349 -14.0214 -13.6707
   -12.6318 -12.5147 -10.0215  -6.8276  -6.4886  -6.4227  -4.0762  -3.9025
    -3.3134  -3.1705  -3.1521  -3.0684  -3.0458  -2.9166  -2.8665  -2.7038
    -2.5975  -2.5004  -2.4109  -2.3407  -2.3331  -2.3048  -2.1884  -2.1258
    -2.0798  -2.0365  -2.0180  -2.0055  -1.9566  -1.9208  -1.9184  -1.8528
    -1.8503  -1.7123  -1.6184  -1.6136  -1.5794  -1.5634  -1.4751  -1.4520
    -1.4426  -1.4364  -1.4297  -1.4225  -1.3882  -1.3434  -1.3188  -1.2365
    -1.1813  -1.1377  -1.0067  -0.9054  -0.8331  -0.7748  -0.6862  -0.6830
    -0.6155  -0.5501  -0.5353  -0.5337  -0.4732  -0.3521  -0.3070  -0.2558
    -0.2342  -0.2086  -0.1199  -0.1027  -0.0330   0.0404   0.0681   0.0782
     0.1000   0.2729   0.2808   0.3100   0.3288   0.4183   0.4710   0.5128
     0.5191   0.5416   0.6080   0.6464   0.7377   0.7852   0.7959   0.8167
     0.8383   0.8781   0.9547   0.9647   1.0053   1.0286   1.1703   1.2057
     1.2593   1.4749   1.4769   1.8061   1.8462   1.8932   2.0794   2.4677
     2.5151   3.9544   4.0440   4.0832   4.0849   4.1039   4.1895   4.3231
     4.4355   4.4461   4.4582   4.4801

[...]

          k = 0.0380-0.0419 0.0000 ( 17876 PWs)   bands (ev):

[...]

          k =-0.0760-0.0000 0.0000 ( 17886 PWs)   bands (ev):

[...]

          k =-0.0760-0.0839 0.0000 ( 17948 PWs)   bands (ev):

   -55.1303 -55.1230 -55.0997 -55.0993 -55.0782 -55.0220 -54.9981 -54.9416
   -54.9352 -54.9268 -54.9255 -54.9246 -54.9144 -54.8383 -54.1124 -54.1122
   -31.5165 -31.5082 -31.4234 -31.4217 -31.4213 -31.4061 -31.3920 -31.3915
   -31.3675 -31.3648 -31.3603 -31.3535 -31.3426 -31.3122 -31.2824 -31.2756
   -31.2749 -31.2744 -31.2700 -31.2643 -31.2573 -31.2394 -31.2252 -31.2226
   -31.2194 -31.2191 -31.2187 -31.1974 -31.1748 -31.1662 -31.1640 -31.1554
   -31.1494 -31.1469 -31.1448 -31.1435 -31.1418 -31.1125 -31.1062 -31.1044
   -31.0890 -31.0588 -30.4363 -30.4362 -30.3506 -30.3504 -30.3112 -30.3111
   -19.2611 -18.6201 -15.4563 -15.2991 -15.2860 -15.1345 -15.1202 -15.1119
   -15.0874 -15.0123 -14.9935 -14.9295 -14.9165 -14.8727 -14.8463 -14.8335
   -14.8225 -14.7290 -14.7217 -14.7154 -14.6996 -14.6491 -14.6370 -14.6198
   -14.5966 -14.5925 -14.5556 -14.4912 -14.4880 -14.4555 -14.2217 -13.6816
   -12.6164 -12.6163 -10.0244  -6.8213  -6.4959  -6.4108  -4.0518  -3.8895
    -2.9236  -2.7213  -2.5285  -2.5077  -2.4647  -2.3676  -2.3263  -2.2857
    -2.1894  -2.1401  -2.1245  -2.1027  -2.0891  -2.0300  -2.0252  -2.0229
    -1.9864  -1.9780  -1.9639  -1.9390  -1.9160  -1.8836  -1.8689  -1.8581
    -1.8454  -1.8063  -1.7865  -1.7582  -1.7451  -1.7157  -1.6993  -1.6303
    -1.5262  -1.4968  -1.4432  -1.3500  -1.3319  -1.3261  -1.2411  -1.2100
    -1.1957  -1.1802  -1.1663  -1.1041  -0.9692  -0.8803  -0.8702  -0.8189
    -0.7531  -0.7190  -0.6764  -0.6493  -0.6210  -0.5667  -0.5176  -0.4928
    -0.4199  -0.3672  -0.3607  -0.3281  -0.1822  -0.1583  -0.1110  -0.1087
    -0.0942  -0.0855   0.0045   0.0211   0.0654   0.0852   0.1252   0.1436
     0.2165   0.2328   0.3525   0.4229   0.4843   0.5904   0.7310   0.7447
     0.8164   0.8776   0.9166   0.9822   1.0400   1.0739   1.1554   1.1655
     1.1819   1.2832   1.3325   1.3390   1.3561   2.2518   2.2534   2.3351
     2.3352   4.1168   4.1393   4.2284   4.2422   4.2944   4.3773   4.4666
     4.4932   4.5285   4.5325   4.6102

     the Fermi energy is     4.0026 ev

!    total energy              =   -2975.20147817 Ry
     estimated scf accuracy    <       0.00000007 Ry
     smearing contrib. (-TS)   =      -0.03820628 Ry
     internal energy E=F+TS    =   -2975.16327189 Ry

     The total energy is F=E-TS. E is the sum of the following terms:
     one-electron contribution =  -23646.42320887 Ry
     hartree contribution      =   11921.38025484 Ry
     xc contribution           =    -494.98104125 Ry
     ewald contribution        =    9244.85691320 Ry
     electric field correction =       0.00381018 Ry

     convergence has been achieved in  81 iterations

     Forces acting on atoms (cartesian axes, Ry/au):

     atom    1 type  1   force =     0.00014033   -0.00013179    0.09420718
     atom    2 type  1   force =    -0.00023104   -0.00025916   -0.17731440
     atom    3 type  2   force =     0.00001570   -0.00026104   -0.02170871
     atom    4 type  2   force =    -0.00004321   -0.00184687    0.05694262
     atom    5 type  2   force =    -0.01105598   -0.00172097    0.00686712
     atom    6 type  2   force =     0.01214238   -0.00091519    0.00493439
     atom    7 type  1   force =    -0.00121949    0.00155685   -0.01218108
     atom    8 type  1   force =     0.00072708    0.00496521    0.00605650
     atom    9 type  2   force =     0.00026502    0.00050726    0.00032231
     atom   10 type  2   force =    -0.00307258   -0.00067410   -0.00507587
     atom   11 type  2   force =     0.00080706    0.00020869   -0.00025109
     atom   12 type  2   force =    -0.00006852    0.00050633   -0.00000405
     atom   13 type  1   force =    -0.00021146    0.00010080   -0.00006133
     atom   14 type  1   force =    -0.00000365    0.00013608   -0.00011658
     atom   15 type  2   force =    -0.00005699    0.00006099    0.00019016
     atom   16 type  2   force =     0.00039826    0.00035342   -0.00004742
     atom   17 type  2   force =     0.00019717   -0.00001556    0.00020304
     atom   18 type  2   force =     0.00016743   -0.00030178    0.00032094
     atom   19 type  1   force =     0.00041556    0.00032567   -0.00013297
     atom   20 type  1   force =    -0.00006080    0.00032708    0.00026163
     atom   21 type  2   force =     0.00004933    0.00002609    0.10369729
     atom   22 type  2   force =     0.00125226   -0.00018308   -0.00074824
     atom   23 type  2   force =    -0.07083375   -0.00009452   -0.02718802
     atom   24 type  2   force =     0.07066852    0.00038920   -0.02722586
     atom   25 type  1   force =    -0.00006336   -0.00027696    0.09393207
     atom   26 type  1   force =    -0.00031679   -0.00035335   -0.17748498
     atom   27 type  2   force =     0.00000698   -0.00022934   -0.02074658
     atom   28 type  2   force =     0.00003474   -0.00148605    0.05597149
     atom   29 type  2   force =    -0.01132872   -0.00053257    0.00690260
     atom   30 type  2   force =     0.01228916   -0.00025394    0.00492026
     atom   31 type  1   force =    -0.00121038    0.00506579   -0.01496555
     atom   32 type  1   force =     0.00092796   -0.00601905    0.00588589
     atom   33 type  2   force =     0.00035380   -0.00013379    0.00011183
     atom   34 type  2   force =    -0.00261055   -0.00151197   -0.00578325
     atom   35 type  2   force =     0.00036469    0.00030594   -0.00031862
     atom   36 type  2   force =     0.00044045    0.00040952   -0.00008070
     atom   37 type  1   force =    -0.00016259   -0.00015280   -0.00014964
     atom   38 type  1   force =     0.00004955    0.00030935    0.00042982
     atom   39 type  2   force =     0.00011067    0.00083971   -0.00082704
     atom   40 type  2   force =     0.00002787   -0.00008325    0.00003177
     atom   41 type  2   force =     0.00085128    0.00037306    0.00048054
     atom   42 type  2   force =    -0.00069816    0.00029373    0.00006667
     atom   43 type  1   force =     0.00068203   -0.00068110   -0.00018300
     atom   44 type  1   force =     0.00004038    0.00026229   -0.00028602
     atom   45 type  2   force =     0.00001801   -0.00002218    0.10368350
     atom   46 type  2   force =    -0.07082442   -0.00000088   -0.02720433
     atom   47 type  2   force =     0.07065329    0.00040567   -0.02719971
     atom   48 type  3   force =    -0.00074654    0.00012729    0.00027863
     atom   49 type  3   force =     0.00029072    0.00007019   -0.00084538
     atom   50 type  4   force =     0.00025333   -0.00013773    0.00018376
     atom   51 type  5   force =    -0.00011116   -0.00008755    0.00019197
     atom   52 type  5   force =     0.00031471   -0.00064778   -0.00018699
     atom   53 type  5   force =    -0.00052294    0.00067421    0.00034741
     atom   54 type  5   force =     0.00091859    0.00047154    0.00019787
     atom   55 type  2   force =    -0.01923060   -0.00259910    0.00513271
     atom   56 type  5   force =     0.01604603   -0.00254407   -0.00278718
     atom   57 type  5   force =     0.00276333    0.00508557   -0.00164738

     Total force =     0.366665     Total SCF correction =     0.000533
  @ DRIVER MODE: Message from server: STATUS
  @ DRIVER MODE: Message from server: GETFORCE
  @ DRIVER MODE: Returning v,forces,stress,ensemble

     Writing output data file ./calc.save/
  @ DRIVER MODE: Message from server: EXIT
  @ DRIVE MODE: Exiting

     General routines

     Parallel routines

   This run was terminated on:   8: 2:36  23Sep2021

   JOB DONE.