     Program PWSCF v.6.7GPU starts on 16Sep2021 at  9:40:47

     R & G space division:  proc/nbgrp/npool/nimage =      10
     Reading input from /storage/home/hcoda1/3/ntian30/research/carbon/CxH_vib/H2O_calc/ads_slab/CH3NHNH2H2O_a/out_0051/pw.inp
Warning: card &CELL ignored
Warning: card   CELL_DYNAMICS='IPI', ignored
Warning: card / ignored

     Current dimensions of program PWSCF are:
     Max number of different atomic species (ntypx) = 10
     Max number of k-points (npk) =  40000
     Max angular momentum in pseudopotentials (lmaxx) =  3
     Presently no symmetry can be used with electric field

     Message from routine cell_base_init:
     DEPRECATED: use true lattice parameter, not A to a.u. conversion factor

     IMPORTANT: XC functional enforced from input :
     Exchange-correlation= BEEF-VDW
                           (   1   4  43  14   2   0   0)
     Any further DFT definition will be discarded
     Please, verify this is what you really want

  @ DRIVER MODE: Connecting to
 qe_1139763_2852619.sched-torque.pace.gatech.educ3b1rx9x_scratch
  using UNIX socket
  @ DRIVER MODE: Message from server: STATUS
  @ DRIVER MODE: Message from server: INIT
  @ DRIVER MODE: Receiving replica           0          -1
  @ DRIVER MODE: Receiving encoded integer          25
  @ DRIVER MODE:  SCF:  T  FORCE:  T  STRESS:  F  VC:  F  ENSEMBLE:  F
  @ DRIVER MODE:  SCF:  T  FORCE:  T  STRESS:  F  VC:  F  ENSEMBLE:  F

     Using Slab Decomposition

     bravais-lattice index     =            0
     lattice parameter (alat)  =       1.8897  a.u.
     unit-cell volume          =    6658.9804 (a.u.)^3
     number of atoms/cell      =           59
     number of atomic types    =            5
     number of electrons       =       406.00
     number of Kohn-Sham states=          213
     kinetic-energy cutoff     =      29.3995  Ry
     charge density cutoff     =     293.9946  Ry
     scf convergence threshold =      7.3E-08
     mixing beta               =       0.0500
     number of iterations used =            8  plain     mixing
     Exchange-correlation= BEEF-VDW
                           (   1   4  43  14   2   0   0)

     celldm(1)=   1.889726  celldm(2)=   0.000000  celldm(3)=   0.000000
     celldm(4)=   0.000000  celldm(5)=   0.000000  celldm(6)=   0.000000

     crystal axes: (cart. coord. in units of alat)
               a(1) = (   6.579727   0.000000   0.000000 )
               a(2) = (  -0.000775   5.961596   0.000000 )
               a(3) = (   0.000000   0.000000  25.155947 )

     reciprocal axes: (cart. coord. in units 2 pi/alat)
               b(1) = (  0.151982  0.000020  0.000000 )
               b(2) = (  0.000000  0.167740  0.000000 )
               b(3) = (  0.000000  0.000000  0.039752 )

     PseudoPot. # 1 for Ti read from file:
     /storage/coda1/p-amedford6/0/shared/rich_project_chbe-medford/medford-share/data/pseudos_module/espresso/nninc/pbe/van/Ti.UPF
     MD5 check sum: 8e4df49b7f0d34bbd5052bf3f5ea0213
     Pseudo is Ultrasoft, Zval = 12.0
     Generated by new atomic code, or converted to UPF format
     Using radial grid of  851 points,  6 beta functions with:
                l(1) =   0
                l(2) =   0
                l(3) =   1
                l(4) =   1
                l(5) =   2
                l(6) =   2
     Q(r) pseudized with  8 coefficients,  rinner =    1.000   1.000   1.000
                                                       1.000   1.000

     PseudoPot. # 2 for O  read from file:
     /storage/coda1/p-amedford6/0/shared/rich_project_chbe-medford/medford-share/data/pseudos_module/espresso/nninc/pbe/van/O.UPF
     MD5 check sum: 78c19812648e8988a0fe644b0f25305e
     Pseudo is Ultrasoft, Zval =  6.0
     Generated by new atomic code, or converted to UPF format
     Using radial grid of  737 points,  4 beta functions with:
                l(1) =   0
                l(2) =   0
                l(3) =   1
                l(4) =   1
     Q(r) pseudized with  8 coefficients,  rinner =    0.800   0.800   0.800

     PseudoPot. # 3 for N  read from file:
     /storage/coda1/p-amedford6/0/shared/rich_project_chbe-medford/medford-share/data/pseudos_module/espresso/nninc/pbe/van/N.UPF
     MD5 check sum: 90d10febe142ad51ac9d5be1deb811c4
     Pseudo is Ultrasoft, Zval =  5.0
     Generated by new atomic code, or converted to UPF format
     Using radial grid of  729 points,  4 beta functions with:
                l(1) =   0
                l(2) =   0
                l(3) =   1
                l(4) =   1
     Q(r) pseudized with  8 coefficients,  rinner =    0.800   0.800   0.800

     PseudoPot. # 4 for C  read from file:
     /storage/coda1/p-amedford6/0/shared/rich_project_chbe-medford/medford-share/data/pseudos_module/espresso/nninc/pbe/van/C.UPF
     MD5 check sum: 1a69bf6b8db32088f5b2163dbdb77a27
     Pseudo is Ultrasoft, Zval =  4.0
     Generated by new atomic code, or converted to UPF format
     Using radial grid of  721 points,  4 beta functions with:
                l(1) =   0
                l(2) =   0
                l(3) =   1
                l(4) =   1
     Q(r) pseudized with  8 coefficients,  rinner =    0.800   0.800   0.800

     PseudoPot. # 5 for H  read from file:
     /storage/coda1/p-amedford6/0/shared/rich_project_chbe-medford/medford-share/data/pseudos_module/espresso/nninc/pbe/van/H.UPF
     MD5 check sum: b5ee9d7bfd3a09ee7748110bda690ff7
     Pseudo is Ultrasoft, Zval =  1.0
     Generated by new atomic code, or converted to UPF format
     Using radial grid of  615 points,  1 beta functions with:
                l(1) =   0
     Q(r) pseudized with  8 coefficients,  rinner =    0.800

     atomic species   valence    mass     pseudopotential
        Ti1           12.00    47.86700     Ti( 1.00)
        O1             6.00    15.99900     O ( 1.00)
        N1             5.00    14.00700     N ( 1.00)
        C1             4.00    12.01100     C ( 1.00)
        H1             1.00     1.00800     H ( 1.00)

     No symmetry found

   Cartesian axes

     site n.     atom                  positions (alat units)
         1           Ti1 tau(   1) = (   0.0004258   2.9801865   6.0000000  )
         2           Ti1 tau(   2) = (   3.2906075   1.4906267   6.0002472  )
         3           O1  tau(   3) = (   0.0006271   0.0005054   7.9858123  )
         4           O1  tau(   4) = (   3.2906025   0.0005020   7.3038282  )
         5           O1  tau(   5) = (   4.5942328   1.4918067   9.2879030  )
         6           O1  tau(   6) = (   1.9868534   1.4903216   9.2879459  )
         7           Ti1 tau(   7) = (   3.2907910   2.8959150   9.1758416  )
         8           Ti1 tau(   8) = (   0.0015273   1.4827037   9.2680791  )
         9           O1  tau(   9) = (   3.2683845   0.0132936  11.3796717  )
        10           O1  tau(  10) = (   0.0116148   5.9584955  10.6183126  )
        11           O1  tau(  11) = (   1.2681313   1.5011218  12.7194972  )
        12           O1  tau(  12) = (   5.2787963   1.4993765  12.6897032  )
        13           Ti1 tau(  13) = (   6.5560253   2.9823375  12.4990790  )
        14           Ti1 tau(  14) = (   3.2673924   1.4925278  12.5394213  )
        15           O1  tau(  15) = (   6.5345332   5.8735037  14.6996474  )
        16           O1  tau(  16) = (   3.2898196   5.9462848  13.9939205  )
        17           O1  tau(  17) = (   4.4957945   1.5291507  16.1605787  )
        18           O1  tau(  18) = (   1.9883785   1.5110281  16.0762771  )
        19           Ti1 tau(  19) = (   3.2526948   3.0056396  15.7740191  )
        20           Ti1 tau(  20) = (   0.0000763   1.3299063  15.8143521  )
        21           O1  tau(  21) = (   3.2904802   0.0005063   4.7018136  )
        22           O1  tau(  22) = (   6.5205728   0.2065101  17.2442985  )
        23           O1  tau(  23) = (   1.3043587   1.4918075   6.0039043  )
        24           O1  tau(  24) = (   5.2767064   1.4903225   6.0039473  )
        25           Ti1 tau(  25) = (   0.0000382   5.9609847   6.0000000  )
        26           Ti1 tau(  26) = (   3.2902200   4.4714249   6.0002472  )
        27           O1  tau(  27) = (   0.0002396   2.9813036   7.9858123  )
        28           O1  tau(  28) = (   3.2902150   2.9813002   7.3038282  )
        29           O1  tau(  29) = (   4.5938453   4.4726049   9.2879030  )
        30           O1  tau(  30) = (   1.9864658   4.4711199   9.2879459  )
        31           Ti1 tau(  31) = (   3.2891106   5.8743827   9.1763621  )
        32           Ti1 tau(  32) = (   0.0006254   4.4649316   9.2693709  )
        33           O1  tau(  33) = (   3.2688559   2.9716192  11.3757022  )
        34           O1  tau(  34) = (   0.0092240   2.9805883  10.6323155  )
        35           O1  tau(  35) = (   1.2711362   4.4646907  12.6658965  )
        36           O1  tau(  36) = (   5.2748280   4.4660984  12.6332574  )
        37           Ti1 tau(  37) = (   6.5627654   5.9477838  12.5072267  )
        38           Ti1 tau(  38) = (   3.2667511   4.4702655  12.5260729  )
        39           O1  tau(  39) = (   6.5087961   3.0586107  15.0099536  )
        40           O1  tau(  40) = (   3.2849776   3.0149387  13.9815115  )
        41           O1  tau(  41) = (   4.4906635   4.4862850  16.2792570  )
        42           O1  tau(  42) = (   1.9756856   4.4939852  16.2100911  )
        43           Ti1 tau(  43) = (   3.2747729   0.0241646  15.7895078  )
        44           Ti1 tau(  44) = (   6.5697470   4.5456975  16.1185117  )
        45           O1  tau(  45) = (   3.2900926   2.9813045   4.7018136  )
        46           O1  tau(  46) = (   1.3039711   4.4726057   6.0039043  )
        47           O1  tau(  47) = (   5.2763189   4.4711207   6.0039473  )
        48           N1  tau(  48) = (   0.9980056   3.0961469  19.0053282  )
        49           N1  tau(  49) = (   6.4063515   3.4839273  18.2229180  )
        50           C1  tau(  50) = (   1.6570833   4.2684698  19.5811903  )
        51           H1  tau(  51) = (   0.9936588   4.8902639  20.1979557  )
        52           H1  tau(  52) = (   2.4789334   3.9063689  20.1993048  )
        53           H1  tau(  53) = (   2.0598354   4.8861676  18.7819781  )
        54           H1  tau(  54) = (   0.6510520   2.5058952  19.7602174  )
        55           H1  tau(  55) = (   5.8507131   4.1735594  18.7414995  )
        56           H1  tau(  56) = (   5.8147758   2.6445292  18.1916272  )
        57           O1  tau(  57) = (   5.1718451   0.7889162  19.5681371  )
        58           H1  tau(  58) = (   5.5516362   0.5215711  18.6954158  )
        59           H1  tau(  59) = (   4.2099197   0.7512590  19.4668632  )

     number of k points=    10  Fermi-Dirac smearing, width (Ry)=  0.0073
                       cart. coord. in units 2pi/alat
        k(    1) = (   0.0000000   0.0000000   0.0000000), wk =   0.1250000
        k(    2) = (   0.0000000   0.0419351   0.0000000), wk =   0.2500000
        k(    3) = (   0.0000000  -0.0838702   0.0000000), wk =   0.1250000
        k(    4) = (   0.0379955   0.0000049   0.0000000), wk =   0.2500000
        k(    5) = (   0.0379955   0.0419400   0.0000000), wk =   0.2500000
        k(    6) = (   0.0379955  -0.0838652   0.0000000), wk =   0.2500000
        k(    7) = (   0.0379955  -0.0419301   0.0000000), wk =   0.2500000
        k(    8) = (  -0.0759910  -0.0000099   0.0000000), wk =   0.1250000
        k(    9) = (  -0.0759910   0.0419252   0.0000000), wk =   0.2500000
        k(   10) = (  -0.0759910  -0.0838800   0.0000000), wk =   0.1250000

     Initial potential from superposition of free atoms

     starting charge  389.99912, renormalised to  406.00000

     negative rho (up, down):  1.389E-02 0.000E+00

     %%%%%%%%%%%%%%%%%%%%%%%%%%%%%%%%%%%%%%%%%%%%%%%%%%%%%%%%%%%%%%%%%%%%%%%%
     %                                                                      %
     % You are using vdW-DF, which was implemented by the Thonhauser group. %
     % Please cite the following two papers that made this development      %
     % possible and the two reviews that describe the various versions:     %
     %                                                                      %
     %   T. Thonhauser et al., PRL 115, 136402 (2015).                      %
     %   T. Thonhauser et al., PRB 76, 125112 (2007).                       %
     %   K. Berland et al., Rep. Prog. Phys. 78, 066501 (2015).             %
     %   D.C. Langreth et al., J. Phys.: Condens. Matter 21, 084203 (2009). %
     %                                                                      %
     %                                                                      %
     % If you are calculating the stress with vdW-DF, please also cite:     %
     %                                                                      %
     %   R. Sabatini et al., J. Phys.: Condens. Matter 24, 424209 (2012).   %
     %                                                                      %
     %%%%%%%%%%%%%%%%%%%%%%%%%%%%%%%%%%%%%%%%%%%%%%%%%%%%%%%%%%%%%%%%%%%%%%%%

     Adding external electric field

     Computed dipole along edir(3) :
        Dipole              -16.7176 Ry au,        -42.4920 Debye
        Dipole field         -0.0315 Ry au,

        Potential amp.        2.9245 Ry
        Total length         46.3494 bohr

     Starting wfcs are  308 atomic wfcs
  @ DRIVER MODE: Message from server: STATUS
  @ DRIVER MODE: Message from server: POSDATA
  @ DRIVER MODE: Reading and sharing cell
  @ DRIVER MODE: Reading and sharing positions
  @ DRIVER MODE: Received positions

     Self-consistent Calculation

     iteration #  1     ecut=    29.40 Ry     beta= 0.05
     Davidson diagonalization with overlap
     c_bands:  2 eigenvalues not converged
     c_bands:  3 eigenvalues not converged
     c_bands:  2 eigenvalues not converged
     c_bands:  4 eigenvalues not converged
     c_bands:  1 eigenvalues not converged
     c_bands:  4 eigenvalues not converged
     c_bands:  3 eigenvalues not converged
     c_bands:  5 eigenvalues not converged
     c_bands:  3 eigenvalues not converged
     ethr =  1.00E-05,  avg # of iterations = 24.9

[...]

     total energy              =   -2136.67400450 Ry
     estimated scf accuracy    <    9692.86884367 Ry

     iteration #  2     ecut=    29.40 Ry     beta= 0.05
     Davidson diagonalization with overlap
     ethr =  1.00E-02,  avg # of iterations = 32.1

[...]

     iteration # 57     ecut=    29.40 Ry     beta= 0.05
     Davidson diagonalization with overlap
     ethr =  8.82E-11,  avg # of iterations =  5.6

[...]

     total energy              =   -2977.68371167 Ry
     estimated scf accuracy    <       0.00000011 Ry

     iteration # 58     ecut=    29.40 Ry     beta= 0.05
     Davidson diagonalization with overlap
     c_bands:  1 eigenvalues not converged
     ethr =  2.71E-11,  avg # of iterations = 14.1

     negative rho (up, down):  1.439E-02 0.000E+00

     Adding external electric field

     Computed dipole along edir(3) :
        Dipole                1.0194 Ry au,          2.5911 Debye
        Dipole field          0.0019 Ry au,

        Potential amp.       -0.1783 Ry
        Total length         46.3494 bohr

     End of self-consistent calculation

          k = 0.0000 0.0000 0.0000 ( 18029 PWs)   bands (ev):

   -55.3593 -55.3220 -55.3100 -55.2926 -55.2759 -55.2401 -55.2385 -55.2036
   -55.1825 -55.1811 -55.1482 -55.1423 -55.1086 -55.0183 -54.3421 -54.3080
   -31.9257 -31.8084 -31.8031 -31.7271 -31.6756 -31.6718 -31.6716 -31.6487
   -31.5988 -31.5946 -31.5715 -31.5689 -31.5549 -31.5388 -31.5298 -31.5262
   -31.5138 -31.5068 -31.4962 -31.4788 -31.4638 -31.4628 -31.4347 -31.4244
   -31.4168 -31.4131 -31.3929 -31.3851 -31.3686 -31.3673 -31.3625 -31.3534
   -31.3415 -31.3403 -31.3317 -31.3291 -31.2961 -31.2928 -31.2707 -31.2535
   -31.2304 -31.2283 -30.7516 -30.6571 -30.6350 -30.5680 -30.4812 -30.3703
   -18.0073 -17.6221 -16.1931 -15.9324 -15.7870 -15.6585 -15.5610 -15.4327
   -15.4133 -15.2914 -15.2212 -15.1178 -15.0663 -15.0479 -15.0120 -15.0018
   -14.9787 -14.9082 -14.9019 -14.8879 -14.8640 -14.8553 -14.8091 -14.8013
   -14.7602 -14.7358 -14.7112 -14.6125 -14.5225 -14.4477 -14.3412 -13.1275
   -12.8448 -12.7273  -9.4043  -6.2933  -5.8765  -5.7428  -4.2462  -3.5315
    -3.3828  -3.3139  -3.2778  -3.2526  -3.1190  -2.9615  -2.9177  -2.8050
    -2.7884  -2.6877  -2.6442  -2.5730  -2.5561  -2.5412  -2.3949  -2.3729
    -2.3476  -2.2805  -2.2539  -2.1868  -2.1651  -2.1550  -2.1449  -2.1216
    -2.0936  -2.0518  -1.9915  -1.9331  -1.8397  -1.8141  -1.7637  -1.7338
    -1.7134  -1.6964  -1.6509  -1.6399  -1.6002  -1.5858  -1.5658  -1.5515
    -1.3882  -1.3648  -1.2641  -1.2023  -1.1033  -0.9998  -0.9641  -0.9493
    -0.8524  -0.8340  -0.7811  -0.7410  -0.7377  -0.7031  -0.5912  -0.5285
    -0.4763  -0.4128  -0.3898  -0.3499  -0.2819  -0.1988  -0.1428  -0.1289
    -0.1145  -0.0976   0.0135   0.0259   0.0776   0.1524   0.1620   0.1682
     0.2416   0.2983   0.3686   0.3933   0.4113   0.5163   0.5319   0.5643
     0.5700   0.5998   0.6206   0.6456   0.7058   0.7362   0.8193   0.9411
     1.1325   1.2221   1.2495   1.3646   1.5725   1.5850   1.6806   1.8638
     2.2570   2.3053   3.7376   3.8088   3.8834   3.8874   3.9101   3.9739
     4.2107   4.2280   4.2426   4.2462   4.2702

[...]

          k = 0.0380-0.0419 0.0000 ( 17876 PWs)   bands (ev):

[...]

          k =-0.0760-0.0000 0.0000 ( 17886 PWs)   bands (ev):

[...]

          k =-0.0760-0.0839 0.0000 ( 17948 PWs)   bands (ev):

   -55.3456 -55.3355 -55.2932 -55.2926 -55.2913 -55.2329 -55.2280 -55.2157
   -55.1866 -55.1666 -55.1637 -55.1257 -55.1253 -55.0194 -54.3252 -54.3248
   -31.7337 -31.7258 -31.7240 -31.6393 -31.6196 -31.6184 -31.6179 -31.5842
   -31.5839 -31.5727 -31.5587 -31.5575 -31.5508 -31.5311 -31.5192 -31.5058
   -31.4994 -31.4962 -31.4947 -31.4932 -31.4863 -31.4789 -31.4467 -31.4392
   -31.4362 -31.4357 -31.4216 -31.4175 -31.4130 -31.4124 -31.4068 -31.3993
   -31.3969 -31.3797 -31.3766 -31.3742 -31.3595 -31.3565 -31.3068 -31.3063
   -31.3007 -31.2342 -30.6478 -30.6475 -30.5642 -30.5640 -30.5247 -30.5245
   -17.9961 -17.6302 -15.6739 -15.5886 -15.5677 -15.4126 -15.3610 -15.3345
   -15.3234 -15.2082 -15.1658 -15.1465 -15.1321 -15.1100 -15.0720 -15.0624
   -15.0554 -14.9923 -14.9719 -14.9631 -14.9371 -14.8833 -14.8757 -14.8677
   -14.8600 -14.8101 -14.8062 -14.7667 -14.7156 -14.7121 -14.6377 -13.1338
   -12.8288 -12.8287  -9.4093  -6.3180  -5.9049  -5.6571  -4.2238  -2.9289
    -2.8465  -2.8356  -2.8291  -2.6969  -2.6258  -2.5505  -2.5283  -2.5069
    -2.4215  -2.4089  -2.3783  -2.3529  -2.3234  -2.2842  -2.2469  -2.2396
    -2.2043  -2.1957  -2.1796  -2.1631  -2.1411  -2.1256  -2.0922  -2.0815
    -2.0673  -2.0236  -1.9981  -1.9836  -1.9629  -1.9423  -1.9348  -1.9162
    -1.8424  -1.7511  -1.7265  -1.6411  -1.5714  -1.5701  -1.5637  -1.5023
    -1.4589  -1.4204  -1.3955  -1.3782  -1.2390  -1.1678  -1.1236  -1.1093
    -1.0947  -0.9639  -0.9579  -0.8818  -0.8592  -0.8526  -0.7604  -0.7145
    -0.6759  -0.6690  -0.5823  -0.5703  -0.4943  -0.3959  -0.3738  -0.3600
    -0.3151  -0.3133  -0.2759  -0.2629  -0.1665  -0.1311  -0.1106  -0.0971
    -0.0808  -0.0389   0.1117   0.1611   0.1677   0.3003   0.3324   0.4711
     0.5008   0.5649   0.6448   0.6937   0.7459   0.7788   0.8648   0.9401
     0.9433   1.0067   1.0223   1.0883   1.1005   1.3703   2.0368   2.0373
     2.1251   2.1255   3.8856   4.0007   4.0042   4.0335   4.1555   4.1789
     4.2553   4.2829   4.3221   4.3255   4.3834

     the Fermi energy is     3.8016 ev

!    total energy              =   -2977.68377255 Ry
     estimated scf accuracy    <       0.00000007 Ry
     smearing contrib. (-TS)   =      -0.03717732 Ry
     internal energy E=F+TS    =   -2977.64659523 Ry

     The total energy is F=E-TS. E is the sum of the following terms:
     one-electron contribution =  -22681.82173054 Ry
     hartree contribution      =   11438.27909300 Ry
     xc contribution           =    -496.60860395 Ry
     ewald contribution        =    8762.50268516 Ry
     electric field correction =       0.00196111 Ry

     convergence has been achieved in  58 iterations

     Forces acting on atoms (cartesian axes, Ry/au):

     atom    1 type  1   force =     0.00024415   -0.00038423    0.09322673
     atom    2 type  1   force =     0.00002223   -0.00037942   -0.17816490
     atom    3 type  2   force =     0.00004694   -0.00041434   -0.01999795
     atom    4 type  2   force =     0.00001155   -0.00190163    0.05910292
     atom    5 type  2   force =    -0.01035700   -0.00059355    0.00861606
     atom    6 type  2   force =     0.01130180    0.00009632    0.00628210
     atom    7 type  1   force =    -0.00096722    0.00199006   -0.01424872
     atom    8 type  1   force =     0.00097623   -0.00255979   -0.00600919
     atom    9 type  2   force =     0.00016923   -0.00002279    0.00009025
     atom   10 type  2   force =    -0.00231196    0.00309281    0.00260140
     atom   11 type  2   force =     0.00043497   -0.00043007   -0.00057183
     atom   12 type  2   force =     0.00001967   -0.00041043   -0.00058036
     atom   13 type  1   force =     0.00033941   -0.00027326   -0.00020308
     atom   14 type  1   force =     0.00004472   -0.00008917   -0.00007437
     atom   15 type  2   force =     0.00000543    0.00062645   -0.00002196
     atom   16 type  2   force =     0.00030607    0.00027996   -0.00013516
     atom   17 type  2   force =     0.00040633    0.00021246    0.00038437
     atom   18 type  2   force =    -0.00052374    0.00019760   -0.00008701
     atom   19 type  1   force =    -0.00012244    0.00011419    0.00038173
     atom   20 type  1   force =    -0.00005357   -0.00004799    0.00047472
     atom   21 type  2   force =     0.00011663   -0.00011155    0.10400919
     atom   22 type  2   force =     0.00013860   -0.00027793    0.00069283
     atom   23 type  2   force =    -0.07029957   -0.00019317   -0.02688650
     atom   24 type  2   force =     0.07028078    0.00025447   -0.02689017
     atom   25 type  1   force =     0.00017324   -0.00030923    0.09241118
     atom   26 type  1   force =     0.00005582   -0.00054043   -0.17849376
     atom   27 type  2   force =     0.00008303   -0.00020983   -0.01906247
     atom   28 type  2   force =     0.00005866   -0.00173136    0.05852460
     atom   29 type  2   force =    -0.01102274   -0.00114011    0.00945178
     atom   30 type  2   force =     0.01187783   -0.00069707    0.00723551
     atom   31 type  1   force =    -0.00088119    0.00646709   -0.01490916
     atom   32 type  1   force =     0.00102032    0.00219522   -0.00641195
     atom   33 type  2   force =     0.00026071    0.00010065    0.00001477
     atom   34 type  2   force =    -0.00214736   -0.00243320   -0.00033018
     atom   35 type  2   force =     0.00029581    0.00013152   -0.00001279
     atom   36 type  2   force =     0.00023758    0.00004164    0.00050465
     atom   37 type  1   force =    -0.00009393    0.00003066   -0.00003963
     atom   38 type  1   force =     0.00014934   -0.00006728   -0.00001121
     atom   39 type  2   force =    -0.00010848   -0.00022261    0.00041410
     atom   40 type  2   force =    -0.00014316    0.00008204    0.00005258
     atom   41 type  2   force =    -0.00045284    0.00019088    0.00022711
     atom   42 type  2   force =     0.00024626   -0.00008882   -0.00015661
     atom   43 type  1   force =     0.00039444    0.00024448   -0.00005674
     atom   44 type  1   force =    -0.00007520   -0.00033840    0.00004750
     atom   45 type  2   force =     0.00012229   -0.00011049    0.10393203
     atom   46 type  2   force =    -0.07026496   -0.00013339   -0.02682880
     atom   47 type  2   force =     0.07025330    0.00027358   -0.02689379
     atom   48 type  3   force =     0.00012967    0.00037502   -0.00019593
     atom   49 type  3   force =    -0.00543967   -0.01065447   -0.00163578
     atom   50 type  4   force =    -0.00024776   -0.00014842   -0.00024142
     atom   51 type  5   force =    -0.00070864    0.00036989    0.00040238
     atom   52 type  5   force =     0.00044179   -0.00000305    0.00039317
     atom   53 type  5   force =    -0.00001919    0.00020115   -0.00046464
     atom   54 type  5   force =     0.00011525   -0.00009710   -0.00000343
     atom   55 type  5   force =    -0.00034289   -0.00048158   -0.00018352
     atom   56 type  5   force =     0.00558906    0.01046859    0.00114269
     atom   57 type  2   force =    -0.00097372   -0.00061422    0.00082422
     atom   58 type  5   force =     0.00008653   -0.00044449   -0.00017726
     atom   59 type  5   force =     0.00110155    0.00051811   -0.00146030

     Total force =     0.366658     Total SCF correction =     0.000670
  @ DRIVER MODE: Message from server: STATUS
  @ DRIVER MODE: Message from server: GETFORCE
  @ DRIVER MODE: Returning v,forces,stress,ensemble

     Writing output data file ./calc.save/
  @ DRIVER MODE: Message from server: EXIT
  @ DRIVE MODE: Exiting

     General routines

     Parallel routines

   This run was terminated on:   9:58:14  16Sep2021

   JOB DONE.