     Program PWSCF v.6.7GPU starts on 22Sep2021 at 21:34:10

     R & G space division:  proc/nbgrp/npool/nimage =      10
     Reading input from /storage/home/hcoda1/3/ntian30/research/carbon/CxH_vib/H2O_calc/ads_slab/CHNHNHHO_b/out_0017/pw.inp
Warning: card &CELL ignored
Warning: card   CELL_DYNAMICS='IPI', ignored
Warning: card / ignored

     Current dimensions of program PWSCF are:
     Max number of different atomic species (ntypx) = 10
     Max number of k-points (npk) =  40000
     Max angular momentum in pseudopotentials (lmaxx) =  3
     Presently no symmetry can be used with electric field

     Message from routine cell_base_init:
     DEPRECATED: use true lattice parameter, not A to a.u. conversion factor

     IMPORTANT: XC functional enforced from input :
     Exchange-correlation= BEEF-VDW
                           (   1   4  43  14   2   0   0)
     Any further DFT definition will be discarded
     Please, verify this is what you really want

  @ DRIVER MODE: Connecting to
 qe_1139763_2937316.sched-torque.pace.gatech.edu0gb19mnq_scratch
  using UNIX socket
  @ DRIVER MODE: Message from server: STATUS
  @ DRIVER MODE: Message from server: INIT
  @ DRIVER MODE: Receiving replica           0          -1
  @ DRIVER MODE: Receiving encoded integer          25
  @ DRIVER MODE:  SCF:  T  FORCE:  T  STRESS:  F  VC:  F  ENSEMBLE:  F
  @ DRIVER MODE:  SCF:  T  FORCE:  T  STRESS:  F  VC:  F  ENSEMBLE:  F

     Using Slab Decomposition

     bravais-lattice index     =            0
     lattice parameter (alat)  =       1.8897  a.u.
     unit-cell volume          =    6658.9804 (a.u.)^3
     number of atoms/cell      =           55
     number of atomic types    =            5
     number of electrons       =       402.00
     number of Kohn-Sham states=          211
     kinetic-energy cutoff     =      29.3995  Ry
     charge density cutoff     =     293.9946  Ry
     scf convergence threshold =      7.3E-08
     mixing beta               =       0.0500
     number of iterations used =            8  plain     mixing
     Exchange-correlation= BEEF-VDW
                           (   1   4  43  14   2   0   0)

     celldm(1)=   1.889726  celldm(2)=   0.000000  celldm(3)=   0.000000
     celldm(4)=   0.000000  celldm(5)=   0.000000  celldm(6)=   0.000000

     crystal axes: (cart. coord. in units of alat)
               a(1) = (   6.579727   0.000000   0.000000 )
               a(2) = (  -0.000775   5.961596   0.000000 )
               a(3) = (   0.000000   0.000000  25.155947 )

     reciprocal axes: (cart. coord. in units 2 pi/alat)
               b(1) = (  0.151982  0.000020  0.000000 )
               b(2) = (  0.000000  0.167740  0.000000 )
               b(3) = (  0.000000  0.000000  0.039752 )

     PseudoPot. # 1 for Ti read from file:
     /storage/coda1/p-amedford6/0/shared/rich_project_chbe-medford/medford-share/data/pseudos_module/espresso/nninc/pbe/van/Ti.UPF
     MD5 check sum: 8e4df49b7f0d34bbd5052bf3f5ea0213
     Pseudo is Ultrasoft, Zval = 12.0
     Generated by new atomic code, or converted to UPF format
     Using radial grid of  851 points,  6 beta functions with:
                l(1) =   0
                l(2) =   0
                l(3) =   1
                l(4) =   1
                l(5) =   2
                l(6) =   2
     Q(r) pseudized with  8 coefficients,  rinner =    1.000   1.000   1.000
                                                       1.000   1.000

     PseudoPot. # 2 for O  read from file:
     /storage/coda1/p-amedford6/0/shared/rich_project_chbe-medford/medford-share/data/pseudos_module/espresso/nninc/pbe/van/O.UPF
     MD5 check sum: 78c19812648e8988a0fe644b0f25305e
     Pseudo is Ultrasoft, Zval =  6.0
     Generated by new atomic code, or converted to UPF format
     Using radial grid of  737 points,  4 beta functions with:
                l(1) =   0
                l(2) =   0
                l(3) =   1
                l(4) =   1
     Q(r) pseudized with  8 coefficients,  rinner =    0.800   0.800   0.800

     PseudoPot. # 3 for N  read from file:
     /storage/coda1/p-amedford6/0/shared/rich_project_chbe-medford/medford-share/data/pseudos_module/espresso/nninc/pbe/van/N.UPF
     MD5 check sum: 90d10febe142ad51ac9d5be1deb811c4
     Pseudo is Ultrasoft, Zval =  5.0
     Generated by new atomic code, or converted to UPF format
     Using radial grid of  729 points,  4 beta functions with:
                l(1) =   0
                l(2) =   0
                l(3) =   1
                l(4) =   1
     Q(r) pseudized with  8 coefficients,  rinner =    0.800   0.800   0.800

     PseudoPot. # 4 for C  read from file:
     /storage/coda1/p-amedford6/0/shared/rich_project_chbe-medford/medford-share/data/pseudos_module/espresso/nninc/pbe/van/C.UPF
     MD5 check sum: 1a69bf6b8db32088f5b2163dbdb77a27
     Pseudo is Ultrasoft, Zval =  4.0
     Generated by new atomic code, or converted to UPF format
     Using radial grid of  721 points,  4 beta functions with:
                l(1) =   0
                l(2) =   0
                l(3) =   1
                l(4) =   1
     Q(r) pseudized with  8 coefficients,  rinner =    0.800   0.800   0.800

     PseudoPot. # 5 for H  read from file:
     /storage/coda1/p-amedford6/0/shared/rich_project_chbe-medford/medford-share/data/pseudos_module/espresso/nninc/pbe/van/H.UPF
     MD5 check sum: b5ee9d7bfd3a09ee7748110bda690ff7
     Pseudo is Ultrasoft, Zval =  1.0
     Generated by new atomic code, or converted to UPF format
     Using radial grid of  615 points,  1 beta functions with:
                l(1) =   0
     Q(r) pseudized with  8 coefficients,  rinner =    0.800

     atomic species   valence    mass     pseudopotential
        Ti1           12.00    47.86700     Ti( 1.00)
        O1             6.00    15.99900     O ( 1.00)
        N1             5.00    14.00700     N ( 1.00)
        C1             4.00    12.01100     C ( 1.00)
        H1             1.00     1.00800     H ( 1.00)

     No symmetry found

   Cartesian axes

     site n.     atom                  positions (alat units)
         1           Ti1 tau(   1) = (   0.0004258   2.9801865   6.0000000  )
         2           Ti1 tau(   2) = (   3.2906075   1.4906267   6.0002472  )
         3           O1  tau(   3) = (   0.0006271   0.0005054   7.9858123  )
         4           O1  tau(   4) = (   3.2906025   0.0005020   7.3038282  )
         5           O1  tau(   5) = (   4.5942328   1.4918067   9.2879030  )
         6           O1  tau(   6) = (   1.9868534   1.4903216   9.2879459  )
         7           Ti1 tau(   7) = (   3.2907910   2.8959150   9.1758416  )
         8           Ti1 tau(   8) = (   0.0015273   1.4827037   9.2680791  )
         9           O1  tau(   9) = (   3.2644249   0.0086278  11.2869930  )
        10           O1  tau(  10) = (   0.0116148   5.9584955  10.6183126  )
        11           O1  tau(  11) = (   1.2700591   1.4733127  12.6309263  )
        12           O1  tau(  12) = (   5.2751843   1.4954020  12.5848179  )
        13           Ti1 tau(  13) = (   6.5455424   3.1153876  12.7101385  )
        14           Ti1 tau(  14) = (   3.2833704   1.6184148  12.4736748  )
        15           O1  tau(  15) = (   6.4599305   0.0050319  14.6091115  )
        16           O1  tau(  16) = (   3.3300269   5.9263713  13.9180617  )
        17           O1  tau(  17) = (   4.5165145   1.5716339  16.0125648  )
        18           O1  tau(  18) = (   1.9127028   1.4417528  15.8564018  )
        19           Ti1 tau(  19) = (   3.2288969   3.0847727  15.7886749  )
        20           Ti1 tau(  20) = (   6.4478006   1.4606891  15.8161894  )
        21           O1  tau(  21) = (   3.2904802   0.0005063   4.7018136  )
        22           O1  tau(  22) = (   6.4882405   0.0114324  17.1415363  )
        23           O1  tau(  23) = (   1.3043587   1.4918075   6.0039043  )
        24           O1  tau(  24) = (   5.2767064   1.4903225   6.0039473  )
        25           Ti1 tau(  25) = (   0.0000382   5.9609847   6.0000000  )
        26           Ti1 tau(  26) = (   3.2902200   4.4714249   6.0002472  )
        27           O1  tau(  27) = (   0.0002396   2.9813036   7.9858123  )
        28           O1  tau(  28) = (   3.2902150   2.9813002   7.3038282  )
        29           O1  tau(  29) = (   4.5938453   4.4726049   9.2879030  )
        30           O1  tau(  30) = (   1.9864658   4.4711199   9.2879459  )
        31           Ti1 tau(  31) = (   3.2891106   5.8743827   9.1763621  )
        32           Ti1 tau(  32) = (   0.0006254   4.4649316   9.2693709  )
        33           O1  tau(  33) = (   3.2692249   2.9538419  11.2423542  )
        34           O1  tau(  34) = (   0.0092240   2.9805883  10.6323155  )
        35           O1  tau(  35) = (   1.2565178   4.4877289  12.6449601  )
        36           O1  tau(  36) = (   5.2732762   4.4628510  12.5929129  )
        37           Ti1 tau(  37) = (   6.5734634   0.1294159  12.5697125  )
        38           Ti1 tau(  38) = (   3.2704022   4.6437612  12.6513646  )
        39           O1  tau(  39) = (   6.5063912   2.9643141  14.6466205  )
        40           O1  tau(  40) = (   3.2471416   2.9787476  13.8564769  )
        41           O1  tau(  41) = (   4.5405411   4.3625105  16.0593999  )
        42           O1  tau(  42) = (   1.9254132   4.5167653  15.8604027  )
        43           Ti1 tau(  43) = (   3.1528194   0.1083906  16.0566338  )
        44           Ti1 tau(  44) = (   6.5270785   4.6226534  15.9816197  )
        45           O1  tau(  45) = (   3.2900926   2.9813045   4.7018136  )
        46           O1  tau(  46) = (   1.3039711   4.4726057   6.0039043  )
        47           O1  tau(  47) = (   5.2763189   4.4711207   6.0039473  )
        48           N1  tau(  48) = (   1.2829970   2.9130689  18.3045482  )
        49           N1  tau(  49) = (   0.1654257   2.9641015  17.4510142  )
        50           C1  tau(  50) = (   2.5260228   2.9473648  17.9388278  )
        51           H1  tau(  51) = (   3.1619500   2.8785295  18.8336233  )
        52           H1  tau(  52) = (   1.0209804   2.8219014  19.2831343  )
        53           H1  tau(  53) = (   5.9303595   2.9248499  18.0583253  )
        54           O1  tau(  54) = (   3.2854906   0.0173217  17.9285145  )
        55           H1  tau(  55) = (   4.1908827   5.7946650  18.2246816  )

     number of k points=    10  Fermi-Dirac smearing, width (Ry)=  0.0073
                       cart. coord. in units 2pi/alat
        k(    1) = (   0.0000000   0.0000000   0.0000000), wk =   0.1250000
        k(    2) = (   0.0000000   0.0419351   0.0000000), wk =   0.2500000
        k(    3) = (   0.0000000  -0.0838702   0.0000000), wk =   0.1250000
        k(    4) = (   0.0379955   0.0000049   0.0000000), wk =   0.2500000
        k(    5) = (   0.0379955   0.0419400   0.0000000), wk =   0.2500000
        k(    6) = (   0.0379955  -0.0838652   0.0000000), wk =   0.2500000
        k(    7) = (   0.0379955  -0.0419301   0.0000000), wk =   0.2500000
        k(    8) = (  -0.0759910  -0.0000099   0.0000000), wk =   0.1250000
        k(    9) = (  -0.0759910   0.0419252   0.0000000), wk =   0.2500000
        k(   10) = (  -0.0759910  -0.0838800   0.0000000), wk =   0.1250000

     Initial potential from superposition of free atoms

     starting charge  385.99915, renormalised to  402.00000

     negative rho (up, down):  1.798E-02 0.000E+00

     %%%%%%%%%%%%%%%%%%%%%%%%%%%%%%%%%%%%%%%%%%%%%%%%%%%%%%%%%%%%%%%%%%%%%%%%
     %                                                                      %
     % You are using vdW-DF, which was implemented by the Thonhauser group. %
     % Please cite the following two papers that made this development      %
     % possible and the two reviews that describe the various versions:     %
     %                                                                      %
     %   T. Thonhauser et al., PRL 115, 136402 (2015).                      %
     %   T. Thonhauser et al., PRB 76, 125112 (2007).                       %
     %   K. Berland et al., Rep. Prog. Phys. 78, 066501 (2015).             %
     %   D.C. Langreth et al., J. Phys.: Condens. Matter 21, 084203 (2009). %
     %                                                                      %
     %                                                                      %
     % If you are calculating the stress with vdW-DF, please also cite:     %
     %                                                                      %
     %   R. Sabatini et al., J. Phys.: Condens. Matter 24, 424209 (2012).   %
     %                                                                      %
     %%%%%%%%%%%%%%%%%%%%%%%%%%%%%%%%%%%%%%%%%%%%%%%%%%%%%%%%%%%%%%%%%%%%%%%%

     Adding external electric field

     Computed dipole along edir(3) :
        Dipole              -10.6920 Ry au,        -27.1763 Debye
        Dipole field         -0.0202 Ry au,

        Potential amp.        1.8704 Ry
        Total length         46.3494 bohr

     Starting wfcs are  304 atomic wfcs
  @ DRIVER MODE: Message from server: STATUS
  @ DRIVER MODE: Message from server: POSDATA
  @ DRIVER MODE: Reading and sharing cell
  @ DRIVER MODE: Reading and sharing positions
  @ DRIVER MODE: Received positions

     Self-consistent Calculation

     iteration #  1     ecut=    29.40 Ry     beta= 0.05
     Davidson diagonalization with overlap
     c_bands:  2 eigenvalues not converged
     c_bands:  4 eigenvalues not converged
     c_bands:  4 eigenvalues not converged
     c_bands:  3 eigenvalues not converged
     c_bands:  3 eigenvalues not converged
     c_bands:  3 eigenvalues not converged
     c_bands:  2 eigenvalues not converged
     c_bands:  4 eigenvalues not converged
     c_bands:  4 eigenvalues not converged
     ethr =  1.00E-05,  avg # of iterations = 21.8

[...]

     total energy              =   -2414.54475450 Ry
     estimated scf accuracy    <    6224.35990490 Ry

     iteration #  2     ecut=    29.40 Ry     beta= 0.05
     Davidson diagonalization with overlap
     ethr =  1.00E-02,  avg # of iterations = 24.9

[...]

     iteration # 36     ecut=    29.40 Ry     beta= 0.05
     Davidson diagonalization with overlap
     c_bands:  1 eigenvalues not converged
     ethr =  2.62E-07,  avg # of iterations =  8.8

[...]

     total energy              =   -2972.68732113 Ry
     estimated scf accuracy    <       0.00000010 Ry

     iteration # 72     ecut=    29.40 Ry     beta= 0.05
     Davidson diagonalization with overlap
     ethr =  2.45E-11,  avg # of iterations =  5.1

     negative rho (up, down):  1.822E-02 0.000E+00

     Adding external electric field

     Computed dipole along edir(3) :
        Dipole                0.6932 Ry au,          1.7619 Debye
        Dipole field          0.0013 Ry au,

        Potential amp.       -0.1213 Ry
        Total length         46.3494 bohr

     End of self-consistent calculation

          k = 0.0000 0.0000 0.0000 ( 18029 PWs)   bands (ev):

   -56.6075 -56.5740 -55.7184 -55.6847 -55.4149 -55.3711 -55.1435 -55.1096
   -54.9710 -54.9626 -54.9323 -54.8927 -54.8122 -54.7831 -54.7797 -54.7088
   -33.0257 -32.8798 -32.8518 -32.7858 -32.6957 -32.6528 -32.2071 -31.9410
   -31.9030 -31.9016 -31.8653 -31.8538 -31.8288 -31.6440 -31.6346 -31.6071
   -31.5722 -31.5276 -31.5148 -31.4919 -31.4674 -31.4667 -31.4482 -31.3779
   -31.3461 -31.2867 -31.2749 -31.2668 -31.2320 -31.2280 -31.1772 -31.1641
   -31.1551 -31.1128 -31.1076 -31.0943 -31.0671 -31.0615 -31.0595 -31.0228
   -31.0076 -31.0038 -30.9966 -30.9852 -30.9419 -30.9192 -30.9162 -30.9014
   -18.0552 -16.7076 -16.1534 -15.9200 -15.7974 -15.7784 -15.7699 -15.7532
   -15.5603 -15.5109 -15.4074 -15.3294 -15.3060 -15.0728 -15.0471 -14.9756
   -14.8435 -14.8081 -14.7250 -14.6991 -14.6894 -14.6086 -14.5944 -14.5083
   -14.4585 -14.4410 -14.3539 -14.2445 -14.1914 -14.0800 -14.0357 -13.6411
   -13.5346 -12.9388  -8.2748  -6.7519  -4.2815  -3.7847  -3.6178  -3.4606
    -3.3001  -3.2644  -3.1183  -3.0812  -3.0385  -3.0108  -2.9535  -2.9373
    -2.8647  -2.8443  -2.7437  -2.7070  -2.6588  -2.6400  -2.4089  -2.3503
    -2.3148  -2.3128  -2.2093  -2.1334  -2.1110  -2.1063  -2.0374  -1.9664
    -1.9085  -1.8627  -1.8453  -1.8241  -1.8009  -1.7008  -1.6152  -1.6032
    -1.5967  -1.5530  -1.4424  -1.4147  -1.3933  -1.3310  -1.2667  -1.2040
    -1.1742  -1.1516  -1.0523  -1.0427  -0.9380  -0.9110  -0.8752  -0.8208
    -0.7415  -0.7150  -0.5950  -0.5847  -0.4771  -0.4725  -0.4436  -0.4373
    -0.3389  -0.2623  -0.2034  -0.1512  -0.1271  -0.1065  -0.0477  -0.0411
    -0.0039   0.0321   0.1080   0.2004   0.2635   0.2990   0.3384   0.4968
     0.5379   0.5685   0.5821   0.6703   0.7153   0.7366   0.7693   0.8476
     0.8746   0.8774   0.9771   1.0146   1.0523   1.0787   1.1382   1.1747
     1.2031   1.3802   1.4121   1.4345   1.4543   1.5305   1.7563   1.7980
     1.9333   2.6873   2.8607   3.1302   3.2869   3.6533   3.6729   3.6914
     3.6926   3.9714   4.1413

[...]

          k = 0.0380-0.0419 0.0000 ( 17876 PWs)   bands (ev):

[...]

          k =-0.0760-0.0000 0.0000 ( 17886 PWs)   bands (ev):

[...]

          k =-0.0760-0.0839 0.0000 ( 17948 PWs)   bands (ev):

   -56.5909 -56.5904 -55.7032 -55.6997 -55.4069 -55.3790 -55.1265 -55.1264
   -54.9692 -54.9583 -54.9307 -54.8970 -54.8095 -54.7838 -54.7821 -54.7114
   -32.8658 -32.8653 -32.8435 -32.8425 -32.7394 -32.7393 -32.0298 -32.0256
   -31.9006 -31.8927 -31.8770 -31.8761 -31.7198 -31.6983 -31.6318 -31.6238
   -31.6055 -31.6004 -31.4805 -31.4804 -31.3849 -31.3456 -31.3452 -31.3070
   -31.3066 -31.2907 -31.2704 -31.2453 -31.2222 -31.2076 -31.1944 -31.1884
   -31.1718 -31.1457 -31.1424 -31.1323 -31.1182 -31.0993 -31.0773 -31.0610
   -31.0482 -31.0392 -31.0251 -31.0137 -31.0086 -30.9602 -30.9212 -30.9080
   -18.0501 -16.0722 -16.0692 -16.0176 -16.0169 -15.7696 -15.7621 -15.7012
   -15.4588 -15.4535 -15.2656 -15.1531 -15.1309 -15.0728 -15.0688 -14.9363
   -14.9165 -14.8982 -14.8105 -14.7600 -14.7271 -14.7056 -14.6410 -14.5716
   -14.4602 -14.4428 -14.4292 -14.3930 -14.3373 -14.2438 -14.2058 -13.6395
   -13.6386 -12.9596  -8.2671  -6.6707  -3.9326  -3.2918  -3.1359  -3.1350
    -3.1340  -3.1127  -2.9065  -2.8910  -2.8853  -2.7144  -2.6210  -2.6153
    -2.6117  -2.4742  -2.4422  -2.4301  -2.4174  -2.3999  -2.3278  -2.3133
    -2.3094  -2.2742  -2.2514  -2.0975  -2.0892  -2.0396  -1.9716  -1.9621
    -1.9398  -1.9060  -1.8413  -1.8036  -1.7989  -1.7814  -1.7637  -1.7436
    -1.6981  -1.6475  -1.4475  -1.4001  -1.3837  -1.3641  -1.3192  -1.3099
    -1.2909  -1.2328  -1.1949  -1.1858  -1.1605  -1.1333  -1.0625  -1.0416
    -0.9946  -0.8627  -0.8144  -0.7865  -0.7506  -0.6603  -0.6183  -0.5894
    -0.5571  -0.4737  -0.4136  -0.3796  -0.3018  -0.2643  -0.2185  -0.1934
    -0.1697  -0.1239  -0.1044   0.0031   0.0583   0.0904   0.1136   0.1989
     0.3269   0.3438   0.3983   0.4464   0.5392   0.5781   0.6554   0.6979
     0.7802   0.8588   0.9285   1.0799   1.1139   1.1708   1.2357   1.2542
     1.2559   1.2848   1.2932   1.3399   1.3610   1.4461   1.5183   1.6705
     1.7051   3.2823   3.2837   3.3413   3.3448   3.6502   3.6563   3.7592
     3.7663   4.0777   4.1279

     the Fermi energy is     2.3627 ev

!    total energy              =   -2972.68733471 Ry
     estimated scf accuracy    <       0.00000003 Ry
     smearing contrib. (-TS)   =      -0.00150195 Ry
     internal energy E=F+TS    =   -2972.68583276 Ry

     The total energy is F=E-TS. E is the sum of the following terms:
     one-electron contribution =  -24521.65845909 Ry
     hartree contribution      =   12357.13291250 Ry
     xc contribution           =    -493.18639310 Ry
     ewald contribution        =    9685.02520017 Ry
     electric field correction =       0.00090676 Ry

     convergence has been achieved in  72 iterations

     Forces acting on atoms (cartesian axes, Ry/au):

     atom    1 type  1   force =     0.00016316   -0.00061035    0.12522544
     atom    2 type  1   force =     0.00002771    0.00002871   -0.15412481
     atom    3 type  2   force =    -0.00002967   -0.00028313   -0.06552744
     atom    4 type  2   force =    -0.00011392    0.00074151    0.01448184
     atom    5 type  2   force =     0.00024274   -0.00326075   -0.01521867
     atom    6 type  2   force =     0.00027043   -0.00242467   -0.01818068
     atom    7 type  1   force =    -0.00129765   -0.00082468    0.06322823
     atom    8 type  1   force =     0.00164977    0.01846579    0.09188133
     atom    9 type  2   force =     0.00018073   -0.00021051   -0.00012587
     atom   10 type  2   force =    -0.00307588    0.00125753   -0.06788788
     atom   11 type  2   force =    -0.00036875   -0.00021304   -0.00023463
     atom   12 type  2   force =    -0.00027721    0.00042724    0.00013814
     atom   13 type  1   force =     0.00102492    0.00023915   -0.00002516
     atom   14 type  1   force =    -0.00052279    0.00069217   -0.00050741
     atom   15 type  2   force =    -0.00000733    0.00061613    0.00013541
     atom   16 type  2   force =     0.00007476    0.00020538   -0.00017658
     atom   17 type  2   force =    -0.00030405    0.00017180   -0.00012221
     atom   18 type  2   force =     0.00067240   -0.00085196   -0.00012899
     atom   19 type  1   force =     0.00015474   -0.00022257   -0.00183390
     atom   20 type  1   force =     0.00056460   -0.00035813   -0.00022636
     atom   21 type  2   force =     0.00008118    0.00004892    0.09751208
     atom   22 type  2   force =    -0.00020789    0.00022260    0.00044947
     atom   23 type  2   force =    -0.08327857    0.00001019   -0.03310906
     atom   24 type  2   force =     0.08319100    0.00045267   -0.03312931
     atom   25 type  1   force =     0.00015385   -0.00036648    0.12544835
     atom   26 type  1   force =    -0.00002462   -0.00122442   -0.15378520
     atom   27 type  2   force =    -0.00002123   -0.00014824   -0.06361746
     atom   28 type  2   force =     0.00000304    0.00070913    0.01023240
     atom   29 type  2   force =    -0.00227086    0.00250856   -0.01351108
     atom   30 type  2   force =     0.00265682    0.00282559   -0.01639400
     atom   31 type  1   force =    -0.00126747   -0.00143067    0.06115229
     atom   32 type  1   force =     0.00158010   -0.01942686    0.09392894
     atom   33 type  2   force =     0.00026356    0.00001581   -0.00025313
     atom   34 type  2   force =    -0.00075917    0.00124321   -0.07930702
     atom   35 type  2   force =     0.00027927   -0.00002470    0.00007566
     atom   36 type  2   force =    -0.00052470    0.00016247    0.00039056
     atom   37 type  1   force =     0.00094373    0.00013273    0.00036734
     atom   38 type  1   force =    -0.00055948   -0.00035194   -0.00002606
     atom   39 type  2   force =     0.00034874    0.00014520   -0.00004086
     atom   40 type  2   force =    -0.00021759    0.00005763    0.00009582
     atom   41 type  2   force =    -0.00020377   -0.00000348   -0.00035808
     atom   42 type  2   force =     0.00037610   -0.00001150    0.00011989
     atom   43 type  1   force =    -0.00091168   -0.00043168   -0.00052940
     atom   44 type  1   force =     0.00019679    0.00088801   -0.00024018
     atom   45 type  2   force =     0.00007244    0.00005794    0.09737324
     atom   46 type  2   force =    -0.08322270   -0.00003704   -0.03309538
     atom   47 type  2   force =     0.08316837    0.00037907   -0.03310234
     atom   48 type  3   force =     0.00315259    0.00023786   -0.00559859
     atom   49 type  3   force =    -0.00023890   -0.00021196    0.00118812
     atom   50 type  4   force =     0.00063436   -0.00125296    0.01597756
     atom   51 type  5   force =    -0.00385599    0.00035417   -0.00870212
     atom   52 type  5   force =     0.00164050   -0.00006992   -0.00084269
     atom   53 type  5   force =    -0.00052626   -0.00024752    0.00018851
     atom   54 type  2   force =     0.00004557    0.00042942    0.00046972
     atom   55 type  5   force =     0.00027412    0.00077255   -0.00009777

     Total force =     0.420316     Total SCF correction =     0.000478
  @ DRIVER MODE: Message from server: STATUS
  @ DRIVER MODE: Message from server: GETFORCE
  @ DRIVER MODE: Returning v,forces,stress,ensemble

     Writing output data file ./calc.save/
  @ DRIVER MODE: Message from server: EXIT
  @ DRIVE MODE: Exiting

     General routines

     Parallel routines

   This run was terminated on:  21:53:45  22Sep2021

   JOB DONE.