     Program PWSCF v.6.7GPU starts on 15Jul2021 at 17:58:21

     R & G space division:  proc/nbgrp/npool/nimage =      16
     Reading input from /storage/home/hcoda1/3/ntian30/research/carbon/15Jul_vib/ads_slab/CH3NNHHH_a/out_0002/pw.inp
Warning: card &CELL ignored
Warning: card   CELL_DYNAMICS='IPI', ignored
Warning: card / ignored

     Current dimensions of program PWSCF are:
     Max number of different atomic species (ntypx) = 10
     Max number of k-points (npk) =  40000
     Max angular momentum in pseudopotentials (lmaxx) =  3
     Presently no symmetry can be used with electric field

     Message from routine cell_base_init:
     DEPRECATED: use true lattice parameter, not A to a.u. conversion factor

     IMPORTANT: XC functional enforced from input :
     Exchange-correlation= BEEF-VDW
                           (   1   4  43  14   2   0   0)
     Any further DFT definition will be discarded
     Please, verify this is what you really want

  @ DRIVER MODE: Connecting to
 qe_1139763_2351652.sched-torque.pace.gatech.eduw7nagkx9_scratch
  using UNIX socket
  @ DRIVER MODE: Message from server: STATUS
  @ DRIVER MODE: Message from server: INIT
  @ DRIVER MODE: Receiving replica           0          -1
  @ DRIVER MODE: Receiving encoded integer          25
  @ DRIVER MODE:  SCF:  T  FORCE:  T  STRESS:  F  VC:  F  ENSEMBLE:  F
  @ DRIVER MODE:  SCF:  T  FORCE:  T  STRESS:  F  VC:  F  ENSEMBLE:  F

     Using Slab Decomposition

     bravais-lattice index     =            0
     lattice parameter (alat)  =       1.8897  a.u.
     unit-cell volume          =    6658.9804 (a.u.)^3
     number of atoms/cell      =           56
     number of atomic types    =            5
     number of electrons       =       398.00
     number of Kohn-Sham states=          209
     kinetic-energy cutoff     =      29.3995  Ry
     charge density cutoff     =     293.9946  Ry
     scf convergence threshold =      7.3E-08
     mixing beta               =       0.0500
     number of iterations used =            8  plain     mixing
     Exchange-correlation= BEEF-VDW
                           (   1   4  43  14   2   0   0)

     celldm(1)=   1.889726  celldm(2)=   0.000000  celldm(3)=   0.000000
     celldm(4)=   0.000000  celldm(5)=   0.000000  celldm(6)=   0.000000

     crystal axes: (cart. coord. in units of alat)
               a(1) = (   6.579727   0.000000   0.000000 )
               a(2) = (  -0.000775   5.961596   0.000000 )
               a(3) = (   0.000000   0.000000  25.155947 )

     reciprocal axes: (cart. coord. in units 2 pi/alat)
               b(1) = (  0.151982  0.000020  0.000000 )
               b(2) = (  0.000000  0.167740  0.000000 )
               b(3) = (  0.000000  0.000000  0.039752 )

     PseudoPot. # 1 for Ti read from file:
     /storage/coda1/p-amedford6/0/shared/rich_project_chbe-medford/medford-share/data/pseudos_module/espresso/nninc/pbe/van/Ti.UPF
     MD5 check sum: 8e4df49b7f0d34bbd5052bf3f5ea0213
     Pseudo is Ultrasoft, Zval = 12.0
     Generated by new atomic code, or converted to UPF format
     Using radial grid of  851 points,  6 beta functions with:
                l(1) =   0
                l(2) =   0
                l(3) =   1
                l(4) =   1
                l(5) =   2
                l(6) =   2
     Q(r) pseudized with  8 coefficients,  rinner =    1.000   1.000   1.000
                                                       1.000   1.000

     PseudoPot. # 2 for O  read from file:
     /storage/coda1/p-amedford6/0/shared/rich_project_chbe-medford/medford-share/data/pseudos_module/espresso/nninc/pbe/van/O.UPF
     MD5 check sum: 78c19812648e8988a0fe644b0f25305e
     Pseudo is Ultrasoft, Zval =  6.0
     Generated by new atomic code, or converted to UPF format
     Using radial grid of  737 points,  4 beta functions with:
                l(1) =   0
                l(2) =   0
                l(3) =   1
                l(4) =   1
     Q(r) pseudized with  8 coefficients,  rinner =    0.800   0.800   0.800

     PseudoPot. # 3 for N  read from file:
     /storage/coda1/p-amedford6/0/shared/rich_project_chbe-medford/medford-share/data/pseudos_module/espresso/nninc/pbe/van/N.UPF
     MD5 check sum: 90d10febe142ad51ac9d5be1deb811c4
     Pseudo is Ultrasoft, Zval =  5.0
     Generated by new atomic code, or converted to UPF format
     Using radial grid of  729 points,  4 beta functions with:
                l(1) =   0
                l(2) =   0
                l(3) =   1
                l(4) =   1
     Q(r) pseudized with  8 coefficients,  rinner =    0.800   0.800   0.800

     PseudoPot. # 4 for C  read from file:
     /storage/coda1/p-amedford6/0/shared/rich_project_chbe-medford/medford-share/data/pseudos_module/espresso/nninc/pbe/van/C.UPF
     MD5 check sum: 1a69bf6b8db32088f5b2163dbdb77a27
     Pseudo is Ultrasoft, Zval =  4.0
     Generated by new atomic code, or converted to UPF format
     Using radial grid of  721 points,  4 beta functions with:
                l(1) =   0
                l(2) =   0
                l(3) =   1
                l(4) =   1
     Q(r) pseudized with  8 coefficients,  rinner =    0.800   0.800   0.800

     PseudoPot. # 5 for H  read from file:
     /storage/coda1/p-amedford6/0/shared/rich_project_chbe-medford/medford-share/data/pseudos_module/espresso/nninc/pbe/van/H.UPF
     MD5 check sum: b5ee9d7bfd3a09ee7748110bda690ff7
     Pseudo is Ultrasoft, Zval =  1.0
     Generated by new atomic code, or converted to UPF format
     Using radial grid of  615 points,  1 beta functions with:
                l(1) =   0
     Q(r) pseudized with  8 coefficients,  rinner =    0.800

     atomic species   valence    mass     pseudopotential
        Ti1           12.00    47.86700     Ti( 1.00)
        O1             6.00    15.99900     O ( 1.00)
        N1             5.00    14.00700     N ( 1.00)
        C1             4.00    12.01100     C ( 1.00)
        H1             1.00     1.00800     H ( 1.00)

     Starting magnetic structure
     atomic species   magnetization
        Ti1          0.000
        O1           0.000
        N1           0.000
        C1           0.025
        H1           0.000

     No symmetry found

   Cartesian axes

     site n.     atom                  positions (alat units)
         1           Ti1 tau(   1) = (   0.0004258   2.9801865   6.0000000  )
         2           Ti1 tau(   2) = (   3.2906075   1.4906267   6.0002472  )
         3           O1  tau(   3) = (   0.0006271   0.0005054   7.9858123  )
         4           O1  tau(   4) = (   3.2906025   0.0005020   7.3038282  )
         5           O1  tau(   5) = (   4.5942328   1.4918067   9.2879030  )
         6           O1  tau(   6) = (   1.9868534   1.4903216   9.2879459  )
         7           Ti1 tau(   7) = (   3.2907910   2.8959150   9.1758416  )
         8           Ti1 tau(   8) = (   0.0015273   1.4827037   9.2680791  )
         9           O1  tau(   9) = (   3.2969863   5.9453513  11.3493076  )
        10           O1  tau(  10) = (   0.0116148   5.9584955  10.6183126  )
        11           O1  tau(  11) = (   1.3059050   1.4736943  12.6642453  )
        12           O1  tau(  12) = (   5.3003793   1.4775083  12.6459419  )
        13           Ti1 tau(  13) = (   0.0167275   2.9625105  12.5508078  )
        14           Ti1 tau(  14) = (   3.3131340   1.4712512  12.4909780  )
        15           O1  tau(  15) = (   6.5517612   5.9325698  14.7566896  )
        16           O1  tau(  16) = (   3.3302114   5.9429442  13.9823395  )
        17           O1  tau(  17) = (   4.5243935   1.5056208  16.2316672  )
        18           O1  tau(  18) = (   2.0170937   1.4633510  16.1378485  )
        19           Ti1 tau(  19) = (   3.2500237   2.9242626  15.6920970  )
        20           Ti1 tau(  20) = (   6.5441017   1.2779805  16.1516014  )
        21           O1  tau(  21) = (   3.2904802   0.0005063   4.7018136  )
        22           O1  tau(  22) = (   6.5540411   5.9581837  17.3465722  )
        23           O1  tau(  23) = (   1.3043587   1.4918075   6.0039043  )
        24           O1  tau(  24) = (   5.2767064   1.4903225   6.0039473  )
        25           Ti1 tau(  25) = (   0.0000382   5.9609847   6.0000000  )
        26           Ti1 tau(  26) = (   3.2902200   4.4714249   6.0002472  )
        27           O1  tau(  27) = (   0.0002396   2.9813036   7.9858123  )
        28           O1  tau(  28) = (   3.2902150   2.9813002   7.3038282  )
        29           O1  tau(  29) = (   4.5938453   4.4726049   9.2879030  )
        30           O1  tau(  30) = (   1.9864658   4.4711199   9.2879459  )
        31           Ti1 tau(  31) = (   3.2891106   5.8743827   9.1763621  )
        32           Ti1 tau(  32) = (   0.0006254   4.4649316   9.2693709  )
        33           O1  tau(  33) = (   3.2962403   2.9651072  11.3429128  )
        34           O1  tau(  34) = (   0.0092240   2.9805883  10.6323155  )
        35           O1  tau(  35) = (   1.3076126   4.4641214  12.6643835  )
        36           O1  tau(  36) = (   5.2981430   4.4591552  12.6429889  )
        37           Ti1 tau(  37) = (   0.0194730   5.9489450  12.5196332  )
        38           Ti1 tau(  38) = (   3.3150505   4.4522436  12.4946186  )
        39           O1  tau(  39) = (   6.5702761   2.9869041  14.8038460  )
        40           O1  tau(  40) = (   3.3119818   2.9576719  13.9204832  )
        41           O1  tau(  41) = (   4.5223198   4.3950437  16.2490866  )
        42           O1  tau(  42) = (   2.0356696   4.4339808  16.1311045  )
        43           Ti1 tau(  43) = (   3.3057863   5.9493229  15.7677403  )
        44           Ti1 tau(  44) = (   0.0958844   4.4293496  15.8701971  )
        45           O1  tau(  45) = (   3.2900926   2.9813045   4.7018136  )
        46           O1  tau(  46) = (   1.3039711   4.4726057   6.0039043  )
        47           O1  tau(  47) = (   5.2763189   4.4711207   6.0039473  )
        48           N1  tau(  48) = (   0.0720580   3.0375546  17.6897758  )
        49           C1  tau(  49) = (   1.1116374   2.9693208  18.6984743  )
        50           H1  tau(  50) = (   1.2951007   3.9532040  19.1583453  )
        51           H1  tau(  51) = (   0.8627774   2.2426413  19.4871689  )
        52           H1  tau(  52) = (   2.0263963   2.6228967  18.2308865  )
        53           N1  tau(  53) = (   5.4279256   3.3744730  18.4033390  )
        54           H1  tau(  54) = (   5.6103604   4.1199394  19.0852601  )
        55           H1  tau(  55) = (   4.7934260   3.8076565  17.6395878  )
        56           H1  tau(  56) = (   5.0090149   2.5598412  18.8678436  )

     number of k points=    10  Fermi-Dirac smearing, width (Ry)=  0.0073
                       cart. coord. in units 2pi/alat
        k(    1) = (   0.0000000   0.0000000   0.0000000), wk =   0.0625000
        k(    2) = (   0.0000000   0.0419351   0.0000000), wk =   0.1250000
        k(    3) = (   0.0000000  -0.0838702   0.0000000), wk =   0.0625000
        k(    4) = (   0.0379955   0.0000049   0.0000000), wk =   0.1250000
        k(    5) = (   0.0379955   0.0419400   0.0000000), wk =   0.1250000
[...]
     % possible and the two reviews that describe the various versions:     %
     %                                                                      %
     %   T. Thonhauser et al., PRL 115, 136402 (2015).                      %
     %   T. Thonhauser et al., PRB 76, 125112 (2007).                       %
     %   K. Berland et al., Rep. Prog. Phys. 78, 066501 (2015).             %
     %   D.C. Langreth et al., J. Phys.: Condens. Matter 21, 084203 (2009). %
     %                                                                      %
     %                                                                      %
     % If you are calculating the stress with vdW-DF, please also cite:     %
     %                                                                      %
     %   R. Sabatini et al., J. Phys.: Condens. Matter 24, 424209 (2012).   %
     %                                                                      %
     %%%%%%%%%%%%%%%%%%%%%%%%%%%%%%%%%%%%%%%%%%%%%%%%%%%%%%%%%%%%%%%%%%%%%%%%

     Adding external electric field

     Computed dipole along edir(3) :
        Dipole              -10.5729 Ry au,        -26.8736 Debye
        Dipole field         -0.0200 Ry au,

        Potential amp.        1.8496 Ry
        Total length         46.3494 bohr

[...]

     Starting wfcs are  302 atomic wfcs
  @ DRIVER MODE: Message from server: STATUS
  @ DRIVER MODE: Message from server: POSDATA
  @ DRIVER MODE: Reading and sharing cell
  @ DRIVER MODE: Reading and sharing positions
  @ DRIVER MODE: Received positions

     Self-consistent Calculation

     iteration #  1     ecut=    29.40 Ry     beta= 0.05
     Davidson diagonalization with overlap
     c_bands:  4 eigenvalues not converged
     c_bands:  2 eigenvalues not converged
     c_bands:  2 eigenvalues not converged
     c_bands:  5 eigenvalues not converged
     c_bands:  5 eigenvalues not converged
     c_bands:  5 eigenvalues not converged
     c_bands:  1 eigenvalues not converged
     c_bands:  5 eigenvalues not converged
     c_bands:  3 eigenvalues not converged
     c_bands:  4 eigenvalues not converged
     c_bands:  2 eigenvalues not converged
     c_bands:  1 eigenvalues not converged
     c_bands:  4 eigenvalues not converged
     c_bands:  5 eigenvalues not converged
     c_bands:  5 eigenvalues not converged
     c_bands:  1 eigenvalues not converged
     c_bands:  5 eigenvalues not converged
     c_bands:  3 eigenvalues not converged
     ethr =  1.00E-05,  avg # of iterations = 20.0

[...]

     total energy              =   -2443.27438648 Ry
     estimated scf accuracy    <    5586.04689197 Ry

     total magnetization       =     0.00 Bohr mag/cell
     absolute magnetization    =     0.01 Bohr mag/cell

     iteration #  2     ecut=    29.40 Ry     beta= 0.05
     Davidson diagonalization with overlap
     ethr =  1.00E-02,  avg # of iterations = 24.4

[...]

     iteration #158     ecut=    29.40 Ry     beta= 0.05
     Davidson diagonalization with overlap
     ethr =  2.27E-10,  avg # of iterations =  8.9

[...]

     total energy              =   -2942.82543427 Ry
     estimated scf accuracy    <       0.00000010 Ry

[...]

     iteration #169     ecut=    29.40 Ry     beta= 0.05
     Davidson diagonalization with overlap
     c_bands:  3 eigenvalues not converged
     c_bands:  2 eigenvalues not converged
     ethr =  2.52E-11,  avg # of iterations = 14.5

     negative rho (up, down):  7.283E-03 7.301E-03

[...]

     Adding external electric field

     Computed dipole along edir(3) :
        Dipole                1.6184 Ry au,          4.1135 Debye
        Dipole field          0.0031 Ry au,

        Potential amp.       -0.2831 Ry
        Total length         46.3494 bohr

     Magnetic moment per site  (integrated on atomic sphere of radius R)
     atom   1 (R=0.723)  charge=  7.9141  magn= -0.0351
     atom   2 (R=0.723)  charge=  7.8963  magn= -0.0016
     atom   3 (R=0.633)  charge=  4.2081  magn=  0.0033
     atom   4 (R=0.633)  charge=  4.2373  magn=  0.0004
     atom   5 (R=0.633)  charge=  4.2138  magn=  0.0006
     atom   6 (R=0.633)  charge=  4.2139  magn=  0.0006
     atom   7 (R=0.723)  charge=  7.8964  magn= -0.0020
     atom   8 (R=0.723)  charge=  7.8945  magn= -0.0199
     atom   9 (R=0.633)  charge=  4.2238  magn=  0.0005
     atom  10 (R=0.633)  charge=  4.2125  magn=  0.0014
     atom  11 (R=0.633)  charge=  4.2093  magn=  0.0007
     atom  12 (R=0.633)  charge=  4.2111  magn=  0.0007
     atom  13 (R=0.723)  charge=  7.8926  magn= -0.0062
     atom  14 (R=0.723)  charge=  7.9040  magn= -0.0035
     atom  15 (R=0.633)  charge=  4.2098  magn=  0.0002
     atom  16 (R=0.633)  charge=  4.2161  magn=  0.0001
     atom  17 (R=0.633)  charge=  4.2035  magn= -0.0000
     atom  18 (R=0.633)  charge=  4.2034  magn= -0.0000
     atom  19 (R=0.723)  charge=  7.9504  magn=  0.0011
     atom  20 (R=0.723)  charge=  7.9299  magn=  0.0001
     atom  21 (R=0.633)  charge=  4.1284  magn=  0.0012
     atom  22 (R=0.633)  charge=  4.1764  magn= -0.0001
     atom  23 (R=0.633)  charge=  4.2074  magn=  0.0036
     atom  24 (R=0.633)  charge=  4.2074  magn=  0.0036
     atom  25 (R=0.723)  charge=  7.9142  magn= -0.0351
     atom  26 (R=0.723)  charge=  7.8964  magn= -0.0015
     atom  27 (R=0.633)  charge=  4.2077  magn=  0.0033
     atom  28 (R=0.633)  charge=  4.2375  magn=  0.0004
     atom  29 (R=0.633)  charge=  4.2143  magn=  0.0006
     atom  30 (R=0.633)  charge=  4.2144  magn=  0.0006
     atom  31 (R=0.723)  charge=  7.8968  magn= -0.0020
     atom  32 (R=0.723)  charge=  7.8947  magn= -0.0198
     atom  33 (R=0.633)  charge=  4.2222  magn=  0.0005
     atom  34 (R=0.633)  charge=  4.2053  magn=  0.0014
     atom  35 (R=0.633)  charge=  4.2090  magn=  0.0007
     atom  36 (R=0.633)  charge=  4.2115  magn=  0.0007
     atom  37 (R=0.723)  charge=  7.8964  magn= -0.0061
     atom  38 (R=0.723)  charge=  7.9034  magn= -0.0035
     atom  39 (R=0.633)  charge=  4.1926  magn=  0.0001
     atom  40 (R=0.633)  charge=  4.2343  magn=  0.0001
     atom  41 (R=0.633)  charge=  4.2025  magn= -0.0000
     atom  42 (R=0.633)  charge=  4.2135  magn= -0.0000
     atom  43 (R=0.723)  charge=  7.9399  magn=  0.0015
     atom  44 (R=0.723)  charge=  7.9262  magn= -0.0004
     atom  45 (R=0.633)  charge=  4.1284  magn=  0.0011
     atom  46 (R=0.633)  charge=  4.2074  magn=  0.0035
     atom  47 (R=0.633)  charge=  4.2074  magn=  0.0035
     atom  48 (R=0.423)  charge=  1.3352  magn=  0.0000
     atom  49 (R=0.447)  charge=  0.8397  magn= -0.0000
     atom  50 (R=0.423)  charge=  0.4488  magn=  0.0000
     atom  51 (R=0.423)  charge=  0.4500  magn=  0.0000
     atom  52 (R=0.423)  charge=  0.4552  magn=  0.0000
     atom  53 (R=0.423)  charge=  1.3741  magn=  0.0000
     atom  54 (R=0.423)  charge=  0.4519  magn=  0.0000
     atom  55 (R=0.423)  charge=  0.3987  magn= -0.0000
     atom  56 (R=0.423)  charge=  0.4518  magn=  0.0000

     End of self-consistent calculation

 ------ SPIN UP ------------

          k = 0.0000 0.0000 0.0000 ( 18029 PWs)   bands (ev):

   -55.1326 -55.0959 -55.0609 -55.0268 -55.0128 -55.0042 -54.9748 -54.9344
   -54.9170 -54.9069 -54.8998 -54.8734 -54.8579 -54.7864 -54.1062 -54.0721
   -31.7140 -31.5704 -31.5012 -31.4717 -31.4263 -31.4247 -31.4066 -31.3949
   -31.3911 -31.3591 -31.3454 -31.3411 -31.3101 -31.3019 -31.2935 -31.2666
   -31.2468 -31.2358 -31.2337 -31.2074 -31.1963 -31.1915 -31.1901 -31.1660
   -31.1416 -31.1377 -31.1313 -31.1211 -31.1180 -31.1148 -31.1113 -31.1038
   -31.0878 -31.0837 -31.0825 -31.0496 -31.0414 -31.0353 -31.0288 -31.0179
   -31.0153 -30.9762 -30.5152 -30.4218 -30.4000 -30.3311 -30.2444 -30.1340
   -18.8822 -16.0001 -15.7453 -15.6099 -15.3756 -15.3233 -15.2670 -15.0625
   -15.0580 -14.9866 -14.9720 -14.9232 -14.9036 -14.8359 -14.7520 -14.7332
   -14.6628 -14.6601 -14.6318 -14.6214 -14.6189 -14.5564 -14.5470 -14.5167
   -14.5042 -14.4794 -14.3612 -14.2761 -14.2178 -13.9688 -13.6477 -12.6112
   -12.4941  -9.7129  -7.7041  -7.1976  -5.4685  -3.8314  -3.3366  -3.2844
    -3.1631  -3.1325  -3.0548  -3.0232  -2.8389  -2.8210  -2.4781  -2.4443
    -2.3927  -2.3743  -2.3538  -2.3361  -2.1696  -2.1426  -2.0695  -2.0368
    -2.0188  -1.9766  -1.9609  -1.9479  -1.9160  -1.9111  -1.9016  -1.6944
    -1.6380  -1.5423  -1.5214  -1.5012  -1.4612  -1.4264  -1.4133  -1.4130
    -1.4068  -1.3942  -1.3827  -1.3011  -1.2467  -1.1617  -1.1545  -1.1175
    -1.0140  -0.9709  -0.7673  -0.7524  -0.7074  -0.6643  -0.6018  -0.5823
    -0.5112  -0.4832  -0.4652  -0.3427  -0.3146  -0.2752  -0.2469  -0.1778
    -0.1492  -0.1026  -0.0201   0.0525   0.0878   0.1056   0.1647   0.2948
     0.3060   0.3354   0.3970   0.4609   0.5006   0.5204   0.5392   0.5766
     0.6260   0.7522   0.7971   0.8170   0.8204   0.8543   0.8770   0.9285
     0.9527   1.0141   1.0192   1.1370   1.2061   1.4349   1.4683   1.4944
     1.8270   1.8486   1.9146   2.1003   2.4878   2.5365   3.9871   4.0408
     4.0857   4.1356   4.1436   4.2244   4.2460   4.4343   4.4622   4.4714
     4.4860

[...]

          k =-0.0760-0.0000 0.0000 ( 17886 PWs)   bands (ev):

[...]

 ------ SPIN DOWN ----------

[...]

          k = 0.0380-0.0419 0.0000 ( 17876 PWs)   bands (ev):

[...]

          k =-0.0760-0.0839 0.0000 ( 17948 PWs)   bands (ev):

   -55.1239 -55.1180 -55.1084 -55.1083 -55.0137 -54.9981 -54.9968 -54.9268
   -54.9254 -54.9226 -54.9185 -54.9185 -54.8550 -54.7900 -54.0921 -54.0919
   -31.5211 -31.5181 -31.4400 -31.4188 -31.4120 -31.4119 -31.4054 -31.4053
   -31.3507 -31.3442 -31.3416 -31.3402 -31.3055 -31.2675 -31.2671 -31.2624
   -31.2619 -31.2584 -31.2569 -31.2545 -31.2335 -31.2335 -31.2216 -31.2189
   -31.2118 -31.2104 -31.1900 -31.1839 -31.1573 -31.1526 -31.1394 -31.1387
   -31.1374 -31.1333 -31.1289 -31.1190 -31.1080 -31.1066 -31.0936 -31.0669
   -31.0407 -31.0230 -30.4162 -30.4160 -30.3295 -30.3293 -30.2908 -30.2907
   -18.8772 -15.5070 -15.3970 -15.2900 -15.2235 -15.1810 -15.1290 -15.1111
   -15.0993 -15.0563 -15.0265 -14.9572 -14.8917 -14.8372 -14.8362 -14.8032
   -14.7255 -14.7116 -14.7030 -14.6935 -14.6358 -14.6291 -14.5976 -14.5748
   -14.5718 -14.5450 -14.4701 -14.4677 -14.3844 -14.1772 -13.6849 -12.5932
   -12.5931  -9.6820  -7.7008  -7.1438  -5.4708  -3.8529  -3.4376  -2.7559
    -2.6445  -2.4355  -2.4080  -2.3479  -2.3306  -2.2484  -2.1834  -2.1611
    -2.1375  -2.1037  -2.1002  -2.0744  -2.0545  -2.0016  -1.9727  -1.9597
    -1.9545  -1.9394  -1.9271  -1.9075  -1.8509  -1.8406  -1.8332  -1.7902
    -1.7792  -1.7470  -1.7410  -1.7014  -1.6846  -1.6110  -1.5171  -1.4927
    -1.4337  -1.3329  -1.3181  -1.3124  -1.2199  -1.2103  -1.1799  -1.1492
    -1.0955  -0.9969  -0.9420  -0.8649  -0.8616  -0.8334  -0.7452  -0.6820
    -0.6480  -0.6377  -0.5997  -0.5416  -0.5192  -0.4849  -0.4021  -0.3606
    -0.3341  -0.3014  -0.2050  -0.1440  -0.1209  -0.0860  -0.0824   0.0045
     0.0377   0.0740   0.0947   0.1345   0.1615   0.2225   0.2464   0.3569
     0.4257   0.4566   0.5757   0.6005   0.6634   0.7966   0.8677   0.9083
     0.9609   1.0196   1.0471   1.1805   1.1879   1.2069   1.3041   1.3443
     1.3512   1.3640   2.2744   2.2755   2.3573   2.3574   4.1008   4.1864
     4.2258   4.2628   4.3717   4.4689   4.4875   4.5360   4.5365   4.6056
     4.6109

     the Fermi energy is     4.0209 ev

!    total energy              =   -2942.82543475 Ry
     estimated scf accuracy    <       0.00000006 Ry
     smearing contrib. (-TS)   =      -0.03670609 Ry
     internal energy E=F+TS    =   -2942.78872866 Ry

     The total energy is F=E-TS. E is the sum of the following terms:
     one-electron contribution =  -23972.17599195 Ry
     hartree contribution      =   12081.66076256 Ry
     xc contribution           =    -487.77266765 Ry
     ewald contribution        =    9435.49422577 Ry
     electric field correction =       0.00494260 Ry

     total magnetization       =    -0.18 Bohr mag/cell
     absolute magnetization    =     0.27 Bohr mag/cell

     convergence has been achieved in 169 iterations

     Forces acting on atoms (cartesian axes, Ry/au):

     atom    1 type  1   force =     0.00015019   -0.00021910    0.09420756
     atom    2 type  1   force =    -0.00009500   -0.00033190   -0.17745696
     atom    3 type  2   force =     0.00005518   -0.00016035   -0.02117829
     atom    4 type  2   force =    -0.00001538   -0.00172886    0.05666208
     atom    5 type  2   force =    -0.01057061   -0.00127127    0.00626457
     atom    6 type  2   force =     0.01223715   -0.00073841    0.00573584
     atom    7 type  1   force =    -0.00032457    0.00171317   -0.01625151
     atom    8 type  1   force =    -0.00010906    0.00438532    0.00548898
     atom    9 type  2   force =     0.00000993   -0.00004658   -0.00002693
     atom   10 type  2   force =    -0.00074190   -0.00022000   -0.00040758
     atom   11 type  2   force =     0.00035442    0.00013125   -0.00018426
     atom   12 type  2   force =    -0.00052460    0.00000388   -0.00011577
     atom   13 type  1   force =     0.00004525   -0.00035143    0.00008625
     atom   14 type  1   force =     0.00055695    0.00011724   -0.00032989
     atom   15 type  2   force =    -0.00027591    0.00016977   -0.00019220
     atom   16 type  2   force =    -0.00032624    0.00020340   -0.00004283
     atom   17 type  2   force =     0.00002872    0.00022207    0.00054598
     atom   18 type  2   force =     0.00023969    0.00028816   -0.00013301
     atom   19 type  1   force =     0.00007698    0.00012854    0.00003424
     atom   20 type  1   force =     0.00036018    0.00042640   -0.00050328
     atom   21 type  2   force =     0.00003648    0.00004085    0.10363499
     atom   22 type  2   force =    -0.00009175   -0.00078262   -0.00030378
     atom   23 type  2   force =    -0.07080994   -0.00010046   -0.02718277
     atom   24 type  2   force =     0.07067345    0.00033953   -0.02721343
     atom   25 type  1   force =    -0.00009688   -0.00019735    0.09362938
     atom   26 type  1   force =    -0.00015230   -0.00032129   -0.17738597
     atom   27 type  2   force =     0.00008643   -0.00035173   -0.02027613
     atom   28 type  2   force =     0.00003053   -0.00144200    0.05597167
     atom   29 type  2   force =    -0.01093372   -0.00073225    0.00611193
     atom   30 type  2   force =     0.01248457   -0.00028692    0.00559168
     atom   31 type  1   force =    -0.00017429    0.00461186   -0.01729472
     atom   32 type  1   force =    -0.00003574   -0.00480621    0.00546075
     atom   33 type  2   force =     0.00005798    0.00012581    0.00029291
     atom   34 type  2   force =     0.00005599   -0.00085405   -0.00292902
     atom   35 type  2   force =     0.00024270    0.00002412    0.00008653
     atom   36 type  2   force =    -0.00043704    0.00015469   -0.00005737
     atom   37 type  1   force =    -0.00012410   -0.00010951   -0.00021912
     atom   38 type  1   force =     0.00042509   -0.00028330    0.00036644
     atom   39 type  2   force =    -0.00054808    0.00009669    0.00078718
     atom   40 type  2   force =    -0.00011675    0.00018098   -0.00021766
     atom   41 type  2   force =     0.00007149    0.00029725    0.00012999
     atom   42 type  2   force =     0.00016714    0.00032057   -0.00020083
     atom   43 type  1   force =    -0.00050265    0.00049703   -0.00006804
     atom   44 type  1   force =     0.00005821    0.00051374   -0.00021829
     atom   45 type  2   force =     0.00002602    0.00001146    0.10363799
     atom   46 type  2   force =    -0.07081083   -0.00003552   -0.02718727
     atom   47 type  2   force =     0.07067509    0.00037798   -0.02719179
     atom   48 type  3   force =    -0.01321913    0.00029702   -0.00134509
     atom   49 type  4   force =     0.00440184    0.00026277    0.00265079
     atom   50 type  5   force =     0.00055941    0.00017120    0.00062297
     atom   51 type  5   force =    -0.00017279   -0.00051887    0.00020995
     atom   52 type  5   force =     0.00046641   -0.00007903    0.00074504
     atom   53 type  3   force =     0.00478991    0.00022422   -0.00040221
     atom   54 type  5   force =     0.00028574   -0.00026366   -0.00050560
     atom   55 type  5   force =     0.00097310   -0.00021639   -0.00111046
     atom   56 type  5   force =     0.00052702    0.00011208   -0.00082359

     Total force =     0.365899     Total SCF correction =     0.000287
  @ DRIVER MODE: Message from server: STATUS
  @ DRIVER MODE: Message from server: GETFORCE
  @ DRIVER MODE: Returning v,forces,stress,ensemble

     Writing output data file ./calc.save/
  @ DRIVER MODE: Message from server: EXIT
  @ DRIVE MODE: Exiting

     General routines

     Parallel routines

   This run was terminated on:  19: 6:44  15Jul2021

   JOB DONE.