     Program PWSCF v.6.7GPU starts on 18Oct2021 at 23:46:28

     R & G space division:  proc/nbgrp/npool/nimage =       8
     Reading input from /storage/home/hcoda1/3/ntian30/research/carbon/CxH_vib/Thiel_calc/ads_slab/NH2HNH_perslab/out_0026/pw.inp
Warning: card &CELL ignored
Warning: card   CELL_DYNAMICS='IPI', ignored
Warning: card / ignored

     Current dimensions of program PWSCF are:
     Max number of different atomic species (ntypx) = 10
     Max number of k-points (npk) =  40000
     Max angular momentum in pseudopotentials (lmaxx) =  3
     Presently no symmetry can be used with electric field

     Message from routine cell_base_init:
     DEPRECATED: use true lattice parameter, not A to a.u. conversion factor

     IMPORTANT: XC functional enforced from input :
     Exchange-correlation= BEEF-VDW
                           (   1   4  43  14   2   0   0)
     Any further DFT definition will be discarded
     Please, verify this is what you really want

  @ DRIVER MODE: Connecting to
 qe_1139763_3255135.sched-torque.pace.gatech.edu5kg4ganc_scratch
  using UNIX socket
  @ DRIVER MODE: Message from server: STATUS
  @ DRIVER MODE: Message from server: INIT
  @ DRIVER MODE: Receiving replica           0          -1
  @ DRIVER MODE: Receiving encoded integer          25
  @ DRIVER MODE:  SCF:  T  FORCE:  T  STRESS:  F  VC:  F  ENSEMBLE:  F
  @ DRIVER MODE:  SCF:  T  FORCE:  T  STRESS:  F  VC:  F  ENSEMBLE:  F

     Using Slab Decomposition

     bravais-lattice index     =            0
     lattice parameter (alat)  =       1.8897  a.u.
     unit-cell volume          =    9988.4706 (a.u.)^3
     number of atoms/cell      =           59
     number of atomic types    =            4
     number of electrons       =       440.00
     number of Kohn-Sham states=          230
     kinetic-energy cutoff     =      29.3995  Ry
     charge density cutoff     =     293.9946  Ry
     scf convergence threshold =      7.3E-08
     mixing beta               =       0.0500
     number of iterations used =            8  plain     mixing
     Exchange-correlation= BEEF-VDW
                           (   1   4  43  14   2   0   0)

     celldm(1)=   1.889726  celldm(2)=   0.000000  celldm(3)=   0.000000
     celldm(4)=   0.000000  celldm(5)=   0.000000  celldm(6)=   0.000000

     crystal axes: (cart. coord. in units of alat)
               a(1) = (   6.579727   0.000000   0.000000 )
               a(2) = (  -0.001163   8.942395   0.000000 )
               a(3) = (   0.000000   0.000000  25.155947 )

     reciprocal axes: (cart. coord. in units 2 pi/alat)
               b(1) = (  0.151982  0.000020  0.000000 )
               b(2) = (  0.000000  0.111827  0.000000 )
               b(3) = (  0.000000  0.000000  0.039752 )

     PseudoPot. # 1 for O  read from file:
     /storage/coda1/p-amedford6/0/shared/rich_project_chbe-medford/medford-share/data/pseudos_module/espresso/nninc/pbe/van/O.UPF
     MD5 check sum: 78c19812648e8988a0fe644b0f25305e
     Pseudo is Ultrasoft, Zval =  6.0
     Generated by new atomic code, or converted to UPF format
     Using radial grid of  737 points,  4 beta functions with:
                l(1) =   0
                l(2) =   0
                l(3) =   1
                l(4) =   1
     Q(r) pseudized with  8 coefficients,  rinner =    0.800   0.800   0.800

     PseudoPot. # 2 for Ti read from file:
     /storage/coda1/p-amedford6/0/shared/rich_project_chbe-medford/medford-share/data/pseudos_module/espresso/nninc/pbe/van/Ti.UPF
     MD5 check sum: 8e4df49b7f0d34bbd5052bf3f5ea0213
     Pseudo is Ultrasoft, Zval = 12.0
     Generated by new atomic code, or converted to UPF format
     Using radial grid of  851 points,  6 beta functions with:
                l(1) =   0
                l(2) =   0
                l(3) =   1
                l(4) =   1
                l(5) =   2
                l(6) =   2
     Q(r) pseudized with  8 coefficients,  rinner =    1.000   1.000   1.000
                                                       1.000   1.000

     PseudoPot. # 3 for H  read from file:
     /storage/coda1/p-amedford6/0/shared/rich_project_chbe-medford/medford-share/data/pseudos_module/espresso/nninc/pbe/van/H.UPF
     MD5 check sum: b5ee9d7bfd3a09ee7748110bda690ff7
     Pseudo is Ultrasoft, Zval =  1.0
     Generated by new atomic code, or converted to UPF format
     Using radial grid of  615 points,  1 beta functions with:
                l(1) =   0
     Q(r) pseudized with  8 coefficients,  rinner =    0.800

     PseudoPot. # 4 for N  read from file:
     /storage/coda1/p-amedford6/0/shared/rich_project_chbe-medford/medford-share/data/pseudos_module/espresso/nninc/pbe/van/N.UPF
     MD5 check sum: 90d10febe142ad51ac9d5be1deb811c4
     Pseudo is Ultrasoft, Zval =  5.0
     Generated by new atomic code, or converted to UPF format
     Using radial grid of  729 points,  4 beta functions with:
                l(1) =   0
                l(2) =   0
                l(3) =   1
                l(4) =   1
     Q(r) pseudized with  8 coefficients,  rinner =    0.800   0.800   0.800

     atomic species   valence    mass     pseudopotential
        O1             6.00    15.99900     O ( 1.00)
        Ti1           12.00    47.86700     Ti( 1.00)
        H1             1.00     1.00800     H ( 1.00)
        N1             5.00    14.00700     N ( 1.00)

     No symmetry found

   Cartesian axes

     site n.     atom                  positions (alat units)
         1           O1  tau(   1) = (   0.0007354   0.0005023  10.5931620  )
         2           O1  tau(   2) = (   3.2891522   8.9193323  13.7813865  )
         3           O1  tau(   3) = (  -0.0003195   8.9357148  17.1597790  )
         4           O1  tau(   4) = (   0.0006271   0.0005054   7.9858123  )
         5           O1  tau(   5) = (   3.2896276   8.9330874  11.1456747  )
         6           O1  tau(   6) = (   0.0000757   8.8957392  14.5326415  )
         7           O1  tau(   7) = (   1.9868534   1.4903216   9.2879459  )
         8           O1  tau(   8) = (   5.2085136   1.5567490  12.5272226  )
         9           O1  tau(   9) = (   2.0368910   1.4086519  15.9478609  )
        10           Ti1 tau(  10) = (   0.0007404   1.4906270   9.2895810  )
        11           Ti1 tau(  11) = (   3.2920048   1.2896434  12.4335303  )
        12           Ti1 tau(  12) = (   0.0003947   1.7483972  15.9485354  )
        13           O1  tau(  13) = (   4.5942328   1.4918067   9.2879030  )
        14           O1  tau(  14) = (   1.3734151   1.5562871  12.5269411  )
        15           O1  tau(  15) = (   4.5446063   1.4075665  15.9467422  )
        16           Ti1 tau(  16) = (   3.2902859   2.9801868   9.2893338  )
        17           Ti1 tau(  17) = (   0.0022843   2.7629733  12.5422407  )
        18           Ti1 tau(  18) = (   3.2887740   3.1097933  15.6402895  )
        19           O1  tau(  19) = (   0.0003479   2.9813005  10.5931620  )
        20           O1  tau(  20) = (   3.2903674   2.9527630  13.7969158  )
        21           O1  tau(  21) = (   0.0002396   2.9813036   7.9858123  )
        22           O1  tau(  22) = (   3.2906228   2.9775883  11.1663003  )
        23           O1  tau(  23) = (   0.0006598   2.9368866  14.5305733  )
        24           O1  tau(  24) = (   1.9864658   4.4711199   9.2879459  )
        25           O1  tau(  25) = (   5.2231876   4.5386380  12.5467233  )
        26           O1  tau(  26) = (   2.0248981   4.3679406  15.9930346  )
        27           Ti1 tau(  27) = (   0.0003529   4.4714252   9.2895810  )
        28           Ti1 tau(  28) = (   3.2918124   4.3135021  12.5344809  )
        29           Ti1 tau(  29) = (   6.5788423   4.6929592  16.0739603  )
        30           O1  tau(  30) = (   4.5938453   4.4726049   9.2879030  )
        31           O1  tau(  31) = (   1.3570704   4.5373869  12.5465102  )
        32           O1  tau(  32) = (   4.5538814   4.3671241  15.9936543  )
        33           Ti1 tau(  33) = (   3.2898983   5.9609850   9.2893338  )
        34           Ti1 tau(  34) = (   0.0013264   5.7428985  12.5110789  )
        35           Ti1 tau(  35) = (   3.2898306   6.0937744  16.2866611  )
        36           O1  tau(  36) = (  -0.0000397   5.9620987  10.5931620  )
        37           O1  tau(  37) = (   3.2897329   5.8964334  13.7986068  )
        38           O1  tau(  38) = (  -0.0007474   6.0119579  17.1634496  )
        39           O1  tau(  39) = (  -0.0001480   5.9621018   7.9858123  )
        40           O1  tau(  40) = (   3.2898370   5.9388437  11.1687384  )
        41           O1  tau(  41) = (  -0.0001539   5.9931028  14.5676369  )
        42           O1  tau(  42) = (   1.9860782   7.4519181   9.2879459  )
        43           O1  tau(  43) = (   5.2258842   7.5046952  12.5406166  )
        44           O1  tau(  44) = (   2.0242945   7.4351242  16.0034066  )
        45           Ti1 tau(  45) = (  -0.0000347   7.4522234   9.2895810  )
        46           Ti1 tau(  46) = (   3.2896699   7.1866417  12.6007890  )
        47           Ti1 tau(  47) = (   0.0000787   7.5542351  15.7482610  )
        48           O1  tau(  48) = (   4.5934577   7.4534031   9.2879030  )
        49           O1  tau(  49) = (   1.3527639   7.5038087  12.5404143  )
        50           O1  tau(  50) = (   4.5545665   7.4356877  16.0029592  )
        51           Ti1 tau(  51) = (   3.2895107   8.9417832   9.2893338  )
        52           Ti1 tau(  52) = (  -0.0005703   8.7121504  12.4856418  )
        53           Ti1 tau(  53) = (   3.2909615   0.1005107  15.6284087  )
        54           H1  tau(  54) = (   6.5785809   3.1351568  18.2688824  )
        55           H1  tau(  55) = (   6.5783155   8.7923607  18.1116139  )
        56           N1  tau(  56) = (  -0.0001347   2.9716693  17.2674093  )
        57           N1  tau(  57) = (   3.2897564   5.9921341  18.1800631  )
        58           H1  tau(  58) = (   3.2987465   5.1266479  18.7045293  )
        59           H1  tau(  59) = (   3.2892443   6.7858760  18.8071070  )

     number of k points=    10  Fermi-Dirac smearing, width (Ry)=  0.0073
                       cart. coord. in units 2pi/alat
        k(    1) = (   0.0000000   0.0000000   0.0000000), wk =   0.1250000
        k(    2) = (   0.0000000   0.0279567   0.0000000), wk =   0.2500000
        k(    3) = (   0.0000000  -0.0559134   0.0000000), wk =   0.1250000
        k(    4) = (   0.0379955   0.0000049   0.0000000), wk =   0.2500000
        k(    5) = (   0.0379955   0.0279617   0.0000000), wk =   0.2500000
        k(    6) = (   0.0379955  -0.0559085   0.0000000), wk =   0.2500000
        k(    7) = (   0.0379955  -0.0279518   0.0000000), wk =   0.2500000
        k(    8) = (  -0.0759910  -0.0000099   0.0000000), wk =   0.1250000
        k(    9) = (  -0.0759910   0.0279468   0.0000000), wk =   0.2500000
        k(   10) = (  -0.0759910  -0.0559233   0.0000000), wk =   0.1250000

     Initial potential from superposition of free atoms

     starting charge  421.99910, renormalised to  440.00000

     negative rho (up, down):  3.702E-02 0.000E+00

     %%%%%%%%%%%%%%%%%%%%%%%%%%%%%%%%%%%%%%%%%%%%%%%%%%%%%%%%%%%%%%%%%%%%%%%%
     %                                                                      %
     % You are using vdW-DF, which was implemented by the Thonhauser group. %
     % Please cite the following two papers that made this development      %
     % possible and the two reviews that describe the various versions:     %
     %                                                                      %
     %   T. Thonhauser et al., PRL 115, 136402 (2015).                      %
     %   T. Thonhauser et al., PRB 76, 125112 (2007).                       %
     %   K. Berland et al., Rep. Prog. Phys. 78, 066501 (2015).             %
     %   D.C. Langreth et al., J. Phys.: Condens. Matter 21, 084203 (2009). %
     %                                                                      %
     %                                                                      %
     % If you are calculating the stress with vdW-DF, please also cite:     %
     %                                                                      %
     %   R. Sabatini et al., J. Phys.: Condens. Matter 24, 424209 (2012).   %
     %                                                                      %
     %%%%%%%%%%%%%%%%%%%%%%%%%%%%%%%%%%%%%%%%%%%%%%%%%%%%%%%%%%%%%%%%%%%%%%%%

     Adding external electric field

     Computed dipole along edir(3) :
        Dipole               -3.9424 Ry au,        -10.0206 Debye
        Dipole field         -0.0050 Ry au,

        Potential amp.        0.4598 Ry
        Total length         46.3494 bohr

     Starting wfcs are  332 atomic wfcs
  @ DRIVER MODE: Message from server: STATUS
  @ DRIVER MODE: Message from server: POSDATA
  @ DRIVER MODE: Reading and sharing cell
  @ DRIVER MODE: Reading and sharing positions
  @ DRIVER MODE: Received positions

     Self-consistent Calculation

     iteration #  1     ecut=    29.40 Ry     beta= 0.05
     Davidson diagonalization with overlap
     c_bands:  1 eigenvalues not converged
     c_bands:  2 eigenvalues not converged
     c_bands:  4 eigenvalues not converged
     c_bands:  2 eigenvalues not converged
     c_bands:  2 eigenvalues not converged
     c_bands:  2 eigenvalues not converged
     c_bands:  4 eigenvalues not converged
     c_bands:  3 eigenvalues not converged
     c_bands:  2 eigenvalues not converged
     ethr =  1.00E-05,  avg # of iterations = 19.2

[...]

     total energy              =   -3294.67559798 Ry
     estimated scf accuracy    <      19.62358873 Ry

     iteration #  2     ecut=    29.40 Ry     beta= 0.05
     Davidson diagonalization with overlap
     ethr =  4.46E-03,  avg # of iterations =  1.0

[...]

     iteration # 29     ecut=    29.40 Ry     beta= 0.05
     Davidson diagonalization with overlap
     c_bands:  1 eigenvalues not converged
     c_bands:  1 eigenvalues not converged
     ethr =  1.17E-06,  avg # of iterations = 11.3

[...]

     total energy              =   -3293.29230620 Ry
     estimated scf accuracy    <       0.00000014 Ry

     iteration # 53     ecut=    29.40 Ry     beta= 0.05
     Davidson diagonalization with overlap
     ethr =  1.79E-11,  avg # of iterations =  3.5

     negative rho (up, down):  3.602E-02 0.000E+00

     Adding external electric field

     Computed dipole along edir(3) :
        Dipole                1.2940 Ry au,          3.2889 Debye
        Dipole field          0.0016 Ry au,

        Potential amp.       -0.1509 Ry
        Total length         46.3494 bohr

     End of self-consistent calculation

          k = 0.0000 0.0000 0.0000 ( 26871 PWs)   bands (ev):

   -58.2971 -58.2732 -58.2694 -58.2099 -58.1615 -57.7937 -57.7733 -57.7572
   -57.6221 -57.5920 -57.5715 -57.5131 -57.4885 -56.8992 -56.8775 -56.8516
   -56.8422 -56.8366 -34.6882 -34.6612 -34.6310 -34.6192 -34.6137 -34.6086
   -34.5457 -34.4823 -34.4723 -34.4096 -34.4056 -34.4027 -34.3888 -34.3586
   -34.3338 -34.1959 -34.1499 -34.1450 -34.1247 -34.0963 -34.0829 -34.0783
   -34.0577 -34.0207 -34.0088 -33.9631 -33.9190 -33.8744 -33.8595 -33.8506
   -33.8349 -33.8271 -33.7803 -33.7573 -33.7488 -33.7432 -33.6964 -33.6908
   -33.6776 -33.3606 -33.2221 -33.2121 -33.2022 -33.1878 -33.1810 -33.1745
   -33.1627 -33.1174 -33.0851 -33.0794 -33.0265 -33.0253 -33.0083 -32.8852
   -18.9127 -18.8268 -18.3716 -18.2961 -18.1745 -18.1194 -18.1130 -18.0477
   -17.9448 -17.7238 -17.6834 -17.6746 -17.6465 -17.5388 -17.5307 -17.5272
   -17.4932 -17.4863 -17.4739 -17.3859 -17.3271 -17.3145 -17.3087 -17.3086
   -17.1997 -17.1752 -17.1233 -17.0571 -17.0451 -16.9492 -16.7647 -16.4313
   -15.3534 -15.3127 -15.3030 -15.1570 -13.6005  -6.9786  -6.6269  -6.1790
    -5.9854  -5.7753  -5.6370  -5.5222  -5.4692  -5.3767  -5.3107  -5.2858
    -5.2684  -5.2284  -5.1945  -5.1678  -5.0649  -5.0550  -4.9739  -4.9195
    -4.8739  -4.8278  -4.7855  -4.7391  -4.7368  -4.6974  -4.6283  -4.6177
    -4.5830  -4.5357  -4.5067  -4.4985  -4.4432  -4.4147  -4.3937  -4.2739
    -4.2594  -4.1919  -4.1804  -4.1731  -4.0680  -4.0611  -4.0177  -3.9870
    -3.9809  -3.9614  -3.9110  -3.8312  -3.8029  -3.6439  -3.6211  -3.6118
    -3.5197  -3.3810  -3.3673  -3.3231  -3.2036  -3.1364  -3.1124  -3.0770
    -3.0570  -3.0396  -3.0165  -3.0049  -2.9714  -2.8770  -2.8760  -2.8148
    -2.8125  -2.7977  -2.7758  -2.7704  -2.7310  -2.6584  -2.5992  -2.5865
    -2.5654  -2.5477  -2.4612  -2.4469  -2.3560  -2.3406  -2.2847  -2.2423
    -2.2363  -2.1707  -2.0959  -2.0882  -2.0242  -1.9997  -1.8259  -1.8008
    -1.7231  -1.7177  -1.6512  -1.6243  -1.6015  -1.5492  -1.4246  -1.3935
    -1.2979  -1.1862  -1.0221  -0.7822  -0.5919  -0.5702  -0.5610  -0.5289
    -0.4352  -0.3823  -0.3663  -0.2713   0.9811   1.1271   1.2801   1.3017
     1.4954   1.6050   1.6176   1.6728   1.7516   1.8499

[...]

          k = 0.0380-0.0280 0.0000 ( 26873 PWs)   bands (ev):

[...]

          k =-0.0760-0.0000 0.0000 ( 26902 PWs)   bands (ev):

[...]

          k =-0.0760-0.0559 0.0000 ( 26868 PWs)   bands (ev):

   -58.2905 -58.2864 -58.2628 -58.2097 -58.1616 -57.7936 -57.7729 -57.7576
   -57.6205 -57.5954 -57.5697 -57.5129 -57.4886 -56.8992 -56.8746 -56.8575
   -56.8421 -56.8336 -34.7135 -34.7097 -34.6634 -34.6389 -34.6059 -34.4977
   -34.4829 -34.4488 -34.4457 -34.4331 -34.4266 -34.4068 -34.3847 -34.3813
   -34.3606 -34.2312 -34.1726 -34.1674 -34.1392 -34.1218 -34.0787 -34.0026
   -33.9987 -33.9986 -33.9645 -33.9276 -33.9207 -33.9066 -33.8986 -33.8749
   -33.8654 -33.8500 -33.7752 -33.7667 -33.7393 -33.7134 -33.7126 -33.6945
   -33.6889 -33.3362 -33.2638 -33.2231 -33.2183 -33.2078 -33.1847 -33.1766
   -33.1243 -33.0803 -33.0721 -33.0532 -33.0305 -32.9962 -32.9896 -32.9727
   -18.8911 -18.6218 -18.4743 -18.2383 -18.1381 -17.9743 -17.8915 -17.8788
   -17.8609 -17.8599 -17.7608 -17.7498 -17.6988 -17.6739 -17.6310 -17.6214
   -17.6092 -17.5721 -17.5659 -17.4525 -17.3619 -17.3528 -17.2576 -17.2425
   -17.2153 -17.1537 -17.1355 -17.0460 -17.0267 -16.9540 -16.7726 -16.4161
   -15.3644 -15.3527 -15.2422 -15.1577 -13.5975  -6.9507  -6.6280  -5.9496
    -5.7549  -5.7205  -5.6699  -5.3495  -5.3120  -5.2275  -5.2020  -5.1630
    -5.1376  -5.1236  -5.0936  -5.0822  -5.0070  -4.9701  -4.9611  -4.9573
    -4.9142  -4.8953  -4.8469  -4.8256  -4.7760  -4.7551  -4.7471  -4.7128
    -4.6687  -4.6502  -4.5757  -4.5704  -4.4972  -4.4576  -4.3187  -4.2349
    -4.2096  -4.1801  -4.0835  -4.0698  -4.0369  -3.9411  -3.9253  -3.9046
    -3.7768  -3.7421  -3.6328  -3.6169  -3.5677  -3.5447  -3.5169  -3.4893
    -3.4249  -3.3828  -3.3667  -3.3617  -3.3276  -3.2592  -3.2290  -3.2124
    -3.1807  -3.1628  -3.1525  -3.1417  -3.0755  -3.0588  -3.0290  -2.9895
    -2.9282  -2.9041  -2.8488  -2.8477  -2.7867  -2.7471  -2.6927  -2.6867
    -2.6146  -2.5924  -2.5863  -2.5784  -2.4776  -2.4519  -2.4440  -2.3026
    -2.1641  -2.1127  -2.0697  -1.9664  -1.9085  -1.9048  -1.8810  -1.8129
    -1.7881  -1.7047  -1.6502  -1.6266  -1.6193  -1.5938  -1.3749  -1.3449
    -1.3333  -1.2902  -1.2260  -1.1316  -0.8123  -0.5928  -0.5795  -0.4995
    -0.4765  -0.4235  -0.4021  -0.3877   1.0302   1.2052   1.2767   1.3700
     1.3707   1.4033   1.4530   1.6189   1.6523   1.7060

     the Fermi energy is     0.3880 ev

!    total energy              =   -3293.29238539 Ry
     estimated scf accuracy    <       0.00000004 Ry
     smearing contrib. (-TS)   =      -0.00047772 Ry
     internal energy E=F+TS    =   -3293.29190767 Ry

     The total energy is F=E-TS. E is the sum of the following terms:
     one-electron contribution =  -34638.97576069 Ry
     hartree contribution      =   17383.78642468 Ry
     xc contribution           =    -542.08678052 Ry
     ewald contribution        =   14503.98210239 Ry
     electric field correction =       0.00210646 Ry

     convergence has been achieved in  53 iterations

     Forces acting on atoms (cartesian axes, Ry/au):

     atom    1 type  1   force =     0.00000976    0.00244813    0.04674080
     atom    2 type  1   force =     0.00000375   -0.00341692   -0.00286932
     atom    3 type  1   force =     0.00000754    0.00324003   -0.00095924
     atom    4 type  1   force =     0.00005030   -0.00098445    0.10171559
     atom    5 type  1   force =    -0.00000916   -0.00070323    0.00563180
     atom    6 type  1   force =    -0.00000478    0.00365338    0.00083172
     atom    7 type  1   force =     0.07819813    0.00086104   -0.03541723
     atom    8 type  1   force =     0.00834448   -0.02587184    0.00017993
     atom    9 type  1   force =     0.00849067    0.02068058    0.00128814
     atom   10 type  2   force =    -0.00006007    0.00867454   -0.15837800
     atom   11 type  2   force =    -0.00003663    0.02308514   -0.00230591
     atom   12 type  2   force =     0.00006031   -0.02562759   -0.00427097
     atom   13 type  1   force =    -0.07829097    0.00040521   -0.03540510
     atom   14 type  1   force =    -0.00838962   -0.02578463    0.00018811
     atom   15 type  1   force =    -0.00845382    0.02078272    0.00131816
     atom   16 type  2   force =     0.00012859    0.00085794    0.07317152
     atom   17 type  2   force =     0.00006211    0.03072083    0.00239961
     atom   18 type  2   force =    -0.00018206   -0.02688948    0.00066749
     atom   19 type  1   force =     0.00003945    0.00299483    0.05011387
     atom   20 type  1   force =    -0.00001457   -0.00126312   -0.00143628
     atom   21 type  1   force =     0.00005163   -0.00064734    0.10019125
     atom   22 type  1   force =    -0.00001532   -0.00179628    0.00546553
     atom   23 type  1   force =    -0.00002781    0.00236090    0.00381605
     atom   24 type  1   force =     0.07914769    0.00064578   -0.03606949
     atom   25 type  1   force =     0.00925266   -0.02947414    0.00062434
     atom   26 type  1   force =     0.00849907    0.02146635    0.00315357
     atom   27 type  2   force =    -0.00006974   -0.00813747   -0.15492747
     atom   28 type  2   force =    -0.00001488    0.02629764   -0.00223215
     atom   29 type  2   force =     0.00012402   -0.02439149   -0.00335919
     atom   30 type  1   force =    -0.07923739    0.00023596   -0.03606584
     atom   31 type  1   force =    -0.00925902   -0.02940507    0.00062861
     atom   32 type  1   force =    -0.00845934    0.02173301    0.00334514
     atom   33 type  2   force =     0.00013528   -0.00255696    0.07887224
     atom   34 type  2   force =     0.00005003    0.03586052    0.00272882
     atom   35 type  2   force =    -0.00020584   -0.02920404    0.00299240
     atom   36 type  1   force =     0.00004163    0.00306647    0.05240158
     atom   37 type  1   force =     0.00000528   -0.00186249   -0.00285834
     atom   38 type  1   force =    -0.00005020    0.00199168    0.00081438
     atom   39 type  1   force =     0.00004630    0.00287122    0.10111972
     atom   40 type  1   force =    -0.00001042   -0.00169511    0.00620229
     atom   41 type  1   force =    -0.00001901    0.00301404    0.00389693
     atom   42 type  1   force =     0.07825807    0.00076435   -0.03489030
     atom   43 type  1   force =     0.00661924   -0.02302905   -0.00020520
     atom   44 type  1   force =     0.01125975    0.02201075   -0.00702380
     atom   45 type  2   force =    -0.00006045   -0.00551309   -0.16465955
     atom   46 type  2   force =    -0.00007321    0.01959017    0.00101004
     atom   47 type  2   force =    -0.00010597   -0.01855161    0.00738662
     atom   48 type  1   force =    -0.07835433    0.00031497   -0.03487302
     atom   49 type  1   force =    -0.00665857   -0.02299810   -0.00019924
     atom   50 type  1   force =    -0.01102579    0.02220931   -0.00721656
     atom   51 type  2   force =     0.00013013   -0.00438274    0.06097054
     atom   52 type  2   force =     0.00012194    0.02965350    0.00358116
     atom   53 type  2   force =     0.00000925   -0.02499000    0.00093281
     atom   54 type  3   force =     0.00002199    0.00076888   -0.00013710
     atom   55 type  3   force =    -0.00001861   -0.00009823    0.00012824
     atom   56 type  4   force =    -0.00005679    0.00700760    0.00057128
     atom   57 type  4   force =     0.00005842   -0.00053274    0.00055404
     atom   58 type  3   force =     0.00001240   -0.00006261   -0.00009579
     atom   59 type  3   force =    -0.00007550   -0.00039767    0.00022078

     Total force =     0.437314     Total SCF correction =     0.000597
  @ DRIVER MODE: Message from server: STATUS
  @ DRIVER MODE: Message from server: GETFORCE
  @ DRIVER MODE: Returning v,forces,stress,ensemble

     Writing output data file ./calc.save/
  @ DRIVER MODE: Message from server: EXIT
  @ DRIVE MODE: Exiting

     General routines

     Parallel routines

   This run was terminated on:   0:12:38  19Oct2021

   JOB DONE.