     Program PWSCF v.6.7GPU starts on  9Sep2021 at  5: 8:58

     R & G space division:  proc/nbgrp/npool/nimage =      10
     Reading input from /storage/home/hcoda1/3/ntian30/research/carbon/CxH_vib/CH2_calc/ads_slab/CH2N2_b/out_0021/pw.inp
Warning: card &CELL ignored
Warning: card   CELL_DYNAMICS='IPI', ignored
Warning: card / ignored

     Current dimensions of program PWSCF are:
     Max number of different atomic species (ntypx) = 10
     Max number of k-points (npk) =  40000
     Max angular momentum in pseudopotentials (lmaxx) =  3
     Presently no symmetry can be used with electric field

     Message from routine cell_base_init:
     DEPRECATED: use true lattice parameter, not A to a.u. conversion factor

     IMPORTANT: XC functional enforced from input :
     Exchange-correlation= BEEF-VDW
                           (   1   4  43  14   2   0   0)
     Any further DFT definition will be discarded
     Please, verify this is what you really want

  @ DRIVER MODE: Connecting to
 qe_1139763_2767386.sched-torque.pace.gatech.edu1k3r41jn_scratch
  using UNIX socket
  @ DRIVER MODE: Message from server: STATUS
  @ DRIVER MODE: Message from server: INIT
  @ DRIVER MODE: Receiving replica           0          -1
  @ DRIVER MODE: Receiving encoded integer          25
  @ DRIVER MODE:  SCF:  T  FORCE:  T  STRESS:  F  VC:  F  ENSEMBLE:  F
  @ DRIVER MODE:  SCF:  T  FORCE:  T  STRESS:  F  VC:  F  ENSEMBLE:  F

     Using Slab Decomposition

     bravais-lattice index     =            0
     lattice parameter (alat)  =       1.8897  a.u.
     unit-cell volume          =    6658.9804 (a.u.)^3
     number of atoms/cell      =           52
     number of atomic types    =            5
     number of electrons       =       394.00
     number of Kohn-Sham states=          207
     kinetic-energy cutoff     =      29.3995  Ry
     charge density cutoff     =     293.9946  Ry
     scf convergence threshold =      7.3E-08
     mixing beta               =       0.0500
     number of iterations used =            8  plain     mixing
     Exchange-correlation= BEEF-VDW
                           (   1   4  43  14   2   0   0)

     celldm(1)=   1.889726  celldm(2)=   0.000000  celldm(3)=   0.000000
     celldm(4)=   0.000000  celldm(5)=   0.000000  celldm(6)=   0.000000

     crystal axes: (cart. coord. in units of alat)
               a(1) = (   6.579727   0.000000   0.000000 )
               a(2) = (  -0.000775   5.961596   0.000000 )
               a(3) = (   0.000000   0.000000  25.155947 )

     reciprocal axes: (cart. coord. in units 2 pi/alat)
               b(1) = (  0.151982  0.000020  0.000000 )
               b(2) = (  0.000000  0.167740  0.000000 )
               b(3) = (  0.000000  0.000000  0.039752 )

     PseudoPot. # 1 for Ti read from file:
     /storage/coda1/p-amedford6/0/shared/rich_project_chbe-medford/medford-share/data/pseudos_module/espresso/nninc/pbe/van/Ti.UPF
     MD5 check sum: 8e4df49b7f0d34bbd5052bf3f5ea0213
     Pseudo is Ultrasoft, Zval = 12.0
     Generated by new atomic code, or converted to UPF format
     Using radial grid of  851 points,  6 beta functions with:
                l(1) =   0
                l(2) =   0
                l(3) =   1
                l(4) =   1
                l(5) =   2
                l(6) =   2
     Q(r) pseudized with  8 coefficients,  rinner =    1.000   1.000   1.000
                                                       1.000   1.000

     PseudoPot. # 2 for O  read from file:
     /storage/coda1/p-amedford6/0/shared/rich_project_chbe-medford/medford-share/data/pseudos_module/espresso/nninc/pbe/van/O.UPF
     MD5 check sum: 78c19812648e8988a0fe644b0f25305e
     Pseudo is Ultrasoft, Zval =  6.0
     Generated by new atomic code, or converted to UPF format
     Using radial grid of  737 points,  4 beta functions with:
                l(1) =   0
                l(2) =   0
                l(3) =   1
                l(4) =   1
     Q(r) pseudized with  8 coefficients,  rinner =    0.800   0.800   0.800

     PseudoPot. # 3 for N  read from file:
     /storage/coda1/p-amedford6/0/shared/rich_project_chbe-medford/medford-share/data/pseudos_module/espresso/nninc/pbe/van/N.UPF
     MD5 check sum: 90d10febe142ad51ac9d5be1deb811c4
     Pseudo is Ultrasoft, Zval =  5.0
     Generated by new atomic code, or converted to UPF format
     Using radial grid of  729 points,  4 beta functions with:
                l(1) =   0
                l(2) =   0
                l(3) =   1
                l(4) =   1
     Q(r) pseudized with  8 coefficients,  rinner =    0.800   0.800   0.800

     PseudoPot. # 4 for C  read from file:
     /storage/coda1/p-amedford6/0/shared/rich_project_chbe-medford/medford-share/data/pseudos_module/espresso/nninc/pbe/van/C.UPF
     MD5 check sum: 1a69bf6b8db32088f5b2163dbdb77a27
     Pseudo is Ultrasoft, Zval =  4.0
     Generated by new atomic code, or converted to UPF format
     Using radial grid of  721 points,  4 beta functions with:
                l(1) =   0
                l(2) =   0
                l(3) =   1
                l(4) =   1
     Q(r) pseudized with  8 coefficients,  rinner =    0.800   0.800   0.800

     PseudoPot. # 5 for H  read from file:
     /storage/coda1/p-amedford6/0/shared/rich_project_chbe-medford/medford-share/data/pseudos_module/espresso/nninc/pbe/van/H.UPF
     MD5 check sum: b5ee9d7bfd3a09ee7748110bda690ff7
     Pseudo is Ultrasoft, Zval =  1.0
     Generated by new atomic code, or converted to UPF format
     Using radial grid of  615 points,  1 beta functions with:
                l(1) =   0
     Q(r) pseudized with  8 coefficients,  rinner =    0.800

     atomic species   valence    mass     pseudopotential
        Ti1           12.00    47.86700     Ti( 1.00)
        O1             6.00    15.99900     O ( 1.00)
        N1             5.00    14.00700     N ( 1.00)
        C1             4.00    12.01100     C ( 1.00)
        H1             1.00     1.00800     H ( 1.00)

     No symmetry found

   Cartesian axes

     site n.     atom                  positions (alat units)
         1           Ti1 tau(   1) = (   0.0004258   2.9801865   6.0000000  )
         2           Ti1 tau(   2) = (   3.2906075   1.4906267   6.0002472  )
         3           O1  tau(   3) = (   0.0006271   0.0005054   7.9858123  )
         4           O1  tau(   4) = (   3.2906025   0.0005020   7.3038282  )
         5           O1  tau(   5) = (   4.5942328   1.4918067   9.2879030  )
         6           O1  tau(   6) = (   1.9868534   1.4903216   9.2879459  )
         7           Ti1 tau(   7) = (   3.2907910   2.8959150   9.1758416  )
         8           Ti1 tau(   8) = (   0.0015273   1.4827037   9.2680791  )
         9           O1  tau(   9) = (   3.2944872   5.9444814  11.3088555  )
        10           O1  tau(  10) = (   0.0116148   5.9584955  10.6183126  )
        11           O1  tau(  11) = (   1.2913257   1.4757505  12.6225222  )
        12           O1  tau(  12) = (   5.2743172   1.4729811  12.6021195  )
        13           Ti1 tau(  13) = (   0.0890023   2.9564894  12.7220187  )
        14           Ti1 tau(  14) = (   3.4221593   1.4702301  12.4648352  )
        15           O1  tau(  15) = (   0.0068176   5.9411714  14.5947238  )
        16           O1  tau(  16) = (   3.2944910   5.9492763  13.8828731  )
        17           O1  tau(  17) = (   4.5250581   1.4982466  16.0456249  )
        18           O1  tau(  18) = (   2.0665045   1.4881935  16.0281199  )
        19           Ti1 tau(  19) = (   3.2778778   2.9684174  15.6871799  )
        20           Ti1 tau(  20) = (   6.5490154   1.5309925  16.0314916  )
        21           O1  tau(  21) = (   3.2904802   0.0005063   4.7018136  )
        22           O1  tau(  22) = (   0.0123181   0.0076990  17.1679072  )
        23           O1  tau(  23) = (   1.3043587   1.4918075   6.0039043  )
        24           O1  tau(  24) = (   5.2767064   1.4903225   6.0039473  )
        25           Ti1 tau(  25) = (   0.0000382   5.9609847   6.0000000  )
        26           Ti1 tau(  26) = (   3.2902200   4.4714249   6.0002472  )
        27           O1  tau(  27) = (   0.0002396   2.9813036   7.9858123  )
        28           O1  tau(  28) = (   3.2902150   2.9813002   7.3038282  )
        29           O1  tau(  29) = (   4.5938453   4.4726049   9.2879030  )
        30           O1  tau(  30) = (   1.9864658   4.4711199   9.2879459  )
        31           Ti1 tau(  31) = (   3.2891106   5.8743827   9.1763621  )
        32           Ti1 tau(  32) = (   0.0006254   4.4649316   9.2693709  )
        33           O1  tau(  33) = (   3.2980042   2.9668427  11.3079272  )
        34           O1  tau(  34) = (   0.0092240   2.9805883  10.6323155  )
        35           O1  tau(  35) = (   1.2899229   4.4488879  12.6271902  )
        36           O1  tau(  36) = (   5.2743549   4.4545148  12.6090941  )
        37           Ti1 tau(  37) = (   0.1039690   5.9375691  12.6739196  )
        38           Ti1 tau(  38) = (   3.4213609   4.4493060  12.4702176  )
        39           O1  tau(  39) = (   6.5648181   2.9459624  14.6378081  )
        40           O1  tau(  40) = (   3.2943236   2.9658899  13.8785053  )
        41           O1  tau(  41) = (   4.5287159   4.4634493  16.0515226  )
        42           O1  tau(  42) = (   2.0597896   4.4749507  16.0164256  )
        43           Ti1 tau(  43) = (   3.2714021   5.9517381  15.6902239  )
        44           Ti1 tau(  44) = (   6.5616293   4.5902425  16.0297769  )
        45           O1  tau(  45) = (   3.2900926   2.9813045   4.7018136  )
        46           O1  tau(  46) = (   1.3039711   4.4726057   6.0039043  )
        47           O1  tau(  47) = (   5.2763189   4.4711207   6.0039473  )
        48           N1  tau(  48) = (   0.6459789   3.0609845  18.5091170  )
        49           N1  tau(  49) = (   0.0956274   2.9759187  17.3381616  )
        50           C1  tau(  50) = (   0.0579326   3.2697647  19.6266723  )
        51           H1  tau(  51) = (   5.5568954   3.3736083  19.7010695  )
        52           H1  tau(  52) = (   0.6727643   3.3288843  20.5134281  )

     number of k points=    10  Fermi-Dirac smearing, width (Ry)=  0.0073
                       cart. coord. in units 2pi/alat
        k(    1) = (   0.0000000   0.0000000   0.0000000), wk =   0.1250000
        k(    2) = (   0.0000000   0.0419351   0.0000000), wk =   0.2500000
        k(    3) = (   0.0000000  -0.0838702   0.0000000), wk =   0.1250000
        k(    4) = (   0.0379955   0.0000049   0.0000000), wk =   0.2500000
        k(    5) = (   0.0379955   0.0419400   0.0000000), wk =   0.2500000
        k(    6) = (   0.0379955  -0.0838652   0.0000000), wk =   0.2500000
        k(    7) = (   0.0379955  -0.0419301   0.0000000), wk =   0.2500000
        k(    8) = (  -0.0759910  -0.0000099   0.0000000), wk =   0.1250000
        k(    9) = (  -0.0759910   0.0419252   0.0000000), wk =   0.2500000
        k(   10) = (  -0.0759910  -0.0838800   0.0000000), wk =   0.1250000

     Initial potential from superposition of free atoms

     starting charge  377.99917, renormalised to  394.00000

     negative rho (up, down):  1.508E-02 0.000E+00

     %%%%%%%%%%%%%%%%%%%%%%%%%%%%%%%%%%%%%%%%%%%%%%%%%%%%%%%%%%%%%%%%%%%%%%%%
     %                                                                      %
     % You are using vdW-DF, which was implemented by the Thonhauser group. %
     % Please cite the following two papers that made this development      %
     % possible and the two reviews that describe the various versions:     %
     %                                                                      %
     %   T. Thonhauser et al., PRL 115, 136402 (2015).                      %
     %   T. Thonhauser et al., PRB 76, 125112 (2007).                       %
     %   K. Berland et al., Rep. Prog. Phys. 78, 066501 (2015).             %
     %   D.C. Langreth et al., J. Phys.: Condens. Matter 21, 084203 (2009). %
     %                                                                      %
     %                                                                      %
     % If you are calculating the stress with vdW-DF, please also cite:     %
     %                                                                      %
     %   R. Sabatini et al., J. Phys.: Condens. Matter 24, 424209 (2012).   %
     %                                                                      %
     %%%%%%%%%%%%%%%%%%%%%%%%%%%%%%%%%%%%%%%%%%%%%%%%%%%%%%%%%%%%%%%%%%%%%%%%

     Adding external electric field

     Computed dipole along edir(3) :
        Dipole               -7.6437 Ry au,        -19.4284 Debye
        Dipole field         -0.0144 Ry au,

        Potential amp.        1.3372 Ry
        Total length         46.3494 bohr

     Starting wfcs are  298 atomic wfcs
  @ DRIVER MODE: Message from server: STATUS
  @ DRIVER MODE: Message from server: POSDATA
  @ DRIVER MODE: Reading and sharing cell
  @ DRIVER MODE: Reading and sharing positions
  @ DRIVER MODE: Received positions

     Self-consistent Calculation

     iteration #  1     ecut=    29.40 Ry     beta= 0.05
     Davidson diagonalization with overlap
     c_bands:  1 eigenvalues not converged
     c_bands:  1 eigenvalues not converged
     c_bands:  1 eigenvalues not converged
     c_bands:  1 eigenvalues not converged
     c_bands:  1 eigenvalues not converged
     c_bands:  1 eigenvalues not converged
     ethr =  1.00E-05,  avg # of iterations = 18.6

[...]

     total energy              =   -2699.58198339 Ry
     estimated scf accuracy    <    2638.55654112 Ry

[...]

     iteration #  3     ecut=    29.40 Ry     beta= 0.05
     Davidson diagonalization with overlap
     ethr =  1.00E-02,  avg # of iterations = 15.6

[...]

     iteration # 48     ecut=    29.40 Ry     beta= 0.05
     Davidson diagonalization with overlap
     c_bands:  1 eigenvalues not converged
     ethr =  3.54E-07,  avg # of iterations = 10.1

[...]

     total energy              =   -2937.89155373 Ry
     estimated scf accuracy    <       0.00000008 Ry

     iteration # 76     ecut=    29.40 Ry     beta= 0.05
     Davidson diagonalization with overlap
     ethr =  2.09E-11,  avg # of iterations =  5.0

     negative rho (up, down):  1.607E-02 0.000E+00

     Adding external electric field

     Computed dipole along edir(3) :
        Dipole                0.5217 Ry au,          1.3261 Debye
        Dipole field          0.0010 Ry au,

        Potential amp.       -0.0913 Ry
        Total length         46.3494 bohr

     End of self-consistent calculation

          k = 0.0000 0.0000 0.0000 ( 18029 PWs)   bands (ev):

   -56.3145 -56.2806 -55.8950 -55.8921 -55.8591 -55.8581 -55.8294 -55.7957
   -55.6774 -55.6686 -55.6378 -55.6320 -55.1628 -55.1363 -55.1289 -55.0592
   -32.7705 -32.6066 -32.5793 -32.4734 -32.4363 -32.3939 -32.3801 -32.3571
   -32.3158 -32.1930 -32.1798 -32.1495 -32.1407 -32.1178 -32.1072 -32.0770
   -32.0615 -32.0607 -32.0576 -32.0306 -32.0265 -32.0224 -32.0210 -32.0079
   -31.9955 -31.9920 -31.9813 -31.9396 -31.9118 -31.9075 -31.8433 -31.8294
   -31.8139 -31.8020 -31.7873 -31.7417 -31.6621 -31.5646 -31.4896 -31.4664
   -31.3893 -31.3818 -31.3469 -31.3136 -31.2962 -31.2614 -31.1863 -31.1852
   -17.7321 -16.6868 -16.5304 -16.2519 -16.0263 -15.9991 -15.8623 -15.8291
   -15.8048 -15.7770 -15.6565 -15.6165 -15.5789 -15.4620 -15.4192 -15.4069
   -15.3895 -15.3700 -15.3641 -15.2755 -15.2521 -15.2352 -15.1837 -15.0888
   -15.0576 -15.0162 -14.8746 -14.8579 -14.7611 -14.5005 -13.6638 -13.5498
   -11.9308  -6.6381  -4.6225  -4.1549  -4.0866  -4.0182  -3.8654  -3.7823
    -3.5954  -3.5613  -3.4676  -3.2399  -3.1546  -3.1455  -3.0698  -3.0453
    -3.0349  -2.9428  -2.8756  -2.8443  -2.8218  -2.8000  -2.7425  -2.6645
    -2.6186  -2.5857  -2.5667  -2.5339  -2.4279  -2.3723  -2.3567  -2.3327
    -2.2745  -2.2590  -2.2351  -2.2305  -2.1944  -2.1822  -2.1022  -2.0686
    -1.9454  -1.8720  -1.7483  -1.7410  -1.6692  -1.6503  -1.6259  -1.4269
    -1.4025  -1.3274  -1.2926  -1.2368  -1.2104  -1.1579  -1.0951  -1.0612
    -0.9640  -0.9364  -0.9061  -0.8713  -0.8490  -0.8191  -0.7995  -0.7400
    -0.6922  -0.5168  -0.4749  -0.4414  -0.3458  -0.3316  -0.3011  -0.2628
    -0.2483  -0.1962  -0.1903  -0.1766  -0.1183  -0.1043  -0.0191   0.0479
     0.0539   0.1030   0.1774   0.2399   0.2762   0.3941   0.4429   0.5102
     0.6058   0.6140   0.6748   0.8248   0.8390   0.8588   0.8630   1.0712
     1.3190   1.4209   1.4628   1.5653   2.7691   2.9061   3.0152   3.2112
     3.3276   3.3468   3.5230   3.6634   3.7007   3.7574   3.7651

[...]

          k = 0.0380-0.0419 0.0000 ( 17876 PWs)   bands (ev):

[...]

          k =-0.0760-0.0000 0.0000 ( 17886 PWs)   bands (ev):

[...]

          k =-0.0760-0.0839 0.0000 ( 17948 PWs)   bands (ev):

   -56.2977 -56.2973 -55.8793 -55.8775 -55.8746 -55.8724 -55.8135 -55.8117
   -55.6669 -55.6561 -55.6482 -55.6444 -55.1459 -55.1457 -55.1321 -55.0633
   -32.5923 -32.5918 -32.5863 -32.5860 -32.4250 -32.4246 -32.2432 -32.2394
   -32.1826 -32.1770 -32.1542 -32.1521 -32.1358 -32.1328 -32.0928 -32.0890
   -32.0671 -32.0613 -32.0549 -32.0525 -32.0415 -32.0401 -32.0265 -32.0255
   -32.0148 -32.0016 -31.9812 -31.9724 -31.9463 -31.9355 -31.8867 -31.8803
   -31.8727 -31.8474 -31.8156 -31.8120 -31.5512 -31.4793 -31.4792 -31.4060
   -31.3783 -31.3781 -31.3583 -31.3420 -31.3391 -31.3391 -31.2688 -31.2439
   -17.7261 -16.0467 -16.0445 -16.0402 -16.0338 -15.9159 -15.9138 -15.7570
   -15.7549 -15.7290 -15.7236 -15.5783 -15.5549 -15.5136 -15.5127 -15.4727
   -15.4628 -15.3941 -15.3913 -15.3822 -15.3764 -15.3615 -15.3570 -15.3124
   -15.2711 -15.0328 -14.9599 -14.9000 -14.7850 -14.6909 -13.6524 -13.6523
   -11.9351  -6.6325  -4.5626  -4.0811  -3.3370  -3.3324  -3.1689  -3.1511
    -3.0971  -3.0958  -3.0152  -2.9718  -2.9706  -2.8553  -2.8331  -2.7921
    -2.7886  -2.7745  -2.7719  -2.7382  -2.7323  -2.7105  -2.7040  -2.6482
    -2.6334  -2.6265  -2.6215  -2.5483  -2.5050  -2.4767  -2.4439  -2.4100
    -2.3812  -2.2896  -2.2860  -2.2490  -2.2276  -2.1682  -2.1646  -2.1108
    -2.0755  -2.0083  -1.9988  -1.7870  -1.7408  -1.7315  -1.6810  -1.5946
    -1.5723  -1.4272  -1.3959  -1.3341  -1.3220  -1.2717  -1.2536  -1.2447
    -1.1577  -1.1499  -1.1413  -1.0651  -1.0571  -0.9959  -0.9596  -0.9273
    -0.8426  -0.8285  -0.7894  -0.7869  -0.7769  -0.7093  -0.6627  -0.5908
    -0.5425  -0.5291  -0.4101  -0.3611  -0.2947  -0.2315  -0.1886  -0.0854
    -0.0424  -0.0328   0.1769   0.1875   0.2323   0.3230   0.4436   0.4448
     0.4832   0.5748   0.5967   0.6221   0.6389   0.8363   0.9097   1.2385
     1.2396   1.2795   1.2799   1.5290   2.7283   3.4307   3.4316   3.4566
     3.4571   3.5935   3.6173   3.6537   3.6629   3.7459   3.7498

     the Fermi energy is     2.8555 ev

!    total energy              =   -2937.89156205 Ry
     estimated scf accuracy    <       0.00000004 Ry
     smearing contrib. (-TS)   =      -0.01395811 Ry
     internal energy E=F+TS    =   -2937.87760394 Ry

     The total energy is F=E-TS. E is the sum of the following terms:
     one-electron contribution =  -24294.00187038 Ry
     hartree contribution      =   12233.34809304 Ry
     xc contribution           =    -484.31446361 Ry
     ewald contribution        =    9607.09012333 Ry
     electric field correction =       0.00051369 Ry

     convergence has been achieved in  76 iterations

     Forces acting on atoms (cartesian axes, Ry/au):

     atom    1 type  1   force =     0.00011035   -0.00021020    0.10742386
     atom    2 type  1   force =    -0.00012053   -0.00062421   -0.16927729
     atom    3 type  2   force =    -0.00016050    0.00000452   -0.04192838
     atom    4 type  2   force =     0.00005567   -0.00093470    0.04203645
     atom    5 type  2   force =    -0.01490727    0.00021874   -0.00301540
     atom    6 type  2   force =     0.01654197    0.00103485   -0.00399271
     atom    7 type  1   force =    -0.00113402   -0.00212560    0.00240756
     atom    8 type  1   force =     0.00131778    0.00452754    0.07558194
     atom    9 type  2   force =     0.00004121    0.00011040    0.00043324
     atom   10 type  2   force =    -0.00132394    0.00009818   -0.04721268
     atom   11 type  2   force =    -0.00045895    0.00032021    0.00023892
     atom   12 type  2   force =    -0.00007571    0.00050130    0.00015023
     atom   13 type  1   force =     0.00045009   -0.00041544    0.00070029
     atom   14 type  1   force =    -0.00014457   -0.00011804   -0.00007075
     atom   15 type  2   force =    -0.00022935   -0.00022082    0.00019314
     atom   16 type  2   force =     0.00019570    0.00024243   -0.00015435
     atom   17 type  2   force =     0.00010779    0.00050110    0.00030964
     atom   18 type  2   force =    -0.00038677   -0.00005970   -0.00029752
     atom   19 type  1   force =     0.00017369    0.00077154   -0.00025387
     atom   20 type  1   force =     0.00023116    0.00006926    0.00007025
     atom   21 type  2   force =     0.00007050    0.00003736    0.10164289
     atom   22 type  2   force =    -0.00042276    0.00042517    0.00009356
     atom   23 type  2   force =    -0.07420694   -0.00003336   -0.02982118
     atom   24 type  2   force =     0.07416248    0.00041948   -0.02982392
     atom   25 type  1   force =     0.00025631   -0.00034713    0.10691709
     atom   26 type  1   force =    -0.00002854   -0.00037406   -0.16935838
     atom   27 type  2   force =    -0.00004097   -0.00029210   -0.04087085
     atom   28 type  2   force =     0.00011016   -0.00073544    0.04200856
     atom   29 type  2   force =    -0.01521170    0.00063607   -0.00330497
     atom   30 type  2   force =     0.01677487    0.00101034   -0.00427789
     atom   31 type  1   force =    -0.00133357    0.00038224    0.00216269
     atom   32 type  1   force =     0.00130752   -0.00711583    0.07620618
     atom   33 type  2   force =    -0.00004971    0.00016825    0.00015965
     atom   34 type  2   force =    -0.00146378   -0.00007930   -0.05551936
     atom   35 type  2   force =     0.00001834    0.00006352    0.00012366
     atom   36 type  2   force =    -0.00003400    0.00021857   -0.00014024
     atom   37 type  1   force =     0.00022166    0.00028015    0.00039993
     atom   38 type  1   force =     0.00011483    0.00022977   -0.00031746
     atom   39 type  2   force =    -0.00023237   -0.00003634   -0.00062918
     atom   40 type  2   force =     0.00007847    0.00026741    0.00017048
     atom   41 type  2   force =    -0.00042265    0.00023838   -0.00042615
     atom   42 type  2   force =     0.00017489    0.00021287    0.00023074
     atom   43 type  1   force =    -0.00014354    0.00061233    0.00022402
     atom   44 type  1   force =    -0.00024977    0.00019646   -0.00011113
     atom   45 type  2   force =     0.00006110    0.00000150    0.10165590
     atom   46 type  2   force =    -0.07419483    0.00001425   -0.02979226
     atom   47 type  2   force =     0.07414973    0.00044605   -0.02981190
     atom   48 type  3   force =     0.00075719    0.00172590   -0.00037394
     atom   49 type  3   force =     0.00015049   -0.00057445   -0.00079267
     atom   50 type  4   force =     0.00127484   -0.00271381    0.00067549
     atom   51 type  5   force =    -0.00093953    0.00105589   -0.00029395
     atom   52 type  5   force =    -0.00099255   -0.00003151   -0.00034796

     Total force =     0.389253     Total SCF correction =     0.000390
  @ DRIVER MODE: Message from server: STATUS
  @ DRIVER MODE: Message from server: GETFORCE
  @ DRIVER MODE: Returning v,forces,stress,ensemble

     Writing output data file ./calc.save/
  @ DRIVER MODE: Message from server: EXIT
  @ DRIVE MODE: Exiting

     General routines

     Parallel routines

   This run was terminated on:   5:31:23   9Sep2021

   JOB DONE.