     Program PWSCF v.6.7GPU starts on 16Jul2021 at  7:19:32

     R & G space division:  proc/nbgrp/npool/nimage =      16
     Reading input from /storage/home/hcoda1/3/ntian30/research/carbon/15Jul_vib/ads_slab/CH3NH_a/out_0030/pw.inp
Warning: card &CELL ignored
Warning: card   CELL_DYNAMICS='IPI', ignored
Warning: card / ignored

     Current dimensions of program PWSCF are:
     Max number of different atomic species (ntypx) = 10
     Max number of k-points (npk) =  40000
     Max angular momentum in pseudopotentials (lmaxx) =  3
     Presently no symmetry can be used with electric field

     Message from routine cell_base_init:
     DEPRECATED: use true lattice parameter, not A to a.u. conversion factor

     IMPORTANT: XC functional enforced from input :
     Exchange-correlation= BEEF-VDW
                           (   1   4  43  14   2   0   0)
     Any further DFT definition will be discarded
     Please, verify this is what you really want

  @ DRIVER MODE: Connecting to
 qe_1139763_2351648.sched-torque.pace.gatech.edumw4qxxfp_scratch
  using UNIX socket
  @ DRIVER MODE: Message from server: STATUS
  @ DRIVER MODE: Message from server: INIT
  @ DRIVER MODE: Receiving replica           0          -1
  @ DRIVER MODE: Receiving encoded integer          25
  @ DRIVER MODE:  SCF:  T  FORCE:  T  STRESS:  F  VC:  F  ENSEMBLE:  F
  @ DRIVER MODE:  SCF:  T  FORCE:  T  STRESS:  F  VC:  F  ENSEMBLE:  F

     Using Slab Decomposition

     bravais-lattice index     =            0
     lattice parameter (alat)  =       1.8897  a.u.
     unit-cell volume          =    6658.9804 (a.u.)^3
     number of atoms/cell      =           53
     number of atomic types    =            5
     number of electrons       =       391.00
     number of Kohn-Sham states=          205
     kinetic-energy cutoff     =      29.3995  Ry
     charge density cutoff     =     293.9946  Ry
     scf convergence threshold =      7.3E-08
     mixing beta               =       0.0500
     number of iterations used =            8  plain     mixing
     Exchange-correlation= BEEF-VDW
                           (   1   4  43  14   2   0   0)

     celldm(1)=   1.889726  celldm(2)=   0.000000  celldm(3)=   0.000000
     celldm(4)=   0.000000  celldm(5)=   0.000000  celldm(6)=   0.000000

     crystal axes: (cart. coord. in units of alat)
               a(1) = (   6.579727   0.000000   0.000000 )
               a(2) = (  -0.000775   5.961596   0.000000 )
               a(3) = (   0.000000   0.000000  25.155947 )

     reciprocal axes: (cart. coord. in units 2 pi/alat)
               b(1) = (  0.151982  0.000020  0.000000 )
               b(2) = (  0.000000  0.167740  0.000000 )
               b(3) = (  0.000000  0.000000  0.039752 )

     PseudoPot. # 1 for Ti read from file:
     /storage/coda1/p-amedford6/0/shared/rich_project_chbe-medford/medford-share/data/pseudos_module/espresso/nninc/pbe/van/Ti.UPF
     MD5 check sum: 8e4df49b7f0d34bbd5052bf3f5ea0213
     Pseudo is Ultrasoft, Zval = 12.0
     Generated by new atomic code, or converted to UPF format
     Using radial grid of  851 points,  6 beta functions with:
                l(1) =   0
                l(2) =   0
                l(3) =   1
                l(4) =   1
                l(5) =   2
                l(6) =   2
     Q(r) pseudized with  8 coefficients,  rinner =    1.000   1.000   1.000
                                                       1.000   1.000

     PseudoPot. # 2 for O  read from file:
     /storage/coda1/p-amedford6/0/shared/rich_project_chbe-medford/medford-share/data/pseudos_module/espresso/nninc/pbe/van/O.UPF
     MD5 check sum: 78c19812648e8988a0fe644b0f25305e
     Pseudo is Ultrasoft, Zval =  6.0
     Generated by new atomic code, or converted to UPF format
     Using radial grid of  737 points,  4 beta functions with:
                l(1) =   0
                l(2) =   0
                l(3) =   1
                l(4) =   1
     Q(r) pseudized with  8 coefficients,  rinner =    0.800   0.800   0.800

     PseudoPot. # 3 for H  read from file:
     /storage/coda1/p-amedford6/0/shared/rich_project_chbe-medford/medford-share/data/pseudos_module/espresso/nninc/pbe/van/H.UPF
     MD5 check sum: b5ee9d7bfd3a09ee7748110bda690ff7
     Pseudo is Ultrasoft, Zval =  1.0
     Generated by new atomic code, or converted to UPF format
     Using radial grid of  615 points,  1 beta functions with:
                l(1) =   0
     Q(r) pseudized with  8 coefficients,  rinner =    0.800

     PseudoPot. # 4 for N  read from file:
     /storage/coda1/p-amedford6/0/shared/rich_project_chbe-medford/medford-share/data/pseudos_module/espresso/nninc/pbe/van/N.UPF
     MD5 check sum: 90d10febe142ad51ac9d5be1deb811c4
     Pseudo is Ultrasoft, Zval =  5.0
     Generated by new atomic code, or converted to UPF format
     Using radial grid of  729 points,  4 beta functions with:
                l(1) =   0
                l(2) =   0
                l(3) =   1
                l(4) =   1
     Q(r) pseudized with  8 coefficients,  rinner =    0.800   0.800   0.800

     PseudoPot. # 5 for C  read from file:
     /storage/coda1/p-amedford6/0/shared/rich_project_chbe-medford/medford-share/data/pseudos_module/espresso/nninc/pbe/van/C.UPF
     MD5 check sum: 1a69bf6b8db32088f5b2163dbdb77a27
     Pseudo is Ultrasoft, Zval =  4.0
     Generated by new atomic code, or converted to UPF format
     Using radial grid of  721 points,  4 beta functions with:
                l(1) =   0
                l(2) =   0
                l(3) =   1
                l(4) =   1
     Q(r) pseudized with  8 coefficients,  rinner =    0.800   0.800   0.800

     atomic species   valence    mass     pseudopotential
        Ti1           12.00    47.86700     Ti( 1.00)
        O1             6.00    15.99900     O ( 1.00)
        H1             1.00     1.00800     H ( 1.00)
        N1             5.00    14.00700     N ( 1.00)
        C1             4.00    12.01100     C ( 1.00)

     Starting magnetic structure
     atomic species   magnetization
        Ti1          0.000
        O1           0.000
        H1           0.000
        N1           0.000
        C1           0.025

     No symmetry found

   Cartesian axes

     site n.     atom                  positions (alat units)
         1           Ti1 tau(   1) = (   0.0004258   2.9801865   6.0000000  )
         2           Ti1 tau(   2) = (   3.2906075   1.4906267   6.0002472  )
         3           O1  tau(   3) = (   0.0006271   0.0005054   7.9858123  )
         4           O1  tau(   4) = (   3.2906025   0.0005020   7.3038282  )
         5           O1  tau(   5) = (   4.5942328   1.4918067   9.2879030  )
         6           O1  tau(   6) = (   1.9868534   1.4903216   9.2879459  )
         7           Ti1 tau(   7) = (   3.2907910   2.8959150   9.1758416  )
         8           Ti1 tau(   8) = (   0.0015273   1.4827037   9.2680791  )
         9           O1  tau(   9) = (   3.2884659   0.0075485  11.3235732  )
        10           O1  tau(  10) = (   0.0116148   5.9584955  10.6183126  )
        11           O1  tau(  11) = (   1.3171120   1.5008813  12.6157184  )
        12           O1  tau(  12) = (   5.2946386   1.4924346  12.6071097  )
        13           Ti1 tau(  13) = (   6.5241923   2.9548932  12.6217359  )
        14           Ti1 tau(  14) = (   3.2094326   1.4975571  12.4685497  )
        15           O1  tau(  15) = (   6.5712017   0.0435206  14.6415704  )
        16           O1  tau(  16) = (   3.3105969   0.0188825  13.9167609  )
        17           O1  tau(  17) = (   4.5276945   1.5520673  16.0775932  )
        18           O1  tau(  18) = (   2.0451199   1.5488911  16.0433559  )
        19           Ti1 tau(  19) = (   3.3056363   3.0248959  15.6834923  )
        20           Ti1 tau(  20) = (   0.0598299   1.5678558  15.8702049  )
        21           O1  tau(  21) = (   3.2904802   0.0005063   4.7018136  )
        22           O1  tau(  22) = (   0.0261329   0.0581799  17.1997403  )
        23           O1  tau(  23) = (   1.3043587   1.4918075   6.0039043  )
        24           O1  tau(  24) = (   5.2767064   1.4903225   6.0039473  )
        25           Ti1 tau(  25) = (   0.0000382   5.9609847   6.0000000  )
        26           Ti1 tau(  26) = (   3.2902200   4.4714249   6.0002472  )
        27           O1  tau(  27) = (   0.0002396   2.9813036   7.9858123  )
        28           O1  tau(  28) = (   3.2902150   2.9813002   7.3038282  )
        29           O1  tau(  29) = (   4.5938453   4.4726049   9.2879030  )
        30           O1  tau(  30) = (   1.9864658   4.4711199   9.2879459  )
        31           Ti1 tau(  31) = (   3.2891106   5.8743827   9.1763621  )
        32           Ti1 tau(  32) = (   0.0006254   4.4649316   9.2693709  )
        33           O1  tau(  33) = (   3.2900467   2.9919642  11.3219399  )
        34           O1  tau(  34) = (   0.0092240   2.9805883  10.6323155  )
        35           O1  tau(  35) = (   1.3109590   4.4888342  12.6262493  )
        36           O1  tau(  36) = (   5.2962169   4.4808628  12.6191006  )
        37           Ti1 tau(  37) = (   6.5213093   5.9327278  12.5667326  )
        38           Ti1 tau(  38) = (   3.2063601   4.4772876  12.4706241  )
        39           O1  tau(  39) = (   6.5765807   2.9606619  14.6437028  )
        40           O1  tau(  40) = (   3.3047873   3.0036736  13.8926904  )
        41           O1  tau(  41) = (   4.5386289   4.5058657  16.0833063  )
        42           O1  tau(  42) = (   2.0584685   4.5123608  16.0729366  )
        43           Ti1 tau(  43) = (   3.3398093   0.0384087  15.7085799  )
        44           Ti1 tau(  44) = (   0.0478225   4.6849499  16.0879628  )
        45           O1  tau(  45) = (   3.2900926   2.9813045   4.7018136  )
        46           O1  tau(  46) = (   1.3039711   4.4726057   6.0039043  )
        47           O1  tau(  47) = (   5.2763189   4.4711207   6.0039473  )
        48           H1  tau(  48) = (   5.6109407   2.9912845  17.7881963  )
        49           N1  tau(  49) = (   6.5652763   3.0051276  17.4431066  )
        50           C1  tau(  50) = (   0.8863280   2.9891452  18.6126320  )
        51           H1  tau(  51) = (   1.3596840   3.9617220  18.7724638  )
        52           H1  tau(  52) = (   0.3315535   2.7344040  19.5271108  )
        53           H1  tau(  53) = (   1.6705027   2.2407838  18.4910999  )

     number of k points=    10  Fermi-Dirac smearing, width (Ry)=  0.0073
                       cart. coord. in units 2pi/alat
        k(    1) = (   0.0000000   0.0000000   0.0000000), wk =   0.0625000
        k(    2) = (   0.0000000   0.0419351   0.0000000), wk =   0.1250000
        k(    3) = (   0.0000000  -0.0838702   0.0000000), wk =   0.0625000
        k(    4) = (   0.0379955   0.0000049   0.0000000), wk =   0.1250000
        k(    5) = (   0.0379955   0.0419400   0.0000000), wk =   0.1250000
        k(    6) = (   0.0379955  -0.0838652   0.0000000), wk =   0.1250000
        k(    7) = (   0.0379955  -0.0419301   0.0000000), wk =   0.1250000
        k(    8) = (  -0.0759910  -0.0000099   0.0000000), wk =   0.0625000
[...]

     Initial potential from superposition of free atoms

     starting charge  374.99916, renormalised to  391.00000

     negative rho (up, down):  8.883E-03 8.890E-03

     %%%%%%%%%%%%%%%%%%%%%%%%%%%%%%%%%%%%%%%%%%%%%%%%%%%%%%%%%%%%%%%%%%%%%%%%
     %                                                                      %
     % You are using vdW-DF, which was implemented by the Thonhauser group. %
     % Please cite the following two papers that made this development      %
     % possible and the two reviews that describe the various versions:     %
     %                                                                      %
     %   T. Thonhauser et al., PRL 115, 136402 (2015).                      %
     %   T. Thonhauser et al., PRB 76, 125112 (2007).                       %
     %   K. Berland et al., Rep. Prog. Phys. 78, 066501 (2015).             %
     %   D.C. Langreth et al., J. Phys.: Condens. Matter 21, 084203 (2009). %
     %                                                                      %
     %                                                                      %
     % If you are calculating the stress with vdW-DF, please also cite:     %
     %                                                                      %
     %   R. Sabatini et al., J. Phys.: Condens. Matter 24, 424209 (2012).   %
     %                                                                      %
     %%%%%%%%%%%%%%%%%%%%%%%%%%%%%%%%%%%%%%%%%%%%%%%%%%%%%%%%%%%%%%%%%%%%%%%%

     Adding external electric field

     Computed dipole along edir(3) :
        Dipole               -5.8092 Ry au,        -14.7655 Debye
        Dipole field         -0.0110 Ry au,

        Potential amp.        1.0162 Ry
        Total length         46.3494 bohr

[...]

     Starting wfcs are  296 atomic wfcs
  @ DRIVER MODE: Message from server: STATUS
  @ DRIVER MODE: Message from server: POSDATA
  @ DRIVER MODE: Reading and sharing cell
  @ DRIVER MODE: Reading and sharing positions
  @ DRIVER MODE: Received positions

     Self-consistent Calculation

     iteration #  1     ecut=    29.40 Ry     beta= 0.05
     Davidson diagonalization with overlap
     c_bands:  3 eigenvalues not converged
     c_bands:  1 eigenvalues not converged
     c_bands:  1 eigenvalues not converged
     c_bands:  2 eigenvalues not converged
     c_bands:  4 eigenvalues not converged
     c_bands:  2 eigenvalues not converged
     c_bands:  1 eigenvalues not converged
     c_bands:  1 eigenvalues not converged
     c_bands:  2 eigenvalues not converged
     c_bands:  3 eigenvalues not converged
     c_bands:  1 eigenvalues not converged
     c_bands:  1 eigenvalues not converged
     c_bands:  2 eigenvalues not converged
     c_bands:  4 eigenvalues not converged
     c_bands:  2 eigenvalues not converged
     c_bands:  1 eigenvalues not converged
     c_bands:  1 eigenvalues not converged
     c_bands:  2 eigenvalues not converged
     ethr =  1.00E-05,  avg # of iterations = 19.5

[...]

     total energy              =   -2770.85422889 Ry
     estimated scf accuracy    <    1639.39337725 Ry

     total magnetization       =     0.01 Bohr mag/cell
     absolute magnetization    =     0.02 Bohr mag/cell

[...]

     iteration #  3     ecut=    29.40 Ry     beta= 0.05
     Davidson diagonalization with overlap
     ethr =  1.00E-02,  avg # of iterations = 15.0

[...]

     iteration # 54     ecut=    29.40 Ry     beta= 0.05
     Davidson diagonalization with overlap
     c_bands:  1 eigenvalues not converged
     c_bands:  1 eigenvalues not converged
     ethr =  5.63E-11,  avg # of iterations = 10.5

[...]

     total energy              =   -2920.42033259 Ry
     estimated scf accuracy    <       0.00000010 Ry

[...]

     iteration # 56     ecut=    29.40 Ry     beta= 0.05
     Davidson diagonalization with overlap
     ethr =  2.55E-11,  avg # of iterations =  7.9

     negative rho (up, down):  9.141E-03 9.141E-03

[...]

     Adding external electric field

     Computed dipole along edir(3) :
        Dipole                0.6918 Ry au,          1.7583 Debye
        Dipole field          0.0013 Ry au,

        Potential amp.       -0.1210 Ry
        Total length         46.3494 bohr

     Magnetic moment per site  (integrated on atomic sphere of radius R)
     atom   1 (R=0.717)  charge=  7.8575  magn=  0.0000
     atom   2 (R=0.717)  charge=  7.8411  magn=  0.0001
     atom   3 (R=0.717)  charge=  4.8649  magn= -0.0000
     atom   4 (R=0.717)  charge=  4.9003  magn= -0.0000
     atom   5 (R=0.717)  charge=  4.8705  magn= -0.0000
     atom   6 (R=0.717)  charge=  4.8712  magn= -0.0000
     atom   7 (R=0.717)  charge=  7.8399  magn=  0.0001
     atom   8 (R=0.717)  charge=  7.8316  magn=  0.0000
     atom   9 (R=0.717)  charge=  4.8873  magn= -0.0000
     atom  10 (R=0.717)  charge=  4.8598  magn= -0.0000
     atom  11 (R=0.717)  charge=  4.8722  magn= -0.0000
     atom  12 (R=0.717)  charge=  4.8711  magn= -0.0000
     atom  13 (R=0.717)  charge=  7.8297  magn=  0.0000
     atom  14 (R=0.717)  charge=  7.8426  magn=  0.0000
     atom  15 (R=0.717)  charge=  4.8599  magn=  0.0000
     atom  16 (R=0.717)  charge=  4.8822  magn= -0.0000
     atom  17 (R=0.717)  charge=  4.8579  magn= -0.0000
     atom  18 (R=0.717)  charge=  4.8644  magn= -0.0000
     atom  19 (R=0.717)  charge=  7.8685  magn=  0.0000
     atom  20 (R=0.717)  charge=  7.8397  magn= -0.0000
     atom  21 (R=0.717)  charge=  4.7571  magn= -0.0003
     atom  22 (R=0.717)  charge=  4.8381  magn=  0.0000
     atom  23 (R=0.717)  charge=  4.8628  magn= -0.0000
     atom  24 (R=0.717)  charge=  4.8628  magn= -0.0000
     atom  25 (R=0.717)  charge=  7.8575  magn=  0.0001
     atom  26 (R=0.717)  charge=  7.8411  magn=  0.0001
     atom  27 (R=0.717)  charge=  4.8641  magn=  0.0000
     atom  28 (R=0.717)  charge=  4.9005  magn= -0.0000
     atom  29 (R=0.717)  charge=  4.8713  magn= -0.0000
     atom  30 (R=0.717)  charge=  4.8719  magn= -0.0000
     atom  31 (R=0.717)  charge=  7.8400  magn=  0.0001
     atom  32 (R=0.717)  charge=  7.8317  magn=  0.0000
     atom  33 (R=0.717)  charge=  4.8864  magn= -0.0000
     atom  34 (R=0.717)  charge=  4.8464  magn= -0.0000
     atom  35 (R=0.717)  charge=  4.8727  magn= -0.0000
     atom  36 (R=0.717)  charge=  4.8718  magn= -0.0000
     atom  37 (R=0.717)  charge=  7.8315  magn=  0.0000
     atom  38 (R=0.717)  charge=  7.8429  magn=  0.0001
     atom  39 (R=0.717)  charge=  4.8524  magn=  0.0000
     atom  40 (R=0.717)  charge=  4.8881  magn= -0.0000
     atom  41 (R=0.717)  charge=  4.8602  magn= -0.0000
     atom  42 (R=0.717)  charge=  4.8621  magn= -0.0000
     atom  43 (R=0.717)  charge=  7.8658  magn=  0.0000
     atom  44 (R=0.717)  charge=  7.8696  magn= -0.0000
     atom  45 (R=0.717)  charge=  4.7571  magn= -0.0002
     atom  46 (R=0.717)  charge=  4.8628  magn= -0.0000
     atom  47 (R=0.717)  charge=  4.8628  magn= -0.0000
     atom  48 (R=0.419)  charge=  0.4540  magn=  0.0000
     atom  49 (R=0.419)  charge=  1.3226  magn= -0.0000
     atom  50 (R=0.450)  charge=  0.8474  magn=  0.0001
     atom  51 (R=0.419)  charge=  0.4420  magn= -0.0000
     atom  52 (R=0.419)  charge=  0.4389  magn= -0.0000
     atom  53 (R=0.419)  charge=  0.4432  magn= -0.0000

     End of self-consistent calculation

 ------ SPIN UP ------------

          k = 0.0000 0.0000 0.0000 ( 18029 PWs)   bands (ev):

   -55.9820 -55.9737 -55.9479 -55.9376 -55.8857 -55.8249 -55.8202 -55.7872
   -55.7855 -55.7533 -55.7469 -55.7133 -55.5558 -55.2758 -54.9550 -54.9210
   -32.5335 -32.4631 -32.3346 -32.3213 -32.3008 -32.2862 -32.2750 -32.2379
   -32.2234 -32.2209 -32.1965 -32.1895 -32.1568 -32.1340 -32.1253 -32.1184
   -32.1165 -32.0851 -32.0654 -32.0390 -32.0312 -32.0270 -32.0113 -31.9899
   -31.9801 -31.9784 -31.9736 -31.9632 -31.9502 -31.9431 -31.9408 -31.9354
   -31.9236 -31.9172 -31.9001 -31.8940 -31.8594 -31.8204 -31.7246 -31.5499
   -31.5434 -31.4726 -31.3617 -31.2738 -31.2514 -31.1784 -31.0919 -30.9809
   -16.7430 -16.4595 -16.2802 -16.1371 -16.1042 -16.0191 -15.8186 -15.6934
   -15.6805 -15.5773 -15.5395 -15.5163 -15.5087 -15.4817 -15.4787 -15.4199
   -15.4169 -15.4043 -15.3919 -15.3359 -15.3120 -15.2723 -15.1779 -15.1540
   -15.1384 -15.1117 -15.0310 -15.0237 -14.5839 -14.0987 -13.4566 -13.3402
    -8.9210  -4.3561  -4.1137  -3.9368  -3.8979  -3.8844  -3.8360  -3.5843
    -3.5681  -3.3103  -3.1933  -3.1765  -3.1678  -3.1518  -3.1378  -3.1183
    -2.8811  -2.8107  -2.7968  -2.7743  -2.7675  -2.7642  -2.7520  -2.7481
    -2.7058  -2.6451  -2.5246  -2.5136  -2.4091  -2.3619  -2.3375  -2.2914
    -2.2473  -2.2412  -2.2285  -2.2116  -2.1967  -2.1780  -2.1603  -2.0258
    -1.9619  -1.8342  -1.7866  -1.7802  -1.5827  -1.5379  -1.4482  -1.4245
    -1.4085  -1.4010  -1.3688  -1.2887  -1.1969  -1.1402  -1.1262  -1.0739
    -0.9971  -0.9856  -0.8750  -0.8705  -0.8059  -0.7508  -0.7415  -0.7320
    -0.6869  -0.6115  -0.5403  -0.4664  -0.4168  -0.3954  -0.3682  -0.2897
    -0.2596  -0.1629  -0.1445  -0.0978  -0.0947  -0.0455  -0.0036   0.0062
     0.0127   0.0274   0.0451   0.1937   0.3008   0.3574   0.3908   0.4018
     0.5572   0.5932   0.6814   0.7688   0.9946   1.0678   1.1611   1.2605
     1.3234   1.6387   1.6840   3.1613   3.2399   3.2932   3.3016   3.4030
     3.4055   3.6111   3.6233   3.6337   3.7021

[...]

          k =-0.0760-0.0000 0.0000 ( 17886 PWs)   bands (ev):

[...]

 ------ SPIN DOWN ----------

[...]

          k = 0.0380-0.0419 0.0000 ( 17876 PWs)   bands (ev):

[...]

          k =-0.0760-0.0839 0.0000 ( 17948 PWs)   bands (ev):

   -55.9653 -55.9644 -55.9564 -55.9544 -55.8802 -55.8301 -55.8050 -55.8006
   -55.7709 -55.7690 -55.7307 -55.7294 -55.5549 -55.2768 -54.9377 -54.9375
   -32.3377 -32.3349 -32.2789 -32.2781 -32.2662 -32.2606 -32.2597 -32.2457
   -32.1835 -32.1825 -32.1759 -32.1721 -32.1489 -32.1207 -32.1022 -32.0980
   -32.0875 -32.0846 -32.0840 -32.0837 -32.0820 -32.0704 -32.0680 -32.0361
   -32.0253 -32.0194 -31.9949 -31.9857 -31.9677 -31.9672 -31.9633 -31.9622
   -31.9455 -31.9448 -31.9423 -31.9406 -31.8887 -31.8231 -31.7198 -31.6133
   -31.5456 -31.4980 -31.2639 -31.2638 -31.1742 -31.1740 -31.1349 -31.1349
   -16.1949 -16.1615 -15.9260 -15.9164 -15.9075 -15.8913 -15.7467 -15.6947
   -15.6863 -15.6796 -15.6552 -15.6315 -15.5803 -15.5498 -15.5162 -15.5094
   -15.5028 -15.4977 -15.4413 -15.4348 -15.4124 -15.4050 -15.2915 -15.2874
   -15.2859 -15.2098 -15.1455 -15.0122 -14.7538 -14.1197 -13.4431 -13.4427
    -8.9246  -4.3669  -3.4894  -3.4512  -3.2753  -3.1898  -3.1657  -3.1527
    -3.1315  -3.0514  -2.8923  -2.8778  -2.8593  -2.8461  -2.8062  -2.8010
    -2.7892  -2.7753  -2.7683  -2.7505  -2.7168  -2.6760  -2.6474  -2.6403
    -2.6314  -2.6070  -2.5946  -2.5680  -2.5624  -2.5298  -2.5215  -2.5030
    -2.4791  -2.2170  -2.1984  -2.1813  -2.1124  -2.1056  -2.0705  -2.0625
    -2.0433  -2.0299  -1.9777  -1.8765  -1.7136  -1.6808  -1.6661  -1.6493
    -1.5846  -1.5647  -1.4164  -1.3881  -1.3715  -1.3309  -1.2823  -1.2530
    -1.2162  -1.1763  -1.1393  -1.0787  -1.0707  -0.9916  -0.9413  -0.9408
    -0.9134  -0.8440  -0.7650  -0.7478  -0.7362  -0.6950  -0.6813  -0.5998
    -0.5771  -0.4789  -0.4660  -0.3955  -0.3641  -0.2979  -0.0933   0.0032
     0.0620   0.0856   0.1388   0.2361   0.2904   0.3042   0.3376   0.3425
     0.4023   0.4432   0.5575   0.5651   0.6335   0.7371   1.2715   1.4315
     1.4322   1.5031   1.5034   3.4230   3.4287   3.4782   3.5090   3.6607
     3.6651   3.6879   3.6890   3.8108   3.8281

     the Fermi energy is     3.1542 ev

!    total energy              =   -2920.42039731 Ry
     estimated scf accuracy    <       0.00000006 Ry
     smearing contrib. (-TS)   =      -0.02203262 Ry
     internal energy E=F+TS    =   -2920.39836469 Ry

     The total energy is F=E-TS. E is the sum of the following terms:
     one-electron contribution =  -24727.20125307 Ry
     hartree contribution      =   12448.25377231 Ry
     xc contribution           =    -480.87032018 Ry
     ewald contribution        =    9839.41853320 Ry
     electric field correction =       0.00090305 Ry

     total magnetization       =     0.00 Bohr mag/cell
     absolute magnetization    =     0.00 Bohr mag/cell

     convergence has been achieved in  56 iterations

     Forces acting on atoms (cartesian axes, Ry/au):

     atom    1 type  1   force =     0.00010148   -0.00018729    0.09689231
     atom    2 type  1   force =     0.00004832   -0.00050193   -0.17506428
     atom    3 type  2   force =     0.00012853    0.00000746   -0.02533341
     atom    4 type  2   force =    -0.00003460   -0.00128624    0.05238095
     atom    5 type  2   force =    -0.01224587   -0.00000843    0.00298598
     atom    6 type  2   force =     0.01367277    0.00058574    0.00232064
     atom    7 type  1   force =     0.00058590    0.00034089   -0.01304189
     atom    8 type  1   force =     0.00047838    0.00729919    0.03068199
     atom    9 type  2   force =     0.00055673    0.00003734   -0.00021714
     atom   10 type  2   force =    -0.00267863    0.00210830   -0.01739802
     atom   11 type  2   force =    -0.00015192    0.00007064   -0.00002806
     atom   12 type  2   force =     0.00048125    0.00033891    0.00017870
     atom   13 type  1   force =    -0.00011872   -0.00056690   -0.00016876
     atom   14 type  1   force =    -0.00043355    0.00004608    0.00082838
     atom   15 type  2   force =     0.00000550   -0.00077740    0.00082704
     atom   16 type  2   force =     0.00025550    0.00063244   -0.00048171
     atom   17 type  2   force =     0.00065166    0.00008622    0.00061088
     atom   18 type  2   force =    -0.00012079   -0.00008027    0.00001619
     atom   19 type  1   force =     0.00000007    0.00048745   -0.00021492
     atom   20 type  1   force =    -0.00025132   -0.00060981    0.00005266
     atom   21 type  2   force =     0.00005556   -0.00002776    0.10314313
     atom   22 type  2   force =     0.00014534   -0.00088047    0.00098947
     atom   23 type  2   force =    -0.07165243   -0.00015615   -0.02782644
     atom   24 type  2   force =     0.07155526    0.00034401   -0.02788274
     atom   25 type  1   force =     0.00008845   -0.00013819    0.09660049
     atom   26 type  1   force =     0.00009521   -0.00023315   -0.17518436
     atom   27 type  2   force =     0.00011768   -0.00011675   -0.02439639
     atom   28 type  2   force =     0.00004261   -0.00104164    0.05229700
     atom   29 type  2   force =    -0.01244311    0.00063946    0.00277743
     atom   30 type  2   force =     0.01374352    0.00098297    0.00212676
     atom   31 type  1   force =     0.00045178    0.00314417   -0.01359023
     atom   32 type  1   force =     0.00033822   -0.00951224    0.03107568
     atom   33 type  2   force =    -0.00007195    0.00031247   -0.00061084
     atom   34 type  2   force =    -0.00206615    0.00181855   -0.02539610
     atom   35 type  2   force =    -0.00019288   -0.00029159    0.00037244
     atom   36 type  2   force =     0.00027350   -0.00078109    0.00040030
     atom   37 type  1   force =     0.00003135    0.00023658    0.00100090
     atom   38 type  1   force =    -0.00022339    0.00041149    0.00079504
     atom   39 type  2   force =    -0.00006009   -0.00017303   -0.00058093
     atom   40 type  2   force =     0.00042028    0.00007398    0.00057569
     atom   41 type  2   force =     0.00029690   -0.00024463   -0.00006107
     atom   42 type  2   force =    -0.00051083   -0.00039977   -0.00037923
     atom   43 type  1   force =    -0.00075839   -0.00018658    0.00046268
     atom   44 type  1   force =    -0.00033367   -0.00058775    0.00049372
     atom   45 type  2   force =     0.00003751   -0.00004723    0.10315619
     atom   46 type  2   force =    -0.07164791   -0.00006610   -0.02782373
     atom   47 type  2   force =     0.07156654    0.00034827   -0.02788928
     atom   48 type  3   force =    -0.00004559   -0.00041918   -0.00008158
     atom   49 type  4   force =    -0.00033086   -0.00034215    0.00062336
     atom   50 type  5   force =    -0.00349744   -0.00226414    0.00825306
     atom   51 type  3   force =    -0.00081993    0.00028537    0.00013259
     atom   52 type  3   force =     0.00439435    0.00134995   -0.00914880
     atom   53 type  3   force =     0.00006985   -0.00006009   -0.00025172

     Total force =     0.368737     Total SCF correction =     0.000876
  @ DRIVER MODE: Message from server: STATUS
  @ DRIVER MODE: Message from server: GETFORCE
  @ DRIVER MODE: Returning v,forces,stress,ensemble

     Writing output data file ./calc.save/
  @ DRIVER MODE: Message from server: EXIT
  @ DRIVE MODE: Exiting

     General routines

     Parallel routines

   This run was terminated on:   7:45:41  16Jul2021

   JOB DONE.