     Program PWSCF v.6.7GPU starts on 15Sep2021 at 17:28:22

     R & G space division:  proc/nbgrp/npool/nimage =      10
     Reading input from /storage/home/hcoda1/3/ntian30/research/carbon/CxH_vib/H2O_calc/ads_slab/CHN2H2O_c/out_0006/pw.inp
Warning: card &CELL ignored
Warning: card   CELL_DYNAMICS='IPI', ignored
Warning: card / ignored

     Current dimensions of program PWSCF are:
     Max number of different atomic species (ntypx) = 10
     Max number of k-points (npk) =  40000
     Max angular momentum in pseudopotentials (lmaxx) =  3
     Presently no symmetry can be used with electric field

     Message from routine cell_base_init:
     DEPRECATED: use true lattice parameter, not A to a.u. conversion factor

     IMPORTANT: XC functional enforced from input :
     Exchange-correlation= BEEF-VDW
                           (   1   4  43  14   2   0   0)
     Any further DFT definition will be discarded
     Please, verify this is what you really want

  @ DRIVER MODE: Connecting to
 qe_1139763_2852625.sched-torque.pace.gatech.eduy1_knt9d_scratch
  using UNIX socket
  @ DRIVER MODE: Message from server: STATUS
  @ DRIVER MODE: Message from server: INIT
  @ DRIVER MODE: Receiving replica           0          -1
  @ DRIVER MODE: Receiving encoded integer          25
  @ DRIVER MODE:  SCF:  T  FORCE:  T  STRESS:  F  VC:  F  ENSEMBLE:  F
  @ DRIVER MODE:  SCF:  T  FORCE:  T  STRESS:  F  VC:  F  ENSEMBLE:  F

     Using Slab Decomposition

     bravais-lattice index     =            0
     lattice parameter (alat)  =       1.8897  a.u.
     unit-cell volume          =    6658.9804 (a.u.)^3
     number of atoms/cell      =           54
     number of atomic types    =            5
     number of electrons       =       401.00
     number of Kohn-Sham states=          210
     kinetic-energy cutoff     =      29.3995  Ry
     charge density cutoff     =     293.9946  Ry
     scf convergence threshold =      7.3E-08
     mixing beta               =       0.0500
     number of iterations used =            8  plain     mixing
     Exchange-correlation= BEEF-VDW
                           (   1   4  43  14   2   0   0)

     celldm(1)=   1.889726  celldm(2)=   0.000000  celldm(3)=   0.000000
     celldm(4)=   0.000000  celldm(5)=   0.000000  celldm(6)=   0.000000

     crystal axes: (cart. coord. in units of alat)
               a(1) = (   6.579727   0.000000   0.000000 )
               a(2) = (  -0.000775   5.961596   0.000000 )
               a(3) = (   0.000000   0.000000  25.155947 )

     reciprocal axes: (cart. coord. in units 2 pi/alat)
               b(1) = (  0.151982  0.000020  0.000000 )
               b(2) = (  0.000000  0.167740  0.000000 )
               b(3) = (  0.000000  0.000000  0.039752 )

     PseudoPot. # 1 for Ti read from file:
     /storage/coda1/p-amedford6/0/shared/rich_project_chbe-medford/medford-share/data/pseudos_module/espresso/nninc/pbe/van/Ti.UPF
     MD5 check sum: 8e4df49b7f0d34bbd5052bf3f5ea0213
     Pseudo is Ultrasoft, Zval = 12.0
     Generated by new atomic code, or converted to UPF format
     Using radial grid of  851 points,  6 beta functions with:
                l(1) =   0
                l(2) =   0
                l(3) =   1
                l(4) =   1
                l(5) =   2
                l(6) =   2
     Q(r) pseudized with  8 coefficients,  rinner =    1.000   1.000   1.000
                                                       1.000   1.000

     PseudoPot. # 2 for O  read from file:
     /storage/coda1/p-amedford6/0/shared/rich_project_chbe-medford/medford-share/data/pseudos_module/espresso/nninc/pbe/van/O.UPF
     MD5 check sum: 78c19812648e8988a0fe644b0f25305e
     Pseudo is Ultrasoft, Zval =  6.0
     Generated by new atomic code, or converted to UPF format
     Using radial grid of  737 points,  4 beta functions with:
                l(1) =   0
                l(2) =   0
                l(3) =   1
                l(4) =   1
     Q(r) pseudized with  8 coefficients,  rinner =    0.800   0.800   0.800

     PseudoPot. # 3 for C  read from file:
     /storage/coda1/p-amedford6/0/shared/rich_project_chbe-medford/medford-share/data/pseudos_module/espresso/nninc/pbe/van/C.UPF
     MD5 check sum: 1a69bf6b8db32088f5b2163dbdb77a27
     Pseudo is Ultrasoft, Zval =  4.0
     Generated by new atomic code, or converted to UPF format
     Using radial grid of  721 points,  4 beta functions with:
                l(1) =   0
                l(2) =   0
                l(3) =   1
                l(4) =   1
     Q(r) pseudized with  8 coefficients,  rinner =    0.800   0.800   0.800

     PseudoPot. # 4 for H  read from file:
     /storage/coda1/p-amedford6/0/shared/rich_project_chbe-medford/medford-share/data/pseudos_module/espresso/nninc/pbe/van/H.UPF
     MD5 check sum: b5ee9d7bfd3a09ee7748110bda690ff7
     Pseudo is Ultrasoft, Zval =  1.0
     Generated by new atomic code, or converted to UPF format
     Using radial grid of  615 points,  1 beta functions with:
                l(1) =   0
     Q(r) pseudized with  8 coefficients,  rinner =    0.800

     PseudoPot. # 5 for N  read from file:
     /storage/coda1/p-amedford6/0/shared/rich_project_chbe-medford/medford-share/data/pseudos_module/espresso/nninc/pbe/van/N.UPF
     MD5 check sum: 90d10febe142ad51ac9d5be1deb811c4
     Pseudo is Ultrasoft, Zval =  5.0
     Generated by new atomic code, or converted to UPF format
     Using radial grid of  729 points,  4 beta functions with:
                l(1) =   0
                l(2) =   0
                l(3) =   1
                l(4) =   1
     Q(r) pseudized with  8 coefficients,  rinner =    0.800   0.800   0.800

     atomic species   valence    mass     pseudopotential
        Ti1           12.00    47.86700     Ti( 1.00)
        O1             6.00    15.99900     O ( 1.00)
        C1             4.00    12.01100     C ( 1.00)
        H1             1.00     1.00800     H ( 1.00)
        N1             5.00    14.00700     N ( 1.00)

     No symmetry found

   Cartesian axes

     site n.     atom                  positions (alat units)
         1           Ti1 tau(   1) = (   0.0004258   2.9801865   6.0000000  )
         2           Ti1 tau(   2) = (   3.2906075   1.4906267   6.0002472  )
         3           O1  tau(   3) = (   0.0006271   0.0005054   7.9858123  )
         4           O1  tau(   4) = (   3.2906025   0.0005020   7.3038282  )
         5           O1  tau(   5) = (   4.5942328   1.4918067   9.2879030  )
         6           O1  tau(   6) = (   1.9868534   1.4903216   9.2879459  )
         7           Ti1 tau(   7) = (   3.2907910   2.8959150   9.1758416  )
         8           Ti1 tau(   8) = (   0.0015273   1.4827037   9.2680791  )
         9           O1  tau(   9) = (   3.2982821   5.9591942  11.3418950  )
        10           O1  tau(  10) = (   0.0116148   5.9584955  10.6183126  )
        11           O1  tau(  11) = (   1.2990089   1.4837789  12.6285733  )
        12           O1  tau(  12) = (   5.2904647   1.4888503  12.6163117  )
        13           Ti1 tau(  13) = (   0.0603338   2.9457994  12.6026339  )
        14           Ti1 tau(  14) = (   3.3706290   1.4705258  12.5092779  )
        15           O1  tau(  15) = (   6.5788109   0.0160518  14.6499261  )
        16           O1  tau(  16) = (   3.3158691   0.0087694  13.9605792  )
        17           O1  tau(  17) = (   4.5613999   1.5213109  16.0555727  )
        18           O1  tau(  18) = (   2.0390476   1.5587733  16.0026688  )
        19           Ti1 tau(  19) = (   3.2958454   3.0042652  15.6812246  )
        20           Ti1 tau(  20) = (   0.0477533   1.5223793  15.8108347  )
        21           O1  tau(  21) = (   3.2904802   0.0005063   4.7018136  )
        22           O1  tau(  22) = (   0.0778492   0.0082781  17.2116806  )
        23           O1  tau(  23) = (   1.3043587   1.4918075   6.0039043  )
        24           O1  tau(  24) = (   5.2767064   1.4903225   6.0039473  )
        25           Ti1 tau(  25) = (   0.0000382   5.9609847   6.0000000  )
        26           Ti1 tau(  26) = (   3.2902200   4.4714249   6.0002472  )
        27           O1  tau(  27) = (   0.0002396   2.9813036   7.9858123  )
        28           O1  tau(  28) = (   3.2902150   2.9813002   7.3038282  )
        29           O1  tau(  29) = (   4.5938453   4.4726049   9.2879030  )
        30           O1  tau(  30) = (   1.9864658   4.4711199   9.2879459  )
        31           Ti1 tau(  31) = (   3.2891106   5.8743827   9.1763621  )
        32           Ti1 tau(  32) = (   0.0006254   4.4649316   9.2693709  )
        33           O1  tau(  33) = (   3.3003553   2.9806904  11.3444413  )
        34           O1  tau(  34) = (   0.0092240   2.9805883  10.6323155  )
        35           O1  tau(  35) = (   1.2971990   4.4717445  12.6361083  )
        36           O1  tau(  36) = (   5.2938362   4.4783115  12.6231241  )
        37           Ti1 tau(  37) = (   0.0537182   5.9220384  12.5388396  )
        38           Ti1 tau(  38) = (   3.3696634   4.4695314  12.5002334  )
        39           O1  tau(  39) = (   0.0023790   2.9538485  14.6690360  )
        40           O1  tau(  40) = (   3.3142834   2.9899978  13.8932647  )
        41           O1  tau(  41) = (   4.5682027   4.4688565  16.0600133  )
        42           O1  tau(  42) = (   2.0418658   4.4415600  16.0251682  )
        43           Ti1 tau(  43) = (   3.3511655   0.0130708  15.8150828  )
        44           Ti1 tau(  44) = (   0.0311020   4.6533438  16.0685068  )
        45           O1  tau(  45) = (   3.2900926   2.9813045   4.7018136  )
        46           O1  tau(  46) = (   1.3039711   4.4726057   6.0039043  )
        47           O1  tau(  47) = (   5.2763189   4.4711207   6.0039473  )
        48           C1  tau(  48) = (   0.0453995   2.9433715  17.6544507  )
        49           H1  tau(  49) = (   0.9770157   2.9292850  18.2072415  )
        50           N1  tau(  50) = (   5.5932985   2.7872967  18.4085793  )
        51           N1  tau(  51) = (   4.6087457   2.6299947  18.9712495  )
        52           O1  tau(  52) = (   3.0556172   5.9408547  18.1262901  )
        53           H1  tau(  53) = (   3.4776725   0.7204629  18.5958315  )
        54           H1  tau(  54) = (   2.0935776   0.0631959  18.2589326  )

     number of k points=    10  Fermi-Dirac smearing, width (Ry)=  0.0073
                       cart. coord. in units 2pi/alat
        k(    1) = (   0.0000000   0.0000000   0.0000000), wk =   0.1250000
        k(    2) = (   0.0000000   0.0419351   0.0000000), wk =   0.2500000
        k(    3) = (   0.0000000  -0.0838702   0.0000000), wk =   0.1250000
        k(    4) = (   0.0379955   0.0000049   0.0000000), wk =   0.2500000
        k(    5) = (   0.0379955   0.0419400   0.0000000), wk =   0.2500000
        k(    6) = (   0.0379955  -0.0838652   0.0000000), wk =   0.2500000
        k(    7) = (   0.0379955  -0.0419301   0.0000000), wk =   0.2500000
        k(    8) = (  -0.0759910  -0.0000099   0.0000000), wk =   0.1250000
        k(    9) = (  -0.0759910   0.0419252   0.0000000), wk =   0.2500000
        k(   10) = (  -0.0759910  -0.0838800   0.0000000), wk =   0.1250000

     Initial potential from superposition of free atoms

     starting charge  384.99916, renormalised to  401.00000

     negative rho (up, down):  1.776E-02 0.000E+00

     %%%%%%%%%%%%%%%%%%%%%%%%%%%%%%%%%%%%%%%%%%%%%%%%%%%%%%%%%%%%%%%%%%%%%%%%
     %                                                                      %
     % You are using vdW-DF, which was implemented by the Thonhauser group. %
     % Please cite the following two papers that made this development      %
     % possible and the two reviews that describe the various versions:     %
     %                                                                      %
     %   T. Thonhauser et al., PRL 115, 136402 (2015).                      %
     %   T. Thonhauser et al., PRB 76, 125112 (2007).                       %
     %   K. Berland et al., Rep. Prog. Phys. 78, 066501 (2015).             %
     %   D.C. Langreth et al., J. Phys.: Condens. Matter 21, 084203 (2009). %
     %                                                                      %
     %                                                                      %
     % If you are calculating the stress with vdW-DF, please also cite:     %
     %                                                                      %
     %   R. Sabatini et al., J. Phys.: Condens. Matter 24, 424209 (2012).   %
     %                                                                      %
     %%%%%%%%%%%%%%%%%%%%%%%%%%%%%%%%%%%%%%%%%%%%%%%%%%%%%%%%%%%%%%%%%%%%%%%%

     Adding external electric field

     Computed dipole along edir(3) :
        Dipole              -11.6015 Ry au,        -29.4881 Debye
        Dipole field         -0.0219 Ry au,

        Potential amp.        2.0295 Ry
        Total length         46.3494 bohr

     Starting wfcs are  303 atomic wfcs
  @ DRIVER MODE: Message from server: STATUS
  @ DRIVER MODE: Message from server: POSDATA
  @ DRIVER MODE: Reading and sharing cell
  @ DRIVER MODE: Reading and sharing positions
  @ DRIVER MODE: Received positions

     Self-consistent Calculation

     iteration #  1     ecut=    29.40 Ry     beta= 0.05
     Davidson diagonalization with overlap
     c_bands:  3 eigenvalues not converged
     c_bands:  1 eigenvalues not converged
     c_bands:  3 eigenvalues not converged
     c_bands:  3 eigenvalues not converged
     c_bands:  3 eigenvalues not converged
     c_bands:  2 eigenvalues not converged
     c_bands:  3 eigenvalues not converged
     c_bands:  1 eigenvalues not converged
     c_bands:  5 eigenvalues not converged
     ethr =  1.00E-05,  avg # of iterations = 23.5

[...]

     total energy              =   -2415.36859097 Ry
     estimated scf accuracy    <    6267.66225216 Ry

     iteration #  2     ecut=    29.40 Ry     beta= 0.05
     Davidson diagonalization with overlap
     ethr =  1.00E-02,  avg # of iterations = 31.7

[...]

     iteration # 67     ecut=    29.40 Ry     beta= 0.05
     Davidson diagonalization with overlap
     c_bands:  1 eigenvalues not converged
     ethr =  2.18E-11,  avg # of iterations = 15.5

[...]

     total energy              =   -2971.50202743 Ry
     estimated scf accuracy    <       0.00000011 Ry

     iteration # 69     ecut=    29.40 Ry     beta= 0.05
     Davidson diagonalization with overlap
     ethr =  2.18E-11,  avg # of iterations =  7.3

     negative rho (up, down):  1.757E-02 0.000E+00

     Adding external electric field

     Computed dipole along edir(3) :
        Dipole                0.5696 Ry au,          1.4477 Debye
        Dipole field          0.0011 Ry au,

        Potential amp.       -0.0996 Ry
        Total length         46.3494 bohr

     End of self-consistent calculation

          k = 0.0000 0.0000 0.0000 ( 18029 PWs)   bands (ev):

   -55.8873 -55.8533 -55.8531 -55.8472 -55.8165 -55.7311 -55.7015 -55.6936
   -55.6677 -55.6674 -55.6575 -55.6339 -55.4223 -55.2303 -54.8689 -54.8349
   -32.3957 -32.3708 -32.2529 -32.2262 -32.2002 -32.1797 -32.1576 -32.1508
   -32.1311 -32.0788 -32.0732 -32.0712 -32.0397 -32.0331 -32.0280 -32.0025
   -31.9927 -31.9851 -31.9781 -31.9506 -31.9445 -31.9274 -31.9072 -31.8951
   -31.8922 -31.8807 -31.8802 -31.8660 -31.8606 -31.8545 -31.8435 -31.8408
   -31.8355 -31.8315 -31.8209 -31.8090 -31.7796 -31.6703 -31.6368 -31.4900
   -31.4746 -31.4433 -31.2761 -31.1874 -31.1650 -31.0929 -31.0064 -30.8953
   -20.4835 -18.7781 -16.5901 -16.3598 -16.1353 -16.0449 -16.0002 -15.7898
   -15.6807 -15.6252 -15.5014 -15.4401 -15.4293 -15.4218 -15.4009 -15.3903
   -15.3343 -15.3237 -15.3114 -15.3059 -15.2781 -15.2419 -15.2255 -15.2242
   -15.1533 -15.0489 -15.0282 -15.0056 -15.0031 -14.9452 -14.5049 -13.6471
   -13.3712 -13.2547  -6.6170  -5.8581  -4.6940  -4.4828  -3.9637  -3.8301
    -3.7944  -3.7514  -3.7220  -3.5269  -3.4801  -3.3790  -3.2258  -3.1371
    -3.0678  -3.0328  -2.9786  -2.9013  -2.8337  -2.7709  -2.7357  -2.6931
    -2.6837  -2.6481  -2.6421  -2.6235  -2.6025  -2.5035  -2.4673  -2.4197
    -2.3550  -2.2534  -2.2328  -2.2012  -2.1955  -2.1601  -2.1526  -2.1315
    -2.1142  -2.1048  -2.0291  -1.9332  -1.8841  -1.7916  -1.6788  -1.5419
    -1.5368  -1.4938  -1.3660  -1.3531  -1.3230  -1.2963  -1.2810  -1.2331
    -1.1495  -1.0935  -1.0473  -0.9834  -0.9106  -0.8210  -0.7782  -0.7269
    -0.6632  -0.6463  -0.6386  -0.6192  -0.5818  -0.4709  -0.4470  -0.3727
    -0.3638  -0.2853  -0.2535  -0.1938  -0.1641  -0.1261  -0.0872  -0.0139
     0.0077   0.0356   0.0500   0.0773   0.0851   0.1270   0.1596   0.1640
     0.3598   0.3853   0.4446   0.4540   0.5208   0.6360   0.6535   0.7678
     0.8850   1.0804   1.1535   1.2465   1.3452   1.7247   1.7706   1.7951
     3.2358   3.3335   3.3721   3.3809   3.4688   3.4802   3.6971   3.7429
     3.7503   3.8052

[...]

          k = 0.0380-0.0419 0.0000 ( 17876 PWs)   bands (ev):

[...]

          k =-0.0760-0.0000 0.0000 ( 17886 PWs)   bands (ev):

[...]

          k =-0.0760-0.0839 0.0000 ( 17948 PWs)   bands (ev):

   -55.8706 -55.8699 -55.8460 -55.8377 -55.8313 -55.7198 -55.7049 -55.6849
   -55.6835 -55.6589 -55.6527 -55.6491 -55.4209 -55.2316 -54.8520 -54.8518
   -32.2126 -32.1904 -32.1863 -32.1859 -32.1654 -32.1648 -32.1369 -32.1098
   -32.0975 -32.0705 -32.0625 -32.0572 -32.0439 -32.0133 -32.0058 -31.9991
   -31.9917 -31.9910 -31.9903 -31.9890 -31.9873 -31.9852 -31.9657 -31.9333
   -31.9210 -31.9161 -31.9084 -31.8867 -31.8861 -31.8826 -31.8754 -31.8680
   -31.8641 -31.8600 -31.8577 -31.8553 -31.7943 -31.6737 -31.6300 -31.5471
   -31.4923 -31.4660 -31.1778 -31.1777 -31.0890 -31.0888 -31.0497 -31.0496
   -20.4828 -18.7772 -16.0506 -15.9344 -15.8531 -15.8121 -15.7441 -15.7091
   -15.6608 -15.5969 -15.5663 -15.5630 -15.5081 -15.4921 -15.4515 -15.4374
   -15.4130 -15.4066 -15.3912 -15.3427 -15.3307 -15.3223 -15.3135 -15.3099
   -15.2705 -15.2353 -15.2097 -15.2053 -15.0997 -14.9700 -14.6789 -13.6559
   -13.3566 -13.3563  -6.6148  -5.8537  -4.6514  -4.4566  -3.6148  -3.3330
    -3.3167  -3.1112  -3.0510  -2.9984  -2.9889  -2.9473  -2.8250  -2.7970
    -2.7490  -2.7404  -2.7013  -2.6960  -2.6913  -2.6714  -2.6381  -2.6187
    -2.6136  -2.5622  -2.5566  -2.5497  -2.5319  -2.5214  -2.5140  -2.4893
    -2.4629  -2.4467  -2.4297  -2.4003  -2.3159  -2.2860  -2.1198  -2.0784
    -2.0305  -2.0221  -1.9911  -1.9697  -1.9584  -1.9371  -1.8937  -1.7359
    -1.6566  -1.5883  -1.5802  -1.5700  -1.4952  -1.4790  -1.3674  -1.3300
    -1.2980  -1.2628  -1.1880  -1.1108  -1.1027  -1.0803  -0.9767  -0.9692
    -0.9346  -0.8913  -0.8531  -0.8423  -0.8331  -0.7550  -0.6997  -0.6284
    -0.6223  -0.5975  -0.5848  -0.5584  -0.5335  -0.4380  -0.3725  -0.3154
    -0.2805  -0.1913  -0.1637   0.0568   0.0929   0.1890   0.2027   0.2701
     0.3111   0.4199   0.4281   0.4779   0.4995   0.5298   0.5871   0.6524
     0.6625   0.6890   0.8067   1.5166   1.5179   1.5902   1.5906   1.7095
     3.5549   3.5866   3.6195   3.6290   3.7388   3.7595   3.7795   3.7822
     3.8975   3.9179

     the Fermi energy is     3.2436 ev

!    total energy              =   -2971.50206302 Ry
     estimated scf accuracy    <       0.00000006 Ry
     smearing contrib. (-TS)   =      -0.02121213 Ry
     internal energy E=F+TS    =   -2971.48085089 Ry

     The total energy is F=E-TS. E is the sum of the following terms:
     one-electron contribution =  -24211.79099036 Ry
     hartree contribution      =   12196.49588354 Ry
     xc contribution           =    -492.40263437 Ry
     ewald contribution        =    9536.21627807 Ry
     electric field correction =       0.00061223 Ry

     convergence has been achieved in  69 iterations

     Forces acting on atoms (cartesian axes, Ry/au):

     atom    1 type  1   force =     0.00019721   -0.00029089    0.09590193
     atom    2 type  1   force =    -0.00003641   -0.00048403   -0.17569594
     atom    3 type  2   force =     0.00007272   -0.00014295   -0.02405094
     atom    4 type  2   force =     0.00005871   -0.00155573    0.05356358
     atom    5 type  2   force =    -0.01130124   -0.00084714    0.00337290
     atom    6 type  2   force =     0.01317234   -0.00018437    0.00286243
     atom    7 type  1   force =    -0.00060186    0.00052704   -0.00603461
     atom    8 type  1   force =     0.00021598    0.00883135    0.02324832
     atom    9 type  2   force =    -0.00020642    0.00013982   -0.00009039
     atom   10 type  2   force =    -0.00059610    0.00120083   -0.01585793
     atom   11 type  2   force =    -0.00020397    0.00013827   -0.00002122
     atom   12 type  2   force =    -0.00016175   -0.00008221   -0.00015399
     atom   13 type  1   force =    -0.00000055    0.00058123    0.00008666
     atom   14 type  1   force =    -0.00006520    0.00002974   -0.00000398
     atom   15 type  2   force =    -0.00023026    0.00006229    0.00024576
     atom   16 type  2   force =    -0.00023020    0.00024084   -0.00019365
     atom   17 type  2   force =    -0.00013581   -0.00000299    0.00003423
     atom   18 type  2   force =    -0.00064816    0.00026517   -0.00008665
     atom   19 type  1   force =    -0.00004270   -0.00036757    0.00014862
     atom   20 type  1   force =    -0.00022961   -0.00029611    0.00097103
     atom   21 type  2   force =     0.00006247   -0.00004613    0.10322667
     atom   22 type  2   force =     0.00017524    0.00013639   -0.00053980
     atom   23 type  2   force =    -0.07142924   -0.00012198   -0.02766853
     atom   24 type  2   force =     0.07141266    0.00030330   -0.02770428
     atom   25 type  1   force =     0.00002829   -0.00023941    0.09566782
     atom   26 type  1   force =    -0.00015569   -0.00036782   -0.17584747
     atom   27 type  2   force =     0.00010196   -0.00020108   -0.02305757
     atom   28 type  2   force =     0.00012251   -0.00122041    0.05308122
     atom   29 type  2   force =    -0.01154886    0.00062059    0.00328631
     atom   30 type  2   force =     0.01328997    0.00092853    0.00279020
     atom   31 type  1   force =    -0.00046899    0.00378385   -0.01063842
     atom   32 type  1   force =     0.00008562   -0.01102316    0.02365344
     atom   33 type  2   force =     0.00011367   -0.00003798    0.00002784
     atom   34 type  2   force =     0.00008053    0.00062219   -0.02078751
     atom   35 type  2   force =    -0.00020800   -0.00022657    0.00001866
     atom   36 type  2   force =    -0.00035523    0.00001744   -0.00007672
     atom   37 type  1   force =     0.00032545   -0.00052303   -0.00019700
     atom   38 type  1   force =     0.00000231    0.00000165   -0.00017050
     atom   39 type  2   force =    -0.00036288    0.00000269    0.00046345
     atom   40 type  2   force =     0.00003567   -0.00015733   -0.00035637
     atom   41 type  2   force =    -0.00019462   -0.00023026   -0.00009316
     atom   42 type  2   force =    -0.00006767   -0.00009157   -0.00008901
     atom   43 type  1   force =     0.00030569   -0.00042359    0.00028494
     atom   44 type  1   force =    -0.00018907   -0.00062009    0.00099065
     atom   45 type  2   force =     0.00006112   -0.00008536    0.10321679
     atom   46 type  2   force =    -0.07143653   -0.00010380   -0.02769401
     atom   47 type  2   force =     0.07143718    0.00033224   -0.02771633
     atom   48 type  3   force =     0.00190505    0.00154010   -0.01254541
     atom   49 type  4   force =     0.00475577    0.00000660    0.00413549
     atom   50 type  5   force =    -0.00324122   -0.00042505    0.00602059
     atom   51 type  5   force =    -0.00354584   -0.00019810    0.00045518
     atom   52 type  2   force =    -0.00074690   -0.00006643   -0.00043417
     atom   53 type  4   force =     0.00035451    0.00025869    0.00060479
     atom   54 type  4   force =     0.00026837    0.00009230   -0.00055394

     Total force =     0.367152     Total SCF correction =     0.000664
  @ DRIVER MODE: Message from server: STATUS
  @ DRIVER MODE: Message from server: GETFORCE
  @ DRIVER MODE: Returning v,forces,stress,ensemble

     Writing output data file ./calc.save/
  @ DRIVER MODE: Message from server: EXIT
  @ DRIVE MODE: Exiting

     General routines

     Parallel routines

   This run was terminated on:  17:48:56  15Sep2021

   JOB DONE.