     Program PWSCF v.6.7GPU starts on 23Sep2021 at 19:35: 0

     R & G space division:  proc/nbgrp/npool/nimage =       8
     Reading input from /storage/home/hcoda1/3/ntian30/research/carbon/CxH_vib/H2O_calc/ads_slab/CH3NNHHHHO_a/out_0022/pw.inp
Warning: card &CELL ignored
Warning: card   CELL_DYNAMICS='IPI', ignored
Warning: card / ignored

     Current dimensions of program PWSCF are:
     Max number of different atomic species (ntypx) = 10
     Max number of k-points (npk) =  40000
     Max angular momentum in pseudopotentials (lmaxx) =  3
     Presently no symmetry can be used with electric field

     Message from routine cell_base_init:
     DEPRECATED: use true lattice parameter, not A to a.u. conversion factor

     IMPORTANT: XC functional enforced from input :
     Exchange-correlation= BEEF-VDW
                           (   1   4  43  14   2   0   0)
     Any further DFT definition will be discarded
     Please, verify this is what you really want

  @ DRIVER MODE: Connecting to
 qe_1139763_2947308.sched-torque.pace.gatech.edue20th9co_scratch
  using UNIX socket
  @ DRIVER MODE: Message from server: STATUS
  @ DRIVER MODE: Message from server: INIT
  @ DRIVER MODE: Receiving replica           0          -1
  @ DRIVER MODE: Receiving encoded integer          25
  @ DRIVER MODE:  SCF:  T  FORCE:  T  STRESS:  F  VC:  F  ENSEMBLE:  F
  @ DRIVER MODE:  SCF:  T  FORCE:  T  STRESS:  F  VC:  F  ENSEMBLE:  F

     Using Slab Decomposition

     bravais-lattice index     =            0
     lattice parameter (alat)  =       1.8897  a.u.
     unit-cell volume          =    6658.9804 (a.u.)^3
     number of atoms/cell      =           58
     number of atomic types    =            5
     number of electrons       =       405.00
     number of Kohn-Sham states=          212
     kinetic-energy cutoff     =      29.3995  Ry
     charge density cutoff     =     293.9946  Ry
     scf convergence threshold =      7.3E-08
     mixing beta               =       0.0500
     number of iterations used =            8  plain     mixing
     Exchange-correlation= BEEF-VDW
                           (   1   4  43  14   2   0   0)

     celldm(1)=   1.889726  celldm(2)=   0.000000  celldm(3)=   0.000000
     celldm(4)=   0.000000  celldm(5)=   0.000000  celldm(6)=   0.000000

     crystal axes: (cart. coord. in units of alat)
               a(1) = (   6.579727   0.000000   0.000000 )
               a(2) = (  -0.000775   5.961596   0.000000 )
               a(3) = (   0.000000   0.000000  25.155947 )

     reciprocal axes: (cart. coord. in units 2 pi/alat)
               b(1) = (  0.151982  0.000020  0.000000 )
               b(2) = (  0.000000  0.167740  0.000000 )
               b(3) = (  0.000000  0.000000  0.039752 )

     PseudoPot. # 1 for Ti read from file:
     /storage/coda1/p-amedford6/0/shared/rich_project_chbe-medford/medford-share/data/pseudos_module/espresso/nninc/pbe/van/Ti.UPF
     MD5 check sum: 8e4df49b7f0d34bbd5052bf3f5ea0213
     Pseudo is Ultrasoft, Zval = 12.0
     Generated by new atomic code, or converted to UPF format
     Using radial grid of  851 points,  6 beta functions with:
                l(1) =   0
                l(2) =   0
                l(3) =   1
                l(4) =   1
                l(5) =   2
                l(6) =   2
     Q(r) pseudized with  8 coefficients,  rinner =    1.000   1.000   1.000
                                                       1.000   1.000

     PseudoPot. # 2 for O  read from file:
     /storage/coda1/p-amedford6/0/shared/rich_project_chbe-medford/medford-share/data/pseudos_module/espresso/nninc/pbe/van/O.UPF
     MD5 check sum: 78c19812648e8988a0fe644b0f25305e
     Pseudo is Ultrasoft, Zval =  6.0
     Generated by new atomic code, or converted to UPF format
     Using radial grid of  737 points,  4 beta functions with:
                l(1) =   0
                l(2) =   0
                l(3) =   1
                l(4) =   1
     Q(r) pseudized with  8 coefficients,  rinner =    0.800   0.800   0.800

     PseudoPot. # 3 for N  read from file:
     /storage/coda1/p-amedford6/0/shared/rich_project_chbe-medford/medford-share/data/pseudos_module/espresso/nninc/pbe/van/N.UPF
     MD5 check sum: 90d10febe142ad51ac9d5be1deb811c4
     Pseudo is Ultrasoft, Zval =  5.0
     Generated by new atomic code, or converted to UPF format
     Using radial grid of  729 points,  4 beta functions with:
                l(1) =   0
                l(2) =   0
                l(3) =   1
                l(4) =   1
     Q(r) pseudized with  8 coefficients,  rinner =    0.800   0.800   0.800

     PseudoPot. # 4 for C  read from file:
     /storage/coda1/p-amedford6/0/shared/rich_project_chbe-medford/medford-share/data/pseudos_module/espresso/nninc/pbe/van/C.UPF
     MD5 check sum: 1a69bf6b8db32088f5b2163dbdb77a27
     Pseudo is Ultrasoft, Zval =  4.0
     Generated by new atomic code, or converted to UPF format
     Using radial grid of  721 points,  4 beta functions with:
                l(1) =   0
                l(2) =   0
                l(3) =   1
                l(4) =   1
     Q(r) pseudized with  8 coefficients,  rinner =    0.800   0.800   0.800

     PseudoPot. # 5 for H  read from file:
     /storage/coda1/p-amedford6/0/shared/rich_project_chbe-medford/medford-share/data/pseudos_module/espresso/nninc/pbe/van/H.UPF
     MD5 check sum: b5ee9d7bfd3a09ee7748110bda690ff7
     Pseudo is Ultrasoft, Zval =  1.0
     Generated by new atomic code, or converted to UPF format
     Using radial grid of  615 points,  1 beta functions with:
                l(1) =   0
     Q(r) pseudized with  8 coefficients,  rinner =    0.800

     atomic species   valence    mass     pseudopotential
        Ti1           12.00    47.86700     Ti( 1.00)
        O1             6.00    15.99900     O ( 1.00)
        N1             5.00    14.00700     N ( 1.00)
        C1             4.00    12.01100     C ( 1.00)
        H1             1.00     1.00800     H ( 1.00)

     No symmetry found

   Cartesian axes

     site n.     atom                  positions (alat units)
         1           Ti1 tau(   1) = (   0.0004258   2.9801865   6.0000000  )
         2           Ti1 tau(   2) = (   3.2906075   1.4906267   6.0002472  )
         3           O1  tau(   3) = (   0.0006271   0.0005054   7.9858123  )
         4           O1  tau(   4) = (   3.2906025   0.0005020   7.3038282  )
         5           O1  tau(   5) = (   4.5942328   1.4918067   9.2879030  )
         6           O1  tau(   6) = (   1.9868534   1.4903216   9.2879459  )
         7           Ti1 tau(   7) = (   3.2907910   2.8959150   9.1758416  )
         8           Ti1 tau(   8) = (   0.0015273   1.4827037   9.2680791  )
         9           O1  tau(   9) = (   3.3066316   0.0080679  11.3583267  )
        10           O1  tau(  10) = (   0.0116148   5.9584955  10.6183126  )
        11           O1  tau(  11) = (   1.3000076   1.5005770  12.6434233  )
        12           O1  tau(  12) = (   5.3281586   1.4930334  12.6431679  )
        13           Ti1 tau(  13) = (   0.0126194   3.0144704  12.5166071  )
        14           Ti1 tau(  14) = (   3.3185830   1.5708444  12.4374219  )
        15           O1  tau(  15) = (   0.0449490   0.0685618  14.6579901  )
        16           O1  tau(  16) = (   3.3164028   5.8986079  13.9921319  )
        17           O1  tau(  17) = (   4.5763498   1.4919541  16.1892649  )
        18           O1  tau(  18) = (   2.0390356   1.5007807  16.1677599  )
        19           Ti1 tau(  19) = (   3.3152479   2.9236451  15.6986563  )
        20           Ti1 tau(  20) = (   0.0808212   1.4292116  16.0039943  )
        21           O1  tau(  21) = (   3.2904802   0.0005063   4.7018136  )
        22           O1  tau(  22) = (   0.0303022   5.8046116  17.1736243  )
        23           O1  tau(  23) = (   1.3043587   1.4918075   6.0039043  )
        24           O1  tau(  24) = (   5.2767064   1.4903225   6.0039473  )
        25           Ti1 tau(  25) = (   0.0000382   5.9609847   6.0000000  )
        26           Ti1 tau(  26) = (   3.2902200   4.4714249   6.0002472  )
        27           O1  tau(  27) = (   0.0002396   2.9813036   7.9858123  )
        28           O1  tau(  28) = (   3.2902150   2.9813002   7.3038282  )
        29           O1  tau(  29) = (   4.5938453   4.4726049   9.2879030  )
        30           O1  tau(  30) = (   1.9864658   4.4711199   9.2879459  )
        31           Ti1 tau(  31) = (   3.2891106   5.8743827   9.1763621  )
        32           Ti1 tau(  32) = (   0.0006254   4.4649316   9.2693709  )
        33           O1  tau(  33) = (   3.3101163   2.9547251  11.3177968  )
        34           O1  tau(  34) = (   0.0092240   2.9805883  10.6323155  )
        35           O1  tau(  35) = (   1.2917786   4.4638488  12.6831265  )
        36           O1  tau(  36) = (   5.3332004   4.4701953  12.6833355  )
        37           Ti1 tau(  37) = (   0.0360484   0.0435164  12.5022323  )
        38           Ti1 tau(  38) = (   3.3166134   4.6596848  12.7231989  )
        39           O1  tau(  39) = (   6.5734590   2.9070644  14.8960501  )
        40           O1  tau(  40) = (   3.3256711   2.9499323  13.9293234  )
        41           O1  tau(  41) = (   4.5718193   4.3849529  16.1598725  )
        42           O1  tau(  42) = (   2.0293811   4.3548050  16.0908550  )
        43           Ti1 tau(  43) = (   3.3839698   5.9011270  16.3477160  )
        44           Ti1 tau(  44) = (   0.0762916   4.6312412  15.8077656  )
        45           O1  tau(  45) = (   3.2900926   2.9813045   4.7018136  )
        46           O1  tau(  46) = (   1.3039711   4.4726057   6.0039043  )
        47           O1  tau(  47) = (   5.2763189   4.4711207   6.0039473  )
        48           N1  tau(  48) = (   1.0338470   3.0145746  18.8549854  )
        49           N1  tau(  49) = (   6.4614719   2.5758313  18.0922931  )
        50           C1  tau(  50) = (   0.6385090   3.7489381  20.0602371  )
        51           H1  tau(  51) = (   6.5128770   4.5733600  19.8465500  )
        52           H1  tau(  52) = (   0.1876125   3.0656416  20.7809517  )
        53           H1  tau(  53) = (   1.5398112   4.1767214  20.4987412  )
        54           H1  tau(  54) = (   5.7034478   3.2665398  18.1448723  )
        55           H1  tau(  55) = (   6.1095767   1.7263867  18.5341855  )
        56           H1  tau(  56) = (   1.5400177   3.6533120  18.2466354  )
        57           O1  tau(  57) = (   3.2295176   5.8880611  18.1942677  )
        58           H1  tau(  58) = (   2.6769533   0.6239085  18.5854980  )

     number of k points=    10  Fermi-Dirac smearing, width (Ry)=  0.0073
                       cart. coord. in units 2pi/alat
        k(    1) = (   0.0000000   0.0000000   0.0000000), wk =   0.1250000
        k(    2) = (   0.0000000   0.0419351   0.0000000), wk =   0.2500000
        k(    3) = (   0.0000000  -0.0838702   0.0000000), wk =   0.1250000
        k(    4) = (   0.0379955   0.0000049   0.0000000), wk =   0.2500000
        k(    5) = (   0.0379955   0.0419400   0.0000000), wk =   0.2500000
        k(    6) = (   0.0379955  -0.0838652   0.0000000), wk =   0.2500000
        k(    7) = (   0.0379955  -0.0419301   0.0000000), wk =   0.2500000
        k(    8) = (  -0.0759910  -0.0000099   0.0000000), wk =   0.1250000
        k(    9) = (  -0.0759910   0.0419252   0.0000000), wk =   0.2500000
        k(   10) = (  -0.0759910  -0.0838800   0.0000000), wk =   0.1250000

     Initial potential from superposition of free atoms

     starting charge  388.99913, renormalised to  405.00000

     negative rho (up, down):  1.325E-02 0.000E+00

     %%%%%%%%%%%%%%%%%%%%%%%%%%%%%%%%%%%%%%%%%%%%%%%%%%%%%%%%%%%%%%%%%%%%%%%%
     %                                                                      %
     % You are using vdW-DF, which was implemented by the Thonhauser group. %
     % Please cite the following two papers that made this development      %
     % possible and the two reviews that describe the various versions:     %
     %                                                                      %
     %   T. Thonhauser et al., PRL 115, 136402 (2015).                      %
     %   T. Thonhauser et al., PRB 76, 125112 (2007).                       %
     %   K. Berland et al., Rep. Prog. Phys. 78, 066501 (2015).             %
     %   D.C. Langreth et al., J. Phys.: Condens. Matter 21, 084203 (2009). %
     %                                                                      %
     %                                                                      %
     % If you are calculating the stress with vdW-DF, please also cite:     %
     %                                                                      %
     %   R. Sabatini et al., J. Phys.: Condens. Matter 24, 424209 (2012).   %
     %                                                                      %
     %%%%%%%%%%%%%%%%%%%%%%%%%%%%%%%%%%%%%%%%%%%%%%%%%%%%%%%%%%%%%%%%%%%%%%%%

     Adding external electric field

     Computed dipole along edir(3) :
        Dipole              -14.7651 Ry au,        -37.5293 Debye
        Dipole field         -0.0279 Ry au,

        Potential amp.        2.5829 Ry
        Total length         46.3494 bohr

     Starting wfcs are  307 atomic wfcs
  @ DRIVER MODE: Message from server: STATUS
  @ DRIVER MODE: Message from server: POSDATA
  @ DRIVER MODE: Reading and sharing cell
  @ DRIVER MODE: Reading and sharing positions
  @ DRIVER MODE: Received positions

     Self-consistent Calculation

     iteration #  1     ecut=    29.40 Ry     beta= 0.05
     Davidson diagonalization with overlap
     c_bands:  3 eigenvalues not converged
     c_bands:  4 eigenvalues not converged
     c_bands:  2 eigenvalues not converged
     c_bands:  3 eigenvalues not converged
     c_bands:  3 eigenvalues not converged
     c_bands:  3 eigenvalues not converged
     ethr =  1.00E-05,  avg # of iterations = 23.2

[...]

     total energy              =   -2204.25140700 Ry
     estimated scf accuracy    <    8785.87217082 Ry

     iteration #  2     ecut=    29.40 Ry     beta= 0.05
     Davidson diagonalization with overlap
     ethr =  1.00E-02,  avg # of iterations = 30.2

[...]

     iteration # 69     ecut=    29.40 Ry     beta= 0.05
     Davidson diagonalization with overlap
     c_bands:  1 eigenvalues not converged
     ethr =  3.20E-10,  avg # of iterations = 14.0

[...]

     total energy              =   -2976.49820992 Ry
     estimated scf accuracy    <       0.00000014 Ry

     iteration # 74     ecut=    29.40 Ry     beta= 0.05
     Davidson diagonalization with overlap
     ethr =  3.25E-11,  avg # of iterations = 12.0

     negative rho (up, down):  1.443E-02 0.000E+00

     Adding external electric field

     Computed dipole along edir(3) :
        Dipole                0.9926 Ry au,          2.5229 Debye
        Dipole field          0.0019 Ry au,

        Potential amp.       -0.1736 Ry
        Total length         46.3494 bohr

     End of self-consistent calculation

          k = 0.0000 0.0000 0.0000 ( 18029 PWs)   bands (ev):

   -55.5823 -55.4989 -55.4649 -55.3636 -55.3425 -55.3269 -55.3128 -55.3061
   -55.2931 -55.2635 -55.2198 -55.0973 -55.0863 -55.0096 -54.4680 -54.4339
   -31.9836 -31.9188 -31.8774 -31.8304 -31.8286 -31.8096 -31.7991 -31.7898
   -31.7501 -31.7449 -31.7266 -31.6514 -31.6274 -31.6072 -31.6055 -31.6035
   -31.5974 -31.5855 -31.5831 -31.5564 -31.5501 -31.5249 -31.5243 -31.5126
   -31.4973 -31.4864 -31.4783 -31.4612 -31.4571 -31.4542 -31.4444 -31.4386
   -31.4345 -31.4155 -31.3736 -31.3715 -31.3009 -31.2939 -31.2796 -31.2592
   -31.2224 -31.2150 -30.8737 -30.7882 -30.7657 -30.6913 -30.6049 -30.4931
   -17.5821 -16.4009 -16.1397 -15.9772 -15.7614 -15.6758 -15.6475 -15.4549
   -15.3495 -15.2966 -15.1102 -15.0643 -15.0337 -15.0226 -15.0072 -14.9845
   -14.9646 -14.9265 -14.9181 -14.9077 -14.9021 -14.8636 -14.8412 -14.7906
   -14.7680 -14.7052 -14.6332 -14.5655 -14.5180 -14.2567 -14.2392 -12.9666
   -12.9662 -12.8503  -9.4504  -6.1530  -5.2005  -4.6343  -3.9624  -3.5041
    -3.4034  -3.3872  -3.3307  -3.2685  -3.1529  -2.9958  -2.8873  -2.8312
    -2.7327  -2.6254  -2.5705  -2.5069  -2.4769  -2.4307  -2.3975  -2.3855
    -2.3791  -2.2829  -2.2744  -2.2471  -2.2119  -2.1558  -2.1401  -2.0619
    -2.0259  -2.0173  -1.8930  -1.8801  -1.8146  -1.8103  -1.8039  -1.7703
    -1.7493  -1.7345  -1.7053  -1.6216  -1.5686  -1.4982  -1.4754  -1.4456
    -1.1863  -1.0944  -1.0567  -1.0289  -0.9312  -0.9149  -0.9015  -0.8980
    -0.8840  -0.8344  -0.7877  -0.7037  -0.5943  -0.5739  -0.5654  -0.5204
    -0.4547  -0.3730  -0.3000  -0.2704  -0.2332  -0.2198  -0.1536  -0.0762
    -0.0601  -0.0478   0.0609   0.0751   0.1574   0.2162   0.2301   0.2749
     0.3159   0.3490   0.4052   0.4416   0.4720   0.4779   0.5113   0.5557
     0.6115   0.6420   0.6698   0.7521   0.8076   0.8530   0.8808   1.0520
     1.0817   1.1375   1.1783   1.2655   1.5082   1.5584   1.5979   1.7528
     2.1247   2.1699   3.5858   3.7369   3.7519   3.8216   3.8466   3.9378
     4.0750   4.1430   4.2755   4.2831

[...]

          k = 0.0380-0.0419 0.0000 ( 17876 PWs)   bands (ev):

[...]

          k =-0.0760-0.0000 0.0000 ( 17886 PWs)   bands (ev):

[...]

          k =-0.0760-0.0839 0.0000 ( 17948 PWs)   bands (ev):

   -55.5815 -55.4820 -55.4817 -55.3624 -55.3294 -55.3191 -55.3134 -55.3100
   -55.3096 -55.2556 -55.2278 -55.0942 -55.0874 -55.0126 -54.4511 -54.4507
   -31.8661 -31.8081 -31.8030 -31.7990 -31.7988 -31.7840 -31.7754 -31.7750
   -31.7062 -31.6499 -31.6421 -31.6347 -31.6298 -31.6165 -31.6019 -31.6018
   -31.5997 -31.5989 -31.5851 -31.5744 -31.5668 -31.5582 -31.5373 -31.5191
   -31.5164 -31.5127 -31.5054 -31.5022 -31.4898 -31.4826 -31.4800 -31.4745
   -31.4692 -31.4507 -31.4448 -31.3675 -31.3554 -31.3416 -31.3028 -31.2980
   -31.2645 -31.2184 -30.7785 -30.7783 -30.6868 -30.6863 -30.6483 -30.6479
   -17.5761 -16.3868 -15.7477 -15.5698 -15.4736 -15.4672 -15.3364 -15.2706
   -15.2618 -15.2273 -15.2086 -15.1937 -15.1607 -15.1432 -15.1037 -15.0509
   -15.0175 -14.9949 -14.9833 -14.9462 -14.9337 -14.9117 -14.9044 -14.8958
   -14.8374 -14.8055 -14.7964 -14.7654 -14.5701 -14.5477 -14.3717 -12.9678
   -12.9523 -12.9521  -9.4479  -6.1383  -5.2021  -4.6444  -3.9586  -3.1491
    -2.9221  -2.7788  -2.7026  -2.5684  -2.5585  -2.5008  -2.4890  -2.4478
    -2.4395  -2.3984  -2.3445  -2.3282  -2.2853  -2.2804  -2.2496  -2.2371
    -2.2265  -2.2174  -2.1922  -2.1727  -2.1639  -2.1230  -2.1185  -2.1026
    -2.0830  -2.0666  -2.0391  -2.0280  -1.9878  -1.9481  -1.8830  -1.8094
    -1.7235  -1.6408  -1.6303  -1.6196  -1.5732  -1.5667  -1.5199  -1.5081
    -1.4611  -1.4093  -1.2955  -1.1727  -1.1329  -1.1065  -1.0744  -1.0422
    -0.9876  -0.9648  -0.9298  -0.8813  -0.8496  -0.7258  -0.7148  -0.6494
    -0.5647  -0.5313  -0.4558  -0.4426  -0.4280  -0.4117  -0.3901  -0.3733
    -0.3438  -0.3276  -0.2234  -0.1995  -0.1963  -0.1736  -0.1227  -0.0199
     0.0541   0.1370   0.2397   0.2894   0.3172   0.3509   0.4508   0.5689
     0.5941   0.6571   0.6891   0.7321   0.7992   0.8199   0.8678   0.9529
     1.0062   1.0387   1.0649   1.0699   1.1244   1.1529   1.9214   1.9299
     1.9901   1.9904   3.7996   4.0757   4.1014   4.1172   4.1545   4.1587
     4.1807   4.1952   4.2603   4.2770

     the Fermi energy is     3.6228 ev

!    total energy              =   -2976.49822492 Ry
     estimated scf accuracy    <       0.00000007 Ry
     smearing contrib. (-TS)   =      -0.01952604 Ry
     internal energy E=F+TS    =   -2976.47869888 Ry

     The total energy is F=E-TS. E is the sum of the following terms:
     one-electron contribution =  -23034.41541621 Ry
     hartree contribution      =   11613.56161599 Ry
     xc contribution           =    -495.70393065 Ry
     ewald contribution        =    8940.07717271 Ry
     electric field correction =       0.00185928 Ry

     convergence has been achieved in  74 iterations

     Forces acting on atoms (cartesian axes, Ry/au):

     atom    1 type  1   force =     0.00000809   -0.00022237    0.09405697
     atom    2 type  1   force =    -0.00016027    0.00025364   -0.17513430
     atom    3 type  2   force =     0.00007381   -0.00016146   -0.02115532
     atom    4 type  2   force =     0.00000383   -0.00104213    0.05357064
     atom    5 type  2   force =    -0.00454781   -0.00323133    0.00114954
     atom    6 type  2   force =     0.00660488   -0.00243049    0.00161304
     atom    7 type  1   force =     0.00037410    0.00456627    0.01037859
     atom    8 type  1   force =    -0.00056118    0.00198954    0.00312311
     atom    9 type  2   force =     0.00010329   -0.00050588   -0.00049604
     atom   10 type  2   force =    -0.00031009   -0.00004287   -0.01130546
     atom   11 type  2   force =    -0.00023888    0.00045498    0.00004319
     atom   12 type  2   force =    -0.00026469    0.00067007    0.00008091
     atom   13 type  1   force =     0.00061667   -0.00064928    0.00024209
     atom   14 type  1   force =    -0.00035618    0.00016201    0.00018660
     atom   15 type  2   force =    -0.00017448    0.00010251    0.00050454
     atom   16 type  2   force =     0.00004608   -0.00001787    0.00043743
     atom   17 type  2   force =    -0.00037139    0.00023216    0.00006757
     atom   18 type  2   force =     0.00003156    0.00009294    0.00023762
     atom   19 type  1   force =    -0.00008623    0.00054283   -0.00030631
     atom   20 type  1   force =    -0.00001610   -0.00013069   -0.00011344
     atom   21 type  2   force =     0.00002830   -0.00001226    0.10310842
     atom   22 type  2   force =    -0.00006459   -0.00014241   -0.00040526
     atom   23 type  2   force =    -0.07212853   -0.00021193   -0.02724043
     atom   24 type  2   force =     0.07203294    0.00023035   -0.02731791
     atom   25 type  1   force =     0.00006893   -0.00034974    0.09403880
     atom   26 type  1   force =    -0.00000341   -0.00128616   -0.17516426
     atom   27 type  2   force =     0.00015240   -0.00021402   -0.01993349
     atom   28 type  2   force =     0.00008633   -0.00111153    0.04908827
     atom   29 type  2   force =    -0.00668316    0.00152198    0.00212431
     atom   30 type  2   force =     0.00855102    0.00170080    0.00249432
     atom   31 type  1   force =     0.00049901   -0.00020019    0.00053597
     atom   32 type  1   force =    -0.00020164   -0.00145320    0.00351356
     atom   33 type  2   force =    -0.00007858    0.00001171   -0.00004908
     atom   34 type  2   force =    -0.00088907    0.00246246   -0.01151847
     atom   35 type  2   force =     0.00003062   -0.00042884    0.00048388
     atom   36 type  2   force =    -0.00052880   -0.00040519    0.00033952
     atom   37 type  1   force =     0.00037230    0.00029026    0.00003830
     atom   38 type  1   force =    -0.00038158    0.00021130    0.00029175
     atom   39 type  2   force =    -0.00051143    0.00042831    0.00045026
     atom   40 type  2   force =    -0.00002062   -0.00007714   -0.00005577
     atom   41 type  2   force =    -0.00037852   -0.00027499    0.00024752
     atom   42 type  2   force =    -0.00022142   -0.00025494   -0.00024948
     atom   43 type  1   force =    -0.00002505   -0.00038041    0.00070907
     atom   44 type  1   force =    -0.00017957    0.00018798    0.00012384
     atom   45 type  2   force =     0.00002204   -0.00001957    0.10296445
     atom   46 type  2   force =    -0.07213622   -0.00008580   -0.02723654
     atom   47 type  2   force =     0.07198923    0.00035232   -0.02728009
     atom   48 type  3   force =    -0.00000140    0.00008213    0.00010038
     atom   49 type  3   force =    -0.00076106    0.00002472   -0.00001355
     atom   50 type  4   force =    -0.00351943    0.00610413   -0.00134216
     atom   51 type  5   force =     0.00422243   -0.00681422    0.00143976
     atom   52 type  5   force =    -0.00059441   -0.00026543   -0.00020130
     atom   53 type  5   force =     0.00050486   -0.00091177    0.00010837
     atom   54 type  5   force =     0.00023006    0.00023233   -0.00049790
     atom   55 type  5   force =    -0.00016549    0.00032533    0.00042403
     atom   56 type  5   force =     0.00036641    0.00019812   -0.00038936
     atom   57 type  2   force =    -0.00022551    0.00053270   -0.00072705
     atom   58 type  5   force =    -0.00023241   -0.00062979   -0.00018363

     Total force =     0.361844     Total SCF correction =     0.000734
  @ DRIVER MODE: Message from server: STATUS
  @ DRIVER MODE: Message from server: GETFORCE
  @ DRIVER MODE: Returning v,forces,stress,ensemble

     Writing output data file ./calc.save/
  @ DRIVER MODE: Message from server: EXIT
  @ DRIVE MODE: Exiting

     General routines

     Parallel routines

   This run was terminated on:  20: 0:57  23Sep2021

   JOB DONE.