     Program PWSCF v.6.7GPU starts on 11Sep2021 at  6:26:19

     R & G space division:  proc/nbgrp/npool/nimage =      10
     Reading input from /storage/home/hcoda1/3/ntian30/research/carbon/CxH_vib/CH2_calc/ads_slab/CH2NHNH_b/out_0036/pw.inp
Warning: card &CELL ignored
Warning: card   CELL_DYNAMICS='IPI', ignored
Warning: card / ignored

     Current dimensions of program PWSCF are:
     Max number of different atomic species (ntypx) = 10
     Max number of k-points (npk) =  40000
     Max angular momentum in pseudopotentials (lmaxx) =  3
     Presently no symmetry can be used with electric field

     Message from routine cell_base_init:
     DEPRECATED: use true lattice parameter, not A to a.u. conversion factor

     IMPORTANT: XC functional enforced from input :
     Exchange-correlation= BEEF-VDW
                           (   1   4  43  14   2   0   0)
     Any further DFT definition will be discarded
     Please, verify this is what you really want

  @ DRIVER MODE: Connecting to
 qe_1139763_2792040.sched-torque.pace.gatech.edulkw4wamu_scratch
  using UNIX socket
  @ DRIVER MODE: Message from server: STATUS
  @ DRIVER MODE: Message from server: INIT
  @ DRIVER MODE: Receiving replica           0          -1
  @ DRIVER MODE: Receiving encoded integer          25
  @ DRIVER MODE:  SCF:  T  FORCE:  T  STRESS:  F  VC:  F  ENSEMBLE:  F
  @ DRIVER MODE:  SCF:  T  FORCE:  T  STRESS:  F  VC:  F  ENSEMBLE:  F

     Using Slab Decomposition

     bravais-lattice index     =            0
     lattice parameter (alat)  =       1.8897  a.u.
     unit-cell volume          =    6658.9804 (a.u.)^3
     number of atoms/cell      =           54
     number of atomic types    =            5
     number of electrons       =       396.00
     number of Kohn-Sham states=          208
     kinetic-energy cutoff     =      29.3995  Ry
     charge density cutoff     =     293.9946  Ry
     scf convergence threshold =      7.3E-08
     mixing beta               =       0.0500
     number of iterations used =            8  plain     mixing
     Exchange-correlation= BEEF-VDW
                           (   1   4  43  14   2   0   0)

     celldm(1)=   1.889726  celldm(2)=   0.000000  celldm(3)=   0.000000
     celldm(4)=   0.000000  celldm(5)=   0.000000  celldm(6)=   0.000000

     crystal axes: (cart. coord. in units of alat)
               a(1) = (   6.579727   0.000000   0.000000 )
               a(2) = (  -0.000775   5.961596   0.000000 )
               a(3) = (   0.000000   0.000000  25.155947 )

     reciprocal axes: (cart. coord. in units 2 pi/alat)
               b(1) = (  0.151982  0.000020  0.000000 )
               b(2) = (  0.000000  0.167740  0.000000 )
               b(3) = (  0.000000  0.000000  0.039752 )

     PseudoPot. # 1 for Ti read from file:
     /storage/coda1/p-amedford6/0/shared/rich_project_chbe-medford/medford-share/data/pseudos_module/espresso/nninc/pbe/van/Ti.UPF
     MD5 check sum: 8e4df49b7f0d34bbd5052bf3f5ea0213
     Pseudo is Ultrasoft, Zval = 12.0
     Generated by new atomic code, or converted to UPF format
     Using radial grid of  851 points,  6 beta functions with:
                l(1) =   0
                l(2) =   0
                l(3) =   1
                l(4) =   1
                l(5) =   2
                l(6) =   2
     Q(r) pseudized with  8 coefficients,  rinner =    1.000   1.000   1.000
                                                       1.000   1.000

     PseudoPot. # 2 for O  read from file:
     /storage/coda1/p-amedford6/0/shared/rich_project_chbe-medford/medford-share/data/pseudos_module/espresso/nninc/pbe/van/O.UPF
     MD5 check sum: 78c19812648e8988a0fe644b0f25305e
     Pseudo is Ultrasoft, Zval =  6.0
     Generated by new atomic code, or converted to UPF format
     Using radial grid of  737 points,  4 beta functions with:
                l(1) =   0
                l(2) =   0
                l(3) =   1
                l(4) =   1
     Q(r) pseudized with  8 coefficients,  rinner =    0.800   0.800   0.800

     PseudoPot. # 3 for N  read from file:
     /storage/coda1/p-amedford6/0/shared/rich_project_chbe-medford/medford-share/data/pseudos_module/espresso/nninc/pbe/van/N.UPF
     MD5 check sum: 90d10febe142ad51ac9d5be1deb811c4
     Pseudo is Ultrasoft, Zval =  5.0
     Generated by new atomic code, or converted to UPF format
     Using radial grid of  729 points,  4 beta functions with:
                l(1) =   0
                l(2) =   0
                l(3) =   1
                l(4) =   1
     Q(r) pseudized with  8 coefficients,  rinner =    0.800   0.800   0.800

     PseudoPot. # 4 for C  read from file:
     /storage/coda1/p-amedford6/0/shared/rich_project_chbe-medford/medford-share/data/pseudos_module/espresso/nninc/pbe/van/C.UPF
     MD5 check sum: 1a69bf6b8db32088f5b2163dbdb77a27
     Pseudo is Ultrasoft, Zval =  4.0
     Generated by new atomic code, or converted to UPF format
     Using radial grid of  721 points,  4 beta functions with:
                l(1) =   0
                l(2) =   0
                l(3) =   1
                l(4) =   1
     Q(r) pseudized with  8 coefficients,  rinner =    0.800   0.800   0.800

     PseudoPot. # 5 for H  read from file:
     /storage/coda1/p-amedford6/0/shared/rich_project_chbe-medford/medford-share/data/pseudos_module/espresso/nninc/pbe/van/H.UPF
     MD5 check sum: b5ee9d7bfd3a09ee7748110bda690ff7
     Pseudo is Ultrasoft, Zval =  1.0
     Generated by new atomic code, or converted to UPF format
     Using radial grid of  615 points,  1 beta functions with:
                l(1) =   0
     Q(r) pseudized with  8 coefficients,  rinner =    0.800

     atomic species   valence    mass     pseudopotential
        Ti1           12.00    47.86700     Ti( 1.00)
        O1             6.00    15.99900     O ( 1.00)
        N1             5.00    14.00700     N ( 1.00)
        C1             4.00    12.01100     C ( 1.00)
        H1             1.00     1.00800     H ( 1.00)

     No symmetry found

   Cartesian axes

     site n.     atom                  positions (alat units)
         1           Ti1 tau(   1) = (   0.0004258   2.9801865   6.0000000  )
         2           Ti1 tau(   2) = (   3.2906075   1.4906267   6.0002472  )
         3           O1  tau(   3) = (   0.0006271   0.0005054   7.9858123  )
         4           O1  tau(   4) = (   3.2906025   0.0005020   7.3038282  )
         5           O1  tau(   5) = (   4.5942328   1.4918067   9.2879030  )
         6           O1  tau(   6) = (   1.9868534   1.4903216   9.2879459  )
         7           Ti1 tau(   7) = (   3.2907910   2.8959150   9.1758416  )
         8           Ti1 tau(   8) = (   0.0015273   1.4827037   9.2680791  )
         9           O1  tau(   9) = (   3.3006942   5.9534781  11.3553798  )
        10           O1  tau(  10) = (   0.0116148   5.9584955  10.6183126  )
        11           O1  tau(  11) = (   1.3049435   1.4862809  12.6371303  )
        12           O1  tau(  12) = (   5.2939446   1.4839232  12.6419886  )
        13           Ti1 tau(  13) = (   0.0297220   2.9630369  12.5573518  )
        14           Ti1 tau(  14) = (   3.3261824   1.4838644  12.4981318  )
        15           O1  tau(  15) = (   0.0289408   0.0313188  14.6920809  )
        16           O1  tau(  16) = (   3.2926898   0.0103323  13.9875539  )
        17           O1  tau(  17) = (   4.5688264   1.5151599  16.1499861  )
        18           O1  tau(  18) = (   2.0666082   1.5432664  16.2461230  )
        19           Ti1 tau(  19) = (   3.3290317   3.0025141  15.7092439  )
        20           Ti1 tau(  20) = (   6.5420716   1.4859973  15.9011789  )
        21           O1  tau(  21) = (   3.2904802   0.0005063   4.7018136  )
        22           O1  tau(  22) = (   0.0300787   5.9197746  17.2397460  )
        23           O1  tau(  23) = (   1.3043587   1.4918075   6.0039043  )
        24           O1  tau(  24) = (   5.2767064   1.4903225   6.0039473  )
        25           Ti1 tau(  25) = (   0.0000382   5.9609847   6.0000000  )
        26           Ti1 tau(  26) = (   3.2902200   4.4714249   6.0002472  )
        27           O1  tau(  27) = (   0.0002396   2.9813036   7.9858123  )
        28           O1  tau(  28) = (   3.2902150   2.9813002   7.3038282  )
        29           O1  tau(  29) = (   4.5938453   4.4726049   9.2879030  )
        30           O1  tau(  30) = (   1.9864658   4.4711199   9.2879459  )
        31           Ti1 tau(  31) = (   3.2891106   5.8743827   9.1763621  )
        32           Ti1 tau(  32) = (   0.0006254   4.4649316   9.2693709  )
        33           O1  tau(  33) = (   3.3021489   2.9801797  11.3479352  )
        34           O1  tau(  34) = (   0.0092240   2.9805883  10.6323155  )
        35           O1  tau(  35) = (   1.3026635   4.4666190  12.6547599  )
        36           O1  tau(  36) = (   5.2965037   4.4700493  12.6603964  )
        37           Ti1 tau(  37) = (   0.0280624   5.9437424  12.5124334  )
        38           Ti1 tau(  38) = (   3.3252324   4.4624078  12.5019987  )
        39           O1  tau(  39) = (   0.0181394   2.9416354  14.7876853  )
        40           O1  tau(  40) = (   3.2997337   2.9731399  13.9284607  )
        41           O1  tau(  41) = (   4.5639665   4.4616582  16.1522005  )
        42           O1  tau(  42) = (   2.0594857   4.4554260  16.1407723  )
        43           Ti1 tau(  43) = (   3.2991394   0.0041700  15.7772358  )
        44           Ti1 tau(  44) = (   0.0501841   4.6507117  16.0116611  )
        45           O1  tau(  45) = (   3.2900926   2.9813045   4.7018136  )
        46           O1  tau(  46) = (   1.3039711   4.4726057   6.0039043  )
        47           O1  tau(  47) = (   5.2763189   4.4711207   6.0039473  )
        48           N1  tau(  48) = (   1.0195810   2.7978639  18.4834737  )
        49           N1  tau(  49) = (   6.5530482   2.9315443  17.6565599  )
        50           C1  tau(  50) = (   1.1739936   3.1992704  19.7158448  )
        51           H1  tau(  51) = (   2.1028141   2.9667422  20.2081369  )
        52           H1  tau(  52) = (   0.3908697   3.7596525  20.2009034  )
        53           H1  tau(  53) = (   1.7673082   2.2798185  18.0098463  )
        54           H1  tau(  54) = (   5.7337981   3.2184162  18.1887256  )

     number of k points=    10  Fermi-Dirac smearing, width (Ry)=  0.0073
                       cart. coord. in units 2pi/alat
        k(    1) = (   0.0000000   0.0000000   0.0000000), wk =   0.1250000
        k(    2) = (   0.0000000   0.0419351   0.0000000), wk =   0.2500000
        k(    3) = (   0.0000000  -0.0838702   0.0000000), wk =   0.1250000
        k(    4) = (   0.0379955   0.0000049   0.0000000), wk =   0.2500000
        k(    5) = (   0.0379955   0.0419400   0.0000000), wk =   0.2500000
        k(    6) = (   0.0379955  -0.0838652   0.0000000), wk =   0.2500000
        k(    7) = (   0.0379955  -0.0419301   0.0000000), wk =   0.2500000
        k(    8) = (  -0.0759910  -0.0000099   0.0000000), wk =   0.1250000
        k(    9) = (  -0.0759910   0.0419252   0.0000000), wk =   0.2500000
        k(   10) = (  -0.0759910  -0.0838800   0.0000000), wk =   0.1250000

     Initial potential from superposition of free atoms

     starting charge  379.99915, renormalised to  396.00000

     negative rho (up, down):  1.484E-02 0.000E+00

     %%%%%%%%%%%%%%%%%%%%%%%%%%%%%%%%%%%%%%%%%%%%%%%%%%%%%%%%%%%%%%%%%%%%%%%%
     %                                                                      %
     % You are using vdW-DF, which was implemented by the Thonhauser group. %
     % Please cite the following two papers that made this development      %
     % possible and the two reviews that describe the various versions:     %
     %                                                                      %
     %   T. Thonhauser et al., PRL 115, 136402 (2015).                      %
     %   T. Thonhauser et al., PRB 76, 125112 (2007).                       %
     %   K. Berland et al., Rep. Prog. Phys. 78, 066501 (2015).             %
     %   D.C. Langreth et al., J. Phys.: Condens. Matter 21, 084203 (2009). %
     %                                                                      %
     %                                                                      %
     % If you are calculating the stress with vdW-DF, please also cite:     %
     %                                                                      %
     %   R. Sabatini et al., J. Phys.: Condens. Matter 24, 424209 (2012).   %
     %                                                                      %
     %%%%%%%%%%%%%%%%%%%%%%%%%%%%%%%%%%%%%%%%%%%%%%%%%%%%%%%%%%%%%%%%%%%%%%%%

     Adding external electric field

     Computed dipole along edir(3) :
        Dipole               -9.8040 Ry au,        -24.9192 Debye
        Dipole field         -0.0185 Ry au,

        Potential amp.        1.7151 Ry
        Total length         46.3494 bohr

     Starting wfcs are  300 atomic wfcs
  @ DRIVER MODE: Message from server: STATUS
  @ DRIVER MODE: Message from server: POSDATA
  @ DRIVER MODE: Reading and sharing cell
  @ DRIVER MODE: Reading and sharing positions
  @ DRIVER MODE: Received positions

     Self-consistent Calculation

     iteration #  1     ecut=    29.40 Ry     beta= 0.05
     Davidson diagonalization with overlap
     c_bands:  1 eigenvalues not converged
     c_bands:  2 eigenvalues not converged
     c_bands:  1 eigenvalues not converged
     c_bands:  1 eigenvalues not converged
     c_bands:  2 eigenvalues not converged
     c_bands:  1 eigenvalues not converged
     c_bands:  1 eigenvalues not converged
     c_bands:  1 eigenvalues not converged
     c_bands:  3 eigenvalues not converged
     ethr =  1.00E-05,  avg # of iterations = 19.6

[...]

     total energy              =   -2538.24283285 Ry
     estimated scf accuracy    <    4485.37716717 Ry

     iteration #  2     ecut=    29.40 Ry     beta= 0.05
     Davidson diagonalization with overlap
     ethr =  1.00E-02,  avg # of iterations = 25.4

[...]

     iteration # 68     ecut=    29.40 Ry     beta= 0.05
     Davidson diagonalization with overlap
     c_bands:  1 eigenvalues not converged
     ethr =  3.15E-11,  avg # of iterations = 15.0

[...]

     total energy              =   -2940.35790928 Ry
     estimated scf accuracy    <       0.00000015 Ry

     iteration # 69     ecut=    29.40 Ry     beta= 0.05
     Davidson diagonalization with overlap
     ethr =  3.15E-11,  avg # of iterations =  8.5

     negative rho (up, down):  1.441E-02 0.000E+00

     Adding external electric field

     Computed dipole along edir(3) :
        Dipole                1.4628 Ry au,          3.7180 Debye
        Dipole field          0.0028 Ry au,

        Potential amp.       -0.2559 Ry
        Total length         46.3494 bohr

     End of self-consistent calculation

          k = 0.0000 0.0000 0.0000 ( 18029 PWs)   bands (ev):

   -55.2604 -55.2261 -55.2240 -55.1920 -55.1561 -55.1327 -55.0913 -55.0669
   -55.0641 -55.0534 -55.0514 -55.0290 -55.0185 -54.9125 -54.2379 -54.2039
   -31.8340 -31.7157 -31.6205 -31.5923 -31.5875 -31.5724 -31.5539 -31.5530
   -31.5186 -31.5161 -31.4720 -31.4706 -31.4687 -31.4368 -31.4167 -31.3969
   -31.3916 -31.3787 -31.3711 -31.3660 -31.3373 -31.3158 -31.3141 -31.3093
   -31.2948 -31.2862 -31.2830 -31.2665 -31.2625 -31.2589 -31.2475 -31.2372
   -31.2341 -31.2225 -31.2140 -31.1935 -31.1847 -31.1827 -31.1786 -31.1591
   -31.1370 -31.0959 -30.6465 -30.5544 -30.5322 -30.4630 -30.3763 -30.2653
   -19.5576 -16.0898 -15.8114 -15.6847 -15.5073 -15.4467 -15.3536 -15.2046
   -15.1544 -15.0393 -15.0053 -14.9972 -14.9667 -14.9311 -14.8609 -14.7889
   -14.7884 -14.7863 -14.7438 -14.7435 -14.6949 -14.6817 -14.6794 -14.6438
   -14.6297 -14.5837 -14.4736 -14.4006 -14.3441 -14.0278 -13.8931 -12.7406
   -12.6235 -10.2622  -7.0551  -6.6708  -4.2737  -4.0937  -3.4375  -3.2614
    -3.2441  -3.1743  -3.1550  -2.9825  -2.9064  -2.7419  -2.6101  -2.5224
    -2.4804  -2.4598  -2.4555  -2.2779  -2.2264  -2.1760  -2.1541  -2.1401
    -2.1096  -2.0729  -2.0571  -2.0225  -2.0144  -1.9990  -1.8243  -1.7441
    -1.7040  -1.6805  -1.6424  -1.5808  -1.5710  -1.5449  -1.5364  -1.5326
    -1.5074  -1.4757  -1.4607  -1.4201  -1.2866  -1.2432  -1.2083  -1.1211
    -1.0328  -0.8862  -0.8094  -0.8047  -0.7714  -0.7257  -0.6870  -0.6429
    -0.6351  -0.6011  -0.4579  -0.4133  -0.3486  -0.3225  -0.2825  -0.2351
    -0.2207  -0.0819  -0.0388  -0.0331  -0.0084   0.1175   0.1571   0.2130
     0.2425   0.3044   0.3504   0.4155   0.4296   0.4536   0.4982   0.5205
     0.6315   0.6830   0.6969   0.7059   0.7342   0.7991   0.8540   0.8768
     0.8994   0.9152   1.0845   1.1239   1.2033   1.3546   1.3675   1.6966
     1.7355   1.7846   1.9709   2.3587   2.4061   3.8444   3.9141   3.9737
     3.9927   3.9975   4.0791   4.1969   4.3172   4.3376   4.3431   4.3461

[...]

          k = 0.0380-0.0419 0.0000 ( 17876 PWs)   bands (ev):

[...]

          k =-0.0760-0.0000 0.0000 ( 17886 PWs)   bands (ev):

[...]

          k =-0.0760-0.0839 0.0000 ( 17948 PWs)   bands (ev):

   -55.2447 -55.2395 -55.2092 -55.2088 -55.1531 -55.1236 -55.1003 -55.0648
   -55.0563 -55.0477 -55.0443 -55.0358 -55.0350 -54.9144 -54.2209 -54.2208
   -31.6395 -31.6345 -31.5678 -31.5310 -31.5307 -31.5279 -31.5017 -31.5014
   -31.5013 -31.4681 -31.4662 -31.4583 -31.4555 -31.4146 -31.3863 -31.3825
   -31.3789 -31.3789 -31.3727 -31.3628 -31.3597 -31.3445 -31.3299 -31.3285
   -31.3281 -31.3252 -31.3241 -31.2961 -31.2941 -31.2818 -31.2808 -31.2777
   -31.2620 -31.2585 -31.2579 -31.2554 -31.2549 -31.2244 -31.2153 -31.2147
   -31.1718 -31.1418 -30.5449 -30.5449 -30.4591 -30.4590 -30.4197 -30.4197
   -19.5556 -15.5627 -15.4738 -15.4124 -15.2807 -15.2572 -15.2239 -15.2183
   -15.1492 -15.1159 -15.0549 -15.0204 -14.9822 -14.9633 -14.9608 -14.9388
   -14.8337 -14.8300 -14.8254 -14.8148 -14.7601 -14.7546 -14.7262 -14.7053
   -14.7018 -14.6482 -14.5996 -14.5972 -14.5105 -14.2667 -13.9052 -12.7252
   -12.7250 -10.2653  -7.0478  -6.6673  -4.2552  -4.0873  -2.8373  -2.7359
    -2.6506  -2.5742  -2.4901  -2.4472  -2.4245  -2.2923  -2.2494  -2.2380
    -2.2238  -2.2077  -2.1609  -2.1336  -2.1161  -2.1022  -2.0860  -2.0807
    -2.0632  -2.0432  -2.0296  -1.9693  -1.9592  -1.9420  -1.9168  -1.8962
    -1.8731  -1.8521  -1.8274  -1.8160  -1.7048  -1.6296  -1.5912  -1.5151
    -1.4636  -1.4428  -1.4354  -1.3448  -1.3099  -1.2989  -1.2850  -1.2149
    -1.0978  -1.0447  -0.9862  -0.9839  -0.9577  -0.8192  -0.8036  -0.7512
    -0.7305  -0.7115  -0.6723  -0.6337  -0.6033  -0.5192  -0.4735  -0.4428
    -0.4084  -0.2890  -0.2552  -0.2297  -0.2169  -0.2113  -0.0944  -0.0848
    -0.0587  -0.0299   0.0122   0.0353   0.0964   0.1062   0.2436   0.3180
     0.3932   0.4754   0.5757   0.6297   0.7045   0.7709   0.7751   0.8728
     0.9326   1.0087   1.0185   1.0536   1.0592   1.1780   1.2206   1.2259
     1.2635   2.1434   2.1444   2.2260   2.2262   4.0188   4.0299   4.1050
     4.1350   4.1686   4.2337   4.3580   4.3787   4.4190   4.4207   4.5049

     the Fermi energy is     3.8938 ev

!    total energy              =   -2940.35792705 Ry
     estimated scf accuracy    <       0.00000007 Ry
     smearing contrib. (-TS)   =      -0.03839852 Ry
     internal energy E=F+TS    =   -2940.31952853 Ry

     The total energy is F=E-TS. E is the sum of the following terms:
     one-electron contribution =  -23946.92952283 Ry
     hartree contribution      =   12066.07646659 Ry
     xc contribution           =    -486.10763774 Ry
     ewald contribution        =    9426.63712761 Ry
     electric field correction =       0.00403784 Ry

     convergence has been achieved in  69 iterations

     Forces acting on atoms (cartesian axes, Ry/au):

     atom    1 type  1   force =     0.00000963   -0.00025464    0.09434351
     atom    2 type  1   force =    -0.00015793   -0.00034880   -0.17720924
     atom    3 type  2   force =     0.00003833   -0.00014343   -0.02177289
     atom    4 type  2   force =    -0.00000483   -0.00173294    0.05672621
     atom    5 type  2   force =    -0.01090532   -0.00112511    0.00622664
     atom    6 type  2   force =     0.01267158   -0.00046186    0.00596172
     atom    7 type  1   force =    -0.00028984    0.00189925   -0.01477843
     atom    8 type  1   force =    -0.00006897    0.00584463    0.00723012
     atom    9 type  2   force =    -0.00014886   -0.00025849   -0.00002368
     atom   10 type  2   force =    -0.00136098    0.00012524   -0.00581701
     atom   11 type  2   force =    -0.00012949    0.00006261   -0.00007353
     atom   12 type  2   force =     0.00015569    0.00003192    0.00018204
     atom   13 type  1   force =     0.00011315    0.00010487    0.00022445
     atom   14 type  1   force =    -0.00005819    0.00002019    0.00026136
     atom   15 type  2   force =    -0.00029863    0.00019971   -0.00010489
     atom   16 type  2   force =     0.00002994    0.00021943   -0.00020864
     atom   17 type  2   force =     0.00028201    0.00019588    0.00003902
     atom   18 type  2   force =     0.00048897   -0.00047620   -0.00027550
     atom   19 type  1   force =    -0.00071025   -0.00036933    0.00010234
     atom   20 type  1   force =    -0.00014910    0.00004672    0.00022596
     atom   21 type  2   force =    -0.00000826   -0.00003804    0.10370257
     atom   22 type  2   force =     0.00022362    0.00025944    0.00010349
     atom   23 type  2   force =    -0.07083427   -0.00013135   -0.02714560
     atom   24 type  2   force =     0.07068005    0.00030026   -0.02722712
     atom   25 type  1   force =     0.00001867   -0.00020336    0.09406551
     atom   26 type  1   force =    -0.00024740   -0.00046653   -0.17717774
     atom   27 type  2   force =     0.00009196   -0.00029299   -0.02083526
     atom   28 type  2   force =     0.00002796   -0.00141287    0.05609987
     atom   29 type  2   force =    -0.01102490   -0.00017348    0.00583997
     atom   30 type  2   force =     0.01268389    0.00014302    0.00559628
     atom   31 type  1   force =    -0.00017206    0.00465676   -0.01583491
     atom   32 type  1   force =    -0.00003491   -0.00692394    0.00711640
     atom   33 type  2   force =     0.00010626    0.00047908   -0.00010461
     atom   34 type  2   force =    -0.00097426    0.00064430   -0.00549232
     atom   35 type  2   force =     0.00058136    0.00025723   -0.00012390
     atom   36 type  2   force =    -0.00067775    0.00027022   -0.00021365
     atom   37 type  1   force =     0.00012678   -0.00021774    0.00007219
     atom   38 type  1   force =     0.00002085   -0.00020132   -0.00006563
     atom   39 type  2   force =     0.00074890   -0.00024537   -0.00011088
     atom   40 type  2   force =     0.00017793    0.00058321   -0.00001174
     atom   41 type  2   force =    -0.00020909   -0.00044742    0.00034160
     atom   42 type  2   force =     0.00038907    0.00016108   -0.00017174
     atom   43 type  1   force =    -0.00024920    0.00035788    0.00004158
     atom   44 type  1   force =    -0.00009599    0.00043908    0.00028474
     atom   45 type  2   force =    -0.00000415   -0.00006114    0.10368176
     atom   46 type  2   force =    -0.07084744   -0.00007869   -0.02712246
     atom   47 type  2   force =     0.07067817    0.00035842   -0.02718593
     atom   48 type  3   force =    -0.00281392    0.00227023    0.00595239
     atom   49 type  3   force =     0.00002585   -0.00018394   -0.00125359
     atom   50 type  4   force =    -0.00138850    0.00035464    0.00096731
     atom   51 type  5   force =    -0.00052952   -0.00013941   -0.00022675
     atom   52 type  5   force =     0.00029085   -0.00059291   -0.00039785
     atom   53 type  5   force =     0.00376935   -0.00332850   -0.00382603
     atom   54 type  5   force =    -0.00003683    0.00002451   -0.00059753

     Total force =     0.365866     Total SCF correction =     0.000447
  @ DRIVER MODE: Message from server: STATUS
  @ DRIVER MODE: Message from server: GETFORCE
  @ DRIVER MODE: Returning v,forces,stress,ensemble

     Writing output data file ./calc.save/
  @ DRIVER MODE: Message from server: EXIT
  @ DRIVE MODE: Exiting

     General routines

     Parallel routines

   This run was terminated on:   6:45:36  11Sep2021

   JOB DONE.