     Program PWSCF v.6.7GPU starts on 16Sep2021 at  3:16:52

     R & G space division:  proc/nbgrp/npool/nimage =      10
     Reading input from /storage/home/hcoda1/3/ntian30/research/carbon/CxH_vib/H2O_calc/ads_slab/CHNHHH2O_a/out_0036/pw.inp
Warning: card &CELL ignored
Warning: card   CELL_DYNAMICS='IPI', ignored
Warning: card / ignored

     Current dimensions of program PWSCF are:
     Max number of different atomic species (ntypx) = 10
     Max number of k-points (npk) =  40000
     Max angular momentum in pseudopotentials (lmaxx) =  3
     Presently no symmetry can be used with electric field

     Message from routine cell_base_init:
     DEPRECATED: use true lattice parameter, not A to a.u. conversion factor

     IMPORTANT: XC functional enforced from input :
     Exchange-correlation= BEEF-VDW
                           (   1   4  43  14   2   0   0)
     Any further DFT definition will be discarded
     Please, verify this is what you really want

  @ DRIVER MODE: Connecting to
 qe_1139763_2852629.sched-torque.pace.gatech.edunn4ruc8u_scratch
  using UNIX socket
  @ DRIVER MODE: Message from server: STATUS
  @ DRIVER MODE: Message from server: INIT
  @ DRIVER MODE: Receiving replica           0          -1
  @ DRIVER MODE: Receiving encoded integer          25
  @ DRIVER MODE:  SCF:  T  FORCE:  T  STRESS:  F  VC:  F  ENSEMBLE:  F
  @ DRIVER MODE:  SCF:  T  FORCE:  T  STRESS:  F  VC:  F  ENSEMBLE:  F

     Using Slab Decomposition

     bravais-lattice index     =            0
     lattice parameter (alat)  =       1.8897  a.u.
     unit-cell volume          =    6658.9804 (a.u.)^3
     number of atoms/cell      =           55
     number of atomic types    =            5
     number of electrons       =       398.00
     number of Kohn-Sham states=          209
     kinetic-energy cutoff     =      29.3995  Ry
     charge density cutoff     =     293.9946  Ry
     scf convergence threshold =      7.3E-08
     mixing beta               =       0.0500
     number of iterations used =            8  plain     mixing
     Exchange-correlation= BEEF-VDW
                           (   1   4  43  14   2   0   0)

     celldm(1)=   1.889726  celldm(2)=   0.000000  celldm(3)=   0.000000
     celldm(4)=   0.000000  celldm(5)=   0.000000  celldm(6)=   0.000000

     crystal axes: (cart. coord. in units of alat)
               a(1) = (   6.579727   0.000000   0.000000 )
               a(2) = (  -0.000775   5.961596   0.000000 )
               a(3) = (   0.000000   0.000000  25.155947 )

     reciprocal axes: (cart. coord. in units 2 pi/alat)
               b(1) = (  0.151982  0.000020  0.000000 )
               b(2) = (  0.000000  0.167740  0.000000 )
               b(3) = (  0.000000  0.000000  0.039752 )

     PseudoPot. # 1 for Ti read from file:
     /storage/coda1/p-amedford6/0/shared/rich_project_chbe-medford/medford-share/data/pseudos_module/espresso/nninc/pbe/van/Ti.UPF
     MD5 check sum: 8e4df49b7f0d34bbd5052bf3f5ea0213
     Pseudo is Ultrasoft, Zval = 12.0
     Generated by new atomic code, or converted to UPF format
     Using radial grid of  851 points,  6 beta functions with:
                l(1) =   0
                l(2) =   0
                l(3) =   1
                l(4) =   1
                l(5) =   2
                l(6) =   2
     Q(r) pseudized with  8 coefficients,  rinner =    1.000   1.000   1.000
                                                       1.000   1.000

     PseudoPot. # 2 for O  read from file:
     /storage/coda1/p-amedford6/0/shared/rich_project_chbe-medford/medford-share/data/pseudos_module/espresso/nninc/pbe/van/O.UPF
     MD5 check sum: 78c19812648e8988a0fe644b0f25305e
     Pseudo is Ultrasoft, Zval =  6.0
     Generated by new atomic code, or converted to UPF format
     Using radial grid of  737 points,  4 beta functions with:
                l(1) =   0
                l(2) =   0
                l(3) =   1
                l(4) =   1
     Q(r) pseudized with  8 coefficients,  rinner =    0.800   0.800   0.800

     PseudoPot. # 3 for N  read from file:
     /storage/coda1/p-amedford6/0/shared/rich_project_chbe-medford/medford-share/data/pseudos_module/espresso/nninc/pbe/van/N.UPF
     MD5 check sum: 90d10febe142ad51ac9d5be1deb811c4
     Pseudo is Ultrasoft, Zval =  5.0
     Generated by new atomic code, or converted to UPF format
     Using radial grid of  729 points,  4 beta functions with:
                l(1) =   0
                l(2) =   0
                l(3) =   1
                l(4) =   1
     Q(r) pseudized with  8 coefficients,  rinner =    0.800   0.800   0.800

     PseudoPot. # 4 for C  read from file:
     /storage/coda1/p-amedford6/0/shared/rich_project_chbe-medford/medford-share/data/pseudos_module/espresso/nninc/pbe/van/C.UPF
     MD5 check sum: 1a69bf6b8db32088f5b2163dbdb77a27
     Pseudo is Ultrasoft, Zval =  4.0
     Generated by new atomic code, or converted to UPF format
     Using radial grid of  721 points,  4 beta functions with:
                l(1) =   0
                l(2) =   0
                l(3) =   1
                l(4) =   1
     Q(r) pseudized with  8 coefficients,  rinner =    0.800   0.800   0.800

     PseudoPot. # 5 for H  read from file:
     /storage/coda1/p-amedford6/0/shared/rich_project_chbe-medford/medford-share/data/pseudos_module/espresso/nninc/pbe/van/H.UPF
     MD5 check sum: b5ee9d7bfd3a09ee7748110bda690ff7
     Pseudo is Ultrasoft, Zval =  1.0
     Generated by new atomic code, or converted to UPF format
     Using radial grid of  615 points,  1 beta functions with:
                l(1) =   0
     Q(r) pseudized with  8 coefficients,  rinner =    0.800

     atomic species   valence    mass     pseudopotential
        Ti1           12.00    47.86700     Ti( 1.00)
        O1             6.00    15.99900     O ( 1.00)
        N1             5.00    14.00700     N ( 1.00)
        C1             4.00    12.01100     C ( 1.00)
        H1             1.00     1.00800     H ( 1.00)

     No symmetry found

   Cartesian axes

     site n.     atom                  positions (alat units)
         1           Ti1 tau(   1) = (   0.0004258   2.9801865   6.0000000  )
         2           Ti1 tau(   2) = (   3.2906075   1.4906267   6.0002472  )
         3           O1  tau(   3) = (   0.0006271   0.0005054   7.9858123  )
         4           O1  tau(   4) = (   3.2906025   0.0005020   7.3038282  )
         5           O1  tau(   5) = (   4.5942328   1.4918067   9.2879030  )
         6           O1  tau(   6) = (   1.9868534   1.4903216   9.2879459  )
         7           Ti1 tau(   7) = (   3.2907910   2.8959150   9.1758416  )
         8           Ti1 tau(   8) = (   0.0015273   1.4827037   9.2680791  )
         9           O1  tau(   9) = (   3.2943807   5.9438157  11.3430345  )
        10           O1  tau(  10) = (   0.0116148   5.9584955  10.6183126  )
        11           O1  tau(  11) = (   1.2953376   1.4759649  12.6292060  )
        12           O1  tau(  12) = (   5.2846356   1.4785235  12.6176154  )
        13           Ti1 tau(  13) = (   0.0556596   2.9564334  12.6140783  )
        14           Ti1 tau(  14) = (   3.3658323   1.4657407  12.4949608  )
        15           O1  tau(  15) = (   6.5664030   0.0209144  14.6477191  )
        16           O1  tau(  16) = (   3.3113265   5.9542485  13.9698242  )
        17           O1  tau(  17) = (   4.5454210   1.5146250  16.1225105  )
        18           O1  tau(  18) = (   2.0305911   1.5113983  16.0894517  )
        19           Ti1 tau(  19) = (   3.2587399   2.9544808  15.6767922  )
        20           Ti1 tau(  20) = (   6.5654577   1.5458692  15.9193722  )
        21           O1  tau(  21) = (   3.2904802   0.0005063   4.7018136  )
        22           O1  tau(  22) = (   0.0418464   5.8849155  17.2380659  )
        23           O1  tau(  23) = (   1.3043587   1.4918075   6.0039043  )
        24           O1  tau(  24) = (   5.2767064   1.4903225   6.0039473  )
        25           Ti1 tau(  25) = (   0.0000382   5.9609847   6.0000000  )
        26           Ti1 tau(  26) = (   3.2902200   4.4714249   6.0002472  )
        27           O1  tau(  27) = (   0.0002396   2.9813036   7.9858123  )
        28           O1  tau(  28) = (   3.2902150   2.9813002   7.3038282  )
        29           O1  tau(  29) = (   4.5938453   4.4726049   9.2879030  )
        30           O1  tau(  30) = (   1.9864658   4.4711199   9.2879459  )
        31           Ti1 tau(  31) = (   3.2891106   5.8743827   9.1763621  )
        32           Ti1 tau(  32) = (   0.0006254   4.4649316   9.2693709  )
        33           O1  tau(  33) = (   3.2978316   2.9705197  11.3397625  )
        34           O1  tau(  34) = (   0.0092240   2.9805883  10.6323155  )
        35           O1  tau(  35) = (   1.2936985   4.4655287  12.6460247  )
        36           O1  tau(  36) = (   5.2856521   4.4646452  12.6308247  )
        37           Ti1 tau(  37) = (   0.0515089   5.9379728  12.5308627  )
        38           Ti1 tau(  38) = (   3.3654372   4.4547101  12.4935900  )
        39           O1  tau(  39) = (   6.5748852   2.9443291  14.6951209  )
        40           O1  tau(  40) = (   3.2957406   2.9584624  13.8938737  )
        41           O1  tau(  41) = (   4.5486474   4.4154460  16.0876977  )
        42           O1  tau(  42) = (   2.0388008   4.4257786  16.0448984  )
        43           Ti1 tau(  43) = (   3.3137362   5.9209902  15.7922403  )
        44           Ti1 tau(  44) = (   0.0032603   4.6697478  15.9558853  )
        45           O1  tau(  45) = (   3.2900926   2.9813045   4.7018136  )
        46           O1  tau(  46) = (   1.3039711   4.4726057   6.0039043  )
        47           O1  tau(  47) = (   5.2763189   4.4711207   6.0039473  )
        48           N1  tau(  48) = (   5.6270067   3.1633449  18.6203826  )
        49           C1  tau(  49) = (   0.0237924   2.7940403  17.7774691  )
        50           H1  tau(  50) = (   0.9584034   2.6460975  18.3247808  )
        51           H1  tau(  51) = (   4.7713523   3.5531088  18.2436842  )
        52           H1  tau(  52) = (   5.8168525   3.4166350  19.5804594  )
        53           O1  tau(  53) = (   3.2115967   5.9081562  18.2646127  )
        54           H1  tau(  54) = (   3.8106726   0.6855978  18.4519937  )
        55           H1  tau(  55) = (   2.3006756   0.2828797  18.3268221  )

     number of k points=    10  Fermi-Dirac smearing, width (Ry)=  0.0073
                       cart. coord. in units 2pi/alat
        k(    1) = (   0.0000000   0.0000000   0.0000000), wk =   0.1250000
        k(    2) = (   0.0000000   0.0419351   0.0000000), wk =   0.2500000
        k(    3) = (   0.0000000  -0.0838702   0.0000000), wk =   0.1250000
        k(    4) = (   0.0379955   0.0000049   0.0000000), wk =   0.2500000
        k(    5) = (   0.0379955   0.0419400   0.0000000), wk =   0.2500000
        k(    6) = (   0.0379955  -0.0838652   0.0000000), wk =   0.2500000
        k(    7) = (   0.0379955  -0.0419301   0.0000000), wk =   0.2500000
        k(    8) = (  -0.0759910  -0.0000099   0.0000000), wk =   0.1250000
        k(    9) = (  -0.0759910   0.0419252   0.0000000), wk =   0.2500000
        k(   10) = (  -0.0759910  -0.0838800   0.0000000), wk =   0.1250000

     Initial potential from superposition of free atoms

     starting charge  381.99915, renormalised to  398.00000

     negative rho (up, down):  1.708E-02 0.000E+00

     %%%%%%%%%%%%%%%%%%%%%%%%%%%%%%%%%%%%%%%%%%%%%%%%%%%%%%%%%%%%%%%%%%%%%%%%
     %                                                                      %
     % You are using vdW-DF, which was implemented by the Thonhauser group. %
     % Please cite the following two papers that made this development      %
     % possible and the two reviews that describe the various versions:     %
     %                                                                      %
     %   T. Thonhauser et al., PRL 115, 136402 (2015).                      %
     %   T. Thonhauser et al., PRB 76, 125112 (2007).                       %
     %   K. Berland et al., Rep. Prog. Phys. 78, 066501 (2015).             %
     %   D.C. Langreth et al., J. Phys.: Condens. Matter 21, 084203 (2009). %
     %                                                                      %
     %                                                                      %
     % If you are calculating the stress with vdW-DF, please also cite:     %
     %                                                                      %
     %   R. Sabatini et al., J. Phys.: Condens. Matter 24, 424209 (2012).   %
     %                                                                      %
     %%%%%%%%%%%%%%%%%%%%%%%%%%%%%%%%%%%%%%%%%%%%%%%%%%%%%%%%%%%%%%%%%%%%%%%%

     Adding external electric field

     Computed dipole along edir(3) :
        Dipole              -10.1400 Ry au,        -25.7732 Debye
        Dipole field         -0.0191 Ry au,

        Potential amp.        1.7738 Ry
        Total length         46.3494 bohr

     Starting wfcs are  301 atomic wfcs
  @ DRIVER MODE: Message from server: STATUS
  @ DRIVER MODE: Message from server: POSDATA
  @ DRIVER MODE: Reading and sharing cell
  @ DRIVER MODE: Reading and sharing positions
  @ DRIVER MODE: Received positions

     Self-consistent Calculation

     iteration #  1     ecut=    29.40 Ry     beta= 0.05
     Davidson diagonalization with overlap
     c_bands:  2 eigenvalues not converged
     c_bands:  1 eigenvalues not converged
     c_bands:  1 eigenvalues not converged
     c_bands:  3 eigenvalues not converged
     c_bands:  1 eigenvalues not converged
     c_bands:  3 eigenvalues not converged
     c_bands:  3 eigenvalues not converged
     c_bands:  3 eigenvalues not converged
     c_bands:  1 eigenvalues not converged
     ethr =  1.00E-05,  avg # of iterations = 19.8

[...]

     total energy              =   -2497.71439816 Ry
     estimated scf accuracy    <    5094.20269172 Ry

     iteration #  2     ecut=    29.40 Ry     beta= 0.05
     Davidson diagonalization with overlap
     ethr =  1.00E-02,  avg # of iterations = 25.4

[...]

     iteration # 78     ecut=    29.40 Ry     beta= 0.05
     Davidson diagonalization with overlap
     c_bands:  1 eigenvalues not converged
     ethr =  2.43E-11,  avg # of iterations =  3.8

[...]

     total energy              =   -2953.88253851 Ry
     estimated scf accuracy    <       0.00000009 Ry

     iteration # 81     ecut=    29.40 Ry     beta= 0.05
     Davidson diagonalization with overlap
     ethr =  2.32E-11,  avg # of iterations =  5.6

     negative rho (up, down):  1.667E-02 0.000E+00

     Adding external electric field

     Computed dipole along edir(3) :
        Dipole                1.2908 Ry au,          3.2809 Debye
        Dipole field          0.0024 Ry au,

        Potential amp.       -0.2258 Ry
        Total length         46.3494 bohr

     End of self-consistent calculation

          k = 0.0000 0.0000 0.0000 ( 18029 PWs)   bands (ev):

   -55.4465 -55.4399 -55.4215 -55.4124 -55.4038 -55.3026 -55.2607 -55.2542
   -55.2393 -55.2369 -55.2196 -55.2034 -54.8635 -54.7710 -54.4329 -54.3988
   -31.9961 -31.9304 -31.8222 -31.7977 -31.7579 -31.7531 -31.7379 -31.7274
   -31.6901 -31.6877 -31.6577 -31.6424 -31.6310 -31.6201 -31.5993 -31.5866
   -31.5775 -31.5522 -31.5479 -31.5126 -31.5042 -31.5013 -31.4672 -31.4557
   -31.4492 -31.4469 -31.4387 -31.4382 -31.4380 -31.4123 -31.4119 -31.4061
   -31.3894 -31.3854 -31.3610 -31.3542 -31.3464 -31.1955 -31.0807 -31.0287
   -30.9696 -30.9331 -30.8403 -30.7510 -30.7286 -30.6570 -30.5705 -30.4594
   -19.0609 -16.4602 -16.2042 -15.9427 -15.7597 -15.6297 -15.6024 -15.4289
   -15.2936 -15.1914 -15.1294 -15.0730 -15.0534 -15.0049 -15.0032 -14.9905
   -14.9870 -14.9562 -14.9077 -14.8870 -14.8672 -14.8259 -14.8167 -14.7998
   -14.7510 -14.7132 -14.6173 -14.5854 -14.5591 -14.5188 -14.0347 -12.9352
   -12.8186  -9.0206  -6.8819  -6.6924  -4.2612  -3.5739  -3.4125  -3.3580
    -3.3434  -3.3229  -3.2165  -3.0953  -2.9522  -2.7248  -2.6627  -2.6259
    -2.5946  -2.5574  -2.4404  -2.3895  -2.3775  -2.3117  -2.2653  -2.2574
    -2.2444  -2.2230  -2.2076  -2.1471  -2.1341  -2.0316  -1.9915  -1.9209
    -1.8615  -1.8291  -1.7788  -1.7634  -1.7206  -1.7168  -1.7013  -1.6828
    -1.6690  -1.6525  -1.5920  -1.5340  -1.4559  -1.2710  -1.2385  -1.1223
    -1.0932  -1.0618  -1.0186  -0.9341  -0.9074  -0.8851  -0.8456  -0.7548
    -0.7293  -0.6825  -0.5935  -0.5037  -0.4564  -0.4321  -0.3528  -0.3179
    -0.2904  -0.2225  -0.2153  -0.2036  -0.1283  -0.0727   0.0339   0.0703
     0.1046   0.1201   0.1347   0.2196   0.2583   0.3153   0.3594   0.4125
     0.4488   0.4636   0.4996   0.5209   0.5354   0.5625   0.5745   0.7569
     0.7986   0.8277   0.8578   0.9435   1.0447   1.1114   1.1953   1.2643
     1.5120   1.5895   1.6422   1.7800   2.1616   2.2079   3.6248   3.7533
     3.7716   3.7897   3.8211   3.8833   3.9468   4.1358   4.1582   4.1795
     4.2078

[...]

          k = 0.0380-0.0419 0.0000 ( 17876 PWs)   bands (ev):

[...]

          k =-0.0760-0.0000 0.0000 ( 17886 PWs)   bands (ev):

[...]

          k =-0.0760-0.0839 0.0000 ( 17948 PWs)   bands (ev):

   -55.4299 -55.4288 -55.4236 -55.4206 -55.4191 -55.2938 -55.2694 -55.2408
   -55.2390 -55.2340 -55.2219 -55.2189 -54.8604 -54.7741 -54.4158 -54.4157
   -31.8056 -31.7949 -31.7461 -31.7452 -31.7317 -31.7238 -31.7226 -31.7067
   -31.6913 -31.6501 -31.6428 -31.6373 -31.6280 -31.6093 -31.5732 -31.5628
   -31.5582 -31.5582 -31.5557 -31.5499 -31.5493 -31.5487 -31.5457 -31.5064
   -31.4853 -31.4796 -31.4685 -31.4547 -31.4495 -31.4454 -31.4440 -31.4432
   -31.4364 -31.4332 -31.4142 -31.4088 -31.2562 -31.1974 -31.0741 -31.0467
   -31.0299 -30.9698 -30.7414 -30.7412 -30.6531 -30.6529 -30.6138 -30.6137
   -19.0599 -16.4498 -15.6941 -15.5649 -15.4358 -15.3783 -15.3726 -15.3149
   -15.3105 -15.1973 -15.1874 -15.1589 -15.1337 -15.1172 -15.0896 -15.0701
   -15.0076 -14.9868 -14.9834 -14.9537 -14.9239 -14.9111 -14.9067 -14.8916
   -14.8877 -14.8335 -14.7775 -14.7744 -14.6636 -14.5610 -14.1912 -12.9205
   -12.9202  -9.0302  -6.8669  -6.7104  -4.2286  -3.2066  -2.9781  -2.7973
    -2.6912  -2.6353  -2.5717  -2.5530  -2.3868  -2.3717  -2.3620  -2.3252
    -2.3081  -2.2875  -2.2769  -2.2721  -2.2461  -2.2342  -2.2159  -2.1836
    -2.1497  -2.1329  -2.1246  -2.1185  -2.1024  -2.0836  -2.0606  -2.0395
    -2.0347  -2.0084  -1.9686  -1.9441  -1.8851  -1.7495  -1.7127  -1.6723
    -1.6019  -1.5953  -1.5418  -1.5257  -1.4986  -1.4711  -1.4055  -1.3854
    -1.2362  -1.1719  -1.1556  -1.1397  -1.1255  -1.0032  -0.9628  -0.8943
    -0.8679  -0.7972  -0.7683  -0.7563  -0.7096  -0.6082  -0.5953  -0.5435
    -0.5315  -0.4340  -0.4119  -0.4007  -0.3659  -0.3221  -0.2545  -0.2122
    -0.1977  -0.1884  -0.1544  -0.1476  -0.1072   0.0129   0.0727   0.1342
     0.2055   0.3086   0.4202   0.4325   0.5814   0.6077   0.6217   0.7277
     0.8136   0.8443   0.8646   0.8917   0.8947   1.0188   1.0673   1.0769
     1.0785   1.2291   1.9516   1.9530   2.0274   2.0278   3.7331   3.9323
     3.9535   3.9956   4.0425   4.1740   4.1830   4.2172   4.2185   4.3021
     4.3344

     the Fermi energy is     3.6842 ev

!    total energy              =   -2953.88254501 Ry
     estimated scf accuracy    <       0.00000003 Ry
     smearing contrib. (-TS)   =      -0.03293390 Ry
     internal energy E=F+TS    =   -2953.84961112 Ry

     The total energy is F=E-TS. E is the sum of the following terms:
     one-electron contribution =  -24255.28849039 Ry
     hartree contribution      =   12221.15602612 Ry
     xc contribution           =    -488.84478251 Ry
     ewald contribution        =    9569.12449130 Ry
     electric field correction =       0.00314436 Ry

     convergence has been achieved in  81 iterations

     Forces acting on atoms (cartesian axes, Ry/au):

     atom    1 type  1   force =     0.00021509   -0.00019724    0.09613736
     atom    2 type  1   force =    -0.00011694   -0.00027089   -0.17607608
     atom    3 type  2   force =     0.00002752    0.00001917   -0.02489364
     atom    4 type  2   force =     0.00003517   -0.00160056    0.05416524
     atom    5 type  2   force =    -0.01177627   -0.00149004    0.00429205
     atom    6 type  2   force =     0.01354216   -0.00071173    0.00349914
     atom    7 type  1   force =    -0.00083806    0.00086928   -0.01027501
     atom    8 type  1   force =     0.00025101    0.01223000    0.02351674
     atom    9 type  2   force =    -0.00035959   -0.00008358   -0.00021080
     atom   10 type  2   force =    -0.00087964   -0.00045238   -0.01481286
     atom   11 type  2   force =     0.00043477    0.00007796    0.00020055
     atom   12 type  2   force =    -0.00040591   -0.00007851    0.00004908
     atom   13 type  1   force =    -0.00067072   -0.00007151   -0.00162130
     atom   14 type  1   force =     0.00058336    0.00023891    0.00026859
     atom   15 type  2   force =     0.00057703    0.00044151    0.00011283
     atom   16 type  2   force =    -0.00027879    0.00003940    0.00066651
     atom   17 type  2   force =    -0.00026158   -0.00041878   -0.00024367
     atom   18 type  2   force =     0.00022765   -0.00035250    0.00019218
     atom   19 type  1   force =     0.00082941    0.00013746    0.00053418
     atom   20 type  1   force =    -0.00042008   -0.00068012    0.00007382
     atom   21 type  2   force =     0.00006205    0.00004266    0.10331942
     atom   22 type  2   force =     0.00039811    0.00079712   -0.00038993
     atom   23 type  2   force =    -0.07129942   -0.00008074   -0.02764629
     atom   24 type  2   force =     0.07125554    0.00035732   -0.02768447
     atom   25 type  1   force =    -0.00006583   -0.00013879    0.09564701
     atom   26 type  1   force =    -0.00020487   -0.00030786   -0.17601358
     atom   27 type  2   force =     0.00012515   -0.00040260   -0.02390031
     atom   28 type  2   force =     0.00009679   -0.00126719    0.05363286
     atom   29 type  2   force =    -0.01200700    0.00044963    0.00381925
     atom   30 type  2   force =     0.01365510    0.00069328    0.00310111
     atom   31 type  1   force =    -0.00061226    0.00369150   -0.01332252
     atom   32 type  1   force =     0.00021083   -0.01325166    0.02337633
     atom   33 type  2   force =    -0.00007579   -0.00005895   -0.00027615
     atom   34 type  2   force =    -0.00008337    0.00021819   -0.01828369
     atom   35 type  2   force =     0.00035542   -0.00048717    0.00027145
     atom   36 type  2   force =    -0.00031660   -0.00016219    0.00013277
     atom   37 type  1   force =    -0.00084174   -0.00023716   -0.00011712
     atom   38 type  1   force =     0.00047774    0.00004624    0.00059900
     atom   39 type  2   force =    -0.00001360    0.00078439    0.00003168
     atom   40 type  2   force =    -0.00023344   -0.00018758   -0.00058376
     atom   41 type  2   force =     0.00027137    0.00052925    0.00014262
     atom   42 type  2   force =    -0.00073037    0.00029905    0.00019030
     atom   43 type  1   force =     0.00081179    0.00001990   -0.00049037
     atom   44 type  1   force =    -0.00039141   -0.00084944    0.00050869
     atom   45 type  2   force =     0.00006130    0.00003588    0.10327655
     atom   46 type  2   force =    -0.07128310   -0.00001879   -0.02761652
     atom   47 type  2   force =     0.07122930    0.00040576   -0.02763686
     atom   48 type  3   force =    -0.00002681    0.00105872   -0.00059259
     atom   49 type  4   force =    -0.00028020    0.00092697   -0.00025975
     atom   50 type  5   force =     0.00062875   -0.00002891    0.00096745
     atom   51 type  5   force =     0.00051917    0.00037956    0.00011746
     atom   52 type  5   force =    -0.00010706    0.00009978    0.00031191
     atom   53 type  2   force =    -0.00252246   -0.00484747   -0.00262591
     atom   54 type  5   force =     0.00105944    0.00389693    0.00147294
     atom   55 type  5   force =    -0.00083810   -0.00005147    0.00094606

     Total force =     0.367640     Total SCF correction =     0.000816
  @ DRIVER MODE: Message from server: STATUS
  @ DRIVER MODE: Message from server: GETFORCE
  @ DRIVER MODE: Returning v,forces,stress,ensemble

     Writing output data file ./calc.save/
  @ DRIVER MODE: Message from server: EXIT
  @ DRIVE MODE: Exiting

     General routines

     Parallel routines

   This run was terminated on:   3:37:15  16Sep2021

   JOB DONE.