     Program PWSCF v.6.7GPU starts on 28Sep2021 at 17:41: 7

     R & G space division:  proc/nbgrp/npool/nimage =       8
     Reading input from /storage/home/hcoda1/3/ntian30/research/carbon/CxH_vib/H2O_calc/ads_slab/CH3OHN2H2O_a/out_0048/pw.inp
Warning: card &CELL ignored
Warning: card   CELL_DYNAMICS='IPI', ignored
Warning: card / ignored

     Current dimensions of program PWSCF are:
     Max number of different atomic species (ntypx) = 10
     Max number of k-points (npk) =  40000
     Max angular momentum in pseudopotentials (lmaxx) =  3
     Presently no symmetry can be used with electric field

     Message from routine cell_base_init:
     DEPRECATED: use true lattice parameter, not A to a.u. conversion factor

     IMPORTANT: XC functional enforced from input :
     Exchange-correlation= BEEF-VDW
                           (   1   4  43  14   2   0   0)
     Any further DFT definition will be discarded
     Please, verify this is what you really want

  @ DRIVER MODE: Connecting to
 qe_1139763_3000313.sched-torque.pace.gatech.edut_y4x7ng_scratch
  using UNIX socket
  @ DRIVER MODE: Message from server: STATUS
  @ DRIVER MODE: Message from server: INIT
  @ DRIVER MODE: Receiving replica           0          -1
  @ DRIVER MODE: Receiving encoded integer          25
  @ DRIVER MODE:  SCF:  T  FORCE:  T  STRESS:  F  VC:  F  ENSEMBLE:  F
  @ DRIVER MODE:  SCF:  T  FORCE:  T  STRESS:  F  VC:  F  ENSEMBLE:  F

     Using Slab Decomposition

     bravais-lattice index     =            0
     lattice parameter (alat)  =       1.8897  a.u.
     unit-cell volume          =    6658.9804 (a.u.)^3
     number of atoms/cell      =           58
     number of atomic types    =            5
     number of electrons       =       410.00
     number of Kohn-Sham states=          215
     kinetic-energy cutoff     =      29.3995  Ry
     charge density cutoff     =     293.9946  Ry
     scf convergence threshold =      7.3E-08
     mixing beta               =       0.0500
     number of iterations used =            8  plain     mixing
     Exchange-correlation= BEEF-VDW
                           (   1   4  43  14   2   0   0)

     celldm(1)=   1.889726  celldm(2)=   0.000000  celldm(3)=   0.000000
     celldm(4)=   0.000000  celldm(5)=   0.000000  celldm(6)=   0.000000

     crystal axes: (cart. coord. in units of alat)
               a(1) = (   6.579727   0.000000   0.000000 )
               a(2) = (  -0.000775   5.961596   0.000000 )
               a(3) = (   0.000000   0.000000  25.155947 )

     reciprocal axes: (cart. coord. in units 2 pi/alat)
               b(1) = (  0.151982  0.000020  0.000000 )
               b(2) = (  0.000000  0.167740  0.000000 )
               b(3) = (  0.000000  0.000000  0.039752 )

     PseudoPot. # 1 for Ti read from file:
     /storage/coda1/p-amedford6/0/shared/rich_project_chbe-medford/medford-share/data/pseudos_module/espresso/nninc/pbe/van/Ti.UPF
     MD5 check sum: 8e4df49b7f0d34bbd5052bf3f5ea0213
     Pseudo is Ultrasoft, Zval = 12.0
     Generated by new atomic code, or converted to UPF format
     Using radial grid of  851 points,  6 beta functions with:
                l(1) =   0
                l(2) =   0
                l(3) =   1
                l(4) =   1
                l(5) =   2
                l(6) =   2
     Q(r) pseudized with  8 coefficients,  rinner =    1.000   1.000   1.000
                                                       1.000   1.000

     PseudoPot. # 2 for O  read from file:
     /storage/coda1/p-amedford6/0/shared/rich_project_chbe-medford/medford-share/data/pseudos_module/espresso/nninc/pbe/van/O.UPF
     MD5 check sum: 78c19812648e8988a0fe644b0f25305e
     Pseudo is Ultrasoft, Zval =  6.0
     Generated by new atomic code, or converted to UPF format
     Using radial grid of  737 points,  4 beta functions with:
                l(1) =   0
                l(2) =   0
                l(3) =   1
                l(4) =   1
     Q(r) pseudized with  8 coefficients,  rinner =    0.800   0.800   0.800

     PseudoPot. # 3 for C  read from file:
     /storage/coda1/p-amedford6/0/shared/rich_project_chbe-medford/medford-share/data/pseudos_module/espresso/nninc/pbe/van/C.UPF
     MD5 check sum: 1a69bf6b8db32088f5b2163dbdb77a27
     Pseudo is Ultrasoft, Zval =  4.0
     Generated by new atomic code, or converted to UPF format
     Using radial grid of  721 points,  4 beta functions with:
                l(1) =   0
                l(2) =   0
                l(3) =   1
                l(4) =   1
     Q(r) pseudized with  8 coefficients,  rinner =    0.800   0.800   0.800

     PseudoPot. # 4 for H  read from file:
     /storage/coda1/p-amedford6/0/shared/rich_project_chbe-medford/medford-share/data/pseudos_module/espresso/nninc/pbe/van/H.UPF
     MD5 check sum: b5ee9d7bfd3a09ee7748110bda690ff7
     Pseudo is Ultrasoft, Zval =  1.0
     Generated by new atomic code, or converted to UPF format
     Using radial grid of  615 points,  1 beta functions with:
                l(1) =   0
     Q(r) pseudized with  8 coefficients,  rinner =    0.800

     PseudoPot. # 5 for N  read from file:
     /storage/coda1/p-amedford6/0/shared/rich_project_chbe-medford/medford-share/data/pseudos_module/espresso/nninc/pbe/van/N.UPF
     MD5 check sum: 90d10febe142ad51ac9d5be1deb811c4
     Pseudo is Ultrasoft, Zval =  5.0
     Generated by new atomic code, or converted to UPF format
     Using radial grid of  729 points,  4 beta functions with:
                l(1) =   0
                l(2) =   0
                l(3) =   1
                l(4) =   1
     Q(r) pseudized with  8 coefficients,  rinner =    0.800   0.800   0.800

     atomic species   valence    mass     pseudopotential
        Ti1           12.00    47.86700     Ti( 1.00)
        O1             6.00    15.99900     O ( 1.00)
        C1             4.00    12.01100     C ( 1.00)
        H1             1.00     1.00800     H ( 1.00)
        N1             5.00    14.00700     N ( 1.00)

     No symmetry found

   Cartesian axes

     site n.     atom                  positions (alat units)
         1           Ti1 tau(   1) = (   0.0004258   2.9801865   6.0000000  )
         2           Ti1 tau(   2) = (   3.2906075   1.4906267   6.0002472  )
         3           O1  tau(   3) = (   0.0006271   0.0005054   7.9858123  )
         4           O1  tau(   4) = (   3.2906025   0.0005020   7.3038282  )
         5           O1  tau(   5) = (   4.5942328   1.4918067   9.2879030  )
         6           O1  tau(   6) = (   1.9868534   1.4903216   9.2879459  )
         7           Ti1 tau(   7) = (   3.3250738   2.9918783   9.1599549  )
         8           Ti1 tau(   8) = (   0.0412716   1.4903975   9.2658274  )
         9           O1  tau(   9) = (   3.2852344   0.0116916  11.3753809  )
        10           O1  tau(  10) = (   6.5701620   0.0027176  10.6052010  )
        11           O1  tau(  11) = (   1.2758103   1.4969824  12.6410148  )
        12           O1  tau(  12) = (   5.2796941   1.4985041  12.6691897  )
        13           Ti1 tau(  13) = (   6.5531116   2.9870417  12.5348353  )
        14           Ti1 tau(  14) = (   3.2504356   1.4995581  12.5215122  )
        15           O1  tau(  15) = (   0.0383206   0.0046779  14.6787597  )
        16           O1  tau(  16) = (   3.2537876   0.0095675  14.0320577  )
        17           O1  tau(  17) = (   4.5855444   1.5609978  16.0639115  )
        18           O1  tau(  18) = (   2.0343745   1.5440679  16.2001998  )
        19           Ti1 tau(  19) = (   3.3058624   3.0043567  15.7064231  )
        20           Ti1 tau(  20) = (   6.5549511   1.4266458  15.8675638  )
        21           O1  tau(  21) = (   3.2904802   0.0005063   4.7018136  )
        22           O1  tau(  22) = (   6.4974171   0.0126247  17.2237355  )
        23           O1  tau(  23) = (   1.3043587   1.4918075   6.0039043  )
        24           O1  tau(  24) = (   5.2767064   1.4903225   6.0039473  )
        25           Ti1 tau(  25) = (   0.0000382   5.9609847   6.0000000  )
        26           Ti1 tau(  26) = (   3.2902200   4.4714249   6.0002472  )
        27           O1  tau(  27) = (   0.0002396   2.9813036   7.9858123  )
        28           O1  tau(  28) = (   3.2902150   2.9813002   7.3038282  )
        29           O1  tau(  29) = (   4.5938453   4.4726049   9.2879030  )
        30           O1  tau(  30) = (   1.9864658   4.4711199   9.2879459  )
        31           Ti1 tau(  31) = (   3.3194574   0.0113313   9.1541029  )
        32           Ti1 tau(  32) = (   0.0414074   4.4589881   9.2683624  )
        33           O1  tau(  33) = (   3.2821265   2.9896323  11.3676027  )
        34           O1  tau(  34) = (   6.5712111   2.9825298  10.6251173  )
        35           O1  tau(  35) = (   1.2751242   4.4805681  12.6359318  )
        36           O1  tau(  36) = (   5.2791817   4.4782367  12.6627471  )
        37           Ti1 tau(  37) = (   6.5506445   0.0032150  12.4806913  )
        38           Ti1 tau(  38) = (   3.2507345   4.4881811  12.5195668  )
        39           O1  tau(  39) = (   0.0469291   2.9928743  14.8464778  )
        40           O1  tau(  40) = (   3.2514374   2.9975957  13.9281162  )
        41           O1  tau(  41) = (   4.5866068   4.4203933  16.0984022  )
        42           O1  tau(  42) = (   2.0418857   4.4579080  16.2200674  )
        43           Ti1 tau(  43) = (   3.2648600   0.0292614  15.8571223  )
        44           Ti1 tau(  44) = (   6.5763064   4.6169283  15.9626260  )
        45           O1  tau(  45) = (   3.2900926   2.9813045   4.7018136  )
        46           O1  tau(  46) = (   1.3039711   4.4726057   6.0039043  )
        47           O1  tau(  47) = (   5.2763189   4.4711207   6.0039473  )
        48           C1  tau(  48) = (   6.0301898   2.9050411  18.9351799  )
        49           O1  tau(  49) = (   0.1575529   2.9516393  17.6723866  )
        50           H1  tau(  50) = (   4.9714676   2.8818909  18.6991823  )
        51           H1  tau(  51) = (   1.1132637   2.8218831  17.8130049  )
        52           H1  tau(  52) = (   6.2985093   1.9952365  19.4696065  )
        53           H1  tau(  53) = (   6.2732381   3.7939772  19.5169533  )
        54           N1  tau(  54) = (   4.8840950   3.1052494  22.6850861  )
        55           N1  tau(  55) = (   4.2680757   3.3403818  21.8070487  )
        56           O1  tau(  56) = (   3.8772584   0.1141246  18.3039653  )
        57           H1  tau(  57) = (   4.8407149   0.0692883  18.0716375  )
        58           H1  tau(  58) = (   3.6680196   5.2122673  18.6877519  )

     number of k points=    10  Fermi-Dirac smearing, width (Ry)=  0.0073
                       cart. coord. in units 2pi/alat
        k(    1) = (   0.0000000   0.0000000   0.0000000), wk =   0.1250000
        k(    2) = (   0.0000000   0.0419351   0.0000000), wk =   0.2500000
        k(    3) = (   0.0000000  -0.0838702   0.0000000), wk =   0.1250000
        k(    4) = (   0.0379955   0.0000049   0.0000000), wk =   0.2500000
        k(    5) = (   0.0379955   0.0419400   0.0000000), wk =   0.2500000
        k(    6) = (   0.0379955  -0.0838652   0.0000000), wk =   0.2500000
        k(    7) = (   0.0379955  -0.0419301   0.0000000), wk =   0.2500000
        k(    8) = (  -0.0759910  -0.0000099   0.0000000), wk =   0.1250000
        k(    9) = (  -0.0759910   0.0419252   0.0000000), wk =   0.2500000
        k(   10) = (  -0.0759910  -0.0838800   0.0000000), wk =   0.1250000

     Initial potential from superposition of free atoms

     starting charge  393.99913, renormalised to  410.00000

     negative rho (up, down):  9.547E-03 0.000E+00

     %%%%%%%%%%%%%%%%%%%%%%%%%%%%%%%%%%%%%%%%%%%%%%%%%%%%%%%%%%%%%%%%%%%%%%%%
     %                                                                      %
     % You are using vdW-DF, which was implemented by the Thonhauser group. %
     % Please cite the following two papers that made this development      %
     % possible and the two reviews that describe the various versions:     %
     %                                                                      %
     %   T. Thonhauser et al., PRL 115, 136402 (2015).                      %
     %   T. Thonhauser et al., PRB 76, 125112 (2007).                       %
     %   K. Berland et al., Rep. Prog. Phys. 78, 066501 (2015).             %
     %   D.C. Langreth et al., J. Phys.: Condens. Matter 21, 084203 (2009). %
     %                                                                      %
     %                                                                      %
     % If you are calculating the stress with vdW-DF, please also cite:     %
     %                                                                      %
     %   R. Sabatini et al., J. Phys.: Condens. Matter 24, 424209 (2012).   %
     %                                                                      %
     %%%%%%%%%%%%%%%%%%%%%%%%%%%%%%%%%%%%%%%%%%%%%%%%%%%%%%%%%%%%%%%%%%%%%%%%

     Adding external electric field

     Computed dipole along edir(3) :
        Dipole              -20.0822 Ry au,        -51.0439 Debye
        Dipole field         -0.0379 Ry au,

        Potential amp.        3.5131 Ry
        Total length         46.3494 bohr

     Starting wfcs are  310 atomic wfcs
  @ DRIVER MODE: Message from server: STATUS
  @ DRIVER MODE: Message from server: POSDATA
  @ DRIVER MODE: Reading and sharing cell
  @ DRIVER MODE: Reading and sharing positions
  @ DRIVER MODE: Received positions

     Self-consistent Calculation

     iteration #  1     ecut=    29.40 Ry     beta= 0.05
     Davidson diagonalization with overlap
     c_bands:  1 eigenvalues not converged
     c_bands:  1 eigenvalues not converged
     c_bands:  5 eigenvalues not converged
     c_bands:  1 eigenvalues not converged
     c_bands:  4 eigenvalues not converged
     c_bands:  3 eigenvalues not converged
     ethr =  1.00E-05,  avg # of iterations = 32.1

[...]

     total energy              =   -2098.53145248 Ry
     estimated scf accuracy    <   10668.51578524 Ry

     iteration #  2     ecut=    29.40 Ry     beta= 0.05
     Davidson diagonalization with overlap
     ethr =  1.00E-02,  avg # of iterations = 30.2

[...]

     iteration # 83     ecut=    29.40 Ry     beta= 0.05
     Davidson diagonalization with overlap
     c_bands:  2 eigenvalues not converged
     ethr =  5.25E-11,  avg # of iterations =  3.1

[...]

     total energy              =   -3007.66286845 Ry
     estimated scf accuracy    <       0.00000011 Ry

     iteration # 85     ecut=    29.40 Ry     beta= 0.05
     Davidson diagonalization with overlap
     ethr =  2.64E-11,  avg # of iterations =  7.6

     negative rho (up, down):  1.054E-02 0.000E+00

     Adding external electric field

     Computed dipole along edir(3) :
        Dipole                1.2636 Ry au,          3.2118 Debye
        Dipole field          0.0024 Ry au,

        Potential amp.       -0.2211 Ry
        Total length         46.3494 bohr

     End of self-consistent calculation

          k = 0.0000 0.0000 0.0000 ( 18029 PWs)   bands (ev):

   -54.9143 -54.8908 -54.8783 -54.8564 -54.8418 -54.8362 -54.8089 -54.7902
   -54.7613 -54.7586 -54.7241 -54.7039 -54.6725 -54.6699 -53.9788 -53.9447
   -31.4800 -31.4553 -31.3865 -31.2934 -31.2342 -31.2287 -31.2166 -31.2149
   -31.1794 -31.1451 -31.1364 -31.1335 -31.1289 -31.1063 -31.0996 -31.0930
   -31.0777 -31.0579 -31.0523 -31.0507 -31.0440 -31.0361 -31.0132 -31.0074
   -31.0067 -31.0016 -30.9866 -30.9840 -30.9828 -30.9472 -30.9298 -30.9101
   -30.9086 -30.9075 -30.8992 -30.8991 -30.8882 -30.8577 -30.8438 -30.8395
   -30.8348 -30.8155 -30.3907 -30.2884 -30.2668 -30.2069 -30.1205 -30.0096
   -21.8162 -19.8039 -18.2722 -15.7481 -15.5023 -15.3632 -15.2659 -15.1415
   -15.0115 -14.9374 -14.8170 -14.7451 -14.6530 -14.6393 -14.6203 -14.6002
   -14.5649 -14.5389 -14.4821 -14.4768 -14.4221 -14.4187 -14.4080 -14.3973
   -14.3644 -14.3508 -14.3181 -14.3088 -14.1463 -14.0807 -14.0210 -13.8801
   -12.4794 -12.3601 -10.8262  -6.8798  -6.5542  -6.0297  -4.9411  -4.9051
    -4.7662  -4.6423  -3.6155  -3.0818  -2.9300  -2.8990  -2.8754  -2.8508
    -2.7314  -2.6409  -2.6145  -2.4504  -2.3524  -2.2186  -2.1912  -2.1580
    -2.1206  -2.0512  -1.9969  -1.9100  -1.8791  -1.8406  -1.8193  -1.7949
    -1.7799  -1.7549  -1.7238  -1.6528  -1.6129  -1.5301  -1.5151  -1.4299
    -1.3720  -1.3642  -1.3201  -1.2574  -1.2541  -1.2434  -1.2051  -1.1910
    -1.1815  -1.1713  -1.1660  -1.0101  -0.9584  -0.9269  -0.8022  -0.6907
    -0.6004  -0.5932  -0.4852  -0.4717  -0.4109  -0.4053  -0.3646  -0.3251
    -0.2627  -0.1674  -0.1123  -0.0656  -0.0495   0.0613   0.1260   0.1396
     0.2006   0.2781   0.2936   0.3152   0.3424   0.4306   0.4994   0.5404
     0.5739   0.6406   0.6502   0.6964   0.7264   0.7665   0.8535   0.9072
     0.9095   0.9976   1.0144   1.0282   1.0530   1.0591   1.1569   1.1896
     1.2355   1.2631   1.4140   1.4473   1.6410   1.6760   1.9367   2.0352
     2.0470   2.2083   2.6329   2.6874   4.1753   4.2432   4.2795   4.2870
     4.3017   4.3812   4.6635   4.6788   4.6842   4.6955   4.7037

[...]

          k = 0.0380-0.0419 0.0000 ( 17876 PWs)   bands (ev):

[...]

          k =-0.0760-0.0000 0.0000 ( 17886 PWs)   bands (ev):

[...]

          k =-0.0760-0.0839 0.0000 ( 17948 PWs)   bands (ev):

   -54.8972 -54.8951 -54.8753 -54.8717 -54.8365 -54.8320 -54.8017 -54.7977
   -54.7685 -54.7436 -54.7388 -54.6883 -54.6856 -54.6741 -53.9617 -53.9616
   -31.3679 -31.2889 -31.2787 -31.2032 -31.1997 -31.1774 -31.1698 -31.1682
   -31.1613 -31.1384 -31.1238 -31.1222 -31.1146 -31.1081 -31.0902 -31.0753
   -31.0596 -31.0576 -31.0490 -31.0476 -31.0462 -31.0449 -31.0391 -31.0337
   -31.0093 -31.0036 -30.9994 -30.9948 -30.9941 -30.9914 -30.9909 -30.9906
   -30.9898 -30.9609 -30.9528 -30.9417 -30.9404 -30.9134 -30.9111 -30.8752
   -30.8720 -30.8574 -30.2794 -30.2794 -30.2036 -30.2032 -30.1638 -30.1636
   -21.8161 -19.8003 -18.2711 -15.3236 -15.2097 -15.0434 -14.9351 -14.9253
   -14.8970 -14.8388 -14.7957 -14.7648 -14.7244 -14.7143 -14.6845 -14.6662
   -14.6605 -14.6033 -14.5188 -14.5131 -14.4993 -14.4642 -14.4369 -14.4229
   -14.4209 -14.4066 -14.3696 -14.3678 -14.3485 -14.3374 -14.2823 -14.1930
   -12.4614 -12.4608 -10.8289  -6.8790  -6.5563  -6.0322  -4.9417  -4.9127
    -4.7567  -4.6297  -3.6071  -2.7622  -2.5338  -2.4771  -2.4051  -2.2391
    -2.1585  -2.1377  -2.0622  -2.0378  -2.0031  -1.9242  -1.9205  -1.8874
    -1.8470  -1.8218  -1.8163  -1.7978  -1.7812  -1.7482  -1.7263  -1.7070
    -1.6915  -1.6770  -1.6292  -1.6203  -1.5845  -1.5809  -1.5668  -1.5550
    -1.5362  -1.5247  -1.4478  -1.4178  -1.3772  -1.2925  -1.2727  -1.1427
    -1.1378  -1.0982  -1.0549  -1.0179  -0.9976  -0.9796  -0.9528  -0.9248
    -0.8905  -0.7168  -0.6958  -0.6549  -0.6040  -0.5986  -0.5239  -0.5071
    -0.4535  -0.4215  -0.3324  -0.2906  -0.2507  -0.1422  -0.1149  -0.1027
     0.0345   0.0408   0.0871   0.0886   0.1291   0.1690   0.1788   0.1887
     0.2624   0.2961   0.3324   0.3585   0.3818   0.5590   0.5963   0.6545
     0.7416   0.7627   0.9398   0.9705   1.0149   1.0961   1.1578   1.2106
     1.2334   1.3391   1.3497   1.3725   1.4648   1.5132   1.5144   1.5444
     2.3983   2.4012   2.5019   2.5047   4.2987   4.4303   4.4365   4.5168
     4.5897   4.6832   4.6938   4.7010   4.7280   4.7380   4.7513

     the Fermi energy is     4.2313 ev

!    total energy              =   -3007.66287794 Ry
     estimated scf accuracy    <       0.00000004 Ry
     smearing contrib. (-TS)   =      -0.03678681 Ry
     internal energy E=F+TS    =   -3007.62609113 Ry

     The total energy is F=E-TS. E is the sum of the following terms:
     one-electron contribution =  -22338.58809223 Ry
     hartree contribution      =   11271.22407280 Ry
     xc contribution           =    -502.09976022 Ry
     ewald contribution        =    8561.83467522 Ry
     electric field correction =       0.00301331 Ry

     convergence has been achieved in  85 iterations

     Forces acting on atoms (cartesian axes, Ry/au):

     atom    1 type  1   force =    -0.00027751   -0.00001465    0.09252199
     atom    2 type  1   force =    -0.00013313    0.00114256   -0.18322466
     atom    3 type  2   force =     0.00054850   -0.00040268   -0.02389289
     atom    4 type  2   force =     0.00079747    0.00021300    0.05083475
     atom    5 type  2   force =    -0.01548218   -0.00014661    0.00437645
     atom    6 type  2   force =     0.01419207   -0.00033227    0.00506074
     atom    7 type  1   force =    -0.00010883    0.00020400    0.00007838
     atom    8 type  1   force =    -0.00007510    0.00015951    0.00000440
     atom    9 type  2   force =     0.00007431    0.00004779    0.00008554
     atom   10 type  2   force =    -0.00000106    0.00001730   -0.00006234
     atom   11 type  2   force =     0.00017164    0.00001472   -0.00011999
     atom   12 type  2   force =     0.00004006    0.00003623   -0.00004526
     atom   13 type  1   force =     0.00017145    0.00011861   -0.00008917
     atom   14 type  1   force =     0.00026369    0.00016869   -0.00012200
     atom   15 type  2   force =     0.00027043    0.00039029    0.00005631
     atom   16 type  2   force =     0.00014683   -0.00001670    0.00027224
     atom   17 type  2   force =     0.00004076    0.00013271    0.00027575
     atom   18 type  2   force =     0.00009923    0.00006267    0.00046018
     atom   19 type  1   force =     0.00007433   -0.00015657   -0.00011184
     atom   20 type  1   force =     0.00020544   -0.00012925   -0.00052139
     atom   21 type  2   force =     0.00002948    0.00001610    0.10486968
     atom   22 type  2   force =    -0.00031032    0.00003219    0.00056510
     atom   23 type  2   force =    -0.06801496   -0.00011257   -0.02684793
     atom   24 type  2   force =     0.06787816    0.00034244   -0.02688951
     atom   25 type  1   force =    -0.00011979   -0.00002346    0.09594996
     atom   26 type  1   force =    -0.00011491   -0.00144917   -0.18313429
     atom   27 type  2   force =     0.00049764   -0.00019621   -0.02269722
     atom   28 type  2   force =     0.00086256    0.00018067    0.05122885
     atom   29 type  2   force =    -0.01539937    0.00050811    0.00454706
     atom   30 type  2   force =     0.01414523    0.00078569    0.00524843
     atom   31 type  1   force =    -0.00010203    0.00005291    0.00002207
     atom   32 type  1   force =    -0.00007485    0.00017872   -0.00003914
     atom   33 type  2   force =     0.00012410   -0.00003163    0.00012860
     atom   34 type  2   force =    -0.00000198    0.00007297    0.00002614
     atom   35 type  2   force =     0.00012716   -0.00000501   -0.00001950
     atom   36 type  2   force =     0.00008244   -0.00000532    0.00010324
     atom   37 type  1   force =     0.00016259    0.00006982   -0.00013808
     atom   38 type  1   force =     0.00015002   -0.00003900    0.00002215
     atom   39 type  2   force =     0.00016540   -0.00006638   -0.00006313
     atom   40 type  2   force =     0.00002537   -0.00017967    0.00008681
     atom   41 type  2   force =     0.00024388    0.00001209    0.00021444
     atom   42 type  2   force =    -0.00013474   -0.00002414    0.00030791
     atom   43 type  1   force =    -0.00002496   -0.00019038    0.00075703
     atom   44 type  1   force =     0.00009539    0.00011565   -0.00006135
     atom   45 type  2   force =     0.00003472    0.00002059    0.10479116
     atom   46 type  2   force =    -0.06803074   -0.00050956   -0.02683666
     atom   47 type  2   force =     0.06788799   -0.00009068   -0.02691620
     atom   48 type  3   force =     0.00004953   -0.00009545   -0.00056733
     atom   49 type  2   force =    -0.00049270   -0.00009243    0.00056054
     atom   50 type  4   force =    -0.00012967   -0.00042379    0.00005121
     atom   51 type  4   force =     0.00017251   -0.00014946   -0.00002495
     atom   52 type  4   force =     0.00030913   -0.00043151    0.00006923
     atom   53 type  4   force =     0.00010866    0.00026194   -0.00015146
     atom   54 type  5   force =     0.02495768   -0.00985375    0.03579619
     atom   55 type  5   force =    -0.02546703    0.00980289   -0.03669801
     atom   56 type  2   force =     0.00127279    0.00061654   -0.00041447
     atom   57 type  4   force =    -0.00085973   -0.00045626    0.00004680
     atom   58 type  4   force =    -0.00112304   -0.00015278    0.00026941

     Total force =     0.373616     Total SCF correction =     0.000724
  @ DRIVER MODE: Message from server: STATUS
  @ DRIVER MODE: Message from server: GETFORCE
  @ DRIVER MODE: Returning v,forces,stress,ensemble

     Writing output data file ./calc.save/
  @ DRIVER MODE: Message from server: EXIT
  @ DRIVE MODE: Exiting

     General routines

     Parallel routines

   This run was terminated on:  18:12:12  28Sep2021

   JOB DONE.