     Program PWSCF v.6.7GPU starts on 15Sep2021 at 12:37:56

     R & G space division:  proc/nbgrp/npool/nimage =      10
     Reading input from /storage/home/hcoda1/3/ntian30/research/carbon/CxH_vib/CH_calc/ads_slab/CHNHNH_b/out_0010/pw.inp
Warning: card &CELL ignored
Warning: card   CELL_DYNAMICS='IPI', ignored
Warning: card / ignored

     Current dimensions of program PWSCF are:
     Max number of different atomic species (ntypx) = 10
     Max number of k-points (npk) =  40000
     Max angular momentum in pseudopotentials (lmaxx) =  3
     Presently no symmetry can be used with electric field

     Message from routine cell_base_init:
     DEPRECATED: use true lattice parameter, not A to a.u. conversion factor

     IMPORTANT: XC functional enforced from input :
     Exchange-correlation= BEEF-VDW
                           (   1   4  43  14   2   0   0)
     Any further DFT definition will be discarded
     Please, verify this is what you really want

  @ DRIVER MODE: Connecting to
 qe_1139763_2850202.sched-torque.pace.gatech.eduf7dec_xd_scratch
  using UNIX socket
  @ DRIVER MODE: Message from server: STATUS
  @ DRIVER MODE: Message from server: INIT
  @ DRIVER MODE: Receiving replica           0          -1
  @ DRIVER MODE: Receiving encoded integer          25
  @ DRIVER MODE:  SCF:  T  FORCE:  T  STRESS:  F  VC:  F  ENSEMBLE:  F
  @ DRIVER MODE:  SCF:  T  FORCE:  T  STRESS:  F  VC:  F  ENSEMBLE:  F

     Using Slab Decomposition

     bravais-lattice index     =            0
     lattice parameter (alat)  =       1.8897  a.u.
     unit-cell volume          =    6658.9804 (a.u.)^3
     number of atoms/cell      =           53
     number of atomic types    =            5
     number of electrons       =       395.00
     number of Kohn-Sham states=          207
     kinetic-energy cutoff     =      29.3995  Ry
     charge density cutoff     =     293.9946  Ry
     scf convergence threshold =      7.3E-08
     mixing beta               =       0.0500
     number of iterations used =            8  plain     mixing
     Exchange-correlation= BEEF-VDW
                           (   1   4  43  14   2   0   0)

     celldm(1)=   1.889726  celldm(2)=   0.000000  celldm(3)=   0.000000
     celldm(4)=   0.000000  celldm(5)=   0.000000  celldm(6)=   0.000000

     crystal axes: (cart. coord. in units of alat)
               a(1) = (   6.579727   0.000000   0.000000 )
               a(2) = (  -0.000775   5.961596   0.000000 )
               a(3) = (   0.000000   0.000000  25.155947 )

     reciprocal axes: (cart. coord. in units 2 pi/alat)
               b(1) = (  0.151982  0.000020  0.000000 )
               b(2) = (  0.000000  0.167740  0.000000 )
               b(3) = (  0.000000  0.000000  0.039752 )

     PseudoPot. # 1 for Ti read from file:
     /storage/coda1/p-amedford6/0/shared/rich_project_chbe-medford/medford-share/data/pseudos_module/espresso/nninc/pbe/van/Ti.UPF
     MD5 check sum: 8e4df49b7f0d34bbd5052bf3f5ea0213
     Pseudo is Ultrasoft, Zval = 12.0
     Generated by new atomic code, or converted to UPF format
     Using radial grid of  851 points,  6 beta functions with:
                l(1) =   0
                l(2) =   0
                l(3) =   1
                l(4) =   1
                l(5) =   2
                l(6) =   2
     Q(r) pseudized with  8 coefficients,  rinner =    1.000   1.000   1.000
                                                       1.000   1.000

     PseudoPot. # 2 for O  read from file:
     /storage/coda1/p-amedford6/0/shared/rich_project_chbe-medford/medford-share/data/pseudos_module/espresso/nninc/pbe/van/O.UPF
     MD5 check sum: 78c19812648e8988a0fe644b0f25305e
     Pseudo is Ultrasoft, Zval =  6.0
     Generated by new atomic code, or converted to UPF format
     Using radial grid of  737 points,  4 beta functions with:
                l(1) =   0
                l(2) =   0
                l(3) =   1
                l(4) =   1
     Q(r) pseudized with  8 coefficients,  rinner =    0.800   0.800   0.800

     PseudoPot. # 3 for N  read from file:
     /storage/coda1/p-amedford6/0/shared/rich_project_chbe-medford/medford-share/data/pseudos_module/espresso/nninc/pbe/van/N.UPF
     MD5 check sum: 90d10febe142ad51ac9d5be1deb811c4
     Pseudo is Ultrasoft, Zval =  5.0
     Generated by new atomic code, or converted to UPF format
     Using radial grid of  729 points,  4 beta functions with:
                l(1) =   0
                l(2) =   0
                l(3) =   1
                l(4) =   1
     Q(r) pseudized with  8 coefficients,  rinner =    0.800   0.800   0.800

     PseudoPot. # 4 for C  read from file:
     /storage/coda1/p-amedford6/0/shared/rich_project_chbe-medford/medford-share/data/pseudos_module/espresso/nninc/pbe/van/C.UPF
     MD5 check sum: 1a69bf6b8db32088f5b2163dbdb77a27
     Pseudo is Ultrasoft, Zval =  4.0
     Generated by new atomic code, or converted to UPF format
     Using radial grid of  721 points,  4 beta functions with:
                l(1) =   0
                l(2) =   0
                l(3) =   1
                l(4) =   1
     Q(r) pseudized with  8 coefficients,  rinner =    0.800   0.800   0.800

     PseudoPot. # 5 for H  read from file:
     /storage/coda1/p-amedford6/0/shared/rich_project_chbe-medford/medford-share/data/pseudos_module/espresso/nninc/pbe/van/H.UPF
     MD5 check sum: b5ee9d7bfd3a09ee7748110bda690ff7
     Pseudo is Ultrasoft, Zval =  1.0
     Generated by new atomic code, or converted to UPF format
     Using radial grid of  615 points,  1 beta functions with:
                l(1) =   0
     Q(r) pseudized with  8 coefficients,  rinner =    0.800

     atomic species   valence    mass     pseudopotential
        Ti1           12.00    47.86700     Ti( 1.00)
        O1             6.00    15.99900     O ( 1.00)
        N1             5.00    14.00700     N ( 1.00)
        C1             4.00    12.01100     C ( 1.00)
        H1             1.00     1.00800     H ( 1.00)

     No symmetry found

   Cartesian axes

     site n.     atom                  positions (alat units)
         1           Ti1 tau(   1) = (   0.0004258   2.9801865   6.0000000  )
         2           Ti1 tau(   2) = (   3.2906075   1.4906267   6.0002472  )
         3           O1  tau(   3) = (   0.0006271   0.0005054   7.9858123  )
         4           O1  tau(   4) = (   3.2906025   0.0005020   7.3038282  )
         5           O1  tau(   5) = (   4.5942328   1.4918067   9.2879030  )
         6           O1  tau(   6) = (   1.9868534   1.4903216   9.2879459  )
         7           Ti1 tau(   7) = (   3.2907910   2.8959150   9.1758416  )
         8           Ti1 tau(   8) = (   0.0015273   1.4827037   9.2680791  )
         9           O1  tau(   9) = (   3.2799393   5.9535521  11.3540639  )
        10           O1  tau(  10) = (   0.0116148   5.9584955  10.6183126  )
        11           O1  tau(  11) = (   1.2974255   1.4613897  12.6506698  )
        12           O1  tau(  12) = (   5.3017888   1.4901577  12.6050164  )
        13           Ti1 tau(  13) = (   6.5221663   3.0180504  12.5986966  )
        14           Ti1 tau(  14) = (   3.2221172   1.5532140  12.5512791  )
        15           O1  tau(  15) = (   6.4783894   5.9520290  14.6579590  )
        16           O1  tau(  16) = (   3.3696489   5.9508513  13.9183136  )
        17           O1  tau(  17) = (   4.5179258   1.5103438  16.1624884  )
        18           O1  tau(  18) = (   1.9802590   1.4047766  15.9099196  )
        19           Ti1 tau(  19) = (   3.2637731   3.0080032  15.8837983  )
        20           Ti1 tau(  20) = (   6.5766856   1.4756295  15.8014380  )
        21           O1  tau(  21) = (   3.2904802   0.0005063   4.7018136  )
        22           O1  tau(  22) = (   0.0065935   5.9492922  17.2122405  )
        23           O1  tau(  23) = (   1.3043587   1.4918075   6.0039043  )
        24           O1  tau(  24) = (   5.2767064   1.4903225   6.0039473  )
        25           Ti1 tau(  25) = (   0.0000382   5.9609847   6.0000000  )
        26           Ti1 tau(  26) = (   3.2902200   4.4714249   6.0002472  )
        27           O1  tau(  27) = (   0.0002396   2.9813036   7.9858123  )
        28           O1  tau(  28) = (   3.2902150   2.9813002   7.3038282  )
        29           O1  tau(  29) = (   4.5938453   4.4726049   9.2879030  )
        30           O1  tau(  30) = (   1.9864658   4.4711199   9.2879459  )
        31           Ti1 tau(  31) = (   3.2891106   5.8743827   9.1763621  )
        32           Ti1 tau(  32) = (   0.0006254   4.4649316   9.2693709  )
        33           O1  tau(  33) = (   3.2772596   2.9828089  11.3369495  )
        34           O1  tau(  34) = (   0.0092240   2.9805883  10.6323155  )
        35           O1  tau(  35) = (   1.2916203   4.4718874  12.6594431  )
        36           O1  tau(  36) = (   5.2999639   4.4615573  12.6129894  )
        37           Ti1 tau(  37) = (   6.5361528   0.0312684  12.5125129  )
        38           Ti1 tau(  38) = (   3.2177194   4.4831555  12.4956785  )
        39           O1  tau(  39) = (   6.5168025   2.9395006  14.7032746  )
        40           O1  tau(  40) = (   3.2870264   2.9515371  13.9313172  )
        41           O1  tau(  41) = (   4.5204763   4.4345026  16.1736457  )
        42           O1  tau(  42) = (   1.9972348   4.5331091  15.9467552  )
        43           Ti1 tau(  43) = (   3.2981618   0.0182476  15.6956140  )
        44           Ti1 tau(  44) = (   0.0010288   4.6427453  16.0560918  )
        45           O1  tau(  45) = (   3.2900926   2.9813045   4.7018136  )
        46           O1  tau(  46) = (   1.3039711   4.4726057   6.0039043  )
        47           O1  tau(  47) = (   5.2763189   4.4711207   6.0039473  )
        48           N1  tau(  48) = (   1.3052520   2.8252889  18.3786263  )
        49           N1  tau(  49) = (   0.2128110   2.9423531  17.5195281  )
        50           C1  tau(  50) = (   2.5582938   2.8657590  18.0399718  )
        51           H1  tau(  51) = (   3.1786551   2.7222395  18.9297303  )
        52           H1  tau(  52) = (   1.0317423   2.6491596  19.3433462  )
        53           H1  tau(  53) = (   5.9645394   2.8535341  18.1048464  )

     number of k points=    10  Fermi-Dirac smearing, width (Ry)=  0.0073
                       cart. coord. in units 2pi/alat
        k(    1) = (   0.0000000   0.0000000   0.0000000), wk =   0.1250000
        k(    2) = (   0.0000000   0.0419351   0.0000000), wk =   0.2500000
        k(    3) = (   0.0000000  -0.0838702   0.0000000), wk =   0.1250000
        k(    4) = (   0.0379955   0.0000049   0.0000000), wk =   0.2500000
        k(    5) = (   0.0379955   0.0419400   0.0000000), wk =   0.2500000
        k(    6) = (   0.0379955  -0.0838652   0.0000000), wk =   0.2500000
        k(    7) = (   0.0379955  -0.0419301   0.0000000), wk =   0.2500000
        k(    8) = (  -0.0759910  -0.0000099   0.0000000), wk =   0.1250000
        k(    9) = (  -0.0759910   0.0419252   0.0000000), wk =   0.2500000
        k(   10) = (  -0.0759910  -0.0838800   0.0000000), wk =   0.1250000

     Initial potential from superposition of free atoms

     starting charge  378.99916, renormalised to  395.00000

     negative rho (up, down):  1.762E-02 0.000E+00

     %%%%%%%%%%%%%%%%%%%%%%%%%%%%%%%%%%%%%%%%%%%%%%%%%%%%%%%%%%%%%%%%%%%%%%%%
     %                                                                      %
     % You are using vdW-DF, which was implemented by the Thonhauser group. %
     % Please cite the following two papers that made this development      %
     % possible and the two reviews that describe the various versions:     %
     %                                                                      %
     %   T. Thonhauser et al., PRL 115, 136402 (2015).                      %
     %   T. Thonhauser et al., PRB 76, 125112 (2007).                       %
     %   K. Berland et al., Rep. Prog. Phys. 78, 066501 (2015).             %
     %   D.C. Langreth et al., J. Phys.: Condens. Matter 21, 084203 (2009). %
     %                                                                      %
     %                                                                      %
     % If you are calculating the stress with vdW-DF, please also cite:     %
     %                                                                      %
     %   R. Sabatini et al., J. Phys.: Condens. Matter 24, 424209 (2012).   %
     %                                                                      %
     %%%%%%%%%%%%%%%%%%%%%%%%%%%%%%%%%%%%%%%%%%%%%%%%%%%%%%%%%%%%%%%%%%%%%%%%

     Adding external electric field

     Computed dipole along edir(3) :
        Dipole               -7.9500 Ry au,        -20.2069 Debye
        Dipole field         -0.0150 Ry au,

        Potential amp.        1.3907 Ry
        Total length         46.3494 bohr

     Starting wfcs are  299 atomic wfcs
  @ DRIVER MODE: Message from server: STATUS
  @ DRIVER MODE: Message from server: POSDATA
  @ DRIVER MODE: Reading and sharing cell
  @ DRIVER MODE: Reading and sharing positions
  @ DRIVER MODE: Received positions

     Self-consistent Calculation

     iteration #  1     ecut=    29.40 Ry     beta= 0.05
     Davidson diagonalization with overlap
     c_bands:  1 eigenvalues not converged
     c_bands:  2 eigenvalues not converged
     c_bands:  2 eigenvalues not converged
     c_bands:  3 eigenvalues not converged
     c_bands:  3 eigenvalues not converged
     c_bands:  1 eigenvalues not converged
     c_bands:  1 eigenvalues not converged
     ethr =  1.00E-05,  avg # of iterations = 19.2

[...]

     total energy              =   -2627.21565758 Ry
     estimated scf accuracy    <    3450.03716281 Ry

[...]

     iteration #  3     ecut=    29.40 Ry     beta= 0.05
     Davidson diagonalization with overlap
     ethr =  1.00E-02,  avg # of iterations = 13.8

[...]

     iteration # 72     ecut=    29.40 Ry     beta= 0.05
     Davidson diagonalization with overlap
     c_bands:  1 eigenvalues not converged
     ethr =  4.11E-11,  avg # of iterations = 10.5

[...]

     total energy              =   -2939.10946822 Ry
     estimated scf accuracy    <       0.00000012 Ry

     iteration # 73     ecut=    29.40 Ry     beta= 0.05
     Davidson diagonalization with overlap
     ethr =  3.01E-11,  avg # of iterations =  6.8

     negative rho (up, down):  1.780E-02 0.000E+00

     Adding external electric field

     Computed dipole along edir(3) :
        Dipole                1.3666 Ry au,          3.4736 Debye
        Dipole field          0.0026 Ry au,

        Potential amp.       -0.2391 Ry
        Total length         46.3494 bohr

     End of self-consistent calculation

          k = 0.0000 0.0000 0.0000 ( 18029 PWs)   bands (ev):

   -55.4850 -55.4509 -55.3918 -55.3465 -55.3346 -55.3261 -55.3028 -55.2960
   -55.2913 -55.2688 -55.2610 -55.2261 -55.1480 -54.9890 -54.4644 -54.4304
   -31.9689 -31.9197 -31.8327 -31.8061 -31.8027 -31.7769 -31.7504 -31.7296
   -31.7151 -31.6568 -31.6474 -31.6372 -31.6364 -31.6024 -31.5907 -31.5836
   -31.5677 -31.5647 -31.5498 -31.5421 -31.5080 -31.4970 -31.4965 -31.4944
   -31.4941 -31.4858 -31.4813 -31.4795 -31.4526 -31.4435 -31.4416 -31.4416
   -31.4343 -31.4270 -31.4151 -31.4096 -31.3943 -31.3732 -31.3715 -31.2421
   -31.2282 -31.1956 -30.8713 -30.7832 -30.7608 -30.6882 -30.6017 -30.4905
   -18.7449 -16.1649 -15.9635 -15.7773 -15.6470 -15.5933 -15.3588 -15.2544
   -15.2200 -15.1369 -15.0916 -15.0631 -15.0244 -15.0096 -14.9937 -14.9863
   -14.9278 -14.9091 -14.9031 -14.8725 -14.8537 -14.8300 -14.8169 -14.7274
   -14.6428 -14.6386 -14.6270 -14.6021 -14.5392 -14.1494 -13.4977 -12.9656
   -12.8491  -8.8911  -7.3609  -4.4410  -3.6685  -3.5330  -3.4241  -3.4081
    -3.3894  -3.2641  -3.1475  -2.8977  -2.8877  -2.7501  -2.6629  -2.6222
    -2.5496  -2.4755  -2.4404  -2.3824  -2.3170  -2.2945  -2.2770  -2.2437
    -2.2217  -2.2118  -2.1824  -2.0388  -2.0197  -1.9538  -1.8659  -1.8572
    -1.7997  -1.7948  -1.7737  -1.7427  -1.7392  -1.7331  -1.7125  -1.6907
    -1.6223  -1.5441  -1.4993  -1.4616  -1.3201  -1.1902  -1.1356  -1.0954
    -1.0316  -0.9564  -0.9216  -0.9070  -0.8923  -0.8761  -0.7271  -0.6803
    -0.6570  -0.6203  -0.5021  -0.4204  -0.3646  -0.3171  -0.2848  -0.2563
    -0.2356  -0.2231  -0.1870  -0.0683   0.0004   0.0476   0.0800   0.1558
     0.2122   0.2468   0.2585   0.3236   0.3592   0.3851   0.4348   0.4732
     0.4871   0.5099   0.5431   0.5609   0.6377   0.7500   0.7731   0.7761
     0.8156   1.0062   1.0708   1.1328   1.1734   1.2954   1.3224   1.4941
     1.5591   1.6351   1.7518   2.1294   2.1751   3.6290   3.7357   3.7723
     3.8120   3.8470   3.8937   4.0921   4.1380   4.1830   4.2683

[...]

          k = 0.0380-0.0419 0.0000 ( 17876 PWs)   bands (ev):

[...]

          k =-0.0760-0.0000 0.0000 ( 17886 PWs)   bands (ev):

[...]

          k =-0.0760-0.0839 0.0000 ( 17948 PWs)   bands (ev):

   -55.4682 -55.4675 -55.3831 -55.3547 -55.3242 -55.3133 -55.3066 -55.3039
   -55.2862 -55.2849 -55.2482 -55.2391 -55.1463 -54.9906 -54.4475 -54.4473
   -31.7844 -31.7839 -31.7626 -31.7622 -31.7620 -31.7320 -31.6685 -31.6648
   -31.6500 -31.6292 -31.6220 -31.6124 -31.6017 -31.6008 -31.5912 -31.5877
   -31.5870 -31.5806 -31.5804 -31.5783 -31.5620 -31.5592 -31.5461 -31.5338
   -31.5327 -31.5143 -31.5111 -31.5092 -31.4878 -31.4861 -31.4757 -31.4635
   -31.4611 -31.4587 -31.4572 -31.4559 -31.4415 -31.3882 -31.3759 -31.2889
   -31.2444 -31.2317 -30.7736 -30.7735 -30.6842 -30.6839 -30.6450 -30.6449
   -18.7412 -15.6000 -15.5045 -15.4880 -15.4134 -15.3895 -15.2891 -15.2526
   -15.2128 -15.1884 -15.1817 -15.1496 -15.1003 -15.0863 -15.0475 -15.0361
   -15.0106 -14.9763 -14.9666 -14.9299 -14.9270 -14.9201 -14.8834 -14.8232
   -14.8063 -14.7986 -14.7965 -14.7165 -14.6104 -14.3543 -13.5173 -12.9510
   -12.9508  -8.8822  -7.2791  -4.5721  -3.6455  -2.8504  -2.7854  -2.7739
    -2.6725  -2.5937  -2.5283  -2.4864  -2.4607  -2.4042  -2.3955  -2.3408
    -2.3320  -2.3060  -2.2914  -2.2781  -2.2440  -2.2271  -2.2246  -2.1908
    -2.1835  -2.1601  -2.1336  -2.1114  -2.1003  -2.0842  -2.0689  -2.0447
    -2.0313  -1.9993  -1.9595  -1.8269  -1.7097  -1.6609  -1.6305  -1.6100
    -1.5872  -1.5562  -1.5389  -1.5272  -1.4945  -1.4524  -1.3112  -1.1733
    -1.1513  -1.0622  -1.0155  -0.9927  -0.9547  -0.9006  -0.8779  -0.8745
    -0.8164  -0.7917  -0.7065  -0.6573  -0.6154  -0.5912  -0.4591  -0.4515
    -0.4470  -0.4314  -0.3999  -0.3813  -0.3283  -0.2482  -0.2170  -0.2106
    -0.1653  -0.1625  -0.1500  -0.0088   0.0563   0.1017   0.1909   0.2393
     0.3884   0.5425   0.5665   0.6014   0.6929   0.7483   0.7895   0.8272
     0.8437   0.8960   0.9621   1.0293   1.0423   1.0958   1.1188   1.1971
     1.2320   1.9234   1.9243   1.9949   1.9953   3.9947   4.0015   4.0169
     4.0865   4.1478   4.1542   4.1873   4.1883   4.2901   4.3204

     the Fermi energy is     3.6436 ev

!    total energy              =   -2939.10948548 Ry
     estimated scf accuracy    <       0.00000003 Ry
     smearing contrib. (-TS)   =      -0.02093049 Ry
     internal energy E=F+TS    =   -2939.08855499 Ry

     The total energy is F=E-TS. E is the sum of the following terms:
     one-electron contribution =  -24577.73568551 Ry
     hartree contribution      =   12380.44732773 Ry
     xc contribution           =    -485.20683328 Ry
     ewald contribution        =    9743.40311156 Ry
     electric field correction =       0.00352451 Ry

     convergence has been achieved in  73 iterations

     Forces acting on atoms (cartesian axes, Ry/au):

     atom    1 type  1   force =     0.00004642   -0.00020976    0.09562536
     atom    2 type  1   force =    -0.00001017   -0.00051434   -0.17547958
     atom    3 type  2   force =     0.00008661   -0.00008861   -0.02327073
     atom    4 type  2   force =    -0.00003314   -0.00148998    0.05264312
     atom    5 type  2   force =    -0.01057663   -0.00050448    0.00372260
     atom    6 type  2   force =     0.01176315   -0.00007508    0.00224548
     atom    7 type  1   force =    -0.00002404   -0.00028010   -0.00807984
     atom    8 type  1   force =     0.00049080    0.01257331    0.01816992
     atom    9 type  2   force =    -0.00031464    0.00004891    0.00007952
     atom   10 type  2   force =    -0.00242526    0.00020290   -0.01643831
     atom   11 type  2   force =    -0.00029155    0.00020738    0.00002218
     atom   12 type  2   force =    -0.00046246   -0.00013541   -0.00012783
     atom   13 type  1   force =     0.00022578   -0.00008592   -0.00000900
     atom   14 type  1   force =     0.00033758    0.00002947   -0.00003861
     atom   15 type  2   force =     0.00014952    0.00082271   -0.00011706
     atom   16 type  2   force =    -0.00015792   -0.00019568    0.00017701
     atom   17 type  2   force =     0.00005955   -0.00021536   -0.00022777
     atom   18 type  2   force =    -0.00009595    0.00003617   -0.00026649
     atom   19 type  1   force =     0.00021122    0.00022539   -0.00071935
     atom   20 type  1   force =     0.00027029   -0.00001188   -0.00042032
     atom   21 type  2   force =     0.00005478   -0.00006147    0.10320980
     atom   22 type  2   force =     0.00003643    0.00132973   -0.00003920
     atom   23 type  2   force =    -0.07159149   -0.00016081   -0.02755312
     atom   24 type  2   force =     0.07151680    0.00028129   -0.02761106
     atom   25 type  1   force =     0.00017228   -0.00025639    0.09533857
     atom   26 type  1   force =     0.00004782   -0.00030327   -0.17586111
     atom   27 type  2   force =     0.00008964   -0.00019624   -0.02225781
     atom   28 type  2   force =    -0.00001651   -0.00114850    0.05312258
     atom   29 type  2   force =    -0.01040105   -0.00021632    0.00332066
     atom   30 type  2   force =     0.01139586    0.00019698    0.00189430
     atom   31 type  1   force =    -0.00014070    0.00481904   -0.00025361
     atom   32 type  1   force =     0.00058845   -0.01319002    0.01871086
     atom   33 type  2   force =    -0.00015160    0.00013531   -0.00008247
     atom   34 type  2   force =    -0.00060152    0.00042901   -0.01724428
     atom   35 type  2   force =    -0.00035890   -0.00015314    0.00014952
     atom   36 type  2   force =    -0.00021407   -0.00033889    0.00021343
     atom   37 type  1   force =     0.00032633   -0.00016221    0.00008903
     atom   38 type  1   force =     0.00015995    0.00021257    0.00018993
     atom   39 type  2   force =    -0.00031025   -0.00009842   -0.00020101
     atom   40 type  2   force =    -0.00012355   -0.00011015    0.00042345
     atom   41 type  2   force =    -0.00011819    0.00010146   -0.00006258
     atom   42 type  2   force =     0.00043508    0.00004466   -0.00001803
     atom   43 type  1   force =    -0.00012657    0.00001120    0.00012687
     atom   44 type  1   force =     0.00033942    0.00030165    0.00031006
     atom   45 type  2   force =     0.00006560   -0.00010079    0.10322491
     atom   46 type  2   force =    -0.07164810   -0.00011696   -0.02760130
     atom   47 type  2   force =     0.07153416    0.00026891   -0.02764189
     atom   48 type  3   force =     0.00024043    0.00127672   -0.00089817
     atom   49 type  3   force =    -0.00050132   -0.00398092    0.00150113
     atom   50 type  4   force =    -0.00070613   -0.00018397    0.00003992
     atom   51 type  5   force =     0.00017418   -0.00037286    0.00027185
     atom   52 type  5   force =    -0.00052437    0.00117171   -0.00068864
     atom   53 type  5   force =     0.00110794    0.00023144   -0.00161287

     Total force =     0.365603     Total SCF correction =     0.000509
  @ DRIVER MODE: Message from server: STATUS
  @ DRIVER MODE: Message from server: GETFORCE
  @ DRIVER MODE: Returning v,forces,stress,ensemble

     Writing output data file ./calc.save/
  @ DRIVER MODE: Message from server: EXIT
  @ DRIVE MODE: Exiting

     General routines

     Parallel routines

   This run was terminated on:  12:57:40  15Sep2021

   JOB DONE.