     Program PWSCF v.6.7GPU starts on 23Sep2021 at  3:43:58

     R & G space division:  proc/nbgrp/npool/nimage =      10
     Reading input from /storage/home/hcoda1/3/ntian30/research/carbon/CxH_vib/H2O_calc/ads_slab/CH3NNH3HO_a/out_0033/pw.inp
Warning: card &CELL ignored
Warning: card   CELL_DYNAMICS='IPI', ignored
Warning: card / ignored

     Current dimensions of program PWSCF are:
     Max number of different atomic species (ntypx) = 10
     Max number of k-points (npk) =  40000
     Max angular momentum in pseudopotentials (lmaxx) =  3
     Presently no symmetry can be used with electric field

     Message from routine cell_base_init:
     DEPRECATED: use true lattice parameter, not A to a.u. conversion factor

     IMPORTANT: XC functional enforced from input :
     Exchange-correlation= BEEF-VDW
                           (   1   4  43  14   2   0   0)
     Any further DFT definition will be discarded
     Please, verify this is what you really want

  @ DRIVER MODE: Connecting to
 qe_1139763_2937318.sched-torque.pace.gatech.edumv1gwcix_scratch
  using UNIX socket
  @ DRIVER MODE: Message from server: STATUS
  @ DRIVER MODE: Message from server: INIT
  @ DRIVER MODE: Receiving replica           0          -1
  @ DRIVER MODE: Receiving encoded integer          25
  @ DRIVER MODE:  SCF:  T  FORCE:  T  STRESS:  F  VC:  F  ENSEMBLE:  F
  @ DRIVER MODE:  SCF:  T  FORCE:  T  STRESS:  F  VC:  F  ENSEMBLE:  F

     Using Slab Decomposition

     bravais-lattice index     =            0
     lattice parameter (alat)  =       1.8897  a.u.
     unit-cell volume          =    6658.9804 (a.u.)^3
     number of atoms/cell      =           58
     number of atomic types    =            5
     number of electrons       =       405.00
     number of Kohn-Sham states=          212
     kinetic-energy cutoff     =      29.3995  Ry
     charge density cutoff     =     293.9946  Ry
     scf convergence threshold =      7.3E-08
     mixing beta               =       0.0500
     number of iterations used =            8  plain     mixing
     Exchange-correlation= BEEF-VDW
                           (   1   4  43  14   2   0   0)

     celldm(1)=   1.889726  celldm(2)=   0.000000  celldm(3)=   0.000000
     celldm(4)=   0.000000  celldm(5)=   0.000000  celldm(6)=   0.000000

     crystal axes: (cart. coord. in units of alat)
               a(1) = (   6.579727   0.000000   0.000000 )
               a(2) = (  -0.000775   5.961596   0.000000 )
               a(3) = (   0.000000   0.000000  25.155947 )

     reciprocal axes: (cart. coord. in units 2 pi/alat)
               b(1) = (  0.151982  0.000020  0.000000 )
               b(2) = (  0.000000  0.167740  0.000000 )
               b(3) = (  0.000000  0.000000  0.039752 )

     PseudoPot. # 1 for Ti read from file:
     /storage/coda1/p-amedford6/0/shared/rich_project_chbe-medford/medford-share/data/pseudos_module/espresso/nninc/pbe/van/Ti.UPF
     MD5 check sum: 8e4df49b7f0d34bbd5052bf3f5ea0213
     Pseudo is Ultrasoft, Zval = 12.0
     Generated by new atomic code, or converted to UPF format
     Using radial grid of  851 points,  6 beta functions with:
                l(1) =   0
                l(2) =   0
                l(3) =   1
                l(4) =   1
                l(5) =   2
                l(6) =   2
     Q(r) pseudized with  8 coefficients,  rinner =    1.000   1.000   1.000
                                                       1.000   1.000

     PseudoPot. # 2 for O  read from file:
     /storage/coda1/p-amedford6/0/shared/rich_project_chbe-medford/medford-share/data/pseudos_module/espresso/nninc/pbe/van/O.UPF
     MD5 check sum: 78c19812648e8988a0fe644b0f25305e
     Pseudo is Ultrasoft, Zval =  6.0
     Generated by new atomic code, or converted to UPF format
     Using radial grid of  737 points,  4 beta functions with:
                l(1) =   0
                l(2) =   0
                l(3) =   1
                l(4) =   1
     Q(r) pseudized with  8 coefficients,  rinner =    0.800   0.800   0.800

     PseudoPot. # 3 for N  read from file:
     /storage/coda1/p-amedford6/0/shared/rich_project_chbe-medford/medford-share/data/pseudos_module/espresso/nninc/pbe/van/N.UPF
     MD5 check sum: 90d10febe142ad51ac9d5be1deb811c4
     Pseudo is Ultrasoft, Zval =  5.0
     Generated by new atomic code, or converted to UPF format
     Using radial grid of  729 points,  4 beta functions with:
                l(1) =   0
                l(2) =   0
                l(3) =   1
                l(4) =   1
     Q(r) pseudized with  8 coefficients,  rinner =    0.800   0.800   0.800

     PseudoPot. # 4 for C  read from file:
     /storage/coda1/p-amedford6/0/shared/rich_project_chbe-medford/medford-share/data/pseudos_module/espresso/nninc/pbe/van/C.UPF
     MD5 check sum: 1a69bf6b8db32088f5b2163dbdb77a27
     Pseudo is Ultrasoft, Zval =  4.0
     Generated by new atomic code, or converted to UPF format
     Using radial grid of  721 points,  4 beta functions with:
                l(1) =   0
                l(2) =   0
                l(3) =   1
                l(4) =   1
     Q(r) pseudized with  8 coefficients,  rinner =    0.800   0.800   0.800

     PseudoPot. # 5 for H  read from file:
     /storage/coda1/p-amedford6/0/shared/rich_project_chbe-medford/medford-share/data/pseudos_module/espresso/nninc/pbe/van/H.UPF
     MD5 check sum: b5ee9d7bfd3a09ee7748110bda690ff7
     Pseudo is Ultrasoft, Zval =  1.0
     Generated by new atomic code, or converted to UPF format
     Using radial grid of  615 points,  1 beta functions with:
                l(1) =   0
     Q(r) pseudized with  8 coefficients,  rinner =    0.800

     atomic species   valence    mass     pseudopotential
        Ti1           12.00    47.86700     Ti( 1.00)
        O1             6.00    15.99900     O ( 1.00)
        N1             5.00    14.00700     N ( 1.00)
        C1             4.00    12.01100     C ( 1.00)
        H1             1.00     1.00800     H ( 1.00)

     No symmetry found

   Cartesian axes

     site n.     atom                  positions (alat units)
         1           Ti1 tau(   1) = (   0.0004258   2.9801865   6.0000000  )
         2           Ti1 tau(   2) = (   3.2906075   1.4906267   6.0002472  )
         3           O1  tau(   3) = (   0.0006271   0.0005054   7.9858123  )
         4           O1  tau(   4) = (   3.2906025   0.0005020   7.3038282  )
         5           O1  tau(   5) = (   4.5942328   1.4918067   9.2879030  )
         6           O1  tau(   6) = (   1.9868534   1.4903216   9.2879459  )
         7           Ti1 tau(   7) = (   3.2907910   2.8959150   9.1758416  )
         8           Ti1 tau(   8) = (   0.0015273   1.4827037   9.2680791  )
         9           O1  tau(   9) = (   3.2949357   5.9297256  11.2770696  )
        10           O1  tau(  10) = (   0.0116148   5.9584955  10.6183126  )
        11           O1  tau(  11) = (   1.2901270   1.4659759  12.6218969  )
        12           O1  tau(  12) = (   5.3029181   1.4690452  12.6271982  )
        13           Ti1 tau(  13) = (   6.5637346   3.0486055  12.7052252  )
        14           Ti1 tau(  14) = (   3.3207578   1.2909511  12.6638180  )
        15           O1  tau(  15) = (   0.0081040   5.9567798  14.6379979  )
        16           O1  tau(  16) = (   3.2944190   0.0149942  13.8863584  )
        17           O1  tau(  17) = (   4.5334936   1.5584448  16.0391558  )
        18           O1  tau(  18) = (   2.0244848   1.5379376  16.0854781  )
        19           Ti1 tau(  19) = (   3.2579824   3.0118882  15.6538344  )
        20           Ti1 tau(  20) = (   6.4918182   1.5199401  15.8876453  )
        21           O1  tau(  21) = (   3.2904802   0.0005063   4.7018136  )
        22           O1  tau(  22) = (   6.5166677   0.0216046  17.1949088  )
        23           O1  tau(  23) = (   1.3043587   1.4918075   6.0039043  )
        24           O1  tau(  24) = (   5.2767064   1.4903225   6.0039473  )
        25           Ti1 tau(  25) = (   0.0000382   5.9609847   6.0000000  )
        26           Ti1 tau(  26) = (   3.2902200   4.4714249   6.0002472  )
        27           O1  tau(  27) = (   0.0002396   2.9813036   7.9858123  )
        28           O1  tau(  28) = (   3.2902150   2.9813002   7.3038282  )
        29           O1  tau(  29) = (   4.5938453   4.4726049   9.2879030  )
        30           O1  tau(  30) = (   1.9864658   4.4711199   9.2879459  )
        31           Ti1 tau(  31) = (   3.2891106   5.8743827   9.1763621  )
        32           Ti1 tau(  32) = (   0.0006254   4.4649316   9.2693709  )
        33           O1  tau(  33) = (   3.2959121   3.0085915  11.2438341  )
        34           O1  tau(  34) = (   0.0092240   2.9805883  10.6323155  )
        35           O1  tau(  35) = (   1.2849535   4.4488585  12.6204231  )
        36           O1  tau(  36) = (   5.2878833   4.4365118  12.6243745  )
        37           Ti1 tau(  37) = (   0.0500071   0.0677371  12.6535751  )
        38           Ti1 tau(  38) = (   3.3027700   4.3871210  12.4110406  )
        39           O1  tau(  39) = (   6.5685058   2.9535060  14.6525041  )
        40           O1  tau(  40) = (   3.2696111   2.9719761  13.8704823  )
        41           O1  tau(  41) = (   4.5209813   4.4409030  16.0696701  )
        42           O1  tau(  42) = (   2.0131998   4.4599944  16.0916020  )
        43           Ti1 tau(  43) = (   3.2138439   0.0230873  16.3295100  )
        44           Ti1 tau(  44) = (   6.5234412   4.6200706  16.0754176  )
        45           O1  tau(  45) = (   3.2900926   2.9813045   4.7018136  )
        46           O1  tau(  46) = (   1.3039711   4.4726057   6.0039043  )
        47           O1  tau(  47) = (   5.2763189   4.4711207   6.0039473  )
        48           N1  tau(  48) = (   0.0251376   2.9556585  17.3246074  )
        49           N1  tau(  49) = (   6.3772498   2.5461882  22.2688425  )
        50           C1  tau(  50) = (   0.2111848   2.8484408  18.7116211  )
        51           H1  tau(  51) = (   0.3920758   3.8074029  19.2116250  )
        52           H1  tau(  52) = (   5.9044209   2.3708277  19.1722604  )
        53           H1  tau(  53) = (   1.0233575   2.1242068  18.9364007  )
        54           H1  tau(  54) = (   6.0930523   3.2289774  22.9628454  )
        55           H1  tau(  55) = (   0.2277240   1.7755739  22.7685771  )
        56           H1  tau(  56) = (   0.5282093   2.9785696  21.7129995  )
        57           O1  tau(  57) = (   3.3838229   0.0530270  18.1522483  )
        58           H1  tau(  58) = (   4.2718821   5.8932998  18.5223319  )

     number of k points=    10  Fermi-Dirac smearing, width (Ry)=  0.0073
                       cart. coord. in units 2pi/alat
        k(    1) = (   0.0000000   0.0000000   0.0000000), wk =   0.1250000
        k(    2) = (   0.0000000   0.0419351   0.0000000), wk =   0.2500000
        k(    3) = (   0.0000000  -0.0838702   0.0000000), wk =   0.1250000
        k(    4) = (   0.0379955   0.0000049   0.0000000), wk =   0.2500000
        k(    5) = (   0.0379955   0.0419400   0.0000000), wk =   0.2500000
        k(    6) = (   0.0379955  -0.0838652   0.0000000), wk =   0.2500000
        k(    7) = (   0.0379955  -0.0419301   0.0000000), wk =   0.2500000
        k(    8) = (  -0.0759910  -0.0000099   0.0000000), wk =   0.1250000
        k(    9) = (  -0.0759910   0.0419252   0.0000000), wk =   0.2500000
        k(   10) = (  -0.0759910  -0.0838800   0.0000000), wk =   0.1250000

     Initial potential from superposition of free atoms

     starting charge  388.99913, renormalised to  405.00000

     negative rho (up, down):  7.828E-03 0.000E+00

     %%%%%%%%%%%%%%%%%%%%%%%%%%%%%%%%%%%%%%%%%%%%%%%%%%%%%%%%%%%%%%%%%%%%%%%%
     %                                                                      %
     % You are using vdW-DF, which was implemented by the Thonhauser group. %
     % Please cite the following two papers that made this development      %
     % possible and the two reviews that describe the various versions:     %
     %                                                                      %
     %   T. Thonhauser et al., PRL 115, 136402 (2015).                      %
     %   T. Thonhauser et al., PRB 76, 125112 (2007).                       %
     %   K. Berland et al., Rep. Prog. Phys. 78, 066501 (2015).             %
     %   D.C. Langreth et al., J. Phys.: Condens. Matter 21, 084203 (2009). %
     %                                                                      %
     %                                                                      %
     % If you are calculating the stress with vdW-DF, please also cite:     %
     %                                                                      %
     %   R. Sabatini et al., J. Phys.: Condens. Matter 24, 424209 (2012).   %
     %                                                                      %
     %%%%%%%%%%%%%%%%%%%%%%%%%%%%%%%%%%%%%%%%%%%%%%%%%%%%%%%%%%%%%%%%%%%%%%%%

     Adding external electric field

     Computed dipole along edir(3) :
        Dipole              -15.1933 Ry au,        -38.6176 Debye
        Dipole field         -0.0287 Ry au,

        Potential amp.        2.6578 Ry
        Total length         46.3494 bohr

     Starting wfcs are  307 atomic wfcs
  @ DRIVER MODE: Message from server: STATUS
  @ DRIVER MODE: Message from server: POSDATA
  @ DRIVER MODE: Reading and sharing cell
  @ DRIVER MODE: Reading and sharing positions
  @ DRIVER MODE: Received positions

     Self-consistent Calculation

     iteration #  1     ecut=    29.40 Ry     beta= 0.05
     Davidson diagonalization with overlap
     c_bands:  5 eigenvalues not converged
     c_bands:  1 eigenvalues not converged
     c_bands:  1 eigenvalues not converged
     c_bands:  2 eigenvalues not converged
     c_bands:  1 eigenvalues not converged
     c_bands:  2 eigenvalues not converged
     ethr =  1.00E-05,  avg # of iterations = 31.5

[...]

     total energy              =   -2295.07920774 Ry
     estimated scf accuracy    <    7743.78253009 Ry

     iteration #  2     ecut=    29.40 Ry     beta= 0.05
     Davidson diagonalization with overlap
     ethr =  1.00E-02,  avg # of iterations = 22.6

[...]

     iteration # 66     ecut=    29.40 Ry     beta= 0.05
     Davidson diagonalization with overlap
     c_bands:  1 eigenvalues not converged
     ethr =  1.40E-07,  avg # of iterations =  6.1

[...]

     total energy              =   -2976.42349877 Ry
     estimated scf accuracy    <       0.00000022 Ry

     iteration # 86     ecut=    29.40 Ry     beta= 0.05
     Davidson diagonalization with overlap
     ethr =  2.83E-11,  avg # of iterations =  4.0

     negative rho (up, down):  9.590E-03 0.000E+00

     Adding external electric field

     Computed dipole along edir(3) :
        Dipole                0.6355 Ry au,          1.6152 Debye
        Dipole field          0.0012 Ry au,

        Potential amp.       -0.1112 Ry
        Total length         46.3494 bohr

     End of self-consistent calculation

          k = 0.0000 0.0000 0.0000 ( 18029 PWs)   bands (ev):

   -56.5643 -56.5307 -55.6401 -55.6050 -55.4244 -55.3578 -55.2299 -55.1155
   -55.0816 -55.0344 -55.0026 -54.9680 -54.9098 -54.8171 -54.7445 -54.6137
   -32.9830 -32.8348 -32.8067 -32.7437 -32.6535 -32.6100 -32.1219 -31.8992
   -31.8604 -31.8389 -31.7843 -31.7765 -31.7512 -31.6577 -31.6374 -31.5927
   -31.5609 -31.5455 -31.5211 -31.5092 -31.5040 -31.4931 -31.4625 -31.4620
   -31.4380 -31.4197 -31.3545 -31.3194 -31.2977 -31.2927 -31.2391 -31.2320
   -31.2153 -31.1936 -31.1807 -31.1654 -31.1584 -31.1277 -31.1227 -31.0908
   -31.0474 -31.0024 -31.0015 -30.9797 -30.9467 -30.8879 -30.8511 -30.8008
   -16.6676 -16.1098 -16.0877 -15.8807 -15.7582 -15.7532 -15.7099 -15.6416
   -15.4718 -15.4038 -15.3750 -15.3136 -15.1699 -15.0539 -14.9566 -14.7776
   -14.7035 -14.6985 -14.6790 -14.6721 -14.6549 -14.6341 -14.5752 -14.5164
   -14.4742 -14.4092 -14.3660 -14.2197 -14.0202 -13.9941 -13.9539 -13.6128
   -13.5058 -13.5013  -7.7275  -4.2430  -4.0338  -4.0146  -3.6983  -3.5765
    -3.4038  -3.2512  -3.2105  -3.1420  -3.0830  -3.0737  -2.9260  -2.9235
    -2.9122  -2.8933  -2.8276  -2.7683  -2.7040  -2.6172  -2.6017  -2.5072
    -2.4606  -2.3011  -2.2756  -2.1744  -2.1023  -2.0966  -2.0303  -2.0079
    -1.9606  -1.9156  -1.9061  -1.8716  -1.8274  -1.7811  -1.7620  -1.6512
    -1.6441  -1.5784  -1.5728  -1.5494  -1.4360  -1.4163  -1.3462  -1.2013
    -1.1796  -1.1764  -1.1289  -1.1120  -1.0299  -0.9348  -0.8665  -0.8402
    -0.7837  -0.6956  -0.6490  -0.6272  -0.5548  -0.5356  -0.4614  -0.4179
    -0.4041  -0.3840  -0.3426  -0.2275  -0.1406  -0.1080  -0.0540  -0.0286
     0.0041   0.0308   0.0495   0.0984   0.1682   0.2536   0.2753   0.4138
     0.4659   0.5024   0.5786   0.6130   0.6192   0.7082   0.7400   0.7693
     0.8160   0.8907   0.9054   0.9063   0.9651   1.0493   1.1035   1.1544
     1.1680   1.2043   1.2120   1.2627   1.3515   1.3725   1.4422   1.4971
     1.8179   1.8828   2.4865   2.7301   2.9016   3.1784   3.3702   3.6736
     3.7161   3.7339   3.7340   4.0395

[...]

          k = 0.0380-0.0419 0.0000 ( 17876 PWs)   bands (ev):

[...]

          k =-0.0760-0.0000 0.0000 ( 17886 PWs)   bands (ev):

[...]

          k =-0.0760-0.0839 0.0000 ( 17948 PWs)   bands (ev):

   -56.5481 -56.5468 -55.6277 -55.6173 -55.4198 -55.3623 -55.2291 -55.0991
   -55.0978 -55.0295 -55.0033 -54.9726 -54.9082 -54.8157 -54.7461 -54.6150
   -32.8213 -32.8197 -32.8009 -32.7995 -32.6978 -32.6966 -31.9464 -31.9372
   -31.8222 -31.8169 -31.8110 -31.8093 -31.7191 -31.6762 -31.6510 -31.6379
   -31.5882 -31.5865 -31.5009 -31.4736 -31.4639 -31.4515 -31.4506 -31.3688
   -31.3493 -31.3192 -31.3177 -31.3007 -31.2935 -31.2837 -31.2794 -31.2789
   -31.2510 -31.2321 -31.2144 -31.1993 -31.1959 -31.1576 -31.1573 -31.1012
   -31.0898 -31.0504 -31.0055 -30.9954 -30.9593 -30.9514 -30.8532 -30.8362
   -16.0758 -16.0260 -16.0241 -15.9806 -15.9791 -15.7174 -15.7129 -15.4626
   -15.4333 -15.2544 -15.1501 -15.1261 -15.0826 -15.0410 -14.9704 -14.9161
   -14.8863 -14.8545 -14.8283 -14.7664 -14.7365 -14.6318 -14.5990 -14.5516
   -14.5156 -14.4536 -14.4124 -14.3631 -14.1773 -14.1322 -13.9533 -13.6104
   -13.6099 -13.5262  -7.7265  -4.0445  -4.0147  -3.6900  -3.1673  -3.1020
    -3.0976  -3.0653  -3.0580  -2.9554  -2.8514  -2.8483  -2.7549  -2.6464
    -2.6199  -2.5970  -2.5365  -2.5270  -2.4269  -2.3770  -2.3721  -2.3581
    -2.3218  -2.2921  -2.2856  -2.2258  -2.0879  -2.0717  -2.0223  -1.9681
    -1.8937  -1.8844  -1.8757  -1.8392  -1.7973  -1.7721  -1.7613  -1.7339
    -1.7291  -1.7248  -1.6150  -1.5102  -1.4632  -1.3692  -1.3652  -1.3563
    -1.3184  -1.2911  -1.2578  -1.2511  -1.2226  -1.1422  -1.1161  -1.0465
    -0.9331  -0.9151  -0.8731  -0.8248  -0.7213  -0.7028  -0.6132  -0.5767
    -0.5654  -0.5067  -0.4770  -0.4611  -0.4032  -0.3641  -0.2321  -0.1921
    -0.1807  -0.1636  -0.1411  -0.1052  -0.0440   0.0173   0.0495   0.0518
     0.1562   0.2558   0.3426   0.4129   0.4221   0.4451   0.5314   0.6366
     0.6781   0.7029   0.7512   0.8745   0.9925   1.0223   1.1263   1.1523
     1.1618   1.2641   1.2824   1.2875   1.3075   1.3167   1.3511   1.4178
     1.4787   1.7625   2.3197   3.3226   3.3257   3.3839   3.3895   3.7002
     3.7026   3.8138   3.8188   4.1452

     the Fermi energy is     2.3964 ev

!    total energy              =   -2976.42350562 Ry
     estimated scf accuracy    <       0.00000006 Ry
     smearing contrib. (-TS)   =      -0.01083582 Ry
     internal energy E=F+TS    =   -2976.41266981 Ry

     The total energy is F=E-TS. E is the sum of the following terms:
     one-electron contribution =  -22707.50311035 Ry
     hartree contribution      =   11450.10936388 Ry
     xc contribution           =    -495.33901723 Ry
     ewald contribution        =    8776.31933186 Ry
     electric field correction =       0.00076203 Ry

     convergence has been achieved in  86 iterations

     Forces acting on atoms (cartesian axes, Ry/au):

     atom    1 type  1   force =     0.00002225   -0.00051862    0.12630293
     atom    2 type  1   force =    -0.00009341    0.00040937   -0.15470175
     atom    3 type  2   force =     0.00002833    0.00002540   -0.06828528
     atom    4 type  2   force =     0.00006031   -0.00010879    0.01706881
     atom    5 type  2   force =    -0.00486872   -0.00242753   -0.01323283
     atom    6 type  2   force =     0.00655234   -0.00180532   -0.01375072
     atom    7 type  1   force =    -0.00029334   -0.00661583    0.05920517
     atom    8 type  1   force =     0.00038228    0.00687467    0.10027813
     atom    9 type  2   force =    -0.00002188    0.00066744    0.00131367
     atom   10 type  2   force =    -0.00261306   -0.00001498   -0.06336606
     atom   11 type  2   force =     0.00043999   -0.00068839   -0.00027060
     atom   12 type  2   force =    -0.00085208   -0.00112861   -0.00108383
     atom   13 type  1   force =    -0.00030272    0.00071461   -0.00143383
     atom   14 type  1   force =    -0.00032955   -0.00039735   -0.00026017
     atom   15 type  2   force =    -0.00066433   -0.00039183   -0.00053283
     atom   16 type  2   force =     0.00019816    0.00093162   -0.00029780
     atom   17 type  2   force =     0.00079921    0.00007001   -0.00054446
     atom   18 type  2   force =    -0.00023021   -0.00019357   -0.00002999
     atom   19 type  1   force =    -0.00022297   -0.00012044   -0.00092620
     atom   20 type  1   force =     0.00067419    0.00083827   -0.00059560
     atom   21 type  2   force =     0.00006376    0.00015610    0.09779932
     atom   22 type  2   force =     0.00042667   -0.00031733    0.00149066
     atom   23 type  2   force =    -0.08275562    0.00005492   -0.03312494
     atom   24 type  2   force =     0.08269874    0.00050312   -0.03320099
     atom   25 type  1   force =     0.00006819   -0.00035547    0.12645292
     atom   26 type  1   force =    -0.00011193   -0.00149078   -0.15487781
     atom   27 type  2   force =     0.00011544   -0.00046884   -0.06666092
     atom   28 type  2   force =     0.00004922    0.00167379    0.01201180
     atom   29 type  2   force =    -0.00341926    0.00421858   -0.01620854
     atom   30 type  2   force =     0.00504952    0.00456154   -0.01661050
     atom   31 type  1   force =    -0.00015681    0.00217000    0.04253467
     atom   32 type  1   force =     0.00044412   -0.00893622    0.10085023
     atom   33 type  2   force =    -0.00048479   -0.00014043   -0.00038736
     atom   34 type  2   force =    -0.00212569   -0.00026212   -0.07623368
     atom   35 type  2   force =    -0.00010067    0.00069867    0.00087409
     atom   36 type  2   force =    -0.00049197    0.00051456    0.00039998
     atom   37 type  1   force =     0.00043163    0.00061768   -0.00023181
     atom   38 type  1   force =    -0.00042094   -0.00066819   -0.00070049
     atom   39 type  2   force =     0.00044617   -0.00033089   -0.00036455
     atom   40 type  2   force =     0.00036913   -0.00062641    0.00000138
     atom   41 type  2   force =     0.00028701    0.00050600   -0.00002241
     atom   42 type  2   force =    -0.00020012   -0.00015242    0.00012078
     atom   43 type  1   force =     0.00050732    0.00136029   -0.00105864
     atom   44 type  1   force =    -0.00023760   -0.00106228    0.00074832
     atom   45 type  2   force =     0.00009426   -0.00001237    0.09764711
     atom   46 type  2   force =    -0.08280223    0.00003852   -0.03317749
     atom   47 type  2   force =     0.08271169    0.00045679   -0.03318394
     atom   48 type  3   force =     0.00012772    0.00038191    0.00111271
     atom   49 type  3   force =     0.00011932   -0.00002800   -0.00100896
     atom   50 type  4   force =     0.00470749   -0.00467914    0.00089136
     atom   51 type  5   force =     0.00073012   -0.00086150   -0.00040031
     atom   52 type  5   force =    -0.00019583    0.00108912   -0.00058493
     atom   53 type  5   force =    -0.00468925    0.00579773   -0.00066345
     atom   54 type  5   force =    -0.00008488   -0.00005685    0.00004729
     atom   55 type  5   force =     0.00034559    0.00015446    0.00012287
     atom   56 type  5   force =     0.00012908   -0.00006004    0.00020024
     atom   57 type  2   force =    -0.00183260   -0.00056792    0.00042328
     atom   58 type  5   force =     0.00152321    0.00000327    0.00011595

     Total force =     0.420770     Total SCF correction =     0.000751
  @ DRIVER MODE: Message from server: STATUS
  @ DRIVER MODE: Message from server: GETFORCE
  @ DRIVER MODE: Returning v,forces,stress,ensemble

     Writing output data file ./calc.save/
  @ DRIVER MODE: Message from server: EXIT
  @ DRIVE MODE: Exiting

     General routines

     Parallel routines

   This run was terminated on:   4: 7: 3  23Sep2021

   JOB DONE.