     Program PWSCF v.6.7GPU starts on 15Sep2021 at 20: 2:49

     R & G space division:  proc/nbgrp/npool/nimage =      10
     Reading input from /storage/home/hcoda1/3/ntian30/research/carbon/CxH_vib/H2O_calc/ads_slab/CH3NHNH2H2O_a/out_0013/pw.inp
Warning: card &CELL ignored
Warning: card   CELL_DYNAMICS='IPI', ignored
Warning: card / ignored

     Current dimensions of program PWSCF are:
     Max number of different atomic species (ntypx) = 10
     Max number of k-points (npk) =  40000
     Max angular momentum in pseudopotentials (lmaxx) =  3
     Presently no symmetry can be used with electric field

     Message from routine cell_base_init:
     DEPRECATED: use true lattice parameter, not A to a.u. conversion factor

     IMPORTANT: XC functional enforced from input :
     Exchange-correlation= BEEF-VDW
                           (   1   4  43  14   2   0   0)
     Any further DFT definition will be discarded
     Please, verify this is what you really want

  @ DRIVER MODE: Connecting to
 qe_1139763_2852619.sched-torque.pace.gatech.eduh9e1zgm2_scratch
  using UNIX socket
  @ DRIVER MODE: Message from server: STATUS
  @ DRIVER MODE: Message from server: INIT
  @ DRIVER MODE: Receiving replica           0          -1
  @ DRIVER MODE: Receiving encoded integer          25
  @ DRIVER MODE:  SCF:  T  FORCE:  T  STRESS:  F  VC:  F  ENSEMBLE:  F
  @ DRIVER MODE:  SCF:  T  FORCE:  T  STRESS:  F  VC:  F  ENSEMBLE:  F

     Using Slab Decomposition

     bravais-lattice index     =            0
     lattice parameter (alat)  =       1.8897  a.u.
     unit-cell volume          =    6658.9804 (a.u.)^3
     number of atoms/cell      =           59
     number of atomic types    =            5
     number of electrons       =       406.00
     number of Kohn-Sham states=          213
     kinetic-energy cutoff     =      29.3995  Ry
     charge density cutoff     =     293.9946  Ry
     scf convergence threshold =      7.3E-08
     mixing beta               =       0.0500
     number of iterations used =            8  plain     mixing
     Exchange-correlation= BEEF-VDW
                           (   1   4  43  14   2   0   0)

     celldm(1)=   1.889726  celldm(2)=   0.000000  celldm(3)=   0.000000
     celldm(4)=   0.000000  celldm(5)=   0.000000  celldm(6)=   0.000000

     crystal axes: (cart. coord. in units of alat)
               a(1) = (   6.579727   0.000000   0.000000 )
               a(2) = (  -0.000775   5.961596   0.000000 )
               a(3) = (   0.000000   0.000000  25.155947 )

     reciprocal axes: (cart. coord. in units 2 pi/alat)
               b(1) = (  0.151982  0.000020  0.000000 )
               b(2) = (  0.000000  0.167740  0.000000 )
               b(3) = (  0.000000  0.000000  0.039752 )

     PseudoPot. # 1 for Ti read from file:
     /storage/coda1/p-amedford6/0/shared/rich_project_chbe-medford/medford-share/data/pseudos_module/espresso/nninc/pbe/van/Ti.UPF
     MD5 check sum: 8e4df49b7f0d34bbd5052bf3f5ea0213
     Pseudo is Ultrasoft, Zval = 12.0
     Generated by new atomic code, or converted to UPF format
     Using radial grid of  851 points,  6 beta functions with:
                l(1) =   0
                l(2) =   0
                l(3) =   1
                l(4) =   1
                l(5) =   2
                l(6) =   2
     Q(r) pseudized with  8 coefficients,  rinner =    1.000   1.000   1.000
                                                       1.000   1.000

     PseudoPot. # 2 for O  read from file:
     /storage/coda1/p-amedford6/0/shared/rich_project_chbe-medford/medford-share/data/pseudos_module/espresso/nninc/pbe/van/O.UPF
     MD5 check sum: 78c19812648e8988a0fe644b0f25305e
     Pseudo is Ultrasoft, Zval =  6.0
     Generated by new atomic code, or converted to UPF format
     Using radial grid of  737 points,  4 beta functions with:
                l(1) =   0
                l(2) =   0
                l(3) =   1
                l(4) =   1
     Q(r) pseudized with  8 coefficients,  rinner =    0.800   0.800   0.800

     PseudoPot. # 3 for N  read from file:
     /storage/coda1/p-amedford6/0/shared/rich_project_chbe-medford/medford-share/data/pseudos_module/espresso/nninc/pbe/van/N.UPF
     MD5 check sum: 90d10febe142ad51ac9d5be1deb811c4
     Pseudo is Ultrasoft, Zval =  5.0
     Generated by new atomic code, or converted to UPF format
     Using radial grid of  729 points,  4 beta functions with:
                l(1) =   0
                l(2) =   0
                l(3) =   1
                l(4) =   1
     Q(r) pseudized with  8 coefficients,  rinner =    0.800   0.800   0.800

     PseudoPot. # 4 for C  read from file:
     /storage/coda1/p-amedford6/0/shared/rich_project_chbe-medford/medford-share/data/pseudos_module/espresso/nninc/pbe/van/C.UPF
     MD5 check sum: 1a69bf6b8db32088f5b2163dbdb77a27
     Pseudo is Ultrasoft, Zval =  4.0
     Generated by new atomic code, or converted to UPF format
     Using radial grid of  721 points,  4 beta functions with:
                l(1) =   0
                l(2) =   0
                l(3) =   1
                l(4) =   1
     Q(r) pseudized with  8 coefficients,  rinner =    0.800   0.800   0.800

     PseudoPot. # 5 for H  read from file:
     /storage/coda1/p-amedford6/0/shared/rich_project_chbe-medford/medford-share/data/pseudos_module/espresso/nninc/pbe/van/H.UPF
     MD5 check sum: b5ee9d7bfd3a09ee7748110bda690ff7
     Pseudo is Ultrasoft, Zval =  1.0
     Generated by new atomic code, or converted to UPF format
     Using radial grid of  615 points,  1 beta functions with:
                l(1) =   0
     Q(r) pseudized with  8 coefficients,  rinner =    0.800

     atomic species   valence    mass     pseudopotential
        Ti1           12.00    47.86700     Ti( 1.00)
        O1             6.00    15.99900     O ( 1.00)
        N1             5.00    14.00700     N ( 1.00)
        C1             4.00    12.01100     C ( 1.00)
        H1             1.00     1.00800     H ( 1.00)

     No symmetry found

   Cartesian axes

     site n.     atom                  positions (alat units)
         1           Ti1 tau(   1) = (   0.0004258   2.9801865   6.0000000  )
         2           Ti1 tau(   2) = (   3.2906075   1.4906267   6.0002472  )
         3           O1  tau(   3) = (   0.0006271   0.0005054   7.9858123  )
         4           O1  tau(   4) = (   3.2906025   0.0005020   7.3038282  )
         5           O1  tau(   5) = (   4.5942328   1.4918067   9.2879030  )
         6           O1  tau(   6) = (   1.9868534   1.4903216   9.2879459  )
         7           Ti1 tau(   7) = (   3.2907910   2.8959150   9.1758416  )
         8           Ti1 tau(   8) = (   0.0015273   1.4827037   9.2680791  )
         9           O1  tau(   9) = (   3.2683845   0.0132936  11.3796717  )
        10           O1  tau(  10) = (   0.0116148   5.9584955  10.6183126  )
        11           O1  tau(  11) = (   1.2681313   1.5011218  12.7194972  )
        12           O1  tau(  12) = (   5.2787963   1.4993765  12.6897032  )
        13           Ti1 tau(  13) = (   6.5560253   2.9823375  12.4990790  )
        14           Ti1 tau(  14) = (   3.2673924   1.4925278  12.5394213  )
        15           O1  tau(  15) = (   6.5345332   5.8735037  14.6996474  )
        16           O1  tau(  16) = (   3.2898196   5.9462848  13.9939205  )
        17           O1  tau(  17) = (   4.4957945   1.5291507  16.1605787  )
        18           O1  tau(  18) = (   1.9883785   1.5110281  16.0762771  )
        19           Ti1 tau(  19) = (   3.2526948   3.0056396  15.7740191  )
        20           Ti1 tau(  20) = (   0.0000763   1.3299063  15.8143521  )
        21           O1  tau(  21) = (   3.2904802   0.0005063   4.7018136  )
        22           O1  tau(  22) = (   6.5205728   0.2065101  17.2442985  )
        23           O1  tau(  23) = (   1.3043587   1.4918075   6.0039043  )
        24           O1  tau(  24) = (   5.2767064   1.4903225   6.0039473  )
        25           Ti1 tau(  25) = (   0.0000382   5.9609847   6.0000000  )
        26           Ti1 tau(  26) = (   3.2902200   4.4714249   6.0002472  )
        27           O1  tau(  27) = (   0.0002396   2.9813036   7.9858123  )
        28           O1  tau(  28) = (   3.2902150   2.9813002   7.3038282  )
        29           O1  tau(  29) = (   4.5938453   4.4726049   9.2879030  )
        30           O1  tau(  30) = (   1.9864658   4.4711199   9.2879459  )
        31           Ti1 tau(  31) = (   3.2891106   5.8743827   9.1763621  )
        32           Ti1 tau(  32) = (   0.0006254   4.4649316   9.2693709  )
        33           O1  tau(  33) = (   3.2688559   2.9716192  11.3757022  )
        34           O1  tau(  34) = (   0.0092240   2.9805883  10.6323155  )
        35           O1  tau(  35) = (   1.2711362   4.4646907  12.6658965  )
        36           O1  tau(  36) = (   5.2748280   4.4660984  12.6332574  )
        37           Ti1 tau(  37) = (   6.5627654   5.9477838  12.5072267  )
        38           Ti1 tau(  38) = (   3.2667511   4.4702655  12.5260729  )
        39           O1  tau(  39) = (   6.5087961   3.0586107  15.0099536  )
        40           O1  tau(  40) = (   3.2849776   3.0149387  13.9815115  )
        41           O1  tau(  41) = (   4.4906635   4.4862850  16.2792570  )
        42           O1  tau(  42) = (   1.9756856   4.4939852  16.2100911  )
        43           Ti1 tau(  43) = (   3.2747729   0.0241646  15.7895078  )
        44           Ti1 tau(  44) = (   6.5697470   4.5456975  16.1185117  )
        45           O1  tau(  45) = (   3.2900926   2.9813045   4.7018136  )
        46           O1  tau(  46) = (   1.3039711   4.4726057   6.0039043  )
        47           O1  tau(  47) = (   5.2763189   4.4711207   6.0039473  )
        48           N1  tau(  48) = (   0.9980056   3.0961469  19.0053282  )
        49           N1  tau(  49) = (   6.4063515   3.4839273  18.2229180  )
        50           C1  tau(  50) = (   1.6470833   4.2684698  19.5811903  )
        51           H1  tau(  51) = (   0.9936588   4.8902639  20.1979557  )
        52           H1  tau(  52) = (   2.4789334   3.9063689  20.1993048  )
        53           H1  tau(  53) = (   2.0598354   4.8861676  18.7819781  )
        54           H1  tau(  54) = (   0.6510520   2.5058952  19.7602174  )
        55           H1  tau(  55) = (   5.8507131   4.1735594  18.7414995  )
        56           H1  tau(  56) = (   5.8147758   2.6545292  18.1916272  )
        57           O1  tau(  57) = (   5.1718451   0.7889162  19.5681371  )
        58           H1  tau(  58) = (   5.5516362   0.5215711  18.6954158  )
        59           H1  tau(  59) = (   4.2099197   0.7512590  19.4668632  )

     number of k points=    10  Fermi-Dirac smearing, width (Ry)=  0.0073
                       cart. coord. in units 2pi/alat
        k(    1) = (   0.0000000   0.0000000   0.0000000), wk =   0.1250000
        k(    2) = (   0.0000000   0.0419351   0.0000000), wk =   0.2500000
        k(    3) = (   0.0000000  -0.0838702   0.0000000), wk =   0.1250000
        k(    4) = (   0.0379955   0.0000049   0.0000000), wk =   0.2500000
        k(    5) = (   0.0379955   0.0419400   0.0000000), wk =   0.2500000
        k(    6) = (   0.0379955  -0.0838652   0.0000000), wk =   0.2500000
        k(    7) = (   0.0379955  -0.0419301   0.0000000), wk =   0.2500000
        k(    8) = (  -0.0759910  -0.0000099   0.0000000), wk =   0.1250000
        k(    9) = (  -0.0759910   0.0419252   0.0000000), wk =   0.2500000
        k(   10) = (  -0.0759910  -0.0838800   0.0000000), wk =   0.1250000

     Initial potential from superposition of free atoms

     starting charge  389.99912, renormalised to  406.00000

     negative rho (up, down):  1.389E-02 0.000E+00

     %%%%%%%%%%%%%%%%%%%%%%%%%%%%%%%%%%%%%%%%%%%%%%%%%%%%%%%%%%%%%%%%%%%%%%%%
     %                                                                      %
     % You are using vdW-DF, which was implemented by the Thonhauser group. %
     % Please cite the following two papers that made this development      %
     % possible and the two reviews that describe the various versions:     %
     %                                                                      %
     %   T. Thonhauser et al., PRL 115, 136402 (2015).                      %
     %   T. Thonhauser et al., PRB 76, 125112 (2007).                       %
     %   K. Berland et al., Rep. Prog. Phys. 78, 066501 (2015).             %
     %   D.C. Langreth et al., J. Phys.: Condens. Matter 21, 084203 (2009). %
     %                                                                      %
     %                                                                      %
     % If you are calculating the stress with vdW-DF, please also cite:     %
     %                                                                      %
     %   R. Sabatini et al., J. Phys.: Condens. Matter 24, 424209 (2012).   %
     %                                                                      %
     %%%%%%%%%%%%%%%%%%%%%%%%%%%%%%%%%%%%%%%%%%%%%%%%%%%%%%%%%%%%%%%%%%%%%%%%

     Adding external electric field

     Computed dipole along edir(3) :
        Dipole              -16.7176 Ry au,        -42.4920 Debye
        Dipole field         -0.0315 Ry au,

        Potential amp.        2.9245 Ry
        Total length         46.3494 bohr

     Starting wfcs are  308 atomic wfcs
  @ DRIVER MODE: Message from server: STATUS
  @ DRIVER MODE: Message from server: POSDATA
  @ DRIVER MODE: Reading and sharing cell
  @ DRIVER MODE: Reading and sharing positions
  @ DRIVER MODE: Received positions

     Self-consistent Calculation

     iteration #  1     ecut=    29.40 Ry     beta= 0.05
     Davidson diagonalization with overlap
     c_bands:  2 eigenvalues not converged
     c_bands:  3 eigenvalues not converged
     c_bands:  2 eigenvalues not converged
     c_bands:  4 eigenvalues not converged
     c_bands:  1 eigenvalues not converged
     c_bands:  4 eigenvalues not converged
     c_bands:  3 eigenvalues not converged
     c_bands:  5 eigenvalues not converged
     c_bands:  3 eigenvalues not converged
     ethr =  1.00E-05,  avg # of iterations = 24.8

[...]

     total energy              =   -2136.64431672 Ry
     estimated scf accuracy    <    9692.94883090 Ry

     iteration #  2     ecut=    29.40 Ry     beta= 0.05
     Davidson diagonalization with overlap
     ethr =  1.00E-02,  avg # of iterations = 32.0

[...]

     iteration # 66     ecut=    29.40 Ry     beta= 0.05
     Davidson diagonalization with overlap
     c_bands:  1 eigenvalues not converged
     ethr =  4.47E-11,  avg # of iterations = 13.4

[...]

     total energy              =   -2977.68363947 Ry
     estimated scf accuracy    <       0.00000008 Ry

     iteration # 67     ecut=    29.40 Ry     beta= 0.05
     Davidson diagonalization with overlap
     ethr =  2.09E-11,  avg # of iterations = 11.4

     negative rho (up, down):  1.438E-02 0.000E+00

     Adding external electric field

     Computed dipole along edir(3) :
        Dipole                1.0185 Ry au,          2.5888 Debye
        Dipole field          0.0019 Ry au,

        Potential amp.       -0.1782 Ry
        Total length         46.3494 bohr

     End of self-consistent calculation

          k = 0.0000 0.0000 0.0000 ( 18029 PWs)   bands (ev):

   -55.3596 -55.3223 -55.3101 -55.2928 -55.2760 -55.2405 -55.2387 -55.2040
   -55.1829 -55.1815 -55.1485 -55.1424 -55.1087 -55.0178 -54.3426 -54.3085
   -31.9259 -31.8084 -31.8031 -31.7274 -31.6759 -31.6721 -31.6719 -31.6489
   -31.5990 -31.5948 -31.5718 -31.5692 -31.5551 -31.5390 -31.5299 -31.5265
   -31.5140 -31.5070 -31.4965 -31.4791 -31.4641 -31.4628 -31.4349 -31.4244
   -31.4172 -31.4135 -31.3926 -31.3855 -31.3690 -31.3673 -31.3627 -31.3538
   -31.3416 -31.3406 -31.3319 -31.3294 -31.2964 -31.2931 -31.2708 -31.2536
   -31.2300 -31.2278 -30.7521 -30.6576 -30.6355 -30.5684 -30.4816 -30.3708
   -18.0049 -17.6532 -16.1933 -15.9326 -15.7872 -15.6587 -15.5612 -15.4329
   -15.4136 -15.2916 -15.2213 -15.1176 -15.0665 -15.0481 -15.0123 -15.0020
   -14.9788 -14.9083 -14.9022 -14.8881 -14.8642 -14.8555 -14.8093 -14.8015
   -14.7603 -14.7360 -14.7115 -14.6127 -14.5227 -14.4480 -14.3406 -13.1685
   -12.8452 -12.7277  -9.3994  -6.3199  -5.8769  -5.7467  -4.2919  -3.5318
    -3.3831  -3.3149  -3.2780  -3.2528  -3.1192  -2.9621  -2.9217  -2.7991
    -2.7874  -2.6503  -2.6427  -2.5727  -2.5516  -2.5404  -2.3951  -2.3724
    -2.3445  -2.2813  -2.2537  -2.1879  -2.1654  -2.1550  -2.1450  -2.1218
    -2.0938  -2.0506  -1.9924  -1.9334  -1.8402  -1.8150  -1.7640  -1.7347
    -1.7136  -1.6967  -1.6511  -1.6401  -1.6005  -1.5861  -1.5669  -1.5518
    -1.3892  -1.3675  -1.2643  -1.2030  -1.1041  -1.0001  -0.9642  -0.9496
    -0.8526  -0.8338  -0.7810  -0.7408  -0.7379  -0.7033  -0.5914  -0.5288
    -0.4765  -0.4130  -0.3903  -0.3501  -0.2822  -0.1993  -0.1430  -0.1291
    -0.1129  -0.0969   0.0133   0.0257   0.0774   0.1523   0.1618   0.1680
     0.2413   0.2981   0.3684   0.3931   0.4111   0.5161   0.5317   0.5641
     0.5698   0.5996   0.6204   0.6454   0.7056   0.7359   0.8191   0.9408
     1.1321   1.2217   1.2491   1.3483   1.5723   1.5846   1.6802   1.8634
     2.2565   2.3049   3.7373   3.8085   3.8834   3.8872   3.9099   3.9736
     4.2104   4.2277   4.2423   4.2460   4.2700

[...]

          k = 0.0380-0.0419 0.0000 ( 17876 PWs)   bands (ev):

[...]

          k =-0.0760-0.0000 0.0000 ( 17886 PWs)   bands (ev):

[...]

          k =-0.0760-0.0839 0.0000 ( 17948 PWs)   bands (ev):

   -55.3459 -55.3357 -55.2932 -55.2927 -55.2915 -55.2332 -55.2284 -55.2160
   -55.1870 -55.1669 -55.1641 -55.1258 -55.1255 -55.0188 -54.3257 -54.3253
   -31.7340 -31.7260 -31.7240 -31.6395 -31.6199 -31.6183 -31.6180 -31.5843
   -31.5842 -31.5731 -31.5590 -31.5578 -31.5510 -31.5312 -31.5194 -31.5060
   -31.4997 -31.4965 -31.4949 -31.4935 -31.4866 -31.4792 -31.4469 -31.4394
   -31.4363 -31.4360 -31.4221 -31.4173 -31.4130 -31.4125 -31.4071 -31.3996
   -31.3974 -31.3800 -31.3770 -31.3745 -31.3597 -31.3567 -31.3069 -31.3064
   -31.3002 -31.2337 -30.6483 -30.6480 -30.5647 -30.5645 -30.5251 -30.5250
   -17.9927 -17.6625 -15.6740 -15.5889 -15.5679 -15.4127 -15.3612 -15.3347
   -15.3237 -15.2084 -15.1659 -15.1466 -15.1321 -15.1103 -15.0721 -15.0626
   -15.0557 -14.9925 -14.9722 -14.9633 -14.9374 -14.8835 -14.8760 -14.8680
   -14.8602 -14.8104 -14.8065 -14.7669 -14.7158 -14.7123 -14.6367 -13.1748
   -12.8292 -12.8292  -9.4047  -6.3413  -5.9080  -5.6623  -4.2700  -2.9262
    -2.8467  -2.8344  -2.8287  -2.6561  -2.6260  -2.5500  -2.5285  -2.5055
    -2.4201  -2.4091  -2.3783  -2.3533  -2.3213  -2.2844  -2.2463  -2.2404
    -2.2041  -2.1958  -2.1798  -2.1633  -2.1420  -2.1266  -2.0925  -2.0818
    -2.0686  -2.0245  -1.9983  -1.9848  -1.9631  -1.9430  -1.9350  -1.9164
    -1.8419  -1.7514  -1.7267  -1.6415  -1.5730  -1.5703  -1.5645  -1.5025
    -1.4591  -1.4208  -1.3957  -1.3788  -1.2395  -1.1676  -1.1238  -1.1096
    -1.0949  -0.9641  -0.9575  -0.8818  -0.8592  -0.8528  -0.7599  -0.7148
    -0.6761  -0.6694  -0.5826  -0.5706  -0.4944  -0.3962  -0.3742  -0.3604
    -0.3154  -0.3136  -0.2760  -0.2631  -0.1667  -0.1313  -0.1093  -0.0974
    -0.0809  -0.0392   0.1117   0.1608   0.1672   0.3001   0.3322   0.4707
     0.5006   0.5649   0.6446   0.6934   0.7457   0.7785   0.8652   0.9399
     0.9430   1.0065   1.0221   1.0881   1.1003   1.3521   2.0364   2.0370
     2.1247   2.1251   3.8853   4.0004   4.0040   4.0332   4.1554   4.1787
     4.2551   4.2826   4.3220   4.3252   4.3839

     the Fermi energy is     3.8014 ev

!    total energy              =   -2977.68368067 Ry
     estimated scf accuracy    <       0.00000006 Ry
     smearing contrib. (-TS)   =      -0.03717791 Ry
     internal energy E=F+TS    =   -2977.64650277 Ry

     The total energy is F=E-TS. E is the sum of the following terms:
     one-electron contribution =  -22681.99883831 Ry
     hartree contribution      =   11438.36172870 Ry
     xc contribution           =    -496.61575347 Ry
     ewald contribution        =    8762.60440261 Ry
     electric field correction =       0.00195770 Ry

     convergence has been achieved in  67 iterations

     Forces acting on atoms (cartesian axes, Ry/au):

     atom    1 type  1   force =     0.00024077   -0.00037530    0.09322938
     atom    2 type  1   force =     0.00002380   -0.00037656   -0.17816482
     atom    3 type  2   force =     0.00004819   -0.00041592   -0.02001662
     atom    4 type  2   force =     0.00001028   -0.00190295    0.05911211
     atom    5 type  2   force =    -0.01034649   -0.00058966    0.00861233
     atom    6 type  2   force =     0.01129396    0.00010030    0.00627960
     atom    7 type  1   force =    -0.00096332    0.00198374   -0.01426394
     atom    8 type  1   force =     0.00097492   -0.00255073   -0.00598272
     atom    9 type  2   force =     0.00016757   -0.00001356    0.00008742
     atom   10 type  2   force =    -0.00230851    0.00309813    0.00259940
     atom   11 type  2   force =     0.00043638   -0.00043512   -0.00057457
     atom   12 type  2   force =     0.00001972   -0.00041351   -0.00057870
     atom   13 type  1   force =     0.00033976   -0.00027549   -0.00022072
     atom   14 type  1   force =     0.00004193   -0.00008915   -0.00006618
     atom   15 type  2   force =     0.00000359    0.00059586   -0.00004213
     atom   16 type  2   force =     0.00030730    0.00027917   -0.00014028
     atom   17 type  2   force =     0.00039168    0.00023223    0.00036610
     atom   18 type  2   force =    -0.00052640    0.00021582   -0.00007100
     atom   19 type  1   force =    -0.00012406    0.00008635    0.00033767
     atom   20 type  1   force =    -0.00010654   -0.00015765    0.00057841
     atom   21 type  2   force =     0.00012046   -0.00011419    0.10402175
     atom   22 type  2   force =     0.00011979   -0.00022722    0.00053328
     atom   23 type  2   force =    -0.07029629   -0.00019585   -0.02686650
     atom   24 type  2   force =     0.07027965    0.00025243   -0.02686744
     atom   25 type  1   force =     0.00018030   -0.00030489    0.09241088
     atom   26 type  1   force =     0.00005422   -0.00053904   -0.17849723
     atom   27 type  2   force =     0.00008366   -0.00021524   -0.01908449
     atom   28 type  2   force =     0.00006037   -0.00173226    0.05853108
     atom   29 type  2   force =    -0.01101470   -0.00114069    0.00944726
     atom   30 type  2   force =     0.01187082   -0.00069687    0.00722982
     atom   31 type  1   force =    -0.00088100    0.00646161   -0.01491944
     atom   32 type  1   force =     0.00101789    0.00219706   -0.00638919
     atom   33 type  2   force =     0.00026216    0.00009182    0.00001691
     atom   34 type  2   force =    -0.00214564   -0.00243998   -0.00033047
     atom   35 type  2   force =     0.00029218    0.00013067   -0.00001398
     atom   36 type  2   force =     0.00024387    0.00004071    0.00050298
     atom   37 type  1   force =    -0.00009737    0.00002754   -0.00005029
     atom   38 type  1   force =     0.00014774   -0.00006738    0.00000539
     atom   39 type  2   force =    -0.00011250   -0.00021255    0.00042033
     atom   40 type  2   force =    -0.00014184    0.00008083    0.00004330
     atom   41 type  2   force =    -0.00041528    0.00014955    0.00027533
     atom   42 type  2   force =     0.00025686   -0.00011822   -0.00019269
     atom   43 type  1   force =     0.00038823    0.00027589   -0.00001773
     atom   44 type  1   force =    -0.00000532   -0.00013323   -0.00001505
     atom   45 type  2   force =     0.00012303   -0.00010997    0.10395764
     atom   46 type  2   force =    -0.07026835   -0.00013535   -0.02680946
     atom   47 type  2   force =     0.07025994    0.00027562   -0.02687531
     atom   48 type  3   force =    -0.00341842   -0.00089010   -0.00068410
     atom   49 type  3   force =    -0.00083313   -0.00091329   -0.00160247
     atom   50 type  4   force =     0.01990168   -0.00138845   -0.00067844
     atom   51 type  5   force =    -0.00621350    0.00331725    0.00352394
     atom   52 type  5   force =    -0.00653754    0.00259481   -0.00349269
     atom   53 type  5   force =    -0.00308666   -0.00168869    0.00228714
     atom   54 type  5   force =    -0.00018827   -0.00070635   -0.00023476
     atom   55 type  5   force =     0.00037286    0.00024244   -0.00029422
     atom   56 type  5   force =    -0.00052534   -0.00075456    0.00042518
     atom   57 type  2   force =    -0.00097395   -0.00065998    0.00083480
     atom   58 type  5   force =     0.00007451   -0.00026336   -0.00019048
     atom   59 type  5   force =     0.00112035    0.00051350   -0.00144133

     Total force =     0.367035     Total SCF correction =     0.000486
  @ DRIVER MODE: Message from server: STATUS
  @ DRIVER MODE: Message from server: GETFORCE
  @ DRIVER MODE: Returning v,forces,stress,ensemble

     Writing output data file ./calc.save/
  @ DRIVER MODE: Message from server: EXIT
  @ DRIVE MODE: Exiting

     General routines

     Parallel routines

   This run was terminated on:  20:21:53  15Sep2021

   JOB DONE.