     Program PWSCF v.6.7GPU starts on  2Aug2021 at 17:55: 1

     R & G space division:  proc/nbgrp/npool/nimage =      16
     Reading input from /storage/home/hcoda1/3/ntian30/research/carbon/02Aug_vib_paired/ads_slab/CH3NHHH_a/out_0018/pw.inp
Warning: card &CELL ignored
Warning: card   CELL_DYNAMICS='IPI', ignored
Warning: card / ignored

     Current dimensions of program PWSCF are:
     Max number of different atomic species (ntypx) = 10
     Max number of k-points (npk) =  40000
     Max angular momentum in pseudopotentials (lmaxx) =  3
     Presently no symmetry can be used with electric field

     Message from routine cell_base_init:
     DEPRECATED: use true lattice parameter, not A to a.u. conversion factor

     IMPORTANT: XC functional enforced from input :
     Exchange-correlation= BEEF-VDW
                           (   1   4  43  14   2   0   0)
     Any further DFT definition will be discarded
     Please, verify this is what you really want

  @ DRIVER MODE: Connecting to
 qe_1139763_2482537.sched-torque.pace.gatech.edufw9po8sf_scratch
  using UNIX socket
  @ DRIVER MODE: Message from server: STATUS
  @ DRIVER MODE: Message from server: INIT
  @ DRIVER MODE: Receiving replica           0          -1
  @ DRIVER MODE: Receiving encoded integer          25
  @ DRIVER MODE:  SCF:  T  FORCE:  T  STRESS:  F  VC:  F  ENSEMBLE:  F
  @ DRIVER MODE:  SCF:  T  FORCE:  T  STRESS:  F  VC:  F  ENSEMBLE:  F

     Using Slab Decomposition

     bravais-lattice index     =            0
     lattice parameter (alat)  =       1.8897  a.u.
     unit-cell volume          =    6658.9804 (a.u.)^3
     number of atoms/cell      =           55
     number of atomic types    =            5
     number of electrons       =       393.00
     number of Kohn-Sham states=          206
     kinetic-energy cutoff     =      29.3995  Ry
     charge density cutoff     =     293.9946  Ry
     scf convergence threshold =      7.3E-08
     mixing beta               =       0.0500
     number of iterations used =            8  plain     mixing
     Exchange-correlation= BEEF-VDW
                           (   1   4  43  14   2   0   0)

     celldm(1)=   1.889726  celldm(2)=   0.000000  celldm(3)=   0.000000
     celldm(4)=   0.000000  celldm(5)=   0.000000  celldm(6)=   0.000000

     crystal axes: (cart. coord. in units of alat)
               a(1) = (   6.579727   0.000000   0.000000 )
               a(2) = (  -0.000775   5.961596   0.000000 )
               a(3) = (   0.000000   0.000000  25.155947 )

     reciprocal axes: (cart. coord. in units 2 pi/alat)
               b(1) = (  0.151982  0.000020  0.000000 )
               b(2) = (  0.000000  0.167740  0.000000 )
               b(3) = (  0.000000  0.000000  0.039752 )

     PseudoPot. # 1 for Ti read from file:
     /storage/coda1/p-amedford6/0/shared/rich_project_chbe-medford/medford-share/data/pseudos_module/espresso/nninc/pbe/van/Ti.UPF
     MD5 check sum: 8e4df49b7f0d34bbd5052bf3f5ea0213
     Pseudo is Ultrasoft, Zval = 12.0
     Generated by new atomic code, or converted to UPF format
     Using radial grid of  851 points,  6 beta functions with:
                l(1) =   0
                l(2) =   0
                l(3) =   1
                l(4) =   1
                l(5) =   2
                l(6) =   2
     Q(r) pseudized with  8 coefficients,  rinner =    1.000   1.000   1.000
                                                       1.000   1.000

     PseudoPot. # 2 for O  read from file:
     /storage/coda1/p-amedford6/0/shared/rich_project_chbe-medford/medford-share/data/pseudos_module/espresso/nninc/pbe/van/O.UPF
     MD5 check sum: 78c19812648e8988a0fe644b0f25305e
     Pseudo is Ultrasoft, Zval =  6.0
     Generated by new atomic code, or converted to UPF format
     Using radial grid of  737 points,  4 beta functions with:
                l(1) =   0
                l(2) =   0
                l(3) =   1
                l(4) =   1
     Q(r) pseudized with  8 coefficients,  rinner =    0.800   0.800   0.800

     PseudoPot. # 3 for N  read from file:
     /storage/coda1/p-amedford6/0/shared/rich_project_chbe-medford/medford-share/data/pseudos_module/espresso/nninc/pbe/van/N.UPF
     MD5 check sum: 90d10febe142ad51ac9d5be1deb811c4
     Pseudo is Ultrasoft, Zval =  5.0
     Generated by new atomic code, or converted to UPF format
     Using radial grid of  729 points,  4 beta functions with:
                l(1) =   0
                l(2) =   0
                l(3) =   1
                l(4) =   1
     Q(r) pseudized with  8 coefficients,  rinner =    0.800   0.800   0.800

     PseudoPot. # 4 for C  read from file:
     /storage/coda1/p-amedford6/0/shared/rich_project_chbe-medford/medford-share/data/pseudos_module/espresso/nninc/pbe/van/C.UPF
     MD5 check sum: 1a69bf6b8db32088f5b2163dbdb77a27
     Pseudo is Ultrasoft, Zval =  4.0
     Generated by new atomic code, or converted to UPF format
     Using radial grid of  721 points,  4 beta functions with:
                l(1) =   0
                l(2) =   0
                l(3) =   1
                l(4) =   1
     Q(r) pseudized with  8 coefficients,  rinner =    0.800   0.800   0.800

     PseudoPot. # 5 for H  read from file:
     /storage/coda1/p-amedford6/0/shared/rich_project_chbe-medford/medford-share/data/pseudos_module/espresso/nninc/pbe/van/H.UPF
     MD5 check sum: b5ee9d7bfd3a09ee7748110bda690ff7
     Pseudo is Ultrasoft, Zval =  1.0
     Generated by new atomic code, or converted to UPF format
     Using radial grid of  615 points,  1 beta functions with:
                l(1) =   0
     Q(r) pseudized with  8 coefficients,  rinner =    0.800

     atomic species   valence    mass     pseudopotential
        Ti1           12.00    47.86700     Ti( 1.00)
        O1             6.00    15.99900     O ( 1.00)
        N1             5.00    14.00700     N ( 1.00)
        C1             4.00    12.01100     C ( 1.00)
        H1             1.00     1.00800     H ( 1.00)

     No symmetry found

   Cartesian axes

     site n.     atom                  positions (alat units)
         1           Ti1 tau(   1) = (   0.0004258   2.9801865   6.0000000  )
         2           Ti1 tau(   2) = (   3.2906075   1.4906267   6.0002472  )
         3           O1  tau(   3) = (   0.0006271   0.0005054   7.9858123  )
         4           O1  tau(   4) = (   3.2906025   0.0005020   7.3038282  )
         5           O1  tau(   5) = (   4.5942328   1.4918067   9.2879030  )
         6           O1  tau(   6) = (   1.9868534   1.4903216   9.2879459  )
         7           Ti1 tau(   7) = (   3.2907910   2.8959150   9.1758416  )
         8           Ti1 tau(   8) = (   0.0015273   1.4827037   9.2680791  )
         9           O1  tau(   9) = (   3.2636084   5.9406443  11.4082010  )
        10           O1  tau(  10) = (   0.0116148   5.9584955  10.6183126  )
        11           O1  tau(  11) = (   1.2642105   1.4849797  12.6947803  )
        12           O1  tau(  12) = (   5.2691575   1.4821021  12.6650678  )
        13           Ti1 tau(  13) = (   6.5574234   2.9640577  12.4921542  )
        14           Ti1 tau(  14) = (   3.2619390   1.4709553  12.5527290  )
        15           O1  tau(  15) = (   6.5247406   5.9594380  14.6832748  )
        16           O1  tau(  16) = (   3.2695906   5.9428997  14.0562986  )
        17           O1  tau(  17) = (   4.5175969   1.4707097  16.2986306  )
        18           O1  tau(  18) = (   1.9406912   1.4777946  16.2473769  )
        19           Ti1 tau(  19) = (   3.2491105   2.9422209  15.8109686  )
        20           Ti1 tau(  20) = (   6.5361480   1.3378720  15.9626387  )
        21           O1  tau(  21) = (   3.2904802   0.0005063   4.7018136  )
        22           O1  tau(  22) = (   6.5280740   5.8897732  17.4332532  )
        23           O1  tau(  23) = (   1.3043587   1.4918075   6.0039043  )
        24           O1  tau(  24) = (   5.2767064   1.4903225   6.0039473  )
        25           Ti1 tau(  25) = (   0.0000382   5.9609847   6.0000000  )
        26           Ti1 tau(  26) = (   3.2902200   4.4714249   6.0002472  )
        27           O1  tau(  27) = (   0.0002396   2.9813036   7.9858123  )
        28           O1  tau(  28) = (   3.2902150   2.9813002   7.3038282  )
        29           O1  tau(  29) = (   4.5938453   4.4726049   9.2879030  )
        30           O1  tau(  30) = (   1.9864658   4.4711199   9.2879459  )
        31           Ti1 tau(  31) = (   3.2891106   5.8743827   9.1763621  )
        32           Ti1 tau(  32) = (   0.0006254   4.4649316   9.2693709  )
        33           O1  tau(  33) = (   3.2649920   2.9642658  11.3997388  )
        34           O1  tau(  34) = (   0.0092240   2.9805883  10.6323155  )
        35           O1  tau(  35) = (   1.2634527   4.4478426  12.7061968  )
        36           O1  tau(  36) = (   5.2693862   4.4495813  12.6755241  )
        37           Ti1 tau(  37) = (   6.5522441   5.9483113  12.5008436  )
        38           Ti1 tau(  38) = (   3.2626494   4.4468850  12.5575576  )
        39           O1  tau(  39) = (   6.4970557   2.9363996  15.0046851  )
        40           O1  tau(  40) = (   3.2722650   2.9529576  14.0194401  )
        41           O1  tau(  41) = (   4.5170401   4.4205294  16.2730734  )
        42           O1  tau(  42) = (   1.9466746   4.4191161  16.2235312  )
        43           Ti1 tau(  43) = (   3.2419262   5.9323414  15.8513663  )
        44           Ti1 tau(  44) = (   6.5549466   4.5556212  15.8889459  )
        45           O1  tau(  45) = (   3.2900926   2.9813045   4.7018136  )
        46           O1  tau(  46) = (   1.3039711   4.4726057   6.0039043  )
        47           O1  tau(  47) = (   5.2763189   4.4711207   6.0039473  )
        48           N1  tau(  48) = (   4.8657738   4.5798987  19.4796958  )
        49           C1  tau(  49) = (   5.7271871   3.4329544  19.8049648  )
        50           H1  tau(  50) = (   6.3241292   3.1721029  18.9398488  )
        51           H1  tau(  51) = (   6.4229137   3.7195585  20.5942015  )
        52           H1  tau(  52) = (   5.1874390   2.5328885  20.1195193  )
        53           H1  tau(  53) = (   5.9066942   5.7389963  18.1772939  )
        54           H1  tau(  54) = (   4.2103208   4.3266459  18.7469397  )
        55           H1  tau(  55) = (   4.3187305   4.8545830  20.2870342  )

     number of k points=    10  Fermi-Dirac smearing, width (Ry)=  0.0073
                       cart. coord. in units 2pi/alat
        k(    1) = (   0.0000000   0.0000000   0.0000000), wk =   0.1250000
        k(    2) = (   0.0000000   0.0419351   0.0000000), wk =   0.2500000
        k(    3) = (   0.0000000  -0.0838702   0.0000000), wk =   0.1250000
        k(    4) = (   0.0379955   0.0000049   0.0000000), wk =   0.2500000
        k(    5) = (   0.0379955   0.0419400   0.0000000), wk =   0.2500000
        k(    6) = (   0.0379955  -0.0838652   0.0000000), wk =   0.2500000
        k(    7) = (   0.0379955  -0.0419301   0.0000000), wk =   0.2500000
        k(    8) = (  -0.0759910  -0.0000099   0.0000000), wk =   0.1250000
        k(    9) = (  -0.0759910   0.0419252   0.0000000), wk =   0.2500000
        k(   10) = (  -0.0759910  -0.0838800   0.0000000), wk =   0.1250000

     Initial potential from superposition of free atoms

     starting charge  376.99914, renormalised to  393.00000

     negative rho (up, down):  1.330E-02 0.000E+00

     %%%%%%%%%%%%%%%%%%%%%%%%%%%%%%%%%%%%%%%%%%%%%%%%%%%%%%%%%%%%%%%%%%%%%%%%
     %                                                                      %
     % You are using vdW-DF, which was implemented by the Thonhauser group. %
     % Please cite the following two papers that made this development      %
     % possible and the two reviews that describe the various versions:     %
     %                                                                      %
     %   T. Thonhauser et al., PRL 115, 136402 (2015).                      %
     %   T. Thonhauser et al., PRB 76, 125112 (2007).                       %
     %   K. Berland et al., Rep. Prog. Phys. 78, 066501 (2015).             %
     %   D.C. Langreth et al., J. Phys.: Condens. Matter 21, 084203 (2009). %
     %                                                                      %
     %                                                                      %
     % If you are calculating the stress with vdW-DF, please also cite:     %
     %                                                                      %
     %   R. Sabatini et al., J. Phys.: Condens. Matter 24, 424209 (2012).   %
     %                                                                      %
     %%%%%%%%%%%%%%%%%%%%%%%%%%%%%%%%%%%%%%%%%%%%%%%%%%%%%%%%%%%%%%%%%%%%%%%%

     Adding external electric field

     Computed dipole along edir(3) :
        Dipole               -9.4926 Ry au,        -24.1277 Debye
        Dipole field         -0.0179 Ry au,

        Potential amp.        1.6606 Ry
        Total length         46.3494 bohr

     Starting wfcs are  298 atomic wfcs
  @ DRIVER MODE: Message from server: STATUS
  @ DRIVER MODE: Message from server: POSDATA
  @ DRIVER MODE: Reading and sharing cell
  @ DRIVER MODE: Reading and sharing positions
  @ DRIVER MODE: Received positions

     Self-consistent Calculation

     iteration #  1     ecut=    29.40 Ry     beta= 0.05
     Davidson diagonalization with overlap
     c_bands:  2 eigenvalues not converged
     c_bands:  1 eigenvalues not converged
     c_bands:  2 eigenvalues not converged
     c_bands:  3 eigenvalues not converged
     c_bands:  3 eigenvalues not converged
     c_bands:  1 eigenvalues not converged
     ethr =  1.00E-05,  avg # of iterations = 18.9

[...]

     total energy              =   -2620.43211081 Ry
     estimated scf accuracy    <    3390.31470060 Ry

[...]

     iteration #  3     ecut=    29.40 Ry     beta= 0.05
     Davidson diagonalization with overlap
     ethr =  1.00E-02,  avg # of iterations = 14.8

[...]

     iteration # 86     ecut=    29.40 Ry     beta= 0.05
     Davidson diagonalization with overlap
     c_bands:  1 eigenvalues not converged
     ethr =  2.21E-11,  avg # of iterations = 14.5

[...]

     total energy              =   -2922.77374914 Ry
     estimated scf accuracy    <       0.00000013 Ry

     iteration # 87     ecut=    29.40 Ry     beta= 0.05
     Davidson diagonalization with overlap
     ethr =  2.21E-11,  avg # of iterations =  1.2

     negative rho (up, down):  1.445E-02 0.000E+00

     Adding external electric field

     Computed dipole along edir(3) :
        Dipole                1.4030 Ry au,          3.5660 Debye
        Dipole field          0.0026 Ry au,

        Potential amp.       -0.2454 Ry
        Total length         46.3494 bohr

     End of self-consistent calculation

          k = 0.0000 0.0000 0.0000 ( 18029 PWs)   bands (ev):

   -55.3095 -55.2736 -55.2577 -55.2235 -55.1734 -55.1493 -55.1483 -55.1390
   -55.1149 -55.0849 -55.0741 -55.0510 -55.0322 -54.9740 -54.3012 -54.2671
   -31.8764 -31.7519 -31.6898 -31.6617 -31.6372 -31.6164 -31.5919 -31.5513
   -31.5471 -31.5458 -31.5167 -31.5057 -31.5017 -31.4770 -31.4665 -31.4614
   -31.4481 -31.4381 -31.4105 -31.4022 -31.3980 -31.3816 -31.3732 -31.3560
   -31.3534 -31.3159 -31.3148 -31.3056 -31.3036 -31.2905 -31.2855 -31.2836
   -31.2769 -31.2760 -31.2611 -31.2580 -31.2258 -31.2123 -31.2012 -31.1956
   -31.1827 -31.1078 -30.7115 -30.6151 -30.5931 -30.5275 -30.4406 -30.3300
   -16.8252 -16.1484 -15.8921 -15.7712 -15.6621 -15.5890 -15.5214 -15.4424
   -15.3585 -15.2580 -15.1966 -15.0915 -15.0570 -15.0173 -15.0026 -14.9835
   -14.9566 -14.8766 -14.8657 -14.8550 -14.8294 -14.8109 -14.7829 -14.7740
   -14.7673 -14.7279 -14.6904 -14.5783 -14.4878 -14.4021 -12.8046 -12.6868
   -10.0310  -5.8545  -4.7424  -4.4238  -3.5333  -3.4772  -3.3443  -3.2395
    -3.2056  -3.1977  -3.0767  -2.8938  -2.7987  -2.7714  -2.6955  -2.6304
    -2.5346  -2.5309  -2.4906  -2.3902  -2.3525  -2.3259  -2.2426  -2.2158
    -2.1695  -2.1185  -2.1083  -2.1051  -2.0846  -2.0441  -2.0053  -1.8865
    -1.8017  -1.7799  -1.7063  -1.6899  -1.6839  -1.6557  -1.6126  -1.5933
    -1.5442  -1.5272  -1.4865  -1.4178  -1.3565  -1.2744  -1.2373  -1.2004
    -0.9944  -0.9654  -0.9151  -0.9125  -0.8842  -0.8158  -0.7861  -0.7565
    -0.6903  -0.6880  -0.6596  -0.5533  -0.5106  -0.3896  -0.3190  -0.2396
    -0.1178  -0.1046  -0.0806  -0.0311  -0.0075   0.0521   0.1121   0.1488
     0.1882   0.2009   0.2882   0.3177   0.3948   0.4095   0.4477   0.5106
     0.5272   0.5531   0.5705   0.5828   0.6170   0.6328   0.6670   0.7336
     0.7658   0.8671   0.9158   1.1996   1.2851   1.5940   1.6174   1.7208
     1.9022   2.2993   2.3485   3.7849   3.8461   3.8866   3.9293   3.9330
     4.0146   4.1451   4.2881   4.2976   4.3088   4.3157

[...]

          k = 0.0380-0.0419 0.0000 ( 17876 PWs)   bands (ev):

[...]

          k =-0.0760-0.0000 0.0000 ( 17886 PWs)   bands (ev):

[...]

          k =-0.0760-0.0839 0.0000 ( 17948 PWs)   bands (ev):

   -55.2928 -55.2900 -55.2410 -55.2401 -55.1567 -55.1556 -55.1442 -55.1341
   -55.1298 -55.0778 -55.0692 -55.0667 -55.0251 -54.9811 -54.2842 -54.2839
   -31.6841 -31.6791 -31.5889 -31.5834 -31.5673 -31.5666 -31.5578 -31.5315
   -31.5307 -31.5101 -31.5052 -31.5033 -31.4902 -31.4640 -31.4591 -31.4578
   -31.4321 -31.4315 -31.4249 -31.4040 -31.3816 -31.3794 -31.3693 -31.3654
   -31.3647 -31.3604 -31.3597 -31.3511 -31.3494 -31.3434 -31.3396 -31.3243
   -31.3214 -31.3088 -31.3057 -31.2945 -31.2659 -31.2489 -31.2469 -31.2444
   -31.2272 -31.1742 -30.6058 -30.6056 -30.5240 -30.5237 -30.4841 -30.4840
   -16.7638 -15.8212 -15.5903 -15.5409 -15.5001 -15.4055 -15.3318 -15.3008
   -15.2906 -15.2775 -15.1515 -15.1234 -15.1139 -15.0857 -15.0539 -15.0294
   -15.0256 -14.9906 -14.9335 -14.9274 -14.9195 -14.9113 -14.8476 -14.8394
   -14.8356 -14.8288 -14.7632 -14.7608 -14.6789 -14.6769 -12.7882 -12.7882
   -10.0406  -5.8548  -4.8697  -4.4049  -3.5484  -2.8248  -2.7972  -2.7453
    -2.7112  -2.6139  -2.5285  -2.5010  -2.4645  -2.4068  -2.3546  -2.3073
    -2.3051  -2.2694  -2.2499  -2.2310  -2.1874  -2.1657  -2.1432  -2.1250
    -2.1103  -2.0566  -2.0538  -2.0447  -2.0203  -1.9861  -1.9688  -1.9558
    -1.9390  -1.9208  -1.8952  -1.8760  -1.7331  -1.7122  -1.6716  -1.5545
    -1.5365  -1.5331  -1.5000  -1.4563  -1.4315  -1.4239  -1.3498  -1.3428
    -1.3107  -1.1532  -1.0809  -1.0791  -1.0559  -1.0319  -0.9368  -0.8853
    -0.8449  -0.7950  -0.7192  -0.6879  -0.6691  -0.5967  -0.5697  -0.4782
    -0.3888  -0.3620  -0.3538  -0.2763  -0.2748  -0.2415  -0.2284  -0.1593
    -0.0990  -0.0475  -0.0436  -0.0394   0.0891   0.1262   0.2063   0.3204
     0.4008   0.4092   0.4604   0.5207   0.6049   0.6499   0.6659   0.7875
     0.7894   0.9758   0.9791   1.0275   1.0425   1.1229   1.1280   2.0749
     2.0756   2.1681   2.1684   3.7603   3.9434   3.9976   4.0704   4.0959
     4.1939   4.2788   4.3125   4.3426   4.3654   4.3716

     the Fermi energy is     3.8534 ev

!    total energy              =   -2922.77375395 Ry
     estimated scf accuracy    <       0.00000003 Ry
     smearing contrib. (-TS)   =      -0.04551907 Ry
     internal energy E=F+TS    =   -2922.72823488 Ry

     The total energy is F=E-TS. E is the sum of the following terms:
     one-electron contribution =  -23201.25209556 Ry
     hartree contribution      =   11690.90146278 Ry
     xc contribution           =    -482.55374893 Ry
     ewald contribution        =    9070.17243231 Ry
     electric field correction =       0.00371452 Ry

     convergence has been achieved in  87 iterations

     Forces acting on atoms (cartesian axes, Ry/au):

     atom    1 type  1   force =     0.00016777   -0.00007497    0.09299160
     atom    2 type  1   force =    -0.00000080   -0.00014388   -0.17882721
     atom    3 type  2   force =     0.00002180   -0.00029647   -0.02021524
     atom    4 type  2   force =    -0.00000213   -0.00224462    0.06098561
     atom    5 type  2   force =    -0.01149993   -0.00128093    0.01054508
     atom    6 type  2   force =     0.01241217   -0.00058549    0.00810855
     atom    7 type  1   force =    -0.00124369    0.00346500   -0.01489891
     atom    8 type  1   force =     0.00123165   -0.00358464   -0.00844889
     atom    9 type  2   force =     0.00001453   -0.00004981   -0.00025139
     atom   10 type  2   force =    -0.00281293   -0.00047732    0.00153717
     atom   11 type  2   force =     0.00010695   -0.00023303   -0.00030001
     atom   12 type  2   force =     0.00001890    0.00008739   -0.00010970
     atom   13 type  1   force =    -0.00019173   -0.00031549   -0.00061635
     atom   14 type  1   force =    -0.00003719   -0.00004137    0.00019395
     atom   15 type  2   force =    -0.00011535   -0.00024729   -0.00012654
     atom   16 type  2   force =     0.00032457    0.00034858   -0.00010307
     atom   17 type  2   force =     0.00078658    0.00028387   -0.00023707
     atom   18 type  2   force =     0.00008956   -0.00027419   -0.00003387
     atom   19 type  1   force =     0.00026835    0.00044822   -0.00037113
     atom   20 type  1   force =     0.00010808    0.00006724    0.00049768
     atom   21 type  2   force =     0.00012653   -0.00003540    0.10426163
     atom   22 type  2   force =    -0.00049329    0.00016943    0.00017570
     atom   23 type  2   force =    -0.06991219   -0.00010470   -0.02678448
     atom   24 type  2   force =     0.06988367    0.00035347   -0.02678686
     atom   25 type  1   force =     0.00019049   -0.00021486    0.09227386
     atom   26 type  1   force =    -0.00006804   -0.00036473   -0.17902970
     atom   27 type  2   force =     0.00004079   -0.00025837   -0.01894816
     atom   28 type  2   force =     0.00006527   -0.00192345    0.06023471
     atom   29 type  2   force =    -0.01169124   -0.00162537    0.01033719
     atom   30 type  2   force =     0.01247635   -0.00120749    0.00786772
     atom   31 type  1   force =    -0.00101024    0.00608175   -0.01578274
     atom   32 type  1   force =     0.00116718    0.00334460   -0.00863424
     atom   33 type  2   force =     0.00003079    0.00020134   -0.00023968
     atom   34 type  2   force =    -0.00240644   -0.00053684    0.00059352
     atom   35 type  2   force =    -0.00001053   -0.00000320    0.00004401
     atom   36 type  2   force =     0.00005157   -0.00007805    0.00035841
     atom   37 type  1   force =     0.00035550   -0.00003801   -0.00004232
     atom   38 type  1   force =    -0.00034733   -0.00030661    0.00044359
     atom   39 type  2   force =     0.00036688   -0.00014048    0.00062917
     atom   40 type  2   force =     0.00025136   -0.00017587    0.00003374
     atom   41 type  2   force =     0.00005305    0.00036014   -0.00041429
     atom   42 type  2   force =     0.00049717    0.00022042   -0.00017560
     atom   43 type  1   force =     0.00026397   -0.00019413   -0.00034500
     atom   44 type  1   force =     0.00013857   -0.00128866    0.00061241
     atom   45 type  2   force =     0.00011784   -0.00005238    0.10420553
     atom   46 type  2   force =    -0.06992148   -0.00006069   -0.02677591
     atom   47 type  2   force =     0.06991029    0.00034452   -0.02679703
     atom   48 type  3   force =     0.00142125    0.00010128   -0.00173015
     atom   49 type  4   force =    -0.00374516    0.00300352    0.00774922
     atom   50 type  5   force =     0.00476040   -0.00182212   -0.00893401
     atom   51 type  5   force =    -0.00115149   -0.00015322    0.00092727
     atom   52 type  5   force =    -0.00030401   -0.00024962    0.00056084
     atom   53 type  5   force =     0.00011346    0.00071556   -0.00099619
     atom   54 type  5   force =    -0.00031467    0.00026499   -0.00048151
     atom   55 type  5   force =    -0.00055344    0.00082246    0.00126914

     Total force =     0.367853     Total SCF correction =     0.000391
  @ DRIVER MODE: Message from server: STATUS
  @ DRIVER MODE: Message from server: GETFORCE
  @ DRIVER MODE: Returning v,forces,stress,ensemble

     Writing output data file ./calc.save/
  @ DRIVER MODE: Message from server: EXIT
  @ DRIVE MODE: Exiting

     General routines

     Parallel routines

   This run was terminated on:  18:15:22   2Aug2021

   JOB DONE.