     Program PWSCF v.6.7GPU starts on  2Aug2021 at 19:41:40

     R & G space division:  proc/nbgrp/npool/nimage =      16
     Reading input from /storage/home/hcoda1/3/ntian30/research/carbon/02Aug_vib_paired/ads_slab/CH3NH3_a/out_0022/pw.inp
Warning: card &CELL ignored
Warning: card   CELL_DYNAMICS='IPI', ignored
Warning: card / ignored

     Current dimensions of program PWSCF are:
     Max number of different atomic species (ntypx) = 10
     Max number of k-points (npk) =  40000
     Max angular momentum in pseudopotentials (lmaxx) =  3
     Presently no symmetry can be used with electric field

     Message from routine cell_base_init:
     DEPRECATED: use true lattice parameter, not A to a.u. conversion factor

     IMPORTANT: XC functional enforced from input :
     Exchange-correlation= BEEF-VDW
                           (   1   4  43  14   2   0   0)
     Any further DFT definition will be discarded
     Please, verify this is what you really want

  @ DRIVER MODE: Connecting to
 qe_1139763_2482539.sched-torque.pace.gatech.educ_7nllue_scratch
  using UNIX socket
  @ DRIVER MODE: Message from server: STATUS
  @ DRIVER MODE: Message from server: INIT
  @ DRIVER MODE: Receiving replica           0          -1
  @ DRIVER MODE: Receiving encoded integer          25
  @ DRIVER MODE:  SCF:  T  FORCE:  T  STRESS:  F  VC:  F  ENSEMBLE:  F
  @ DRIVER MODE:  SCF:  T  FORCE:  T  STRESS:  F  VC:  F  ENSEMBLE:  F

     Using Slab Decomposition

     bravais-lattice index     =            0
     lattice parameter (alat)  =       1.8897  a.u.
     unit-cell volume          =    6658.9804 (a.u.)^3
     number of atoms/cell      =           55
     number of atomic types    =            5
     number of electrons       =       393.00
     number of Kohn-Sham states=          206
     kinetic-energy cutoff     =      29.3995  Ry
     charge density cutoff     =     293.9946  Ry
     scf convergence threshold =      7.3E-08
     mixing beta               =       0.0500
     number of iterations used =            8  plain     mixing
     Exchange-correlation= BEEF-VDW
                           (   1   4  43  14   2   0   0)

     celldm(1)=   1.889726  celldm(2)=   0.000000  celldm(3)=   0.000000
     celldm(4)=   0.000000  celldm(5)=   0.000000  celldm(6)=   0.000000

     crystal axes: (cart. coord. in units of alat)
               a(1) = (   6.579727   0.000000   0.000000 )
               a(2) = (  -0.000775   5.961596   0.000000 )
               a(3) = (   0.000000   0.000000  25.155947 )

     reciprocal axes: (cart. coord. in units 2 pi/alat)
               b(1) = (  0.151982  0.000020  0.000000 )
               b(2) = (  0.000000  0.167740  0.000000 )
               b(3) = (  0.000000  0.000000  0.039752 )

     PseudoPot. # 1 for Ti read from file:
     /storage/coda1/p-amedford6/0/shared/rich_project_chbe-medford/medford-share/data/pseudos_module/espresso/nninc/pbe/van/Ti.UPF
     MD5 check sum: 8e4df49b7f0d34bbd5052bf3f5ea0213
     Pseudo is Ultrasoft, Zval = 12.0
     Generated by new atomic code, or converted to UPF format
     Using radial grid of  851 points,  6 beta functions with:
                l(1) =   0
                l(2) =   0
                l(3) =   1
                l(4) =   1
                l(5) =   2
                l(6) =   2
     Q(r) pseudized with  8 coefficients,  rinner =    1.000   1.000   1.000
                                                       1.000   1.000

     PseudoPot. # 2 for O  read from file:
     /storage/coda1/p-amedford6/0/shared/rich_project_chbe-medford/medford-share/data/pseudos_module/espresso/nninc/pbe/van/O.UPF
     MD5 check sum: 78c19812648e8988a0fe644b0f25305e
     Pseudo is Ultrasoft, Zval =  6.0
     Generated by new atomic code, or converted to UPF format
     Using radial grid of  737 points,  4 beta functions with:
                l(1) =   0
                l(2) =   0
                l(3) =   1
                l(4) =   1
     Q(r) pseudized with  8 coefficients,  rinner =    0.800   0.800   0.800

     PseudoPot. # 3 for C  read from file:
     /storage/coda1/p-amedford6/0/shared/rich_project_chbe-medford/medford-share/data/pseudos_module/espresso/nninc/pbe/van/C.UPF
     MD5 check sum: 1a69bf6b8db32088f5b2163dbdb77a27
     Pseudo is Ultrasoft, Zval =  4.0
     Generated by new atomic code, or converted to UPF format
     Using radial grid of  721 points,  4 beta functions with:
                l(1) =   0
                l(2) =   0
                l(3) =   1
                l(4) =   1
     Q(r) pseudized with  8 coefficients,  rinner =    0.800   0.800   0.800

     PseudoPot. # 4 for H  read from file:
     /storage/coda1/p-amedford6/0/shared/rich_project_chbe-medford/medford-share/data/pseudos_module/espresso/nninc/pbe/van/H.UPF
     MD5 check sum: b5ee9d7bfd3a09ee7748110bda690ff7
     Pseudo is Ultrasoft, Zval =  1.0
     Generated by new atomic code, or converted to UPF format
     Using radial grid of  615 points,  1 beta functions with:
                l(1) =   0
     Q(r) pseudized with  8 coefficients,  rinner =    0.800

     PseudoPot. # 5 for N  read from file:
     /storage/coda1/p-amedford6/0/shared/rich_project_chbe-medford/medford-share/data/pseudos_module/espresso/nninc/pbe/van/N.UPF
     MD5 check sum: 90d10febe142ad51ac9d5be1deb811c4
     Pseudo is Ultrasoft, Zval =  5.0
     Generated by new atomic code, or converted to UPF format
     Using radial grid of  729 points,  4 beta functions with:
                l(1) =   0
                l(2) =   0
                l(3) =   1
                l(4) =   1
     Q(r) pseudized with  8 coefficients,  rinner =    0.800   0.800   0.800

     atomic species   valence    mass     pseudopotential
        Ti1           12.00    47.86700     Ti( 1.00)
        O1             6.00    15.99900     O ( 1.00)
        C1             4.00    12.01100     C ( 1.00)
        H1             1.00     1.00800     H ( 1.00)
        N1             5.00    14.00700     N ( 1.00)

     No symmetry found

   Cartesian axes

     site n.     atom                  positions (alat units)
         1           Ti1 tau(   1) = (   0.0004258   2.9801865   6.0000000  )
         2           Ti1 tau(   2) = (   3.2906075   1.4906267   6.0002472  )
         3           O1  tau(   3) = (   0.0006271   0.0005054   7.9858123  )
         4           O1  tau(   4) = (   3.2906025   0.0005020   7.3038282  )
         5           O1  tau(   5) = (   4.5942328   1.4918067   9.2879030  )
         6           O1  tau(   6) = (   1.9868534   1.4903216   9.2879459  )
         7           Ti1 tau(   7) = (   3.2907910   2.8959150   9.1758416  )
         8           Ti1 tau(   8) = (   0.0015273   1.4827037   9.2680791  )
         9           O1  tau(   9) = (   3.2981156   0.0012339  11.3300471  )
        10           O1  tau(  10) = (   0.0116148   5.9584955  10.6183126  )
        11           O1  tau(  11) = (   1.3033605   1.5036236  12.6199488  )
        12           O1  tau(  12) = (   5.2811161   1.5074500  12.6162500  )
        13           Ti1 tau(  13) = (   0.0407500   2.9455431  12.6352795  )
        14           Ti1 tau(  14) = (   3.3444429   1.4910927  12.4779025  )
        15           O1  tau(  15) = (   0.0052662   0.0451097  14.6026341  )
        16           O1  tau(  16) = (   3.2946143   0.0124870  13.9210852  )
        17           O1  tau(  17) = (   4.5465206   1.5046604  16.0624161  )
        18           O1  tau(  18) = (   2.0546879   1.5048301  16.0609706  )
        19           Ti1 tau(  19) = (   3.2991624   2.9918142  15.6995589  )
        20           Ti1 tau(  20) = (   6.5707204   1.4025535  15.8059435  )
        21           O1  tau(  21) = (   3.2904802   0.0005063   4.7018136  )
        22           O1  tau(  22) = (   0.0164654   0.0145536  17.1360041  )
        23           O1  tau(  23) = (   1.3043587   1.4918075   6.0039043  )
        24           O1  tau(  24) = (   5.2767064   1.4903225   6.0039473  )
        25           Ti1 tau(  25) = (   0.0000382   5.9609847   6.0000000  )
        26           Ti1 tau(  26) = (   3.2902200   4.4714249   6.0002472  )
        27           O1  tau(  27) = (   0.0002396   2.9813036   7.9858123  )
        28           O1  tau(  28) = (   3.2902150   2.9813002   7.3038282  )
        29           O1  tau(  29) = (   4.5938453   4.4726049   9.2879030  )
        30           O1  tau(  30) = (   1.9864658   4.4711199   9.2879459  )
        31           Ti1 tau(  31) = (   3.2891106   5.8743827   9.1763621  )
        32           Ti1 tau(  32) = (   0.0006254   4.4649316   9.2693709  )
        33           O1  tau(  33) = (   3.2977166   2.9913250  11.3287690  )
        34           O1  tau(  34) = (   0.0092240   2.9805883  10.6323155  )
        35           O1  tau(  35) = (   1.3008534   4.4801743  12.6308489  )
        36           O1  tau(  36) = (   5.2850400   4.4860598  12.6280017  )
        37           Ti1 tau(  37) = (   0.0409916   5.9178611  12.5441859  )
        38           Ti1 tau(  38) = (   3.3442415   4.4710906  12.4862270  )
        39           O1  tau(  39) = (   0.0109228   2.9791018  14.7123696  )
        40           O1  tau(  40) = (   3.2998940   2.9912248  13.9043662  )
        41           O1  tau(  41) = (   4.5474046   4.4713503  16.0779382  )
        42           O1  tau(  42) = (   2.0618872   4.4767818  16.0643778  )
        43           Ti1 tau(  43) = (   3.2722838   0.0128901  15.7174356  )
        44           Ti1 tau(  44) = (   6.5592075   4.4947239  16.1563676  )
        45           O1  tau(  45) = (   3.2900926   2.9813045   4.7018136  )
        46           O1  tau(  46) = (   1.3039711   4.4726057   6.0039043  )
        47           O1  tau(  47) = (   5.2763189   4.4711207   6.0039473  )
        48           C1  tau(  48) = (   0.0359503   3.0870652  17.8341721  )
        49           H1  tau(  49) = (   5.8142062   3.6010452  18.3763092  )
        50           H1  tau(  50) = (   6.4784518   2.0305676  18.0614951  )
        51           H1  tau(  51) = (   0.9863100   3.3882628  18.2908018  )
        52           N1  tau(  52) = (   4.7642638   1.7931862  21.6370373  )
        53           H1  tau(  53) = (   4.5527921   2.7808570  21.5386679  )
        54           H1  tau(  54) = (   4.1042548   1.2952780  21.0483319  )
        55           H1  tau(  55) = (   4.5435699   1.5432347  22.5953497  )

     number of k points=    10  Fermi-Dirac smearing, width (Ry)=  0.0073
                       cart. coord. in units 2pi/alat
        k(    1) = (   0.0000000   0.0000000   0.0000000), wk =   0.1250000
        k(    2) = (   0.0000000   0.0419351   0.0000000), wk =   0.2500000
        k(    3) = (   0.0000000  -0.0838702   0.0000000), wk =   0.1250000
        k(    4) = (   0.0379955   0.0000049   0.0000000), wk =   0.2500000
        k(    5) = (   0.0379955   0.0419400   0.0000000), wk =   0.2500000
        k(    6) = (   0.0379955  -0.0838652   0.0000000), wk =   0.2500000
        k(    7) = (   0.0379955  -0.0419301   0.0000000), wk =   0.2500000
        k(    8) = (  -0.0759910  -0.0000099   0.0000000), wk =   0.1250000
        k(    9) = (  -0.0759910   0.0419252   0.0000000), wk =   0.2500000
        k(   10) = (  -0.0759910  -0.0838800   0.0000000), wk =   0.1250000

     Initial potential from superposition of free atoms

     starting charge  376.99914, renormalised to  393.00000

     negative rho (up, down):  1.000E-02 0.000E+00

     %%%%%%%%%%%%%%%%%%%%%%%%%%%%%%%%%%%%%%%%%%%%%%%%%%%%%%%%%%%%%%%%%%%%%%%%
     %                                                                      %
     % You are using vdW-DF, which was implemented by the Thonhauser group. %
     % Please cite the following two papers that made this development      %
     % possible and the two reviews that describe the various versions:     %
     %                                                                      %
     %   T. Thonhauser et al., PRL 115, 136402 (2015).                      %
     %   T. Thonhauser et al., PRB 76, 125112 (2007).                       %
     %   K. Berland et al., Rep. Prog. Phys. 78, 066501 (2015).             %
     %   D.C. Langreth et al., J. Phys.: Condens. Matter 21, 084203 (2009). %
     %                                                                      %
     %                                                                      %
     % If you are calculating the stress with vdW-DF, please also cite:     %
     %                                                                      %
     %   R. Sabatini et al., J. Phys.: Condens. Matter 24, 424209 (2012).   %
     %                                                                      %
     %%%%%%%%%%%%%%%%%%%%%%%%%%%%%%%%%%%%%%%%%%%%%%%%%%%%%%%%%%%%%%%%%%%%%%%%

     Adding external electric field

     Computed dipole along edir(3) :
        Dipole               -9.0616 Ry au,        -23.0322 Debye
        Dipole field         -0.0171 Ry au,

        Potential amp.        1.5852 Ry
        Total length         46.3494 bohr

     Starting wfcs are  298 atomic wfcs
  @ DRIVER MODE: Message from server: STATUS
  @ DRIVER MODE: Message from server: POSDATA
  @ DRIVER MODE: Reading and sharing cell
  @ DRIVER MODE: Reading and sharing positions
  @ DRIVER MODE: Received positions

     Self-consistent Calculation

     iteration #  1     ecut=    29.40 Ry     beta= 0.05
     Davidson diagonalization with overlap
     c_bands:  1 eigenvalues not converged
     c_bands:  1 eigenvalues not converged
     c_bands:  1 eigenvalues not converged
     ethr =  1.00E-05,  avg # of iterations = 17.8

[...]

     total energy              =   -2692.43321402 Ry
     estimated scf accuracy    <    2566.22542147 Ry

[...]

     iteration #  3     ecut=    29.40 Ry     beta= 0.05
     Davidson diagonalization with overlap
     ethr =  1.00E-02,  avg # of iterations = 16.4

[...]

     iteration # 71     ecut=    29.40 Ry     beta= 0.05
     Davidson diagonalization with overlap
     c_bands:  1 eigenvalues not converged
     ethr =  2.75E-11,  avg # of iterations = 14.3

[...]

     total energy              =   -2922.78955515 Ry
     estimated scf accuracy    <       0.00000009 Ry

     iteration # 78     ecut=    29.40 Ry     beta= 0.05
     Davidson diagonalization with overlap
     ethr =  2.41E-11,  avg # of iterations =  2.2

     negative rho (up, down):  1.131E-02 0.000E+00

     Adding external electric field

     Computed dipole along edir(3) :
        Dipole                0.5506 Ry au,          1.3994 Debye
        Dipole field          0.0010 Ry au,

        Potential amp.       -0.0963 Ry
        Total length         46.3494 bohr

     End of self-consistent calculation

          k = 0.0000 0.0000 0.0000 ( 18029 PWs)   bands (ev):

   -56.0342 -56.0303 -56.0002 -55.9938 -55.9016 -55.8668 -55.8663 -55.8421
   -55.8233 -55.8081 -55.8031 -55.7694 -55.5692 -55.4018 -55.0099 -54.9758
   -32.5886 -32.5162 -32.3611 -32.3550 -32.3414 -32.3402 -32.3272 -32.2938
   -32.2767 -32.2396 -32.2336 -32.2329 -32.2097 -32.1863 -32.1734 -32.1672
   -32.1382 -32.1353 -32.1214 -32.0913 -32.0812 -32.0700 -32.0387 -32.0339
   -32.0296 -32.0278 -32.0133 -32.0119 -32.0055 -31.9801 -31.9797 -31.9771
   -31.9721 -31.9714 -31.9563 -31.9470 -31.9154 -31.8480 -31.7833 -31.6894
   -31.6305 -31.5193 -31.4169 -31.3288 -31.3063 -31.2336 -31.1471 -31.0361
   -16.7685 -16.5053 -16.2732 -16.1827 -16.1327 -16.0461 -15.8688 -15.7523
   -15.7037 -15.6029 -15.5706 -15.5504 -15.5341 -15.5035 -15.4953 -15.4703
   -15.4590 -15.4528 -15.4180 -15.3903 -15.3650 -15.3504 -15.2304 -15.1782
   -15.1622 -15.1308 -15.0829 -15.0666 -14.6123 -13.6553 -13.5125 -13.3961
    -9.0418  -4.1432  -3.9630  -3.9380  -3.8893  -3.8475  -3.7139  -3.6966
    -3.6451  -3.5845  -3.2673  -3.2098  -3.2018  -3.1608  -3.1461  -2.9907
    -2.9251  -2.8509  -2.8337  -2.8288  -2.8031  -2.7979  -2.7934  -2.7505
    -2.7082  -2.6543  -2.6299  -2.5576  -2.5187  -2.4442  -2.3709  -2.3440
    -2.3015  -2.2971  -2.2624  -2.2505  -2.2419  -2.2320  -2.1967  -2.1781
    -2.0016  -1.9473  -1.8831  -1.8167  -1.8028  -1.6387  -1.5318  -1.4843
    -1.4654  -1.4583  -1.4399  -1.4233  -1.3274  -1.2092  -1.1764  -1.1267
    -1.0788  -1.0303  -1.0005  -0.9001  -0.8835  -0.7928  -0.7793  -0.7608
    -0.6472  -0.6253  -0.4915  -0.4701  -0.4642  -0.4040  -0.3884  -0.3155
    -0.2913  -0.2348  -0.1696  -0.1574  -0.0893  -0.0631  -0.0602  -0.0032
     0.0012   0.0465   0.0606   0.1710   0.2266   0.2760   0.3299   0.4359
     0.5162   0.6305   0.6773   0.7367   0.9382   1.0118   1.1215   1.1847
     1.2050   1.4667   1.5831   1.6286   3.1045   3.1895   3.2113   3.2370
     3.3445   3.3696   3.5549   3.5718   3.6063   3.6262

[...]

          k = 0.0380-0.0419 0.0000 ( 17876 PWs)   bands (ev):

[...]

          k =-0.0760-0.0000 0.0000 ( 17886 PWs)   bands (ev):

[...]

          k =-0.0760-0.0839 0.0000 ( 17948 PWs)   bands (ev):

   -56.0176 -56.0166 -56.0149 -56.0090 -55.8866 -55.8816 -55.8579 -55.8318
   -55.8258 -55.8238 -55.7875 -55.7851 -55.5677 -55.4031 -54.9929 -54.9927
   -32.3945 -32.3880 -32.3318 -32.3312 -32.3130 -32.3123 -32.2933 -32.2886
   -32.2223 -32.2213 -32.2183 -32.2075 -32.1671 -32.1662 -32.1470 -32.1426
   -32.1385 -32.1371 -32.1360 -32.1277 -32.1267 -32.1239 -32.0880 -32.0776
   -32.0728 -32.0507 -32.0464 -32.0327 -32.0240 -32.0230 -32.0192 -32.0173
   -32.0020 -32.0007 -31.9966 -31.9903 -31.9258 -31.8309 -31.7855 -31.6922
   -31.6747 -31.5635 -31.3191 -31.3190 -31.2298 -31.2296 -31.1905 -31.1904
   -16.2103 -16.1873 -15.9811 -15.9468 -15.9435 -15.9362 -15.8055 -15.7254
   -15.7249 -15.6988 -15.6376 -15.6263 -15.6047 -15.5661 -15.5416 -15.5393
   -15.5205 -15.5156 -15.4894 -15.4793 -15.4665 -15.4593 -15.3665 -15.3471
   -15.3432 -15.2935 -15.1482 -15.0017 -14.8933 -13.6545 -13.4981 -13.4979
    -9.0563  -3.7162  -3.7075  -3.5065  -3.4752  -3.2329  -3.1946  -3.1815
    -3.1126  -2.9561  -2.9166  -2.8986  -2.8908  -2.8466  -2.8390  -2.8336
    -2.8221  -2.7935  -2.7765  -2.7392  -2.7326  -2.7182  -2.7108  -2.6996
    -2.6825  -2.6527  -2.6442  -2.6174  -2.6084  -2.5894  -2.5719  -2.5437
    -2.5391  -2.4134  -2.2522  -2.2283  -2.1676  -2.1603  -2.1104  -2.0996
    -2.0946  -2.0671  -2.0342  -2.0110  -1.8501  -1.7408  -1.7260  -1.7093
    -1.6407  -1.6128  -1.5284  -1.4375  -1.3965  -1.3783  -1.3106  -1.3065
    -1.2558  -1.2317  -1.2112  -1.1436  -1.0867  -1.0505  -0.9929  -0.9870
    -0.9785  -0.9086  -0.8661  -0.7913  -0.7826  -0.7456  -0.7106  -0.6551
    -0.6185  -0.6098  -0.5196  -0.4873  -0.3749  -0.3262  -0.0680  -0.0206
     0.0332   0.0614   0.1269   0.1846   0.1893   0.2860   0.2898   0.3261
     0.4058   0.4270   0.4980   0.5173   0.5673   0.7292   1.2806   1.3759
     1.3767   1.4482   1.4486   1.4573   3.4025   3.4142   3.4214   3.4659
     3.6110   3.6157   3.6342   3.6358   3.7778   3.7979

     the Fermi energy is     3.1011 ev

!    total energy              =   -2922.78956583 Ry
     estimated scf accuracy    <       0.00000007 Ry
     smearing contrib. (-TS)   =      -0.02169371 Ry
     internal energy E=F+TS    =   -2922.76787212 Ry

     The total energy is F=E-TS. E is the sum of the following terms:
     one-electron contribution =  -23651.32902348 Ry
     hartree contribution      =   11909.87185710 Ry
     xc contribution           =    -482.26159807 Ry
     ewald contribution        =    9300.95032031 Ry
     electric field correction =       0.00057202 Ry

     convergence has been achieved in  78 iterations

     Forces acting on atoms (cartesian axes, Ry/au):

     atom    1 type  1   force =     0.00004771   -0.00022670    0.09684006
     atom    2 type  1   force =    -0.00017571   -0.00055546   -0.17514339
     atom    3 type  2   force =     0.00002243   -0.00004927   -0.02503910
     atom    4 type  2   force =     0.00002730   -0.00139906    0.05264190
     atom    5 type  2   force =    -0.01204825   -0.00050912    0.00331422
     atom    6 type  2   force =     0.01377506    0.00008745    0.00271308
     atom    7 type  1   force =    -0.00057982    0.00056571   -0.01155117
     atom    8 type  1   force =     0.00020456    0.01201254    0.02900727
     atom    9 type  2   force =    -0.00029704    0.00056865    0.00057774
     atom   10 type  2   force =    -0.00153538    0.00252407   -0.01945568
     atom   11 type  2   force =    -0.00019297   -0.00037634   -0.00013533
     atom   12 type  2   force =    -0.00089419    0.00003642   -0.00028939
     atom   13 type  1   force =     0.00054881   -0.00097274    0.00108988
     atom   14 type  1   force =     0.00145685    0.00057721   -0.00066745
     atom   15 type  2   force =    -0.00015423   -0.00101759    0.00041805
     atom   16 type  2   force =    -0.00020899   -0.00020255   -0.00146392
     atom   17 type  2   force =    -0.00061258    0.00075399    0.00001000
     atom   18 type  2   force =     0.00048143    0.00092499   -0.00000339
     atom   19 type  1   force =    -0.00019135   -0.00109764    0.00060489
     atom   20 type  1   force =    -0.00006606    0.00044685   -0.00019163
     atom   21 type  2   force =     0.00004801   -0.00003956    0.10320677
     atom   22 type  2   force =     0.00024220   -0.00022036    0.00098458
     atom   23 type  2   force =    -0.07155400   -0.00014131   -0.02770288
     atom   24 type  2   force =     0.07144667    0.00026952   -0.02773515
     atom   25 type  1   force =     0.00005552   -0.00028402    0.09643176
     atom   26 type  1   force =    -0.00019491   -0.00029388   -0.17537072
     atom   27 type  2   force =     0.00008602   -0.00016915   -0.02382972
     atom   28 type  2   force =     0.00004454   -0.00113877    0.05272567
     atom   29 type  2   force =    -0.01208886    0.00085176    0.00278103
     atom   30 type  2   force =     0.01373243    0.00123985    0.00219821
     atom   31 type  1   force =    -0.00046875    0.00303246   -0.01240705
     atom   32 type  1   force =     0.00018787   -0.01423339    0.02941870
     atom   33 type  2   force =    -0.00023149   -0.00062268    0.00043272
     atom   34 type  2   force =    -0.00098154    0.00176507   -0.02266011
     atom   35 type  2   force =    -0.00068240   -0.00060336   -0.00011284
     atom   36 type  2   force =     0.00003594   -0.00014898   -0.00032891
     atom   37 type  1   force =     0.00065330    0.00026951    0.00055343
     atom   38 type  1   force =     0.00150925    0.00019082   -0.00066848
     atom   39 type  2   force =     0.00006975    0.00013590   -0.00126425
     atom   40 type  2   force =    -0.00034827   -0.00009927    0.00176714
     atom   41 type  2   force =    -0.00082087   -0.00103258   -0.00017627
     atom   42 type  2   force =     0.00030605   -0.00144736    0.00022101
     atom   43 type  1   force =     0.00022874    0.00063971    0.00104237
     atom   44 type  1   force =     0.00038970   -0.00035789    0.00070371
     atom   45 type  2   force =     0.00005692   -0.00009225    0.10316384
     atom   46 type  2   force =    -0.07154159   -0.00011618   -0.02770869
     atom   47 type  2   force =     0.07144735    0.00031322   -0.02773869
     atom   48 type  3   force =     0.00226639    0.00298670    0.00044597
     atom   49 type  4   force =    -0.00129279   -0.00011306   -0.00073336
     atom   50 type  4   force =     0.00070118   -0.00023804    0.00151711
     atom   51 type  4   force =    -0.00325370   -0.00248797   -0.00149483
     atom   52 type  5   force =    -0.00008106   -0.00018490   -0.00037231
     atom   53 type  4   force =     0.00064383   -0.00004048   -0.00037117
     atom   54 type  4   force =     0.00006290    0.00019823   -0.00011126
     atom   55 type  4   force =    -0.00028190    0.00012130   -0.00008397

     Total force =     0.368380     Total SCF correction =     0.000962
  @ DRIVER MODE: Message from server: STATUS
  @ DRIVER MODE: Message from server: GETFORCE
  @ DRIVER MODE: Returning v,forces,stress,ensemble

     Writing output data file ./calc.save/
  @ DRIVER MODE: Message from server: EXIT
  @ DRIVE MODE: Exiting

     General routines

     Parallel routines

   This run was terminated on:  19:58:31   2Aug2021

   JOB DONE.