     Program PWSCF v.6.7GPU starts on 16Sep2021 at  3:54:26

     R & G space division:  proc/nbgrp/npool/nimage =      10
     Reading input from /storage/home/hcoda1/3/ntian30/research/carbon/CxH_vib/H2O_calc/ads_slab/CHN2H2O_c/out_0039/pw.inp
Warning: card &CELL ignored
Warning: card   CELL_DYNAMICS='IPI', ignored
Warning: card / ignored

     Current dimensions of program PWSCF are:
     Max number of different atomic species (ntypx) = 10
     Max number of k-points (npk) =  40000
     Max angular momentum in pseudopotentials (lmaxx) =  3
     Presently no symmetry can be used with electric field

     Message from routine cell_base_init:
     DEPRECATED: use true lattice parameter, not A to a.u. conversion factor

     IMPORTANT: XC functional enforced from input :
     Exchange-correlation= BEEF-VDW
                           (   1   4  43  14   2   0   0)
     Any further DFT definition will be discarded
     Please, verify this is what you really want

  @ DRIVER MODE: Connecting to
 qe_1139763_2852625.sched-torque.pace.gatech.edu4nv5utu0_scratch
  using UNIX socket
  @ DRIVER MODE: Message from server: STATUS
  @ DRIVER MODE: Message from server: INIT
  @ DRIVER MODE: Receiving replica           0          -1
  @ DRIVER MODE: Receiving encoded integer          25
  @ DRIVER MODE:  SCF:  T  FORCE:  T  STRESS:  F  VC:  F  ENSEMBLE:  F
  @ DRIVER MODE:  SCF:  T  FORCE:  T  STRESS:  F  VC:  F  ENSEMBLE:  F

     Using Slab Decomposition

     bravais-lattice index     =            0
     lattice parameter (alat)  =       1.8897  a.u.
     unit-cell volume          =    6658.9804 (a.u.)^3
     number of atoms/cell      =           54
     number of atomic types    =            5
     number of electrons       =       401.00
     number of Kohn-Sham states=          210
     kinetic-energy cutoff     =      29.3995  Ry
     charge density cutoff     =     293.9946  Ry
     scf convergence threshold =      7.3E-08
     mixing beta               =       0.0500
     number of iterations used =            8  plain     mixing
     Exchange-correlation= BEEF-VDW
                           (   1   4  43  14   2   0   0)

     celldm(1)=   1.889726  celldm(2)=   0.000000  celldm(3)=   0.000000
     celldm(4)=   0.000000  celldm(5)=   0.000000  celldm(6)=   0.000000

     crystal axes: (cart. coord. in units of alat)
               a(1) = (   6.579727   0.000000   0.000000 )
               a(2) = (  -0.000775   5.961596   0.000000 )
               a(3) = (   0.000000   0.000000  25.155947 )

     reciprocal axes: (cart. coord. in units 2 pi/alat)
               b(1) = (  0.151982  0.000020  0.000000 )
               b(2) = (  0.000000  0.167740  0.000000 )
               b(3) = (  0.000000  0.000000  0.039752 )

     PseudoPot. # 1 for Ti read from file:
     /storage/coda1/p-amedford6/0/shared/rich_project_chbe-medford/medford-share/data/pseudos_module/espresso/nninc/pbe/van/Ti.UPF
     MD5 check sum: 8e4df49b7f0d34bbd5052bf3f5ea0213
     Pseudo is Ultrasoft, Zval = 12.0
     Generated by new atomic code, or converted to UPF format
     Using radial grid of  851 points,  6 beta functions with:
                l(1) =   0
                l(2) =   0
                l(3) =   1
                l(4) =   1
                l(5) =   2
                l(6) =   2
     Q(r) pseudized with  8 coefficients,  rinner =    1.000   1.000   1.000
                                                       1.000   1.000

     PseudoPot. # 2 for O  read from file:
     /storage/coda1/p-amedford6/0/shared/rich_project_chbe-medford/medford-share/data/pseudos_module/espresso/nninc/pbe/van/O.UPF
     MD5 check sum: 78c19812648e8988a0fe644b0f25305e
     Pseudo is Ultrasoft, Zval =  6.0
     Generated by new atomic code, or converted to UPF format
     Using radial grid of  737 points,  4 beta functions with:
                l(1) =   0
                l(2) =   0
                l(3) =   1
                l(4) =   1
     Q(r) pseudized with  8 coefficients,  rinner =    0.800   0.800   0.800

     PseudoPot. # 3 for C  read from file:
     /storage/coda1/p-amedford6/0/shared/rich_project_chbe-medford/medford-share/data/pseudos_module/espresso/nninc/pbe/van/C.UPF
     MD5 check sum: 1a69bf6b8db32088f5b2163dbdb77a27
     Pseudo is Ultrasoft, Zval =  4.0
     Generated by new atomic code, or converted to UPF format
     Using radial grid of  721 points,  4 beta functions with:
                l(1) =   0
                l(2) =   0
                l(3) =   1
                l(4) =   1
     Q(r) pseudized with  8 coefficients,  rinner =    0.800   0.800   0.800

     PseudoPot. # 4 for H  read from file:
     /storage/coda1/p-amedford6/0/shared/rich_project_chbe-medford/medford-share/data/pseudos_module/espresso/nninc/pbe/van/H.UPF
     MD5 check sum: b5ee9d7bfd3a09ee7748110bda690ff7
     Pseudo is Ultrasoft, Zval =  1.0
     Generated by new atomic code, or converted to UPF format
     Using radial grid of  615 points,  1 beta functions with:
                l(1) =   0
     Q(r) pseudized with  8 coefficients,  rinner =    0.800

     PseudoPot. # 5 for N  read from file:
     /storage/coda1/p-amedford6/0/shared/rich_project_chbe-medford/medford-share/data/pseudos_module/espresso/nninc/pbe/van/N.UPF
     MD5 check sum: 90d10febe142ad51ac9d5be1deb811c4
     Pseudo is Ultrasoft, Zval =  5.0
     Generated by new atomic code, or converted to UPF format
     Using radial grid of  729 points,  4 beta functions with:
                l(1) =   0
                l(2) =   0
                l(3) =   1
                l(4) =   1
     Q(r) pseudized with  8 coefficients,  rinner =    0.800   0.800   0.800

     atomic species   valence    mass     pseudopotential
        Ti1           12.00    47.86700     Ti( 1.00)
        O1             6.00    15.99900     O ( 1.00)
        C1             4.00    12.01100     C ( 1.00)
        H1             1.00     1.00800     H ( 1.00)
        N1             5.00    14.00700     N ( 1.00)

     No symmetry found

   Cartesian axes

     site n.     atom                  positions (alat units)
         1           Ti1 tau(   1) = (   0.0004258   2.9801865   6.0000000  )
         2           Ti1 tau(   2) = (   3.2906075   1.4906267   6.0002472  )
         3           O1  tau(   3) = (   0.0006271   0.0005054   7.9858123  )
         4           O1  tau(   4) = (   3.2906025   0.0005020   7.3038282  )
         5           O1  tau(   5) = (   4.5942328   1.4918067   9.2879030  )
         6           O1  tau(   6) = (   1.9868534   1.4903216   9.2879459  )
         7           Ti1 tau(   7) = (   3.2907910   2.8959150   9.1758416  )
         8           Ti1 tau(   8) = (   0.0015273   1.4827037   9.2680791  )
         9           O1  tau(   9) = (   3.2982821   5.9591942  11.3418950  )
        10           O1  tau(  10) = (   0.0116148   5.9584955  10.6183126  )
        11           O1  tau(  11) = (   1.2990089   1.4837789  12.6285733  )
        12           O1  tau(  12) = (   5.2904647   1.4888503  12.6163117  )
        13           Ti1 tau(  13) = (   0.0603338   2.9457994  12.6026339  )
        14           Ti1 tau(  14) = (   3.3706290   1.4705258  12.5092779  )
        15           O1  tau(  15) = (   6.5788109   0.0160518  14.6499261  )
        16           O1  tau(  16) = (   3.3158691   0.0087694  13.9605792  )
        17           O1  tau(  17) = (   4.5613999   1.5213109  16.0555727  )
        18           O1  tau(  18) = (   2.0390476   1.5587733  16.0026688  )
        19           Ti1 tau(  19) = (   3.2958454   3.0042652  15.6812246  )
        20           Ti1 tau(  20) = (   0.0477533   1.5223793  15.8108347  )
        21           O1  tau(  21) = (   3.2904802   0.0005063   4.7018136  )
        22           O1  tau(  22) = (   0.0778492   0.0082781  17.2116806  )
        23           O1  tau(  23) = (   1.3043587   1.4918075   6.0039043  )
        24           O1  tau(  24) = (   5.2767064   1.4903225   6.0039473  )
        25           Ti1 tau(  25) = (   0.0000382   5.9609847   6.0000000  )
        26           Ti1 tau(  26) = (   3.2902200   4.4714249   6.0002472  )
        27           O1  tau(  27) = (   0.0002396   2.9813036   7.9858123  )
        28           O1  tau(  28) = (   3.2902150   2.9813002   7.3038282  )
        29           O1  tau(  29) = (   4.5938453   4.4726049   9.2879030  )
        30           O1  tau(  30) = (   1.9864658   4.4711199   9.2879459  )
        31           Ti1 tau(  31) = (   3.2891106   5.8743827   9.1763621  )
        32           Ti1 tau(  32) = (   0.0006254   4.4649316   9.2693709  )
        33           O1  tau(  33) = (   3.3003553   2.9806904  11.3444413  )
        34           O1  tau(  34) = (   0.0092240   2.9805883  10.6323155  )
        35           O1  tau(  35) = (   1.2971990   4.4717445  12.6361083  )
        36           O1  tau(  36) = (   5.2938362   4.4783115  12.6231241  )
        37           Ti1 tau(  37) = (   0.0537182   5.9220384  12.5388396  )
        38           Ti1 tau(  38) = (   3.3696634   4.4695314  12.5002334  )
        39           O1  tau(  39) = (   0.0023790   2.9538485  14.6690360  )
        40           O1  tau(  40) = (   3.3142834   2.9899978  13.8932647  )
        41           O1  tau(  41) = (   4.5682027   4.4688565  16.0600133  )
        42           O1  tau(  42) = (   2.0418658   4.4415600  16.0251682  )
        43           Ti1 tau(  43) = (   3.3511655   0.0130708  15.8150828  )
        44           Ti1 tau(  44) = (   0.0311020   4.6533438  16.0685068  )
        45           O1  tau(  45) = (   3.2900926   2.9813045   4.7018136  )
        46           O1  tau(  46) = (   1.3039711   4.4726057   6.0039043  )
        47           O1  tau(  47) = (   5.2763189   4.4711207   6.0039473  )
        48           C1  tau(  48) = (   0.0453995   2.9433715  17.6444507  )
        49           H1  tau(  49) = (   0.9770157   2.9292850  18.2072415  )
        50           N1  tau(  50) = (   5.5932985   2.7872967  18.4085793  )
        51           N1  tau(  51) = (   4.6087457   2.6299947  18.9712495  )
        52           O1  tau(  52) = (   3.0556172   5.9408547  18.1262901  )
        53           H1  tau(  53) = (   3.4776725   0.7204629  18.5958315  )
        54           H1  tau(  54) = (   2.0935776   0.0531959  18.2589326  )

     number of k points=    10  Fermi-Dirac smearing, width (Ry)=  0.0073
                       cart. coord. in units 2pi/alat
        k(    1) = (   0.0000000   0.0000000   0.0000000), wk =   0.1250000
        k(    2) = (   0.0000000   0.0419351   0.0000000), wk =   0.2500000
        k(    3) = (   0.0000000  -0.0838702   0.0000000), wk =   0.1250000
        k(    4) = (   0.0379955   0.0000049   0.0000000), wk =   0.2500000
        k(    5) = (   0.0379955   0.0419400   0.0000000), wk =   0.2500000
        k(    6) = (   0.0379955  -0.0838652   0.0000000), wk =   0.2500000
        k(    7) = (   0.0379955  -0.0419301   0.0000000), wk =   0.2500000
        k(    8) = (  -0.0759910  -0.0000099   0.0000000), wk =   0.1250000
        k(    9) = (  -0.0759910   0.0419252   0.0000000), wk =   0.2500000
        k(   10) = (  -0.0759910  -0.0838800   0.0000000), wk =   0.1250000

     Initial potential from superposition of free atoms

     starting charge  384.99916, renormalised to  401.00000

     negative rho (up, down):  1.776E-02 0.000E+00

     %%%%%%%%%%%%%%%%%%%%%%%%%%%%%%%%%%%%%%%%%%%%%%%%%%%%%%%%%%%%%%%%%%%%%%%%
     %                                                                      %
     % You are using vdW-DF, which was implemented by the Thonhauser group. %
     % Please cite the following two papers that made this development      %
     % possible and the two reviews that describe the various versions:     %
     %                                                                      %
     %   T. Thonhauser et al., PRL 115, 136402 (2015).                      %
     %   T. Thonhauser et al., PRB 76, 125112 (2007).                       %
     %   K. Berland et al., Rep. Prog. Phys. 78, 066501 (2015).             %
     %   D.C. Langreth et al., J. Phys.: Condens. Matter 21, 084203 (2009). %
     %                                                                      %
     %                                                                      %
     % If you are calculating the stress with vdW-DF, please also cite:     %
     %                                                                      %
     %   R. Sabatini et al., J. Phys.: Condens. Matter 24, 424209 (2012).   %
     %                                                                      %
     %%%%%%%%%%%%%%%%%%%%%%%%%%%%%%%%%%%%%%%%%%%%%%%%%%%%%%%%%%%%%%%%%%%%%%%%

     Adding external electric field

     Computed dipole along edir(3) :
        Dipole              -11.5984 Ry au,        -29.4801 Debye
        Dipole field         -0.0219 Ry au,

        Potential amp.        2.0290 Ry
        Total length         46.3494 bohr

     Starting wfcs are  303 atomic wfcs
  @ DRIVER MODE: Message from server: STATUS
  @ DRIVER MODE: Message from server: POSDATA
  @ DRIVER MODE: Reading and sharing cell
  @ DRIVER MODE: Reading and sharing positions
  @ DRIVER MODE: Received positions

     Self-consistent Calculation

     iteration #  1     ecut=    29.40 Ry     beta= 0.05
     Davidson diagonalization with overlap
     c_bands:  3 eigenvalues not converged
     c_bands:  1 eigenvalues not converged
     c_bands:  3 eigenvalues not converged
     c_bands:  3 eigenvalues not converged
     c_bands:  5 eigenvalues not converged
     c_bands:  2 eigenvalues not converged
     c_bands:  3 eigenvalues not converged
     c_bands:  1 eigenvalues not converged
     c_bands:  5 eigenvalues not converged
     ethr =  1.00E-05,  avg # of iterations = 23.5

[...]

     total energy              =   -2415.41937441 Ry
     estimated scf accuracy    <    6267.16162666 Ry

     iteration #  2     ecut=    29.40 Ry     beta= 0.05
     Davidson diagonalization with overlap
     ethr =  1.00E-02,  avg # of iterations = 29.8

[...]

     iteration # 69     ecut=    29.40 Ry     beta= 0.05
     Davidson diagonalization with overlap
     c_bands:  1 eigenvalues not converged
     ethr =  3.59E-09,  avg # of iterations = 13.7

[...]

     total energy              =   -2971.50214701 Ry
     estimated scf accuracy    <       0.00000013 Ry

     iteration # 79     ecut=    29.40 Ry     beta= 0.05
     Davidson diagonalization with overlap
     ethr =  3.30E-11,  avg # of iterations =  2.9

     negative rho (up, down):  1.756E-02 0.000E+00

     Adding external electric field

     Computed dipole along edir(3) :
        Dipole                0.5784 Ry au,          1.4702 Debye
        Dipole field          0.0011 Ry au,

        Potential amp.       -0.1012 Ry
        Total length         46.3494 bohr

     End of self-consistent calculation

          k = 0.0000 0.0000 0.0000 ( 18029 PWs)   bands (ev):

   -55.8805 -55.8465 -55.8464 -55.8410 -55.8098 -55.7241 -55.6948 -55.6867
   -55.6613 -55.6607 -55.6511 -55.6275 -55.4123 -55.2216 -54.8623 -54.8283
   -32.3890 -32.3640 -32.2466 -32.2193 -32.1935 -32.1730 -32.1512 -32.1444
   -32.1243 -32.0722 -32.0671 -32.0648 -32.0328 -32.0267 -32.0216 -31.9958
   -31.9859 -31.9785 -31.9714 -31.9437 -31.9377 -31.9205 -31.8991 -31.8886
   -31.8855 -31.8738 -31.8733 -31.8596 -31.8526 -31.8478 -31.8370 -31.8339
   -31.8291 -31.8247 -31.8145 -31.8023 -31.7733 -31.6609 -31.6272 -31.4817
   -31.4660 -31.4343 -31.2696 -31.1808 -31.1584 -31.0863 -30.9998 -30.8887
   -20.5015 -18.7809 -16.5834 -16.3531 -16.1290 -16.0382 -15.9933 -15.7831
   -15.6740 -15.6183 -15.4947 -15.4315 -15.4225 -15.4151 -15.3941 -15.3841
   -15.3277 -15.3174 -15.3046 -15.2992 -15.2714 -15.2346 -15.2188 -15.2174
   -15.1458 -15.0427 -15.0215 -14.9986 -14.9964 -14.9385 -14.4980 -13.6096
   -13.3642 -13.2477  -6.6496  -5.8286  -4.7081  -4.4887  -3.9571  -3.8233
    -3.7876  -3.7516  -3.7153  -3.5205  -3.4807  -3.3760  -3.2225  -3.1303
    -3.0611  -3.0263  -2.9719  -2.8942  -2.8268  -2.7643  -2.7288  -2.6863
    -2.6773  -2.6414  -2.6349  -2.6168  -2.5964  -2.4969  -2.4613  -2.4130
    -2.3487  -2.2465  -2.2259  -2.1943  -2.1887  -2.1538  -2.1462  -2.1248
    -2.1077  -2.0980  -2.0225  -1.9267  -1.8771  -1.7847  -1.6723  -1.5352
    -1.5299  -1.4871  -1.3597  -1.3464  -1.3164  -1.2897  -1.2742  -1.2298
    -1.1429  -1.0866  -1.0403  -0.9766  -0.9037  -0.8146  -0.7726  -0.7212
    -0.6565  -0.6399  -0.6318  -0.6131  -0.5754  -0.4679  -0.4464  -0.3693
    -0.3658  -0.2800  -0.2488  -0.1882  -0.1578  -0.1196  -0.0809  -0.0073
     0.0128   0.0376   0.0558   0.0831   0.0919   0.1335   0.1662   0.1708
     0.3662   0.3920   0.4510   0.4606   0.5209   0.6418   0.6602   0.7746
     0.8916   1.0872   1.1604   1.2534   1.3521   1.7317   1.7776   1.7837
     3.2427   3.3404   3.3789   3.3878   3.4752   3.4869   3.7039   3.7496
     3.7572   3.8119

[...]

          k = 0.0380-0.0419 0.0000 ( 17876 PWs)   bands (ev):

[...]

          k =-0.0760-0.0000 0.0000 ( 17886 PWs)   bands (ev):

[...]

          k =-0.0760-0.0839 0.0000 ( 17948 PWs)   bands (ev):

   -55.8639 -55.8630 -55.8398 -55.8310 -55.8246 -55.7128 -55.6980 -55.6781
   -55.6768 -55.6525 -55.6463 -55.6427 -55.4110 -55.2229 -54.8454 -54.8451
   -32.2060 -32.1837 -32.1796 -32.1790 -32.1588 -32.1579 -32.1307 -32.1036
   -32.0910 -32.0637 -32.0557 -32.0509 -32.0374 -32.0070 -31.9991 -31.9923
   -31.9849 -31.9845 -31.9835 -31.9822 -31.9808 -31.9785 -31.9592 -31.9263
   -31.9141 -31.9093 -31.9014 -31.8801 -31.8795 -31.8762 -31.8690 -31.8616
   -31.8578 -31.8535 -31.8509 -31.8484 -31.7849 -31.6642 -31.6204 -31.5384
   -31.4840 -31.4574 -31.1712 -31.1710 -31.0824 -31.0822 -31.0431 -31.0430
   -20.5009 -18.7800 -16.0440 -15.9278 -15.8462 -15.8052 -15.7375 -15.7014
   -15.6542 -15.5898 -15.5596 -15.5564 -15.5013 -15.4860 -15.4450 -15.4311
   -15.4065 -15.4001 -15.3843 -15.3360 -15.3239 -15.3155 -15.3068 -15.3032
   -15.2627 -15.2282 -15.2030 -15.1986 -15.0926 -14.9619 -14.6727 -13.6184
   -13.3496 -13.3494  -6.6474  -5.8238  -4.6669  -4.4630  -3.6206  -3.3273
    -3.3167  -3.1041  -3.0444  -2.9915  -2.9821  -2.9406  -2.8179  -2.7903
    -2.7419  -2.7336  -2.6945  -2.6892  -2.6844  -2.6646  -2.6313  -2.6119
    -2.6066  -2.5557  -2.5500  -2.5431  -2.5252  -2.5147  -2.5072  -2.4827
    -2.4558  -2.4401  -2.4233  -2.3936  -2.3105  -2.2801  -2.1129  -2.0716
    -2.0239  -2.0155  -1.9842  -1.9632  -1.9515  -1.9303  -1.8867  -1.7295
    -1.6521  -1.5848  -1.5736  -1.5639  -1.4889  -1.4721  -1.3611  -1.3239
    -1.2911  -1.2567  -1.1826  -1.1043  -1.0962  -1.0740  -0.9702  -0.9626
    -0.9290  -0.8851  -0.8467  -0.8356  -0.8271  -0.7497  -0.6935  -0.6216
    -0.6155  -0.5914  -0.5783  -0.5519  -0.5268  -0.4324  -0.3659  -0.3094
    -0.2759  -0.1885  -0.1591   0.0634   0.0851   0.1956   0.2088   0.2768
     0.3181   0.4267   0.4349   0.4823   0.5059   0.5307   0.5926   0.6588
     0.6685   0.6956   0.8137   1.5235   1.5248   1.5972   1.5975   1.6979
     3.5616   3.5934   3.6260   3.6358   3.7455   3.7661   3.7863   3.7889
     3.9042   3.9247

     the Fermi energy is     3.2504 ev

!    total energy              =   -2971.50216124 Ry
     estimated scf accuracy    <       0.00000006 Ry
     smearing contrib. (-TS)   =      -0.02121620 Ry
     internal energy E=F+TS    =   -2971.48094504 Ry

     The total energy is F=E-TS. E is the sum of the following terms:
     one-electron contribution =  -24213.92800692 Ry
     hartree contribution      =   12197.64281255 Ry
     xc contribution           =    -492.39569504 Ry
     ewald contribution        =    9537.19931296 Ry
     electric field correction =       0.00063141 Ry

     convergence has been achieved in  79 iterations

     Forces acting on atoms (cartesian axes, Ry/au):

     atom    1 type  1   force =     0.00019568   -0.00029025    0.09587495
     atom    2 type  1   force =    -0.00004467   -0.00048294   -0.17572297
     atom    3 type  2   force =     0.00007123   -0.00014258   -0.02406094
     atom    4 type  2   force =     0.00005942   -0.00155679    0.05357527
     atom    5 type  2   force =    -0.01130353   -0.00085061    0.00336242
     atom    6 type  2   force =     0.01317405   -0.00018696    0.00285158
     atom    7 type  1   force =    -0.00059725    0.00052319   -0.00604873
     atom    8 type  1   force =     0.00022149    0.00884209    0.02325993
     atom    9 type  2   force =    -0.00020714    0.00014038   -0.00009127
     atom   10 type  2   force =    -0.00059978    0.00120252   -0.01588252
     atom   11 type  2   force =    -0.00018129    0.00013906   -0.00002721
     atom   12 type  2   force =    -0.00018900   -0.00007835   -0.00015558
     atom   13 type  1   force =    -0.00000176    0.00057700    0.00018136
     atom   14 type  1   force =    -0.00006080    0.00003290   -0.00001831
     atom   15 type  2   force =    -0.00026100   -0.00013535   -0.00006499
     atom   16 type  2   force =    -0.00022124    0.00023197   -0.00010495
     atom   17 type  2   force =    -0.00028898   -0.00003029    0.00015684
     atom   18 type  2   force =    -0.00046646    0.00025057   -0.00014007
     atom   19 type  1   force =    -0.00011424   -0.00042581   -0.00013173
     atom   20 type  1   force =    -0.00016254   -0.00040239    0.00010571
     atom   21 type  2   force =     0.00006398   -0.00004367    0.10326083
     atom   22 type  2   force =     0.00021873    0.00007968   -0.00019410
     atom   23 type  2   force =    -0.07141865   -0.00012244   -0.02768353
     atom   24 type  2   force =     0.07140054    0.00030277   -0.02771479
     atom   25 type  1   force =     0.00002768   -0.00023922    0.09564785
     atom   26 type  1   force =    -0.00015435   -0.00036542   -0.17587669
     atom   27 type  2   force =     0.00010205   -0.00020167   -0.02306226
     atom   28 type  2   force =     0.00012447   -0.00122000    0.05309023
     atom   29 type  2   force =    -0.01155313    0.00061930    0.00327531
     atom   30 type  2   force =     0.01329198    0.00092592    0.00277937
     atom   31 type  1   force =    -0.00046771    0.00377664   -0.01064641
     atom   32 type  1   force =     0.00008445   -0.01102674    0.02366761
     atom   33 type  2   force =     0.00011270   -0.00003649    0.00003180
     atom   34 type  2   force =     0.00007969    0.00062087   -0.02081825
     atom   35 type  2   force =    -0.00018896   -0.00022951    0.00001537
     atom   36 type  2   force =    -0.00037923    0.00001293   -0.00008130
     atom   37 type  1   force =     0.00032968   -0.00052567   -0.00006184
     atom   38 type  1   force =     0.00001123   -0.00000095   -0.00018645
     atom   39 type  2   force =    -0.00034805    0.00001776    0.00003795
     atom   40 type  2   force =     0.00003468   -0.00015430   -0.00029637
     atom   41 type  2   force =    -0.00030241   -0.00023629   -0.00006328
     atom   42 type  2   force =     0.00004326   -0.00003213    0.00000596
     atom   43 type  1   force =     0.00026834   -0.00035323    0.00002140
     atom   44 type  1   force =    -0.00028631   -0.00028126    0.00019731
     atom   45 type  2   force =     0.00006337   -0.00008544    0.10324793
     atom   46 type  2   force =    -0.07142431   -0.00010657   -0.02770850
     atom   47 type  2   force =     0.07142506    0.00033280   -0.02773512
     atom   48 type  3   force =    -0.00008854    0.00011362    0.00043795
     atom   49 type  4   force =     0.00025908    0.00014362    0.00018709
     atom   50 type  5   force =     0.00106284    0.00055434   -0.00032412
     atom   51 type  5   force =    -0.00118799    0.00012539   -0.00000375
     atom   52 type  2   force =     0.00160244   -0.00129622   -0.00129787
     atom   53 type  4   force =    -0.00111467    0.00012507    0.00071867
     atom   54 type  4   force =    -0.00071416    0.00144917    0.00021319

     Total force =     0.366844     Total SCF correction =     0.000624
  @ DRIVER MODE: Message from server: STATUS
  @ DRIVER MODE: Message from server: GETFORCE
  @ DRIVER MODE: Returning v,forces,stress,ensemble

     Writing output data file ./calc.save/
  @ DRIVER MODE: Message from server: EXIT
  @ DRIVE MODE: Exiting

     General routines

     Parallel routines

   This run was terminated on:   4:16:11  16Sep2021

   JOB DONE.