     Program PWSCF v.6.7GPU starts on 16Jul2021 at  0:16:56

     R & G space division:  proc/nbgrp/npool/nimage =      16
     Reading input from /storage/home/hcoda1/3/ntian30/research/carbon/15Jul_vib/ads_slab/CH3NNH3_a/out_0015/pw.inp
Warning: card &CELL ignored
Warning: card   CELL_DYNAMICS='IPI', ignored
Warning: card / ignored

     Current dimensions of program PWSCF are:
     Max number of different atomic species (ntypx) = 10
     Max number of k-points (npk) =  40000
     Max angular momentum in pseudopotentials (lmaxx) =  3
     Presently no symmetry can be used with electric field

     Message from routine cell_base_init:
     DEPRECATED: use true lattice parameter, not A to a.u. conversion factor

     IMPORTANT: XC functional enforced from input :
     Exchange-correlation= BEEF-VDW
                           (   1   4  43  14   2   0   0)
     Any further DFT definition will be discarded
     Please, verify this is what you really want

  @ DRIVER MODE: Connecting to
 qe_1139763_2351650.sched-torque.pace.gatech.eduqsn6o8h0_scratch
  using UNIX socket
  @ DRIVER MODE: Message from server: STATUS
  @ DRIVER MODE: Message from server: INIT
  @ DRIVER MODE: Receiving replica           0          -1
  @ DRIVER MODE: Receiving encoded integer          25
  @ DRIVER MODE:  SCF:  T  FORCE:  T  STRESS:  F  VC:  F  ENSEMBLE:  F
  @ DRIVER MODE:  SCF:  T  FORCE:  T  STRESS:  F  VC:  F  ENSEMBLE:  F

     Using Slab Decomposition

     bravais-lattice index     =            0
     lattice parameter (alat)  =       1.8897  a.u.
     unit-cell volume          =    6658.9804 (a.u.)^3
     number of atoms/cell      =           56
     number of atomic types    =            5
     number of electrons       =       398.00
     number of Kohn-Sham states=          209
     kinetic-energy cutoff     =      29.3995  Ry
     charge density cutoff     =     293.9946  Ry
     scf convergence threshold =      7.3E-08
     mixing beta               =       0.0500
     number of iterations used =            8  plain     mixing
     Exchange-correlation= BEEF-VDW
                           (   1   4  43  14   2   0   0)

     celldm(1)=   1.889726  celldm(2)=   0.000000  celldm(3)=   0.000000
     celldm(4)=   0.000000  celldm(5)=   0.000000  celldm(6)=   0.000000

     crystal axes: (cart. coord. in units of alat)
               a(1) = (   6.579727   0.000000   0.000000 )
               a(2) = (  -0.000775   5.961596   0.000000 )
               a(3) = (   0.000000   0.000000  25.155947 )

     reciprocal axes: (cart. coord. in units 2 pi/alat)
               b(1) = (  0.151982  0.000020  0.000000 )
               b(2) = (  0.000000  0.167740  0.000000 )
               b(3) = (  0.000000  0.000000  0.039752 )

     PseudoPot. # 1 for Ti read from file:
     /storage/coda1/p-amedford6/0/shared/rich_project_chbe-medford/medford-share/data/pseudos_module/espresso/nninc/pbe/van/Ti.UPF
     MD5 check sum: 8e4df49b7f0d34bbd5052bf3f5ea0213
     Pseudo is Ultrasoft, Zval = 12.0
     Generated by new atomic code, or converted to UPF format
     Using radial grid of  851 points,  6 beta functions with:
                l(1) =   0
                l(2) =   0
                l(3) =   1
                l(4) =   1
                l(5) =   2
                l(6) =   2
     Q(r) pseudized with  8 coefficients,  rinner =    1.000   1.000   1.000
                                                       1.000   1.000

     PseudoPot. # 2 for O  read from file:
     /storage/coda1/p-amedford6/0/shared/rich_project_chbe-medford/medford-share/data/pseudos_module/espresso/nninc/pbe/van/O.UPF
     MD5 check sum: 78c19812648e8988a0fe644b0f25305e
     Pseudo is Ultrasoft, Zval =  6.0
     Generated by new atomic code, or converted to UPF format
     Using radial grid of  737 points,  4 beta functions with:
                l(1) =   0
                l(2) =   0
                l(3) =   1
                l(4) =   1
     Q(r) pseudized with  8 coefficients,  rinner =    0.800   0.800   0.800

     PseudoPot. # 3 for N  read from file:
     /storage/coda1/p-amedford6/0/shared/rich_project_chbe-medford/medford-share/data/pseudos_module/espresso/nninc/pbe/van/N.UPF
     MD5 check sum: 90d10febe142ad51ac9d5be1deb811c4
     Pseudo is Ultrasoft, Zval =  5.0
     Generated by new atomic code, or converted to UPF format
     Using radial grid of  729 points,  4 beta functions with:
                l(1) =   0
                l(2) =   0
                l(3) =   1
                l(4) =   1
     Q(r) pseudized with  8 coefficients,  rinner =    0.800   0.800   0.800

     PseudoPot. # 4 for C  read from file:
     /storage/coda1/p-amedford6/0/shared/rich_project_chbe-medford/medford-share/data/pseudos_module/espresso/nninc/pbe/van/C.UPF
     MD5 check sum: 1a69bf6b8db32088f5b2163dbdb77a27
     Pseudo is Ultrasoft, Zval =  4.0
     Generated by new atomic code, or converted to UPF format
     Using radial grid of  721 points,  4 beta functions with:
                l(1) =   0
                l(2) =   0
                l(3) =   1
                l(4) =   1
     Q(r) pseudized with  8 coefficients,  rinner =    0.800   0.800   0.800

     PseudoPot. # 5 for H  read from file:
     /storage/coda1/p-amedford6/0/shared/rich_project_chbe-medford/medford-share/data/pseudos_module/espresso/nninc/pbe/van/H.UPF
     MD5 check sum: b5ee9d7bfd3a09ee7748110bda690ff7
     Pseudo is Ultrasoft, Zval =  1.0
     Generated by new atomic code, or converted to UPF format
     Using radial grid of  615 points,  1 beta functions with:
                l(1) =   0
     Q(r) pseudized with  8 coefficients,  rinner =    0.800

     atomic species   valence    mass     pseudopotential
        Ti1           12.00    47.86700     Ti( 1.00)
        O1             6.00    15.99900     O ( 1.00)
        N1             5.00    14.00700     N ( 1.00)
        C1             4.00    12.01100     C ( 1.00)
        H1             1.00     1.00800     H ( 1.00)

     Starting magnetic structure
     atomic species   magnetization
        Ti1          0.000
        O1           0.000
        N1           0.000
        C1           0.025
        H1           0.000

     No symmetry found

   Cartesian axes

     site n.     atom                  positions (alat units)
         1           Ti1 tau(   1) = (   0.0004258   2.9801865   6.0000000  )
         2           Ti1 tau(   2) = (   3.2906075   1.4906267   6.0002472  )
         3           O1  tau(   3) = (   0.0006271   0.0005054   7.9858123  )
         4           O1  tau(   4) = (   3.2906025   0.0005020   7.3038282  )
         5           O1  tau(   5) = (   4.5942328   1.4918067   9.2879030  )
         6           O1  tau(   6) = (   1.9868534   1.4903216   9.2879459  )
         7           Ti1 tau(   7) = (   3.2907910   2.8959150   9.1758416  )
         8           Ti1 tau(   8) = (   0.0015273   1.4827037   9.2680791  )
         9           O1  tau(   9) = (   3.3019049   5.9598586  11.2958584  )
        10           O1  tau(  10) = (   0.0116148   5.9584955  10.6183126  )
        11           O1  tau(  11) = (   1.3346742   1.4914638  12.6145280  )
        12           O1  tau(  12) = (   5.3113054   1.4894223  12.6320738  )
        13           Ti1 tau(  13) = (   6.4919192   2.9607050  12.7581921  )
        14           Ti1 tau(  14) = (   3.1808934   1.4809541  12.4628303  )
        15           O1  tau(  15) = (   0.0259758   5.9327586  14.5948705  )
        16           O1  tau(  16) = (   3.3179433   0.0111293  13.8771559  )
        17           O1  tau(  17) = (   4.5450242   1.5254396  16.0425357  )
        18           O1  tau(  18) = (   2.0945915   1.5254857  16.0466093  )
        19           Ti1 tau(  19) = (   3.3175380   3.0118254  15.6854273  )
        20           Ti1 tau(  20) = (   0.0287691   1.6153805  16.0968480  )
        21           O1  tau(  21) = (   3.2904802   0.0005063   4.7018136  )
        22           O1  tau(  22) = (   0.0272082   0.0527987  17.2096484  )
        23           O1  tau(  23) = (   1.3043587   1.4918075   6.0039043  )
        24           O1  tau(  24) = (   5.2767064   1.4903225   6.0039473  )
        25           Ti1 tau(  25) = (   0.0000382   5.9609847   6.0000000  )
        26           Ti1 tau(  26) = (   3.2902200   4.4714249   6.0002472  )
        27           O1  tau(  27) = (   0.0002396   2.9813036   7.9858123  )
        28           O1  tau(  28) = (   3.2902150   2.9813002   7.3038282  )
        29           O1  tau(  29) = (   4.5938453   4.4726049   9.2879030  )
        30           O1  tau(  30) = (   1.9864658   4.4711199   9.2879459  )
        31           Ti1 tau(  31) = (   3.2891106   5.8743827   9.1763621  )
        32           Ti1 tau(  32) = (   0.0006254   4.4649316   9.2693709  )
        33           O1  tau(  33) = (   3.3007599   2.9794320  11.2948048  )
        34           O1  tau(  34) = (   0.0092240   2.9805883  10.6323155  )
        35           O1  tau(  35) = (   1.3367187   4.4652043  12.6121808  )
        36           O1  tau(  36) = (   5.3110114   4.4536366  12.6300246  )
        37           Ti1 tau(  37) = (   6.5175235   5.9394146  12.7678677  )
        38           Ti1 tau(  38) = (   3.1810223   4.4618757  12.4682998  )
        39           O1  tau(  39) = (   0.0141956   2.9656780  14.6533049  )
        40           O1  tau(  40) = (   3.3125561   2.9946134  13.8784269  )
        41           O1  tau(  41) = (   4.5469694   4.5079638  16.0550352  )
        42           O1  tau(  42) = (   2.0896055   4.5089645  16.0567747  )
        43           Ti1 tau(  43) = (   3.3249511   0.0336637  15.6879192  )
        44           Ti1 tau(  44) = (   0.0309337   4.5948497  16.1324869  )
        45           O1  tau(  45) = (   3.2900926   2.9813045   4.7018136  )
        46           O1  tau(  46) = (   1.3039711   4.4726057   6.0039043  )
        47           O1  tau(  47) = (   5.2763189   4.4711207   6.0039473  )
        48           N1  tau(  48) = (   0.0510883   3.0100077  17.3315927  )
        49           C1  tau(  49) = (   0.2149723   3.0659314  18.7643681  )
        50           H1  tau(  50) = (   6.1109748   3.7857518  19.2115106  )
        51           H1  tau(  51) = (   0.0391147   2.0919789  19.2277120  )
        52           H1  tau(  52) = (   1.2341903   3.3897193  19.0223879  )
        53           N1  tau(  53) = (   4.7717085   1.8344328  21.5424420  )
        54           H1  tau(  54) = (   4.4711387   2.7986659  21.4441960  )
        55           H1  tau(  55) = (   4.1840297   1.2822813  20.9257432  )
        56           H1  tau(  56) = (   4.5427024   1.5537098  22.4892962  )

     number of k points=    10  Fermi-Dirac smearing, width (Ry)=  0.0073
                       cart. coord. in units 2pi/alat
        k(    1) = (   0.0000000   0.0000000   0.0000000), wk =   0.0625000
        k(    2) = (   0.0000000   0.0419351   0.0000000), wk =   0.1250000
        k(    3) = (   0.0000000  -0.0838702   0.0000000), wk =   0.0625000
        k(    4) = (   0.0379955   0.0000049   0.0000000), wk =   0.1250000
        k(    5) = (   0.0379955   0.0419400   0.0000000), wk =   0.1250000
[...]
     % You are using vdW-DF, which was implemented by the Thonhauser group. %
     % Please cite the following two papers that made this development      %
     % possible and the two reviews that describe the various versions:     %
     %                                                                      %
     %   T. Thonhauser et al., PRL 115, 136402 (2015).                      %
     %   T. Thonhauser et al., PRB 76, 125112 (2007).                       %
     %   K. Berland et al., Rep. Prog. Phys. 78, 066501 (2015).             %
     %   D.C. Langreth et al., J. Phys.: Condens. Matter 21, 084203 (2009). %
     %                                                                      %
     %                                                                      %
     % If you are calculating the stress with vdW-DF, please also cite:     %
     %                                                                      %
     %   R. Sabatini et al., J. Phys.: Condens. Matter 24, 424209 (2012).   %
     %                                                                      %
     %%%%%%%%%%%%%%%%%%%%%%%%%%%%%%%%%%%%%%%%%%%%%%%%%%%%%%%%%%%%%%%%%%%%%%%%

     Adding external electric field

     Computed dipole along edir(3) :
        Dipole              -11.2917 Ry au,        -28.7007 Debye
        Dipole field         -0.0213 Ry au,

        Potential amp.        1.9753 Ry
        Total length         46.3494 bohr

[...]

     Starting wfcs are  302 atomic wfcs
  @ DRIVER MODE: Message from server: STATUS
  @ DRIVER MODE: Message from server: POSDATA
  @ DRIVER MODE: Reading and sharing cell
  @ DRIVER MODE: Reading and sharing positions
  @ DRIVER MODE: Received positions

     Self-consistent Calculation

     iteration #  1     ecut=    29.40 Ry     beta= 0.05
     Davidson diagonalization with overlap
     c_bands:  1 eigenvalues not converged
     c_bands:  1 eigenvalues not converged
     c_bands:  2 eigenvalues not converged
     c_bands:  1 eigenvalues not converged
     c_bands:  1 eigenvalues not converged
     c_bands:  1 eigenvalues not converged
     c_bands:  2 eigenvalues not converged
     c_bands:  2 eigenvalues not converged
     c_bands:  1 eigenvalues not converged
     c_bands:  1 eigenvalues not converged
     c_bands:  2 eigenvalues not converged
     c_bands:  1 eigenvalues not converged
     c_bands:  1 eigenvalues not converged
     c_bands:  1 eigenvalues not converged
     c_bands:  2 eigenvalues not converged
     c_bands:  2 eigenvalues not converged
     ethr =  1.00E-05,  avg # of iterations = 19.6

[...]

     total energy              =   -2520.81774464 Ry
     estimated scf accuracy    <    4704.36931063 Ry

     total magnetization       =     0.00 Bohr mag/cell
     absolute magnetization    =     0.01 Bohr mag/cell

     iteration #  2     ecut=    29.40 Ry     beta= 0.05
     Davidson diagonalization with overlap
     ethr =  1.00E-02,  avg # of iterations = 21.9

[...]

     iteration # 52     ecut=    29.40 Ry     beta= 0.05
     Davidson diagonalization with overlap
     c_bands:  1 eigenvalues not converged
     ethr =  5.76E-08,  avg # of iterations =  7.2

[...]

     total energy              =   -2942.90772609 Ry
     estimated scf accuracy    <       0.00000013 Ry

[...]

     iteration # 76     ecut=    29.40 Ry     beta= 0.05
     Davidson diagonalization with overlap
     ethr =  3.29E-11,  avg # of iterations =  5.8

     negative rho (up, down):  5.680E-03 5.680E-03

[...]

     Adding external electric field

     Computed dipole along edir(3) :
        Dipole                0.4187 Ry au,          1.0643 Debye
        Dipole field          0.0008 Ry au,

        Potential amp.       -0.0733 Ry
        Total length         46.3494 bohr

     Magnetic moment per site  (integrated on atomic sphere of radius R)
     atom   1 (R=0.735)  charge=  8.0053  magn=  0.0002
     atom   2 (R=0.735)  charge=  8.0011  magn=  0.0001
     atom   3 (R=0.735)  charge=  4.9958  magn= -0.0000
     atom   4 (R=0.735)  charge=  5.0345  magn= -0.0000
     atom   5 (R=0.735)  charge=  4.9982  magn=  0.0000
     atom   6 (R=0.735)  charge=  4.9994  magn=  0.0000
     atom   7 (R=0.735)  charge=  7.9947  magn= -0.0000
     atom   8 (R=0.735)  charge=  7.9823  magn= -0.0000
     atom   9 (R=0.735)  charge=  5.0128  magn=  0.0000
     atom  10 (R=0.735)  charge=  4.9434  magn=  0.0000
     atom  11 (R=0.735)  charge=  4.9999  magn=  0.0000
     atom  12 (R=0.735)  charge=  5.0035  magn=  0.0000
     atom  13 (R=0.735)  charge=  7.9933  magn= -0.0000
     atom  14 (R=0.735)  charge=  8.0007  magn= -0.0000
     atom  15 (R=0.735)  charge=  4.9894  magn=  0.0000
     atom  16 (R=0.735)  charge=  5.0146  magn=  0.0000
     atom  17 (R=0.735)  charge=  4.9900  magn=  0.0001
     atom  18 (R=0.735)  charge=  4.9888  magn=  0.0000
     atom  19 (R=0.735)  charge=  8.0209  magn= -0.0000
     atom  20 (R=0.735)  charge=  8.0242  magn= -0.0001
     atom  21 (R=0.735)  charge=  4.8827  magn= -0.0001
     atom  22 (R=0.735)  charge=  4.9720  magn=  0.0000
     atom  23 (R=0.735)  charge=  4.9884  magn= -0.0001
     atom  24 (R=0.735)  charge=  4.9885  magn= -0.0001
     atom  25 (R=0.735)  charge=  8.0053  magn=  0.0002
     atom  26 (R=0.735)  charge=  8.0011  magn=  0.0001
     atom  27 (R=0.735)  charge=  4.9957  magn= -0.0000
     atom  28 (R=0.735)  charge=  5.0347  magn= -0.0000
     atom  29 (R=0.735)  charge=  4.9989  magn=  0.0000
     atom  30 (R=0.735)  charge=  5.0001  magn=  0.0000
     atom  31 (R=0.735)  charge=  7.9947  magn= -0.0000
     atom  32 (R=0.735)  charge=  7.9826  magn= -0.0000
     atom  33 (R=0.735)  charge=  5.0125  magn=  0.0000
     atom  34 (R=0.735)  charge=  4.9424  magn=  0.0000
     atom  35 (R=0.735)  charge=  5.0005  magn=  0.0000
     atom  36 (R=0.735)  charge=  5.0043  magn=  0.0000
     atom  37 (R=0.735)  charge=  7.9991  magn= -0.0000
     atom  38 (R=0.735)  charge=  8.0004  magn= -0.0000
     atom  39 (R=0.735)  charge=  4.9853  magn=  0.0000
     atom  40 (R=0.735)  charge=  5.0160  magn=  0.0000
     atom  41 (R=0.735)  charge=  4.9884  magn=  0.0000
     atom  42 (R=0.735)  charge=  4.9878  magn=  0.0000
     atom  43 (R=0.735)  charge=  8.0214  magn= -0.0000
     atom  44 (R=0.735)  charge=  8.0216  magn= -0.0001
     atom  45 (R=0.735)  charge=  4.8827  magn= -0.0001
     atom  46 (R=0.735)  charge=  4.9884  magn= -0.0001
     atom  47 (R=0.735)  charge=  4.9885  magn= -0.0001
     atom  48 (R=0.418)  charge=  1.3137  magn=  0.0002
     atom  49 (R=0.449)  charge=  0.8462  magn=  0.0000
     atom  50 (R=0.418)  charge=  0.4410  magn=  0.0000
     atom  51 (R=0.418)  charge=  0.4392  magn= -0.0000
     atom  52 (R=0.418)  charge=  0.4339  magn=  0.0000
     atom  53 (R=0.418)  charge=  1.3298  magn= -0.0000
     atom  54 (R=0.418)  charge=  0.4522  magn=  0.0000
     atom  55 (R=0.418)  charge=  0.4511  magn=  0.0000
     atom  56 (R=0.418)  charge=  0.4537  magn=  0.0000

     End of self-consistent calculation

 ------ SPIN UP ------------

          k = 0.0000 0.0000 0.0000 ( 18029 PWs)   bands (ev):

   -56.6315 -56.5979 -55.7552 -55.7432 -55.7202 -55.7104 -55.6091 -55.5738
   -55.3914 -55.3555 -55.2966 -55.2898 -55.2627 -55.1920 -54.7255 -54.6141
   -33.0593 -32.9061 -32.8780 -32.8073 -32.7162 -32.6853 -32.2259 -32.2197
   -32.1519 -32.0392 -31.9930 -31.9688 -31.9504 -31.9291 -31.8955 -31.8910
   -31.8891 -31.8841 -31.8585 -31.8551 -31.8445 -31.8166 -31.7918 -31.7768
   -31.7638 -31.7455 -31.7359 -31.7111 -31.6887 -31.6348 -31.6220 -31.6107
   -31.5326 -31.5295 -31.5074 -31.4655 -31.4574 -31.4239 -31.4200 -31.3957
   -31.3733 -31.3130 -31.2314 -30.9714 -30.9560 -30.8733 -30.8360 -30.7458
   -16.7958 -16.3633 -16.1326 -15.9937 -15.9279 -15.8719 -15.8291 -15.7025
   -15.6351 -15.6273 -15.5857 -15.5571 -15.4858 -15.3464 -15.2478 -15.1948
   -15.1502 -15.0296 -14.9691 -14.9361 -14.9256 -14.8826 -14.8731 -14.6794
   -14.6564 -14.5630 -14.5412 -14.4208 -14.1854 -13.7946 -13.7044 -13.6845
   -12.8010  -7.5109  -4.3612  -3.8592  -3.7714  -3.7464  -3.6204  -3.5343
    -3.4268  -3.4133  -3.3258  -3.2124  -3.1679  -3.1203  -3.0039  -3.0021
    -2.8544  -2.8081  -2.8069  -2.8034  -2.7531  -2.6977  -2.6767  -2.6400
    -2.6344  -2.6071  -2.4776  -2.3792  -2.3066  -2.2843  -2.2781  -2.2428
    -2.1670  -2.1376  -2.1296  -2.1260  -2.0177  -1.8737  -1.8667  -1.8431
    -1.8012  -1.7967  -1.7547  -1.7400  -1.6223  -1.5321  -1.4293  -1.4134
    -1.3695  -1.3133  -1.3058  -1.2154  -1.1373  -1.0467  -1.0451  -0.9360
    -0.8881  -0.8710  -0.7806  -0.7213  -0.6820  -0.6555  -0.6433  -0.5438
    -0.5211  -0.5104  -0.4263  -0.4147  -0.3657  -0.2768  -0.2540  -0.2455
    -0.1627  -0.1601  -0.0646  -0.0231   0.0175   0.0525   0.1686   0.1861
     0.2841   0.3126   0.3406   0.4533   0.4692   0.5344   0.6094   0.6716
     0.6994   0.7254   0.7550   0.7743   0.8494   0.9609   0.9695   1.0726
     1.1046   1.2782   1.3171   1.3894   1.6034   1.6380   2.3041   2.6433
     2.8026   3.1010   3.2893   3.4024   3.6178   3.6337   3.6389   3.8091
     3.8613

[...]

          k =-0.0760-0.0000 0.0000 ( 17886 PWs)   bands (ev):

[...]

 ------ SPIN DOWN ----------

[...]

          k = 0.0380-0.0419 0.0000 ( 17876 PWs)   bands (ev):

[...]

          k =-0.0760-0.0839 0.0000 ( 17948 PWs)   bands (ev):

   -56.6141 -56.6137 -55.7401 -55.7343 -55.7275 -55.7270 -55.5919 -55.5912
   -55.3777 -55.3693 -55.2867 -55.2793 -55.2792 -55.1952 -54.7228 -54.6172
   -32.8912 -32.8910 -32.8756 -32.8754 -32.7595 -32.7593 -32.0558 -32.0535
   -32.0443 -32.0377 -31.9843 -31.9834 -31.9405 -31.9402 -31.9384 -31.9373
   -31.9296 -31.9266 -31.9245 -31.9229 -31.8444 -31.8424 -31.7935 -31.7906
   -31.7285 -31.7182 -31.6593 -31.6513 -31.6234 -31.6233 -31.6160 -31.5760
   -31.5718 -31.5442 -31.5100 -31.5047 -31.5046 -31.4656 -31.4655 -31.4610
   -31.4376 -31.3981 -31.1116 -30.9916 -30.9557 -30.9251 -30.8389 -30.8015
   -16.1448 -16.1427 -16.1099 -16.1097 -15.8410 -15.8374 -15.7943 -15.7918
   -15.6179 -15.6117 -15.4054 -15.3968 -15.3900 -15.3886 -15.2606 -15.2547
   -15.1887 -15.1783 -15.0889 -15.0797 -15.0234 -15.0169 -14.9742 -14.9532
   -14.6432 -14.6340 -14.5133 -14.4959 -14.3289 -13.7884 -13.7884 -13.7036
   -12.8165  -7.5006  -3.7788  -3.7545  -3.2436  -3.2432  -3.1794  -3.1784
    -3.0566  -3.0525  -2.9742  -2.9735  -2.8750  -2.8738  -2.7561  -2.7311
    -2.7281  -2.7270  -2.7092  -2.6764  -2.5746  -2.5721  -2.5611  -2.5466
    -2.4887  -2.4868  -2.4646  -2.3979  -2.3839  -2.3525  -2.3148  -2.2006
    -2.1904  -2.1780  -2.1465  -2.0837  -2.0765  -2.0635  -2.0210  -1.9900
    -1.9120  -1.8392  -1.8004  -1.6877  -1.6832  -1.6709  -1.6589  -1.5058
    -1.4655  -1.4349  -1.4283  -1.4216  -1.3736  -1.2793  -1.2719  -1.1395
    -1.1378  -1.0634  -0.9819  -0.9609  -0.9328  -0.8038  -0.7602  -0.7253
    -0.7175  -0.6893  -0.6689  -0.6475  -0.6035  -0.4679  -0.4563  -0.4176
    -0.3830  -0.3607  -0.3272  -0.2688  -0.1832  -0.1052  -0.1047  -0.0491
     0.0194   0.0799   0.1667   0.1765   0.1823   0.4633   0.5418   0.6317
     0.7076   0.7740   0.8372   0.8683   0.9237   0.9684   1.1038   1.1071
     1.1260   1.1264   1.1864   1.1901   1.3725   1.6448   2.1951   3.2164
     3.2168   3.2837   3.2841   3.6077   3.6135   3.7216   3.7309   3.8386
     3.8435

     the Fermi energy is     2.4836 ev

!    total energy              =   -2942.90773810 Ry
     estimated scf accuracy    <       0.00000004 Ry
     smearing contrib. (-TS)   =      -0.00486566 Ry
     internal energy E=F+TS    =   -2942.90287244 Ry

     The total energy is F=E-TS. E is the sum of the following terms:
     one-electron contribution =  -23242.44541904 Ry
     hartree contribution      =   11711.42972541 Ry
     xc contribution           =    -487.47648070 Ry
     ewald contribution        =    9075.58897098 Ry
     electric field correction =       0.00033090 Ry

     total magnetization       =     0.00 Bohr mag/cell
     absolute magnetization    =     0.00 Bohr mag/cell

     convergence has been achieved in  76 iterations

     Forces acting on atoms (cartesian axes, Ry/au):

     atom    1 type  1   force =     0.00003828   -0.00040769    0.12408275
     atom    2 type  1   force =    -0.00010447   -0.00056948   -0.16065291
     atom    3 type  2   force =     0.00023500   -0.00026909   -0.06800677
     atom    4 type  2   force =     0.00001284   -0.00029203    0.02757147
     atom    5 type  2   force =    -0.01615436    0.00175388   -0.00936576
     atom    6 type  2   force =     0.01818760    0.00219216   -0.00898696
     atom    7 type  1   force =     0.00115141   -0.00378176    0.02174772
     atom    8 type  1   force =    -0.00057670   -0.00290899    0.11112792
     atom    9 type  2   force =    -0.00018159    0.00030639   -0.00048817
     atom   10 type  2   force =    -0.00195777    0.00129302   -0.07325354
     atom   11 type  2   force =     0.00022796   -0.00010673    0.00016432
     atom   12 type  2   force =    -0.00025982    0.00022257    0.00019712
     atom   13 type  1   force =    -0.00009475    0.00008571   -0.00038189
     atom   14 type  1   force =    -0.00058574    0.00044911    0.00044975
     atom   15 type  2   force =     0.00027034    0.00000675    0.00011810
     atom   16 type  2   force =    -0.00049301   -0.00036843    0.00054147
     atom   17 type  2   force =    -0.00060063    0.00023945    0.00006971
     atom   18 type  2   force =     0.00003321    0.00024431    0.00006910
     atom   19 type  1   force =     0.00038283   -0.00055205   -0.00002060
     atom   20 type  1   force =    -0.00008635    0.00014499    0.00024165
     atom   21 type  2   force =     0.00004939   -0.00000567    0.09971706
     atom   22 type  2   force =     0.00027681   -0.00004314   -0.00042889
     atom   23 type  2   force =    -0.07915653    0.00000172   -0.03243566
     atom   24 type  2   force =     0.07904219    0.00043900   -0.03245829
     atom   25 type  1   force =     0.00001777   -0.00041450    0.12360118
     atom   26 type  1   force =    -0.00009895   -0.00046653   -0.16078823
     atom   27 type  2   force =     0.00033010   -0.00048439   -0.06705840
     atom   28 type  2   force =     0.00002774   -0.00011996    0.02729873
     atom   29 type  2   force =    -0.01663012    0.00127756   -0.00947146
     atom   30 type  2   force =     0.01856109    0.00165586   -0.00910554
     atom   31 type  1   force =     0.00116476   -0.00138679    0.02117747
     atom   32 type  1   force =    -0.00053217    0.00034828    0.11177201
     atom   33 type  2   force =    -0.00016165   -0.00024812    0.00003673
     atom   34 type  2   force =    -0.00132340    0.00066821   -0.07270485
     atom   35 type  2   force =    -0.00078078   -0.00043168   -0.00003016
     atom   36 type  2   force =     0.00010518   -0.00001936    0.00009954
     atom   37 type  1   force =     0.00006309    0.00063539    0.00026424
     atom   38 type  1   force =    -0.00021536    0.00003009   -0.00013049
     atom   39 type  2   force =     0.00013298   -0.00017781    0.00086352
     atom   40 type  2   force =    -0.00018473   -0.00046512    0.00030591
     atom   41 type  2   force =     0.00006640   -0.00008644    0.00003358
     atom   42 type  2   force =     0.00040902    0.00001918    0.00000083
     atom   43 type  1   force =    -0.00023254   -0.00012304    0.00005643
     atom   44 type  1   force =    -0.00027534    0.00046463    0.00019590
     atom   45 type  2   force =     0.00002487   -0.00003178    0.09974314
     atom   46 type  2   force =    -0.07916245    0.00005405   -0.03243617
     atom   47 type  2   force =     0.07904208    0.00047687   -0.03245032
     atom   48 type  3   force =     0.00079961    0.00080492   -0.00168264
     atom   49 type  4   force =     0.00417137   -0.00639696   -0.00210315
     atom   50 type  5   force =    -0.00450986    0.00701448    0.00348620
     atom   51 type  5   force =     0.00097599   -0.00017205   -0.00050114
     atom   52 type  5   force =    -0.00051271   -0.00002933    0.00014152
     atom   53 type  3   force =     0.00004106   -0.00085760   -0.00011857
     atom   54 type  5   force =    -0.00005346    0.00021455   -0.00052291
     atom   55 type  5   force =     0.00014540    0.00031140   -0.00083053
     atom   56 type  5   force =    -0.00106111   -0.00013799    0.00123894

     Total force =     0.424588     Total SCF correction =     0.000579
  @ DRIVER MODE: Message from server: STATUS
  @ DRIVER MODE: Message from server: GETFORCE
  @ DRIVER MODE: Returning v,forces,stress,ensemble

     Writing output data file ./calc.save/
  @ DRIVER MODE: Message from server: EXIT
  @ DRIVE MODE: Exiting

     General routines

     Parallel routines

   This run was terminated on:   0:47:34  16Jul2021

   JOB DONE.