     Program PWSCF v.6.7GPU starts on 27Sep2021 at 22:32:16

     R & G space division:  proc/nbgrp/npool/nimage =       8
     Reading input from /storage/home/hcoda1/3/ntian30/research/carbon/CxH_vib/H2O_calc/ads_slab/CH3OHN2H2O_a/out_0013/pw.inp
Warning: card &CELL ignored
Warning: card   CELL_DYNAMICS='IPI', ignored
Warning: card / ignored

     Current dimensions of program PWSCF are:
     Max number of different atomic species (ntypx) = 10
     Max number of k-points (npk) =  40000
     Max angular momentum in pseudopotentials (lmaxx) =  3
     Presently no symmetry can be used with electric field

     Message from routine cell_base_init:
     DEPRECATED: use true lattice parameter, not A to a.u. conversion factor

     IMPORTANT: XC functional enforced from input :
     Exchange-correlation= BEEF-VDW
                           (   1   4  43  14   2   0   0)
     Any further DFT definition will be discarded
     Please, verify this is what you really want

  @ DRIVER MODE: Connecting to
 qe_1139763_3000313.sched-torque.pace.gatech.edugf4a5f8m_scratch
  using UNIX socket
  @ DRIVER MODE: Message from server: STATUS
  @ DRIVER MODE: Message from server: INIT
  @ DRIVER MODE: Receiving replica           0          -1
  @ DRIVER MODE: Receiving encoded integer          25
  @ DRIVER MODE:  SCF:  T  FORCE:  T  STRESS:  F  VC:  F  ENSEMBLE:  F
  @ DRIVER MODE:  SCF:  T  FORCE:  T  STRESS:  F  VC:  F  ENSEMBLE:  F

     Using Slab Decomposition

     bravais-lattice index     =            0
     lattice parameter (alat)  =       1.8897  a.u.
     unit-cell volume          =    6658.9804 (a.u.)^3
     number of atoms/cell      =           58
     number of atomic types    =            5
     number of electrons       =       410.00
     number of Kohn-Sham states=          215
     kinetic-energy cutoff     =      29.3995  Ry
     charge density cutoff     =     293.9946  Ry
     scf convergence threshold =      7.3E-08
     mixing beta               =       0.0500
     number of iterations used =            8  plain     mixing
     Exchange-correlation= BEEF-VDW
                           (   1   4  43  14   2   0   0)

     celldm(1)=   1.889726  celldm(2)=   0.000000  celldm(3)=   0.000000
     celldm(4)=   0.000000  celldm(5)=   0.000000  celldm(6)=   0.000000

     crystal axes: (cart. coord. in units of alat)
               a(1) = (   6.579727   0.000000   0.000000 )
               a(2) = (  -0.000775   5.961596   0.000000 )
               a(3) = (   0.000000   0.000000  25.155947 )

     reciprocal axes: (cart. coord. in units 2 pi/alat)
               b(1) = (  0.151982  0.000020  0.000000 )
               b(2) = (  0.000000  0.167740  0.000000 )
               b(3) = (  0.000000  0.000000  0.039752 )

     PseudoPot. # 1 for Ti read from file:
     /storage/coda1/p-amedford6/0/shared/rich_project_chbe-medford/medford-share/data/pseudos_module/espresso/nninc/pbe/van/Ti.UPF
     MD5 check sum: 8e4df49b7f0d34bbd5052bf3f5ea0213
     Pseudo is Ultrasoft, Zval = 12.0
     Generated by new atomic code, or converted to UPF format
     Using radial grid of  851 points,  6 beta functions with:
                l(1) =   0
                l(2) =   0
                l(3) =   1
                l(4) =   1
                l(5) =   2
                l(6) =   2
     Q(r) pseudized with  8 coefficients,  rinner =    1.000   1.000   1.000
                                                       1.000   1.000

     PseudoPot. # 2 for O  read from file:
     /storage/coda1/p-amedford6/0/shared/rich_project_chbe-medford/medford-share/data/pseudos_module/espresso/nninc/pbe/van/O.UPF
     MD5 check sum: 78c19812648e8988a0fe644b0f25305e
     Pseudo is Ultrasoft, Zval =  6.0
     Generated by new atomic code, or converted to UPF format
     Using radial grid of  737 points,  4 beta functions with:
                l(1) =   0
                l(2) =   0
                l(3) =   1
                l(4) =   1
     Q(r) pseudized with  8 coefficients,  rinner =    0.800   0.800   0.800

     PseudoPot. # 3 for C  read from file:
     /storage/coda1/p-amedford6/0/shared/rich_project_chbe-medford/medford-share/data/pseudos_module/espresso/nninc/pbe/van/C.UPF
     MD5 check sum: 1a69bf6b8db32088f5b2163dbdb77a27
     Pseudo is Ultrasoft, Zval =  4.0
     Generated by new atomic code, or converted to UPF format
     Using radial grid of  721 points,  4 beta functions with:
                l(1) =   0
                l(2) =   0
                l(3) =   1
                l(4) =   1
     Q(r) pseudized with  8 coefficients,  rinner =    0.800   0.800   0.800

     PseudoPot. # 4 for H  read from file:
     /storage/coda1/p-amedford6/0/shared/rich_project_chbe-medford/medford-share/data/pseudos_module/espresso/nninc/pbe/van/H.UPF
     MD5 check sum: b5ee9d7bfd3a09ee7748110bda690ff7
     Pseudo is Ultrasoft, Zval =  1.0
     Generated by new atomic code, or converted to UPF format
     Using radial grid of  615 points,  1 beta functions with:
                l(1) =   0
     Q(r) pseudized with  8 coefficients,  rinner =    0.800

     PseudoPot. # 5 for N  read from file:
     /storage/coda1/p-amedford6/0/shared/rich_project_chbe-medford/medford-share/data/pseudos_module/espresso/nninc/pbe/van/N.UPF
     MD5 check sum: 90d10febe142ad51ac9d5be1deb811c4
     Pseudo is Ultrasoft, Zval =  5.0
     Generated by new atomic code, or converted to UPF format
     Using radial grid of  729 points,  4 beta functions with:
                l(1) =   0
                l(2) =   0
                l(3) =   1
                l(4) =   1
     Q(r) pseudized with  8 coefficients,  rinner =    0.800   0.800   0.800

     atomic species   valence    mass     pseudopotential
        Ti1           12.00    47.86700     Ti( 1.00)
        O1             6.00    15.99900     O ( 1.00)
        C1             4.00    12.01100     C ( 1.00)
        H1             1.00     1.00800     H ( 1.00)
        N1             5.00    14.00700     N ( 1.00)

     No symmetry found

   Cartesian axes

     site n.     atom                  positions (alat units)
         1           Ti1 tau(   1) = (   0.0004258   2.9801865   6.0000000  )
         2           Ti1 tau(   2) = (   3.2906075   1.4906267   6.0002472  )
         3           O1  tau(   3) = (   0.0006271   0.0005054   7.9858123  )
         4           O1  tau(   4) = (   3.2906025   0.0005020   7.3038282  )
         5           O1  tau(   5) = (   4.5942328   1.4918067   9.2879030  )
         6           O1  tau(   6) = (   1.9868534   1.4903216   9.2879459  )
         7           Ti1 tau(   7) = (   3.3250738   2.9918783   9.1599549  )
         8           Ti1 tau(   8) = (   0.0412716   1.4903975   9.2658274  )
         9           O1  tau(   9) = (   3.2852344   0.0116916  11.3753809  )
        10           O1  tau(  10) = (   6.5701620   0.0027176  10.6052010  )
        11           O1  tau(  11) = (   1.2758103   1.4969824  12.6410148  )
        12           O1  tau(  12) = (   5.2796941   1.4985041  12.6691897  )
        13           Ti1 tau(  13) = (   6.5531116   2.9870417  12.5348353  )
        14           Ti1 tau(  14) = (   3.2504356   1.4995581  12.5215122  )
        15           O1  tau(  15) = (   0.0383206   0.0046779  14.6787597  )
        16           O1  tau(  16) = (   3.2537876   0.0095675  14.0320577  )
        17           O1  tau(  17) = (   4.5855444   1.5609978  16.0639115  )
        18           O1  tau(  18) = (   2.0343745   1.5440679  16.2001998  )
        19           Ti1 tau(  19) = (   3.3058624   3.0043567  15.7064231  )
        20           Ti1 tau(  20) = (   6.5549511   1.4266458  15.8675638  )
        21           O1  tau(  21) = (   3.2904802   0.0005063   4.7018136  )
        22           O1  tau(  22) = (   6.4974171   0.0126247  17.2237355  )
        23           O1  tau(  23) = (   1.3043587   1.4918075   6.0039043  )
        24           O1  tau(  24) = (   5.2767064   1.4903225   6.0039473  )
        25           Ti1 tau(  25) = (   0.0000382   5.9609847   6.0000000  )
        26           Ti1 tau(  26) = (   3.2902200   4.4714249   6.0002472  )
        27           O1  tau(  27) = (   0.0002396   2.9813036   7.9858123  )
        28           O1  tau(  28) = (   3.2902150   2.9813002   7.3038282  )
        29           O1  tau(  29) = (   4.5938453   4.4726049   9.2879030  )
        30           O1  tau(  30) = (   1.9864658   4.4711199   9.2879459  )
        31           Ti1 tau(  31) = (   3.3194574   0.0113313   9.1541029  )
        32           Ti1 tau(  32) = (   0.0414074   4.4589881   9.2683624  )
        33           O1  tau(  33) = (   3.2821265   2.9896323  11.3676027  )
        34           O1  tau(  34) = (   6.5712111   2.9825298  10.6251173  )
        35           O1  tau(  35) = (   1.2751242   4.4805681  12.6359318  )
        36           O1  tau(  36) = (   5.2791817   4.4782367  12.6627471  )
        37           Ti1 tau(  37) = (   6.5506445   0.0032150  12.4806913  )
        38           Ti1 tau(  38) = (   3.2507345   4.4881811  12.5195668  )
        39           O1  tau(  39) = (   0.0469291   2.9928743  14.8464778  )
        40           O1  tau(  40) = (   3.2514374   2.9975957  13.9281162  )
        41           O1  tau(  41) = (   4.5866068   4.4203933  16.0984022  )
        42           O1  tau(  42) = (   2.0418857   4.4579080  16.2200674  )
        43           Ti1 tau(  43) = (   3.2648600   0.0292614  15.8571223  )
        44           Ti1 tau(  44) = (   6.5763064   4.6169283  15.9626260  )
        45           O1  tau(  45) = (   3.2900926   2.9813045   4.7018136  )
        46           O1  tau(  46) = (   1.3039711   4.4726057   6.0039043  )
        47           O1  tau(  47) = (   5.2763189   4.4711207   6.0039473  )
        48           C1  tau(  48) = (   6.0301898   2.9050411  18.9351799  )
        49           O1  tau(  49) = (   0.1575529   2.9516393  17.6723866  )
        50           H1  tau(  50) = (   4.9614676   2.8818909  18.6991823  )
        51           H1  tau(  51) = (   1.1132637   2.8218831  17.8130049  )
        52           H1  tau(  52) = (   6.2985093   1.9952365  19.4696065  )
        53           H1  tau(  53) = (   6.2732381   3.7939772  19.5169533  )
        54           N1  tau(  54) = (   4.8840950   3.1052494  22.6850861  )
        55           N1  tau(  55) = (   4.2680757   3.3403818  21.7970487  )
        56           O1  tau(  56) = (   3.8772584   0.1141246  18.3039653  )
        57           H1  tau(  57) = (   4.8407149   0.0692883  18.0716375  )
        58           H1  tau(  58) = (   3.6680196   5.2122673  18.6877519  )

     number of k points=    10  Fermi-Dirac smearing, width (Ry)=  0.0073
                       cart. coord. in units 2pi/alat
        k(    1) = (   0.0000000   0.0000000   0.0000000), wk =   0.1250000
        k(    2) = (   0.0000000   0.0419351   0.0000000), wk =   0.2500000
        k(    3) = (   0.0000000  -0.0838702   0.0000000), wk =   0.1250000
        k(    4) = (   0.0379955   0.0000049   0.0000000), wk =   0.2500000
        k(    5) = (   0.0379955   0.0419400   0.0000000), wk =   0.2500000
        k(    6) = (   0.0379955  -0.0838652   0.0000000), wk =   0.2500000
        k(    7) = (   0.0379955  -0.0419301   0.0000000), wk =   0.2500000
        k(    8) = (  -0.0759910  -0.0000099   0.0000000), wk =   0.1250000
        k(    9) = (  -0.0759910   0.0419252   0.0000000), wk =   0.2500000
        k(   10) = (  -0.0759910  -0.0838800   0.0000000), wk =   0.1250000

     Initial potential from superposition of free atoms

     starting charge  393.99913, renormalised to  410.00000

     negative rho (up, down):  9.553E-03 0.000E+00

     %%%%%%%%%%%%%%%%%%%%%%%%%%%%%%%%%%%%%%%%%%%%%%%%%%%%%%%%%%%%%%%%%%%%%%%%
     %                                                                      %
     % You are using vdW-DF, which was implemented by the Thonhauser group. %
     % Please cite the following two papers that made this development      %
     % possible and the two reviews that describe the various versions:     %
     %                                                                      %
     %   T. Thonhauser et al., PRL 115, 136402 (2015).                      %
     %   T. Thonhauser et al., PRB 76, 125112 (2007).                       %
     %   K. Berland et al., Rep. Prog. Phys. 78, 066501 (2015).             %
     %   D.C. Langreth et al., J. Phys.: Condens. Matter 21, 084203 (2009). %
     %                                                                      %
     %                                                                      %
     % If you are calculating the stress with vdW-DF, please also cite:     %
     %                                                                      %
     %   R. Sabatini et al., J. Phys.: Condens. Matter 24, 424209 (2012).   %
     %                                                                      %
     %%%%%%%%%%%%%%%%%%%%%%%%%%%%%%%%%%%%%%%%%%%%%%%%%%%%%%%%%%%%%%%%%%%%%%%%

     Adding external electric field

     Computed dipole along edir(3) :
        Dipole              -20.0784 Ry au,        -51.0342 Debye
        Dipole field         -0.0379 Ry au,

        Potential amp.        3.5124 Ry
        Total length         46.3494 bohr

     Starting wfcs are  310 atomic wfcs
  @ DRIVER MODE: Message from server: STATUS
  @ DRIVER MODE: Message from server: POSDATA
  @ DRIVER MODE: Reading and sharing cell
  @ DRIVER MODE: Reading and sharing positions
  @ DRIVER MODE: Received positions

     Self-consistent Calculation

     iteration #  1     ecut=    29.40 Ry     beta= 0.05
     Davidson diagonalization with overlap
     c_bands:  1 eigenvalues not converged
     c_bands:  1 eigenvalues not converged
     c_bands:  5 eigenvalues not converged
     c_bands:  1 eigenvalues not converged
     c_bands:  4 eigenvalues not converged
     c_bands:  3 eigenvalues not converged
     ethr =  1.00E-05,  avg # of iterations = 32.1

[...]

     total energy              =   -2098.63550212 Ry
     estimated scf accuracy    <   10668.27646222 Ry

     iteration #  2     ecut=    29.40 Ry     beta= 0.05
     Davidson diagonalization with overlap
     ethr =  1.00E-02,  avg # of iterations = 30.3

[...]

     iteration # 75     ecut=    29.40 Ry     beta= 0.05
     Davidson diagonalization with overlap
     ethr =  6.40E-11,  avg # of iterations = 15.6

[...]

     total energy              =   -3007.66308730 Ry
     estimated scf accuracy    <       0.00000012 Ry

     iteration # 77     ecut=    29.40 Ry     beta= 0.05
     Davidson diagonalization with overlap
     c_bands:  1 eigenvalues not converged
     c_bands:  1 eigenvalues not converged
     ethr =  2.88E-11,  avg # of iterations = 11.6

     negative rho (up, down):  1.050E-02 0.000E+00

     Adding external electric field

     Computed dipole along edir(3) :
        Dipole                1.2291 Ry au,          3.1241 Debye
        Dipole field          0.0023 Ry au,

        Potential amp.       -0.2150 Ry
        Total length         46.3494 bohr

     End of self-consistent calculation

          k = 0.0000 0.0000 0.0000 ( 18029 PWs)   bands (ev):

   -54.9362 -54.9122 -54.9002 -54.8778 -54.8631 -54.8576 -54.8305 -54.8112
   -54.7830 -54.7813 -54.7469 -54.7253 -54.6938 -54.6914 -54.0006 -53.9665
   -31.5020 -31.4761 -31.4079 -31.3150 -31.2570 -31.2503 -31.2383 -31.2363
   -31.2007 -31.1664 -31.1573 -31.1548 -31.1506 -31.1274 -31.1209 -31.1150
   -31.0987 -31.0799 -31.0739 -31.0723 -31.0657 -31.0584 -31.0357 -31.0288
   -31.0283 -31.0227 -31.0078 -31.0055 -31.0054 -30.9688 -30.9515 -30.9317
   -30.9301 -30.9290 -30.9219 -30.9199 -30.9102 -30.8805 -30.8652 -30.8609
   -30.8563 -30.8369 -30.4125 -30.3102 -30.2886 -30.2287 -30.1424 -30.0313
   -21.6200 -19.8105 -18.2745 -15.7694 -15.5233 -15.3839 -15.2865 -15.1632
   -15.0329 -14.9590 -14.8386 -14.7666 -14.6725 -14.6590 -14.6412 -14.6194
   -14.5869 -14.5604 -14.5037 -14.4986 -14.4439 -14.4404 -14.4303 -14.4190
   -14.3863 -14.3698 -14.3397 -14.3309 -14.1680 -14.1026 -14.0431 -13.8982
   -12.5011 -12.3818 -10.8028  -6.8709  -6.5558  -6.0324  -4.8456  -4.7776
    -4.7148  -4.6327  -3.5426  -3.1020  -2.9515  -2.9127  -2.8916  -2.8723
    -2.7416  -2.6544  -2.6207  -2.4668  -2.3736  -2.2374  -2.2097  -2.1786
    -2.1400  -2.0724  -2.0169  -1.9298  -1.9005  -1.8598  -1.8402  -1.8166
    -1.8017  -1.7746  -1.7447  -1.6724  -1.6346  -1.5501  -1.5336  -1.4461
    -1.3933  -1.3849  -1.3417  -1.2791  -1.2756  -1.2652  -1.2246  -1.2112
    -1.2030  -1.1933  -1.1861  -1.0245  -0.9799  -0.9461  -0.8225  -0.7126
    -0.6199  -0.6105  -0.5067  -0.4931  -0.4303  -0.4258  -0.3867  -0.3471
    -0.2848  -0.1882  -0.1295  -0.0833  -0.0706   0.0399   0.1058   0.1208
     0.1821   0.2570   0.2722   0.2935   0.3232   0.4103   0.4779   0.5200
     0.5544   0.6189   0.6288   0.6761   0.7051   0.7463   0.8316   0.8853
     0.8892   0.9760   0.9933   1.0064   1.0318   1.0376   1.1356   1.1698
     1.2135   1.2419   1.3930   1.4287   1.6192   1.6549   1.9149   2.0133
     2.0254   2.1866   2.6112   2.6657   4.1538   4.2217   4.2580   4.2653
     4.2801   4.3596   4.6421   4.6556   4.6624   4.6738   4.6817

[...]

          k = 0.0380-0.0419 0.0000 ( 17876 PWs)   bands (ev):

[...]

          k =-0.0760-0.0000 0.0000 ( 17886 PWs)   bands (ev):

[...]

          k =-0.0760-0.0839 0.0000 ( 17948 PWs)   bands (ev):

   -54.9190 -54.9171 -54.8967 -54.8932 -54.8582 -54.8531 -54.8232 -54.8187
   -54.7903 -54.7663 -54.7616 -54.7097 -54.7070 -54.6954 -53.9835 -53.9834
   -31.3888 -31.3109 -31.3007 -31.2245 -31.2211 -31.1987 -31.1914 -31.1894
   -31.1826 -31.1599 -31.1454 -31.1435 -31.1359 -31.1299 -31.1110 -31.0968
   -31.0822 -31.0803 -31.0704 -31.0691 -31.0674 -31.0664 -31.0607 -31.0554
   -31.0305 -31.0261 -31.0210 -31.0159 -31.0158 -31.0131 -31.0124 -31.0122
   -31.0118 -30.9827 -30.9740 -30.9643 -30.9632 -30.9351 -30.9327 -30.8966
   -30.8934 -30.8787 -30.3012 -30.3012 -30.2253 -30.2250 -30.1857 -30.1855
   -21.6199 -19.8069 -18.2734 -15.3443 -15.2309 -15.0653 -14.9568 -14.9470
   -14.9185 -14.8591 -14.8159 -14.7849 -14.7447 -14.7346 -14.7051 -14.6873
   -14.6822 -14.6243 -14.5405 -14.5348 -14.5210 -14.4856 -14.4589 -14.4449
   -14.4428 -14.4283 -14.3916 -14.3897 -14.3707 -14.3595 -14.3024 -14.2099
   -12.4831 -12.4825 -10.8055  -6.8700  -6.5580  -6.0348  -4.8435  -4.7845
    -4.7080  -4.6205  -3.5343  -2.7548  -2.5271  -2.4984  -2.4255  -2.2590
    -2.1800  -2.1591  -2.0831  -2.0594  -2.0242  -1.9456  -1.9419  -1.9077
    -1.8679  -1.8436  -1.8378  -1.8193  -1.8007  -1.7679  -1.7473  -1.7260
    -1.7126  -1.6973  -1.6512  -1.6423  -1.6064  -1.6028  -1.5879  -1.5761
    -1.5569  -1.5462  -1.4655  -1.4372  -1.3960  -1.3107  -1.2940  -1.1647
    -1.1592  -1.1132  -1.0765  -1.0381  -1.0190  -0.9971  -0.9726  -0.9423
    -0.9106  -0.7389  -0.7178  -0.6744  -0.6228  -0.6170  -0.5442  -0.5286
    -0.4740  -0.4418  -0.3522  -0.3112  -0.2716  -0.1631  -0.1361  -0.1237
     0.0144   0.0201   0.0653   0.0669   0.1095   0.1477   0.1603   0.1672
     0.2422   0.2744   0.3107   0.3367   0.3605   0.5387   0.5748   0.6337
     0.7234   0.7411   0.9200   0.9500   0.9939   1.0748   1.1362   1.1902
     1.2123   1.3209   1.3281   1.3516   1.4429   1.4912   1.4924   1.5226
     2.3766   2.3795   2.4802   2.4830   4.2781   4.4089   4.4152   4.4951
     4.5688   4.6613   4.6699   4.6775   4.7065   4.7164   4.7261

     the Fermi energy is     4.2099 ev

!    total energy              =   -3007.66310629 Ry
     estimated scf accuracy    <       0.00000006 Ry
     smearing contrib. (-TS)   =      -0.03681105 Ry
     internal energy E=F+TS    =   -3007.62629524 Ry

     The total energy is F=E-TS. E is the sum of the following terms:
     one-electron contribution =  -22338.99497199 Ry
     hartree contribution      =   11271.28131767 Ry
     xc contribution           =    -502.07391727 Ry
     ewald contribution        =    8562.15842532 Ry
     electric field correction =       0.00285102 Ry

     convergence has been achieved in  77 iterations

     Forces acting on atoms (cartesian axes, Ry/au):

     atom    1 type  1   force =    -0.00027302   -0.00000947    0.09251231
     atom    2 type  1   force =    -0.00013983    0.00113892   -0.18325173
     atom    3 type  2   force =     0.00055081   -0.00040323   -0.02387795
     atom    4 type  2   force =     0.00079569    0.00021330    0.05088333
     atom    5 type  2   force =    -0.01552078   -0.00014046    0.00436318
     atom    6 type  2   force =     0.01423891   -0.00032659    0.00504477
     atom    7 type  1   force =    -0.00011499    0.00020087    0.00004720
     atom    8 type  1   force =    -0.00006953    0.00017055    0.00000327
     atom    9 type  2   force =     0.00006738    0.00004001    0.00012692
     atom   10 type  2   force =    -0.00000108    0.00001953   -0.00006291
     atom   11 type  2   force =     0.00015979    0.00001671   -0.00013517
     atom   12 type  2   force =     0.00004939    0.00003668   -0.00006007
     atom   13 type  1   force =     0.00018136    0.00011193   -0.00003043
     atom   14 type  1   force =     0.00026768    0.00015604   -0.00010021
     atom   15 type  2   force =     0.00027626    0.00039423    0.00002519
     atom   16 type  2   force =     0.00015056   -0.00001548    0.00018204
     atom   17 type  2   force =    -0.00000279    0.00011694    0.00007274
     atom   18 type  2   force =     0.00018625    0.00002942    0.00027807
     atom   19 type  1   force =     0.00011744   -0.00014080    0.00010679
     atom   20 type  1   force =     0.00016066   -0.00009786   -0.00016999
     atom   21 type  2   force =     0.00002920    0.00001461    0.10489946
     atom   22 type  2   force =    -0.00022573   -0.00002884    0.00004768
     atom   23 type  2   force =    -0.06802003   -0.00011634   -0.02685220
     atom   24 type  2   force =     0.06788069    0.00033919   -0.02689204
     atom   25 type  1   force =    -0.00012045   -0.00002709    0.09596134
     atom   26 type  1   force =    -0.00011232   -0.00143866   -0.18316084
     atom   27 type  2   force =     0.00050053   -0.00019566   -0.02267592
     atom   28 type  2   force =     0.00086499    0.00017724    0.05127964
     atom   29 type  2   force =    -0.01543368    0.00050301    0.00453449
     atom   30 type  2   force =     0.01419022    0.00077878    0.00523412
     atom   31 type  1   force =    -0.00009856    0.00005934   -0.00000815
     atom   32 type  1   force =    -0.00007306    0.00015636   -0.00004490
     atom   33 type  2   force =     0.00012622   -0.00002541    0.00017423
     atom   34 type  2   force =    -0.00000066    0.00007163    0.00002369
     atom   35 type  2   force =     0.00012489   -0.00000361   -0.00003164
     atom   36 type  2   force =     0.00008700   -0.00000524    0.00009143
     atom   37 type  1   force =     0.00017035    0.00006420   -0.00010670
     atom   38 type  1   force =     0.00015309   -0.00002977    0.00004112
     atom   39 type  2   force =     0.00017167   -0.00008719   -0.00017879
     atom   40 type  2   force =     0.00002336   -0.00018363    0.00003910
     atom   41 type  2   force =     0.00019604    0.00002021   -0.00001221
     atom   42 type  2   force =    -0.00005842    0.00000238    0.00011513
     atom   43 type  1   force =    -0.00001864   -0.00018536    0.00119782
     atom   44 type  1   force =     0.00003449    0.00016211    0.00035853
     atom   45 type  2   force =     0.00003352    0.00002053    0.10482783
     atom   46 type  2   force =    -0.06803258   -0.00050477   -0.02684129
     atom   47 type  2   force =     0.06789088   -0.00008492   -0.02692084
     atom   48 type  3   force =    -0.01103849   -0.00021866   -0.00244422
     atom   49 type  2   force =    -0.00103843   -0.00009082    0.00020440
     atom   50 type  4   force =     0.01195076   -0.00024788    0.00232999
     atom   51 type  4   force =     0.00014798   -0.00017065    0.00016840
     atom   52 type  4   force =     0.00007984   -0.00039730   -0.00003243
     atom   53 type  4   force =    -0.00005932    0.00018756   -0.00026796
     atom   54 type  5   force =    -0.00071374   -0.00004903   -0.00077889
     atom   55 type  5   force =     0.00015712    0.00000160   -0.00007098
     atom   56 type  2   force =     0.00127221    0.00057645   -0.00085957
     atom   57 type  4   force =    -0.00102822   -0.00044214    0.00025413
     atom   58 type  4   force =    -0.00109286   -0.00011347    0.00043969

     Total force =     0.368542     Total SCF correction =     0.000570
  @ DRIVER MODE: Message from server: STATUS
  @ DRIVER MODE: Message from server: GETFORCE
  @ DRIVER MODE: Returning v,forces,stress,ensemble

     Writing output data file ./calc.save/
  @ DRIVER MODE: Message from server: EXIT
  @ DRIVE MODE: Exiting

     General routines

     Parallel routines

   This run was terminated on:  23: 0: 3  27Sep2021

   JOB DONE.