     Program PWSCF v.6.7GPU starts on  3Aug2021 at  2:52:54

     R & G space division:  proc/nbgrp/npool/nimage =      16
     Reading input from /storage/home/hcoda1/3/ntian30/research/carbon/02Aug_vib_paired/ads_slab/CH3NHHH_a/out_0048/pw.inp
Warning: card &CELL ignored
Warning: card   CELL_DYNAMICS='IPI', ignored
Warning: card / ignored

     Current dimensions of program PWSCF are:
     Max number of different atomic species (ntypx) = 10
     Max number of k-points (npk) =  40000
     Max angular momentum in pseudopotentials (lmaxx) =  3
     Presently no symmetry can be used with electric field

     Message from routine cell_base_init:
     DEPRECATED: use true lattice parameter, not A to a.u. conversion factor

     IMPORTANT: XC functional enforced from input :
     Exchange-correlation= BEEF-VDW
                           (   1   4  43  14   2   0   0)
     Any further DFT definition will be discarded
     Please, verify this is what you really want

  @ DRIVER MODE: Connecting to
 qe_1139763_2482537.sched-torque.pace.gatech.edutaegnmx9_scratch
  using UNIX socket
  @ DRIVER MODE: Message from server: STATUS
  @ DRIVER MODE: Message from server: INIT
  @ DRIVER MODE: Receiving replica           0          -1
  @ DRIVER MODE: Receiving encoded integer          25
  @ DRIVER MODE:  SCF:  T  FORCE:  T  STRESS:  F  VC:  F  ENSEMBLE:  F
  @ DRIVER MODE:  SCF:  T  FORCE:  T  STRESS:  F  VC:  F  ENSEMBLE:  F

     Using Slab Decomposition

     bravais-lattice index     =            0
     lattice parameter (alat)  =       1.8897  a.u.
     unit-cell volume          =    6658.9804 (a.u.)^3
     number of atoms/cell      =           55
     number of atomic types    =            5
     number of electrons       =       393.00
     number of Kohn-Sham states=          206
     kinetic-energy cutoff     =      29.3995  Ry
     charge density cutoff     =     293.9946  Ry
     scf convergence threshold =      7.3E-08
     mixing beta               =       0.0500
     number of iterations used =            8  plain     mixing
     Exchange-correlation= BEEF-VDW
                           (   1   4  43  14   2   0   0)

     celldm(1)=   1.889726  celldm(2)=   0.000000  celldm(3)=   0.000000
     celldm(4)=   0.000000  celldm(5)=   0.000000  celldm(6)=   0.000000

     crystal axes: (cart. coord. in units of alat)
               a(1) = (   6.579727   0.000000   0.000000 )
               a(2) = (  -0.000775   5.961596   0.000000 )
               a(3) = (   0.000000   0.000000  25.155947 )

     reciprocal axes: (cart. coord. in units 2 pi/alat)
               b(1) = (  0.151982  0.000020  0.000000 )
               b(2) = (  0.000000  0.167740  0.000000 )
               b(3) = (  0.000000  0.000000  0.039752 )

     PseudoPot. # 1 for Ti read from file:
     /storage/coda1/p-amedford6/0/shared/rich_project_chbe-medford/medford-share/data/pseudos_module/espresso/nninc/pbe/van/Ti.UPF
     MD5 check sum: 8e4df49b7f0d34bbd5052bf3f5ea0213
     Pseudo is Ultrasoft, Zval = 12.0
     Generated by new atomic code, or converted to UPF format
     Using radial grid of  851 points,  6 beta functions with:
                l(1) =   0
                l(2) =   0
                l(3) =   1
                l(4) =   1
                l(5) =   2
                l(6) =   2
     Q(r) pseudized with  8 coefficients,  rinner =    1.000   1.000   1.000
                                                       1.000   1.000

     PseudoPot. # 2 for O  read from file:
     /storage/coda1/p-amedford6/0/shared/rich_project_chbe-medford/medford-share/data/pseudos_module/espresso/nninc/pbe/van/O.UPF
     MD5 check sum: 78c19812648e8988a0fe644b0f25305e
     Pseudo is Ultrasoft, Zval =  6.0
     Generated by new atomic code, or converted to UPF format
     Using radial grid of  737 points,  4 beta functions with:
                l(1) =   0
                l(2) =   0
                l(3) =   1
                l(4) =   1
     Q(r) pseudized with  8 coefficients,  rinner =    0.800   0.800   0.800

     PseudoPot. # 3 for N  read from file:
     /storage/coda1/p-amedford6/0/shared/rich_project_chbe-medford/medford-share/data/pseudos_module/espresso/nninc/pbe/van/N.UPF
     MD5 check sum: 90d10febe142ad51ac9d5be1deb811c4
     Pseudo is Ultrasoft, Zval =  5.0
     Generated by new atomic code, or converted to UPF format
     Using radial grid of  729 points,  4 beta functions with:
                l(1) =   0
                l(2) =   0
                l(3) =   1
                l(4) =   1
     Q(r) pseudized with  8 coefficients,  rinner =    0.800   0.800   0.800

     PseudoPot. # 4 for C  read from file:
     /storage/coda1/p-amedford6/0/shared/rich_project_chbe-medford/medford-share/data/pseudos_module/espresso/nninc/pbe/van/C.UPF
     MD5 check sum: 1a69bf6b8db32088f5b2163dbdb77a27
     Pseudo is Ultrasoft, Zval =  4.0
     Generated by new atomic code, or converted to UPF format
     Using radial grid of  721 points,  4 beta functions with:
                l(1) =   0
                l(2) =   0
                l(3) =   1
                l(4) =   1
     Q(r) pseudized with  8 coefficients,  rinner =    0.800   0.800   0.800

     PseudoPot. # 5 for H  read from file:
     /storage/coda1/p-amedford6/0/shared/rich_project_chbe-medford/medford-share/data/pseudos_module/espresso/nninc/pbe/van/H.UPF
     MD5 check sum: b5ee9d7bfd3a09ee7748110bda690ff7
     Pseudo is Ultrasoft, Zval =  1.0
     Generated by new atomic code, or converted to UPF format
     Using radial grid of  615 points,  1 beta functions with:
                l(1) =   0
     Q(r) pseudized with  8 coefficients,  rinner =    0.800

     atomic species   valence    mass     pseudopotential
        Ti1           12.00    47.86700     Ti( 1.00)
        O1             6.00    15.99900     O ( 1.00)
        N1             5.00    14.00700     N ( 1.00)
        C1             4.00    12.01100     C ( 1.00)
        H1             1.00     1.00800     H ( 1.00)

     No symmetry found

   Cartesian axes

     site n.     atom                  positions (alat units)
         1           Ti1 tau(   1) = (   0.0004258   2.9801865   6.0000000  )
         2           Ti1 tau(   2) = (   3.2906075   1.4906267   6.0002472  )
         3           O1  tau(   3) = (   0.0006271   0.0005054   7.9858123  )
         4           O1  tau(   4) = (   3.2906025   0.0005020   7.3038282  )
         5           O1  tau(   5) = (   4.5942328   1.4918067   9.2879030  )
         6           O1  tau(   6) = (   1.9868534   1.4903216   9.2879459  )
         7           Ti1 tau(   7) = (   3.2907910   2.8959150   9.1758416  )
         8           Ti1 tau(   8) = (   0.0015273   1.4827037   9.2680791  )
         9           O1  tau(   9) = (   3.2636084   5.9406443  11.4082010  )
        10           O1  tau(  10) = (   0.0116148   5.9584955  10.6183126  )
        11           O1  tau(  11) = (   1.2642105   1.4849797  12.6947803  )
        12           O1  tau(  12) = (   5.2691575   1.4821021  12.6650678  )
        13           Ti1 tau(  13) = (   6.5574234   2.9640577  12.4921542  )
        14           Ti1 tau(  14) = (   3.2619390   1.4709553  12.5527290  )
        15           O1  tau(  15) = (   6.5247406   5.9594380  14.6832748  )
        16           O1  tau(  16) = (   3.2695906   5.9428997  14.0562986  )
        17           O1  tau(  17) = (   4.5175969   1.4707097  16.2986306  )
        18           O1  tau(  18) = (   1.9406912   1.4777946  16.2473769  )
        19           Ti1 tau(  19) = (   3.2491105   2.9422209  15.8109686  )
        20           Ti1 tau(  20) = (   6.5361480   1.3378720  15.9626387  )
        21           O1  tau(  21) = (   3.2904802   0.0005063   4.7018136  )
        22           O1  tau(  22) = (   6.5280740   5.8897732  17.4332532  )
        23           O1  tau(  23) = (   1.3043587   1.4918075   6.0039043  )
        24           O1  tau(  24) = (   5.2767064   1.4903225   6.0039473  )
        25           Ti1 tau(  25) = (   0.0000382   5.9609847   6.0000000  )
        26           Ti1 tau(  26) = (   3.2902200   4.4714249   6.0002472  )
        27           O1  tau(  27) = (   0.0002396   2.9813036   7.9858123  )
        28           O1  tau(  28) = (   3.2902150   2.9813002   7.3038282  )
        29           O1  tau(  29) = (   4.5938453   4.4726049   9.2879030  )
        30           O1  tau(  30) = (   1.9864658   4.4711199   9.2879459  )
        31           Ti1 tau(  31) = (   3.2891106   5.8743827   9.1763621  )
        32           Ti1 tau(  32) = (   0.0006254   4.4649316   9.2693709  )
        33           O1  tau(  33) = (   3.2649920   2.9642658  11.3997388  )
        34           O1  tau(  34) = (   0.0092240   2.9805883  10.6323155  )
        35           O1  tau(  35) = (   1.2634527   4.4478426  12.7061968  )
        36           O1  tau(  36) = (   5.2693862   4.4495813  12.6755241  )
        37           Ti1 tau(  37) = (   6.5522441   5.9483113  12.5008436  )
        38           Ti1 tau(  38) = (   3.2626494   4.4468850  12.5575576  )
        39           O1  tau(  39) = (   6.4970557   2.9363996  15.0046851  )
        40           O1  tau(  40) = (   3.2722650   2.9529576  14.0194401  )
        41           O1  tau(  41) = (   4.5170401   4.4205294  16.2730734  )
        42           O1  tau(  42) = (   1.9466746   4.4191161  16.2235312  )
        43           Ti1 tau(  43) = (   3.2419262   5.9323414  15.8513663  )
        44           Ti1 tau(  44) = (   6.5549466   4.5556212  15.8889459  )
        45           O1  tau(  45) = (   3.2900926   2.9813045   4.7018136  )
        46           O1  tau(  46) = (   1.3039711   4.4726057   6.0039043  )
        47           O1  tau(  47) = (   5.2763189   4.4711207   6.0039473  )
        48           N1  tau(  48) = (   4.8657738   4.5798987  19.4796958  )
        49           C1  tau(  49) = (   5.7271871   3.4329544  19.8049648  )
        50           H1  tau(  50) = (   6.3241292   3.1721029  18.9298488  )
        51           H1  tau(  51) = (   6.4229137   3.7195585  20.5942015  )
        52           H1  tau(  52) = (   5.1874390   2.5328885  20.1195193  )
        53           H1  tau(  53) = (   5.9066942   5.7389963  18.1772939  )
        54           H1  tau(  54) = (   4.2103208   4.3266459  18.7469397  )
        55           H1  tau(  55) = (   4.3187305   4.8545830  20.2970342  )

     number of k points=    10  Fermi-Dirac smearing, width (Ry)=  0.0073
                       cart. coord. in units 2pi/alat
        k(    1) = (   0.0000000   0.0000000   0.0000000), wk =   0.1250000
        k(    2) = (   0.0000000   0.0419351   0.0000000), wk =   0.2500000
        k(    3) = (   0.0000000  -0.0838702   0.0000000), wk =   0.1250000
        k(    4) = (   0.0379955   0.0000049   0.0000000), wk =   0.2500000
        k(    5) = (   0.0379955   0.0419400   0.0000000), wk =   0.2500000
        k(    6) = (   0.0379955  -0.0838652   0.0000000), wk =   0.2500000
        k(    7) = (   0.0379955  -0.0419301   0.0000000), wk =   0.2500000
        k(    8) = (  -0.0759910  -0.0000099   0.0000000), wk =   0.1250000
        k(    9) = (  -0.0759910   0.0419252   0.0000000), wk =   0.2500000
        k(   10) = (  -0.0759910  -0.0838800   0.0000000), wk =   0.1250000

     Initial potential from superposition of free atoms

     starting charge  376.99914, renormalised to  393.00000

     negative rho (up, down):  1.329E-02 0.000E+00

     %%%%%%%%%%%%%%%%%%%%%%%%%%%%%%%%%%%%%%%%%%%%%%%%%%%%%%%%%%%%%%%%%%%%%%%%
     %                                                                      %
     % You are using vdW-DF, which was implemented by the Thonhauser group. %
     % Please cite the following two papers that made this development      %
     % possible and the two reviews that describe the various versions:     %
     %                                                                      %
     %   T. Thonhauser et al., PRL 115, 136402 (2015).                      %
     %   T. Thonhauser et al., PRB 76, 125112 (2007).                       %
     %   K. Berland et al., Rep. Prog. Phys. 78, 066501 (2015).             %
     %   D.C. Langreth et al., J. Phys.: Condens. Matter 21, 084203 (2009). %
     %                                                                      %
     %                                                                      %
     % If you are calculating the stress with vdW-DF, please also cite:     %
     %                                                                      %
     %   R. Sabatini et al., J. Phys.: Condens. Matter 24, 424209 (2012).   %
     %                                                                      %
     %%%%%%%%%%%%%%%%%%%%%%%%%%%%%%%%%%%%%%%%%%%%%%%%%%%%%%%%%%%%%%%%%%%%%%%%

     Adding external electric field

     Computed dipole along edir(3) :
        Dipole               -9.4926 Ry au,        -24.1277 Debye
        Dipole field         -0.0179 Ry au,

        Potential amp.        1.6606 Ry
        Total length         46.3494 bohr

     Starting wfcs are  298 atomic wfcs
  @ DRIVER MODE: Message from server: STATUS
  @ DRIVER MODE: Message from server: POSDATA
  @ DRIVER MODE: Reading and sharing cell
  @ DRIVER MODE: Reading and sharing positions
  @ DRIVER MODE: Received positions

     Self-consistent Calculation

     iteration #  1     ecut=    29.40 Ry     beta= 0.05
     Davidson diagonalization with overlap
     c_bands:  2 eigenvalues not converged
     c_bands:  1 eigenvalues not converged
     c_bands:  2 eigenvalues not converged
     c_bands:  3 eigenvalues not converged
     c_bands:  3 eigenvalues not converged
     c_bands:  1 eigenvalues not converged
     ethr =  1.00E-05,  avg # of iterations = 18.9

[...]

     total energy              =   -2620.46325029 Ry
     estimated scf accuracy    <    3390.31589145 Ry

[...]

     iteration #  3     ecut=    29.40 Ry     beta= 0.05
     Davidson diagonalization with overlap
     ethr =  1.00E-02,  avg # of iterations = 14.6

[...]

     iteration # 73     ecut=    29.40 Ry     beta= 0.05
     Davidson diagonalization with overlap
     c_bands:  2 eigenvalues not converged
     ethr =  3.57E-11,  avg # of iterations = 15.6

[...]

     total energy              =   -2922.77374158 Ry
     estimated scf accuracy    <       0.00000022 Ry

     iteration # 74     ecut=    29.40 Ry     beta= 0.05
     Davidson diagonalization with overlap
     ethr =  3.57E-11,  avg # of iterations = 10.8

     negative rho (up, down):  1.443E-02 0.000E+00

     Adding external electric field

     Computed dipole along edir(3) :
        Dipole                1.4052 Ry au,          3.5717 Debye
        Dipole field          0.0027 Ry au,

        Potential amp.       -0.2458 Ry
        Total length         46.3494 bohr

     End of self-consistent calculation

          k = 0.0000 0.0000 0.0000 ( 18029 PWs)   bands (ev):

   -55.3084 -55.2725 -55.2568 -55.2226 -55.1721 -55.1481 -55.1473 -55.1377
   -55.1137 -55.0839 -55.0728 -55.0500 -55.0311 -54.9730 -54.3001 -54.2661
   -31.8754 -31.7511 -31.6887 -31.6605 -31.6360 -31.6154 -31.5909 -31.5502
   -31.5461 -31.5448 -31.5156 -31.5044 -31.5007 -31.4760 -31.4654 -31.4602
   -31.4470 -31.4370 -31.4097 -31.4010 -31.3968 -31.3805 -31.3723 -31.3547
   -31.3523 -31.3148 -31.3140 -31.3043 -31.3024 -31.2893 -31.2845 -31.2825
   -31.2757 -31.2749 -31.2599 -31.2569 -31.2245 -31.2113 -31.2001 -31.1946
   -31.1816 -31.1067 -30.7105 -30.6140 -30.5920 -30.5265 -30.4396 -30.3290
   -16.8242 -16.1472 -15.8910 -15.7701 -15.6607 -15.5687 -15.5205 -15.4413
   -15.3574 -15.2570 -15.1955 -15.0903 -15.0556 -15.0162 -15.0014 -14.9825
   -14.9554 -14.8757 -14.8647 -14.8538 -14.8284 -14.8101 -14.7816 -14.7731
   -14.7663 -14.7270 -14.6897 -14.5771 -14.4868 -14.4014 -12.8035 -12.6858
    -9.9965  -5.8445  -4.7414  -4.4143  -3.5149  -3.4739  -3.3432  -3.2382
    -3.2048  -3.1965  -3.0756  -2.8924  -2.7974  -2.7703  -2.6862  -2.6292
    -2.5335  -2.5296  -2.4894  -2.3891  -2.3514  -2.3246  -2.2414  -2.2146
    -2.1682  -2.1175  -2.1073  -2.1041  -2.0835  -2.0429  -2.0043  -1.8855
    -1.8006  -1.7787  -1.7051  -1.6888  -1.6828  -1.6547  -1.6117  -1.5926
    -1.5432  -1.5261  -1.4855  -1.4165  -1.3556  -1.2732  -1.2363  -1.1992
    -0.9932  -0.9645  -0.9139  -0.9113  -0.8831  -0.8147  -0.7850  -0.7553
    -0.6895  -0.6869  -0.6586  -0.5523  -0.5094  -0.3886  -0.3181  -0.2384
    -0.1167  -0.1036  -0.0797  -0.0300  -0.0064   0.0531   0.1132   0.1499
     0.1893   0.2020   0.2893   0.3188   0.3960   0.4106   0.4490   0.5116
     0.5283   0.5542   0.5722   0.5840   0.6180   0.6339   0.6680   0.7347
     0.7667   0.8683   0.9169   1.2007   1.2861   1.5950   1.6184   1.7219
     1.9031   2.3004   2.3496   3.7860   3.8473   3.8877   3.9303   3.9339
     4.0156   4.1465   4.2892   4.2986   4.3099   4.3168

[...]

          k = 0.0380-0.0419 0.0000 ( 17876 PWs)   bands (ev):

[...]

          k =-0.0760-0.0000 0.0000 ( 17886 PWs)   bands (ev):

[...]

          k =-0.0760-0.0839 0.0000 ( 17948 PWs)   bands (ev):

   -55.2918 -55.2889 -55.2400 -55.2393 -55.1555 -55.1543 -55.1432 -55.1329
   -55.1287 -55.0765 -55.0682 -55.0658 -55.0240 -54.9801 -54.2831 -54.2830
   -31.6831 -31.6780 -31.5879 -31.5823 -31.5663 -31.5659 -31.5566 -31.5304
   -31.5298 -31.5089 -31.5042 -31.5022 -31.4890 -31.4627 -31.4579 -31.4566
   -31.4310 -31.4304 -31.4238 -31.4029 -31.3805 -31.3784 -31.3681 -31.3641
   -31.3636 -31.3595 -31.3589 -31.3498 -31.3480 -31.3422 -31.3385 -31.3231
   -31.3204 -31.3077 -31.3047 -31.2933 -31.2648 -31.2479 -31.2459 -31.2431
   -31.2261 -31.1731 -30.6047 -30.6046 -30.5230 -30.5228 -30.4831 -30.4830
   -16.7628 -15.8200 -15.5706 -15.5391 -15.4989 -15.4044 -15.3308 -15.2996
   -15.2895 -15.2764 -15.1502 -15.1221 -15.1128 -15.0847 -15.0528 -15.0285
   -15.0246 -14.9895 -14.9324 -14.9263 -14.9184 -14.9101 -14.8466 -14.8385
   -14.8347 -14.8278 -14.7624 -14.7599 -14.6780 -14.6760 -12.7871 -12.7871
   -10.0062  -5.8450  -4.8689  -4.3954  -3.5266  -2.8235  -2.7960  -2.7438
    -2.7031  -2.6128  -2.5271  -2.5000  -2.4635  -2.4057  -2.3535  -2.3061
    -2.3040  -2.2682  -2.2488  -2.2299  -2.1862  -2.1647  -2.1422  -2.1239
    -2.1093  -2.0554  -2.0527  -2.0436  -2.0190  -1.9850  -1.9676  -1.9543
    -1.9381  -1.9198  -1.8944  -1.8751  -1.7320  -1.7110  -1.6705  -1.5533
    -1.5355  -1.5320  -1.4988  -1.4551  -1.4303  -1.4229  -1.3490  -1.3418
    -1.3091  -1.1521  -1.0799  -1.0781  -1.0547  -1.0307  -0.9357  -0.8842
    -0.8439  -0.7940  -0.7181  -0.6868  -0.6681  -0.5955  -0.5686  -0.4771
    -0.3877  -0.3609  -0.3527  -0.2754  -0.2739  -0.2405  -0.2274  -0.1583
    -0.0981  -0.0466  -0.0426  -0.0385   0.0903   0.1273   0.2074   0.3215
     0.4019   0.4102   0.4616   0.5218   0.6065   0.6509   0.6673   0.7885
     0.7904   0.9768   0.9801   1.0285   1.0435   1.1238   1.1290   2.0759
     2.0766   2.1692   2.1695   3.7613   3.9445   3.9986   4.0716   4.0970
     4.1950   4.2798   4.3135   4.3435   4.3657   4.3722

     the Fermi energy is     3.8545 ev

!    total energy              =   -2922.77375580 Ry
     estimated scf accuracy    <       0.00000004 Ry
     smearing contrib. (-TS)   =      -0.04551676 Ry
     internal energy E=F+TS    =   -2922.72823904 Ry

     The total energy is F=E-TS. E is the sum of the following terms:
     one-electron contribution =  -23201.24953279 Ry
     hartree contribution      =   11690.91276291 Ry
     xc contribution           =    -482.54163067 Ry
     ewald contribution        =    9070.14643506 Ry
     electric field correction =       0.00372644 Ry

     convergence has been achieved in  74 iterations

     Forces acting on atoms (cartesian axes, Ry/au):

     atom    1 type  1   force =     0.00016444   -0.00007727    0.09298009
     atom    2 type  1   force =    -0.00000302   -0.00014480   -0.17883214
     atom    3 type  2   force =     0.00002027   -0.00029776   -0.02021631
     atom    4 type  2   force =    -0.00000268   -0.00224002    0.06098178
     atom    5 type  2   force =    -0.01150303   -0.00128205    0.01054966
     atom    6 type  2   force =     0.01241675   -0.00058525    0.00811288
     atom    7 type  1   force =    -0.00124484    0.00346227   -0.01488319
     atom    8 type  1   force =     0.00123041   -0.00358411   -0.00845296
     atom    9 type  2   force =     0.00001573   -0.00004905   -0.00025133
     atom   10 type  2   force =    -0.00281448   -0.00047933    0.00152733
     atom   11 type  2   force =     0.00012352   -0.00023250   -0.00028659
     atom   12 type  2   force =     0.00000153    0.00009045   -0.00009667
     atom   13 type  1   force =    -0.00019176   -0.00032222   -0.00059353
     atom   14 type  1   force =    -0.00003662   -0.00004168    0.00022876
     atom   15 type  2   force =    -0.00011785   -0.00024092   -0.00013999
     atom   16 type  2   force =     0.00032614    0.00034795   -0.00010650
     atom   17 type  2   force =     0.00078583    0.00029090   -0.00024644
     atom   18 type  2   force =     0.00008982   -0.00026683   -0.00004252
     atom   19 type  1   force =     0.00025255    0.00042780   -0.00038998
     atom   20 type  1   force =     0.00010720    0.00006842    0.00049192
     atom   21 type  2   force =     0.00012570   -0.00003436    0.10425495
     atom   22 type  2   force =    -0.00052899    0.00014686    0.00016978
     atom   23 type  2   force =    -0.06992217   -0.00010786   -0.02679364
     atom   24 type  2   force =     0.06989609    0.00034895   -0.02679496
     atom   25 type  1   force =     0.00019250   -0.00021463    0.09227690
     atom   26 type  1   force =    -0.00006929   -0.00036517   -0.17903615
     atom   27 type  2   force =     0.00003949   -0.00026184   -0.01894731
     atom   28 type  2   force =     0.00006605   -0.00192819    0.06022686
     atom   29 type  2   force =    -0.01169299   -0.00162687    0.01034025
     atom   30 type  2   force =     0.01248057   -0.00120879    0.00786916
     atom   31 type  1   force =    -0.00101058    0.00608900   -0.01577084
     atom   32 type  1   force =     0.00116789    0.00333901   -0.00863146
     atom   33 type  2   force =     0.00003245    0.00019892   -0.00023982
     atom   34 type  2   force =    -0.00240717   -0.00053546    0.00058527
     atom   35 type  2   force =     0.00000318   -0.00000255    0.00005442
     atom   36 type  2   force =     0.00003559   -0.00007859    0.00036859
     atom   37 type  1   force =     0.00035429   -0.00003523   -0.00002176
     atom   38 type  1   force =    -0.00034397   -0.00030738    0.00047506
     atom   39 type  2   force =     0.00036055   -0.00015012    0.00062918
     atom   40 type  2   force =     0.00025246   -0.00017484    0.00004014
     atom   41 type  2   force =     0.00006460    0.00034976   -0.00035586
     atom   42 type  2   force =     0.00049732    0.00021258   -0.00018808
     atom   43 type  1   force =     0.00024687   -0.00016023   -0.00034790
     atom   44 type  1   force =     0.00016264   -0.00126957    0.00057576
     atom   45 type  2   force =     0.00011818   -0.00005321    0.10420439
     atom   46 type  2   force =    -0.06993749   -0.00005711   -0.02678470
     atom   47 type  2   force =     0.06992680    0.00034740   -0.02680547
     atom   48 type  3   force =    -0.00396064    0.00356004    0.00943409
     atom   49 type  4   force =     0.00079792    0.00093495   -0.00087953
     atom   50 type  5   force =     0.00012778   -0.00000872   -0.00011898
     atom   51 type  5   force =    -0.00066758   -0.00029316    0.00021585
     atom   52 type  5   force =    -0.00012917   -0.00033495    0.00027010
     atom   53 type  5   force =     0.00015266    0.00077062   -0.00099973
     atom   54 type  5   force =    -0.00109608    0.00040031    0.00036008
     atom   55 type  5   force =     0.00504462   -0.00233359   -0.00996891

     Total force =     0.367936     Total SCF correction =     0.000658
  @ DRIVER MODE: Message from server: STATUS
  @ DRIVER MODE: Message from server: GETFORCE
  @ DRIVER MODE: Returning v,forces,stress,ensemble

     Writing output data file ./calc.save/
  @ DRIVER MODE: Message from server: EXIT
  @ DRIVE MODE: Exiting

     General routines

     Parallel routines

   This run was terminated on:   3:12:23   3Aug2021

   JOB DONE.