     Program PWSCF v.6.7GPU starts on 11Sep2021 at  1:40:56

     R & G space division:  proc/nbgrp/npool/nimage =      10
     Reading input from /storage/home/hcoda1/3/ntian30/research/carbon/CxH_vib/CH2_calc/ads_slab/CH2N2H_e/out_0023/pw.inp
Warning: card &CELL ignored
Warning: card   CELL_DYNAMICS='IPI', ignored
Warning: card / ignored

     Current dimensions of program PWSCF are:
     Max number of different atomic species (ntypx) = 10
     Max number of k-points (npk) =  40000
     Max angular momentum in pseudopotentials (lmaxx) =  3
     Presently no symmetry can be used with electric field

     Message from routine cell_base_init:
     DEPRECATED: use true lattice parameter, not A to a.u. conversion factor

     IMPORTANT: XC functional enforced from input :
     Exchange-correlation= BEEF-VDW
                           (   1   4  43  14   2   0   0)
     Any further DFT definition will be discarded
     Please, verify this is what you really want

  @ DRIVER MODE: Connecting to
 qe_1139763_2792041.sched-torque.pace.gatech.edujx82g7br_scratch
  using UNIX socket
  @ DRIVER MODE: Message from server: STATUS
  @ DRIVER MODE: Message from server: INIT
  @ DRIVER MODE: Receiving replica           0          -1
  @ DRIVER MODE: Receiving encoded integer          25
  @ DRIVER MODE:  SCF:  T  FORCE:  T  STRESS:  F  VC:  F  ENSEMBLE:  F
  @ DRIVER MODE:  SCF:  T  FORCE:  T  STRESS:  F  VC:  F  ENSEMBLE:  F

     Using Slab Decomposition

     bravais-lattice index     =            0
     lattice parameter (alat)  =       1.8897  a.u.
     unit-cell volume          =    6658.9804 (a.u.)^3
     number of atoms/cell      =           53
     number of atomic types    =            5
     number of electrons       =       395.00
     number of Kohn-Sham states=          207
     kinetic-energy cutoff     =      29.3995  Ry
     charge density cutoff     =     293.9946  Ry
     scf convergence threshold =      7.3E-08
     mixing beta               =       0.0500
     number of iterations used =            8  plain     mixing
     Exchange-correlation= BEEF-VDW
                           (   1   4  43  14   2   0   0)

     celldm(1)=   1.889726  celldm(2)=   0.000000  celldm(3)=   0.000000
     celldm(4)=   0.000000  celldm(5)=   0.000000  celldm(6)=   0.000000

     crystal axes: (cart. coord. in units of alat)
               a(1) = (   6.579727   0.000000   0.000000 )
               a(2) = (  -0.000775   5.961596   0.000000 )
               a(3) = (   0.000000   0.000000  25.155947 )

     reciprocal axes: (cart. coord. in units 2 pi/alat)
               b(1) = (  0.151982  0.000020  0.000000 )
               b(2) = (  0.000000  0.167740  0.000000 )
               b(3) = (  0.000000  0.000000  0.039752 )

     PseudoPot. # 1 for Ti read from file:
     /storage/coda1/p-amedford6/0/shared/rich_project_chbe-medford/medford-share/data/pseudos_module/espresso/nninc/pbe/van/Ti.UPF
     MD5 check sum: 8e4df49b7f0d34bbd5052bf3f5ea0213
     Pseudo is Ultrasoft, Zval = 12.0
     Generated by new atomic code, or converted to UPF format
     Using radial grid of  851 points,  6 beta functions with:
                l(1) =   0
                l(2) =   0
                l(3) =   1
                l(4) =   1
                l(5) =   2
                l(6) =   2
     Q(r) pseudized with  8 coefficients,  rinner =    1.000   1.000   1.000
                                                       1.000   1.000

     PseudoPot. # 2 for O  read from file:
     /storage/coda1/p-amedford6/0/shared/rich_project_chbe-medford/medford-share/data/pseudos_module/espresso/nninc/pbe/van/O.UPF
     MD5 check sum: 78c19812648e8988a0fe644b0f25305e
     Pseudo is Ultrasoft, Zval =  6.0
     Generated by new atomic code, or converted to UPF format
     Using radial grid of  737 points,  4 beta functions with:
                l(1) =   0
                l(2) =   0
                l(3) =   1
                l(4) =   1
     Q(r) pseudized with  8 coefficients,  rinner =    0.800   0.800   0.800

     PseudoPot. # 3 for N  read from file:
     /storage/coda1/p-amedford6/0/shared/rich_project_chbe-medford/medford-share/data/pseudos_module/espresso/nninc/pbe/van/N.UPF
     MD5 check sum: 90d10febe142ad51ac9d5be1deb811c4
     Pseudo is Ultrasoft, Zval =  5.0
     Generated by new atomic code, or converted to UPF format
     Using radial grid of  729 points,  4 beta functions with:
                l(1) =   0
                l(2) =   0
                l(3) =   1
                l(4) =   1
     Q(r) pseudized with  8 coefficients,  rinner =    0.800   0.800   0.800

     PseudoPot. # 4 for C  read from file:
     /storage/coda1/p-amedford6/0/shared/rich_project_chbe-medford/medford-share/data/pseudos_module/espresso/nninc/pbe/van/C.UPF
     MD5 check sum: 1a69bf6b8db32088f5b2163dbdb77a27
     Pseudo is Ultrasoft, Zval =  4.0
     Generated by new atomic code, or converted to UPF format
     Using radial grid of  721 points,  4 beta functions with:
                l(1) =   0
                l(2) =   0
                l(3) =   1
                l(4) =   1
     Q(r) pseudized with  8 coefficients,  rinner =    0.800   0.800   0.800

     PseudoPot. # 5 for H  read from file:
     /storage/coda1/p-amedford6/0/shared/rich_project_chbe-medford/medford-share/data/pseudos_module/espresso/nninc/pbe/van/H.UPF
     MD5 check sum: b5ee9d7bfd3a09ee7748110bda690ff7
     Pseudo is Ultrasoft, Zval =  1.0
     Generated by new atomic code, or converted to UPF format
     Using radial grid of  615 points,  1 beta functions with:
                l(1) =   0
     Q(r) pseudized with  8 coefficients,  rinner =    0.800

     atomic species   valence    mass     pseudopotential
        Ti1           12.00    47.86700     Ti( 1.00)
        O1             6.00    15.99900     O ( 1.00)
        N1             5.00    14.00700     N ( 1.00)
        C1             4.00    12.01100     C ( 1.00)
        H1             1.00     1.00800     H ( 1.00)

     No symmetry found

   Cartesian axes

     site n.     atom                  positions (alat units)
         1           Ti1 tau(   1) = (   0.0004258   2.9801865   6.0000000  )
         2           Ti1 tau(   2) = (   3.2906075   1.4906267   6.0002472  )
         3           O1  tau(   3) = (   0.0006271   0.0005054   7.9858123  )
         4           O1  tau(   4) = (   3.2906025   0.0005020   7.3038282  )
         5           O1  tau(   5) = (   4.5942328   1.4918067   9.2879030  )
         6           O1  tau(   6) = (   1.9868534   1.4903216   9.2879459  )
         7           Ti1 tau(   7) = (   3.2907910   2.8959150   9.1758416  )
         8           Ti1 tau(   8) = (   0.0015273   1.4827037   9.2680791  )
         9           O1  tau(   9) = (   3.2922140   0.0036562  11.3253104  )
        10           O1  tau(  10) = (   0.0116148   5.9584955  10.6183126  )
        11           O1  tau(  11) = (   1.2860832   1.4889729  12.6258215  )
        12           O1  tau(  12) = (   5.2729595   1.4828594  12.6177116  )
        13           Ti1 tau(  13) = (   0.0641184   3.0073180  12.5883652  )
        14           Ti1 tau(  14) = (   3.3767723   1.4911129  12.4765728  )
        15           O1  tau(  15) = (   6.5781935   5.9569561  14.6821271  )
        16           O1  tau(  16) = (   3.2819581   0.0025077  13.9050320  )
        17           O1  tau(  17) = (   4.5172158   1.5234625  16.0337941  )
        18           O1  tau(  18) = (   2.0475084   1.5263597  16.0453316  )
        19           Ti1 tau(  19) = (   3.2743797   3.0127756  15.6984511  )
        20           Ti1 tau(  20) = (   6.5512008   1.5842238  15.7855373  )
        21           O1  tau(  21) = (   3.2904802   0.0005063   4.7018136  )
        22           O1  tau(  22) = (   6.5742344   0.0609322  17.2932839  )
        23           O1  tau(  23) = (   1.3043587   1.4918075   6.0039043  )
        24           O1  tau(  24) = (   5.2767064   1.4903225   6.0039473  )
        25           Ti1 tau(  25) = (   0.0000382   5.9609847   6.0000000  )
        26           Ti1 tau(  26) = (   3.2902200   4.4714249   6.0002472  )
        27           O1  tau(  27) = (   0.0002396   2.9813036   7.9858123  )
        28           O1  tau(  28) = (   3.2902150   2.9813002   7.3038282  )
        29           O1  tau(  29) = (   4.5938453   4.4726049   9.2879030  )
        30           O1  tau(  30) = (   1.9864658   4.4711199   9.2879459  )
        31           Ti1 tau(  31) = (   3.2891106   5.8743827   9.1763621  )
        32           Ti1 tau(  32) = (   0.0006254   4.4649316   9.2693709  )
        33           O1  tau(  33) = (   3.2917412   2.9831059  11.3263362  )
        34           O1  tau(  34) = (   0.0092240   2.9805883  10.6323155  )
        35           O1  tau(  35) = (   1.2859270   4.4784489  12.6216084  )
        36           O1  tau(  36) = (   5.2779610   4.4756213  12.6128944  )
        37           Ti1 tau(  37) = (   0.0616295   0.0157230  12.5710002  )
        38           Ti1 tau(  38) = (   3.3796684   4.4726909  12.4790056  )
        39           O1  tau(  39) = (   6.5693437   2.9756239  14.6354252  )
        40           O1  tau(  40) = (   3.2842310   3.0020566  13.9003041  )
        41           O1  tau(  41) = (   4.5171552   4.5052370  16.0986928  )
        42           O1  tau(  42) = (   2.0408908   4.5012300  16.0971631  )
        43           Ti1 tau(  43) = (   3.2680294   0.0293594  15.7040856  )
        44           Ti1 tau(  44) = (   6.5592110   4.6908586  16.1766550  )
        45           O1  tau(  45) = (   3.2900926   2.9813045   4.7018136  )
        46           O1  tau(  46) = (   1.3039711   4.4726057   6.0039043  )
        47           O1  tau(  47) = (   5.2763189   4.4711207   6.0039473  )
        48           N1  tau(  48) = (   0.0931655   2.5901963  18.5587852  )
        49           N1  tau(  49) = (   6.5755498   2.9338716  17.3126873  )
        50           C1  tau(  50) = (   0.1889803   3.3462807  19.6294495  )
        51           H1  tau(  51) = (   0.2540540   2.8541835  20.5736859  )
        52           H1  tau(  52) = (   0.1890997   4.4171571  19.5098884  )
        53           H1  tau(  53) = (   0.0969130   1.5623892  18.6894177  )

     number of k points=    10  Fermi-Dirac smearing, width (Ry)=  0.0073
                       cart. coord. in units 2pi/alat
        k(    1) = (   0.0000000   0.0000000   0.0000000), wk =   0.1250000
        k(    2) = (   0.0000000   0.0419351   0.0000000), wk =   0.2500000
        k(    3) = (   0.0000000  -0.0838702   0.0000000), wk =   0.1250000
        k(    4) = (   0.0379955   0.0000049   0.0000000), wk =   0.2500000
        k(    5) = (   0.0379955   0.0419400   0.0000000), wk =   0.2500000
        k(    6) = (   0.0379955  -0.0838652   0.0000000), wk =   0.2500000
        k(    7) = (   0.0379955  -0.0419301   0.0000000), wk =   0.2500000
        k(    8) = (  -0.0759910  -0.0000099   0.0000000), wk =   0.1250000
        k(    9) = (  -0.0759910   0.0419252   0.0000000), wk =   0.2500000
        k(   10) = (  -0.0759910  -0.0838800   0.0000000), wk =   0.1250000

     Initial potential from superposition of free atoms

     starting charge  378.99916, renormalised to  395.00000

     negative rho (up, down):  1.525E-02 0.000E+00

     %%%%%%%%%%%%%%%%%%%%%%%%%%%%%%%%%%%%%%%%%%%%%%%%%%%%%%%%%%%%%%%%%%%%%%%%
     %                                                                      %
     % You are using vdW-DF, which was implemented by the Thonhauser group. %
     % Please cite the following two papers that made this development      %
     % possible and the two reviews that describe the various versions:     %
     %                                                                      %
     %   T. Thonhauser et al., PRL 115, 136402 (2015).                      %
     %   T. Thonhauser et al., PRB 76, 125112 (2007).                       %
     %   K. Berland et al., Rep. Prog. Phys. 78, 066501 (2015).             %
     %   D.C. Langreth et al., J. Phys.: Condens. Matter 21, 084203 (2009). %
     %                                                                      %
     %                                                                      %
     % If you are calculating the stress with vdW-DF, please also cite:     %
     %                                                                      %
     %   R. Sabatini et al., J. Phys.: Condens. Matter 24, 424209 (2012).   %
     %                                                                      %
     %%%%%%%%%%%%%%%%%%%%%%%%%%%%%%%%%%%%%%%%%%%%%%%%%%%%%%%%%%%%%%%%%%%%%%%%

     Adding external electric field

     Computed dipole along edir(3) :
        Dipole               -8.7477 Ry au,        -22.2344 Debye
        Dipole field         -0.0165 Ry au,

        Potential amp.        1.5303 Ry
        Total length         46.3494 bohr

     Starting wfcs are  299 atomic wfcs
  @ DRIVER MODE: Message from server: STATUS
  @ DRIVER MODE: Message from server: POSDATA
  @ DRIVER MODE: Reading and sharing cell
  @ DRIVER MODE: Reading and sharing positions
  @ DRIVER MODE: Received positions

     Self-consistent Calculation

     iteration #  1     ecut=    29.40 Ry     beta= 0.05
     Davidson diagonalization with overlap
     c_bands:  2 eigenvalues not converged
     c_bands:  1 eigenvalues not converged
     c_bands:  1 eigenvalues not converged
     c_bands:  3 eigenvalues not converged
     c_bands:  2 eigenvalues not converged
     c_bands:  1 eigenvalues not converged
     c_bands:  1 eigenvalues not converged
     ethr =  1.00E-05,  avg # of iterations = 19.1

[...]

     total energy              =   -2617.01509358 Ry
     estimated scf accuracy    <    3577.18884790 Ry

     iteration #  2     ecut=    29.40 Ry     beta= 0.05
     Davidson diagonalization with overlap
     ethr =  1.00E-02,  avg # of iterations = 22.3

[...]

     iteration # 66     ecut=    29.40 Ry     beta= 0.05
     Davidson diagonalization with overlap
     c_bands:  1 eigenvalues not converged
     ethr =  1.01E-10,  avg # of iterations =  8.7

[...]

     total energy              =   -2939.15577104 Ry
     estimated scf accuracy    <       0.00000010 Ry

     iteration # 70     ecut=    29.40 Ry     beta= 0.05
     Davidson diagonalization with overlap
     ethr =  2.53E-11,  avg # of iterations =  6.5

     negative rho (up, down):  1.571E-02 0.000E+00

     Adding external electric field

     Computed dipole along edir(3) :
        Dipole                1.1189 Ry au,          2.8439 Debye
        Dipole field          0.0021 Ry au,

        Potential amp.       -0.1957 Ry
        Total length         46.3494 bohr

     End of self-consistent calculation

          k = 0.0000 0.0000 0.0000 ( 18029 PWs)   bands (ev):

   -55.5884 -55.5846 -55.5543 -55.5487 -55.4560 -55.4364 -55.4197 -55.4019
   -55.4011 -55.3680 -55.3629 -55.3293 -54.9571 -54.8693 -54.5663 -54.5322
   -32.1393 -32.0713 -31.9568 -31.9003 -31.8971 -31.8889 -31.8812 -31.8541
   -31.8322 -31.8121 -31.7799 -31.7703 -31.7638 -31.7405 -31.7376 -31.7244
   -31.6931 -31.6824 -31.6725 -31.6595 -31.6564 -31.6454 -31.6106 -31.6043
   -31.5944 -31.5908 -31.5865 -31.5777 -31.5673 -31.5650 -31.5405 -31.5307
   -31.5167 -31.5115 -31.5032 -31.4758 -31.4642 -31.1963 -31.1885 -31.1499
   -31.1021 -31.0482 -30.9733 -30.8852 -30.8627 -30.7902 -30.7037 -30.5925
   -18.9379 -16.3430 -16.0665 -15.8188 -15.7386 -15.7219 -15.6059 -15.4337
   -15.3174 -15.2658 -15.1630 -15.1619 -15.1257 -15.0913 -15.0430 -15.0399
   -15.0351 -15.0083 -14.9989 -14.9786 -14.9487 -14.9304 -14.8910 -14.7920
   -14.7735 -14.7240 -14.6950 -14.6688 -14.6488 -14.2647 -13.0686 -12.9521
   -12.7118  -8.8780  -6.3521  -4.8605  -3.7184  -3.6509  -3.5608  -3.4961
    -3.4655  -3.4361  -3.2383  -3.1958  -3.1436  -2.8372  -2.7765  -2.7581
    -2.7479  -2.7182  -2.4937  -2.4548  -2.4037  -2.3730  -2.3612  -2.3588
    -2.3571  -2.3274  -2.3090  -2.1681  -2.1335  -2.0430  -2.0036  -1.9971
    -1.9883  -1.9014  -1.8693  -1.8427  -1.8327  -1.8228  -1.7950  -1.7856
    -1.7772  -1.6432  -1.5642  -1.4124  -1.3920  -1.3515  -1.2201  -1.1965
    -1.0645  -1.0476  -1.0185  -0.9818  -0.9617  -0.8929  -0.7728  -0.7511
    -0.7154  -0.7004  -0.6099  -0.5716  -0.5039  -0.4695  -0.4453  -0.3977
    -0.3591  -0.3501  -0.3281  -0.2017  -0.0719  -0.0143  -0.0051   0.0222
     0.0907   0.1283   0.1888   0.2389   0.2487   0.2852   0.3367   0.3811
     0.3931   0.3956   0.4108   0.4490   0.5902   0.6066   0.6719   0.7173
     0.7606   0.8757   0.9275   1.0635   1.1555   1.3147   1.3832   1.4560
     1.5286   1.6482   2.0265   2.0453   2.0724   3.5420   3.6306   3.6748
     3.6803   3.7861   3.8816   3.9932   4.0132   4.0336   4.0889

[...]

          k = 0.0380-0.0419 0.0000 ( 17876 PWs)   bands (ev):

[...]

          k =-0.0760-0.0000 0.0000 ( 17886 PWs)   bands (ev):

[...]

          k =-0.0760-0.0839 0.0000 ( 17948 PWs)   bands (ev):

   -55.5715 -55.5711 -55.5669 -55.5662 -55.4434 -55.4323 -55.4220 -55.4153
   -55.3849 -55.3845 -55.3468 -55.3456 -54.9544 -54.8720 -54.5493 -54.5491
   -31.9427 -31.9409 -31.8867 -31.8863 -31.8668 -31.8662 -31.8389 -31.8387
   -31.8043 -31.7919 -31.7675 -31.7614 -31.7269 -31.7189 -31.7041 -31.7015
   -31.6996 -31.6964 -31.6908 -31.6906 -31.6870 -31.6844 -31.6567 -31.6490
   -31.6306 -31.6280 -31.6215 -31.6155 -31.5853 -31.5840 -31.5786 -31.5770
   -31.5624 -31.5619 -31.5615 -31.5597 -31.3669 -31.2330 -31.1971 -31.1639
   -31.1042 -31.0923 -30.8755 -30.8753 -30.7862 -30.7860 -30.7471 -30.7470
   -18.9341 -15.7731 -15.7584 -15.5323 -15.5170 -15.5058 -15.4968 -15.3495
   -15.3226 -15.2845 -15.2815 -15.2096 -15.1641 -15.1477 -15.1322 -15.1295
   -15.1110 -15.1029 -15.0544 -15.0474 -15.0463 -15.0284 -15.0219 -14.9074
   -14.9034 -14.8955 -14.8430 -14.7938 -14.6769 -14.3925 -13.0540 -13.0539
   -12.7176  -8.8781  -6.3467  -4.8216  -3.6651  -3.3538  -3.0607  -3.0494
    -2.7596  -2.7488  -2.7463  -2.7034  -2.5109  -2.5061  -2.4920  -2.4599
    -2.4265  -2.4152  -2.4054  -2.3912  -2.3856  -2.3369  -2.3149  -2.2699
    -2.2569  -2.2536  -2.2522  -2.2169  -2.2065  -2.1643  -2.1538  -2.1306
    -2.1183  -2.0863  -2.0554  -1.9085  -1.8223  -1.8033  -1.7295  -1.7226
    -1.6903  -1.6534  -1.6397  -1.5948  -1.5601  -1.4435  -1.3314  -1.2893
    -1.2749  -1.1747  -1.1384  -1.1001  -1.0476  -0.9735  -0.9654  -0.9363
    -0.8702  -0.7981  -0.7818  -0.7590  -0.6948  -0.6707  -0.5970  -0.5759
    -0.5510  -0.5461  -0.4894  -0.4238  -0.4080  -0.3564  -0.3483  -0.3073
    -0.2728  -0.2436  -0.2241  -0.0848  -0.0834  -0.0430   0.0916   0.1475
     0.3800   0.4294   0.4493   0.5209   0.6207   0.6692   0.6826   0.7243
     0.7337   0.7488   0.8089   0.9388   0.9443   1.0130   1.0538   1.1560
     1.8200   1.8204   1.8923   1.8924   1.9052   3.8383   3.8647   3.8775
     3.9012   4.0489   4.0588   4.0785   4.0793   4.1990   4.2202

     the Fermi energy is     3.5435 ev

!    total energy              =   -2939.15579497 Ry
     estimated scf accuracy    <       0.00000004 Ry
     smearing contrib. (-TS)   =      -0.02147001 Ry
     internal energy E=F+TS    =   -2939.13432497 Ry

     The total energy is F=E-TS. E is the sum of the following terms:
     one-electron contribution =  -24213.23311576 Ry
     hartree contribution      =   12196.46110849 Ry
     xc contribution           =    -485.26120164 Ry
     ewald contribution        =    9562.89652152 Ry
     electric field correction =       0.00236242 Ry

     convergence has been achieved in  70 iterations

     Forces acting on atoms (cartesian axes, Ry/au):

     atom    1 type  1   force =     0.00008959   -0.00017717    0.09642465
     atom    2 type  1   force =    -0.00018833   -0.00073062   -0.17539150
     atom    3 type  2   force =     0.00004322   -0.00013068   -0.02408267
     atom    4 type  2   force =     0.00007793   -0.00140976    0.05266963
     atom    5 type  2   force =    -0.01131073   -0.00007178    0.00339424
     atom    6 type  2   force =     0.01296170    0.00064299    0.00223948
     atom    7 type  1   force =    -0.00119896    0.00047163   -0.01223349
     atom    8 type  1   force =     0.00043281    0.00232575    0.02520103
     atom    9 type  2   force =    -0.00025297    0.00018705    0.00001900
     atom   10 type  2   force =    -0.00120642    0.00198576   -0.01304641
     atom   11 type  2   force =     0.00057623    0.00015828    0.00024166
     atom   12 type  2   force =    -0.00049951    0.00006394    0.00011600
     atom   13 type  1   force =    -0.00050470    0.00027829    0.00019633
     atom   14 type  1   force =     0.00060783   -0.00036798   -0.00027373
     atom   15 type  2   force =    -0.00006748    0.00027764    0.00002097
     atom   16 type  2   force =    -0.00002189    0.00018021    0.00056729
     atom   17 type  2   force =    -0.00054037   -0.00003828   -0.00005617
     atom   18 type  2   force =     0.00018449   -0.00012001   -0.00029547
     atom   19 type  1   force =     0.00013091    0.00076204    0.00046492
     atom   20 type  1   force =    -0.00000560    0.00034910   -0.00013225
     atom   21 type  2   force =     0.00009946   -0.00012428    0.10317595
     atom   22 type  2   force =    -0.00024570    0.00014793    0.00012399
     atom   23 type  2   force =    -0.07151850   -0.00021258   -0.02774133
     atom   24 type  2   force =     0.07152028    0.00025111   -0.02774699
     atom   25 type  1   force =     0.00012360   -0.00025661    0.09594392
     atom   26 type  1   force =    -0.00010975   -0.00044630   -0.17554287
     atom   27 type  2   force =     0.00009549   -0.00012919   -0.02332587
     atom   28 type  2   force =     0.00011100   -0.00121595    0.05263359
     atom   29 type  2   force =    -0.01155938   -0.00029686    0.00347719
     atom   30 type  2   force =     0.01314373    0.00016507    0.00228359
     atom   31 type  1   force =    -0.00120020    0.00345707   -0.01234453
     atom   32 type  1   force =     0.00054790   -0.00379055    0.02548533
     atom   33 type  2   force =     0.00002678   -0.00017087   -0.00003855
     atom   34 type  2   force =    -0.00098558    0.00046488   -0.02168359
     atom   35 type  2   force =     0.00014007    0.00000894    0.00018657
     atom   36 type  2   force =    -0.00014623    0.00002158    0.00006839
     atom   37 type  1   force =    -0.00045108   -0.00031896    0.00017044
     atom   38 type  1   force =     0.00043435    0.00027628   -0.00027432
     atom   39 type  2   force =    -0.00001474   -0.00044433    0.00028944
     atom   40 type  2   force =    -0.00012957   -0.00008500    0.00011393
     atom   41 type  2   force =    -0.00081760   -0.00016793   -0.00024790
     atom   42 type  2   force =     0.00088499    0.00001582   -0.00001515
     atom   43 type  1   force =    -0.00000934   -0.00077049    0.00008731
     atom   44 type  1   force =    -0.00004431    0.00002372    0.00013267
     atom   45 type  2   force =     0.00010491   -0.00010870    0.10319200
     atom   46 type  2   force =    -0.07152223   -0.00015222   -0.02772919
     atom   47 type  2   force =     0.07153218    0.00029519   -0.02773807
     atom   48 type  3   force =     0.00027918   -0.00092881   -0.00167428
     atom   49 type  3   force =     0.00018471   -0.00028391   -0.00019019
     atom   50 type  4   force =    -0.00092849    0.00532473   -0.00966506
     atom   51 type  5   force =     0.00101706   -0.00532230    0.01176727
     atom   52 type  5   force =     0.00019660   -0.00068640    0.00050501
     atom   53 type  5   force =    -0.00006732    0.00082353    0.00027782

     Total force =     0.367146     Total SCF correction =     0.000428
  @ DRIVER MODE: Message from server: STATUS
  @ DRIVER MODE: Message from server: GETFORCE
  @ DRIVER MODE: Returning v,forces,stress,ensemble

     Writing output data file ./calc.save/
  @ DRIVER MODE: Message from server: EXIT
  @ DRIVE MODE: Exiting

     General routines

     Parallel routines

   This run was terminated on:   1:59: 7  11Sep2021

   JOB DONE.