     Program PWSCF v.6.7GPU starts on 23Sep2021 at  3:33:12

     R & G space division:  proc/nbgrp/npool/nimage =      10
     Reading input from /storage/home/hcoda1/3/ntian30/research/carbon/CxH_vib/H2O_calc/ads_slab/CHNNHHHO_a/out_0034/pw.inp
Warning: card &CELL ignored
Warning: card   CELL_DYNAMICS='IPI', ignored
Warning: card / ignored

     Current dimensions of program PWSCF are:
     Max number of different atomic species (ntypx) = 10
     Max number of k-points (npk) =  40000
     Max angular momentum in pseudopotentials (lmaxx) =  3
     Presently no symmetry can be used with electric field

     Message from routine cell_base_init:
     DEPRECATED: use true lattice parameter, not A to a.u. conversion factor

     IMPORTANT: XC functional enforced from input :
     Exchange-correlation= BEEF-VDW
                           (   1   4  43  14   2   0   0)
     Any further DFT definition will be discarded
     Please, verify this is what you really want

  @ DRIVER MODE: Connecting to
 qe_1139763_2937315.sched-torque.pace.gatech.edu1yu93l3v_scratch
  using UNIX socket
  @ DRIVER MODE: Message from server: STATUS
  @ DRIVER MODE: Message from server: INIT
  @ DRIVER MODE: Receiving replica           0          -1
  @ DRIVER MODE: Receiving encoded integer          25
  @ DRIVER MODE:  SCF:  T  FORCE:  T  STRESS:  F  VC:  F  ENSEMBLE:  F
  @ DRIVER MODE:  SCF:  T  FORCE:  T  STRESS:  F  VC:  F  ENSEMBLE:  F

     Using Slab Decomposition

     bravais-lattice index     =            0
     lattice parameter (alat)  =       1.8897  a.u.
     unit-cell volume          =    6658.9804 (a.u.)^3
     number of atoms/cell      =           55
     number of atomic types    =            5
     number of electrons       =       402.00
     number of Kohn-Sham states=          211
     kinetic-energy cutoff     =      29.3995  Ry
     charge density cutoff     =     293.9946  Ry
     scf convergence threshold =      7.3E-08
     mixing beta               =       0.0500
     number of iterations used =            8  plain     mixing
     Exchange-correlation= BEEF-VDW
                           (   1   4  43  14   2   0   0)

     celldm(1)=   1.889726  celldm(2)=   0.000000  celldm(3)=   0.000000
     celldm(4)=   0.000000  celldm(5)=   0.000000  celldm(6)=   0.000000

     crystal axes: (cart. coord. in units of alat)
               a(1) = (   6.579727   0.000000   0.000000 )
               a(2) = (  -0.000775   5.961596   0.000000 )
               a(3) = (   0.000000   0.000000  25.155947 )

     reciprocal axes: (cart. coord. in units 2 pi/alat)
               b(1) = (  0.151982  0.000020  0.000000 )
               b(2) = (  0.000000  0.167740  0.000000 )
               b(3) = (  0.000000  0.000000  0.039752 )

     PseudoPot. # 1 for Ti read from file:
     /storage/coda1/p-amedford6/0/shared/rich_project_chbe-medford/medford-share/data/pseudos_module/espresso/nninc/pbe/van/Ti.UPF
     MD5 check sum: 8e4df49b7f0d34bbd5052bf3f5ea0213
     Pseudo is Ultrasoft, Zval = 12.0
     Generated by new atomic code, or converted to UPF format
     Using radial grid of  851 points,  6 beta functions with:
                l(1) =   0
                l(2) =   0
                l(3) =   1
                l(4) =   1
                l(5) =   2
                l(6) =   2
     Q(r) pseudized with  8 coefficients,  rinner =    1.000   1.000   1.000
                                                       1.000   1.000

     PseudoPot. # 2 for O  read from file:
     /storage/coda1/p-amedford6/0/shared/rich_project_chbe-medford/medford-share/data/pseudos_module/espresso/nninc/pbe/van/O.UPF
     MD5 check sum: 78c19812648e8988a0fe644b0f25305e
     Pseudo is Ultrasoft, Zval =  6.0
     Generated by new atomic code, or converted to UPF format
     Using radial grid of  737 points,  4 beta functions with:
                l(1) =   0
                l(2) =   0
                l(3) =   1
                l(4) =   1
     Q(r) pseudized with  8 coefficients,  rinner =    0.800   0.800   0.800

     PseudoPot. # 3 for N  read from file:
     /storage/coda1/p-amedford6/0/shared/rich_project_chbe-medford/medford-share/data/pseudos_module/espresso/nninc/pbe/van/N.UPF
     MD5 check sum: 90d10febe142ad51ac9d5be1deb811c4
     Pseudo is Ultrasoft, Zval =  5.0
     Generated by new atomic code, or converted to UPF format
     Using radial grid of  729 points,  4 beta functions with:
                l(1) =   0
                l(2) =   0
                l(3) =   1
                l(4) =   1
     Q(r) pseudized with  8 coefficients,  rinner =    0.800   0.800   0.800

     PseudoPot. # 4 for C  read from file:
     /storage/coda1/p-amedford6/0/shared/rich_project_chbe-medford/medford-share/data/pseudos_module/espresso/nninc/pbe/van/C.UPF
     MD5 check sum: 1a69bf6b8db32088f5b2163dbdb77a27
     Pseudo is Ultrasoft, Zval =  4.0
     Generated by new atomic code, or converted to UPF format
     Using radial grid of  721 points,  4 beta functions with:
                l(1) =   0
                l(2) =   0
                l(3) =   1
                l(4) =   1
     Q(r) pseudized with  8 coefficients,  rinner =    0.800   0.800   0.800

     PseudoPot. # 5 for H  read from file:
     /storage/coda1/p-amedford6/0/shared/rich_project_chbe-medford/medford-share/data/pseudos_module/espresso/nninc/pbe/van/H.UPF
     MD5 check sum: b5ee9d7bfd3a09ee7748110bda690ff7
     Pseudo is Ultrasoft, Zval =  1.0
     Generated by new atomic code, or converted to UPF format
     Using radial grid of  615 points,  1 beta functions with:
                l(1) =   0
     Q(r) pseudized with  8 coefficients,  rinner =    0.800

     atomic species   valence    mass     pseudopotential
        Ti1           12.00    47.86700     Ti( 1.00)
        O1             6.00    15.99900     O ( 1.00)
        N1             5.00    14.00700     N ( 1.00)
        C1             4.00    12.01100     C ( 1.00)
        H1             1.00     1.00800     H ( 1.00)

     No symmetry found

   Cartesian axes

     site n.     atom                  positions (alat units)
         1           Ti1 tau(   1) = (   0.0004258   2.9801865   6.0000000  )
         2           Ti1 tau(   2) = (   3.2906075   1.4906267   6.0002472  )
         3           O1  tau(   3) = (   0.0006271   0.0005054   7.9858123  )
         4           O1  tau(   4) = (   3.2906025   0.0005020   7.3038282  )
         5           O1  tau(   5) = (   4.5942328   1.4918067   9.2879030  )
         6           O1  tau(   6) = (   1.9868534   1.4903216   9.2879459  )
         7           Ti1 tau(   7) = (   3.2907910   2.8959150   9.1758416  )
         8           Ti1 tau(   8) = (   0.0015273   1.4827037   9.2680791  )
         9           O1  tau(   9) = (   3.3019041   5.9340972  11.2780832  )
        10           O1  tau(  10) = (   0.0116148   5.9584955  10.6183126  )
        11           O1  tau(  11) = (   1.2869077   1.4717189  12.6473688  )
        12           O1  tau(  12) = (   5.3188397   1.4655789  12.6430575  )
        13           Ti1 tau(  13) = (   0.0521173   3.0639968  12.7333969  )
        14           Ti1 tau(  14) = (   3.2906581   1.3001642  12.6471297  )
        15           O1  tau(  15) = (   0.0021475   5.9326859  14.6872502  )
        16           O1  tau(  16) = (   3.3040199   0.0265785  13.8678754  )
        17           O1  tau(  17) = (   4.6240569   1.6264218  16.1080407  )
        18           O1  tau(  18) = (   2.0715169   1.5429601  15.9546445  )
        19           Ti1 tau(  19) = (   3.3363059   2.9874148  15.6109769  )
        20           Ti1 tau(  20) = (   0.0492893   1.4028208  15.7974426  )
        21           O1  tau(  21) = (   3.2904802   0.0005063   4.7018136  )
        22           O1  tau(  22) = (   0.0944532   0.0627470  17.1934044  )
        23           O1  tau(  23) = (   1.3043587   1.4918075   6.0039043  )
        24           O1  tau(  24) = (   5.2767064   1.4903225   6.0039473  )
        25           Ti1 tau(  25) = (   0.0000382   5.9609847   6.0000000  )
        26           Ti1 tau(  26) = (   3.2902200   4.4714249   6.0002472  )
        27           O1  tau(  27) = (   0.0002396   2.9813036   7.9858123  )
        28           O1  tau(  28) = (   3.2902150   2.9813002   7.3038282  )
        29           O1  tau(  29) = (   4.5938453   4.4726049   9.2879030  )
        30           O1  tau(  30) = (   1.9864658   4.4711199   9.2879459  )
        31           Ti1 tau(  31) = (   3.2891106   5.8743827   9.1763621  )
        32           Ti1 tau(  32) = (   0.0006254   4.4649316   9.2693709  )
        33           O1  tau(  33) = (   3.3033179   3.0104581  11.2528581  )
        34           O1  tau(  34) = (   0.0092240   2.9805883  10.6323155  )
        35           O1  tau(  35) = (   1.3074756   4.4469578  12.6382572  )
        36           O1  tau(  36) = (   5.3202433   4.4545580  12.6357595  )
        37           Ti1 tau(  37) = (   6.5572640   0.0741000  12.5519234  )
        38           Ti1 tau(  38) = (   3.3179412   4.3950854  12.4030220  )
        39           O1  tau(  39) = (   0.0383827   2.9948909  14.7437145  )
        40           O1  tau(  40) = (   3.3238341   2.9662938  13.8354460  )
        41           O1  tau(  41) = (   4.5722604   4.5101538  15.9256862  )
        42           O1  tau(  42) = (   2.0839069   4.4665637  16.0501180  )
        43           Ti1 tau(  43) = (   3.2507700   5.9423238  16.2547716  )
        44           Ti1 tau(  44) = (   6.5063516   4.5631136  16.2071476  )
        45           O1  tau(  45) = (   3.2900926   2.9813045   4.7018136  )
        46           O1  tau(  46) = (   1.3039711   4.4726057   6.0039043  )
        47           O1  tau(  47) = (   5.2763189   4.4711207   6.0039473  )
        48           N1  tau(  48) = (   0.4124544   2.9287237  17.8391456  )
        49           C1  tau(  49) = (   1.3780350   3.0145335  18.6736463  )
        50           H1  tau(  50) = (   2.3027514   2.5668077  18.2879847  )
        51           N1  tau(  51) = (   5.7762606   3.6115528  18.1636368  )
        52           H1  tau(  52) = (   5.8537390   4.1179332  19.0469945  )
        53           H1  tau(  53) = (   5.0130290   2.9492956  18.1702355  )
        54           O1  tau(  54) = (   3.2882145   0.0116813  18.0866318  )
        55           H1  tau(  55) = (   2.5950809   5.5738040  18.6371346  )

     number of k points=    10  Fermi-Dirac smearing, width (Ry)=  0.0073
                       cart. coord. in units 2pi/alat
        k(    1) = (   0.0000000   0.0000000   0.0000000), wk =   0.1250000
        k(    2) = (   0.0000000   0.0419351   0.0000000), wk =   0.2500000
        k(    3) = (   0.0000000  -0.0838702   0.0000000), wk =   0.1250000
        k(    4) = (   0.0379955   0.0000049   0.0000000), wk =   0.2500000
        k(    5) = (   0.0379955   0.0419400   0.0000000), wk =   0.2500000
        k(    6) = (   0.0379955  -0.0838652   0.0000000), wk =   0.2500000
        k(    7) = (   0.0379955  -0.0419301   0.0000000), wk =   0.2500000
        k(    8) = (  -0.0759910  -0.0000099   0.0000000), wk =   0.1250000
        k(    9) = (  -0.0759910   0.0419252   0.0000000), wk =   0.2500000
        k(   10) = (  -0.0759910  -0.0838800   0.0000000), wk =   0.1250000

     Initial potential from superposition of free atoms

     starting charge  385.99915, renormalised to  402.00000

     negative rho (up, down):  1.703E-02 0.000E+00

     %%%%%%%%%%%%%%%%%%%%%%%%%%%%%%%%%%%%%%%%%%%%%%%%%%%%%%%%%%%%%%%%%%%%%%%%
     %                                                                      %
     % You are using vdW-DF, which was implemented by the Thonhauser group. %
     % Please cite the following two papers that made this development      %
     % possible and the two reviews that describe the various versions:     %
     %                                                                      %
     %   T. Thonhauser et al., PRL 115, 136402 (2015).                      %
     %   T. Thonhauser et al., PRB 76, 125112 (2007).                       %
     %   K. Berland et al., Rep. Prog. Phys. 78, 066501 (2015).             %
     %   D.C. Langreth et al., J. Phys.: Condens. Matter 21, 084203 (2009). %
     %                                                                      %
     %                                                                      %
     % If you are calculating the stress with vdW-DF, please also cite:     %
     %                                                                      %
     %   R. Sabatini et al., J. Phys.: Condens. Matter 24, 424209 (2012).   %
     %                                                                      %
     %%%%%%%%%%%%%%%%%%%%%%%%%%%%%%%%%%%%%%%%%%%%%%%%%%%%%%%%%%%%%%%%%%%%%%%%

     Adding external electric field

     Computed dipole along edir(3) :
        Dipole              -11.1544 Ry au,        -28.3516 Debye
        Dipole field         -0.0210 Ry au,

        Potential amp.        1.9513 Ry
        Total length         46.3494 bohr

     Starting wfcs are  304 atomic wfcs
  @ DRIVER MODE: Message from server: STATUS
  @ DRIVER MODE: Message from server: POSDATA
  @ DRIVER MODE: Reading and sharing cell
  @ DRIVER MODE: Reading and sharing positions
  @ DRIVER MODE: Received positions

     Self-consistent Calculation

     iteration #  1     ecut=    29.40 Ry     beta= 0.05
     Davidson diagonalization with overlap
     c_bands:  2 eigenvalues not converged
     c_bands:  2 eigenvalues not converged
     c_bands:  1 eigenvalues not converged
     c_bands:  5 eigenvalues not converged
     c_bands:  1 eigenvalues not converged
     c_bands:  5 eigenvalues not converged
     c_bands:  3 eigenvalues not converged
     ethr =  1.00E-05,  avg # of iterations = 27.1

[...]

     total energy              =   -2400.30749929 Ry
     estimated scf accuracy    <    6416.13137848 Ry

     iteration #  2     ecut=    29.40 Ry     beta= 0.05
     Davidson diagonalization with overlap
     ethr =  1.00E-02,  avg # of iterations = 23.7

[...]

     iteration # 49     ecut=    29.40 Ry     beta= 0.05
     Davidson diagonalization with overlap
     c_bands:  1 eigenvalues not converged
     ethr =  4.32E-08,  avg # of iterations =  7.4

[...]

     total energy              =   -2972.60991035 Ry
     estimated scf accuracy    <       0.00000009 Ry

     iteration # 71     ecut=    29.40 Ry     beta= 0.05
     Davidson diagonalization with overlap
     ethr =  2.35E-11,  avg # of iterations =  5.8

     negative rho (up, down):  1.638E-02 0.000E+00

     Adding external electric field

     Computed dipole along edir(3) :
        Dipole                0.2198 Ry au,          0.5586 Debye
        Dipole field          0.0004 Ry au,

        Potential amp.       -0.0384 Ry
        Total length         46.3494 bohr

     End of self-consistent calculation

          k = 0.0000 0.0000 0.0000 ( 18029 PWs)   bands (ev):

   -56.4671 -56.4333 -56.0102 -55.9744 -55.7586 -55.7041 -55.6456 -55.6365
   -55.6038 -55.5135 -55.5062 -55.4504 -55.4065 -55.2824 -55.2114 -55.1774
   -32.9136 -32.7584 -32.7310 -32.6269 -32.5381 -32.5346 -32.4918 -32.2419
   -32.2280 -32.2059 -32.1592 -32.1541 -32.1281 -32.1088 -32.0250 -32.0115
   -31.9931 -31.9798 -31.9618 -31.9236 -31.9176 -31.9096 -31.9065 -31.8837
   -31.8650 -31.8628 -31.8585 -31.8057 -31.7889 -31.7689 -31.7466 -31.7223
   -31.7101 -31.6946 -31.6776 -31.6730 -31.6448 -31.6065 -31.5959 -31.5766
   -31.5472 -31.5464 -31.5227 -31.5139 -31.4905 -31.4256 -31.3413 -31.2292
   -17.9138 -16.7388 -16.4743 -16.4023 -16.2031 -16.0132 -15.9199 -15.9040
   -15.8852 -15.7641 -15.7640 -15.6128 -15.5325 -15.4771 -15.4144 -15.4026
   -15.3338 -15.3170 -15.2533 -15.2258 -15.2128 -15.1874 -15.1384 -15.0764
   -15.0658 -15.0396 -14.8520 -14.8279 -14.8120 -14.6267 -14.5341 -13.7086
   -13.5969 -13.2346  -7.8501  -6.1941  -4.2591  -4.2542  -4.1375  -3.9338
    -3.7347  -3.6728  -3.5772  -3.4346  -3.4038  -3.1617  -3.1465  -3.1050
    -3.0162  -2.9898  -2.9613  -2.9014  -2.8432  -2.8240  -2.7636  -2.6859
    -2.6837  -2.6733  -2.6419  -2.6192  -2.5158  -2.4767  -2.4134  -2.3741
    -2.3479  -2.3376  -2.2985  -2.2433  -2.2158  -2.1634  -2.1456  -2.0650
    -2.0350  -1.9474  -1.8875  -1.8700  -1.8177  -1.7593  -1.7544  -1.6990
    -1.5674  -1.4576  -1.3908  -1.3495  -1.2950  -1.2395  -1.2094  -1.1545
    -1.0896  -1.0663  -1.0433  -1.0061  -0.9452  -0.9166  -0.8701  -0.8153
    -0.7391  -0.6721  -0.6260  -0.6045  -0.4996  -0.4343  -0.3960  -0.3801
    -0.3436  -0.2897  -0.2340  -0.1942  -0.1838  -0.1608  -0.1003   0.0235
     0.0342   0.0933   0.1482   0.1816   0.1942   0.2096   0.2716   0.3388
     0.4127   0.4557   0.4684   0.5261   0.5910   0.6295   0.7440   0.8134
     0.8387   0.8805   0.9567   1.0320   1.0479   1.3545   1.3680   1.3970
     2.5148   2.7680   2.8989   3.0783   3.1991   3.3342   3.6531   3.6699
     3.6816   3.7032   3.7946

[...]

          k = 0.0380-0.0419 0.0000 ( 17876 PWs)   bands (ev):

[...]

          k =-0.0760-0.0000 0.0000 ( 17886 PWs)   bands (ev):

[...]

          k =-0.0760-0.0839 0.0000 ( 17948 PWs)   bands (ev):

   -56.4504 -56.4498 -55.9986 -55.9858 -55.7527 -55.7099 -55.6370 -55.6349
   -55.6122 -55.5112 -55.5076 -55.4487 -55.4086 -55.2840 -55.1949 -55.1937
   -32.7441 -32.7436 -32.7298 -32.7296 -32.5795 -32.5786 -32.3206 -32.3095
   -32.1905 -32.1842 -32.1760 -32.1744 -32.0605 -32.0280 -31.9815 -31.9744
   -31.9608 -31.9563 -31.9475 -31.9393 -31.9364 -31.9285 -31.9077 -31.8705
   -31.8629 -31.8568 -31.8544 -31.8400 -31.8206 -31.7955 -31.7819 -31.7719
   -31.7254 -31.7089 -31.7010 -31.6812 -31.6506 -31.6318 -31.6300 -31.6002
   -31.5495 -31.5360 -31.5352 -31.4946 -31.4222 -31.4208 -31.3840 -31.3831
   -17.9045 -16.4550 -16.1444 -16.1335 -16.0159 -16.0103 -15.8575 -15.8378
   -15.8197 -15.7459 -15.6812 -15.6604 -15.5124 -15.4998 -15.4635 -15.4281
   -15.3997 -15.3624 -15.3578 -15.3343 -15.3012 -15.2359 -15.2144 -15.1893
   -15.1791 -15.1017 -14.9225 -14.8991 -14.8967 -14.8222 -14.6836 -13.7005
   -13.6997 -13.2459  -7.8137  -6.1265  -4.3777  -4.0835  -3.3149  -3.2510
    -3.1758  -3.1407  -3.1302  -3.0569  -3.0416  -2.9267  -2.8985  -2.8596
    -2.8332  -2.8227  -2.8026  -2.7517  -2.7295  -2.6845  -2.6679  -2.6664
    -2.6346  -2.5941  -2.5744  -2.5510  -2.5402  -2.4702  -2.4406  -2.3979
    -2.3813  -2.3693  -2.3219  -2.2610  -2.2452  -2.1865  -2.1746  -2.1419
    -2.1051  -2.0445  -2.0055  -1.9633  -1.8652  -1.8444  -1.7759  -1.6583
    -1.6372  -1.5535  -1.5252  -1.5037  -1.4817  -1.4040  -1.3716  -1.3383
    -1.2509  -1.2243  -1.2162  -1.1894  -1.1563  -1.1317  -1.0748  -1.0128
    -0.9175  -0.8539  -0.8422  -0.8232  -0.7841  -0.7574  -0.7167  -0.6245
    -0.6033  -0.5681  -0.5582  -0.5167  -0.4042  -0.3778  -0.2283  -0.1908
    -0.1015  -0.0741  -0.0544  -0.0133   0.1083   0.1359   0.1864   0.2067
     0.2660   0.3107   0.3613   0.4515   0.5542   0.5660   0.6974   0.7245
     0.7449   0.8185   0.9506   0.9926   1.2076   1.2122   1.2138   1.2161
     2.4944   3.3208   3.3232   3.3565   3.3688   3.5720   3.5921   3.7181
     3.8025   3.8102   3.8117

     the Fermi energy is     2.6946 ev

!    total energy              =   -2972.60993438 Ry
     estimated scf accuracy    <       0.00000006 Ry
     smearing contrib. (-TS)   =      -0.01174585 Ry
     internal energy E=F+TS    =   -2972.59818853 Ry

     The total energy is F=E-TS. E is the sum of the following terms:
     one-electron contribution =  -24036.65064354 Ry
     hartree contribution      =   12109.72276505 Ry
     xc contribution           =    -493.08104082 Ry
     ewald contribution        =    9447.41063964 Ry
     electric field correction =       0.00009114 Ry

     convergence has been achieved in  71 iterations

     Forces acting on atoms (cartesian axes, Ry/au):

     atom    1 type  1   force =    -0.00003763   -0.00046615    0.10840736
     atom    2 type  1   force =     0.00001649    0.00008682   -0.16408278
     atom    3 type  2   force =     0.00013125    0.00046890   -0.04119757
     atom    4 type  2   force =     0.00009391   -0.00056672    0.03215081
     atom    5 type  2   force =    -0.00380826   -0.00332732   -0.00776362
     atom    6 type  2   force =     0.00586773   -0.00273592   -0.00758952
     atom    7 type  1   force =     0.00016752   -0.00552393    0.03632147
     atom    8 type  1   force =     0.00012886    0.02544299    0.06349933
     atom    9 type  2   force =     0.00013943    0.00039750    0.00012576
     atom   10 type  2   force =    -0.00195244    0.00076262   -0.03778717
     atom   11 type  2   force =     0.00010828   -0.00015625   -0.00017277
     atom   12 type  2   force =    -0.00074626    0.00020570   -0.00018072
     atom   13 type  1   force =     0.00045182    0.00044803    0.00087457
     atom   14 type  1   force =    -0.00056055   -0.00026197    0.00015527
     atom   15 type  2   force =    -0.00013272    0.00001188    0.00078616
     atom   16 type  2   force =    -0.00012322    0.00030488   -0.00014571
     atom   17 type  2   force =    -0.00108283    0.00052123   -0.00003823
     atom   18 type  2   force =     0.00061012   -0.00007615   -0.00031591
     atom   19 type  1   force =     0.00028239   -0.00086308   -0.00002929
     atom   20 type  1   force =    -0.00051151   -0.00007904   -0.00015764
     atom   21 type  2   force =     0.00009655    0.00018878    0.10011239
     atom   22 type  2   force =    -0.00007087   -0.00030878    0.00029952
     atom   23 type  2   force =    -0.07741906    0.00001715   -0.03033157
     atom   24 type  2   force =     0.07741228    0.00043515   -0.03037484
     atom   25 type  1   force =    -0.00001086   -0.00031997    0.10858357
     atom   26 type  1   force =    -0.00004137   -0.00110204   -0.16411993
     atom   27 type  2   force =     0.00011552   -0.00017775   -0.03920774
     atom   28 type  2   force =     0.00011565    0.00118020    0.02836642
     atom   29 type  2   force =    -0.00231018    0.00468122   -0.01049467
     atom   30 type  2   force =     0.00438544    0.00496402   -0.01045364
     atom   31 type  1   force =     0.00005335    0.00319071    0.01914434
     atom   32 type  1   force =     0.00036457   -0.02766799    0.06523960
     atom   33 type  2   force =    -0.00003466   -0.00079084   -0.00041472
     atom   34 type  2   force =    -0.00062851    0.00085873   -0.05568219
     atom   35 type  2   force =    -0.00034707   -0.00022926   -0.00026448
     atom   36 type  2   force =    -0.00007195   -0.00003303   -0.00018781
     atom   37 type  1   force =     0.00029810   -0.00053218    0.00012078
     atom   38 type  1   force =    -0.00036744   -0.00015393    0.00026891
     atom   39 type  2   force =    -0.00016871    0.00036730   -0.00015308
     atom   40 type  2   force =    -0.00016771   -0.00025468   -0.00032592
     atom   41 type  2   force =    -0.00027687    0.00011755    0.00008630
     atom   42 type  2   force =    -0.00045953    0.00003521    0.00009928
     atom   43 type  1   force =     0.00028300    0.00039032   -0.00003388
     atom   44 type  1   force =    -0.00029187    0.00033683   -0.00054626
     atom   45 type  2   force =     0.00010243    0.00001433    0.09992261
     atom   46 type  2   force =    -0.07745150   -0.00001361   -0.03034254
     atom   47 type  2   force =     0.07747156    0.00041766   -0.03037980
     atom   48 type  3   force =    -0.00117257   -0.00053159   -0.00020504
     atom   49 type  4   force =    -0.00008501   -0.00011657   -0.00054023
     atom   50 type  5   force =    -0.00026152   -0.00010125   -0.00023478
     atom   51 type  3   force =     0.00879689    0.00729697    0.00096306
     atom   52 type  5   force =     0.00058180    0.00056691   -0.00067237
     atom   53 type  5   force =    -0.00705317   -0.00729901   -0.00055561
     atom   54 type  2   force =     0.00077064    0.00064450   -0.00131679
     atom   55 type  5   force =    -0.00119974   -0.00066506    0.00077130

     Total force =     0.383208     Total SCF correction =     0.000751
  @ DRIVER MODE: Message from server: STATUS
  @ DRIVER MODE: Message from server: GETFORCE
  @ DRIVER MODE: Returning v,forces,stress,ensemble

     Writing output data file ./calc.save/
  @ DRIVER MODE: Message from server: EXIT
  @ DRIVE MODE: Exiting

     General routines

     Parallel routines

   This run was terminated on:   3:51:43  23Sep2021

   JOB DONE.