     Program PWSCF v.6.7GPU starts on 15Sep2021 at 22: 6:21

     R & G space division:  proc/nbgrp/npool/nimage =      10
     Reading input from /storage/home/hcoda1/3/ntian30/research/carbon/CxH_vib/H2O_calc/ads_slab/CHOHH2O_a/out_0019/pw.inp
Warning: card &CELL ignored
Warning: card   CELL_DYNAMICS='IPI', ignored
Warning: card / ignored

     Current dimensions of program PWSCF are:
     Max number of different atomic species (ntypx) = 10
     Max number of k-points (npk) =  40000
     Max angular momentum in pseudopotentials (lmaxx) =  3
     Presently no symmetry can be used with electric field

     Message from routine cell_base_init:
     DEPRECATED: use true lattice parameter, not A to a.u. conversion factor

     IMPORTANT: XC functional enforced from input :
     Exchange-correlation= BEEF-VDW
                           (   1   4  43  14   2   0   0)
     Any further DFT definition will be discarded
     Please, verify this is what you really want

  @ DRIVER MODE: Connecting to
 qe_1139763_2852632.sched-torque.pace.gatech.edue79ulcpp_scratch
  using UNIX socket
  @ DRIVER MODE: Message from server: STATUS
  @ DRIVER MODE: Message from server: INIT
  @ DRIVER MODE: Receiving replica           0          -1
  @ DRIVER MODE: Receiving encoded integer          25
  @ DRIVER MODE:  SCF:  T  FORCE:  T  STRESS:  F  VC:  F  ENSEMBLE:  F
  @ DRIVER MODE:  SCF:  T  FORCE:  T  STRESS:  F  VC:  F  ENSEMBLE:  F

     Using Slab Decomposition

     bravais-lattice index     =            0
     lattice parameter (alat)  =       1.8897  a.u.
     unit-cell volume          =    6658.9804 (a.u.)^3
     number of atoms/cell      =           54
     number of atomic types    =            4
     number of electrons       =       398.00
     number of Kohn-Sham states=          209
     kinetic-energy cutoff     =      29.3995  Ry
     charge density cutoff     =     293.9946  Ry
     scf convergence threshold =      7.3E-08
     mixing beta               =       0.0500
     number of iterations used =            8  plain     mixing
     Exchange-correlation= BEEF-VDW
                           (   1   4  43  14   2   0   0)

     celldm(1)=   1.889726  celldm(2)=   0.000000  celldm(3)=   0.000000
     celldm(4)=   0.000000  celldm(5)=   0.000000  celldm(6)=   0.000000

     crystal axes: (cart. coord. in units of alat)
               a(1) = (   6.579727   0.000000   0.000000 )
               a(2) = (  -0.000775   5.961596   0.000000 )
               a(3) = (   0.000000   0.000000  25.155947 )

     reciprocal axes: (cart. coord. in units 2 pi/alat)
               b(1) = (  0.151982  0.000020  0.000000 )
               b(2) = (  0.000000  0.167740  0.000000 )
               b(3) = (  0.000000  0.000000  0.039752 )

     PseudoPot. # 1 for Ti read from file:
     /storage/coda1/p-amedford6/0/shared/rich_project_chbe-medford/medford-share/data/pseudos_module/espresso/nninc/pbe/van/Ti.UPF
     MD5 check sum: 8e4df49b7f0d34bbd5052bf3f5ea0213
     Pseudo is Ultrasoft, Zval = 12.0
     Generated by new atomic code, or converted to UPF format
     Using radial grid of  851 points,  6 beta functions with:
                l(1) =   0
                l(2) =   0
                l(3) =   1
                l(4) =   1
                l(5) =   2
                l(6) =   2
     Q(r) pseudized with  8 coefficients,  rinner =    1.000   1.000   1.000
                                                       1.000   1.000

     PseudoPot. # 2 for O  read from file:
     /storage/coda1/p-amedford6/0/shared/rich_project_chbe-medford/medford-share/data/pseudos_module/espresso/nninc/pbe/van/O.UPF
     MD5 check sum: 78c19812648e8988a0fe644b0f25305e
     Pseudo is Ultrasoft, Zval =  6.0
     Generated by new atomic code, or converted to UPF format
     Using radial grid of  737 points,  4 beta functions with:
                l(1) =   0
                l(2) =   0
                l(3) =   1
                l(4) =   1
     Q(r) pseudized with  8 coefficients,  rinner =    0.800   0.800   0.800

     PseudoPot. # 3 for C  read from file:
     /storage/coda1/p-amedford6/0/shared/rich_project_chbe-medford/medford-share/data/pseudos_module/espresso/nninc/pbe/van/C.UPF
     MD5 check sum: 1a69bf6b8db32088f5b2163dbdb77a27
     Pseudo is Ultrasoft, Zval =  4.0
     Generated by new atomic code, or converted to UPF format
     Using radial grid of  721 points,  4 beta functions with:
                l(1) =   0
                l(2) =   0
                l(3) =   1
                l(4) =   1
     Q(r) pseudized with  8 coefficients,  rinner =    0.800   0.800   0.800

     PseudoPot. # 4 for H  read from file:
     /storage/coda1/p-amedford6/0/shared/rich_project_chbe-medford/medford-share/data/pseudos_module/espresso/nninc/pbe/van/H.UPF
     MD5 check sum: b5ee9d7bfd3a09ee7748110bda690ff7
     Pseudo is Ultrasoft, Zval =  1.0
     Generated by new atomic code, or converted to UPF format
     Using radial grid of  615 points,  1 beta functions with:
                l(1) =   0
     Q(r) pseudized with  8 coefficients,  rinner =    0.800

     atomic species   valence    mass     pseudopotential
        Ti1           12.00    47.86700     Ti( 1.00)
        O1             6.00    15.99900     O ( 1.00)
        C1             4.00    12.01100     C ( 1.00)
        H1             1.00     1.00800     H ( 1.00)

     No symmetry found

   Cartesian axes

     site n.     atom                  positions (alat units)
         1           Ti1 tau(   1) = (   0.0004258   2.9801865   6.0000000  )
         2           Ti1 tau(   2) = (   3.2906075   1.4906267   6.0002472  )
         3           O1  tau(   3) = (   0.0006271   0.0005054   7.9858123  )
         4           O1  tau(   4) = (   3.2906025   0.0005020   7.3038282  )
         5           O1  tau(   5) = (   4.5942328   1.4918067   9.2879030  )
         6           O1  tau(   6) = (   1.9868534   1.4903216   9.2879459  )
         7           Ti1 tau(   7) = (   3.3203992   3.0065636   9.1614972  )
         8           Ti1 tau(   8) = (   0.0364112   1.5055733   9.2692997  )
         9           O1  tau(   9) = (   3.3037507   0.0048223  11.3846665  )
        10           O1  tau(  10) = (   0.0023770   0.0017864  10.5989407  )
        11           O1  tau(  11) = (   1.2986710   1.4943985  12.6419360  )
        12           O1  tau(  12) = (   5.3019195   1.4930987  12.6558330  )
        13           Ti1 tau(  13) = (   0.0201679   2.9954199  12.5459836  )
        14           Ti1 tau(  14) = (   3.3085843   1.4996073  12.5278567  )
        15           O1  tau(  15) = (   0.0306707   0.0063333  14.6434371  )
        16           O1  tau(  16) = (   3.2901280   5.9588824  14.0411263  )
        17           O1  tau(  17) = (   4.5937705   1.5245028  16.1210063  )
        18           O1  tau(  18) = (   2.0412355   1.5396885  16.1535958  )
        19           Ti1 tau(  19) = (   3.3250740   2.9785215  15.7238461  )
        20           Ti1 tau(  20) = (   0.0142243   1.3716099  15.9029131  )
        21           O1  tau(  21) = (   3.2904802   0.0005063   4.7018136  )
        22           O1  tau(  22) = (   0.0234726   5.9563001  17.1693433  )
        23           O1  tau(  23) = (   1.3043587   1.4918075   6.0039043  )
        24           O1  tau(  24) = (   5.2767064   1.4903225   6.0039473  )
        25           Ti1 tau(  25) = (   0.0000382   5.9609847   6.0000000  )
        26           Ti1 tau(  26) = (   3.2902200   4.4714249   6.0002472  )
        27           O1  tau(  27) = (   0.0002396   2.9813036   7.9858123  )
        28           O1  tau(  28) = (   3.2902150   2.9813002   7.3038282  )
        29           O1  tau(  29) = (   4.5938453   4.4726049   9.2879030  )
        30           O1  tau(  30) = (   1.9864658   4.4711199   9.2879459  )
        31           Ti1 tau(  31) = (   3.3166040   0.0254347   9.1556988  )
        32           Ti1 tau(  32) = (   0.0362352   4.4699824   9.2670842  )
        33           O1  tau(  33) = (   3.3035804   2.9865095  11.3763011  )
        34           O1  tau(  34) = (   0.0042610   2.9829788  10.6236548  )
        35           O1  tau(  35) = (   1.2977823   4.4749822  12.6434080  )
        36           O1  tau(  36) = (   5.3021498   4.4756442  12.6578133  )
        37           Ti1 tau(  37) = (   0.0128731   0.0155586  12.4748574  )
        38           Ti1 tau(  38) = (   3.3087006   4.4877506  12.5360639  )
        39           O1  tau(  39) = (   0.0289868   2.9802581  14.8446641  )
        40           O1  tau(  40) = (   3.2975897   2.9808645  13.9396156  )
        41           O1  tau(  41) = (   4.5936103   4.4348319  16.1149158  )
        42           O1  tau(  42) = (   2.0365336   4.4144103  16.1518429  )
        43           Ti1 tau(  43) = (   3.2980932   5.9591119  15.8729608  )
        44           Ti1 tau(  44) = (   0.0070259   4.5936845  15.8821292  )
        45           O1  tau(  45) = (   3.2900926   2.9813045   4.7018136  )
        46           O1  tau(  46) = (   1.3039711   4.4726057   6.0039043  )
        47           O1  tau(  47) = (   5.2763189   4.4711207   6.0039473  )
        48           C1  tau(  48) = (   6.0563806   2.9601134  19.0478501  )
        49           O1  tau(  49) = (   0.1703025   2.9720528  17.8813388  )
        50           H1  tau(  50) = (   5.0099104   2.8626262  18.6876999  )
        51           H1  tau(  51) = (   1.1151272   3.0566160  18.0647747  )
        52           O1  tau(  52) = (   3.2803433   5.9178330  18.2983259  )
        53           H1  tau(  53) = (   4.0549949   5.9397654  18.8787675  )
        54           H1  tau(  54) = (   2.4787048   0.0262026  18.8357284  )

     number of k points=    10  Fermi-Dirac smearing, width (Ry)=  0.0073
                       cart. coord. in units 2pi/alat
        k(    1) = (   0.0000000   0.0000000   0.0000000), wk =   0.1250000
        k(    2) = (   0.0000000   0.0419351   0.0000000), wk =   0.2500000
        k(    3) = (   0.0000000  -0.0838702   0.0000000), wk =   0.1250000
        k(    4) = (   0.0379955   0.0000049   0.0000000), wk =   0.2500000
        k(    5) = (   0.0379955   0.0419400   0.0000000), wk =   0.2500000
        k(    6) = (   0.0379955  -0.0838652   0.0000000), wk =   0.2500000
        k(    7) = (   0.0379955  -0.0419301   0.0000000), wk =   0.2500000
        k(    8) = (  -0.0759910  -0.0000099   0.0000000), wk =   0.1250000
        k(    9) = (  -0.0759910   0.0419252   0.0000000), wk =   0.2500000
        k(   10) = (  -0.0759910  -0.0838800   0.0000000), wk =   0.1250000

     Initial potential from superposition of free atoms

     starting charge  381.99917, renormalised to  398.00000

     negative rho (up, down):  1.670E-02 0.000E+00

     %%%%%%%%%%%%%%%%%%%%%%%%%%%%%%%%%%%%%%%%%%%%%%%%%%%%%%%%%%%%%%%%%%%%%%%%
     %                                                                      %
     % You are using vdW-DF, which was implemented by the Thonhauser group. %
     % Please cite the following two papers that made this development      %
     % possible and the two reviews that describe the various versions:     %
     %                                                                      %
     %   T. Thonhauser et al., PRL 115, 136402 (2015).                      %
     %   T. Thonhauser et al., PRB 76, 125112 (2007).                       %
     %   K. Berland et al., Rep. Prog. Phys. 78, 066501 (2015).             %
     %   D.C. Langreth et al., J. Phys.: Condens. Matter 21, 084203 (2009). %
     %                                                                      %
     %                                                                      %
     % If you are calculating the stress with vdW-DF, please also cite:     %
     %                                                                      %
     %   R. Sabatini et al., J. Phys.: Condens. Matter 24, 424209 (2012).   %
     %                                                                      %
     %%%%%%%%%%%%%%%%%%%%%%%%%%%%%%%%%%%%%%%%%%%%%%%%%%%%%%%%%%%%%%%%%%%%%%%%

     Adding external electric field

     Computed dipole along edir(3) :
        Dipole              -10.5131 Ry au,        -26.7216 Debye
        Dipole field         -0.0198 Ry au,

        Potential amp.        1.8391 Ry
        Total length         46.3494 bohr

     Starting wfcs are  300 atomic wfcs
  @ DRIVER MODE: Message from server: STATUS
  @ DRIVER MODE: Message from server: POSDATA
  @ DRIVER MODE: Reading and sharing cell
  @ DRIVER MODE: Reading and sharing positions
  @ DRIVER MODE: Received positions

     Self-consistent Calculation

     iteration #  1     ecut=    29.40 Ry     beta= 0.05
     Davidson diagonalization with overlap
     c_bands:  2 eigenvalues not converged
     c_bands:  3 eigenvalues not converged
     c_bands:  1 eigenvalues not converged
     c_bands:  4 eigenvalues not converged
     c_bands:  4 eigenvalues not converged
     c_bands:  4 eigenvalues not converged
     c_bands:  1 eigenvalues not converged
     c_bands:  3 eigenvalues not converged
     c_bands:  4 eigenvalues not converged
     ethr =  1.00E-05,  avg # of iterations = 19.9

[...]

     total energy              =   -2479.40475392 Ry
     estimated scf accuracy    <    5441.09714654 Ry

     iteration #  2     ecut=    29.40 Ry     beta= 0.05
     Davidson diagonalization with overlap
     ethr =  1.00E-02,  avg # of iterations = 25.2

[...]

     iteration # 50     ecut=    29.40 Ry     beta= 0.05
     Davidson diagonalization with overlap
     c_bands:  1 eigenvalues not converged
     ethr =  7.06E-09,  avg # of iterations =  9.3

[...]

     total energy              =   -2964.77929274 Ry
     estimated scf accuracy    <       0.00000011 Ry

     iteration # 62     ecut=    29.40 Ry     beta= 0.05
     Davidson diagonalization with overlap
     ethr =  2.88E-11,  avg # of iterations =  5.6

     negative rho (up, down):  1.518E-02 0.000E+00

     Adding external electric field

     Computed dipole along edir(3) :
        Dipole                0.7096 Ry au,          1.8037 Debye
        Dipole field          0.0013 Ry au,

        Potential amp.       -0.1241 Ry
        Total length         46.3494 bohr

     End of self-consistent calculation

          k = 0.0000 0.0000 0.0000 ( 18029 PWs)   bands (ev):

   -55.7059 -55.6927 -55.6696 -55.6672 -55.6582 -55.6071 -55.5557 -55.5541
   -55.5417 -55.5213 -55.5087 -55.4873 -55.4862 -55.4748 -54.7733 -54.7393
   -32.2664 -32.1867 -32.1833 -32.0883 -32.0512 -32.0314 -32.0204 -32.0101
   -31.9816 -31.9463 -31.9363 -31.9214 -31.8969 -31.8898 -31.8829 -31.8634
   -31.8462 -31.8459 -31.8426 -31.8349 -31.8188 -31.8077 -31.8077 -31.7980
   -31.7961 -31.7808 -31.7777 -31.7496 -31.7375 -31.7238 -31.7127 -31.7117
   -31.7065 -31.7024 -31.6961 -31.6882 -31.6559 -31.6546 -31.6495 -31.6459
   -31.6195 -31.5630 -31.1851 -31.0836 -31.0619 -31.0013 -30.9149 -30.8039
   -21.1879 -19.2579 -16.5242 -16.2821 -16.1393 -16.0358 -15.9315 -15.7989
   -15.7121 -15.5887 -15.5255 -15.3985 -15.3590 -15.3530 -15.3469 -15.3186
   -15.2962 -15.2746 -15.2505 -15.2098 -15.2053 -15.2017 -15.1727 -15.1607
   -15.1030 -15.0903 -15.0452 -14.9283 -14.8769 -14.8158 -14.4973 -13.2743
   -13.1552 -10.3826  -7.2186  -5.7209  -4.7303  -4.0254  -3.9426  -3.8141
    -3.7181  -3.6496  -3.6121  -3.5430  -3.4646  -3.2615  -3.1311  -3.1233
    -2.9905  -2.9537  -2.9092  -2.8078  -2.7422  -2.6800  -2.6697  -2.5936
    -2.5898  -2.5817  -2.5685  -2.4756  -2.4693  -2.4208  -2.3799  -2.3008
    -2.2650  -2.1478  -2.1171  -2.1082  -2.0646  -2.0489  -2.0422  -2.0296
    -1.9799  -1.9541  -1.9356  -1.9346  -1.7931  -1.7512  -1.6051  -1.4802
    -1.4466  -1.4331  -1.3023  -1.2672  -1.2507  -1.1929  -1.1724  -1.1628
    -1.1239  -1.0429  -0.9597  -0.9345  -0.8635  -0.8204  -0.7163  -0.6220
    -0.5773  -0.5285  -0.5064  -0.4971  -0.4777  -0.4127  -0.3648  -0.2785
    -0.2243  -0.1606  -0.1344  -0.1277  -0.0730  -0.0430   0.0376   0.0838
     0.1181   0.1325   0.2181   0.2324   0.2453   0.2765   0.2789   0.3919
     0.4457   0.5032   0.5094   0.6579   0.8251   0.8499   0.9296   1.1438
     1.2521   1.2547   1.4155   1.4700   1.8371   1.8914   3.3819   3.4520
     3.4866   3.5007   3.5102   3.5878   3.8165   3.8697   3.9011   3.9201
     3.9298

[...]

          k = 0.0380-0.0419 0.0000 ( 17876 PWs)   bands (ev):

[...]

          k =-0.0760-0.0000 0.0000 ( 17886 PWs)   bands (ev):

[...]

          k =-0.0760-0.0839 0.0000 ( 17948 PWs)   bands (ev):

   -55.6904 -55.6849 -55.6777 -55.6730 -55.6656 -55.6008 -55.5604 -55.5403
   -55.5363 -55.5349 -55.4929 -55.4929 -55.4907 -55.4888 -54.7562 -54.7562
   -32.1082 -32.0767 -32.0656 -32.0039 -31.9994 -31.9805 -31.9717 -31.9624
   -31.9604 -31.9360 -31.9347 -31.9100 -31.9009 -31.8723 -31.8587 -31.8569
   -31.8555 -31.8472 -31.8422 -31.8384 -31.8305 -31.8229 -31.8057 -31.8029
   -31.7999 -31.7978 -31.7977 -31.7967 -31.7932 -31.7852 -31.7829 -31.7535
   -31.7388 -31.7384 -31.7230 -31.7142 -31.7123 -31.7066 -31.6816 -31.6768
   -31.6755 -31.6523 -31.0745 -31.0745 -30.9979 -30.9976 -30.9582 -30.9580
   -21.1866 -19.2574 -16.1549 -15.9600 -15.8097 -15.7254 -15.7186 -15.6595
   -15.5792 -15.5380 -15.4918 -15.4802 -15.4702 -15.4355 -15.4258 -15.4142
   -15.3523 -15.3025 -15.2991 -15.2836 -15.2343 -15.2269 -15.2164 -15.2109
   -15.2021 -15.1591 -15.1548 -15.1402 -15.1294 -14.9853 -14.8290 -13.2566
   -13.2559 -10.3859  -7.2162  -5.7239  -4.7097  -3.9552  -3.8696  -3.2352
    -3.2326  -2.9709  -2.9489  -2.8902  -2.8787  -2.8147  -2.7834  -2.7076
    -2.7013  -2.6557  -2.6156  -2.6073  -2.5943  -2.5701  -2.5368  -2.5231
    -2.4815  -2.4714  -2.4458  -2.4407  -2.4223  -2.4064  -2.3814  -2.3755
    -2.3433  -2.3230  -2.3149  -2.3112  -2.2340  -2.1723  -2.0493  -2.0272
    -1.9868  -1.9376  -1.9220  -1.8515  -1.8158  -1.8010  -1.7433  -1.7086
    -1.6815  -1.5091  -1.4971  -1.4767  -1.3853  -1.3530  -1.3395  -1.3119
    -1.2551  -1.2270  -1.2227  -1.1453  -1.0339  -1.0109  -0.9127  -0.8670
    -0.8658  -0.7771  -0.7439  -0.7056  -0.7035  -0.6660  -0.6099  -0.5882
    -0.5309  -0.5251  -0.4776  -0.4573  -0.4338  -0.4026  -0.2296  -0.1749
    -0.1192  -0.0220   0.0068   0.2348   0.2656   0.2723   0.3382   0.3684
     0.4749   0.4962   0.5589   0.5739   0.6752   0.7071   0.7235   0.7284
     0.7748   1.4759   1.6039   1.6066   1.7055   1.7090   3.5309   3.5456
     3.6470   3.6989   3.7363   3.8404   3.8888   3.9214   3.9286   3.9438
     4.0175

     the Fermi energy is     3.4299 ev

!    total energy              =   -2964.77933770 Ry
     estimated scf accuracy    <       0.00000006 Ry
     smearing contrib. (-TS)   =      -0.03745704 Ry
     internal energy E=F+TS    =   -2964.74188066 Ry

     The total energy is F=E-TS. E is the sum of the following terms:
     one-electron contribution =  -24112.48901794 Ry
     hartree contribution      =   12146.44213247 Ry
     xc contribution           =    -490.02921829 Ry
     ewald contribution        =    9491.33327279 Ry
     electric field correction =       0.00095031 Ry

     convergence has been achieved in  62 iterations

     Forces acting on atoms (cartesian axes, Ry/au):

     atom    1 type  1   force =    -0.00035243   -0.00001845    0.09254221
     atom    2 type  1   force =    -0.00033111    0.00120922   -0.18261535
     atom    3 type  2   force =     0.00043775    0.00023736   -0.02456365
     atom    4 type  2   force =     0.00073489    0.00044947    0.05162809
     atom    5 type  2   force =    -0.01467287   -0.00007399    0.00466344
     atom    6 type  2   force =     0.01554234   -0.00056773    0.00541784
     atom    7 type  1   force =    -0.00050508   -0.00016487    0.00010986
     atom    8 type  1   force =     0.00022770    0.00005753    0.00021575
     atom    9 type  2   force =    -0.00017018   -0.00017624   -0.00028913
     atom   10 type  2   force =     0.00006259   -0.00003627    0.00030647
     atom   11 type  2   force =    -0.00031898    0.00020635    0.00002640
     atom   12 type  2   force =     0.00038682    0.00007787   -0.00022033
     atom   13 type  1   force =    -0.00021088   -0.00026124    0.00023574
     atom   14 type  1   force =     0.00013733   -0.00022057   -0.00048425
     atom   15 type  2   force =    -0.00033225    0.00033790   -0.00012687
     atom   16 type  2   force =     0.00009098    0.00001869   -0.00031728
     atom   17 type  2   force =    -0.00009764   -0.00014141    0.00015093
     atom   18 type  2   force =     0.00014678   -0.00012603   -0.00035433
     atom   19 type  1   force =    -0.00105389    0.00007939   -0.00018509
     atom   20 type  1   force =     0.00041485    0.00006109   -0.00001669
     atom   21 type  2   force =    -0.00009859    0.00006026    0.10487722
     atom   22 type  2   force =    -0.00034390   -0.00001564    0.00042458
     atom   23 type  2   force =    -0.06835148    0.00002996   -0.02692577
     atom   24 type  2   force =     0.06804304    0.00046517   -0.02700332
     atom   25 type  1   force =    -0.00031075   -0.00002367    0.09721438
     atom   26 type  1   force =    -0.00030714   -0.00119583   -0.18265905
     atom   27 type  2   force =     0.00035246    0.00023473   -0.02298591
     atom   28 type  2   force =     0.00081454    0.00042684    0.05201956
     atom   29 type  2   force =    -0.01465824    0.00064910    0.00459319
     atom   30 type  2   force =     0.01567157    0.00039962    0.00532195
     atom   31 type  1   force =    -0.00046242   -0.00001246    0.00013202
     atom   32 type  1   force =     0.00022859    0.00006117    0.00019604
     atom   33 type  2   force =    -0.00008720    0.00013300    0.00018966
     atom   34 type  2   force =     0.00001239    0.00001125    0.00015085
     atom   35 type  2   force =    -0.00015669   -0.00029968    0.00011575
     atom   36 type  2   force =     0.00022227   -0.00019501   -0.00011595
     atom   37 type  1   force =    -0.00030194    0.00015905   -0.00044916
     atom   38 type  1   force =     0.00013130    0.00037431   -0.00037805
     atom   39 type  2   force =    -0.00036554   -0.00028030   -0.00020507
     atom   40 type  2   force =     0.00018589   -0.00008347   -0.00006793
     atom   41 type  2   force =    -0.00033655   -0.00010849   -0.00021682
     atom   42 type  2   force =     0.00036295   -0.00010817   -0.00071646
     atom   43 type  1   force =    -0.00096821   -0.00027630    0.00015644
     atom   44 type  1   force =     0.00040224   -0.00063110    0.00001850
     atom   45 type  2   force =    -0.00007361    0.00005571    0.10476002
     atom   46 type  2   force =    -0.06832989   -0.00060474   -0.02691659
     atom   47 type  2   force =     0.06802885   -0.00013954   -0.02699184
     atom   48 type  3   force =    -0.00099623   -0.00011414    0.00012342
     atom   49 type  2   force =    -0.01725915   -0.00145924   -0.00384826
     atom   50 type  4   force =     0.00019075    0.00015270    0.00010143
     atom   51 type  4   force =     0.01829397    0.00142003    0.00316491
     atom   52 type  2   force =     0.00006747   -0.00111770    0.00081436
     atom   53 type  4   force =    -0.00027091    0.00058779   -0.00042346
     atom   54 type  4   force =     0.00053347    0.00049670   -0.00059441

     Total force =     0.369336     Total SCF correction =     0.000798
  @ DRIVER MODE: Message from server: STATUS
  @ DRIVER MODE: Message from server: GETFORCE
  @ DRIVER MODE: Returning v,forces,stress,ensemble

     Writing output data file ./calc.save/
  @ DRIVER MODE: Message from server: EXIT
  @ DRIVE MODE: Exiting

     General routines

     Parallel routines

   This run was terminated on:  22:23:30  15Sep2021

   JOB DONE.