     Program PWSCF v.6.7GPU starts on  9Sep2021 at  3:17:44

     R & G space division:  proc/nbgrp/npool/nimage =      10
     Reading input from /storage/home/hcoda1/3/ntian30/research/carbon/CxH_vib/C_calc/ads_slab/CN2_a/out_0010/pw.inp
Warning: card &CELL ignored
Warning: card   CELL_DYNAMICS='IPI', ignored
Warning: card / ignored

     Current dimensions of program PWSCF are:
     Max number of different atomic species (ntypx) = 10
     Max number of k-points (npk) =  40000
     Max angular momentum in pseudopotentials (lmaxx) =  3
     Presently no symmetry can be used with electric field

     Message from routine cell_base_init:
     DEPRECATED: use true lattice parameter, not A to a.u. conversion factor

     IMPORTANT: XC functional enforced from input :
     Exchange-correlation= BEEF-VDW
                           (   1   4  43  14   2   0   0)
     Any further DFT definition will be discarded
     Please, verify this is what you really want

  @ DRIVER MODE: Connecting to
 qe_1139763_2767375.sched-torque.pace.gatech.edup13y96a6_scratch
  using UNIX socket
  @ DRIVER MODE: Message from server: STATUS
  @ DRIVER MODE: Message from server: INIT
  @ DRIVER MODE: Receiving replica           0          -1
  @ DRIVER MODE: Receiving encoded integer          25
  @ DRIVER MODE:  SCF:  T  FORCE:  T  STRESS:  F  VC:  F  ENSEMBLE:  F
  @ DRIVER MODE:  SCF:  T  FORCE:  T  STRESS:  F  VC:  F  ENSEMBLE:  F

     Using Slab Decomposition

     bravais-lattice index     =            0
     lattice parameter (alat)  =       1.8897  a.u.
     unit-cell volume          =    6658.9804 (a.u.)^3
     number of atoms/cell      =           50
     number of atomic types    =            4
     number of electrons       =       392.00
     number of Kohn-Sham states=          206
     kinetic-energy cutoff     =      29.3995  Ry
     charge density cutoff     =     293.9946  Ry
     scf convergence threshold =      7.3E-08
     mixing beta               =       0.0500
     number of iterations used =            8  plain     mixing
     Exchange-correlation= BEEF-VDW
                           (   1   4  43  14   2   0   0)

     celldm(1)=   1.889726  celldm(2)=   0.000000  celldm(3)=   0.000000
     celldm(4)=   0.000000  celldm(5)=   0.000000  celldm(6)=   0.000000

     crystal axes: (cart. coord. in units of alat)
               a(1) = (   6.579727   0.000000   0.000000 )
               a(2) = (  -0.000775   5.961596   0.000000 )
               a(3) = (   0.000000   0.000000  25.155947 )

     reciprocal axes: (cart. coord. in units 2 pi/alat)
               b(1) = (  0.151982  0.000020  0.000000 )
               b(2) = (  0.000000  0.167740  0.000000 )
               b(3) = (  0.000000  0.000000  0.039752 )

     PseudoPot. # 1 for Ti read from file:
     /storage/coda1/p-amedford6/0/shared/rich_project_chbe-medford/medford-share/data/pseudos_module/espresso/nninc/pbe/van/Ti.UPF
     MD5 check sum: 8e4df49b7f0d34bbd5052bf3f5ea0213
     Pseudo is Ultrasoft, Zval = 12.0
     Generated by new atomic code, or converted to UPF format
     Using radial grid of  851 points,  6 beta functions with:
                l(1) =   0
                l(2) =   0
                l(3) =   1
                l(4) =   1
                l(5) =   2
                l(6) =   2
     Q(r) pseudized with  8 coefficients,  rinner =    1.000   1.000   1.000
                                                       1.000   1.000

     PseudoPot. # 2 for O  read from file:
     /storage/coda1/p-amedford6/0/shared/rich_project_chbe-medford/medford-share/data/pseudos_module/espresso/nninc/pbe/van/O.UPF
     MD5 check sum: 78c19812648e8988a0fe644b0f25305e
     Pseudo is Ultrasoft, Zval =  6.0
     Generated by new atomic code, or converted to UPF format
     Using radial grid of  737 points,  4 beta functions with:
                l(1) =   0
                l(2) =   0
                l(3) =   1
                l(4) =   1
     Q(r) pseudized with  8 coefficients,  rinner =    0.800   0.800   0.800

     PseudoPot. # 3 for N  read from file:
     /storage/coda1/p-amedford6/0/shared/rich_project_chbe-medford/medford-share/data/pseudos_module/espresso/nninc/pbe/van/N.UPF
     MD5 check sum: 90d10febe142ad51ac9d5be1deb811c4
     Pseudo is Ultrasoft, Zval =  5.0
     Generated by new atomic code, or converted to UPF format
     Using radial grid of  729 points,  4 beta functions with:
                l(1) =   0
                l(2) =   0
                l(3) =   1
                l(4) =   1
     Q(r) pseudized with  8 coefficients,  rinner =    0.800   0.800   0.800

     PseudoPot. # 4 for C  read from file:
     /storage/coda1/p-amedford6/0/shared/rich_project_chbe-medford/medford-share/data/pseudos_module/espresso/nninc/pbe/van/C.UPF
     MD5 check sum: 1a69bf6b8db32088f5b2163dbdb77a27
     Pseudo is Ultrasoft, Zval =  4.0
     Generated by new atomic code, or converted to UPF format
     Using radial grid of  721 points,  4 beta functions with:
                l(1) =   0
                l(2) =   0
                l(3) =   1
                l(4) =   1
     Q(r) pseudized with  8 coefficients,  rinner =    0.800   0.800   0.800

     atomic species   valence    mass     pseudopotential
        Ti1           12.00    47.86700     Ti( 1.00)
        O1             6.00    15.99900     O ( 1.00)
        N1             5.00    14.00700     N ( 1.00)
        C1             4.00    12.01100     C ( 1.00)

     No symmetry found

   Cartesian axes

     site n.     atom                  positions (alat units)
         1           Ti1 tau(   1) = (   0.0004258   2.9801865   6.0000000  )
         2           Ti1 tau(   2) = (   3.2906075   1.4906267   6.0002472  )
         3           O1  tau(   3) = (   0.0006271   0.0005054   7.9858123  )
         4           O1  tau(   4) = (   3.2906025   0.0005020   7.3038282  )
         5           O1  tau(   5) = (   4.5942328   1.4918067   9.2879030  )
         6           O1  tau(   6) = (   1.9868534   1.4903216   9.2879459  )
         7           Ti1 tau(   7) = (   3.2907910   2.8959150   9.1758416  )
         8           Ti1 tau(   8) = (   0.0015273   1.4827037   9.2680791  )
         9           O1  tau(   9) = (   3.2889285   5.9572048  11.3040972  )
        10           O1  tau(  10) = (   0.0116148   5.9584955  10.6183126  )
        11           O1  tau(  11) = (   1.3189323   1.4942761  12.6130295  )
        12           O1  tau(  12) = (   5.2997964   1.4884099  12.6250597  )
        13           Ti1 tau(  13) = (   6.4939836   2.9824287  12.7561987  )
        14           Ti1 tau(  14) = (   3.1682086   1.4887373  12.4699270  )
        15           O1  tau(  15) = (   0.0224291   5.9581829  14.5926458  )
        16           O1  tau(  16) = (   3.2893302   5.9536121  13.8847677  )
        17           O1  tau(  17) = (   4.5439212   1.4834749  16.0328965  )
        18           O1  tau(  18) = (   2.0755535   1.4836234  16.0228809  )
        19           Ti1 tau(  19) = (   3.3005686   2.9659170  15.6894391  )
        20           Ti1 tau(  20) = (   6.5401575   1.4426905  16.0647633  )
        21           O1  tau(  21) = (   3.2904802   0.0005063   4.7018136  )
        22           O1  tau(  22) = (   0.0258419   5.9532685  17.1653534  )
        23           O1  tau(  23) = (   1.3043587   1.4918075   6.0039043  )
        24           O1  tau(  24) = (   5.2767064   1.4903225   6.0039473  )
        25           Ti1 tau(  25) = (   0.0000382   5.9609847   6.0000000  )
        26           Ti1 tau(  26) = (   3.2902200   4.4714249   6.0002472  )
        27           O1  tau(  27) = (   0.0002396   2.9813036   7.9858123  )
        28           O1  tau(  28) = (   3.2902150   2.9813002   7.3038282  )
        29           O1  tau(  29) = (   4.5938453   4.4726049   9.2879030  )
        30           O1  tau(  30) = (   1.9864658   4.4711199   9.2879459  )
        31           Ti1 tau(  31) = (   3.2891106   5.8743827   9.1763621  )
        32           Ti1 tau(  32) = (   0.0006254   4.4649316   9.2693709  )
        33           O1  tau(  33) = (   3.2925136   2.9767646  11.3039470  )
        34           O1  tau(  34) = (   0.0092240   2.9805883  10.6323155  )
        35           O1  tau(  35) = (   1.3189435   4.4587261  12.6131553  )
        36           O1  tau(  36) = (   5.2992261   4.4686972  12.6254714  )
        37           Ti1 tau(  37) = (   6.4933837   0.0018553  12.7120694  )
        38           Ti1 tau(  38) = (   3.1687038   4.4682667  12.4696446  )
        39           O1  tau(  39) = (   6.5575253   2.9777116  14.6451287  )
        40           O1  tau(  40) = (   3.3026008   2.9720648  13.8804781  )
        41           O1  tau(  41) = (   4.5428380   4.4591099  16.0310608  )
        42           O1  tau(  42) = (   2.0745367   4.4570417  16.0198975  )
        43           Ti1 tau(  43) = (   3.2480854   5.9464808  15.6958456  )
        44           Ti1 tau(  44) = (   6.5385164   4.5051388  16.0519081  )
        45           O1  tau(  45) = (   3.2900926   2.9813045   4.7018136  )
        46           O1  tau(  46) = (   1.3039711   4.4726057   6.0039043  )
        47           O1  tau(  47) = (   5.2763189   4.4711207   6.0039473  )
        48           N1  tau(  48) = (   0.6627575   2.9932433  18.4779999  )
        49           C1  tau(  49) = (   1.2395031   3.0250465  19.5213309  )
        50           N1  tau(  50) = (   0.0963922   2.9773862  17.3183823  )

     number of k points=    10  Fermi-Dirac smearing, width (Ry)=  0.0073
                       cart. coord. in units 2pi/alat
        k(    1) = (   0.0000000   0.0000000   0.0000000), wk =   0.1250000
        k(    2) = (   0.0000000   0.0419351   0.0000000), wk =   0.2500000
        k(    3) = (   0.0000000  -0.0838702   0.0000000), wk =   0.1250000
        k(    4) = (   0.0379955   0.0000049   0.0000000), wk =   0.2500000
        k(    5) = (   0.0379955   0.0419400   0.0000000), wk =   0.2500000
        k(    6) = (   0.0379955  -0.0838652   0.0000000), wk =   0.2500000
        k(    7) = (   0.0379955  -0.0419301   0.0000000), wk =   0.2500000
        k(    8) = (  -0.0759910  -0.0000099   0.0000000), wk =   0.1250000
        k(    9) = (  -0.0759910   0.0419252   0.0000000), wk =   0.2500000
        k(   10) = (  -0.0759910  -0.0838800   0.0000000), wk =   0.1250000

     Initial potential from superposition of free atoms

     starting charge  375.99919, renormalised to  392.00000

     negative rho (up, down):  1.742E-02 0.000E+00

     %%%%%%%%%%%%%%%%%%%%%%%%%%%%%%%%%%%%%%%%%%%%%%%%%%%%%%%%%%%%%%%%%%%%%%%%
     %                                                                      %
     % You are using vdW-DF, which was implemented by the Thonhauser group. %
     % Please cite the following two papers that made this development      %
     % possible and the two reviews that describe the various versions:     %
     %                                                                      %
     %   T. Thonhauser et al., PRL 115, 136402 (2015).                      %
     %   T. Thonhauser et al., PRB 76, 125112 (2007).                       %
     %   K. Berland et al., Rep. Prog. Phys. 78, 066501 (2015).             %
     %   D.C. Langreth et al., J. Phys.: Condens. Matter 21, 084203 (2009). %
     %                                                                      %
     %                                                                      %
     % If you are calculating the stress with vdW-DF, please also cite:     %
     %                                                                      %
     %   R. Sabatini et al., J. Phys.: Condens. Matter 24, 424209 (2012).   %
     %                                                                      %
     %%%%%%%%%%%%%%%%%%%%%%%%%%%%%%%%%%%%%%%%%%%%%%%%%%%%%%%%%%%%%%%%%%%%%%%%

     Adding external electric field

     Computed dipole along edir(3) :
        Dipole               -6.0010 Ry au,        -15.2530 Debye
        Dipole field         -0.0113 Ry au,

        Potential amp.        1.0498 Ry
        Total length         46.3494 bohr

     Starting wfcs are  296 atomic wfcs
  @ DRIVER MODE: Message from server: STATUS
  @ DRIVER MODE: Message from server: POSDATA
  @ DRIVER MODE: Reading and sharing cell
  @ DRIVER MODE: Reading and sharing positions
  @ DRIVER MODE: Received positions

     Self-consistent Calculation

     iteration #  1     ecut=    29.40 Ry     beta= 0.05
     Davidson diagonalization with overlap
     c_bands:  3 eigenvalues not converged
     c_bands:  1 eigenvalues not converged
     c_bands:  3 eigenvalues not converged
     c_bands:  1 eigenvalues not converged
     c_bands:  1 eigenvalues not converged
     c_bands:  3 eigenvalues not converged
     ethr =  1.00E-05,  avg # of iterations = 19.5

[...]

     total energy              =   -2797.80946513 Ry
     estimated scf accuracy    <    1529.05174913 Ry

[...]

     iteration #  3     ecut=    29.40 Ry     beta= 0.05
     Davidson diagonalization with overlap
     ethr =  1.00E-02,  avg # of iterations = 14.2

[...]

     iteration # 51     ecut=    29.40 Ry     beta= 0.05
     Davidson diagonalization with overlap
     c_bands:  1 eigenvalues not converged
     c_bands:  2 eigenvalues not converged
     ethr =  1.50E-07,  avg # of iterations = 10.1

[...]

     total energy              =   -2935.33684279 Ry
     estimated scf accuracy    <       0.00000014 Ry

     iteration # 76     ecut=    29.40 Ry     beta= 0.05
     Davidson diagonalization with overlap
     ethr =  2.46E-11,  avg # of iterations =  4.9

     negative rho (up, down):  1.700E-02 0.000E+00

     Adding external electric field

     Computed dipole along edir(3) :
        Dipole               -0.7922 Ry au,         -2.0135 Debye
        Dipole field         -0.0015 Ry au,

        Potential amp.        0.1386 Ry
        Total length         46.3494 bohr

     End of self-consistent calculation

          k = 0.0000 0.0000 0.0000 ( 18029 PWs)   bands (ev):

   -57.3074 -57.2737 -56.6505 -56.6164 -56.6122 -56.5786 -56.5567 -56.5213
   -56.3492 -56.3143 -56.2751 -56.2351 -56.0586 -56.0246 -55.8253 -55.7860
   -33.7473 -33.5923 -33.5642 -33.4745 -33.3825 -33.3721 -33.1156 -33.0976
   -33.0956 -32.9191 -32.8772 -32.8643 -32.8209 -32.8177 -32.8159 -32.8151
   -32.7872 -32.7787 -32.7767 -32.7713 -32.7623 -32.7497 -32.7370 -32.7200
   -32.7198 -32.6894 -32.6867 -32.6661 -32.5853 -32.5210 -32.4896 -32.4558
   -32.4528 -32.4487 -32.4233 -32.4174 -32.3915 -32.3913 -32.3677 -32.3644
   -32.2736 -32.1889 -32.0779 -32.0526 -32.0486 -32.0374 -31.9946 -31.8919
   -17.9200 -17.5490 -17.2534 -17.0219 -16.7794 -16.7164 -16.6662 -16.6418
   -16.5951 -16.5330 -16.5169 -16.4504 -16.3464 -16.3088 -16.2248 -16.1271
   -16.1190 -16.0825 -16.0162 -15.9159 -15.9113 -15.9091 -15.8483 -15.8410
   -15.7073 -15.6552 -15.5278 -15.5196 -15.4166 -15.1906 -14.5583 -14.4463
   -12.8885  -5.8783  -5.0873  -4.7479  -4.5462  -4.4505  -4.3296  -4.2837
    -4.2352  -4.0182  -3.9442  -3.9431  -3.8820  -3.8234  -3.6745  -3.6733
    -3.6238  -3.6027  -3.5689  -3.5182  -3.5059  -3.4731  -3.4729  -3.2919
    -3.2370  -3.2251  -3.2200  -3.2069  -3.1032  -3.0436  -3.0347  -3.0225
    -3.0077  -2.9784  -2.8524  -2.8105  -2.7678  -2.7517  -2.7439  -2.5952
    -2.5928  -2.5921  -2.4832  -2.4735  -2.3924  -2.3075  -2.1924  -2.1324
    -2.0872  -2.0527  -2.0289  -1.8808  -1.8487  -1.7961  -1.7343  -1.6923
    -1.6270  -1.6060  -1.5759  -1.5551  -1.5003  -1.4116  -1.3569  -1.3124
    -1.2548  -1.2401  -1.1071  -1.0958  -1.0814  -1.0667  -1.0085  -0.9489
    -0.9183  -0.8755  -0.8706  -0.8493  -0.7474  -0.6406  -0.6260  -0.5749
    -0.4629  -0.4516  -0.3868  -0.3450  -0.2554  -0.2176  -0.1445  -0.0901
    -0.0377  -0.0369   0.0055   0.1194   0.1716   0.1914   0.5189   0.5594
     0.6555   0.8624   1.2635   1.7049   1.9437   2.0800   2.3882   2.4322
     2.5414   2.8651   2.8745   2.9280   2.9364   2.9868

[...]

          k = 0.0380-0.0419 0.0000 ( 17876 PWs)   bands (ev):

[...]

          k =-0.0760-0.0000 0.0000 ( 17886 PWs)   bands (ev):

[...]

          k =-0.0760-0.0839 0.0000 ( 17948 PWs)   bands (ev):

   -57.2905 -57.2904 -56.6359 -56.6305 -56.5963 -56.5948 -56.5397 -56.5381
   -56.3324 -56.3310 -56.2652 -56.2449 -56.0416 -56.0415 -55.8146 -55.7965
   -33.5781 -33.5777 -33.5637 -33.5636 -33.4269 -33.4266 -32.9398 -32.9343
   -32.9286 -32.9263 -32.9070 -32.9058 -32.8343 -32.8321 -32.8253 -32.8193
   -32.8176 -32.8148 -32.8080 -32.8071 -32.7863 -32.7847 -32.7462 -32.7440
   -32.6766 -32.6750 -32.6175 -32.6159 -32.5938 -32.5759 -32.5391 -32.5294
   -32.4983 -32.4845 -32.4377 -32.4265 -32.3807 -32.3806 -32.2705 -32.2704
   -32.2590 -32.2314 -32.2314 -32.1127 -32.0325 -32.0130 -32.0060 -31.9837
   -17.9098 -16.9104 -16.9064 -16.8545 -16.8539 -16.6888 -16.6849 -16.6181
   -16.6137 -16.5004 -16.4908 -16.2879 -16.2768 -16.2708 -16.2699 -16.1765
   -16.1579 -16.1545 -16.1465 -16.0465 -16.0415 -15.9961 -15.9949 -15.9793
   -15.9345 -15.6783 -15.6086 -15.5459 -15.4359 -15.4024 -14.5493 -14.5492
   -12.8929  -5.7985  -4.0449  -4.0394  -3.9938  -3.9850  -3.9056  -3.9007
    -3.7619  -3.7583  -3.7182  -3.7136  -3.6075  -3.5793  -3.5731  -3.5708
    -3.4894  -3.4560  -3.4503  -3.4208  -3.4072  -3.3934  -3.3451  -3.3389
    -3.3043  -3.2991  -3.2218  -3.2187  -3.1727  -3.1684  -3.1276  -3.1003
    -3.0524  -2.9712  -2.9423  -2.9400  -2.9245  -2.8751  -2.8438  -2.6576
    -2.6509  -2.6261  -2.5335  -2.5285  -2.4573  -2.3587  -2.3486  -2.2980
    -2.2249  -2.2111  -2.0599  -2.0544  -2.0353  -2.0246  -1.9964  -1.9113
    -1.8708  -1.8162  -1.7241  -1.6894  -1.6505  -1.6222  -1.5992  -1.5885
    -1.5699  -1.5579  -1.4219  -1.4173  -1.3633  -1.3369  -1.2940  -1.2685
    -1.1558  -1.1231  -1.0228  -0.9135  -0.9026  -0.8775  -0.8664  -0.7518
    -0.6552  -0.6463  -0.4434  -0.3732  -0.2825  -0.2433  -0.2251  -0.0903
    -0.0755  -0.0367  -0.0247   0.1782   0.2352   0.3569   0.3616   0.3730
     0.3734   0.8750   1.2512   1.6487   2.4934   2.4940   2.5499   2.5501
     2.8520   2.8555   2.9247   2.9405   2.9864   2.9874

     the Fermi energy is     1.8564 ev

!    total energy              =   -2935.33685184 Ry
     estimated scf accuracy    <       0.00000007 Ry
     smearing contrib. (-TS)   =      -0.00931505 Ry
     internal energy E=F+TS    =   -2935.32753680 Ry

     The total energy is F=E-TS. E is the sum of the following terms:
     one-electron contribution =  -24516.10903613 Ry
     hartree contribution      =   12336.09619328 Ry
     xc contribution           =    -482.59048211 Ry
     ewald contribution        =    9727.27460389 Ry
     electric field correction =       0.00118428 Ry

     convergence has been achieved in  76 iterations

     Forces acting on atoms (cartesian axes, Ry/au):

     atom    1 type  1   force =     0.00005115   -0.00040905    0.11609596
     atom    2 type  1   force =    -0.00008589   -0.00058431   -0.16488246
     atom    3 type  2   force =     0.00017760   -0.00006440   -0.05566948
     atom    4 type  2   force =    -0.00004053   -0.00057783    0.03448628
     atom    5 type  2   force =    -0.01584720    0.00099031   -0.00640541
     atom    6 type  2   force =     0.01752968    0.00172784   -0.00685412
     atom    7 type  1   force =     0.00078356   -0.00314332    0.01349891
     atom    8 type  1   force =    -0.00039195    0.00376293    0.09567488
     atom    9 type  2   force =    -0.00004070    0.00004791    0.00003086
     atom   10 type  2   force =    -0.00228100    0.00158377   -0.05970500
     atom   11 type  2   force =    -0.00018152   -0.00014330    0.00008028
     atom   12 type  2   force =     0.00006974   -0.00053151    0.00003149
     atom   13 type  1   force =    -0.00025307   -0.00011570    0.00058844
     atom   14 type  1   force =     0.00009532   -0.00046137    0.00008354
     atom   15 type  2   force =    -0.00029891   -0.00017328   -0.00028028
     atom   16 type  2   force =     0.00016572    0.00015566   -0.00043247
     atom   17 type  2   force =     0.00039043    0.00012483    0.00006075
     atom   18 type  2   force =    -0.00019049   -0.00003009   -0.00037197
     atom   19 type  1   force =    -0.00033707    0.00009408    0.00060145
     atom   20 type  1   force =     0.00029635    0.00045762   -0.00043023
     atom   21 type  2   force =     0.00005420    0.00001357    0.10063857
     atom   22 type  2   force =    -0.00004971    0.00015540   -0.00061589
     atom   23 type  2   force =    -0.07667853   -0.00002886   -0.03124838
     atom   24 type  2   force =     0.07653629    0.00039048   -0.03126343
     atom   25 type  1   force =     0.00008318   -0.00042318    0.11589852
     atom   26 type  1   force =    -0.00009376   -0.00033904   -0.16487229
     atom   27 type  2   force =     0.00034058   -0.00030900   -0.05457611
     atom   28 type  2   force =    -0.00002060   -0.00040175    0.03445041
     atom   29 type  2   force =    -0.01626969    0.00134914   -0.00649861
     atom   30 type  2   force =     0.01784604    0.00154207   -0.00698776
     atom   31 type  1   force =     0.00067839   -0.00038826    0.01276757
     atom   32 type  1   force =    -0.00027567   -0.00632039    0.09629053
     atom   33 type  2   force =    -0.00017899   -0.00011729   -0.00064739
     atom   34 type  2   force =    -0.00268156    0.00109367   -0.06839268
     atom   35 type  2   force =    -0.00012865    0.00032710    0.00021811
     atom   36 type  2   force =    -0.00001529    0.00035410    0.00009084
     atom   37 type  1   force =    -0.00008802   -0.00021482   -0.00007154
     atom   38 type  1   force =    -0.00013797   -0.00017971    0.00027393
     atom   39 type  2   force =    -0.00009757   -0.00021607   -0.00003883
     atom   40 type  2   force =    -0.00007388    0.00009374   -0.00023570
     atom   41 type  2   force =     0.00038452    0.00026919    0.00011503
     atom   42 type  2   force =    -0.00017629    0.00039309   -0.00032526
     atom   43 type  1   force =    -0.00007091    0.00045970    0.00085028
     atom   44 type  1   force =     0.00023185   -0.00041146    0.00011381
     atom   45 type  2   force =     0.00005492   -0.00000143    0.10061614
     atom   46 type  2   force =    -0.07668427    0.00000642   -0.03122748
     atom   47 type  2   force =     0.07652432    0.00044437   -0.03125219
     atom   48 type  3   force =     0.00096528    0.00078503    0.00092476
     atom   49 type  4   force =     0.00021786   -0.00067336   -0.00112354
     atom   50 type  3   force =     0.00019271   -0.00036325   -0.00007283

     Total force =     0.407186     Total SCF correction =     0.000805
  @ DRIVER MODE: Message from server: STATUS
  @ DRIVER MODE: Message from server: GETFORCE
  @ DRIVER MODE: Returning v,forces,stress,ensemble

     Writing output data file ./calc.save/
  @ DRIVER MODE: Message from server: EXIT
  @ DRIVE MODE: Exiting

     General routines

     Parallel routines

   This run was terminated on:   3:51:40   9Sep2021

   JOB DONE.