     Program PWSCF v.6.7GPU starts on  2Aug2021 at 13:38:14

     R & G space division:  proc/nbgrp/npool/nimage =      16
     Reading input from /storage/home/hcoda1/3/ntian30/research/carbon/02Aug_vib_paired/ads_slab/CH3N2H_a/out_0006/pw.inp
Warning: card &CELL ignored
Warning: card   CELL_DYNAMICS='IPI', ignored
Warning: card / ignored

     Current dimensions of program PWSCF are:
     Max number of different atomic species (ntypx) = 10
     Max number of k-points (npk) =  40000
     Max angular momentum in pseudopotentials (lmaxx) =  3
     Presently no symmetry can be used with electric field

     Message from routine cell_base_init:
     DEPRECATED: use true lattice parameter, not A to a.u. conversion factor

     IMPORTANT: XC functional enforced from input :
     Exchange-correlation= BEEF-VDW
                           (   1   4  43  14   2   0   0)
     Any further DFT definition will be discarded
     Please, verify this is what you really want

  @ DRIVER MODE: Connecting to
 qe_1139763_2482535.sched-torque.pace.gatech.edush_n1xlf_scratch
  using UNIX socket
  @ DRIVER MODE: Message from server: STATUS
  @ DRIVER MODE: Message from server: INIT
  @ DRIVER MODE: Receiving replica           0          -1
  @ DRIVER MODE: Receiving encoded integer          25
  @ DRIVER MODE:  SCF:  T  FORCE:  T  STRESS:  F  VC:  F  ENSEMBLE:  F
  @ DRIVER MODE:  SCF:  T  FORCE:  T  STRESS:  F  VC:  F  ENSEMBLE:  F

     Using Slab Decomposition

     bravais-lattice index     =            0
     lattice parameter (alat)  =       1.8897  a.u.
     unit-cell volume          =    6658.9804 (a.u.)^3
     number of atoms/cell      =           54
     number of atomic types    =            5
     number of electrons       =       396.00
     number of Kohn-Sham states=          208
     kinetic-energy cutoff     =      29.3995  Ry
     charge density cutoff     =     293.9946  Ry
     scf convergence threshold =      7.3E-08
     mixing beta               =       0.0500
     number of iterations used =            8  plain     mixing
     Exchange-correlation= BEEF-VDW
                           (   1   4  43  14   2   0   0)

     celldm(1)=   1.889726  celldm(2)=   0.000000  celldm(3)=   0.000000
     celldm(4)=   0.000000  celldm(5)=   0.000000  celldm(6)=   0.000000

     crystal axes: (cart. coord. in units of alat)
               a(1) = (   6.579727   0.000000   0.000000 )
               a(2) = (  -0.000775   5.961596   0.000000 )
               a(3) = (   0.000000   0.000000  25.155947 )

     reciprocal axes: (cart. coord. in units 2 pi/alat)
               b(1) = (  0.151982  0.000020  0.000000 )
               b(2) = (  0.000000  0.167740  0.000000 )
               b(3) = (  0.000000  0.000000  0.039752 )

     PseudoPot. # 1 for Ti read from file:
     /storage/coda1/p-amedford6/0/shared/rich_project_chbe-medford/medford-share/data/pseudos_module/espresso/nninc/pbe/van/Ti.UPF
     MD5 check sum: 8e4df49b7f0d34bbd5052bf3f5ea0213
     Pseudo is Ultrasoft, Zval = 12.0
     Generated by new atomic code, or converted to UPF format
     Using radial grid of  851 points,  6 beta functions with:
                l(1) =   0
                l(2) =   0
                l(3) =   1
                l(4) =   1
                l(5) =   2
                l(6) =   2
     Q(r) pseudized with  8 coefficients,  rinner =    1.000   1.000   1.000
                                                       1.000   1.000

     PseudoPot. # 2 for O  read from file:
     /storage/coda1/p-amedford6/0/shared/rich_project_chbe-medford/medford-share/data/pseudos_module/espresso/nninc/pbe/van/O.UPF
     MD5 check sum: 78c19812648e8988a0fe644b0f25305e
     Pseudo is Ultrasoft, Zval =  6.0
     Generated by new atomic code, or converted to UPF format
     Using radial grid of  737 points,  4 beta functions with:
                l(1) =   0
                l(2) =   0
                l(3) =   1
                l(4) =   1
     Q(r) pseudized with  8 coefficients,  rinner =    0.800   0.800   0.800

     PseudoPot. # 3 for N  read from file:
     /storage/coda1/p-amedford6/0/shared/rich_project_chbe-medford/medford-share/data/pseudos_module/espresso/nninc/pbe/van/N.UPF
     MD5 check sum: 90d10febe142ad51ac9d5be1deb811c4
     Pseudo is Ultrasoft, Zval =  5.0
     Generated by new atomic code, or converted to UPF format
     Using radial grid of  729 points,  4 beta functions with:
                l(1) =   0
                l(2) =   0
                l(3) =   1
                l(4) =   1
     Q(r) pseudized with  8 coefficients,  rinner =    0.800   0.800   0.800

     PseudoPot. # 4 for C  read from file:
     /storage/coda1/p-amedford6/0/shared/rich_project_chbe-medford/medford-share/data/pseudos_module/espresso/nninc/pbe/van/C.UPF
     MD5 check sum: 1a69bf6b8db32088f5b2163dbdb77a27
     Pseudo is Ultrasoft, Zval =  4.0
     Generated by new atomic code, or converted to UPF format
     Using radial grid of  721 points,  4 beta functions with:
                l(1) =   0
                l(2) =   0
                l(3) =   1
                l(4) =   1
     Q(r) pseudized with  8 coefficients,  rinner =    0.800   0.800   0.800

     PseudoPot. # 5 for H  read from file:
     /storage/coda1/p-amedford6/0/shared/rich_project_chbe-medford/medford-share/data/pseudos_module/espresso/nninc/pbe/van/H.UPF
     MD5 check sum: b5ee9d7bfd3a09ee7748110bda690ff7
     Pseudo is Ultrasoft, Zval =  1.0
     Generated by new atomic code, or converted to UPF format
     Using radial grid of  615 points,  1 beta functions with:
                l(1) =   0
     Q(r) pseudized with  8 coefficients,  rinner =    0.800

     atomic species   valence    mass     pseudopotential
        Ti1           12.00    47.86700     Ti( 1.00)
        O1             6.00    15.99900     O ( 1.00)
        N1             5.00    14.00700     N ( 1.00)
        C1             4.00    12.01100     C ( 1.00)
        H1             1.00     1.00800     H ( 1.00)

     No symmetry found

   Cartesian axes

     site n.     atom                  positions (alat units)
         1           Ti1 tau(   1) = (   0.0004258   2.9801865   6.0000000  )
         2           Ti1 tau(   2) = (   3.2906075   1.4906267   6.0002472  )
         3           O1  tau(   3) = (   0.0006271   0.0005054   7.9858123  )
         4           O1  tau(   4) = (   3.2906025   0.0005020   7.3038282  )
         5           O1  tau(   5) = (   4.5942328   1.4918067   9.2879030  )
         6           O1  tau(   6) = (   1.9868534   1.4903216   9.2879459  )
         7           Ti1 tau(   7) = (   3.2907910   2.8959150   9.1758416  )
         8           Ti1 tau(   8) = (   0.0015273   1.4827037   9.2680791  )
         9           O1  tau(   9) = (   3.3106937   0.0084137  11.2927479  )
        10           O1  tau(  10) = (   0.0116148   5.9584955  10.6183126  )
        11           O1  tau(  11) = (   1.3255326   1.5151957  12.5859258  )
        12           O1  tau(  12) = (   5.3246634   1.4871208  12.6441624  )
        13           Ti1 tau(  13) = (   6.5358624   2.9940264  12.7507449  )
        14           Ti1 tau(  14) = (   3.1828407   1.5032771  12.4528579  )
        15           O1  tau(  15) = (   0.1336207   0.0073438  14.6266748  )
        16           O1  tau(  16) = (   3.2550344   0.0288700  13.8306396  )
        17           O1  tau(  17) = (   4.6334483   1.5013943  15.9792279  )
        18           O1  tau(  18) = (   2.1409664   1.5470880  15.9954950  )
        19           Ti1 tau(  19) = (   3.4798582   3.0305884  15.6593850  )
        20           Ti1 tau(  20) = (   0.1386493   1.3724552  15.8613965  )
        21           O1  tau(  21) = (   3.2904802   0.0005063   4.7018136  )
        22           O1  tau(  22) = (   0.1429122   0.0333940  17.1908172  )
        23           O1  tau(  23) = (   1.3043587   1.4918075   6.0039043  )
        24           O1  tau(  24) = (   5.2767064   1.4903225   6.0039473  )
        25           Ti1 tau(  25) = (   0.0000382   5.9609847   6.0000000  )
        26           Ti1 tau(  26) = (   3.2902200   4.4714249   6.0002472  )
        27           O1  tau(  27) = (   0.0002396   2.9813036   7.9858123  )
        28           O1  tau(  28) = (   3.2902150   2.9813002   7.3038282  )
        29           O1  tau(  29) = (   4.5938453   4.4726049   9.2879030  )
        30           O1  tau(  30) = (   1.9864658   4.4711199   9.2879459  )
        31           Ti1 tau(  31) = (   3.2891106   5.8743827   9.1763621  )
        32           Ti1 tau(  32) = (   0.0006254   4.4649316   9.2693709  )
        33           O1  tau(  33) = (   3.3137399   2.9960163  11.2943833  )
        34           O1  tau(  34) = (   0.0092240   2.9805883  10.6323155  )
        35           O1  tau(  35) = (   1.3234708   4.4688006  12.5930975  )
        36           O1  tau(  36) = (   5.3222282   4.4932535  12.6449723  )
        37           Ti1 tau(  37) = (   6.5041614   0.0053836  12.5833808  )
        38           Ti1 tau(  38) = (   3.1843229   4.4812189  12.4522442  )
        39           O1  tau(  39) = (   0.0584892   2.9792810  14.6723703  )
        40           O1  tau(  40) = (   3.3232524   2.9928384  13.8523860  )
        41           O1  tau(  41) = (   4.6237859   4.5837569  15.7472905  )
        42           O1  tau(  42) = (   2.1882403   4.4693611  16.1038286  )
        43           Ti1 tau(  43) = (   3.3015484   0.0242660  15.6383815  )
        44           Ti1 tau(  44) = (   0.0181797   4.4930750  16.1931172  )
        45           O1  tau(  45) = (   3.2900926   2.9813045   4.7018136  )
        46           O1  tau(  46) = (   1.3039711   4.4726057   6.0039043  )
        47           O1  tau(  47) = (   5.2763189   4.4711207   6.0039473  )
        48           N1  tau(  48) = (   0.2677213   2.8760844  17.5755548  )
        49           C1  tau(  49) = (   1.2271684   2.7639891  18.6598760  )
        50           H1  tau(  50) = (   1.2930054   3.7106696  19.2072709  )
        51           H1  tau(  51) = (   0.8976878   1.9730418  19.3402421  )
        52           H1  tau(  52) = (   2.2102292   2.4972526  18.2850250  )
        53           N1  tau(  53) = (   5.6732178   3.4927010  17.8452151  )
        54           H1  tau(  54) = (   5.7345573   4.0058295  18.7343860  )

     number of k points=    10  Fermi-Dirac smearing, width (Ry)=  0.0073
                       cart. coord. in units 2pi/alat
        k(    1) = (   0.0000000   0.0000000   0.0000000), wk =   0.1250000
        k(    2) = (   0.0000000   0.0419351   0.0000000), wk =   0.2500000
        k(    3) = (   0.0000000  -0.0838702   0.0000000), wk =   0.1250000
        k(    4) = (   0.0379955   0.0000049   0.0000000), wk =   0.2500000
        k(    5) = (   0.0379955   0.0419400   0.0000000), wk =   0.2500000
        k(    6) = (   0.0379955  -0.0838652   0.0000000), wk =   0.2500000
        k(    7) = (   0.0379955  -0.0419301   0.0000000), wk =   0.2500000
        k(    8) = (  -0.0759910  -0.0000099   0.0000000), wk =   0.1250000
        k(    9) = (  -0.0759910   0.0419252   0.0000000), wk =   0.2500000
        k(   10) = (  -0.0759910  -0.0838800   0.0000000), wk =   0.1250000

     Initial potential from superposition of free atoms

     starting charge  379.99915, renormalised to  396.00000

     negative rho (up, down):  1.686E-02 0.000E+00

     %%%%%%%%%%%%%%%%%%%%%%%%%%%%%%%%%%%%%%%%%%%%%%%%%%%%%%%%%%%%%%%%%%%%%%%%
     %                                                                      %
     % You are using vdW-DF, which was implemented by the Thonhauser group. %
     % Please cite the following two papers that made this development      %
     % possible and the two reviews that describe the various versions:     %
     %                                                                      %
     %   T. Thonhauser et al., PRL 115, 136402 (2015).                      %
     %   T. Thonhauser et al., PRB 76, 125112 (2007).                       %
     %   K. Berland et al., Rep. Prog. Phys. 78, 066501 (2015).             %
     %   D.C. Langreth et al., J. Phys.: Condens. Matter 21, 084203 (2009). %
     %                                                                      %
     %                                                                      %
     % If you are calculating the stress with vdW-DF, please also cite:     %
     %                                                                      %
     %   R. Sabatini et al., J. Phys.: Condens. Matter 24, 424209 (2012).   %
     %                                                                      %
     %%%%%%%%%%%%%%%%%%%%%%%%%%%%%%%%%%%%%%%%%%%%%%%%%%%%%%%%%%%%%%%%%%%%%%%%

     Adding external electric field

     Computed dipole along edir(3) :
        Dipole               -8.2262 Ry au,        -20.9089 Debye
        Dipole field         -0.0155 Ry au,

        Potential amp.        1.4390 Ry
        Total length         46.3494 bohr

     Starting wfcs are  300 atomic wfcs
  @ DRIVER MODE: Message from server: STATUS
  @ DRIVER MODE: Message from server: POSDATA
  @ DRIVER MODE: Reading and sharing cell
  @ DRIVER MODE: Reading and sharing positions
  @ DRIVER MODE: Received positions

     Self-consistent Calculation

     iteration #  1     ecut=    29.40 Ry     beta= 0.05
     Davidson diagonalization with overlap
     c_bands:  1 eigenvalues not converged
     c_bands:  1 eigenvalues not converged
     c_bands:  1 eigenvalues not converged
     c_bands:  1 eigenvalues not converged
     c_bands:  4 eigenvalues not converged
     c_bands:  1 eigenvalues not converged
     c_bands:  4 eigenvalues not converged
     c_bands:  2 eigenvalues not converged
     c_bands:  1 eigenvalues not converged
     ethr =  1.00E-05,  avg # of iterations = 19.9

[...]

     total energy              =   -2607.28867867 Ry
     estimated scf accuracy    <    3678.52447324 Ry

[...]

     iteration #  3     ecut=    29.40 Ry     beta= 0.05
     Davidson diagonalization with overlap
     ethr =  1.00E-02,  avg # of iterations = 14.5

[...]

     iteration # 49     ecut=    29.40 Ry     beta= 0.05
     Davidson diagonalization with overlap
     c_bands:  1 eigenvalues not converged
     ethr =  1.42E-07,  avg # of iterations =  8.7

[...]

     total energy              =   -2940.35210696 Ry
     estimated scf accuracy    <       0.00000011 Ry

     iteration # 75     ecut=    29.40 Ry     beta= 0.05
     Davidson diagonalization with overlap
     ethr =  2.82E-11,  avg # of iterations =  6.7

     negative rho (up, down):  1.745E-02 0.000E+00

     Adding external electric field

     Computed dipole along edir(3) :
        Dipole                0.7403 Ry au,          1.8816 Debye
        Dipole field          0.0014 Ry au,

        Potential amp.       -0.1295 Ry
        Total length         46.3494 bohr

     End of self-consistent calculation

          k = 0.0000 0.0000 0.0000 ( 18029 PWs)   bands (ev):

   -56.0164 -55.9824 -55.8027 -55.7639 -55.7193 -55.6849 -55.6629 -55.6343
   -55.6287 -55.5996 -55.5787 -55.4999 -55.2481 -54.9136 -54.8796 -54.7962
   -32.4832 -32.3449 -32.3105 -32.2871 -32.1862 -32.1712 -32.1656 -32.1239
   -32.1060 -32.0979 -32.0772 -32.0439 -32.0247 -31.9809 -31.9718 -31.9703
   -31.9363 -31.9295 -31.9226 -31.8907 -31.8860 -31.8685 -31.8589 -31.8582
   -31.8368 -31.8347 -31.8241 -31.8239 -31.8138 -31.8049 -31.7946 -31.7885
   -31.7756 -31.7471 -31.6962 -31.6716 -31.6204 -31.4744 -31.4714 -31.3171
   -31.2377 -31.2148 -31.2136 -31.1344 -31.0484 -30.9999 -30.9371 -30.9201
   -17.3568 -16.5574 -16.3644 -16.0745 -15.9260 -15.9120 -15.7882 -15.6881
   -15.6084 -15.5081 -15.4599 -15.4014 -15.3884 -15.3682 -15.3095 -15.2837
   -15.2462 -15.2250 -15.1882 -15.1755 -15.1345 -15.1021 -15.0853 -15.0562
   -14.9857 -14.9188 -14.8996 -14.7522 -14.6058 -14.4602 -13.4147 -13.2998
   -11.6103  -8.3249  -5.0467  -4.0342  -3.9434  -3.8736  -3.8671  -3.7724
    -3.6900  -3.4411  -3.4218  -3.3588  -3.0663  -3.0213  -2.9973  -2.9926
    -2.8959  -2.7526  -2.7228  -2.6639  -2.6589  -2.6359  -2.6200  -2.6012
    -2.5453  -2.4922  -2.4756  -2.4312  -2.2918  -2.2723  -2.2659  -2.2448
    -2.1751  -2.1647  -2.1014  -2.0806  -2.0594  -2.0384  -2.0057  -1.8743
    -1.8410  -1.7763  -1.6957  -1.6026  -1.5206  -1.4867  -1.3975  -1.3805
    -1.3441  -1.2567  -1.2541  -1.1777  -1.1424  -1.0768  -1.0460  -1.0046
    -0.8949  -0.8710  -0.8129  -0.7510  -0.7073  -0.6969  -0.6539  -0.6292
    -0.6253  -0.6103  -0.5969  -0.4070  -0.3718  -0.2305  -0.1841  -0.1607
    -0.1186  -0.0968  -0.0389  -0.0125  -0.0091   0.0339   0.0518   0.0930
     0.1460   0.1595   0.1880   0.2780   0.3113   0.3664   0.4941   0.5093
     0.5936   0.6649   0.7638   0.7853   0.8318   0.9615   1.0634   1.0768
     1.1087   1.3139   1.4144   1.6729   1.7154   3.0328   3.1766   3.2718
     3.3796   3.4995   3.5711   3.6144   3.7846   3.8183   3.8622   3.9221

[...]

          k = 0.0380-0.0419 0.0000 ( 17876 PWs)   bands (ev):

[...]

          k =-0.0760-0.0000 0.0000 ( 17886 PWs)   bands (ev):

[...]

          k =-0.0760-0.0839 0.0000 ( 17948 PWs)   bands (ev):

   -56.0003 -55.9982 -55.7905 -55.7758 -55.7057 -55.6982 -55.6471 -55.6445
   -55.6210 -55.6130 -55.5748 -55.5037 -55.2475 -54.8966 -54.8965 -54.7966
   -32.2996 -32.2986 -32.2963 -32.2945 -32.1523 -32.1403 -32.1232 -32.1210
   -32.0490 -32.0364 -32.0260 -32.0180 -32.0139 -32.0099 -31.9656 -31.9601
   -31.9546 -31.9427 -31.9155 -31.8971 -31.8849 -31.8815 -31.8796 -31.8783
   -31.8753 -31.8711 -31.8510 -31.8499 -31.8428 -31.8356 -31.8306 -31.8157
   -31.8011 -31.7945 -31.7681 -31.7103 -31.6139 -31.4768 -31.4708 -31.2638
   -31.2276 -31.2275 -31.1304 -31.1302 -31.0915 -31.0915 -31.0117 -30.9240
   -17.3386 -15.9758 -15.9471 -15.8352 -15.8156 -15.7301 -15.7165 -15.6007
   -15.5936 -15.5823 -15.5158 -15.4675 -15.4572 -15.3805 -15.3509 -15.3402
   -15.3127 -15.3029 -15.2969 -15.2867 -15.2793 -15.1945 -15.1918 -15.1865
   -15.1180 -15.0894 -14.9102 -14.8660 -14.6716 -14.6157 -13.4023 -13.4019
   -11.6136  -8.3047  -5.0530  -3.9397  -3.8635  -3.2780  -3.2417  -3.0223
    -2.9987  -2.9781  -2.9458  -2.7629  -2.7499  -2.7415  -2.7256  -2.7133
    -2.6767  -2.6576  -2.6455  -2.5789  -2.5706  -2.5465  -2.5410  -2.5333
    -2.5140  -2.4990  -2.4912  -2.4714  -2.4621  -2.4174  -2.3622  -2.3382
    -2.2907  -2.1967  -2.0886  -2.0407  -2.0241  -2.0168  -1.9946  -1.9852
    -1.9484  -1.9355  -1.8487  -1.6706  -1.6233  -1.5534  -1.5481  -1.5384
    -1.4833  -1.4272  -1.3886  -1.3092  -1.2498  -1.1890  -1.1639  -1.1368
    -1.1019  -1.0356  -0.9702  -0.9519  -0.9399  -0.9060  -0.9014  -0.8856
    -0.8115  -0.7282  -0.6874  -0.6538  -0.6315  -0.6142  -0.5996  -0.5794
    -0.4764  -0.4026  -0.3552  -0.3083  -0.2695  -0.2264  -0.1091  -0.0933
     0.0950   0.1688   0.1961   0.2694   0.3674   0.3960   0.4080   0.4657
     0.5405   0.6046   0.6373   0.6937   0.7125   0.7320   0.7989   1.0019
     1.0706   1.4827   1.4843   1.5335   1.5345   2.9957   3.6739   3.6830
     3.6864   3.6974   3.7159   3.7380   3.7896   3.8241   3.9295   3.9564

     the Fermi energy is     3.1414 ev

!    total energy              =   -2940.35211815 Ry
     estimated scf accuracy    <       0.00000007 Ry
     smearing contrib. (-TS)   =      -0.01880379 Ry
     internal energy E=F+TS    =   -2940.33331436 Ry

     The total energy is F=E-TS. E is the sum of the following terms:
     one-electron contribution =  -24659.14311298 Ry
     hartree contribution      =   12418.70349932 Ry
     xc contribution           =    -486.05559653 Ry
     ewald contribution        =    9786.16086170 Ry
     electric field correction =       0.00103413 Ry

     convergence has been achieved in  75 iterations

     Forces acting on atoms (cartesian axes, Ry/au):

     atom    1 type  1   force =     0.00026587   -0.00036242    0.10146017
     atom    2 type  1   force =     0.00003740   -0.00086827   -0.17141526
     atom    3 type  2   force =     0.00029193    0.00021680   -0.03316920
     atom    4 type  2   force =     0.00003222   -0.00079024    0.04488134
     atom    5 type  2   force =    -0.01196799   -0.00020929   -0.00229428
     atom    6 type  2   force =     0.01440142    0.00038382   -0.00109662
     atom    7 type  1   force =     0.00140167   -0.00128244   -0.00443982
     atom    8 type  1   force =    -0.00078221    0.02219403    0.05603757
     atom    9 type  2   force =     0.00001894   -0.00032516    0.00061075
     atom   10 type  2   force =    -0.00267743    0.00207141   -0.02564778
     atom   11 type  2   force =    -0.00001644    0.00024673    0.00001711
     atom   12 type  2   force =     0.00010550    0.00075788    0.00009089
     atom   13 type  1   force =    -0.00004174    0.00014346   -0.00033260
     atom   14 type  1   force =     0.00031123    0.00029970   -0.00027124
     atom   15 type  2   force =     0.00019725    0.00000111    0.00069896
     atom   16 type  2   force =    -0.00001365   -0.00015065    0.00105703
     atom   17 type  2   force =     0.00000812   -0.00074978    0.00014488
     atom   18 type  2   force =     0.00034811   -0.00064711    0.00041041
     atom   19 type  1   force =    -0.00019314   -0.00052456   -0.00018594
     atom   20 type  1   force =     0.00007885    0.00029152    0.00002012
     atom   21 type  2   force =     0.00006760   -0.00000947    0.10213810
     atom   22 type  2   force =    -0.00005170   -0.00054329    0.00040410
     atom   23 type  2   force =    -0.07328494   -0.00015501   -0.02886359
     atom   24 type  2   force =     0.07323699    0.00033597   -0.02891075
     atom   25 type  1   force =    -0.00028812   -0.00032236    0.10189425
     atom   26 type  1   force =     0.00002912   -0.00017882   -0.17140333
     atom   27 type  2   force =     0.00036460   -0.00022743   -0.03190126
     atom   28 type  2   force =     0.00009145   -0.00057538    0.04549392
     atom   29 type  2   force =    -0.01211647    0.00213441   -0.00284735
     atom   30 type  2   force =     0.01442673    0.00229597   -0.00159401
     atom   31 type  1   force =     0.00160150    0.00094369   -0.00577471
     atom   32 type  1   force =    -0.00058722   -0.02474382    0.05709215
     atom   33 type  2   force =     0.00013863    0.00036284    0.00077097
     atom   34 type  2   force =    -0.00421219    0.00212099   -0.04806972
     atom   35 type  2   force =     0.00056869   -0.00058814    0.00008729
     atom   36 type  2   force =    -0.00038340   -0.00076678    0.00021891
     atom   37 type  1   force =     0.00009031    0.00061097   -0.00063863
     atom   38 type  1   force =     0.00005267   -0.00014699   -0.00036595
     atom   39 type  2   force =     0.00026467   -0.00005994    0.00022463
     atom   40 type  2   force =    -0.00006426   -0.00001670   -0.00007293
     atom   41 type  2   force =     0.00023846    0.00041099    0.00019361
     atom   42 type  2   force =    -0.00016676    0.00026588    0.00084153
     atom   43 type  1   force =    -0.00027844   -0.00010736   -0.00011503
     atom   44 type  1   force =     0.00038954   -0.00041947    0.00052165
     atom   45 type  2   force =     0.00004513   -0.00005116    0.10220125
     atom   46 type  2   force =    -0.07329492   -0.00009724   -0.02883626
     atom   47 type  2   force =     0.07324719    0.00028122   -0.02887310
     atom   48 type  3   force =    -0.00248254   -0.00095182   -0.01249269
     atom   49 type  4   force =     0.00103666    0.00005096    0.00567892
     atom   50 type  5   force =     0.00060355   -0.00014024    0.00094345
     atom   51 type  5   force =     0.00024852   -0.00070738    0.00158603
     atom   52 type  5   force =    -0.00044622   -0.00045157   -0.00028070
     atom   53 type  3   force =     0.00061535    0.00020855    0.00421098
     atom   54 type  5   force =    -0.00150608    0.00054139   -0.00003823

     Total force =     0.377968     Total SCF correction =     0.001111
  @ DRIVER MODE: Message from server: STATUS
  @ DRIVER MODE: Message from server: GETFORCE
  @ DRIVER MODE: Returning v,forces,stress,ensemble

     Writing output data file ./calc.save/
  @ DRIVER MODE: Message from server: EXIT
  @ DRIVE MODE: Exiting

     General routines

     Parallel routines

   This run was terminated on:  13:55:24   2Aug2021

   JOB DONE.