     Program PWSCF v.6.7GPU starts on 22Sep2021 at 18: 8:11

     R & G space division:  proc/nbgrp/npool/nimage =      10
     Reading input from /storage/home/hcoda1/3/ntian30/research/carbon/CxH_vib/H2O_calc/ads_slab/CHNHNHH2O_b/out_0007/pw.inp
Warning: card &CELL ignored
Warning: card   CELL_DYNAMICS='IPI', ignored
Warning: card / ignored

     Current dimensions of program PWSCF are:
     Max number of different atomic species (ntypx) = 10
     Max number of k-points (npk) =  40000
     Max angular momentum in pseudopotentials (lmaxx) =  3
     Presently no symmetry can be used with electric field

     Message from routine cell_base_init:
     DEPRECATED: use true lattice parameter, not A to a.u. conversion factor

     IMPORTANT: XC functional enforced from input :
     Exchange-correlation= BEEF-VDW
                           (   1   4  43  14   2   0   0)
     Any further DFT definition will be discarded
     Please, verify this is what you really want

  @ DRIVER MODE: Connecting to
 qe_1139763_2937311.sched-torque.pace.gatech.edu5mh7xusp_scratch
  using UNIX socket
  @ DRIVER MODE: Message from server: STATUS
  @ DRIVER MODE: Message from server: INIT
  @ DRIVER MODE: Receiving replica           0          -1
  @ DRIVER MODE: Receiving encoded integer          25
  @ DRIVER MODE:  SCF:  T  FORCE:  T  STRESS:  F  VC:  F  ENSEMBLE:  F
  @ DRIVER MODE:  SCF:  T  FORCE:  T  STRESS:  F  VC:  F  ENSEMBLE:  F

     Using Slab Decomposition

     bravais-lattice index     =            0
     lattice parameter (alat)  =       1.8897  a.u.
     unit-cell volume          =    6658.9804 (a.u.)^3
     number of atoms/cell      =           56
     number of atomic types    =            5
     number of electrons       =       403.00
     number of Kohn-Sham states=          211
     kinetic-energy cutoff     =      29.3995  Ry
     charge density cutoff     =     293.9946  Ry
     scf convergence threshold =      7.3E-08
     mixing beta               =       0.0500
     number of iterations used =            8  plain     mixing
     Exchange-correlation= BEEF-VDW
                           (   1   4  43  14   2   0   0)

     celldm(1)=   1.889726  celldm(2)=   0.000000  celldm(3)=   0.000000
     celldm(4)=   0.000000  celldm(5)=   0.000000  celldm(6)=   0.000000

     crystal axes: (cart. coord. in units of alat)
               a(1) = (   6.579727   0.000000   0.000000 )
               a(2) = (  -0.000775   5.961596   0.000000 )
               a(3) = (   0.000000   0.000000  25.155947 )

     reciprocal axes: (cart. coord. in units 2 pi/alat)
               b(1) = (  0.151982  0.000020  0.000000 )
               b(2) = (  0.000000  0.167740  0.000000 )
               b(3) = (  0.000000  0.000000  0.039752 )

     PseudoPot. # 1 for Ti read from file:
     /storage/coda1/p-amedford6/0/shared/rich_project_chbe-medford/medford-share/data/pseudos_module/espresso/nninc/pbe/van/Ti.UPF
     MD5 check sum: 8e4df49b7f0d34bbd5052bf3f5ea0213
     Pseudo is Ultrasoft, Zval = 12.0
     Generated by new atomic code, or converted to UPF format
     Using radial grid of  851 points,  6 beta functions with:
                l(1) =   0
                l(2) =   0
                l(3) =   1
                l(4) =   1
                l(5) =   2
                l(6) =   2
     Q(r) pseudized with  8 coefficients,  rinner =    1.000   1.000   1.000
                                                       1.000   1.000

     PseudoPot. # 2 for O  read from file:
     /storage/coda1/p-amedford6/0/shared/rich_project_chbe-medford/medford-share/data/pseudos_module/espresso/nninc/pbe/van/O.UPF
     MD5 check sum: 78c19812648e8988a0fe644b0f25305e
     Pseudo is Ultrasoft, Zval =  6.0
     Generated by new atomic code, or converted to UPF format
     Using radial grid of  737 points,  4 beta functions with:
                l(1) =   0
                l(2) =   0
                l(3) =   1
                l(4) =   1
     Q(r) pseudized with  8 coefficients,  rinner =    0.800   0.800   0.800

     PseudoPot. # 3 for N  read from file:
     /storage/coda1/p-amedford6/0/shared/rich_project_chbe-medford/medford-share/data/pseudos_module/espresso/nninc/pbe/van/N.UPF
     MD5 check sum: 90d10febe142ad51ac9d5be1deb811c4
     Pseudo is Ultrasoft, Zval =  5.0
     Generated by new atomic code, or converted to UPF format
     Using radial grid of  729 points,  4 beta functions with:
                l(1) =   0
                l(2) =   0
                l(3) =   1
                l(4) =   1
     Q(r) pseudized with  8 coefficients,  rinner =    0.800   0.800   0.800

     PseudoPot. # 4 for C  read from file:
     /storage/coda1/p-amedford6/0/shared/rich_project_chbe-medford/medford-share/data/pseudos_module/espresso/nninc/pbe/van/C.UPF
     MD5 check sum: 1a69bf6b8db32088f5b2163dbdb77a27
     Pseudo is Ultrasoft, Zval =  4.0
     Generated by new atomic code, or converted to UPF format
     Using radial grid of  721 points,  4 beta functions with:
                l(1) =   0
                l(2) =   0
                l(3) =   1
                l(4) =   1
     Q(r) pseudized with  8 coefficients,  rinner =    0.800   0.800   0.800

     PseudoPot. # 5 for H  read from file:
     /storage/coda1/p-amedford6/0/shared/rich_project_chbe-medford/medford-share/data/pseudos_module/espresso/nninc/pbe/van/H.UPF
     MD5 check sum: b5ee9d7bfd3a09ee7748110bda690ff7
     Pseudo is Ultrasoft, Zval =  1.0
     Generated by new atomic code, or converted to UPF format
     Using radial grid of  615 points,  1 beta functions with:
                l(1) =   0
     Q(r) pseudized with  8 coefficients,  rinner =    0.800

     atomic species   valence    mass     pseudopotential
        Ti1           12.00    47.86700     Ti( 1.00)
        O1             6.00    15.99900     O ( 1.00)
        N1             5.00    14.00700     N ( 1.00)
        C1             4.00    12.01100     C ( 1.00)
        H1             1.00     1.00800     H ( 1.00)

     No symmetry found

   Cartesian axes

     site n.     atom                  positions (alat units)
         1           Ti1 tau(   1) = (   0.0004258   2.9801865   6.0000000  )
         2           Ti1 tau(   2) = (   3.2906075   1.4906267   6.0002472  )
         3           O1  tau(   3) = (   0.0006271   0.0005054   7.9858123  )
         4           O1  tau(   4) = (   3.2906025   0.0005020   7.3038282  )
         5           O1  tau(   5) = (   4.5942328   1.4918067   9.2879030  )
         6           O1  tau(   6) = (   1.9868534   1.4903216   9.2879459  )
         7           Ti1 tau(   7) = (   3.2907910   2.8959150   9.1758416  )
         8           Ti1 tau(   8) = (   0.0015273   1.4827037   9.2680791  )
         9           O1  tau(   9) = (   3.2780774   5.9605562  11.3537357  )
        10           O1  tau(  10) = (   0.0116148   5.9584955  10.6183126  )
        11           O1  tau(  11) = (   1.2922713   1.4781662  12.6511241  )
        12           O1  tau(  12) = (   5.2965393   1.5043564  12.6031353  )
        13           Ti1 tau(  13) = (   6.5273184   3.0207086  12.5807821  )
        14           Ti1 tau(  14) = (   3.2344070   1.4559942  12.5004267  )
        15           O1  tau(  15) = (   6.4759410   0.0295824  14.6525783  )
        16           O1  tau(  16) = (   3.3604338   0.0238249  13.9383540  )
        17           O1  tau(  17) = (   4.5324113   1.5808541  16.1066768  )
        18           O1  tau(  18) = (   1.9684897   1.4712893  15.8817925  )
        19           Ti1 tau(  19) = (   3.2566353   3.0739815  15.8599551  )
        20           Ti1 tau(  20) = (   6.5466614   1.5318677  15.7800735  )
        21           O1  tau(  21) = (   3.2904802   0.0005063   4.7018136  )
        22           O1  tau(  22) = (   6.5744325   0.0155309  17.2227980  )
        23           O1  tau(  23) = (   1.3043587   1.4918075   6.0039043  )
        24           O1  tau(  24) = (   5.2767064   1.4903225   6.0039473  )
        25           Ti1 tau(  25) = (   0.0000382   5.9609847   6.0000000  )
        26           Ti1 tau(  26) = (   3.2902200   4.4714249   6.0002472  )
        27           O1  tau(  27) = (   0.0002396   2.9813036   7.9858123  )
        28           O1  tau(  28) = (   3.2902150   2.9813002   7.3038282  )
        29           O1  tau(  29) = (   4.5938453   4.4726049   9.2879030  )
        30           O1  tau(  30) = (   1.9864658   4.4711199   9.2879459  )
        31           Ti1 tau(  31) = (   3.2891106   5.8743827   9.1763621  )
        32           Ti1 tau(  32) = (   0.0006254   4.4649316   9.2693709  )
        33           O1  tau(  33) = (   3.2727763   2.9788165  11.3438337  )
        34           O1  tau(  34) = (   0.0092240   2.9805883  10.6323155  )
        35           O1  tau(  35) = (   1.2865780   4.4896361  12.6556599  )
        36           O1  tau(  36) = (   5.2967437   4.4749066  12.6066920  )
        37           Ti1 tau(  37) = (   6.5467059   0.0356701  12.5108493  )
        38           Ti1 tau(  38) = (   3.2305653   4.4019604  12.5605372  )
        39           O1  tau(  39) = (   6.5199767   2.9846217  14.6905747  )
        40           O1  tau(  40) = (   3.2851694   3.0254550  13.9321539  )
        41           O1  tau(  41) = (   4.5310495   4.4602642  16.1636806  )
        42           O1  tau(  42) = (   1.9842988   4.5744318  15.9411167  )
        43           Ti1 tau(  43) = (   3.2691225   0.1036042  15.7405456  )
        44           Ti1 tau(  44) = (   6.5697781   4.6877429  16.0360384  )
        45           O1  tau(  45) = (   3.2900926   2.9813045   4.7018136  )
        46           O1  tau(  46) = (   1.3039711   4.4726057   6.0039043  )
        47           O1  tau(  47) = (   5.2763189   4.4711207   6.0039473  )
        48           N1  tau(  48) = (   1.2792381   2.8578196  18.3696018  )
        49           N1  tau(  49) = (   0.1788888   2.9646215  17.5057353  )
        50           C1  tau(  50) = (   2.5352320   2.9081513  18.0382144  )
        51           H1  tau(  51) = (   3.1442446   2.7411670  18.9317345  )
        52           H1  tau(  52) = (   1.0014291   2.6635404  19.3302151  )
        53           H1  tau(  53) = (   5.9397212   2.8571719  18.0851170  )
        54           O1  tau(  54) = (   3.2630597   0.0341043  18.2348460  )
        55           H1  tau(  55) = (   4.0455299   5.4198958  18.2485053  )
        56           H1  tau(  56) = (   2.4923979   5.4091459  18.3156537  )

     number of k points=    10  Fermi-Dirac smearing, width (Ry)=  0.0073
                       cart. coord. in units 2pi/alat
        k(    1) = (   0.0000000   0.0000000   0.0000000), wk =   0.1250000
        k(    2) = (   0.0000000   0.0419351   0.0000000), wk =   0.2500000
        k(    3) = (   0.0000000  -0.0838702   0.0000000), wk =   0.1250000
        k(    4) = (   0.0379955   0.0000049   0.0000000), wk =   0.2500000
        k(    5) = (   0.0379955   0.0419400   0.0000000), wk =   0.2500000
        k(    6) = (   0.0379955  -0.0838652   0.0000000), wk =   0.2500000
        k(    7) = (   0.0379955  -0.0419301   0.0000000), wk =   0.2500000
        k(    8) = (  -0.0759910  -0.0000099   0.0000000), wk =   0.1250000
        k(    9) = (  -0.0759910   0.0419252   0.0000000), wk =   0.2500000
        k(   10) = (  -0.0759910  -0.0838800   0.0000000), wk =   0.1250000

     Initial potential from superposition of free atoms

     starting charge  386.99914, renormalised to  403.00000

     negative rho (up, down):  1.739E-02 0.000E+00

     %%%%%%%%%%%%%%%%%%%%%%%%%%%%%%%%%%%%%%%%%%%%%%%%%%%%%%%%%%%%%%%%%%%%%%%%
     %                                                                      %
     % You are using vdW-DF, which was implemented by the Thonhauser group. %
     % Please cite the following two papers that made this development      %
     % possible and the two reviews that describe the various versions:     %
     %                                                                      %
     %   T. Thonhauser et al., PRL 115, 136402 (2015).                      %
     %   T. Thonhauser et al., PRB 76, 125112 (2007).                       %
     %   K. Berland et al., Rep. Prog. Phys. 78, 066501 (2015).             %
     %   D.C. Langreth et al., J. Phys.: Condens. Matter 21, 084203 (2009). %
     %                                                                      %
     %                                                                      %
     % If you are calculating the stress with vdW-DF, please also cite:     %
     %                                                                      %
     %   R. Sabatini et al., J. Phys.: Condens. Matter 24, 424209 (2012).   %
     %                                                                      %
     %%%%%%%%%%%%%%%%%%%%%%%%%%%%%%%%%%%%%%%%%%%%%%%%%%%%%%%%%%%%%%%%%%%%%%%%

     Adding external electric field

     Computed dipole along edir(3) :
        Dipole              -12.3463 Ry au,        -31.3811 Debye
        Dipole field         -0.0233 Ry au,

        Potential amp.        2.1598 Ry
        Total length         46.3494 bohr

     Starting wfcs are  305 atomic wfcs
  @ DRIVER MODE: Message from server: STATUS
  @ DRIVER MODE: Message from server: POSDATA
  @ DRIVER MODE: Reading and sharing cell
  @ DRIVER MODE: Reading and sharing positions
  @ DRIVER MODE: Received positions

     Self-consistent Calculation

     iteration #  1     ecut=    29.40 Ry     beta= 0.05
     Davidson diagonalization with overlap
     c_bands:  5 eigenvalues not converged
     c_bands:  3 eigenvalues not converged
     c_bands:  3 eigenvalues not converged
     c_bands:  1 eigenvalues not converged
     c_bands:  2 eigenvalues not converged
     c_bands:  2 eigenvalues not converged
     c_bands:  5 eigenvalues not converged
     c_bands:  2 eigenvalues not converged
     c_bands:  4 eigenvalues not converged
     ethr =  1.00E-05,  avg # of iterations = 29.3

[...]

     total energy              =   -2358.71641644 Ry
     estimated scf accuracy    <    6971.30226410 Ry

     iteration #  2     ecut=    29.40 Ry     beta= 0.05
     Davidson diagonalization with overlap
     ethr =  1.00E-02,  avg # of iterations = 28.5

[...]

     iteration # 64     ecut=    29.40 Ry     beta= 0.05
     Davidson diagonalization with overlap
     c_bands:  1 eigenvalues not converged
     ethr =  7.85E-11,  avg # of iterations = 10.2

[...]

     total energy              =   -2973.93991423 Ry
     estimated scf accuracy    <       0.00000016 Ry

     iteration # 65     ecut=    29.40 Ry     beta= 0.05
     Davidson diagonalization with overlap
     ethr =  3.91E-11,  avg # of iterations =  6.2

     negative rho (up, down):  1.725E-02 0.000E+00

     Adding external electric field

     Computed dipole along edir(3) :
        Dipole                1.4003 Ry au,          3.5591 Debye
        Dipole field          0.0026 Ry au,

        Potential amp.       -0.2450 Ry
        Total length         46.3494 bohr

     End of self-consistent calculation

          k = 0.0000 0.0000 0.0000 ( 18029 PWs)   bands (ev):

   -55.3189 -55.2848 -55.2097 -55.1855 -55.1667 -55.1547 -55.1398 -55.1175
   -55.1059 -55.1044 -55.0971 -55.0626 -54.9892 -54.8307 -54.2993 -54.2652
   -31.8031 -31.7307 -31.6566 -31.6491 -31.6395 -31.6108 -31.5868 -31.5640
   -31.5195 -31.4979 -31.4712 -31.4632 -31.4550 -31.4404 -31.4250 -31.4209
   -31.3973 -31.3797 -31.3761 -31.3643 -31.3351 -31.3325 -31.3280 -31.3251
   -31.3225 -31.3185 -31.3142 -31.2961 -31.2887 -31.2786 -31.2718 -31.2717
   -31.2621 -31.2598 -31.2516 -31.2476 -31.2370 -31.2127 -31.2096 -31.0866
   -31.0726 -31.0462 -30.7061 -30.6181 -30.5957 -30.5231 -30.4366 -30.3254
   -18.8796 -18.5938 -15.9770 -15.7932 -15.6123 -15.4732 -15.3910 -15.1595
   -15.1006 -15.0625 -14.9814 -14.9595 -14.8582 -14.8395 -14.8379 -14.8195
   -14.8167 -14.7617 -14.7458 -14.7419 -14.6933 -14.6865 -14.6612 -14.6459
   -14.5937 -14.5144 -14.5063 -14.4597 -14.4143 -14.3680 -14.0195 -13.4293
   -12.8000 -12.6835  -8.7972  -7.2668  -6.6206  -4.3234  -3.7672  -3.3619
    -3.2858  -3.2485  -3.2236  -3.0879  -2.9713  -2.8603  -2.7611  -2.6706
    -2.5836  -2.4794  -2.4230  -2.3771  -2.3166  -2.2569  -2.2305  -2.1443
    -2.1252  -2.1056  -2.0837  -2.0575  -2.0279  -1.9910  -1.8675  -1.8562
    -1.7757  -1.7192  -1.6814  -1.6625  -1.6412  -1.6332  -1.6041  -1.5802
    -1.5718  -1.5601  -1.5590  -1.5244  -1.3839  -1.3610  -1.3315  -1.3092
    -1.1626  -1.0252  -0.9365  -0.9339  -0.8244  -0.7599  -0.7566  -0.7180
    -0.7023  -0.5991  -0.5148  -0.4781  -0.4533  -0.3744  -0.3181  -0.2620
    -0.2103  -0.1753  -0.1083  -0.0844  -0.0677  -0.0510   0.0183   0.0804
     0.1420   0.2271   0.2710   0.2949   0.3858   0.4001   0.4231   0.4884
     0.5195   0.5649   0.6002   0.6295   0.6530   0.6834   0.7087   0.7519
     0.7897   0.9158   0.9341   0.9624   0.9830   1.1582   1.2081   1.3075
     1.3404   1.4359   1.4826   1.6634   1.7247   1.8040   1.9166   2.2948
     2.3406   3.7904   3.9016   3.9357   3.9606   3.9999   4.0512   4.2580
     4.3312   4.3722   4.4307

[...]

          k = 0.0380-0.0419 0.0000 ( 17876 PWs)   bands (ev):

[...]

          k =-0.0760-0.0000 0.0000 ( 17886 PWs)   bands (ev):

[...]

          k =-0.0760-0.0839 0.0000 ( 17948 PWs)   bands (ev):

   -55.3021 -55.3015 -55.2002 -55.1821 -55.1754 -55.1431 -55.1294 -55.1229
   -55.1222 -55.1080 -55.0839 -55.0760 -54.9875 -54.8324 -54.2822 -54.2821
   -31.6186 -31.6182 -31.5964 -31.5960 -31.5649 -31.5331 -31.5019 -31.4894
   -31.4818 -31.4667 -31.4482 -31.4436 -31.4391 -31.4299 -31.4248 -31.4215
   -31.4212 -31.4210 -31.4162 -31.4004 -31.3893 -31.3753 -31.3647 -31.3621
   -31.3569 -31.3527 -31.3432 -31.3308 -31.3253 -31.3238 -31.3087 -31.2995
   -31.2960 -31.2956 -31.2938 -31.2907 -31.2618 -31.2302 -31.2173 -31.1430
   -31.0891 -31.0756 -30.6084 -30.6084 -30.5190 -30.5189 -30.4799 -30.4798
   -18.8709 -18.5981 -15.3536 -15.3197 -15.2816 -15.2541 -15.2376 -15.1174
   -15.1039 -15.0676 -15.0267 -15.0131 -14.9826 -14.9541 -14.9051 -14.8965
   -14.8626 -14.8430 -14.8034 -14.7774 -14.7580 -14.7537 -14.7371 -14.7154
   -14.6720 -14.6502 -14.6376 -14.6333 -14.5810 -14.4859 -14.2043 -13.4524
   -12.7853 -12.7853  -8.7921  -7.1924  -6.6215  -4.5341  -3.5402  -2.8690
    -2.6792  -2.6297  -2.5784  -2.4877  -2.4405  -2.3184  -2.3118  -2.2894
    -2.2437  -2.2309  -2.1899  -2.1496  -2.1437  -2.1160  -2.1035  -2.0590
    -2.0476  -2.0442  -2.0300  -1.9971  -1.9913  -1.9707  -1.9469  -1.9434
    -1.9337  -1.9167  -1.8851  -1.8775  -1.8511  -1.8309  -1.6793  -1.6066
    -1.5617  -1.4848  -1.4618  -1.4450  -1.4257  -1.3911  -1.3708  -1.3447
    -1.3171  -1.1704  -1.0315  -0.9959  -0.9713  -0.8726  -0.8573  -0.8381
    -0.7904  -0.7497  -0.7131  -0.6555  -0.6480  -0.5993  -0.5780  -0.4593
    -0.4221  -0.3231  -0.2874  -0.2856  -0.2680  -0.2532  -0.2365  -0.2105
    -0.1598  -0.0892  -0.0738  -0.0253  -0.0014   0.0014   0.0140   0.1595
     0.2310   0.2508   0.3538   0.3842   0.5592   0.7227   0.7346   0.8025
     0.8655   0.9202   0.9543   0.9941   1.0041   1.0700   1.0944   1.1977
     1.2095   1.2577   1.2610   1.3362   1.3547   2.0884   2.0901   2.1606
     2.1607   4.1542   4.1682   4.1979   4.2609   4.3044   4.3161   4.3536
     4.3573   4.4603   4.4755

     the Fermi energy is     3.8084 ev

!    total energy              =   -2973.93994971 Ry
     estimated scf accuracy    <       0.00000007 Ry
     smearing contrib. (-TS)   =      -0.02073098 Ry
     internal energy E=F+TS    =   -2973.91921873 Ry

     The total energy is F=E-TS. E is the sum of the following terms:
     one-electron contribution =  -24338.84480952 Ry
     hartree contribution      =   12267.14334100 Ry
     xc contribution           =    -494.11716658 Ry
     ewald contribution        =    9591.89571624 Ry
     electric field correction =       0.00370012 Ry

     convergence has been achieved in  65 iterations

     Forces acting on atoms (cartesian axes, Ry/au):

     atom    1 type  1   force =     0.00002802   -0.00009663    0.09507376
     atom    2 type  1   force =     0.00017512   -0.00070024   -0.17563347
     atom    3 type  2   force =     0.00008849   -0.00004886   -0.02295403
     atom    4 type  2   force =     0.00002136   -0.00143346    0.05288541
     atom    5 type  2   force =    -0.01000509   -0.00031539    0.00380967
     atom    6 type  2   force =     0.01112952    0.00020331    0.00206469
     atom    7 type  1   force =    -0.00021391    0.00178447   -0.00590150
     atom    8 type  1   force =     0.00081541    0.01008854    0.01605432
     atom    9 type  2   force =    -0.00015506    0.00086889    0.00033911
     atom   10 type  2   force =    -0.00227524    0.00217567   -0.01803374
     atom   11 type  2   force =     0.00025771   -0.00003269    0.00007238
     atom   12 type  2   force =    -0.00035926   -0.00017658    0.00054919
     atom   13 type  1   force =    -0.00002794    0.00124840    0.00024353
     atom   14 type  1   force =    -0.00011806    0.00007863   -0.00002712
     atom   15 type  2   force =    -0.00002155    0.00018154   -0.00017554
     atom   16 type  2   force =    -0.00038452    0.00044358   -0.00019315
     atom   17 type  2   force =    -0.00047902   -0.00031864   -0.00011552
     atom   18 type  2   force =    -0.00014920    0.00024227    0.00058151
     atom   19 type  1   force =    -0.00029489    0.00031888   -0.00065538
     atom   20 type  1   force =    -0.00053651    0.00002283    0.00030833
     atom   21 type  2   force =     0.00009123   -0.00008522    0.10320126
     atom   22 type  2   force =     0.00044607   -0.00001984    0.00043737
     atom   23 type  2   force =    -0.07158383   -0.00016656   -0.02757302
     atom   24 type  2   force =     0.07154291    0.00024688   -0.02762107
     atom   25 type  1   force =     0.00023038   -0.00039279    0.09518775
     atom   26 type  1   force =    -0.00004097   -0.00019950   -0.17580211
     atom   27 type  2   force =     0.00012202   -0.00012166   -0.02197853
     atom   28 type  2   force =     0.00001395   -0.00139756    0.05321573
     atom   29 type  2   force =    -0.01035163   -0.00022830    0.00365109
     atom   30 type  2   force =     0.01138907    0.00042265    0.00191855
     atom   31 type  1   force =    -0.00030005    0.00266814   -0.00009318
     atom   32 type  1   force =     0.00067875   -0.01114906    0.01693449
     atom   33 type  2   force =     0.00036665   -0.00027437    0.00001354
     atom   34 type  2   force =    -0.00033404    0.00143853   -0.01896336
     atom   35 type  2   force =     0.00000782   -0.00035354   -0.00017127
     atom   36 type  2   force =    -0.00001277   -0.00025290    0.00042219
     atom   37 type  1   force =    -0.00004427   -0.00122494    0.00042706
     atom   38 type  1   force =    -0.00040113    0.00089094    0.00004302
     atom   39 type  2   force =     0.00020090    0.00006923   -0.00008825
     atom   40 type  2   force =    -0.00048378   -0.00059083    0.00006964
     atom   41 type  2   force =    -0.00015139   -0.00005475    0.00020793
     atom   42 type  2   force =    -0.00032823   -0.00055887   -0.00001819
     atom   43 type  1   force =    -0.00008182   -0.00019152    0.00033445
     atom   44 type  1   force =    -0.00022964   -0.00037285    0.00051766
     atom   45 type  2   force =     0.00010127   -0.00010214    0.10321666
     atom   46 type  2   force =    -0.07157079   -0.00017012   -0.02756344
     atom   47 type  2   force =     0.07157033    0.00024425   -0.02757628
     atom   48 type  3   force =    -0.00577769   -0.00011326   -0.00250961
     atom   49 type  3   force =     0.01971819    0.00113812   -0.00422073
     atom   50 type  4   force =    -0.00166683   -0.00027713   -0.00036751
     atom   51 type  5   force =    -0.00024093   -0.00050397   -0.00015208
     atom   52 type  5   force =    -0.00008616   -0.00101151   -0.00096587
     atom   53 type  5   force =    -0.01033410   -0.00189749    0.00726666
     atom   54 type  2   force =    -0.00010008    0.00098335   -0.00002053
     atom   55 type  5   force =     0.00021613   -0.00020298   -0.00004624
     atom   56 type  5   force =    -0.00007095   -0.00072296    0.00037378

     Total force =     0.366021     Total SCF correction =     0.000578
  @ DRIVER MODE: Message from server: STATUS
  @ DRIVER MODE: Message from server: GETFORCE
  @ DRIVER MODE: Returning v,forces,stress,ensemble

     Writing output data file ./calc.save/
  @ DRIVER MODE: Message from server: EXIT
  @ DRIVE MODE: Exiting

     General routines

     Parallel routines

   This run was terminated on:  18:27:58  22Sep2021

   JOB DONE.