     Program PWSCF v.6.7GPU starts on 23Sep2021 at 15: 6:16

     R & G space division:  proc/nbgrp/npool/nimage =       8
     Reading input from /storage/home/hcoda1/3/ntian30/research/carbon/CxH_vib/H2O_calc/ads_slab/CH3NHHHO_a/out_0011/pw.inp
Warning: card &CELL ignored
Warning: card   CELL_DYNAMICS='IPI', ignored
Warning: card / ignored

     Current dimensions of program PWSCF are:
     Max number of different atomic species (ntypx) = 10
     Max number of k-points (npk) =  40000
     Max angular momentum in pseudopotentials (lmaxx) =  3
     Presently no symmetry can be used with electric field

     Message from routine cell_base_init:
     DEPRECATED: use true lattice parameter, not A to a.u. conversion factor

     IMPORTANT: XC functional enforced from input :
     Exchange-correlation= BEEF-VDW
                           (   1   4  43  14   2   0   0)
     Any further DFT definition will be discarded
     Please, verify this is what you really want

  @ DRIVER MODE: Connecting to
 qe_1139763_2947311.sched-torque.pace.gatech.edu72qdl305_scratch
  using UNIX socket
  @ DRIVER MODE: Message from server: STATUS
  @ DRIVER MODE: Message from server: INIT
  @ DRIVER MODE: Receiving replica           0          -1
  @ DRIVER MODE: Receiving encoded integer          25
  @ DRIVER MODE:  SCF:  T  FORCE:  T  STRESS:  F  VC:  F  ENSEMBLE:  F
  @ DRIVER MODE:  SCF:  T  FORCE:  T  STRESS:  F  VC:  F  ENSEMBLE:  F

     Using Slab Decomposition

     bravais-lattice index     =            0
     lattice parameter (alat)  =       1.8897  a.u.
     unit-cell volume          =    6658.9804 (a.u.)^3
     number of atoms/cell      =           56
     number of atomic types    =            5
     number of electrons       =       399.00
     number of Kohn-Sham states=          209
     kinetic-energy cutoff     =      29.3995  Ry
     charge density cutoff     =     293.9946  Ry
     scf convergence threshold =      7.3E-08
     mixing beta               =       0.0500
     number of iterations used =            8  plain     mixing
     Exchange-correlation= BEEF-VDW
                           (   1   4  43  14   2   0   0)

     celldm(1)=   1.889726  celldm(2)=   0.000000  celldm(3)=   0.000000
     celldm(4)=   0.000000  celldm(5)=   0.000000  celldm(6)=   0.000000

     crystal axes: (cart. coord. in units of alat)
               a(1) = (   6.579727   0.000000   0.000000 )
               a(2) = (  -0.000775   5.961596   0.000000 )
               a(3) = (   0.000000   0.000000  25.155947 )

     reciprocal axes: (cart. coord. in units 2 pi/alat)
               b(1) = (  0.151982  0.000020  0.000000 )
               b(2) = (  0.000000  0.167740  0.000000 )
               b(3) = (  0.000000  0.000000  0.039752 )

     PseudoPot. # 1 for Ti read from file:
     /storage/coda1/p-amedford6/0/shared/rich_project_chbe-medford/medford-share/data/pseudos_module/espresso/nninc/pbe/van/Ti.UPF
     MD5 check sum: 8e4df49b7f0d34bbd5052bf3f5ea0213
     Pseudo is Ultrasoft, Zval = 12.0
     Generated by new atomic code, or converted to UPF format
     Using radial grid of  851 points,  6 beta functions with:
                l(1) =   0
                l(2) =   0
                l(3) =   1
                l(4) =   1
                l(5) =   2
                l(6) =   2
     Q(r) pseudized with  8 coefficients,  rinner =    1.000   1.000   1.000
                                                       1.000   1.000

     PseudoPot. # 2 for O  read from file:
     /storage/coda1/p-amedford6/0/shared/rich_project_chbe-medford/medford-share/data/pseudos_module/espresso/nninc/pbe/van/O.UPF
     MD5 check sum: 78c19812648e8988a0fe644b0f25305e
     Pseudo is Ultrasoft, Zval =  6.0
     Generated by new atomic code, or converted to UPF format
     Using radial grid of  737 points,  4 beta functions with:
                l(1) =   0
                l(2) =   0
                l(3) =   1
                l(4) =   1
     Q(r) pseudized with  8 coefficients,  rinner =    0.800   0.800   0.800

     PseudoPot. # 3 for N  read from file:
     /storage/coda1/p-amedford6/0/shared/rich_project_chbe-medford/medford-share/data/pseudos_module/espresso/nninc/pbe/van/N.UPF
     MD5 check sum: 90d10febe142ad51ac9d5be1deb811c4
     Pseudo is Ultrasoft, Zval =  5.0
     Generated by new atomic code, or converted to UPF format
     Using radial grid of  729 points,  4 beta functions with:
                l(1) =   0
                l(2) =   0
                l(3) =   1
                l(4) =   1
     Q(r) pseudized with  8 coefficients,  rinner =    0.800   0.800   0.800

     PseudoPot. # 4 for C  read from file:
     /storage/coda1/p-amedford6/0/shared/rich_project_chbe-medford/medford-share/data/pseudos_module/espresso/nninc/pbe/van/C.UPF
     MD5 check sum: 1a69bf6b8db32088f5b2163dbdb77a27
     Pseudo is Ultrasoft, Zval =  4.0
     Generated by new atomic code, or converted to UPF format
     Using radial grid of  721 points,  4 beta functions with:
                l(1) =   0
                l(2) =   0
                l(3) =   1
                l(4) =   1
     Q(r) pseudized with  8 coefficients,  rinner =    0.800   0.800   0.800

     PseudoPot. # 5 for H  read from file:
     /storage/coda1/p-amedford6/0/shared/rich_project_chbe-medford/medford-share/data/pseudos_module/espresso/nninc/pbe/van/H.UPF
     MD5 check sum: b5ee9d7bfd3a09ee7748110bda690ff7
     Pseudo is Ultrasoft, Zval =  1.0
     Generated by new atomic code, or converted to UPF format
     Using radial grid of  615 points,  1 beta functions with:
                l(1) =   0
     Q(r) pseudized with  8 coefficients,  rinner =    0.800

     atomic species   valence    mass     pseudopotential
        Ti1           12.00    47.86700     Ti( 1.00)
        O1             6.00    15.99900     O ( 1.00)
        N1             5.00    14.00700     N ( 1.00)
        C1             4.00    12.01100     C ( 1.00)
        H1             1.00     1.00800     H ( 1.00)

     No symmetry found

   Cartesian axes

     site n.     atom                  positions (alat units)
         1           Ti1 tau(   1) = (   0.0004258   2.9801865   6.0000000  )
         2           Ti1 tau(   2) = (   3.2906075   1.4906267   6.0002472  )
         3           O1  tau(   3) = (   0.0006271   0.0005054   7.9858123  )
         4           O1  tau(   4) = (   3.2906025   0.0005020   7.3038282  )
         5           O1  tau(   5) = (   4.5942328   1.4918067   9.2879030  )
         6           O1  tau(   6) = (   1.9868534   1.4903216   9.2879459  )
         7           Ti1 tau(   7) = (   3.2907910   2.8959150   9.1758416  )
         8           Ti1 tau(   8) = (   0.0015273   1.4827037   9.2680791  )
         9           O1  tau(   9) = (   3.2949530   5.9481847  11.3666340  )
        10           O1  tau(  10) = (   0.0116148   5.9584955  10.6183126  )
        11           O1  tau(  11) = (   1.2732546   1.4916747  12.6876809  )
        12           O1  tau(  12) = (   5.3119445   1.4892451  12.6851550  )
        13           Ti1 tau(  13) = (   6.5688325   2.9465269  12.5174317  )
        14           Ti1 tau(  14) = (   3.2996026   1.2975375  12.7241829  )
        15           O1  tau(  15) = (   0.0172205   5.8793003  14.6619373  )
        16           O1  tau(  16) = (   3.2917661   0.0702926  14.0149596  )
        17           O1  tau(  17) = (   4.5643074   1.5920826  16.1346482  )
        18           O1  tau(  18) = (   2.0131957   1.5841813  16.0575481  )
        19           Ti1 tau(  19) = (   3.2662748   3.0407108  15.6947786  )
        20           Ti1 tau(  20) = (   0.0618610   1.3206105  15.7998127  )
        21           O1  tau(  21) = (   3.2904802   0.0005063   4.7018136  )
        22           O1  tau(  22) = (   0.0233933   0.1570098  17.1842078  )
        23           O1  tau(  23) = (   1.3043587   1.4918075   6.0039043  )
        24           O1  tau(  24) = (   5.2767064   1.4903225   6.0039473  )
        25           Ti1 tau(  25) = (   0.0000382   5.9609847   6.0000000  )
        26           Ti1 tau(  26) = (   3.2902200   4.4714249   6.0002472  )
        27           O1  tau(  27) = (   0.0002396   2.9813036   7.9858123  )
        28           O1  tau(  28) = (   3.2902150   2.9813002   7.3038282  )
        29           O1  tau(  29) = (   4.5938453   4.4726049   9.2879030  )
        30           O1  tau(  30) = (   1.9864658   4.4711199   9.2879459  )
        31           Ti1 tau(  31) = (   3.2891106   5.8743827   9.1763621  )
        32           Ti1 tau(  32) = (   0.0006254   4.4649316   9.2693709  )
        33           O1  tau(  33) = (   3.2948289   2.9949798  11.3176834  )
        34           O1  tau(  34) = (   0.0092240   2.9805883  10.6323155  )
        35           O1  tau(  35) = (   1.2828652   4.4571597  12.6432593  )
        36           O1  tau(  36) = (   5.3079144   4.4605214  12.6419564  )
        37           Ti1 tau(  37) = (   0.0266940   5.9154698  12.5044250  )
        38           Ti1 tau(  38) = (   3.3008436   4.3760658  12.4353554  )
        39           O1  tau(  39) = (   6.5507285   3.0461080  14.9005035  )
        40           O1  tau(  40) = (   3.2938476   3.0131494  13.9233183  )
        41           O1  tau(  41) = (   4.5350990   4.4864192  16.1518712  )
        42           O1  tau(  42) = (   1.9883536   4.4285065  16.1690201  )
        43           Ti1 tau(  43) = (   3.3916644   0.0784854  16.2809578  )
        44           Ti1 tau(  44) = (   0.0590441   4.5159846  16.0209683  )
        45           O1  tau(  45) = (   3.2900926   2.9813045   4.7018136  )
        46           O1  tau(  46) = (   1.3039711   4.4726057   6.0039043  )
        47           O1  tau(  47) = (   5.2763189   4.4711207   6.0039473  )
        48           N1  tau(  48) = (   6.2706434   3.3837210  18.0754458  )
        49           C1  tau(  49) = (   0.7642246   3.1223808  19.0522891  )
        50           H1  tau(  50) = (   1.3158356   4.0410886  19.2409436  )
        51           H1  tau(  51) = (   0.3597117   2.7583523  20.0089400  )
        52           H1  tau(  52) = (   1.4517744   2.3810259  18.6668870  )
        53           H1  tau(  53) = (   5.6745199   4.1349376  18.4206214  )
        54           H1  tau(  54) = (   5.6587021   2.5696541  18.0151127  )
        55           O1  tau(  55) = (   3.1972372   0.0910451  18.1323504  )
        56           H1  tau(  56) = (   2.2767176   0.1080423  18.4377142  )

     number of k points=    10  Fermi-Dirac smearing, width (Ry)=  0.0073
                       cart. coord. in units 2pi/alat
        k(    1) = (   0.0000000   0.0000000   0.0000000), wk =   0.1250000
        k(    2) = (   0.0000000   0.0419351   0.0000000), wk =   0.2500000
        k(    3) = (   0.0000000  -0.0838702   0.0000000), wk =   0.1250000
        k(    4) = (   0.0379955   0.0000049   0.0000000), wk =   0.2500000
        k(    5) = (   0.0379955   0.0419400   0.0000000), wk =   0.2500000
        k(    6) = (   0.0379955  -0.0838652   0.0000000), wk =   0.2500000
        k(    7) = (   0.0379955  -0.0419301   0.0000000), wk =   0.2500000
        k(    8) = (  -0.0759910  -0.0000099   0.0000000), wk =   0.1250000
        k(    9) = (  -0.0759910   0.0419252   0.0000000), wk =   0.2500000
        k(   10) = (  -0.0759910  -0.0838800   0.0000000), wk =   0.1250000

     Initial potential from superposition of free atoms

     starting charge  382.99914, renormalised to  399.00000

     negative rho (up, down):  1.588E-02 0.000E+00

     %%%%%%%%%%%%%%%%%%%%%%%%%%%%%%%%%%%%%%%%%%%%%%%%%%%%%%%%%%%%%%%%%%%%%%%%
     %                                                                      %
     % You are using vdW-DF, which was implemented by the Thonhauser group. %
     % Please cite the following two papers that made this development      %
     % possible and the two reviews that describe the various versions:     %
     %                                                                      %
     %   T. Thonhauser et al., PRL 115, 136402 (2015).                      %
     %   T. Thonhauser et al., PRB 76, 125112 (2007).                       %
     %   K. Berland et al., Rep. Prog. Phys. 78, 066501 (2015).             %
     %   D.C. Langreth et al., J. Phys.: Condens. Matter 21, 084203 (2009). %
     %                                                                      %
     %                                                                      %
     % If you are calculating the stress with vdW-DF, please also cite:     %
     %                                                                      %
     %   R. Sabatini et al., J. Phys.: Condens. Matter 24, 424209 (2012).   %
     %                                                                      %
     %%%%%%%%%%%%%%%%%%%%%%%%%%%%%%%%%%%%%%%%%%%%%%%%%%%%%%%%%%%%%%%%%%%%%%%%

     Adding external electric field

     Computed dipole along edir(3) :
        Dipole              -10.6930 Ry au,        -27.1790 Debye
        Dipole field         -0.0202 Ry au,

        Potential amp.        1.8706 Ry
        Total length         46.3494 bohr

     Starting wfcs are  302 atomic wfcs
  @ DRIVER MODE: Message from server: STATUS
  @ DRIVER MODE: Message from server: POSDATA
  @ DRIVER MODE: Reading and sharing cell
  @ DRIVER MODE: Reading and sharing positions
  @ DRIVER MODE: Received positions

     Self-consistent Calculation

     iteration #  1     ecut=    29.40 Ry     beta= 0.05
     Davidson diagonalization with overlap
     c_bands:  3 eigenvalues not converged
     c_bands:  2 eigenvalues not converged
     c_bands:  2 eigenvalues not converged
     c_bands:  5 eigenvalues not converged
     c_bands:  2 eigenvalues not converged
     c_bands:  5 eigenvalues not converged
     c_bands:  4 eigenvalues not converged
     c_bands:  3 eigenvalues not converged
     ethr =  1.00E-05,  avg # of iterations = 21.6

[...]

     total energy              =   -2438.25714032 Ry
     estimated scf accuracy    <    5770.31291994 Ry

     iteration #  2     ecut=    29.40 Ry     beta= 0.05
     Davidson diagonalization with overlap
     ethr =  1.00E-02,  avg # of iterations = 23.2

[...]

     iteration # 62     ecut=    29.40 Ry     beta= 0.05
     Davidson diagonalization with overlap
     c_bands:  1 eigenvalues not converged
     ethr =  1.35E-08,  avg # of iterations = 10.2

[...]

     total energy              =   -2955.26274880 Ry
     estimated scf accuracy    <       0.00000011 Ry

     iteration # 77     ecut=    29.40 Ry     beta= 0.05
     Davidson diagonalization with overlap
     ethr =  2.86E-11,  avg # of iterations =  7.6

     negative rho (up, down):  1.646E-02 0.000E+00

     Adding external electric field

     Computed dipole along edir(3) :
        Dipole                0.9709 Ry au,          2.4678 Debye
        Dipole field          0.0018 Ry au,

        Potential amp.       -0.1698 Ry
        Total length         46.3494 bohr

     End of self-consistent calculation

          k = 0.0000 0.0000 0.0000 ( 18029 PWs)   bands (ev):

   -55.6855 -55.6391 -55.6050 -55.5144 -55.5045 -55.4692 -55.4683 -55.4663
   -55.4343 -55.4207 -55.3700 -55.2752 -55.2293 -55.2149 -54.6149 -54.5809
   -32.1244 -32.0224 -32.0143 -31.9907 -31.9712 -31.9589 -31.9299 -31.9039
   -31.8968 -31.8855 -31.8850 -31.7924 -31.7918 -31.7769 -31.7516 -31.7477
   -31.7463 -31.7452 -31.7444 -31.7082 -31.6967 -31.6673 -31.6646 -31.6584
   -31.6528 -31.6465 -31.6387 -31.6083 -31.6064 -31.6007 -31.5954 -31.5920
   -31.5812 -31.5660 -31.5515 -31.5262 -31.4667 -31.4578 -31.4483 -31.4250
   -31.4215 -31.4168 -31.0210 -30.9346 -30.9121 -30.8385 -30.7521 -30.6403
   -16.5137 -16.2993 -16.1559 -15.9934 -15.8474 -15.8181 -15.7799 -15.6015
   -15.5088 -15.4451 -15.2449 -15.2240 -15.1778 -15.1667 -15.1612 -15.1383
   -15.1288 -15.0838 -15.0653 -15.0618 -15.0520 -15.0343 -14.9979 -14.9557
   -14.9127 -14.8914 -14.7789 -14.7226 -14.6820 -14.4709 -14.4029 -13.1135
   -12.9970  -9.9764  -6.0401  -4.6007  -4.0667  -3.7738  -3.6472  -3.5493
    -3.5380  -3.4193  -3.4090  -3.1683  -3.0448  -2.9854  -2.9073  -2.7852
    -2.7526  -2.6800  -2.6396  -2.5892  -2.5713  -2.5341  -2.4942  -2.4510
    -2.4256  -2.3981  -2.3632  -2.3086  -2.2964  -2.1988  -2.1843  -2.1613
    -2.0560  -2.0151  -1.9749  -1.9569  -1.9517  -1.9327  -1.8940  -1.8877
    -1.8679  -1.7898  -1.7209  -1.6741  -1.6397  -1.6120  -1.3341  -1.2486
    -1.2054  -1.1908  -1.0868  -1.0631  -1.0347  -1.0208  -0.9826  -0.9683
    -0.8551  -0.8356  -0.7695  -0.7203  -0.7033  -0.6692  -0.5477  -0.5106
    -0.4623  -0.4222  -0.3727  -0.3548  -0.3493  -0.2557  -0.2288  -0.1936
    -0.0858  -0.0685  -0.0065   0.0788   0.0886   0.1400   0.1633   0.2237
     0.2291   0.2827   0.3124   0.3347   0.3879   0.4203   0.4569   0.4897
     0.5069   0.6092   0.6843   0.6971   0.7943   0.8687   0.9222   1.0264
     1.0940   1.3581   1.4116   1.4352   1.6036   1.9789   2.0243   3.4425
     3.5915   3.6071   3.6816   3.6942   3.7713   3.9320   3.9570   4.0921
     4.1319

[...]

          k = 0.0380-0.0419 0.0000 ( 17876 PWs)   bands (ev):

[...]

          k =-0.0760-0.0000 0.0000 ( 17886 PWs)   bands (ev):

[...]

          k =-0.0760-0.0839 0.0000 ( 17948 PWs)   bands (ev):

   -55.6846 -55.6222 -55.6217 -55.5132 -55.4933 -55.4775 -55.4700 -55.4519
   -55.4502 -55.4143 -55.3765 -55.2705 -55.2304 -55.2195 -54.5984 -54.5973
   -31.9554 -31.9475 -31.9399 -31.9395 -31.9325 -31.9156 -31.9151 -31.8992
   -31.8549 -31.8135 -31.7955 -31.7827 -31.7787 -31.7771 -31.7553 -31.7455
   -31.7422 -31.7416 -31.7312 -31.7274 -31.7197 -31.7189 -31.7042 -31.6803
   -31.6742 -31.6699 -31.6603 -31.6499 -31.6349 -31.6336 -31.6315 -31.6262
   -31.6246 -31.5992 -31.5985 -31.5576 -31.5331 -31.4980 -31.4710 -31.4659
   -31.4507 -31.4208 -30.9252 -30.9244 -30.8345 -30.8332 -30.7957 -30.7949
   -16.4833 -15.9704 -15.8652 -15.7475 -15.6242 -15.6109 -15.4997 -15.4172
   -15.4133 -15.3828 -15.3521 -15.3243 -15.3152 -15.2982 -15.2510 -15.2072
   -15.1721 -15.1443 -15.1423 -15.0965 -15.0894 -15.0780 -15.0654 -15.0431
   -15.0093 -14.9593 -14.9449 -14.9066 -14.7686 -14.6927 -14.5931 -13.0991
   -13.0986  -9.9785  -6.0200  -4.5973  -4.0285  -3.7364  -3.0585  -2.9625
    -2.8507  -2.7255  -2.7156  -2.7034  -2.6450  -2.6140  -2.5882  -2.5468
    -2.4894  -2.4704  -2.4493  -2.4325  -2.4110  -2.3933  -2.3842  -2.3790
    -2.3424  -2.3248  -2.3165  -2.2754  -2.2677  -2.2506  -2.2297  -2.2138
    -2.1832  -2.1787  -2.1494  -2.0976  -2.0488  -1.9748  -1.8818  -1.8004
    -1.7894  -1.7708  -1.7212  -1.7147  -1.6693  -1.6604  -1.6366  -1.5478
    -1.4390  -1.3883  -1.2778  -1.2570  -1.2312  -1.1897  -1.1387  -1.1243
    -1.0791  -1.0488  -0.9888  -0.8879  -0.8577  -0.8024  -0.6890  -0.6488
    -0.6130  -0.5929  -0.5807  -0.5546  -0.5392  -0.4995  -0.4714  -0.4163
    -0.3838  -0.3496  -0.3226  -0.2971  -0.2453  -0.1489  -0.0544  -0.0166
     0.0843   0.1307   0.1728   0.2047   0.2670   0.4015   0.4280   0.5241
     0.5387   0.5678   0.6694   0.6796   0.7805   0.8047   0.8429   0.8839
     0.9087   0.9297   0.9495   1.7732   1.7818   1.8447   1.8448   3.7354
     3.9278   3.9429   3.9592   4.0041   4.0115   4.0385   4.0441   4.1110
     4.1327

     the Fermi energy is     3.4814 ev

!    total energy              =   -2955.26276522 Ry
     estimated scf accuracy    <       0.00000007 Ry
     smearing contrib. (-TS)   =      -0.01953023 Ry
     internal energy E=F+TS    =   -2955.24323499 Ry

     The total energy is F=E-TS. E is the sum of the following terms:
     one-electron contribution =  -23743.42253409 Ry
     hartree contribution      =   11963.80243568 Ry
     xc contribution           =    -489.73833527 Ry
     ewald contribution        =    9314.11341976 Ry
     electric field correction =       0.00177893 Ry

     convergence has been achieved in  77 iterations

     Forces acting on atoms (cartesian axes, Ry/au):

     atom    1 type  1   force =     0.00009384   -0.00029839    0.09414139
     atom    2 type  1   force =    -0.00003699    0.00042936   -0.17540313
     atom    3 type  2   force =     0.00004039   -0.00033275   -0.02109798
     atom    4 type  2   force =     0.00002334   -0.00197783    0.05463795
     atom    5 type  2   force =    -0.00672788   -0.00245340    0.00301210
     atom    6 type  2   force =     0.00833258   -0.00187659    0.00243294
     atom    7 type  1   force =    -0.00017741   -0.00404844    0.00895813
     atom    8 type  1   force =     0.00031189    0.00081689    0.00311883
     atom    9 type  2   force =    -0.00058146    0.00059141   -0.00018272
     atom   10 type  2   force =    -0.00139140    0.00173544   -0.00927597
     atom   11 type  2   force =     0.00004893   -0.00015284    0.00037465
     atom   12 type  2   force =    -0.00006465   -0.00010795   -0.00030623
     atom   13 type  1   force =    -0.00048853   -0.00025946    0.00004405
     atom   14 type  1   force =     0.00000628   -0.00033543   -0.00006044
     atom   15 type  2   force =    -0.00031884    0.00000820   -0.00016390
     atom   16 type  2   force =     0.00032110   -0.00054438   -0.00040083
     atom   17 type  2   force =     0.00047244   -0.00013785   -0.00075398
     atom   18 type  2   force =    -0.00049968    0.00014613   -0.00014669
     atom   19 type  1   force =     0.00048670   -0.00061145    0.00068486
     atom   20 type  1   force =     0.00049186    0.00022179    0.00030977
     atom   21 type  2   force =     0.00007662    0.00004606    0.10323664
     atom   22 type  2   force =    -0.00049045    0.00036647    0.00022997
     atom   23 type  2   force =    -0.07191247   -0.00018851   -0.02720229
     atom   24 type  2   force =     0.07184090    0.00025102   -0.02724506
     atom   25 type  1   force =     0.00002885   -0.00023545    0.09379808
     atom   26 type  1   force =    -0.00006057   -0.00132933   -0.17559521
     atom   27 type  2   force =     0.00015661   -0.00011434   -0.01986060
     atom   28 type  2   force =     0.00006991   -0.00032242    0.04991026
     atom   29 type  2   force =    -0.00611579    0.00231938    0.00251674
     atom   30 type  2   force =     0.00760915    0.00268335    0.00196668
     atom   31 type  1   force =     0.00002607    0.00840655   -0.00277314
     atom   32 type  1   force =     0.00012146   -0.00235688    0.00259678
     atom   33 type  2   force =     0.00005131   -0.00002034   -0.00006110
     atom   34 type  2   force =    -0.00211513   -0.00248841   -0.01004945
     atom   35 type  2   force =    -0.00013836   -0.00002532    0.00053263
     atom   36 type  2   force =    -0.00007867    0.00006593   -0.00007658
     atom   37 type  1   force =     0.00016686   -0.00008512   -0.00023768
     atom   38 type  1   force =     0.00005428   -0.00016956    0.00024287
     atom   39 type  2   force =    -0.00012612    0.00009130   -0.00029056
     atom   40 type  2   force =     0.00017214   -0.00025586   -0.00010025
     atom   41 type  2   force =    -0.00037641   -0.00072673    0.00065470
     atom   42 type  2   force =     0.00045051    0.00003678   -0.00017640
     atom   43 type  1   force =    -0.00080688   -0.00062088    0.00034300
     atom   44 type  1   force =     0.00029922    0.00049029   -0.00043426
     atom   45 type  2   force =     0.00006864   -0.00007020    0.10303398
     atom   46 type  2   force =    -0.07193265   -0.00004364   -0.02723424
     atom   47 type  2   force =     0.07189534    0.00039518   -0.02728328
     atom   48 type  3   force =    -0.00301750    0.00071889   -0.00445104
     atom   49 type  4   force =    -0.00141835    0.00142459    0.01923489
     atom   50 type  5   force =    -0.00023629   -0.00051708   -0.00219123
     atom   51 type  5   force =     0.00317780    0.00318695   -0.00815205
     atom   52 type  5   force =     0.00262974   -0.00279700   -0.00401665
     atom   53 type  5   force =     0.00001048    0.00054030   -0.00050553
     atom   54 type  5   force =     0.00027607    0.00007181   -0.00025957
     atom   55 type  2   force =    -0.00044579    0.00041802    0.00038741
     atom   56 type  5   force =    -0.00025301    0.00004171   -0.00041122

     Total force =     0.362898     Total SCF correction =     0.000864
  @ DRIVER MODE: Message from server: STATUS
  @ DRIVER MODE: Message from server: GETFORCE
  @ DRIVER MODE: Returning v,forces,stress,ensemble

     Writing output data file ./calc.save/
  @ DRIVER MODE: Message from server: EXIT
  @ DRIVE MODE: Exiting

     General routines

     Parallel routines

   This run was terminated on:  15:32: 6  23Sep2021

   JOB DONE.