     Program PWSCF v.6.7GPU starts on 23Sep2021 at 11:53:40

     R & G space division:  proc/nbgrp/npool/nimage =       8
     Reading input from /storage/home/hcoda1/3/ntian30/research/carbon/CxH_vib/H2O_calc/ads_slab/CH3NHHHO_a/out_0003/pw.inp
Warning: card &CELL ignored
Warning: card   CELL_DYNAMICS='IPI', ignored
Warning: card / ignored

     Current dimensions of program PWSCF are:
     Max number of different atomic species (ntypx) = 10
     Max number of k-points (npk) =  40000
     Max angular momentum in pseudopotentials (lmaxx) =  3
     Presently no symmetry can be used with electric field

     Message from routine cell_base_init:
     DEPRECATED: use true lattice parameter, not A to a.u. conversion factor

     IMPORTANT: XC functional enforced from input :
     Exchange-correlation= BEEF-VDW
                           (   1   4  43  14   2   0   0)
     Any further DFT definition will be discarded
     Please, verify this is what you really want

  @ DRIVER MODE: Connecting to
 qe_1139763_2947311.sched-torque.pace.gatech.edu1afllfbe_scratch
  using UNIX socket
  @ DRIVER MODE: Message from server: STATUS
  @ DRIVER MODE: Message from server: INIT
  @ DRIVER MODE: Receiving replica           0          -1
  @ DRIVER MODE: Receiving encoded integer          25
  @ DRIVER MODE:  SCF:  T  FORCE:  T  STRESS:  F  VC:  F  ENSEMBLE:  F
  @ DRIVER MODE:  SCF:  T  FORCE:  T  STRESS:  F  VC:  F  ENSEMBLE:  F

     Using Slab Decomposition

     bravais-lattice index     =            0
     lattice parameter (alat)  =       1.8897  a.u.
     unit-cell volume          =    6658.9804 (a.u.)^3
     number of atoms/cell      =           56
     number of atomic types    =            5
     number of electrons       =       399.00
     number of Kohn-Sham states=          209
     kinetic-energy cutoff     =      29.3995  Ry
     charge density cutoff     =     293.9946  Ry
     scf convergence threshold =      7.3E-08
     mixing beta               =       0.0500
     number of iterations used =            8  plain     mixing
     Exchange-correlation= BEEF-VDW
                           (   1   4  43  14   2   0   0)

     celldm(1)=   1.889726  celldm(2)=   0.000000  celldm(3)=   0.000000
     celldm(4)=   0.000000  celldm(5)=   0.000000  celldm(6)=   0.000000

     crystal axes: (cart. coord. in units of alat)
               a(1) = (   6.579727   0.000000   0.000000 )
               a(2) = (  -0.000775   5.961596   0.000000 )
               a(3) = (   0.000000   0.000000  25.155947 )

     reciprocal axes: (cart. coord. in units 2 pi/alat)
               b(1) = (  0.151982  0.000020  0.000000 )
               b(2) = (  0.000000  0.167740  0.000000 )
               b(3) = (  0.000000  0.000000  0.039752 )

     PseudoPot. # 1 for Ti read from file:
     /storage/coda1/p-amedford6/0/shared/rich_project_chbe-medford/medford-share/data/pseudos_module/espresso/nninc/pbe/van/Ti.UPF
     MD5 check sum: 8e4df49b7f0d34bbd5052bf3f5ea0213
     Pseudo is Ultrasoft, Zval = 12.0
     Generated by new atomic code, or converted to UPF format
     Using radial grid of  851 points,  6 beta functions with:
                l(1) =   0
                l(2) =   0
                l(3) =   1
                l(4) =   1
                l(5) =   2
                l(6) =   2
     Q(r) pseudized with  8 coefficients,  rinner =    1.000   1.000   1.000
                                                       1.000   1.000

     PseudoPot. # 2 for O  read from file:
     /storage/coda1/p-amedford6/0/shared/rich_project_chbe-medford/medford-share/data/pseudos_module/espresso/nninc/pbe/van/O.UPF
     MD5 check sum: 78c19812648e8988a0fe644b0f25305e
     Pseudo is Ultrasoft, Zval =  6.0
     Generated by new atomic code, or converted to UPF format
     Using radial grid of  737 points,  4 beta functions with:
                l(1) =   0
                l(2) =   0
                l(3) =   1
                l(4) =   1
     Q(r) pseudized with  8 coefficients,  rinner =    0.800   0.800   0.800

     PseudoPot. # 3 for N  read from file:
     /storage/coda1/p-amedford6/0/shared/rich_project_chbe-medford/medford-share/data/pseudos_module/espresso/nninc/pbe/van/N.UPF
     MD5 check sum: 90d10febe142ad51ac9d5be1deb811c4
     Pseudo is Ultrasoft, Zval =  5.0
     Generated by new atomic code, or converted to UPF format
     Using radial grid of  729 points,  4 beta functions with:
                l(1) =   0
                l(2) =   0
                l(3) =   1
                l(4) =   1
     Q(r) pseudized with  8 coefficients,  rinner =    0.800   0.800   0.800

     PseudoPot. # 4 for C  read from file:
     /storage/coda1/p-amedford6/0/shared/rich_project_chbe-medford/medford-share/data/pseudos_module/espresso/nninc/pbe/van/C.UPF
     MD5 check sum: 1a69bf6b8db32088f5b2163dbdb77a27
     Pseudo is Ultrasoft, Zval =  4.0
     Generated by new atomic code, or converted to UPF format
     Using radial grid of  721 points,  4 beta functions with:
                l(1) =   0
                l(2) =   0
                l(3) =   1
                l(4) =   1
     Q(r) pseudized with  8 coefficients,  rinner =    0.800   0.800   0.800

     PseudoPot. # 5 for H  read from file:
     /storage/coda1/p-amedford6/0/shared/rich_project_chbe-medford/medford-share/data/pseudos_module/espresso/nninc/pbe/van/H.UPF
     MD5 check sum: b5ee9d7bfd3a09ee7748110bda690ff7
     Pseudo is Ultrasoft, Zval =  1.0
     Generated by new atomic code, or converted to UPF format
     Using radial grid of  615 points,  1 beta functions with:
                l(1) =   0
     Q(r) pseudized with  8 coefficients,  rinner =    0.800

     atomic species   valence    mass     pseudopotential
        Ti1           12.00    47.86700     Ti( 1.00)
        O1             6.00    15.99900     O ( 1.00)
        N1             5.00    14.00700     N ( 1.00)
        C1             4.00    12.01100     C ( 1.00)
        H1             1.00     1.00800     H ( 1.00)

     No symmetry found

   Cartesian axes

     site n.     atom                  positions (alat units)
         1           Ti1 tau(   1) = (   0.0004258   2.9801865   6.0000000  )
         2           Ti1 tau(   2) = (   3.2906075   1.4906267   6.0002472  )
         3           O1  tau(   3) = (   0.0006271   0.0005054   7.9858123  )
         4           O1  tau(   4) = (   3.2906025   0.0005020   7.3038282  )
         5           O1  tau(   5) = (   4.5942328   1.4918067   9.2879030  )
         6           O1  tau(   6) = (   1.9868534   1.4903216   9.2879459  )
         7           Ti1 tau(   7) = (   3.2907910   2.8959150   9.1758416  )
         8           Ti1 tau(   8) = (   0.0015273   1.4827037   9.2680791  )
         9           O1  tau(   9) = (   3.2949530   5.9481847  11.3666340  )
        10           O1  tau(  10) = (   0.0116148   5.9584955  10.6183126  )
        11           O1  tau(  11) = (   1.2732546   1.4916747  12.6876809  )
        12           O1  tau(  12) = (   5.3119445   1.4892451  12.6851550  )
        13           Ti1 tau(  13) = (   6.5688325   2.9465269  12.5174317  )
        14           Ti1 tau(  14) = (   3.2996026   1.2975375  12.7241829  )
        15           O1  tau(  15) = (   0.0172205   5.8793003  14.6619373  )
        16           O1  tau(  16) = (   3.2917661   0.0702926  14.0149596  )
        17           O1  tau(  17) = (   4.5643074   1.5920826  16.1346482  )
        18           O1  tau(  18) = (   2.0131957   1.5841813  16.0575481  )
        19           Ti1 tau(  19) = (   3.2662748   3.0407108  15.6947786  )
        20           Ti1 tau(  20) = (   0.0618610   1.3206105  15.7998127  )
        21           O1  tau(  21) = (   3.2904802   0.0005063   4.7018136  )
        22           O1  tau(  22) = (   0.0233933   0.1570098  17.1842078  )
        23           O1  tau(  23) = (   1.3043587   1.4918075   6.0039043  )
        24           O1  tau(  24) = (   5.2767064   1.4903225   6.0039473  )
        25           Ti1 tau(  25) = (   0.0000382   5.9609847   6.0000000  )
        26           Ti1 tau(  26) = (   3.2902200   4.4714249   6.0002472  )
        27           O1  tau(  27) = (   0.0002396   2.9813036   7.9858123  )
        28           O1  tau(  28) = (   3.2902150   2.9813002   7.3038282  )
        29           O1  tau(  29) = (   4.5938453   4.4726049   9.2879030  )
        30           O1  tau(  30) = (   1.9864658   4.4711199   9.2879459  )
        31           Ti1 tau(  31) = (   3.2891106   5.8743827   9.1763621  )
        32           Ti1 tau(  32) = (   0.0006254   4.4649316   9.2693709  )
        33           O1  tau(  33) = (   3.2948289   2.9949798  11.3176834  )
        34           O1  tau(  34) = (   0.0092240   2.9805883  10.6323155  )
        35           O1  tau(  35) = (   1.2828652   4.4571597  12.6432593  )
        36           O1  tau(  36) = (   5.3079144   4.4605214  12.6419564  )
        37           Ti1 tau(  37) = (   0.0266940   5.9154698  12.5044250  )
        38           Ti1 tau(  38) = (   3.3008436   4.3760658  12.4353554  )
        39           O1  tau(  39) = (   6.5507285   3.0461080  14.9005035  )
        40           O1  tau(  40) = (   3.2938476   3.0131494  13.9233183  )
        41           O1  tau(  41) = (   4.5350990   4.4864192  16.1518712  )
        42           O1  tau(  42) = (   1.9883536   4.4285065  16.1690201  )
        43           Ti1 tau(  43) = (   3.3916644   0.0784854  16.2809578  )
        44           Ti1 tau(  44) = (   0.0590441   4.5159846  16.0209683  )
        45           O1  tau(  45) = (   3.2900926   2.9813045   4.7018136  )
        46           O1  tau(  46) = (   1.3039711   4.4726057   6.0039043  )
        47           O1  tau(  47) = (   5.2763189   4.4711207   6.0039473  )
        48           N1  tau(  48) = (   6.2706434   3.3737210  18.0754458  )
        49           C1  tau(  49) = (   0.7642246   3.1223808  19.0622891  )
        50           H1  tau(  50) = (   1.3158356   4.0410886  19.2409436  )
        51           H1  tau(  51) = (   0.3597117   2.7583523  20.0089400  )
        52           H1  tau(  52) = (   1.4517744   2.3810259  18.6668870  )
        53           H1  tau(  53) = (   5.6745199   4.1349376  18.4206214  )
        54           H1  tau(  54) = (   5.6587021   2.5696541  18.0151127  )
        55           O1  tau(  55) = (   3.1972372   0.0910451  18.1323504  )
        56           H1  tau(  56) = (   2.2767176   0.1080423  18.4377142  )

     number of k points=    10  Fermi-Dirac smearing, width (Ry)=  0.0073
                       cart. coord. in units 2pi/alat
        k(    1) = (   0.0000000   0.0000000   0.0000000), wk =   0.1250000
        k(    2) = (   0.0000000   0.0419351   0.0000000), wk =   0.2500000
        k(    3) = (   0.0000000  -0.0838702   0.0000000), wk =   0.1250000
        k(    4) = (   0.0379955   0.0000049   0.0000000), wk =   0.2500000
        k(    5) = (   0.0379955   0.0419400   0.0000000), wk =   0.2500000
        k(    6) = (   0.0379955  -0.0838652   0.0000000), wk =   0.2500000
        k(    7) = (   0.0379955  -0.0419301   0.0000000), wk =   0.2500000
        k(    8) = (  -0.0759910  -0.0000099   0.0000000), wk =   0.1250000
        k(    9) = (  -0.0759910   0.0419252   0.0000000), wk =   0.2500000
        k(   10) = (  -0.0759910  -0.0838800   0.0000000), wk =   0.1250000

     Initial potential from superposition of free atoms

     starting charge  382.99914, renormalised to  399.00000

     negative rho (up, down):  1.588E-02 0.000E+00

     %%%%%%%%%%%%%%%%%%%%%%%%%%%%%%%%%%%%%%%%%%%%%%%%%%%%%%%%%%%%%%%%%%%%%%%%
     %                                                                      %
     % You are using vdW-DF, which was implemented by the Thonhauser group. %
     % Please cite the following two papers that made this development      %
     % possible and the two reviews that describe the various versions:     %
     %                                                                      %
     %   T. Thonhauser et al., PRL 115, 136402 (2015).                      %
     %   T. Thonhauser et al., PRB 76, 125112 (2007).                       %
     %   K. Berland et al., Rep. Prog. Phys. 78, 066501 (2015).             %
     %   D.C. Langreth et al., J. Phys.: Condens. Matter 21, 084203 (2009). %
     %                                                                      %
     %                                                                      %
     % If you are calculating the stress with vdW-DF, please also cite:     %
     %                                                                      %
     %   R. Sabatini et al., J. Phys.: Condens. Matter 24, 424209 (2012).   %
     %                                                                      %
     %%%%%%%%%%%%%%%%%%%%%%%%%%%%%%%%%%%%%%%%%%%%%%%%%%%%%%%%%%%%%%%%%%%%%%%%

     Adding external electric field

     Computed dipole along edir(3) :
        Dipole              -10.6962 Ry au,        -27.1870 Debye
        Dipole field         -0.0202 Ry au,

        Potential amp.        1.8711 Ry
        Total length         46.3494 bohr

     Starting wfcs are  302 atomic wfcs
  @ DRIVER MODE: Message from server: STATUS
  @ DRIVER MODE: Message from server: POSDATA
  @ DRIVER MODE: Reading and sharing cell
  @ DRIVER MODE: Reading and sharing positions
  @ DRIVER MODE: Received positions

     Self-consistent Calculation

     iteration #  1     ecut=    29.40 Ry     beta= 0.05
     Davidson diagonalization with overlap
     c_bands:  3 eigenvalues not converged
     c_bands:  2 eigenvalues not converged
     c_bands:  2 eigenvalues not converged
     c_bands:  5 eigenvalues not converged
     c_bands:  2 eigenvalues not converged
     c_bands:  5 eigenvalues not converged
     c_bands:  4 eigenvalues not converged
     c_bands:  3 eigenvalues not converged
     ethr =  1.00E-05,  avg # of iterations = 21.6

[...]

     total energy              =   -2438.24762546 Ry
     estimated scf accuracy    <    5770.45845717 Ry

     iteration #  2     ecut=    29.40 Ry     beta= 0.05
     Davidson diagonalization with overlap
     ethr =  1.00E-02,  avg # of iterations = 23.5

[...]

     iteration # 74     ecut=    29.40 Ry     beta= 0.05
     Davidson diagonalization with overlap
     c_bands:  1 eigenvalues not converged
     c_bands:  1 eigenvalues not converged
     ethr =  5.80E-11,  avg # of iterations = 14.3

[...]

     total energy              =   -2955.26270275 Ry
     estimated scf accuracy    <       0.00000023 Ry

     iteration # 75     ecut=    29.40 Ry     beta= 0.05
     Davidson diagonalization with overlap
     ethr =  5.80E-11,  avg # of iterations = 12.7

     negative rho (up, down):  1.646E-02 0.000E+00

     Adding external electric field

     Computed dipole along edir(3) :
        Dipole                0.9727 Ry au,          2.4725 Debye
        Dipole field          0.0018 Ry au,

        Potential amp.       -0.1702 Ry
        Total length         46.3494 bohr

     End of self-consistent calculation

          k = 0.0000 0.0000 0.0000 ( 18029 PWs)   bands (ev):

   -55.6839 -55.6382 -55.6041 -55.5151 -55.5036 -55.4677 -55.4676 -55.4653
   -55.4335 -55.4198 -55.3690 -55.2741 -55.2283 -55.2136 -54.6139 -54.5799
   -32.1236 -32.0208 -32.0139 -31.9897 -31.9704 -31.9573 -31.9288 -31.9030
   -31.8951 -31.8841 -31.8839 -31.7912 -31.7909 -31.7765 -31.7507 -31.7476
   -31.7455 -31.7447 -31.7444 -31.7072 -31.6958 -31.6666 -31.6631 -31.6576
   -31.6516 -31.6457 -31.6376 -31.6075 -31.6054 -31.5997 -31.5946 -31.5911
   -31.5804 -31.5650 -31.5504 -31.5252 -31.4655 -31.4565 -31.4473 -31.4242
   -31.4204 -31.4155 -31.0200 -30.9335 -30.9111 -30.8375 -30.7511 -30.6393
   -16.5116 -16.2975 -16.1511 -15.9812 -15.8411 -15.8125 -15.7715 -15.6003
   -15.5075 -15.4438 -15.2431 -15.2220 -15.1769 -15.1650 -15.1600 -15.1372
   -15.1275 -15.0826 -15.0641 -15.0607 -15.0508 -15.0331 -14.9967 -14.9544
   -14.9108 -14.8901 -14.7779 -14.7214 -14.6807 -14.4694 -14.4014 -13.1126
   -12.9962  -9.9874  -6.0220  -4.5905  -4.0639  -3.7687  -3.6460  -3.5482
    -3.5369  -3.4175  -3.4078  -3.1670  -3.0435  -2.9842  -2.9061  -2.7833
    -2.7519  -2.6768  -2.6381  -2.5891  -2.5698  -2.5335  -2.4936  -2.4491
    -2.4246  -2.3973  -2.3642  -2.3071  -2.2960  -2.1978  -2.1832  -2.1609
    -2.0544  -2.0138  -1.9737  -1.9557  -1.9507  -1.9312  -1.8929  -1.8866
    -1.8668  -1.7885  -1.7196  -1.6730  -1.6380  -1.6103  -1.3323  -1.2477
    -1.2039  -1.1891  -1.0855  -1.0617  -1.0337  -1.0195  -0.9818  -0.9659
    -0.8541  -0.8348  -0.7692  -0.7194  -0.7036  -0.6681  -0.5467  -0.5091
    -0.4613  -0.4212  -0.3715  -0.3538  -0.3488  -0.2544  -0.2279  -0.1935
    -0.0844  -0.0672  -0.0052   0.0799   0.0894   0.1413   0.1655   0.2247
     0.2291   0.2838   0.3136   0.3356   0.3893   0.4217   0.4583   0.4911
     0.5082   0.6104   0.6856   0.6984   0.7961   0.8703   0.9239   1.0274
     1.0954   1.3590   1.4125   1.4365   1.6046   1.9797   2.0251   3.4434
     3.5924   3.6080   3.6828   3.6953   3.7724   3.9328   3.9580   4.0931
     4.1348

[...]

          k = 0.0380-0.0419 0.0000 ( 17876 PWs)   bands (ev):

[...]

          k =-0.0760-0.0000 0.0000 ( 17886 PWs)   bands (ev):

[...]

          k =-0.0760-0.0839 0.0000 ( 17948 PWs)   bands (ev):

   -55.6829 -55.6213 -55.6209 -55.5139 -55.4925 -55.4763 -55.4685 -55.4512
   -55.4494 -55.4135 -55.3755 -55.2694 -55.2294 -55.2182 -54.5974 -54.5964
   -31.9539 -31.9461 -31.9390 -31.9388 -31.9320 -31.9145 -31.9141 -31.8975
   -31.8533 -31.8126 -31.7945 -31.7819 -31.7778 -31.7763 -31.7544 -31.7455
   -31.7412 -31.7407 -31.7303 -31.7269 -31.7194 -31.7182 -31.7032 -31.6793
   -31.6731 -31.6685 -31.6595 -31.6491 -31.6339 -31.6327 -31.6306 -31.6254
   -31.6237 -31.5982 -31.5976 -31.5564 -31.5320 -31.4971 -31.4699 -31.4646
   -31.4496 -31.4195 -30.9242 -30.9234 -30.8335 -30.8322 -30.7947 -30.7939
   -16.4814 -15.9425 -15.8606 -15.7459 -15.6229 -15.6097 -15.4985 -15.4153
   -15.4119 -15.3809 -15.3508 -15.3228 -15.3132 -15.2965 -15.2494 -15.2061
   -15.1708 -15.1431 -15.1411 -15.0953 -15.0882 -15.0767 -15.0642 -15.0419
   -15.0080 -14.9583 -14.9439 -14.9045 -14.7672 -14.6916 -14.5916 -13.0983
   -13.0977  -9.9895  -6.0018  -4.5880  -4.0272  -3.7276  -3.0578  -2.9611
    -2.8493  -2.7245  -2.7159  -2.6987  -2.6438  -2.6127  -2.5866  -2.5454
    -2.4882  -2.4686  -2.4483  -2.4315  -2.4094  -2.3913  -2.3830  -2.3779
    -2.3414  -2.3237  -2.3153  -2.2743  -2.2666  -2.2505  -2.2317  -2.2128
    -2.1819  -2.1772  -2.1487  -2.0974  -2.0472  -1.9733  -1.8805  -1.7992
    -1.7882  -1.7697  -1.7202  -1.7136  -1.6682  -1.6599  -1.6354  -1.5483
    -1.4374  -1.3871  -1.2767  -1.2555  -1.2299  -1.1889  -1.1376  -1.1231
    -1.0778  -1.0472  -0.9872  -0.8868  -0.8564  -0.8010  -0.6875  -0.6485
    -0.6118  -0.5915  -0.5793  -0.5528  -0.5377  -0.4983  -0.4701  -0.4165
    -0.3821  -0.3486  -0.3214  -0.2957  -0.2464  -0.1474  -0.0521  -0.0157
     0.0855   0.1319   0.1742   0.2059   0.2672   0.4028   0.4296   0.5253
     0.5398   0.5691   0.6705   0.6807   0.7821   0.8064   0.8443   0.8852
     0.9099   0.9313   0.9507   1.7742   1.7827   1.8455   1.8456   3.7361
     3.9290   3.9445   3.9602   4.0049   4.0124   4.0411   4.0454   4.1113
     4.1243

     the Fermi energy is     3.4823 ev

!    total energy              =   -2955.26272597 Ry
     estimated scf accuracy    <       0.00000007 Ry
     smearing contrib. (-TS)   =      -0.01952690 Ry
     internal energy E=F+TS    =   -2955.24319907 Ry

     The total energy is F=E-TS. E is the sum of the following terms:
     one-electron contribution =  -23741.51117257 Ry
     hartree contribution      =   11962.85181132 Ry
     xc contribution           =    -489.73816843 Ry
     ewald contribution        =    9313.15254497 Ry
     electric field correction =       0.00178564 Ry

     convergence has been achieved in  75 iterations

     Forces acting on atoms (cartesian axes, Ry/au):

     atom    1 type  1   force =     0.00009168   -0.00029264    0.09416646
     atom    2 type  1   force =    -0.00003797    0.00043372   -0.17537570
     atom    3 type  2   force =     0.00003907   -0.00033559   -0.02110265
     atom    4 type  2   force =     0.00002405   -0.00197459    0.05462185
     atom    5 type  2   force =    -0.00675074   -0.00244801    0.00300535
     atom    6 type  2   force =     0.00835384   -0.00187199    0.00242805
     atom    7 type  1   force =    -0.00017723   -0.00404972    0.00897537
     atom    8 type  1   force =     0.00031386    0.00082525    0.00312984
     atom    9 type  2   force =    -0.00058195    0.00059561   -0.00019742
     atom   10 type  2   force =    -0.00139207    0.00173544   -0.00929094
     atom   11 type  2   force =     0.00003748   -0.00016013    0.00036257
     atom   12 type  2   force =    -0.00005414   -0.00011509   -0.00032237
     atom   13 type  1   force =    -0.00049232   -0.00025863    0.00006646
     atom   14 type  1   force =     0.00001521   -0.00034825   -0.00005255
     atom   15 type  2   force =    -0.00029715   -0.00026291   -0.00015949
     atom   16 type  2   force =     0.00031949   -0.00053797   -0.00043515
     atom   17 type  2   force =     0.00038266   -0.00017588   -0.00082220
     atom   18 type  2   force =    -0.00045469    0.00011756   -0.00016436
     atom   19 type  1   force =     0.00048113   -0.00069348    0.00076430
     atom   20 type  1   force =     0.00053872    0.00072069    0.00059892
     atom   21 type  2   force =     0.00007545    0.00004906    0.10325023
     atom   22 type  2   force =    -0.00052327   -0.00015984    0.00028334
     atom   23 type  2   force =    -0.07189228   -0.00019281   -0.02718905
     atom   24 type  2   force =     0.07182095    0.00024733   -0.02723452
     atom   25 type  1   force =     0.00002669   -0.00023611    0.09384260
     atom   26 type  1   force =    -0.00005729   -0.00133039   -0.17554743
     atom   27 type  2   force =     0.00015568   -0.00011089   -0.01985877
     atom   28 type  2   force =     0.00006886   -0.00032209    0.04989872
     atom   29 type  2   force =    -0.00613991    0.00232098    0.00250851
     atom   30 type  2   force =     0.00763120    0.00268594    0.00196077
     atom   31 type  1   force =     0.00002672    0.00839642   -0.00275792
     atom   32 type  1   force =     0.00011969   -0.00236159    0.00260087
     atom   33 type  2   force =     0.00005167   -0.00001664   -0.00007305
     atom   34 type  2   force =    -0.00211624   -0.00248850   -0.01006941
     atom   35 type  2   force =    -0.00015030   -0.00001388    0.00051274
     atom   36 type  2   force =    -0.00006799    0.00007360   -0.00009761
     atom   37 type  1   force =     0.00016273   -0.00009597   -0.00025532
     atom   38 type  1   force =     0.00004601   -0.00017998    0.00023681
     atom   39 type  2   force =    -0.00013312    0.00010400   -0.00047762
     atom   40 type  2   force =     0.00016970   -0.00025643   -0.00014787
     atom   41 type  2   force =    -0.00026940   -0.00076151    0.00067908
     atom   42 type  2   force =     0.00044411    0.00007854   -0.00015688
     atom   43 type  1   force =    -0.00079552   -0.00053378    0.00035334
     atom   44 type  1   force =     0.00031388    0.00026010   -0.00023974
     atom   45 type  2   force =     0.00006883   -0.00006947    0.10304449
     atom   46 type  2   force =    -0.07191061   -0.00003812   -0.02722374
     atom   47 type  2   force =     0.07187142    0.00040471   -0.02727088
     atom   48 type  3   force =     0.00003744    0.02368920    0.00351642
     atom   49 type  4   force =     0.00100346   -0.00331666    0.00087742
     atom   50 type  5   force =    -0.00030172    0.00120279   -0.00097978
     atom   51 type  5   force =     0.00035907    0.00068512    0.00047596
     atom   52 type  5   force =     0.00106911   -0.00032006    0.00011013
     atom   53 type  5   force =     0.00540374   -0.00808713   -0.00517250
     atom   54 type  5   force =    -0.00622773   -0.01066319    0.00041461
     atom   55 type  2   force =    -0.00045017    0.00033630    0.00040773
     atom   56 type  5   force =    -0.00024980    0.00011758   -0.00041801

     Total force =     0.363332     Total SCF correction =     0.000766
  @ DRIVER MODE: Message from server: STATUS
  @ DRIVER MODE: Message from server: GETFORCE
  @ DRIVER MODE: Returning v,forces,stress,ensemble

     Writing output data file ./calc.save/
  @ DRIVER MODE: Message from server: EXIT
  @ DRIVE MODE: Exiting

     General routines

     Parallel routines

   This run was terminated on:  12:18: 5  23Sep2021

   JOB DONE.