     Program PWSCF v.6.7GPU starts on 15Sep2021 at 22:44: 9

     R & G space division:  proc/nbgrp/npool/nimage =      10
     Reading input from /storage/home/hcoda1/3/ntian30/research/carbon/CxH_vib/H2O_calc/ads_slab/CHNNHHH2O_a/out_0022/pw.inp
Warning: card &CELL ignored
Warning: card   CELL_DYNAMICS='IPI', ignored
Warning: card / ignored

     Current dimensions of program PWSCF are:
     Max number of different atomic species (ntypx) = 10
     Max number of k-points (npk) =  40000
     Max angular momentum in pseudopotentials (lmaxx) =  3
     Presently no symmetry can be used with electric field

     Message from routine cell_base_init:
     DEPRECATED: use true lattice parameter, not A to a.u. conversion factor

     IMPORTANT: XC functional enforced from input :
     Exchange-correlation= BEEF-VDW
                           (   1   4  43  14   2   0   0)
     Any further DFT definition will be discarded
     Please, verify this is what you really want

  @ DRIVER MODE: Connecting to
 qe_1139763_2852630.sched-torque.pace.gatech.edul1bj_g2q_scratch
  using UNIX socket
  @ DRIVER MODE: Message from server: STATUS
  @ DRIVER MODE: Message from server: INIT
  @ DRIVER MODE: Receiving replica           0          -1
  @ DRIVER MODE: Receiving encoded integer          25
  @ DRIVER MODE:  SCF:  T  FORCE:  T  STRESS:  F  VC:  F  ENSEMBLE:  F
  @ DRIVER MODE:  SCF:  T  FORCE:  T  STRESS:  F  VC:  F  ENSEMBLE:  F

     Using Slab Decomposition

     bravais-lattice index     =            0
     lattice parameter (alat)  =       1.8897  a.u.
     unit-cell volume          =    6658.9804 (a.u.)^3
     number of atoms/cell      =           56
     number of atomic types    =            5
     number of electrons       =       403.00
     number of Kohn-Sham states=          211
     kinetic-energy cutoff     =      29.3995  Ry
     charge density cutoff     =     293.9946  Ry
     scf convergence threshold =      7.3E-08
     mixing beta               =       0.0500
     number of iterations used =            8  plain     mixing
     Exchange-correlation= BEEF-VDW
                           (   1   4  43  14   2   0   0)

     celldm(1)=   1.889726  celldm(2)=   0.000000  celldm(3)=   0.000000
     celldm(4)=   0.000000  celldm(5)=   0.000000  celldm(6)=   0.000000

     crystal axes: (cart. coord. in units of alat)
               a(1) = (   6.579727   0.000000   0.000000 )
               a(2) = (  -0.000775   5.961596   0.000000 )
               a(3) = (   0.000000   0.000000  25.155947 )

     reciprocal axes: (cart. coord. in units 2 pi/alat)
               b(1) = (  0.151982  0.000020  0.000000 )
               b(2) = (  0.000000  0.167740  0.000000 )
               b(3) = (  0.000000  0.000000  0.039752 )

     PseudoPot. # 1 for Ti read from file:
     /storage/coda1/p-amedford6/0/shared/rich_project_chbe-medford/medford-share/data/pseudos_module/espresso/nninc/pbe/van/Ti.UPF
     MD5 check sum: 8e4df49b7f0d34bbd5052bf3f5ea0213
     Pseudo is Ultrasoft, Zval = 12.0
     Generated by new atomic code, or converted to UPF format
     Using radial grid of  851 points,  6 beta functions with:
                l(1) =   0
                l(2) =   0
                l(3) =   1
                l(4) =   1
                l(5) =   2
                l(6) =   2
     Q(r) pseudized with  8 coefficients,  rinner =    1.000   1.000   1.000
                                                       1.000   1.000

     PseudoPot. # 2 for O  read from file:
     /storage/coda1/p-amedford6/0/shared/rich_project_chbe-medford/medford-share/data/pseudos_module/espresso/nninc/pbe/van/O.UPF
     MD5 check sum: 78c19812648e8988a0fe644b0f25305e
     Pseudo is Ultrasoft, Zval =  6.0
     Generated by new atomic code, or converted to UPF format
     Using radial grid of  737 points,  4 beta functions with:
                l(1) =   0
                l(2) =   0
                l(3) =   1
                l(4) =   1
     Q(r) pseudized with  8 coefficients,  rinner =    0.800   0.800   0.800

     PseudoPot. # 3 for N  read from file:
     /storage/coda1/p-amedford6/0/shared/rich_project_chbe-medford/medford-share/data/pseudos_module/espresso/nninc/pbe/van/N.UPF
     MD5 check sum: 90d10febe142ad51ac9d5be1deb811c4
     Pseudo is Ultrasoft, Zval =  5.0
     Generated by new atomic code, or converted to UPF format
     Using radial grid of  729 points,  4 beta functions with:
                l(1) =   0
                l(2) =   0
                l(3) =   1
                l(4) =   1
     Q(r) pseudized with  8 coefficients,  rinner =    0.800   0.800   0.800

     PseudoPot. # 4 for C  read from file:
     /storage/coda1/p-amedford6/0/shared/rich_project_chbe-medford/medford-share/data/pseudos_module/espresso/nninc/pbe/van/C.UPF
     MD5 check sum: 1a69bf6b8db32088f5b2163dbdb77a27
     Pseudo is Ultrasoft, Zval =  4.0
     Generated by new atomic code, or converted to UPF format
     Using radial grid of  721 points,  4 beta functions with:
                l(1) =   0
                l(2) =   0
                l(3) =   1
                l(4) =   1
     Q(r) pseudized with  8 coefficients,  rinner =    0.800   0.800   0.800

     PseudoPot. # 5 for H  read from file:
     /storage/coda1/p-amedford6/0/shared/rich_project_chbe-medford/medford-share/data/pseudos_module/espresso/nninc/pbe/van/H.UPF
     MD5 check sum: b5ee9d7bfd3a09ee7748110bda690ff7
     Pseudo is Ultrasoft, Zval =  1.0
     Generated by new atomic code, or converted to UPF format
     Using radial grid of  615 points,  1 beta functions with:
                l(1) =   0
     Q(r) pseudized with  8 coefficients,  rinner =    0.800

     atomic species   valence    mass     pseudopotential
        Ti1           12.00    47.86700     Ti( 1.00)
        O1             6.00    15.99900     O ( 1.00)
        N1             5.00    14.00700     N ( 1.00)
        C1             4.00    12.01100     C ( 1.00)
        H1             1.00     1.00800     H ( 1.00)

     No symmetry found

   Cartesian axes

     site n.     atom                  positions (alat units)
         1           Ti1 tau(   1) = (   0.0004258   2.9801865   6.0000000  )
         2           Ti1 tau(   2) = (   3.2906075   1.4906267   6.0002472  )
         3           O1  tau(   3) = (   0.0006271   0.0005054   7.9858123  )
         4           O1  tau(   4) = (   3.2906025   0.0005020   7.3038282  )
         5           O1  tau(   5) = (   4.5942328   1.4918067   9.2879030  )
         6           O1  tau(   6) = (   1.9868534   1.4903216   9.2879459  )
         7           Ti1 tau(   7) = (   3.2907910   2.8959150   9.1758416  )
         8           Ti1 tau(   8) = (   0.0015273   1.4827037   9.2680791  )
         9           O1  tau(   9) = (   3.3295752   5.9394884  11.3365386  )
        10           O1  tau(  10) = (   0.0116148   5.9584955  10.6183126  )
        11           O1  tau(  11) = (   1.3416459   1.4853116  12.6004455  )
        12           O1  tau(  12) = (   5.3426426   1.4786053  12.6369034  )
        13           Ti1 tau(  13) = (   0.0116414   2.9353973  12.6160321  )
        14           Ti1 tau(  14) = (   3.2634613   1.4579052  12.5012998  )
        15           O1  tau(  15) = (   0.1064876   0.0498873  14.6156690  )
        16           O1  tau(  16) = (   3.3207907   0.0021492  13.9347054  )
        17           O1  tau(  17) = (   4.6463059   1.4619937  15.9920056  )
        18           O1  tau(  18) = (   2.1466462   1.4989335  16.1123926  )
        19           Ti1 tau(  19) = (   3.4306617   2.9592634  15.6863987  )
        20           Ti1 tau(  20) = (   0.1411245   1.4409179  16.1562347  )
        21           O1  tau(  21) = (   3.2904802   0.0005063   4.7018136  )
        22           O1  tau(  22) = (   0.1093408   5.8617090  17.1288626  )
        23           O1  tau(  23) = (   1.3043587   1.4918075   6.0039043  )
        24           O1  tau(  24) = (   5.2767064   1.4903225   6.0039473  )
        25           Ti1 tau(  25) = (   0.0000382   5.9609847   6.0000000  )
        26           Ti1 tau(  26) = (   3.2902200   4.4714249   6.0002472  )
        27           O1  tau(  27) = (   0.0002396   2.9813036   7.9858123  )
        28           O1  tau(  28) = (   3.2902150   2.9813002   7.3038282  )
        29           O1  tau(  29) = (   4.5938453   4.4726049   9.2879030  )
        30           O1  tau(  30) = (   1.9864658   4.4711199   9.2879459  )
        31           Ti1 tau(  31) = (   3.2891106   5.8743827   9.1763621  )
        32           Ti1 tau(  32) = (   0.0006254   4.4649316   9.2693709  )
        33           O1  tau(  33) = (   3.3252478   2.9725824  11.3426849  )
        34           O1  tau(  34) = (   0.0092240   2.9805883  10.6323155  )
        35           O1  tau(  35) = (   1.3395427   4.4601989  12.6346899  )
        36           O1  tau(  36) = (   5.3460148   4.4586474  12.6692756  )
        37           Ti1 tau(  37) = (   6.5637397   5.9322234  12.5160321  )
        38           Ti1 tau(  38) = (   3.2635149   4.4558096  12.5102435  )
        39           O1  tau(  39) = (   0.1109093   2.9345503  14.7784033  )
        40           O1  tau(  40) = (   3.3425673   2.9461413  13.8942005  )
        41           O1  tau(  41) = (   4.6672108   4.4449251  15.9191901  )
        42           O1  tau(  42) = (   2.1284166   4.4082335  15.9970045  )
        43           Ti1 tau(  43) = (   3.3925976   5.9399099  15.7906296  )
        44           Ti1 tau(  44) = (   0.1175887   4.6074924  15.7225956  )
        45           O1  tau(  45) = (   3.2900926   2.9813045   4.7018136  )
        46           O1  tau(  46) = (   1.3039711   4.4726057   6.0039043  )
        47           O1  tau(  47) = (   5.2763189   4.4711207   6.0039473  )
        48           N1  tau(  48) = (   6.3322197   2.6896666  17.8857888  )
        49           C1  tau(  49) = (   0.7408832   3.1023054  18.6049742  )
        50           H1  tau(  50) = (   1.6825283   2.9574642  18.0630083  )
        51           N1  tau(  51) = (   5.0062801   2.8367163  18.4728511  )
        52           H1  tau(  52) = (   5.1803530   3.0494745  19.4549233  )
        53           H1  tau(  53) = (   4.5789568   1.9025856  18.4370215  )
        54           O1  tau(  54) = (   3.4803961   5.7297960  18.1507158  )
        55           H1  tau(  55) = (   4.0125945   4.9267423  18.3304466  )
        56           H1  tau(  56) = (   2.5980622   5.5532332  18.5227279  )

     number of k points=    10  Fermi-Dirac smearing, width (Ry)=  0.0073
                       cart. coord. in units 2pi/alat
        k(    1) = (   0.0000000   0.0000000   0.0000000), wk =   0.1250000
        k(    2) = (   0.0000000   0.0419351   0.0000000), wk =   0.2500000
        k(    3) = (   0.0000000  -0.0838702   0.0000000), wk =   0.1250000
        k(    4) = (   0.0379955   0.0000049   0.0000000), wk =   0.2500000
        k(    5) = (   0.0379955   0.0419400   0.0000000), wk =   0.2500000
        k(    6) = (   0.0379955  -0.0838652   0.0000000), wk =   0.2500000
        k(    7) = (   0.0379955  -0.0419301   0.0000000), wk =   0.2500000
        k(    8) = (  -0.0759910  -0.0000099   0.0000000), wk =   0.1250000
        k(    9) = (  -0.0759910   0.0419252   0.0000000), wk =   0.2500000
        k(   10) = (  -0.0759910  -0.0838800   0.0000000), wk =   0.1250000

     Initial potential from superposition of free atoms

     starting charge  386.99914, renormalised to  403.00000

     negative rho (up, down):  1.683E-02 0.000E+00

     %%%%%%%%%%%%%%%%%%%%%%%%%%%%%%%%%%%%%%%%%%%%%%%%%%%%%%%%%%%%%%%%%%%%%%%%
     %                                                                      %
     % You are using vdW-DF, which was implemented by the Thonhauser group. %
     % Please cite the following two papers that made this development      %
     % possible and the two reviews that describe the various versions:     %
     %                                                                      %
     %   T. Thonhauser et al., PRL 115, 136402 (2015).                      %
     %   T. Thonhauser et al., PRB 76, 125112 (2007).                       %
     %   K. Berland et al., Rep. Prog. Phys. 78, 066501 (2015).             %
     %   D.C. Langreth et al., J. Phys.: Condens. Matter 21, 084203 (2009). %
     %                                                                      %
     %                                                                      %
     % If you are calculating the stress with vdW-DF, please also cite:     %
     %                                                                      %
     %   R. Sabatini et al., J. Phys.: Condens. Matter 24, 424209 (2012).   %
     %                                                                      %
     %%%%%%%%%%%%%%%%%%%%%%%%%%%%%%%%%%%%%%%%%%%%%%%%%%%%%%%%%%%%%%%%%%%%%%%%

     Adding external electric field

     Computed dipole along edir(3) :
        Dipole              -12.6658 Ry au,        -32.1932 Debye
        Dipole field         -0.0239 Ry au,

        Potential amp.        2.2157 Ry
        Total length         46.3494 bohr

     Starting wfcs are  305 atomic wfcs
  @ DRIVER MODE: Message from server: STATUS
  @ DRIVER MODE: Message from server: POSDATA
  @ DRIVER MODE: Reading and sharing cell
  @ DRIVER MODE: Reading and sharing positions
  @ DRIVER MODE: Received positions

     Self-consistent Calculation

     iteration #  1     ecut=    29.40 Ry     beta= 0.05
     Davidson diagonalization with overlap
     c_bands:  3 eigenvalues not converged
     c_bands:  2 eigenvalues not converged
     c_bands:  5 eigenvalues not converged
     c_bands:  1 eigenvalues not converged
     c_bands:  4 eigenvalues not converged
     c_bands:  1 eigenvalues not converged
     c_bands:  2 eigenvalues not converged
     ethr =  1.00E-05,  avg # of iterations = 26.9

[...]

     total energy              =   -2338.86230056 Ry
     estimated scf accuracy    <    7197.55460482 Ry

     iteration #  2     ecut=    29.40 Ry     beta= 0.05
     Davidson diagonalization with overlap
     ethr =  1.00E-02,  avg # of iterations = 23.5

[...]

     iteration # 56     ecut=    29.40 Ry     beta= 0.05
     Davidson diagonalization with overlap
     c_bands:  3 eigenvalues not converged
     ethr =  5.38E-09,  avg # of iterations = 11.9

[...]

     total energy              =   -2973.87552847 Ry
     estimated scf accuracy    <       0.00000010 Ry

     iteration # 68     ecut=    29.40 Ry     beta= 0.05
     Davidson diagonalization with overlap
     ethr =  2.38E-11,  avg # of iterations =  3.7

     negative rho (up, down):  1.574E-02 0.000E+00

     Adding external electric field

     Computed dipole along edir(3) :
        Dipole                0.4429 Ry au,          1.1258 Debye
        Dipole field          0.0008 Ry au,

        Potential amp.       -0.0775 Ry
        Total length         46.3494 bohr

     End of self-consistent calculation

          k = 0.0000 0.0000 0.0000 ( 18029 PWs)   bands (ev):

   -55.9069 -55.8728 -55.8706 -55.8331 -55.7913 -55.7902 -55.7345 -55.7238
   -55.6968 -55.6898 -55.6893 -55.6559 -55.4674 -55.3785 -54.8893 -54.8552
   -32.4115 -32.3911 -32.2780 -32.2333 -32.2238 -32.1988 -32.1801 -32.1608
   -32.1514 -32.1088 -32.0607 -32.0592 -32.0449 -32.0345 -32.0244 -32.0235
   -32.0129 -32.0084 -32.0048 -31.9938 -31.9869 -31.9725 -31.9641 -31.9305
   -31.9212 -31.9180 -31.9161 -31.9108 -31.8876 -31.8870 -31.8792 -31.8666
   -31.8568 -31.8436 -31.8358 -31.8295 -31.8021 -31.7587 -31.6970 -31.6353
   -31.5922 -31.5207 -31.2964 -31.2079 -31.1855 -31.1133 -31.0268 -30.9156
   -18.8422 -17.1733 -16.6211 -16.3847 -16.1478 -16.0690 -16.0438 -15.8143
   -15.7191 -15.6636 -15.5670 -15.5052 -15.4764 -15.4466 -15.4235 -15.4018
   -15.3615 -15.3492 -15.3295 -15.3285 -15.3017 -15.2925 -15.2554 -15.2497
   -15.2022 -15.0791 -15.0454 -15.0397 -15.0097 -14.9722 -14.5299 -13.3910
   -13.2745 -12.8132  -7.1132  -6.5585  -5.4539  -4.0013  -3.8673  -3.8562
    -3.8156  -3.7502  -3.6012  -3.5729  -3.3736  -3.2383  -3.1733  -3.0945
    -3.0774  -3.0394  -3.0134  -2.9089  -2.8236  -2.7872  -2.7204  -2.7050
    -2.6798  -2.6718  -2.6427  -2.6182  -2.5333  -2.5144  -2.4733  -2.4408
    -2.3247  -2.3063  -2.2503  -2.2222  -2.2145  -2.1955  -2.1719  -2.1626
    -2.1479  -2.1363  -2.0769  -2.0490  -1.9667  -1.8993  -1.8361  -1.7017
    -1.5612  -1.5204  -1.5083  -1.4084  -1.3820  -1.3470  -1.3277  -1.3038
    -1.2868  -1.1649  -1.0864  -1.0230  -1.0162  -0.9454  -0.8526  -0.7926
    -0.7349  -0.6778  -0.6718  -0.6509  -0.6462  -0.6115  -0.5381  -0.4022
    -0.3647  -0.3240  -0.2903  -0.2028  -0.1935  -0.1486  -0.1175  -0.0965
    -0.0638   0.0146   0.0265   0.0574   0.0789   0.0999   0.1229   0.1811
     0.3096   0.3315   0.3501   0.4072   0.4433   0.6033   0.7438   0.7870
     0.8892   1.0624   1.1336   1.1446   1.2231   1.3252   1.7046   1.7504
     2.7630   3.2092   3.3129   3.3468   3.3542   3.4551   3.4802   3.6707
     3.7152   3.7517   3.7831

[...]

          k = 0.0380-0.0419 0.0000 ( 17876 PWs)   bands (ev):

[...]

          k =-0.0760-0.0000 0.0000 ( 17886 PWs)   bands (ev):

[...]

          k =-0.0760-0.0839 0.0000 ( 17948 PWs)   bands (ev):

   -55.8901 -55.8894 -55.8574 -55.8461 -55.7880 -55.7844 -55.7404 -55.7085
   -55.7044 -55.7000 -55.6731 -55.6725 -55.4646 -55.3811 -54.8723 -54.8721
   -32.2280 -32.2065 -32.2062 -32.2060 -32.1845 -32.1841 -32.1265 -32.1187
   -32.0981 -32.0911 -32.0878 -32.0361 -32.0351 -32.0269 -32.0233 -32.0223
   -32.0168 -32.0131 -32.0110 -32.0095 -32.0085 -32.0057 -31.9936 -31.9906
   -31.9737 -31.9520 -31.9507 -31.9110 -31.9090 -31.9019 -31.9016 -31.8987
   -31.8923 -31.8889 -31.8883 -31.8826 -31.8797 -31.7750 -31.6951 -31.6417
   -31.5960 -31.5872 -31.1983 -31.1981 -31.1093 -31.1090 -31.0701 -31.0700
   -18.8399 -17.1646 -16.0480 -15.9626 -15.9246 -15.8353 -15.7896 -15.7558
   -15.6962 -15.6233 -15.5848 -15.5798 -15.5539 -15.4955 -15.4807 -15.4529
   -15.4352 -15.4236 -15.4192 -15.3670 -15.3608 -15.3516 -15.3471 -15.3338
   -15.3314 -15.3059 -15.2310 -15.2281 -15.1056 -14.8952 -14.8708 -13.3763
   -13.3762 -12.8292  -7.0742  -6.5484  -5.3886  -3.6683  -3.3861  -3.3279
    -3.2245  -3.1131  -3.0129  -3.0054  -2.9695  -2.9255  -2.8548  -2.8299
    -2.7739  -2.7527  -2.7398  -2.7233  -2.7189  -2.7079  -2.6749  -2.6519
    -2.5959  -2.5911  -2.5838  -2.5753  -2.5632  -2.5553  -2.5337  -2.5275
    -2.5008  -2.4750  -2.4365  -2.4053  -2.3218  -2.2462  -2.1696  -2.1186
    -2.0889  -2.0576  -2.0511  -2.0068  -1.9874  -1.9758  -1.9587  -1.8942
    -1.7934  -1.6746  -1.6177  -1.5950  -1.5459  -1.5105  -1.4872  -1.3790
    -1.3301  -1.3158  -1.2140  -1.1929  -1.1664  -1.1143  -1.0492  -1.0347
    -0.9918  -0.9479  -0.9058  -0.8655  -0.8602  -0.8099  -0.7647  -0.7369
    -0.6561  -0.6463  -0.6019  -0.5919  -0.5797  -0.5416  -0.4939  -0.4143
    -0.3177  -0.2726  -0.2215  -0.0688   0.0054   0.1412   0.1939   0.2591
     0.2757   0.3755   0.4036   0.4057   0.4875   0.5312   0.5877   0.6196
     0.6243   0.6367   0.8020   1.0904   1.4972   1.4982   1.5702   1.5705
     2.7199   3.5424   3.5997   3.6134   3.6395   3.7255   3.7492   3.7592
     3.7611   3.8802   3.8960

     the Fermi energy is     3.2219 ev

!    total energy              =   -2973.87555244 Ry
     estimated scf accuracy    <       0.00000007 Ry
     smearing contrib. (-TS)   =      -0.02178452 Ry
     internal energy E=F+TS    =   -2973.85376793 Ry

     The total energy is F=E-TS. E is the sum of the following terms:
     one-electron contribution =  -24185.07638586 Ry
     hartree contribution      =   12184.08803128 Ry
     xc contribution           =    -493.99437364 Ry
     ewald contribution        =    9521.12859006 Ry
     electric field correction =       0.00037023 Ry

     convergence has been achieved in  68 iterations

     Forces acting on atoms (cartesian axes, Ry/au):

     atom    1 type  1   force =     0.00015943   -0.00030187    0.09559438
     atom    2 type  1   force =     0.00004934   -0.00047118   -0.17581572
     atom    3 type  2   force =     0.00023238    0.00002032   -0.02351303
     atom    4 type  2   force =     0.00008530   -0.00152686    0.05312866
     atom    5 type  2   force =    -0.01025190   -0.00136991    0.00262602
     atom    6 type  2   force =     0.01291952   -0.00101887    0.00440981
     atom    7 type  1   force =     0.00139696    0.00129020   -0.00564545
     atom    8 type  1   force =    -0.00059897    0.01375114    0.01966803
     atom    9 type  2   force =     0.00024076   -0.00056333    0.00102361
     atom   10 type  2   force =    -0.00153774   -0.00072208   -0.01578787
     atom   11 type  2   force =    -0.00105980    0.00026316   -0.00022277
     atom   12 type  2   force =     0.00040442    0.00000067    0.00013690
     atom   13 type  1   force =     0.00056462    0.00083397    0.00028159
     atom   14 type  1   force =    -0.00022434   -0.00008031    0.00044924
     atom   15 type  2   force =    -0.00034538    0.00005510   -0.00035401
     atom   16 type  2   force =     0.00000169   -0.00085825   -0.00044680
     atom   17 type  2   force =    -0.00065199   -0.00013418   -0.00021332
     atom   18 type  2   force =     0.00015783   -0.00026722   -0.00048875
     atom   19 type  1   force =     0.00068422   -0.00059643   -0.00108253
     atom   20 type  1   force =    -0.00077401   -0.00086622   -0.00034216
     atom   21 type  2   force =     0.00007365    0.00001604    0.10320662
     atom   22 type  2   force =    -0.00007085    0.00123410    0.00036703
     atom   23 type  2   force =    -0.07147904   -0.00008204   -0.02756770
     atom   24 type  2   force =     0.07144449    0.00037694   -0.02762263
     atom   25 type  1   force =     0.00009958   -0.00027497    0.09540064
     atom   26 type  1   force =     0.00004244   -0.00021809   -0.17588132
     atom   27 type  2   force =     0.00024803   -0.00036459   -0.02226301
     atom   28 type  2   force =     0.00008022   -0.00121838    0.05318274
     atom   29 type  2   force =    -0.01029422    0.00029830    0.00173811
     atom   30 type  2   force =     0.01288430    0.00085653    0.00359704
     atom   31 type  1   force =     0.00161402    0.00306337   -0.01049157
     atom   32 type  1   force =    -0.00067778   -0.01564254    0.01965668
     atom   33 type  2   force =     0.00053679    0.00064819    0.00017578
     atom   34 type  2   force =    -0.00085309    0.00099564   -0.01347591
     atom   35 type  2   force =     0.00109613    0.00005318   -0.00044228
     atom   36 type  2   force =    -0.00119481    0.00013689   -0.00020776
     atom   37 type  1   force =    -0.00030744   -0.00044828    0.00004992
     atom   38 type  1   force =    -0.00090901    0.00038037   -0.00039219
     atom   39 type  2   force =    -0.00045994   -0.00052825    0.00016209
     atom   40 type  2   force =     0.00009294    0.00096692    0.00015631
     atom   41 type  2   force =    -0.00117680    0.00047088    0.00042368
     atom   42 type  2   force =     0.00103023   -0.00027667    0.00050732
     atom   43 type  1   force =    -0.00017015    0.00089588   -0.00026995
     atom   44 type  1   force =    -0.00046661    0.00056598   -0.00161820
     atom   45 type  2   force =     0.00007304    0.00001374    0.10320507
     atom   46 type  2   force =    -0.07147626   -0.00003766   -0.02756646
     atom   47 type  2   force =     0.07144406    0.00038898   -0.02760493
     atom   48 type  3   force =     0.00077208    0.00307728    0.00118151
     atom   49 type  4   force =     0.00051635   -0.00004649   -0.00115552
     atom   50 type  5   force =    -0.00091386   -0.00100312    0.00067027
     atom   51 type  3   force =    -0.00623962   -0.01645330   -0.00567419
     atom   52 type  5   force =     0.00118264    0.00155450    0.00423262
     atom   53 type  5   force =     0.00330544    0.01164975    0.00178278
     atom   54 type  2   force =    -0.00111326   -0.00013425    0.00101696
     atom   55 type  5   force =    -0.00059608    0.00119878   -0.00074058
     atom   56 type  5   force =     0.00041004    0.00044853   -0.00114482

     Total force =     0.366763     Total SCF correction =     0.000621
  @ DRIVER MODE: Message from server: STATUS
  @ DRIVER MODE: Message from server: GETFORCE
  @ DRIVER MODE: Returning v,forces,stress,ensemble

     Writing output data file ./calc.save/
  @ DRIVER MODE: Message from server: EXIT
  @ DRIVE MODE: Exiting

     General routines

     Parallel routines

   This run was terminated on:  23: 3:32  15Sep2021

   JOB DONE.