     Program PWSCF v.6.8 starts on 30Aug2021 at 14:39:27

     R & G space division:  proc/nbgrp/npool/nimage =      24

     Reading input from /storage/home/hcoda1/3/ntian30/research/carbon/methanol/ads_slab/CH3OHN2_l/methanol.log/pw.inp
Warning: card &CELL ignored
Warning: card   CELL_DYNAMICS='IPI', ignored
Warning: card / ignored

     Current dimensions of program PWSCF are:
     Max number of different atomic species (ntypx) = 10
     Max number of k-points (npk) =  40000
     Max angular momentum in pseudopotentials (lmaxx) =  4
     Presently no symmetry can be used with electric field

     Message from routine cell_base_init:
     DEPRECATED: use true lattice parameter, not A to a.u. conversion factor

     IMPORTANT: XC functional enforced from input :
     Exchange-correlation= BEEF-VDW
                           (   1   4  43  14   2   0   0)
     Any further DFT definition will be discarded
     Please, verify this is what you really want

  @ DRIVER MODE: Connecting to
 qe_1139763_2685216.sched-torque.pace.gatech.eduv8hmhkye_scratch
  using UNIX socket
  @ DRIVER MODE: Message from server: STATUS
  @ DRIVER MODE: Message from server: INIT
  @ DRIVER MODE: Receiving replica           0          -1
  @ DRIVER MODE: Receiving encoded integer          25
  @ DRIVER MODE:  SCF:  T  FORCE:  T  STRESS:  F  VC:  F  ENSEMBLE:  F
  @ DRIVER MODE:  SCF:  T  FORCE:  T  STRESS:  F  VC:  F  ENSEMBLE:  F

     Using Slab Decomposition

     bravais-lattice index     =            0
     lattice parameter (alat)  =       1.8897  a.u.
     unit-cell volume          =    6658.9804 (a.u.)^3
     number of atoms/cell      =           55
     number of atomic types    =            5
     number of electrons       =       402.00
     number of Kohn-Sham states=          211
     kinetic-energy cutoff     =      29.3995  Ry
     charge density cutoff     =     293.9946  Ry
     scf convergence threshold =      7.3E-08
     mixing beta               =       0.0500
     number of iterations used =            8  plain     mixing
     Exchange-correlation= BEEF-VDW
                           (   1   4  43  14   2   0   0)

     celldm(1)=   1.889726  celldm(2)=   0.000000  celldm(3)=   0.000000
     celldm(4)=   0.000000  celldm(5)=   0.000000  celldm(6)=   0.000000

     crystal axes: (cart. coord. in units of alat)
               a(1) = (   6.579727   0.000000   0.000000 )
               a(2) = (  -0.000775   5.961596   0.000000 )
               a(3) = (   0.000000   0.000000  25.155947 )

     reciprocal axes: (cart. coord. in units 2 pi/alat)
               b(1) = (  0.151982  0.000020  0.000000 )
               b(2) = (  0.000000  0.167740  0.000000 )
               b(3) = (  0.000000  0.000000  0.039752 )

     PseudoPot. # 1 for Ti read from file:
     /storage/coda1/p-amedford6/0/shared/rich_project_chbe-medford/medford-share/data/pseudos_module/espresso/nninc/pbe/van/Ti.UPF
     MD5 check sum: 8e4df49b7f0d34bbd5052bf3f5ea0213
     Pseudo is Ultrasoft, Zval = 12.0
     Generated by new atomic code, or converted to UPF format
     Using radial grid of  851 points,  6 beta functions with:
                l(1) =   0
                l(2) =   0
                l(3) =   1
                l(4) =   1
                l(5) =   2
                l(6) =   2
     Q(r) pseudized with  8 coefficients,  rinner =    1.000   1.000   1.000
                                                       1.000   1.000

     PseudoPot. # 2 for O  read from file:
     /storage/coda1/p-amedford6/0/shared/rich_project_chbe-medford/medford-share/data/pseudos_module/espresso/nninc/pbe/van/O.UPF
     MD5 check sum: 78c19812648e8988a0fe644b0f25305e
     Pseudo is Ultrasoft, Zval =  6.0
     Generated by new atomic code, or converted to UPF format
     Using radial grid of  737 points,  4 beta functions with:
                l(1) =   0
                l(2) =   0
                l(3) =   1
                l(4) =   1
     Q(r) pseudized with  8 coefficients,  rinner =    0.800   0.800   0.800

     PseudoPot. # 3 for C  read from file:
     /storage/coda1/p-amedford6/0/shared/rich_project_chbe-medford/medford-share/data/pseudos_module/espresso/nninc/pbe/van/C.UPF
     MD5 check sum: 1a69bf6b8db32088f5b2163dbdb77a27
     Pseudo is Ultrasoft, Zval =  4.0
     Generated by new atomic code, or converted to UPF format
     Using radial grid of  721 points,  4 beta functions with:
                l(1) =   0
                l(2) =   0
                l(3) =   1
                l(4) =   1
     Q(r) pseudized with  8 coefficients,  rinner =    0.800   0.800   0.800

     PseudoPot. # 4 for H  read from file:
     /storage/coda1/p-amedford6/0/shared/rich_project_chbe-medford/medford-share/data/pseudos_module/espresso/nninc/pbe/van/H.UPF
     MD5 check sum: b5ee9d7bfd3a09ee7748110bda690ff7
     Pseudo is Ultrasoft, Zval =  1.0
     Generated by new atomic code, or converted to UPF format
     Using radial grid of  615 points,  1 beta functions with:
                l(1) =   0
     Q(r) pseudized with  8 coefficients,  rinner =    0.800

     PseudoPot. # 5 for N  read from file:
     /storage/coda1/p-amedford6/0/shared/rich_project_chbe-medford/medford-share/data/pseudos_module/espresso/nninc/pbe/van/N.UPF
     MD5 check sum: 90d10febe142ad51ac9d5be1deb811c4
     Pseudo is Ultrasoft, Zval =  5.0
     Generated by new atomic code, or converted to UPF format
     Using radial grid of  729 points,  4 beta functions with:
                l(1) =   0
                l(2) =   0
                l(3) =   1
                l(4) =   1
     Q(r) pseudized with  8 coefficients,  rinner =    0.800   0.800   0.800

     atomic species   valence    mass     pseudopotential
        Ti1           12.00    47.86700     Ti( 1.00)
        O1             6.00    15.99900     O ( 1.00)
        C1             4.00    12.01100     C ( 1.00)
        H1             1.00     1.00800     H ( 1.00)
        N1             5.00    14.00700     N ( 1.00)

     No symmetry found

   Cartesian axes

     site n.     atom                  positions (alat units)
         1           Ti1 tau(   1) = (   0.0004258   2.9801865   6.0000000  )
         2           Ti1 tau(   2) = (   3.2906075   1.4906267   6.0002472  )
         3           O1  tau(   3) = (   0.0006271   0.0005054   7.9858123  )
         4           O1  tau(   4) = (   3.2906025   0.0005020   7.3038282  )
         5           O1  tau(   5) = (   4.5942328   1.4918067   9.2879030  )
         6           O1  tau(   6) = (   1.9868534   1.4903216   9.2879459  )
         7           Ti1 tau(   7) = (   3.3158351   2.9795272   9.1571407  )
         8           Ti1 tau(   8) = (   0.0345117   1.4954568   9.2575666  )
         9           O1  tau(   9) = (   3.2804148   0.0005216  11.3961210  )
        10           O1  tau(  10) = (   6.5754384   0.0027490  10.6104223  )
        11           O1  tau(  11) = (   1.2711157   1.5048091  12.6625889  )
        12           O1  tau(  12) = (   5.2819882   1.5086244  12.6575238  )
        13           Ti1 tau(  13) = (   6.5611464   2.9928142  12.4891984  )
        14           Ti1 tau(  14) = (   3.2628853   1.4881963  12.5400211  )
        15           O1  tau(  15) = (   6.5462708   0.0383706  14.6849076  )
        16           O1  tau(  16) = (   3.2762351   0.0314270  14.0210983  )
        17           O1  tau(  17) = (   4.5480503   1.5258664  16.2093047  )
        18           O1  tau(  18) = (   2.0091799   1.5236472  16.2076768  )
        19           Ti1 tau(  19) = (   3.2615833   3.0079505  15.7899682  )
        20           Ti1 tau(  20) = (   6.5461430   1.3591503  15.9841226  )
        21           O1  tau(  21) = (   3.2904802   0.0005063   4.7018136  )
        22           O1  tau(  22) = (   0.0055641   5.9323274  17.2271586  )
        23           O1  tau(  23) = (   1.3043587   1.4918075   6.0039043  )
        24           O1  tau(  24) = (   5.2767064   1.4903225   6.0039473  )
        25           Ti1 tau(  25) = (   0.0000382   5.9609847   6.0000000  )
        26           Ti1 tau(  26) = (   3.2902200   4.4714249   6.0002472  )
        27           O1  tau(  27) = (   0.0002396   2.9813036   7.9858123  )
        28           O1  tau(  28) = (   3.2902150   2.9813002   7.3038282  )
        29           O1  tau(  29) = (   4.5938453   4.4726049   9.2879030  )
        30           O1  tau(  30) = (   1.9864658   4.4711199   9.2879459  )
        31           Ti1 tau(  31) = (   3.3150948   5.9586858   9.1561628  )
        32           Ti1 tau(  32) = (   0.0340967   4.4763829   9.2524718  )
        33           O1  tau(  33) = (   3.2753113   2.9914731  11.3901290  )
        34           O1  tau(  34) = (   6.5780236   2.9893894  10.6266999  )
        35           O1  tau(  35) = (   1.2714098   4.4783180  12.6834591  )
        36           O1  tau(  36) = (   5.2817444   4.4746391  12.6770453  )
        37           Ti1 tau(  37) = (   6.5518553   0.0146490  12.4787168  )
        38           Ti1 tau(  38) = (   3.2609386   4.4666435  12.5436525  )
        39           O1  tau(  39) = (   6.5727554   2.9765611  15.0046942  )
        40           O1  tau(  40) = (   3.2753211   2.9893216  13.9945429  )
        41           O1  tau(  41) = (   4.5407595   4.4795142  16.1711177  )
        42           O1  tau(  42) = (   2.0079144   4.4851887  16.1445895  )
        43           Ti1 tau(  43) = (   3.2645986   0.0272911  15.8248446  )
        44           Ti1 tau(  44) = (   6.5393768   4.6192689  15.8991084  )
        45           O1  tau(  45) = (   3.2900926   2.9813045   4.7018136  )
        46           O1  tau(  46) = (   1.3039711   4.4726057   6.0039043  )
        47           O1  tau(  47) = (   5.2763189   4.4711207   6.0039473  )
        48           C1  tau(  48) = (   0.2825875   3.2559775  19.2685358  )
        49           O1  tau(  49) = (   1.2951032   4.2390751  19.3812768  )
        50           H1  tau(  50) = (   0.6415048   2.3562466  19.7635977  )
        51           H1  tau(  51) = (   0.9956314   5.0335145  18.9054436  )
        52           H1  tau(  52) = (   5.9119845   3.5690521  19.7114027  )
        53           H1  tau(  53) = (   0.0782633   2.9856970  18.2099924  )
        54           N1  tau(  54) = (   2.0079144   3.1851887  18.9445895  )
        55           N1  tau(  55) = (   2.0079144   3.1851887  17.8146095  )

     number of k points=    10  Fermi-Dirac smearing, width (Ry)=  0.0073
                       cart. coord. in units 2pi/alat
        k(    1) = (   0.0000000   0.0000000   0.0000000), wk =   0.1250000
        k(    2) = (   0.0000000   0.0419351   0.0000000), wk =   0.2500000
        k(    3) = (   0.0000000  -0.0838702   0.0000000), wk =   0.1250000
        k(    4) = (   0.0379955   0.0000049   0.0000000), wk =   0.2500000
        k(    5) = (   0.0379955   0.0419400   0.0000000), wk =   0.2500000
        k(    6) = (   0.0379955  -0.0838652   0.0000000), wk =   0.2500000
        k(    7) = (   0.0379955  -0.0419301   0.0000000), wk =   0.2500000
        k(    8) = (  -0.0759910  -0.0000099   0.0000000), wk =   0.1250000
        k(    9) = (  -0.0759910   0.0419252   0.0000000), wk =   0.2500000
[...]
        43           Ti1 tau(  43) = (   3.2298397   0.0050026  15.8300054  )
        44           Ti1 tau(  44) = (   6.5095927   4.6195478  15.9499806  )
        45           O1  tau(  45) = (   3.2900926   2.9813045   4.7018136  )
        46           O1  tau(  46) = (   1.3039711   4.4726057   6.0039043  )
        47           O1  tau(  47) = (   5.2763189   4.4711207   6.0039473  )
        48           C1  tau(  48) = (   0.0861010   3.7319340  19.7050479  )
        49           O1  tau(  49) = (   1.0586996   4.7664684  19.6544317  )
        50           H1  tau(  50) = (   0.4367135   2.9829312  20.4120978  )
        51           H1  tau(  51) = (   0.7511988   5.4160315  18.9979197  )
        52           H1  tau(  52) = (   5.6838011   4.0966030  20.0251736  )
        53           H1  tau(  53) = (   6.5387745   3.2309283  18.7272477  )
        54           N1  tau(  54) = (   3.3091781   1.7229298  20.1440608  )
        55           N1  tau(  55) = (   3.2928680   2.2614772  19.1804080  )

     number of k points=    10  Fermi-Dirac smearing, width (Ry)=  0.0073
                       cart. coord. in units 2pi/alat
        k(    1) = (   0.0000000   0.0000000   0.0000000), wk =   0.1250000
        k(    2) = (   0.0000000   0.0419351   0.0000000), wk =   0.2500000
        k(    3) = (   0.0000000  -0.0838702   0.0000000), wk =   0.1250000
        k(    4) = (   0.0379955   0.0000049   0.0000000), wk =   0.2500000
        k(    5) = (   0.0379955   0.0419400   0.0000000), wk =   0.2500000
        k(    6) = (   0.0379955  -0.0838652   0.0000000), wk =   0.2500000
        k(    7) = (   0.0379955  -0.0419301   0.0000000), wk =   0.2500000
        k(    8) = (  -0.0759910  -0.0000099   0.0000000), wk =   0.1250000
        k(    9) = (  -0.0759910   0.0419252   0.0000000), wk =   0.2500000
        k(   10) = (  -0.0759910  -0.0838800   0.0000000), wk =   0.1250000

     Initial potential from superposition of free atoms

     starting charge  385.99915, renormalised to  402.00000

[...]

     %%%%%%%%%%%%%%%%%%%%%%%%%%%%%%%%%%%%%%%%%%%%%%%%%%%%%%%%%%%%%%%%%%%%%%%%
     %                                                                      %
     % You are using vdW-DF, which was implemented by the Thonhauser group. %
     % Please cite the following two papers that made this development      %
     % possible and the two reviews that describe the various versions:     %
     %                                                                      %
     %   T. Thonhauser et al., PRL 115, 136402 (2015).                      %
     %   T. Thonhauser et al., PRB 76, 125112 (2007).                       %
     %   K. Berland et al., Rep. Prog. Phys. 78, 066501 (2015).             %
     %   D.C. Langreth et al., J. Phys.: Condens. Matter 21, 084203 (2009). %
     %                                                                      %
     %                                                                      %
     % If you are calculating the stress with vdW-DF, please also cite:     %
     %                                                                      %
     %   R. Sabatini et al., J. Phys.: Condens. Matter 24, 424209 (2012).   %
     %                                                                      %
     %%%%%%%%%%%%%%%%%%%%%%%%%%%%%%%%%%%%%%%%%%%%%%%%%%%%%%%%%%%%%%%%%%%%%%%%

[...]

     Starting wfcs are  304 atomic wfcs
  @ DRIVER MODE: Message from server: STATUS
  @ DRIVER MODE: Message from server: POSDATA
  @ DRIVER MODE: Reading and sharing cell
  @ DRIVER MODE: Reading and sharing positions
  @ DRIVER MODE: Received positions

     Self-consistent Calculation

[...]

     iteration # 57     ecut=    29.40 Ry     beta= 0.05
     Davidson diagonalization with overlap
     c_bands:  1 eigenvalues not converged
     ethr =  1.55E-10,  avg # of iterations = 14.1

[...]

     total energy              =   -2972.78647920 Ry
     estimated scf accuracy    <       0.00000019 Ry

     iteration # 62     ecut=    29.40 Ry     beta= 0.05
     Davidson diagonalization with overlap
     ethr =  4.65E-11,  avg # of iterations =  9.0

[...]

     End of self-consistent calculation

[...]

          k = 0.0380-0.0419 0.0000 ( 17876 PWs)   bands (ev):

[...]

          k =-0.0760-0.0839 0.0000 ( 17948 PWs)   bands (ev):

   -55.8585 -55.8557 -55.8100 -55.8093 -55.7504 -55.7294 -55.7271 -55.7038
   -55.7024 -55.6999 -55.6995 -55.6473 -55.6369 -55.6357 -54.9195 -54.9194
   -32.3253 -32.2414 -32.2391 -32.1436 -32.1430 -32.1383 -32.1276 -32.1026
   -32.1019 -32.0747 -32.0710 -32.0676 -32.0642 -32.0234 -32.0216 -32.0192
   -32.0183 -32.0173 -32.0054 -31.9959 -31.9926 -31.9898 -31.9872 -31.9631
   -31.9615 -31.9531 -31.9525 -31.9463 -31.9281 -31.9274 -31.9222 -31.9190
   -31.9002 -31.8990 -31.8793 -31.8767 -31.8698 -31.8678 -31.8460 -31.8340
   -31.8215 -31.8205 -31.2363 -31.2362 -31.1620 -31.1619 -31.1221 -31.1220
   -20.7217 -17.6780 -16.4227 -16.0426 -16.0224 -15.9396 -15.9215 -15.8179
   -15.8059 -15.7244 -15.6713 -15.6489 -15.6484 -15.6088 -15.5671 -15.5624
   -15.5539 -15.4966 -15.4807 -15.4511 -15.4470 -15.3967 -15.3931 -15.3918
   -15.3890 -15.3568 -15.3524 -15.3125 -15.3090 -15.2353 -15.0934 -13.4192
   -13.4192  -9.2110  -5.9479  -4.7808  -3.8818  -3.8638  -3.4341  -3.3109
    -3.2764  -3.1642  -3.1143  -3.0734  -3.0415  -2.9992  -2.9930  -2.9182
    -2.8735  -2.8715  -2.7909  -2.7783  -2.7706  -2.7696  -2.7221  -2.6898
    -2.6776  -2.6654  -2.6452  -2.6333  -2.6083  -2.5886  -2.5785  -2.5753
    -2.5476  -2.5383  -2.5328  -2.5168  -2.4899  -2.4662  -2.4520  -2.4215
    -2.2765  -2.2660  -2.1571  -2.1177  -2.1121  -2.0330  -2.0278  -1.9885
    -1.9503  -1.9004  -1.8580  -1.6983  -1.6756  -1.6748  -1.6154  -1.5749
    -1.5116  -1.4453  -1.4328  -1.3926  -1.3445  -1.1923  -1.1892  -1.1590
    -1.0803  -1.0666  -0.9863  -0.9218  -0.8834  -0.8669  -0.8652  -0.8378
    -0.8287  -0.7946  -0.7145  -0.6694  -0.6288  -0.6150  -0.5938  -0.4829
    -0.3887  -0.3421  -0.3207  -0.2109  -0.1035   0.0256   0.0295   0.1009
     0.1887   0.2032   0.2201   0.2392   0.3698   0.3778   0.4446   0.4894
     0.4924   0.5377   0.5419   1.4272   1.4382   1.4383   1.5458   1.5459
     3.3920   3.4612   3.4965   3.5279   3.6665   3.6775   3.7269   3.7712
     3.7778   3.7946   3.8514

     the Fermi energy is     3.2860 ev

!    total energy              =   -2972.78651610 Ry
     estimated scf accuracy    <       0.00000004 Ry
     smearing contrib. (-TS)   =      -0.03673401 Ry
     internal energy E=F+TS    =   -2972.74978209 Ry

     The total energy is F=E-TS. E is the sum of the following terms:
     one-electron contribution =  -22404.34283299 Ry
     hartree contribution      =   11292.41492097 Ry
     xc contribution           =    -493.16476136 Ry
     ewald contribution        =    8632.34271893 Ry
     electric field correction =       0.00017237 Ry

     convergence has been achieved in  62 iterations

     Forces acting on atoms (cartesian axes, Ry/au):

     atom    1 type  1   force =    -0.00002209   -0.00005235    0.09006818
     atom    2 type  1   force =    -0.00014172   -0.00014796   -0.18416663
     atom    3 type  2   force =     0.00023567    0.00016930   -0.02362588
     atom    4 type  2   force =     0.00053448   -0.00033335    0.05337853
     atom    5 type  2   force =    -0.01435960   -0.00031708    0.00678611
     atom    6 type  2   force =     0.01287264    0.00060231    0.00555677
     atom    7 type  1   force =    -0.00053454   -0.00080757   -0.00006057
     atom    8 type  1   force =     0.00077897   -0.00107699    0.00012426
     atom    9 type  2   force =    -0.00008131   -0.00007141   -0.00061950
     atom   10 type  2   force =    -0.00017873   -0.00002850    0.00042424
     atom   11 type  2   force =    -0.00057931    0.00029544   -0.00026220
     atom   12 type  2   force =     0.00047907    0.00039311   -0.00009325
     atom   13 type  1   force =    -0.00009729    0.00057167   -0.00039003
     atom   14 type  1   force =    -0.00007666    0.00040717    0.00056137
     atom   15 type  2   force =     0.00051081   -0.00027021    0.00011862
     atom   16 type  2   force =     0.00007319   -0.00008454    0.00023956
     atom   17 type  2   force =     0.00020654   -0.00001124   -0.00000444
     atom   18 type  2   force =    -0.00022711    0.00015344    0.00000149
     atom   19 type  1   force =     0.00111330   -0.00057874    0.00067793
     atom   20 type  1   force =    -0.00022253    0.00014247   -0.00006973
     atom   21 type  2   force =     0.00005653    0.00005123    0.10526511
     atom   22 type  2   force =     0.00059041   -0.00015475   -0.00009848
     atom   23 type  2   force =    -0.06770360   -0.00017986   -0.02603992
     atom   24 type  2   force =     0.06756889    0.00020893   -0.02610696
     atom   25 type  1   force =    -0.00009562   -0.00001104    0.08941724
     atom   26 type  1   force =    -0.00016021   -0.00010129   -0.18419006
     atom   27 type  2   force =     0.00022345    0.00038535   -0.02266924
     atom   28 type  2   force =     0.00023882   -0.00020910    0.05282020
     atom   29 type  2   force =    -0.01418101   -0.00042338    0.00691418
     atom   30 type  2   force =     0.01300223    0.00023502    0.00568925
     atom   31 type  1   force =    -0.00069178    0.00102354   -0.00086830
     atom   32 type  1   force =     0.00068815    0.00086650    0.00010832
     atom   33 type  2   force =     0.00017205   -0.00007980   -0.00000078
     atom   34 type  2   force =    -0.00014040    0.00003952    0.00039686
     atom   35 type  2   force =    -0.00023462   -0.00035454   -0.00013522
     atom   36 type  2   force =     0.00052699   -0.00038388   -0.00023288
     atom   37 type  1   force =    -0.00089908   -0.00036804   -0.00069767
     atom   38 type  1   force =     0.00009443   -0.00011381    0.00067029
     atom   39 type  2   force =    -0.00008272    0.00001516    0.00001009
     atom   40 type  2   force =    -0.00054485    0.00013859   -0.00053293
     atom   41 type  2   force =    -0.00009302    0.00012990   -0.00033644
     atom   42 type  2   force =     0.00036617   -0.00002188    0.00051497
     atom   43 type  1   force =     0.00065441    0.00068767   -0.00009452
     atom   44 type  1   force =    -0.00018226   -0.00020856   -0.00037457
     atom   45 type  2   force =     0.00004213    0.00004482    0.10523900
     atom   46 type  2   force =    -0.06770208   -0.00022657   -0.02603276
     atom   47 type  2   force =     0.06755232    0.00024937   -0.02609055
     atom   48 type  3   force =    -0.00124968    0.00044668   -0.00069764
     atom   49 type  2   force =    -0.00001194    0.00058603   -0.00000987
     atom   50 type  4   force =    -0.00019263   -0.00052922    0.00095748
     atom   51 type  4   force =     0.00061245   -0.00003379   -0.00038959
     atom   52 type  4   force =     0.00081811   -0.00003818   -0.00057745
     atom   53 type  4   force =     0.00040514   -0.00064645    0.00018250
     atom   54 type  5   force =     0.00001011   -0.00075283    0.00099370
     atom   55 type  5   force =     0.00025894    0.00077371   -0.00164820

     Total force =     0.367098     Total SCF correction =     0.000746
  @ DRIVER MODE: Message from server: STATUS
  @ DRIVER MODE: Message from server: GETFORCE
  @ DRIVER MODE: Returning v,forces,stress,ensemble

     Writing config to output data dir ./calc.save/
  @ DRIVER MODE: Message from server: STATUS
  @ DRIVER MODE: Message from server: INIT
  @ DRIVER MODE: Receiving replica           0           0
  @ DRIVER MODE: Receiving encoded integer           2
  @ DRIVER MODE:  SCF:  T  FORCE:  T  STRESS:  F  VC:  F  ENSEMBLE:  F
  @ DRIVER MODE:  SCF:  F  FORCE:  F  STRESS:  F  VC:  F  ENSEMBLE:  T
  @ DRIVER MODE: Message from server: STATUS
  @ DRIVER MODE: Message from server: POSDATA
  @ DRIVER MODE: Reading and sharing positions
  @ DRIVER MODE: Received positions
     NEW-OLD atomic charge density approx. for the potential

[...]

     Adding external electric field

     Computed dipole along edir(3) :
        Dipole                0.3022 Ry au,          0.7682 Debye
        Dipole field          0.0006 Ry au,

        Potential amp.       -0.0529 Ry
        Total length         46.3494 bohr

  @ DRIVER MODE: BEEF-vdw

[...]

     negative rho (up, down):  1.365E-02 0.000E+00

     negative rho (up, down):  1.365E-02 0.000E+00
 BEEFens 2000 ensemble energies
             -0.354093662845660E+02
             -0.203337211286674E+01
             -0.731317567211878E+01
              0.245577208799236E+02
             -0.121776670309963E+02
             -0.942055019012915E+01
             -0.246147071661609E+02
             -0.514258496383930E+02
             -0.219608586851911E+02
             -0.230714037420463E+02
             -0.213574055848137E+02
              0.430851793624219E+01
              0.202968394555860E+01
             -0.107783688543810E+01
              0.178148100366023E+01
              0.270415105860614E+02
             -0.104793463598615E+02
             -0.738343680090023E+01
              0.119358191738261E+02
             -0.632433872420531E+02
              0.316552546525141E+02
             -0.135336407215986E+02
             -0.247926075130892E+01
             -0.572719968025878E+01
             -0.944392432252357E+00
             -0.222510846454945E+01
              0.490801691270465E+02
             -0.152411659573945E+02
             -0.416176432617357E+01
             -0.309836334118433E+02
              0.400880972609398E+02
             -0.445636451599513E+01
             -0.218142896680602E+02
              0.114714580618671E+02
             -0.208840311068604E+01
              0.132624036362926E+02
             -0.554214019957726E+00
              0.279337165189955E+01
              0.192885426092621E+02
             -0.558586085483199E+02
              0.311271323846990E+02
              0.828043802522643E+01
             -0.637255166505125E+01
             -0.178623305501681E+02
              0.703553360258675E+01
             -0.111490593449209E+02
              0.254258431542536E+02
              0.203008349295127E+02
             -0.130783058534331E+02
             -0.166907728917373E+02
             -0.175991292059326E+02
             -0.212372791740665E+02
              0.107734912159758E+02
             -0.277110524014532E+02
              0.849393511546657E+01
              0.353435656212232E+02
              0.407077559896080E+02
              0.189929739362447E+02
              0.854880747905517E+01
              0.177185478816736E+02
[...]
             -0.416441405053188E+02
              0.282992094576110E+01
             -0.141364852496930E+01
             -0.580915073148753E+01
              0.558031609641603E-01
             -0.370804950233187E+02
             -0.717315848603170E+01
              0.506962252490460E+01
              0.754478056105296E+01
              0.277792391188908E+02
             -0.242560926379046E+02
              0.317496653804970E+02
             -0.227034742791809E+02
              0.145955805812140E+02
              0.229744555367453E+02

 BEEF-vdW xc energy contributions
           1 :   -417.700495303460
           2 :    363.528429062118
           3 :   -276.531412981350
           4 :    186.204749910936
           5 :   -115.463020649802
           6 :    73.0775007966554
           7 :   -55.1261794438435
           8 :    51.5720452996734
           9 :   -53.0144823043874
          10 :    54.2018281408411
          11 :   -53.8369814899269
          12 :    52.3853365306805
          13 :   -50.1916361953066
          14 :    46.9812061706489
          15 :   -42.4221968566623
          16 :    36.7705317577839
          17 :   -30.9865864080849
          18 :    26.2841512962883
          19 :   -23.5105396951088
          20 :    22.7792627853646
          21 :   -23.5629416508975
          22 :    25.0760640402563
          23 :   -26.6174619389258
          24 :    27.6732958991779
          25 :   -27.8917311341202
          26 :    27.0856083417137
          27 :   -25.2778195480604
          28 :    22.7240201455947
          29 :   -19.8906558725187
          30 :    17.3599066568645
          31 :   -49.1570971516982
          32 :   -33.3100219405403
  @ DRIVER MODE: Message from server: STATUS
  @ DRIVER MODE: Message from server: GETFORCE
  @ DRIVER MODE: Returning v,forces,stress,ensemble
  @ DRIVE MODE: Returning Ensemble Energies

     Writing config to output data dir ./calc.save/
  @ DRIVER MODE: Message from server: EXIT
  @ DRIVE MODE: Exiting

     General routines

     Parallel routines

   This run was terminated on:  23:48:43  30Aug2021

   JOB DONE.