     Program PWSCF v.6.7GPU starts on 22Sep2021 at 22:45:54

     R & G space division:  proc/nbgrp/npool/nimage =      10
     Reading input from /storage/home/hcoda1/3/ntian30/research/carbon/CxH_vib/H2O_calc/ads_slab/CHNHHO_a/out_0021/pw.inp
Warning: card &CELL ignored
Warning: card   CELL_DYNAMICS='IPI', ignored
Warning: card / ignored

     Current dimensions of program PWSCF are:
     Max number of different atomic species (ntypx) = 10
     Max number of k-points (npk) =  40000
     Max angular momentum in pseudopotentials (lmaxx) =  3
     Presently no symmetry can be used with electric field

     Message from routine cell_base_init:
     DEPRECATED: use true lattice parameter, not A to a.u. conversion factor

     IMPORTANT: XC functional enforced from input :
     Exchange-correlation= BEEF-VDW
                           (   1   4  43  14   2   0   0)
     Any further DFT definition will be discarded
     Please, verify this is what you really want

  @ DRIVER MODE: Connecting to
 qe_1139763_2937314.sched-torque.pace.gatech.edu5k6nsw7d_scratch
  using UNIX socket
  @ DRIVER MODE: Message from server: STATUS
  @ DRIVER MODE: Message from server: INIT
  @ DRIVER MODE: Receiving replica           0          -1
  @ DRIVER MODE: Receiving encoded integer          25
  @ DRIVER MODE:  SCF:  T  FORCE:  T  STRESS:  F  VC:  F  ENSEMBLE:  F
  @ DRIVER MODE:  SCF:  T  FORCE:  T  STRESS:  F  VC:  F  ENSEMBLE:  F

     Using Slab Decomposition

     bravais-lattice index     =            0
     lattice parameter (alat)  =       1.8897  a.u.
     unit-cell volume          =    6658.9804 (a.u.)^3
     number of atoms/cell      =           53
     number of atomic types    =            5
     number of electrons       =       396.00
     number of Kohn-Sham states=          208
     kinetic-energy cutoff     =      29.3995  Ry
     charge density cutoff     =     293.9946  Ry
     scf convergence threshold =      7.3E-08
     mixing beta               =       0.0500
     number of iterations used =            8  plain     mixing
     Exchange-correlation= BEEF-VDW
                           (   1   4  43  14   2   0   0)

     celldm(1)=   1.889726  celldm(2)=   0.000000  celldm(3)=   0.000000
     celldm(4)=   0.000000  celldm(5)=   0.000000  celldm(6)=   0.000000

     crystal axes: (cart. coord. in units of alat)
               a(1) = (   6.579727   0.000000   0.000000 )
               a(2) = (  -0.000775   5.961596   0.000000 )
               a(3) = (   0.000000   0.000000  25.155947 )

     reciprocal axes: (cart. coord. in units 2 pi/alat)
               b(1) = (  0.151982  0.000020  0.000000 )
               b(2) = (  0.000000  0.167740  0.000000 )
               b(3) = (  0.000000  0.000000  0.039752 )

     PseudoPot. # 1 for Ti read from file:
     /storage/coda1/p-amedford6/0/shared/rich_project_chbe-medford/medford-share/data/pseudos_module/espresso/nninc/pbe/van/Ti.UPF
     MD5 check sum: 8e4df49b7f0d34bbd5052bf3f5ea0213
     Pseudo is Ultrasoft, Zval = 12.0
     Generated by new atomic code, or converted to UPF format
     Using radial grid of  851 points,  6 beta functions with:
                l(1) =   0
                l(2) =   0
                l(3) =   1
                l(4) =   1
                l(5) =   2
                l(6) =   2
     Q(r) pseudized with  8 coefficients,  rinner =    1.000   1.000   1.000
                                                       1.000   1.000

     PseudoPot. # 2 for O  read from file:
     /storage/coda1/p-amedford6/0/shared/rich_project_chbe-medford/medford-share/data/pseudos_module/espresso/nninc/pbe/van/O.UPF
     MD5 check sum: 78c19812648e8988a0fe644b0f25305e
     Pseudo is Ultrasoft, Zval =  6.0
     Generated by new atomic code, or converted to UPF format
     Using radial grid of  737 points,  4 beta functions with:
                l(1) =   0
                l(2) =   0
                l(3) =   1
                l(4) =   1
     Q(r) pseudized with  8 coefficients,  rinner =    0.800   0.800   0.800

     PseudoPot. # 3 for N  read from file:
     /storage/coda1/p-amedford6/0/shared/rich_project_chbe-medford/medford-share/data/pseudos_module/espresso/nninc/pbe/van/N.UPF
     MD5 check sum: 90d10febe142ad51ac9d5be1deb811c4
     Pseudo is Ultrasoft, Zval =  5.0
     Generated by new atomic code, or converted to UPF format
     Using radial grid of  729 points,  4 beta functions with:
                l(1) =   0
                l(2) =   0
                l(3) =   1
                l(4) =   1
     Q(r) pseudized with  8 coefficients,  rinner =    0.800   0.800   0.800

     PseudoPot. # 4 for C  read from file:
     /storage/coda1/p-amedford6/0/shared/rich_project_chbe-medford/medford-share/data/pseudos_module/espresso/nninc/pbe/van/C.UPF
     MD5 check sum: 1a69bf6b8db32088f5b2163dbdb77a27
     Pseudo is Ultrasoft, Zval =  4.0
     Generated by new atomic code, or converted to UPF format
     Using radial grid of  721 points,  4 beta functions with:
                l(1) =   0
                l(2) =   0
                l(3) =   1
                l(4) =   1
     Q(r) pseudized with  8 coefficients,  rinner =    0.800   0.800   0.800

     PseudoPot. # 5 for H  read from file:
     /storage/coda1/p-amedford6/0/shared/rich_project_chbe-medford/medford-share/data/pseudos_module/espresso/nninc/pbe/van/H.UPF
     MD5 check sum: b5ee9d7bfd3a09ee7748110bda690ff7
     Pseudo is Ultrasoft, Zval =  1.0
     Generated by new atomic code, or converted to UPF format
     Using radial grid of  615 points,  1 beta functions with:
                l(1) =   0
     Q(r) pseudized with  8 coefficients,  rinner =    0.800

     atomic species   valence    mass     pseudopotential
        Ti1           12.00    47.86700     Ti( 1.00)
        O1             6.00    15.99900     O ( 1.00)
        N1             5.00    14.00700     N ( 1.00)
        C1             4.00    12.01100     C ( 1.00)
        H1             1.00     1.00800     H ( 1.00)

     No symmetry found

   Cartesian axes

     site n.     atom                  positions (alat units)
         1           Ti1 tau(   1) = (   0.0004258   2.9801865   6.0000000  )
         2           Ti1 tau(   2) = (   3.2906075   1.4906267   6.0002472  )
         3           O1  tau(   3) = (   0.0006271   0.0005054   7.9858123  )
         4           O1  tau(   4) = (   3.2906025   0.0005020   7.3038282  )
         5           O1  tau(   5) = (   4.5942328   1.4918067   9.2879030  )
         6           O1  tau(   6) = (   1.9868534   1.4903216   9.2879459  )
         7           Ti1 tau(   7) = (   3.2907910   2.8959150   9.1758416  )
         8           Ti1 tau(   8) = (   0.0015273   1.4827037   9.2680791  )
         9           O1  tau(   9) = (   3.2817170   5.9459930  11.3074998  )
        10           O1  tau(  10) = (   0.0116148   5.9584955  10.6183126  )
        11           O1  tau(  11) = (   1.2737360   1.4926482  12.6406718  )
        12           O1  tau(  12) = (   5.2902952   1.4950437  12.6299455  )
        13           Ti1 tau(  13) = (   6.5743562   2.8588748  12.6391164  )
        14           Ti1 tau(  14) = (   3.2840152   1.3010445  12.6757008  )
        15           O1  tau(  15) = (   6.5722207   0.0022838  14.6395268  )
        16           O1  tau(  16) = (   3.2882888   0.0547267  13.9272720  )
        17           O1  tau(  17) = (   4.5277618   1.5549090  16.0796657  )
        18           O1  tau(  18) = (   1.9889223   1.5445724  16.0964948  )
        19           Ti1 tau(  19) = (   3.2710169   3.0098750  15.6493427  )
        20           Ti1 tau(  20) = (   0.0212523   1.3583160  16.0154628  )
        21           O1  tau(  21) = (   3.2904802   0.0005063   4.7018136  )
        22           O1  tau(  22) = (   6.5278121   5.9442159  17.1408904  )
        23           O1  tau(  23) = (   1.3043587   1.4918075   6.0039043  )
        24           O1  tau(  24) = (   5.2767064   1.4903225   6.0039473  )
        25           Ti1 tau(  25) = (   0.0000382   5.9609847   6.0000000  )
        26           Ti1 tau(  26) = (   3.2902200   4.4714249   6.0002472  )
        27           O1  tau(  27) = (   0.0002396   2.9813036   7.9858123  )
        28           O1  tau(  28) = (   3.2902150   2.9813002   7.3038282  )
        29           O1  tau(  29) = (   4.5938453   4.4726049   9.2879030  )
        30           O1  tau(  30) = (   1.9864658   4.4711199   9.2879459  )
        31           Ti1 tau(  31) = (   3.2891106   5.8743827   9.1763621  )
        32           Ti1 tau(  32) = (   0.0006254   4.4649316   9.2693709  )
        33           O1  tau(  33) = (   3.2809651   3.0158959  11.2742024  )
        34           O1  tau(  34) = (   0.0092240   2.9805883  10.6323155  )
        35           O1  tau(  35) = (   1.2801966   4.4796301  12.6363892  )
        36           O1  tau(  36) = (   5.2833020   4.4787161  12.6245292  )
        37           Ti1 tau(  37) = (   6.5725262   5.8449372  12.5269696  )
        38           Ti1 tau(  38) = (   3.2830651   4.3950422  12.4122791  )
        39           O1  tau(  39) = (   6.5612936   2.9998473  14.7091997  )
        40           O1  tau(  40) = (   3.2734765   2.9867355  13.8776313  )
        41           O1  tau(  41) = (   4.5260587   4.4294304  16.0527172  )
        42           O1  tau(  42) = (   1.9919704   4.4458081  16.0639873  )
        43           Ti1 tau(  43) = (   3.3135318   0.0270965  16.3071496  )
        44           Ti1 tau(  44) = (   0.0294795   4.5257316  15.8201724  )
        45           O1  tau(  45) = (   3.2900926   2.9813045   4.7018136  )
        46           O1  tau(  46) = (   1.3039711   4.4726057   6.0039043  )
        47           O1  tau(  47) = (   5.2763189   4.4711207   6.0039473  )
        48           N1  tau(  48) = (   6.4282372   2.9740631  17.7102171  )
        49           C1  tau(  49) = (   0.6535733   3.0176064  18.7020832  )
        50           H1  tau(  50) = (   1.7291544   2.9413089  18.4820742  )
        51           H1  tau(  51) = (   5.4410488   3.0479230  17.9716058  )
        52           O1  tau(  52) = (   3.3635319   0.0010587  18.1193045  )
        53           H1  tau(  53) = (   4.1580425   0.0400832  18.6733683  )

     number of k points=    10  Fermi-Dirac smearing, width (Ry)=  0.0073
                       cart. coord. in units 2pi/alat
        k(    1) = (   0.0000000   0.0000000   0.0000000), wk =   0.1250000
        k(    2) = (   0.0000000   0.0419351   0.0000000), wk =   0.2500000
        k(    3) = (   0.0000000  -0.0838702   0.0000000), wk =   0.1250000
        k(    4) = (   0.0379955   0.0000049   0.0000000), wk =   0.2500000
        k(    5) = (   0.0379955   0.0419400   0.0000000), wk =   0.2500000
        k(    6) = (   0.0379955  -0.0838652   0.0000000), wk =   0.2500000
        k(    7) = (   0.0379955  -0.0419301   0.0000000), wk =   0.2500000
        k(    8) = (  -0.0759910  -0.0000099   0.0000000), wk =   0.1250000
        k(    9) = (  -0.0759910   0.0419252   0.0000000), wk =   0.2500000
        k(   10) = (  -0.0759910  -0.0838800   0.0000000), wk =   0.1250000

     Initial potential from superposition of free atoms

     starting charge  379.99917, renormalised to  396.00000

     negative rho (up, down):  1.778E-02 0.000E+00

     %%%%%%%%%%%%%%%%%%%%%%%%%%%%%%%%%%%%%%%%%%%%%%%%%%%%%%%%%%%%%%%%%%%%%%%%
     %                                                                      %
     % You are using vdW-DF, which was implemented by the Thonhauser group. %
     % Please cite the following two papers that made this development      %
     % possible and the two reviews that describe the various versions:     %
     %                                                                      %
     %   T. Thonhauser et al., PRL 115, 136402 (2015).                      %
     %   T. Thonhauser et al., PRB 76, 125112 (2007).                       %
     %   K. Berland et al., Rep. Prog. Phys. 78, 066501 (2015).             %
     %   D.C. Langreth et al., J. Phys.: Condens. Matter 21, 084203 (2009). %
     %                                                                      %
     %                                                                      %
     % If you are calculating the stress with vdW-DF, please also cite:     %
     %                                                                      %
     %   R. Sabatini et al., J. Phys.: Condens. Matter 24, 424209 (2012).   %
     %                                                                      %
     %%%%%%%%%%%%%%%%%%%%%%%%%%%%%%%%%%%%%%%%%%%%%%%%%%%%%%%%%%%%%%%%%%%%%%%%

     Adding external electric field

     Computed dipole along edir(3) :
        Dipole               -8.0653 Ry au,        -20.5000 Debye
        Dipole field         -0.0152 Ry au,

        Potential amp.        1.4109 Ry
        Total length         46.3494 bohr

     Starting wfcs are  299 atomic wfcs
  @ DRIVER MODE: Message from server: STATUS
  @ DRIVER MODE: Message from server: POSDATA
  @ DRIVER MODE: Reading and sharing cell
  @ DRIVER MODE: Reading and sharing positions
  @ DRIVER MODE: Received positions

     Self-consistent Calculation

     iteration #  1     ecut=    29.40 Ry     beta= 0.05
     Davidson diagonalization with overlap
     c_bands:  1 eigenvalues not converged
     c_bands:  1 eigenvalues not converged
     c_bands:  3 eigenvalues not converged
     c_bands:  1 eigenvalues not converged
     c_bands:  1 eigenvalues not converged
     c_bands:  1 eigenvalues not converged
     ethr =  1.00E-05,  avg # of iterations = 18.6

[...]

     total energy              =   -2618.22991235 Ry
     estimated scf accuracy    <    3681.39161660 Ry

     iteration #  2     ecut=    29.40 Ry     beta= 0.05
     Davidson diagonalization with overlap
     ethr =  1.00E-02,  avg # of iterations = 21.7

[...]

     iteration # 46     ecut=    29.40 Ry     beta= 0.05
     Davidson diagonalization with overlap
     c_bands:  1 eigenvalues not converged
     c_bands:  1 eigenvalues not converged
     ethr =  4.63E-08,  avg # of iterations = 10.9

[...]

     total energy              =   -2951.37646967 Ry
     estimated scf accuracy    <       0.00000011 Ry

     iteration # 70     ecut=    29.40 Ry     beta= 0.05
     Davidson diagonalization with overlap
     ethr =  2.67E-11,  avg # of iterations =  4.9

     negative rho (up, down):  1.666E-02 0.000E+00

     Adding external electric field

     Computed dipole along edir(3) :
        Dipole                0.1810 Ry au,          0.4600 Debye
        Dipole field          0.0003 Ry au,

        Potential amp.       -0.0317 Ry
        Total length         46.3494 bohr

     End of self-consistent calculation

          k = 0.0000 0.0000 0.0000 ( 18029 PWs)   bands (ev):

   -56.4280 -56.3940 -56.1527 -56.1499 -56.1161 -55.9504 -55.8973 -55.8636
   -55.8580 -55.8518 -55.8166 -55.7247 -55.6735 -55.5328 -55.2791 -55.2451
   -32.8923 -32.7221 -32.7018 -32.6229 -32.5822 -32.5156 -32.4887 -32.4465
   -32.4341 -32.4228 -32.3723 -32.3678 -32.3657 -32.3628 -32.3530 -32.3104
   -32.2887 -32.2652 -32.2551 -32.1795 -32.1668 -32.1583 -32.1452 -32.1224
   -32.1069 -32.1014 -32.0985 -32.0666 -32.0647 -32.0574 -32.0367 -32.0167
   -31.9998 -31.9777 -31.9681 -31.9581 -31.9431 -31.8702 -31.8687 -31.7921
   -31.7632 -31.7446 -31.6794 -31.6072 -31.5840 -31.4977 -31.4123 -31.3002
   -16.9175 -16.8247 -16.5934 -16.4404 -16.2735 -16.1823 -16.0534 -16.0292
   -15.9228 -15.9012 -15.8144 -15.7808 -15.7418 -15.6671 -15.6100 -15.5875
   -15.5543 -15.5246 -15.5158 -15.5112 -15.5017 -15.4939 -15.4556 -15.3376
   -15.2969 -15.2462 -15.2336 -15.2194 -15.0879 -14.8302 -14.7859 -13.7764
   -13.6625  -8.2114  -4.6857  -4.2797  -4.2195  -4.1214  -3.9443  -3.8882
    -3.8284  -3.6011  -3.5540  -3.5519  -3.3579  -3.2978  -3.2038  -3.1612
    -3.1461  -3.1007  -3.0293  -3.0182  -2.9866  -2.8987  -2.8573  -2.8507
    -2.8252  -2.7793  -2.7689  -2.6886  -2.6450  -2.6224  -2.5541  -2.5050
    -2.4732  -2.4587  -2.4346  -2.4240  -2.3827  -2.3698  -2.3483  -2.2006
    -2.1840  -2.1621  -2.0850  -2.0095  -1.8549  -1.7734  -1.7625  -1.6640
    -1.5861  -1.5729  -1.5230  -1.4736  -1.3877  -1.3734  -1.3670  -1.3285
    -1.2435  -1.2232  -1.1792  -1.1274  -1.0529  -0.9641  -0.9585  -0.9083
    -0.8741  -0.8096  -0.7219  -0.6876  -0.6283  -0.5867  -0.5557  -0.4826
    -0.4333  -0.4069  -0.3838  -0.3729  -0.3123  -0.2512  -0.2044  -0.1780
    -0.1080  -0.0962  -0.0531   0.0121   0.0338   0.0412   0.1600   0.2026
     0.2155   0.2657   0.3779   0.4354   0.5213   0.5819   0.6528   0.7469
     0.7535   0.9611   1.0693   1.3012   1.3416   2.5795   2.7610   2.8827
     2.9517   3.1530   3.1998   3.2356   3.5085   3.5254   3.5336   3.6147

[...]

          k = 0.0380-0.0419 0.0000 ( 17876 PWs)   bands (ev):

[...]

          k =-0.0760-0.0000 0.0000 ( 17886 PWs)   bands (ev):

[...]

          k =-0.0760-0.0839 0.0000 ( 17948 PWs)   bands (ev):

   -56.4114 -56.4104 -56.1521 -56.1347 -56.1311 -55.9443 -55.9033 -55.8608
   -55.8590 -55.8386 -55.8297 -55.7267 -55.6716 -55.5347 -55.2626 -55.2615
   -32.7089 -32.7086 -32.7069 -32.7065 -32.5341 -32.5328 -32.4547 -32.4500
   -32.4243 -32.3813 -32.3697 -32.3427 -32.3380 -32.3268 -32.3204 -32.2856
   -32.2469 -32.2422 -32.2173 -32.1712 -32.1693 -32.1679 -32.1649 -32.1533
   -32.1292 -32.1221 -32.1204 -32.0728 -32.0696 -32.0635 -32.0616 -32.0599
   -32.0450 -32.0101 -31.9875 -31.9623 -31.9495 -31.9350 -31.8816 -31.8743
   -31.7947 -31.7482 -31.5973 -31.5965 -31.4938 -31.4925 -31.4555 -31.4546
   -16.9025 -16.2445 -16.2195 -16.1254 -16.0954 -16.0739 -16.0519 -16.0311
   -15.8936 -15.8842 -15.8706 -15.8023 -15.7514 -15.7322 -15.6970 -15.6923
   -15.6373 -15.6231 -15.6101 -15.5579 -15.5492 -15.5295 -15.5153 -15.4799
   -15.4491 -15.4212 -15.2559 -15.2015 -15.1462 -15.1195 -14.9187 -13.7654
   -13.7647  -8.2229  -4.6775  -4.1105  -3.5215  -3.4894  -3.3693  -3.3570
    -3.2309  -3.2258  -3.1478  -3.0742  -3.0738  -2.9986  -2.9845  -2.9766
    -2.9372  -2.9199  -2.9123  -2.9116  -2.8703  -2.8608  -2.8400  -2.8227
    -2.8197  -2.8040  -2.7653  -2.7244  -2.7029  -2.6905  -2.6360  -2.6226
    -2.5006  -2.4368  -2.4111  -2.4107  -2.3872  -2.3505  -2.3202  -2.3034
    -2.2744  -2.2356  -2.1581  -2.0371  -2.0164  -1.8202  -1.8026  -1.7717
    -1.7508  -1.7057  -1.6998  -1.6342  -1.5840  -1.5693  -1.5522  -1.5272
    -1.4263  -1.3751  -1.3250  -1.3223  -1.2709  -1.2510  -1.2025  -1.1008
    -1.0517  -1.0219  -0.9956  -0.9827  -0.9448  -0.9190  -0.8659  -0.8253
    -0.8208  -0.7936  -0.7507  -0.5817  -0.4113  -0.3681  -0.3465  -0.2753
    -0.2602  -0.2105  -0.0770  -0.0314  -0.0211   0.0154   0.0553   0.0853
     0.0988   0.1613   0.3442   0.3589   0.4273   0.4747   0.4809   0.5684
     0.6645   1.1257   1.1334   1.1604   1.1612   2.6082   3.3058   3.3078
     3.3096   3.3261   3.4058   3.4672   3.4760   3.5135   3.5921   3.6315

     the Fermi energy is     2.7246 ev

!    total energy              =   -2951.37648613 Ry
     estimated scf accuracy    <       0.00000005 Ry
     smearing contrib. (-TS)   =      -0.01731207 Ry
     internal energy E=F+TS    =   -2951.35917407 Ry

     The total energy is F=E-TS. E is the sum of the following terms:
     one-electron contribution =  -24273.32820695 Ry
     hartree contribution      =   12222.70405898 Ry
     xc contribution           =    -487.04637801 Ry
     ewald contribution        =    9586.31129009 Ry
     electric field correction =       0.00006182 Ry

     convergence has been achieved in  70 iterations

     Forces acting on atoms (cartesian axes, Ry/au):

     atom    1 type  1   force =     0.00006375   -0.00028790    0.10084586
     atom    2 type  1   force =    -0.00005459    0.00024503   -0.16923244
     atom    3 type  2   force =     0.00000619   -0.00004464   -0.02993714
     atom    4 type  2   force =     0.00000115   -0.00099271    0.04189066
     atom    5 type  2   force =    -0.00519522   -0.00241656   -0.00304272
     atom    6 type  2   force =     0.00634586   -0.00183463   -0.00465249
     atom    7 type  1   force =    -0.00066118   -0.00537262    0.02534242
     atom    8 type  1   force =     0.00077938    0.01604775    0.04134213
     atom    9 type  2   force =    -0.00021519    0.00022928    0.00014126
     atom   10 type  2   force =    -0.00258104    0.00083273   -0.03440920
     atom   11 type  2   force =     0.00009462    0.00003474    0.00006161
     atom   12 type  2   force =     0.00023937   -0.00035089    0.00004162
     atom   13 type  1   force =    -0.00070231   -0.00011395   -0.00014349
     atom   14 type  1   force =     0.00018387    0.00011884    0.00025953
     atom   15 type  2   force =     0.00022224    0.00008231    0.00010441
     atom   16 type  2   force =     0.00004541   -0.00013018   -0.00015687
     atom   17 type  2   force =    -0.00003913    0.00013555    0.00022267
     atom   18 type  2   force =     0.00019078   -0.00008302    0.00009137
     atom   19 type  1   force =     0.00003302    0.00029490    0.00022791
     atom   20 type  1   force =     0.00011798    0.00015277    0.00038895
     atom   21 type  2   force =     0.00007164    0.00015286    0.10151033
     atom   22 type  2   force =    -0.00001049    0.00030400    0.00025312
     atom   23 type  2   force =    -0.07488683   -0.00008777   -0.02882883
     atom   24 type  2   force =     0.07481813    0.00036418   -0.02885963
     atom   25 type  1   force =     0.00018900   -0.00035477    0.10069714
     atom   26 type  1   force =     0.00001101   -0.00114463   -0.16945143
     atom   27 type  2   force =     0.00004542   -0.00040019   -0.02842219
     atom   28 type  2   force =     0.00000935    0.00074661    0.03787093
     atom   29 type  2   force =    -0.00388669    0.00436606   -0.00527013
     atom   30 type  2   force =     0.00496483    0.00489027   -0.00694090
     atom   31 type  1   force =    -0.00064209    0.00466590    0.01117283
     atom   32 type  1   force =     0.00088933   -0.01905474    0.04070393
     atom   33 type  2   force =     0.00044235   -0.00000998    0.00022040
     atom   34 type  2   force =    -0.00214340    0.00071016   -0.03965947
     atom   35 type  2   force =     0.00011709   -0.00048359   -0.00014992
     atom   36 type  2   force =     0.00015653   -0.00021596    0.00009422
     atom   37 type  1   force =    -0.00004617   -0.00011250    0.00007620
     atom   38 type  1   force =     0.00001418    0.00004357    0.00014002
     atom   39 type  2   force =    -0.00003541    0.00035389   -0.00021929
     atom   40 type  2   force =     0.00032529   -0.00005884    0.00019838
     atom   41 type  2   force =    -0.00000268    0.00010622    0.00024021
     atom   42 type  2   force =    -0.00011154    0.00010804    0.00027410
     atom   43 type  1   force =     0.00017019   -0.00014934    0.00062425
     atom   44 type  1   force =    -0.00031464    0.00003096   -0.00042683
     atom   45 type  2   force =     0.00006720   -0.00000347    0.10129152
     atom   46 type  2   force =    -0.07493726   -0.00001393   -0.02886010
     atom   47 type  2   force =     0.07485304    0.00041459   -0.02888695
     atom   48 type  3   force =     0.00060281   -0.00104411    0.00089347
     atom   49 type  4   force =    -0.00028761   -0.00051619   -0.00061578
     atom   50 type  5   force =    -0.00049278    0.00012523    0.00004561
     atom   51 type  5   force =     0.00076449    0.00027878    0.00023849
     atom   52 type  2   force =    -0.00019310   -0.00012403    0.00155420
     atom   53 type  5   force =     0.00060385   -0.00043409   -0.00089400

     Total force =     0.369775     Total SCF correction =     0.000615
  @ DRIVER MODE: Message from server: STATUS
  @ DRIVER MODE: Message from server: GETFORCE
  @ DRIVER MODE: Returning v,forces,stress,ensemble

     Writing output data file ./calc.save/
  @ DRIVER MODE: Message from server: EXIT
  @ DRIVE MODE: Exiting

     General routines

     Parallel routines

   This run was terminated on:  23: 3:40  22Sep2021

   JOB DONE.