     Program PWSCF v.6.7GPU starts on 23Sep2021 at  0: 1:27

     R & G space division:  proc/nbgrp/npool/nimage =      10
     Reading input from /storage/home/hcoda1/3/ntian30/research/carbon/CxH_vib/H2O_calc/ads_slab/CHNHNHH2O_b/out_0024/pw.inp
Warning: card &CELL ignored
Warning: card   CELL_DYNAMICS='IPI', ignored
Warning: card / ignored

     Current dimensions of program PWSCF are:
     Max number of different atomic species (ntypx) = 10
     Max number of k-points (npk) =  40000
     Max angular momentum in pseudopotentials (lmaxx) =  3
     Presently no symmetry can be used with electric field

     Message from routine cell_base_init:
     DEPRECATED: use true lattice parameter, not A to a.u. conversion factor

     IMPORTANT: XC functional enforced from input :
     Exchange-correlation= BEEF-VDW
                           (   1   4  43  14   2   0   0)
     Any further DFT definition will be discarded
     Please, verify this is what you really want

  @ DRIVER MODE: Connecting to
 qe_1139763_2937311.sched-torque.pace.gatech.edu5x056b2u_scratch
  using UNIX socket
  @ DRIVER MODE: Message from server: STATUS
  @ DRIVER MODE: Message from server: INIT
  @ DRIVER MODE: Receiving replica           0          -1
  @ DRIVER MODE: Receiving encoded integer          25
  @ DRIVER MODE:  SCF:  T  FORCE:  T  STRESS:  F  VC:  F  ENSEMBLE:  F
  @ DRIVER MODE:  SCF:  T  FORCE:  T  STRESS:  F  VC:  F  ENSEMBLE:  F

     Using Slab Decomposition

     bravais-lattice index     =            0
     lattice parameter (alat)  =       1.8897  a.u.
     unit-cell volume          =    6658.9804 (a.u.)^3
     number of atoms/cell      =           56
     number of atomic types    =            5
     number of electrons       =       403.00
     number of Kohn-Sham states=          211
     kinetic-energy cutoff     =      29.3995  Ry
     charge density cutoff     =     293.9946  Ry
     scf convergence threshold =      7.3E-08
     mixing beta               =       0.0500
     number of iterations used =            8  plain     mixing
     Exchange-correlation= BEEF-VDW
                           (   1   4  43  14   2   0   0)

     celldm(1)=   1.889726  celldm(2)=   0.000000  celldm(3)=   0.000000
     celldm(4)=   0.000000  celldm(5)=   0.000000  celldm(6)=   0.000000

     crystal axes: (cart. coord. in units of alat)
               a(1) = (   6.579727   0.000000   0.000000 )
               a(2) = (  -0.000775   5.961596   0.000000 )
               a(3) = (   0.000000   0.000000  25.155947 )

     reciprocal axes: (cart. coord. in units 2 pi/alat)
               b(1) = (  0.151982  0.000020  0.000000 )
               b(2) = (  0.000000  0.167740  0.000000 )
               b(3) = (  0.000000  0.000000  0.039752 )

     PseudoPot. # 1 for Ti read from file:
     /storage/coda1/p-amedford6/0/shared/rich_project_chbe-medford/medford-share/data/pseudos_module/espresso/nninc/pbe/van/Ti.UPF
     MD5 check sum: 8e4df49b7f0d34bbd5052bf3f5ea0213
     Pseudo is Ultrasoft, Zval = 12.0
     Generated by new atomic code, or converted to UPF format
     Using radial grid of  851 points,  6 beta functions with:
                l(1) =   0
                l(2) =   0
                l(3) =   1
                l(4) =   1
                l(5) =   2
                l(6) =   2
     Q(r) pseudized with  8 coefficients,  rinner =    1.000   1.000   1.000
                                                       1.000   1.000

     PseudoPot. # 2 for O  read from file:
     /storage/coda1/p-amedford6/0/shared/rich_project_chbe-medford/medford-share/data/pseudos_module/espresso/nninc/pbe/van/O.UPF
     MD5 check sum: 78c19812648e8988a0fe644b0f25305e
     Pseudo is Ultrasoft, Zval =  6.0
     Generated by new atomic code, or converted to UPF format
     Using radial grid of  737 points,  4 beta functions with:
                l(1) =   0
                l(2) =   0
                l(3) =   1
                l(4) =   1
     Q(r) pseudized with  8 coefficients,  rinner =    0.800   0.800   0.800

     PseudoPot. # 3 for N  read from file:
     /storage/coda1/p-amedford6/0/shared/rich_project_chbe-medford/medford-share/data/pseudos_module/espresso/nninc/pbe/van/N.UPF
     MD5 check sum: 90d10febe142ad51ac9d5be1deb811c4
     Pseudo is Ultrasoft, Zval =  5.0
     Generated by new atomic code, or converted to UPF format
     Using radial grid of  729 points,  4 beta functions with:
                l(1) =   0
                l(2) =   0
                l(3) =   1
                l(4) =   1
     Q(r) pseudized with  8 coefficients,  rinner =    0.800   0.800   0.800

     PseudoPot. # 4 for C  read from file:
     /storage/coda1/p-amedford6/0/shared/rich_project_chbe-medford/medford-share/data/pseudos_module/espresso/nninc/pbe/van/C.UPF
     MD5 check sum: 1a69bf6b8db32088f5b2163dbdb77a27
     Pseudo is Ultrasoft, Zval =  4.0
     Generated by new atomic code, or converted to UPF format
     Using radial grid of  721 points,  4 beta functions with:
                l(1) =   0
                l(2) =   0
                l(3) =   1
                l(4) =   1
     Q(r) pseudized with  8 coefficients,  rinner =    0.800   0.800   0.800

     PseudoPot. # 5 for H  read from file:
     /storage/coda1/p-amedford6/0/shared/rich_project_chbe-medford/medford-share/data/pseudos_module/espresso/nninc/pbe/van/H.UPF
     MD5 check sum: b5ee9d7bfd3a09ee7748110bda690ff7
     Pseudo is Ultrasoft, Zval =  1.0
     Generated by new atomic code, or converted to UPF format
     Using radial grid of  615 points,  1 beta functions with:
                l(1) =   0
     Q(r) pseudized with  8 coefficients,  rinner =    0.800

     atomic species   valence    mass     pseudopotential
        Ti1           12.00    47.86700     Ti( 1.00)
        O1             6.00    15.99900     O ( 1.00)
        N1             5.00    14.00700     N ( 1.00)
        C1             4.00    12.01100     C ( 1.00)
        H1             1.00     1.00800     H ( 1.00)

     No symmetry found

   Cartesian axes

     site n.     atom                  positions (alat units)
         1           Ti1 tau(   1) = (   0.0004258   2.9801865   6.0000000  )
         2           Ti1 tau(   2) = (   3.2906075   1.4906267   6.0002472  )
         3           O1  tau(   3) = (   0.0006271   0.0005054   7.9858123  )
         4           O1  tau(   4) = (   3.2906025   0.0005020   7.3038282  )
         5           O1  tau(   5) = (   4.5942328   1.4918067   9.2879030  )
         6           O1  tau(   6) = (   1.9868534   1.4903216   9.2879459  )
         7           Ti1 tau(   7) = (   3.2907910   2.8959150   9.1758416  )
         8           Ti1 tau(   8) = (   0.0015273   1.4827037   9.2680791  )
         9           O1  tau(   9) = (   3.2780774   5.9605562  11.3537357  )
        10           O1  tau(  10) = (   0.0116148   5.9584955  10.6183126  )
        11           O1  tau(  11) = (   1.2922713   1.4781662  12.6511241  )
        12           O1  tau(  12) = (   5.2965393   1.5043564  12.6031353  )
        13           Ti1 tau(  13) = (   6.5273184   3.0207086  12.5807821  )
        14           Ti1 tau(  14) = (   3.2344070   1.4559942  12.5004267  )
        15           O1  tau(  15) = (   6.4759410   0.0295824  14.6525783  )
        16           O1  tau(  16) = (   3.3604338   0.0238249  13.9383540  )
        17           O1  tau(  17) = (   4.5324113   1.5808541  16.1066768  )
        18           O1  tau(  18) = (   1.9684897   1.4712893  15.8817925  )
        19           Ti1 tau(  19) = (   3.2566353   3.0739815  15.8599551  )
        20           Ti1 tau(  20) = (   6.5466614   1.5318677  15.7800735  )
        21           O1  tau(  21) = (   3.2904802   0.0005063   4.7018136  )
        22           O1  tau(  22) = (   6.5744325   0.0155309  17.2227980  )
        23           O1  tau(  23) = (   1.3043587   1.4918075   6.0039043  )
        24           O1  tau(  24) = (   5.2767064   1.4903225   6.0039473  )
        25           Ti1 tau(  25) = (   0.0000382   5.9609847   6.0000000  )
        26           Ti1 tau(  26) = (   3.2902200   4.4714249   6.0002472  )
        27           O1  tau(  27) = (   0.0002396   2.9813036   7.9858123  )
        28           O1  tau(  28) = (   3.2902150   2.9813002   7.3038282  )
        29           O1  tau(  29) = (   4.5938453   4.4726049   9.2879030  )
        30           O1  tau(  30) = (   1.9864658   4.4711199   9.2879459  )
        31           Ti1 tau(  31) = (   3.2891106   5.8743827   9.1763621  )
        32           Ti1 tau(  32) = (   0.0006254   4.4649316   9.2693709  )
        33           O1  tau(  33) = (   3.2727763   2.9788165  11.3438337  )
        34           O1  tau(  34) = (   0.0092240   2.9805883  10.6323155  )
        35           O1  tau(  35) = (   1.2865780   4.4896361  12.6556599  )
        36           O1  tau(  36) = (   5.2967437   4.4749066  12.6066920  )
        37           Ti1 tau(  37) = (   6.5467059   0.0356701  12.5108493  )
        38           Ti1 tau(  38) = (   3.2305653   4.4019604  12.5605372  )
        39           O1  tau(  39) = (   6.5199767   2.9846217  14.6905747  )
        40           O1  tau(  40) = (   3.2851694   3.0254550  13.9321539  )
        41           O1  tau(  41) = (   4.5310495   4.4602642  16.1636806  )
        42           O1  tau(  42) = (   1.9842988   4.5744318  15.9411167  )
        43           Ti1 tau(  43) = (   3.2691225   0.1036042  15.7405456  )
        44           Ti1 tau(  44) = (   6.5697781   4.6877429  16.0360384  )
        45           O1  tau(  45) = (   3.2900926   2.9813045   4.7018136  )
        46           O1  tau(  46) = (   1.3039711   4.4726057   6.0039043  )
        47           O1  tau(  47) = (   5.2763189   4.4711207   6.0039473  )
        48           N1  tau(  48) = (   1.2792381   2.8578196  18.3696018  )
        49           N1  tau(  49) = (   0.1888888   2.9646215  17.5057353  )
        50           C1  tau(  50) = (   2.5352320   2.9081513  18.0382144  )
        51           H1  tau(  51) = (   3.1442446   2.7411670  18.9417345  )
        52           H1  tau(  52) = (   1.0014291   2.6635404  19.3302151  )
        53           H1  tau(  53) = (   5.9397212   2.8571719  18.0851170  )
        54           O1  tau(  54) = (   3.2630597   0.0341043  18.2348460  )
        55           H1  tau(  55) = (   4.0455299   5.4198958  18.2485053  )
        56           H1  tau(  56) = (   2.4923979   5.4091459  18.3156537  )

     number of k points=    10  Fermi-Dirac smearing, width (Ry)=  0.0073
                       cart. coord. in units 2pi/alat
        k(    1) = (   0.0000000   0.0000000   0.0000000), wk =   0.1250000
        k(    2) = (   0.0000000   0.0419351   0.0000000), wk =   0.2500000
        k(    3) = (   0.0000000  -0.0838702   0.0000000), wk =   0.1250000
        k(    4) = (   0.0379955   0.0000049   0.0000000), wk =   0.2500000
        k(    5) = (   0.0379955   0.0419400   0.0000000), wk =   0.2500000
        k(    6) = (   0.0379955  -0.0838652   0.0000000), wk =   0.2500000
        k(    7) = (   0.0379955  -0.0419301   0.0000000), wk =   0.2500000
        k(    8) = (  -0.0759910  -0.0000099   0.0000000), wk =   0.1250000
        k(    9) = (  -0.0759910   0.0419252   0.0000000), wk =   0.2500000
        k(   10) = (  -0.0759910  -0.0838800   0.0000000), wk =   0.1250000

     Initial potential from superposition of free atoms

     starting charge  386.99914, renormalised to  403.00000

     negative rho (up, down):  1.738E-02 0.000E+00

     %%%%%%%%%%%%%%%%%%%%%%%%%%%%%%%%%%%%%%%%%%%%%%%%%%%%%%%%%%%%%%%%%%%%%%%%
     %                                                                      %
     % You are using vdW-DF, which was implemented by the Thonhauser group. %
     % Please cite the following two papers that made this development      %
     % possible and the two reviews that describe the various versions:     %
     %                                                                      %
     %   T. Thonhauser et al., PRL 115, 136402 (2015).                      %
     %   T. Thonhauser et al., PRB 76, 125112 (2007).                       %
     %   K. Berland et al., Rep. Prog. Phys. 78, 066501 (2015).             %
     %   D.C. Langreth et al., J. Phys.: Condens. Matter 21, 084203 (2009). %
     %                                                                      %
     %                                                                      %
     % If you are calculating the stress with vdW-DF, please also cite:     %
     %                                                                      %
     %   R. Sabatini et al., J. Phys.: Condens. Matter 24, 424209 (2012).   %
     %                                                                      %
     %%%%%%%%%%%%%%%%%%%%%%%%%%%%%%%%%%%%%%%%%%%%%%%%%%%%%%%%%%%%%%%%%%%%%%%%

     Adding external electric field

     Computed dipole along edir(3) :
        Dipole              -12.3470 Ry au,        -31.3831 Debye
        Dipole field         -0.0233 Ry au,

        Potential amp.        2.1599 Ry
        Total length         46.3494 bohr

     Starting wfcs are  305 atomic wfcs
  @ DRIVER MODE: Message from server: STATUS
  @ DRIVER MODE: Message from server: POSDATA
  @ DRIVER MODE: Reading and sharing cell
  @ DRIVER MODE: Reading and sharing positions
  @ DRIVER MODE: Received positions

     Self-consistent Calculation

     iteration #  1     ecut=    29.40 Ry     beta= 0.05
     Davidson diagonalization with overlap
     c_bands:  5 eigenvalues not converged
     c_bands:  3 eigenvalues not converged
     c_bands:  3 eigenvalues not converged
     c_bands:  1 eigenvalues not converged
     c_bands:  2 eigenvalues not converged
     c_bands:  2 eigenvalues not converged
     c_bands:  5 eigenvalues not converged
     c_bands:  2 eigenvalues not converged
     c_bands:  4 eigenvalues not converged
     ethr =  1.00E-05,  avg # of iterations = 29.3

[...]

     total energy              =   -2358.74452926 Ry
     estimated scf accuracy    <    6971.30310396 Ry

     iteration #  2     ecut=    29.40 Ry     beta= 0.05
     Davidson diagonalization with overlap
     ethr =  1.00E-02,  avg # of iterations = 26.5

[...]

     iteration # 78     ecut=    29.40 Ry     beta= 0.05
     Davidson diagonalization with overlap
     c_bands:  1 eigenvalues not converged
     ethr =  4.55E-11,  avg # of iterations =  8.6

[...]

     total energy              =   -2973.94004335 Ry
     estimated scf accuracy    <       0.00000008 Ry

     iteration # 81     ecut=    29.40 Ry     beta= 0.05
     Davidson diagonalization with overlap
     ethr =  1.97E-11,  avg # of iterations =  9.6

     negative rho (up, down):  1.724E-02 0.000E+00

     Adding external electric field

     Computed dipole along edir(3) :
        Dipole                1.3974 Ry au,          3.5519 Debye
        Dipole field          0.0026 Ry au,

        Potential amp.       -0.2445 Ry
        Total length         46.3494 bohr

     End of self-consistent calculation

          k = 0.0000 0.0000 0.0000 ( 18029 PWs)   bands (ev):

   -55.3211 -55.2870 -55.2115 -55.1873 -55.1686 -55.1568 -55.1417 -55.1195
   -55.1079 -55.1065 -55.0992 -55.0646 -54.9931 -54.8348 -54.3017 -54.2676
   -31.8053 -31.7325 -31.6585 -31.6511 -31.6416 -31.6130 -31.5888 -31.5662
   -31.5212 -31.5021 -31.4735 -31.4652 -31.4569 -31.4423 -31.4271 -31.4229
   -31.3994 -31.3816 -31.3783 -31.3662 -31.3370 -31.3345 -31.3301 -31.3271
   -31.3244 -31.3207 -31.3164 -31.2981 -31.2908 -31.2807 -31.2737 -31.2737
   -31.2641 -31.2618 -31.2536 -31.2495 -31.2411 -31.2158 -31.2117 -31.0910
   -31.0761 -31.0503 -30.7085 -30.6205 -30.5981 -30.5255 -30.4390 -30.3277
   -18.8760 -18.6526 -15.9792 -15.7954 -15.6143 -15.4755 -15.3933 -15.1617
   -15.1032 -15.0648 -14.9837 -14.9610 -14.8607 -14.8416 -14.8399 -14.8217
   -14.8189 -14.7639 -14.7484 -14.7443 -14.6957 -14.6888 -14.6635 -14.6480
   -14.5952 -14.5167 -14.5083 -14.4621 -14.4165 -14.3701 -14.0234 -13.4114
   -12.8023 -12.6858  -8.7989  -7.2566  -6.6153  -4.2860  -3.7897  -3.3617
    -3.2851  -3.2506  -3.2259  -3.0898  -2.9729  -2.8653  -2.7565  -2.6722
    -2.5861  -2.4816  -2.4249  -2.3794  -2.3186  -2.2589  -2.2328  -2.1471
    -2.1273  -2.1079  -2.0858  -2.0596  -2.0299  -1.9926  -1.8703  -1.8596
    -1.7776  -1.7211  -1.6819  -1.6645  -1.6404  -1.6354  -1.6026  -1.5824
    -1.5738  -1.5621  -1.5606  -1.5252  -1.3865  -1.3623  -1.3337  -1.3111
    -1.1645  -1.0272  -0.9383  -0.9361  -0.8264  -0.7618  -0.7587  -0.7204
    -0.7044  -0.6019  -0.5170  -0.4802  -0.4555  -0.3756  -0.3183  -0.2639
    -0.2123  -0.1764  -0.1104  -0.0866  -0.0700  -0.0530   0.0167   0.0787
     0.1400   0.2252   0.2687   0.2929   0.3839   0.3980   0.4210   0.4860
     0.5180   0.5628   0.5980   0.6274   0.6507   0.6812   0.7065   0.7497
     0.7873   0.9136   0.9319   0.9603   0.9816   1.1559   1.2056   1.3053
     1.3381   1.4413   1.4819   1.6611   1.7224   1.8019   1.9142   2.2925
     2.3383   3.7882   3.8996   3.9336   3.9587   3.9979   4.0492   4.2558
     4.3289   4.3703   4.4286

[...]

          k = 0.0380-0.0419 0.0000 ( 17876 PWs)   bands (ev):

[...]

          k =-0.0760-0.0000 0.0000 ( 17886 PWs)   bands (ev):

[...]

          k =-0.0760-0.0839 0.0000 ( 17948 PWs)   bands (ev):

   -55.3042 -55.3037 -55.2021 -55.1838 -55.1772 -55.1453 -55.1313 -55.1248
   -55.1242 -55.1101 -55.0860 -55.0780 -54.9913 -54.8364 -54.2846 -54.2846
   -31.6207 -31.6204 -31.5986 -31.5983 -31.5668 -31.5348 -31.5037 -31.4912
   -31.4840 -31.4686 -31.4502 -31.4457 -31.4411 -31.4319 -31.4269 -31.4246
   -31.4237 -31.4233 -31.4182 -31.4023 -31.3914 -31.3772 -31.3667 -31.3643
   -31.3591 -31.3547 -31.3455 -31.3328 -31.3273 -31.3258 -31.3108 -31.3015
   -31.2980 -31.2976 -31.2958 -31.2928 -31.2638 -31.2344 -31.2205 -31.1472
   -31.0934 -31.0791 -30.6108 -30.6108 -30.5213 -30.5212 -30.4823 -30.4822
   -18.8652 -18.6591 -15.3564 -15.3215 -15.2836 -15.2563 -15.2401 -15.1194
   -15.1056 -15.0698 -15.0285 -15.0153 -14.9848 -14.9562 -14.9075 -14.8988
   -14.8648 -14.8453 -14.8060 -14.7794 -14.7602 -14.7559 -14.7392 -14.7175
   -14.6740 -14.6522 -14.6398 -14.6355 -14.5833 -14.4888 -14.2086 -13.4339
   -12.7876 -12.7876  -8.7949  -7.1823  -6.6163  -4.4963  -3.5727  -2.8606
    -2.6701  -2.6320  -2.5790  -2.4897  -2.4424  -2.3205  -2.3139  -2.2913
    -2.2459  -2.2330  -2.1921  -2.1518  -2.1460  -2.1183  -2.1056  -2.0612
    -2.0497  -2.0465  -2.0324  -1.9985  -1.9933  -1.9728  -1.9485  -1.9455
    -1.9352  -1.9190  -1.8859  -1.8789  -1.8514  -1.8324  -1.6811  -1.6071
    -1.5642  -1.4869  -1.4640  -1.4471  -1.4280  -1.3935  -1.3733  -1.3473
    -1.3190  -1.1730  -1.0316  -0.9981  -0.9733  -0.8746  -0.8594  -0.8400
    -0.7932  -0.7515  -0.7160  -0.6574  -0.6493  -0.6024  -0.5813  -0.4614
    -0.4240  -0.3246  -0.2895  -0.2876  -0.2701  -0.2552  -0.2381  -0.2124
    -0.1628  -0.0914  -0.0759  -0.0274  -0.0036  -0.0009   0.0121   0.1583
     0.2289   0.2496   0.3522   0.3818   0.5567   0.7207   0.7323   0.8005
     0.8632   0.9187   0.9520   0.9919   1.0019   1.0679   1.0926   1.1966
     1.2074   1.2566   1.2598   1.3407   1.3529   2.0861   2.0878   2.1583
     2.1584   4.1522   4.1681   4.1961   4.2590   4.3025   4.3141   4.3514
     4.3552   4.4596   4.4791

     the Fermi energy is     3.8064 ev

!    total energy              =   -2973.94005543 Ry
     estimated scf accuracy    <       0.00000004 Ry
     smearing contrib. (-TS)   =      -0.02071754 Ry
     internal energy E=F+TS    =   -2973.91933789 Ry

     The total energy is F=E-TS. E is the sum of the following terms:
     one-electron contribution =  -24338.43391261 Ry
     hartree contribution      =   12266.91578279 Ry
     xc contribution           =    -494.11258117 Ry
     ewald contribution        =    9591.70768794 Ry
     electric field correction =       0.00368518 Ry

     convergence has been achieved in  81 iterations

     Forces acting on atoms (cartesian axes, Ry/au):

     atom    1 type  1   force =     0.00001842   -0.00010393    0.09508855
     atom    2 type  1   force =     0.00018153   -0.00069286   -0.17565516
     atom    3 type  2   force =     0.00008851   -0.00005139   -0.02296037
     atom    4 type  2   force =     0.00002153   -0.00143357    0.05288913
     atom    5 type  2   force =    -0.01000635   -0.00031448    0.00380406
     atom    6 type  2   force =     0.01112983    0.00020533    0.00205855
     atom    7 type  1   force =    -0.00021334    0.00177661   -0.00588349
     atom    8 type  1   force =     0.00080785    0.01008184    0.01605527
     atom    9 type  2   force =    -0.00015717    0.00086238    0.00032790
     atom   10 type  2   force =    -0.00226936    0.00217219   -0.01801374
     atom   11 type  2   force =     0.00024661   -0.00002887    0.00008494
     atom   12 type  2   force =    -0.00035456   -0.00018291    0.00056340
     atom   13 type  1   force =    -0.00002935    0.00125469    0.00020648
     atom   14 type  1   force =    -0.00011722    0.00007050    0.00000074
     atom   15 type  2   force =     0.00013310    0.00020852   -0.00002461
     atom   16 type  2   force =    -0.00037929    0.00043820   -0.00024499
     atom   17 type  2   force =    -0.00019695   -0.00022713   -0.00008220
     atom   18 type  2   force =    -0.00002112    0.00010628    0.00043120
     atom   19 type  1   force =    -0.00033935    0.00027560   -0.00038705
     atom   20 type  1   force =    -0.00031045   -0.00010544    0.00019492
     atom   21 type  2   force =     0.00008999   -0.00008507    0.10317746
     atom   22 type  2   force =     0.00039381   -0.00001566    0.00049578
     atom   23 type  2   force =    -0.07160498   -0.00017663   -0.02756889
     atom   24 type  2   force =     0.07156153    0.00024774   -0.02761648
     atom   25 type  1   force =     0.00024146   -0.00038937    0.09518536
     atom   26 type  1   force =    -0.00004108   -0.00019825   -0.17582135
     atom   27 type  2   force =     0.00012390   -0.00011985   -0.02198955
     atom   28 type  2   force =     0.00001429   -0.00139668    0.05322382
     atom   29 type  2   force =    -0.01034854   -0.00023153    0.00364621
     atom   30 type  2   force =     0.01138636    0.00042368    0.00191519
     atom   31 type  1   force =    -0.00029958    0.00265984   -0.00008502
     atom   32 type  1   force =     0.00067272   -0.01113258    0.01694210
     atom   33 type  2   force =     0.00037030   -0.00026966    0.00000695
     atom   34 type  2   force =    -0.00033651    0.00144236   -0.01894613
     atom   35 type  2   force =     0.00000485   -0.00035313   -0.00015856
     atom   36 type  2   force =    -0.00000926   -0.00023787    0.00044139
     atom   37 type  1   force =    -0.00005909   -0.00122713    0.00036074
     atom   38 type  1   force =    -0.00039176    0.00091572    0.00004828
     atom   39 type  2   force =     0.00010185    0.00007652    0.00007011
     atom   40 type  2   force =    -0.00047397   -0.00058814    0.00009872
     atom   41 type  2   force =     0.00016274   -0.00016508    0.00024719
     atom   42 type  2   force =    -0.00017581   -0.00044956   -0.00015835
     atom   43 type  1   force =    -0.00018566   -0.00017453    0.00051278
     atom   44 type  1   force =     0.00000081   -0.00030707    0.00026448
     atom   45 type  2   force =     0.00009968   -0.00010127    0.10319140
     atom   46 type  2   force =    -0.07158927   -0.00017083   -0.02755910
     atom   47 type  2   force =     0.07159141    0.00024985   -0.02757094
     atom   48 type  3   force =    -0.00052603   -0.00051322    0.00035040
     atom   49 type  3   force =    -0.00000228    0.00002053   -0.00028558
     atom   50 type  4   force =     0.00546473   -0.00153267    0.00879006
     atom   51 type  5   force =    -0.00469652    0.00087319   -0.00835680
     atom   52 type  5   force =     0.00000645   -0.00092296   -0.00096491
     atom   53 type  5   force =     0.00015531   -0.00042192   -0.00061010
     atom   54 type  2   force =    -0.00007231    0.00103496   -0.00015757
     atom   55 type  5   force =     0.00013061   -0.00025844    0.00001191
     atom   56 type  5   force =     0.00000699   -0.00081687    0.00041545

     Total force =     0.365481     Total SCF correction =     0.000529
  @ DRIVER MODE: Message from server: STATUS
  @ DRIVER MODE: Message from server: GETFORCE
  @ DRIVER MODE: Returning v,forces,stress,ensemble

     Writing output data file ./calc.save/
  @ DRIVER MODE: Message from server: EXIT
  @ DRIVE MODE: Exiting

     General routines

     Parallel routines

   This run was terminated on:   0:23:52  23Sep2021

   JOB DONE.