     Program PWSCF v.6.7GPU starts on 11Sep2021 at  0:10:15

     R & G space division:  proc/nbgrp/npool/nimage =      10
     Reading input from /storage/home/hcoda1/3/ntian30/research/carbon/CxH_vib/CH2_calc/ads_slab/CH2OH_f/out_0019/pw.inp
Warning: card &CELL ignored
Warning: card   CELL_DYNAMICS='IPI', ignored
Warning: card / ignored

     Current dimensions of program PWSCF are:
     Max number of different atomic species (ntypx) = 10
     Max number of k-points (npk) =  40000
     Max angular momentum in pseudopotentials (lmaxx) =  3
     Presently no symmetry can be used with electric field

     Message from routine cell_base_init:
     DEPRECATED: use true lattice parameter, not A to a.u. conversion factor

     IMPORTANT: XC functional enforced from input :
     Exchange-correlation= BEEF-VDW
                           (   1   4  43  14   2   0   0)
     Any further DFT definition will be discarded
     Please, verify this is what you really want

  @ DRIVER MODE: Connecting to
 qe_1139763_2792042.sched-torque.pace.gatech.eduffonuqez_scratch
  using UNIX socket
  @ DRIVER MODE: Message from server: STATUS
  @ DRIVER MODE: Message from server: INIT
  @ DRIVER MODE: Receiving replica           0          -1
  @ DRIVER MODE: Receiving encoded integer          25
  @ DRIVER MODE:  SCF:  T  FORCE:  T  STRESS:  F  VC:  F  ENSEMBLE:  F
  @ DRIVER MODE:  SCF:  T  FORCE:  T  STRESS:  F  VC:  F  ENSEMBLE:  F

     Using Slab Decomposition

     bravais-lattice index     =            0
     lattice parameter (alat)  =       1.8897  a.u.
     unit-cell volume          =    6658.9804 (a.u.)^3
     number of atoms/cell      =           52
     number of atomic types    =            4
     number of electrons       =       391.00
     number of Kohn-Sham states=          205
     kinetic-energy cutoff     =      29.3995  Ry
     charge density cutoff     =     293.9946  Ry
     scf convergence threshold =      7.3E-08
     mixing beta               =       0.0500
     number of iterations used =            8  plain     mixing
     Exchange-correlation= BEEF-VDW
                           (   1   4  43  14   2   0   0)

     celldm(1)=   1.889726  celldm(2)=   0.000000  celldm(3)=   0.000000
     celldm(4)=   0.000000  celldm(5)=   0.000000  celldm(6)=   0.000000

     crystal axes: (cart. coord. in units of alat)
               a(1) = (   6.579727   0.000000   0.000000 )
               a(2) = (  -0.000775   5.961596   0.000000 )
               a(3) = (   0.000000   0.000000  25.155947 )

     reciprocal axes: (cart. coord. in units 2 pi/alat)
               b(1) = (  0.151982  0.000020  0.000000 )
               b(2) = (  0.000000  0.167740  0.000000 )
               b(3) = (  0.000000  0.000000  0.039752 )

     PseudoPot. # 1 for O  read from file:
     /storage/coda1/p-amedford6/0/shared/rich_project_chbe-medford/medford-share/data/pseudos_module/espresso/nninc/pbe/van/O.UPF
     MD5 check sum: 78c19812648e8988a0fe644b0f25305e
     Pseudo is Ultrasoft, Zval =  6.0
     Generated by new atomic code, or converted to UPF format
     Using radial grid of  737 points,  4 beta functions with:
                l(1) =   0
                l(2) =   0
                l(3) =   1
                l(4) =   1
     Q(r) pseudized with  8 coefficients,  rinner =    0.800   0.800   0.800

     PseudoPot. # 2 for Ti read from file:
     /storage/coda1/p-amedford6/0/shared/rich_project_chbe-medford/medford-share/data/pseudos_module/espresso/nninc/pbe/van/Ti.UPF
     MD5 check sum: 8e4df49b7f0d34bbd5052bf3f5ea0213
     Pseudo is Ultrasoft, Zval = 12.0
     Generated by new atomic code, or converted to UPF format
     Using radial grid of  851 points,  6 beta functions with:
                l(1) =   0
                l(2) =   0
                l(3) =   1
                l(4) =   1
                l(5) =   2
                l(6) =   2
     Q(r) pseudized with  8 coefficients,  rinner =    1.000   1.000   1.000
                                                       1.000   1.000

     PseudoPot. # 3 for H  read from file:
     /storage/coda1/p-amedford6/0/shared/rich_project_chbe-medford/medford-share/data/pseudos_module/espresso/nninc/pbe/van/H.UPF
     MD5 check sum: b5ee9d7bfd3a09ee7748110bda690ff7
     Pseudo is Ultrasoft, Zval =  1.0
     Generated by new atomic code, or converted to UPF format
     Using radial grid of  615 points,  1 beta functions with:
                l(1) =   0
     Q(r) pseudized with  8 coefficients,  rinner =    0.800

     PseudoPot. # 4 for C  read from file:
     /storage/coda1/p-amedford6/0/shared/rich_project_chbe-medford/medford-share/data/pseudos_module/espresso/nninc/pbe/van/C.UPF
     MD5 check sum: 1a69bf6b8db32088f5b2163dbdb77a27
     Pseudo is Ultrasoft, Zval =  4.0
     Generated by new atomic code, or converted to UPF format
     Using radial grid of  721 points,  4 beta functions with:
                l(1) =   0
                l(2) =   0
                l(3) =   1
                l(4) =   1
     Q(r) pseudized with  8 coefficients,  rinner =    0.800   0.800   0.800

     atomic species   valence    mass     pseudopotential
        O1             6.00    15.99900     O ( 1.00)
        Ti1           12.00    47.86700     Ti( 1.00)
        H1             1.00     1.00800     H ( 1.00)
        C1             4.00    12.01100     C ( 1.00)

     No symmetry found

   Cartesian axes

     site n.     atom                  positions (alat units)
         1           O1  tau(   1) = (   3.2904802   0.0005063   4.7018136  )
         2           O1  tau(   2) = (   3.2900926   2.9813045   4.7018136  )
         3           Ti1 tau(   3) = (   0.0004258   2.9801865   6.0000000  )
         4           Ti1 tau(   4) = (   0.0000382   5.9609847   6.0000000  )
         5           Ti1 tau(   5) = (   3.2906075   1.4906267   6.0002472  )
         6           Ti1 tau(   6) = (   3.2902200   4.4714249   6.0002472  )
         7           O1  tau(   7) = (   1.3043587   1.4918075   6.0039043  )
         8           O1  tau(   8) = (   1.3039711   4.4726057   6.0039043  )
         9           O1  tau(   9) = (   5.2767064   1.4903225   6.0039473  )
        10           O1  tau(  10) = (   5.2763189   4.4711207   6.0039473  )
        11           O1  tau(  11) = (   3.2906025   0.0005020   7.3038282  )
        12           O1  tau(  12) = (   3.2902150   2.9813002   7.3038282  )
        13           O1  tau(  13) = (   0.0006271   0.0005054   7.9858123  )
        14           O1  tau(  14) = (   0.0002396   2.9813036   7.9858123  )
        15           Ti1 tau(  15) = (   3.3208325   5.9232416   9.1783542  )
        16           Ti1 tau(  16) = (   3.3324863   2.9377666   9.1648094  )
        17           Ti1 tau(  17) = (   0.0524917   1.4788520   9.2606301  )
        18           Ti1 tau(  18) = (   0.0483789   4.4105323   9.3105966  )
        19           O1  tau(  19) = (   4.5942328   1.4918067   9.2879030  )
        20           O1  tau(  20) = (   4.5938453   4.4726049   9.2879030  )
        21           O1  tau(  21) = (   1.9868534   1.4903216   9.2879459  )
        22           O1  tau(  22) = (   1.9864658   4.4711199   9.2879459  )
        23           O1  tau(  23) = (   6.5712937   0.0017758  10.5841540  )
        24           O1  tau(  24) = (   0.0002036   2.9871675  10.5944109  )
        25           O1  tau(  25) = (   3.2216619   2.9970402  11.3379169  )
        26           O1  tau(  26) = (   3.2239595   0.0054171  11.3328765  )
        27           Ti1 tau(  27) = (   6.5319223   0.0329622  12.4533321  )
        28           Ti1 tau(  28) = (   3.1914638   1.6317768  12.6145244  )
        29           Ti1 tau(  29) = (   3.1843358   4.5420783  12.4476223  )
        30           Ti1 tau(  30) = (   6.4449355   3.0101977  12.6586491  )
        31           O1  tau(  31) = (   5.2440064   1.5124744  12.5792363  )
        32           O1  tau(  32) = (   5.2402295   4.4617308  12.5795526  )
        33           O1  tau(  33) = (   1.2196697   1.4730338  12.6667888  )
        34           O1  tau(  34) = (   1.2190574   4.4979232  12.6669875  )
        35           O1  tau(  35) = (   3.2067865   2.9341989  13.9395670  )
        36           O1  tau(  36) = (   3.3440650   5.9513154  13.9008253  )
        37           O1  tau(  37) = (   6.3267833   5.9539684  14.6370341  )
        38           O1  tau(  38) = (   6.3913104   2.9714873  14.7475579  )
        39           Ti1 tau(  39) = (   3.1260420   2.9476348  15.9752747  )
        40           Ti1 tau(  40) = (   3.1986908   5.9292636  15.6746755  )
        41           Ti1 tau(  41) = (   6.4744102   1.3498976  15.9078779  )
        42           Ti1 tau(  42) = (   6.4721656   4.5656371  15.8700466  )
        43           O1  tau(  43) = (   1.8677001   4.5604514  15.8157410  )
        44           O1  tau(  44) = (   1.8686447   1.3618557  15.8396546  )
        45           O1  tau(  45) = (   4.4008848   1.5192286  16.2292034  )
        46           O1  tau(  46) = (   4.3978686   4.4066597  16.2143399  )
        47           O1  tau(  47) = (   6.4830960   5.9408203  17.1431429  )
        48           O1  tau(  48) = (   0.4828407   2.9769521  17.4917737  )
        49           H1  tau(  49) = (   6.5026766   3.0145448  18.2851392  )
        50           C1  tau(  50) = (   1.9555054   2.9805414  17.9097346  )
        51           H1  tau(  51) = (   2.0661010   2.0893267  18.5304525  )
        52           H1  tau(  52) = (   2.0801140   3.8867162  18.5073456  )

     number of k points=    10  Fermi-Dirac smearing, width (Ry)=  0.0073
                       cart. coord. in units 2pi/alat
        k(    1) = (   0.0000000   0.0000000   0.0000000), wk =   0.1250000
        k(    2) = (   0.0000000   0.0419351   0.0000000), wk =   0.2500000
        k(    3) = (   0.0000000  -0.0838702   0.0000000), wk =   0.1250000
        k(    4) = (   0.0379955   0.0000049   0.0000000), wk =   0.2500000
        k(    5) = (   0.0379955   0.0419400   0.0000000), wk =   0.2500000
        k(    6) = (   0.0379955  -0.0838652   0.0000000), wk =   0.2500000
        k(    7) = (   0.0379955  -0.0419301   0.0000000), wk =   0.2500000
        k(    8) = (  -0.0759910  -0.0000099   0.0000000), wk =   0.1250000
        k(    9) = (  -0.0759910   0.0419252   0.0000000), wk =   0.2500000
        k(   10) = (  -0.0759910  -0.0838800   0.0000000), wk =   0.1250000

     Initial potential from superposition of free atoms

     starting charge  374.99918, renormalised to  391.00000

     negative rho (up, down):  1.929E-02 0.000E+00

     %%%%%%%%%%%%%%%%%%%%%%%%%%%%%%%%%%%%%%%%%%%%%%%%%%%%%%%%%%%%%%%%%%%%%%%%
     %                                                                      %
     % You are using vdW-DF, which was implemented by the Thonhauser group. %
     % Please cite the following two papers that made this development      %
     % possible and the two reviews that describe the various versions:     %
     %                                                                      %
     %   T. Thonhauser et al., PRL 115, 136402 (2015).                      %
     %   T. Thonhauser et al., PRB 76, 125112 (2007).                       %
     %   K. Berland et al., Rep. Prog. Phys. 78, 066501 (2015).             %
     %   D.C. Langreth et al., J. Phys.: Condens. Matter 21, 084203 (2009). %
     %                                                                      %
     %                                                                      %
     % If you are calculating the stress with vdW-DF, please also cite:     %
     %                                                                      %
     %   R. Sabatini et al., J. Phys.: Condens. Matter 24, 424209 (2012).   %
     %                                                                      %
     %%%%%%%%%%%%%%%%%%%%%%%%%%%%%%%%%%%%%%%%%%%%%%%%%%%%%%%%%%%%%%%%%%%%%%%%

     Adding external electric field

     Computed dipole along edir(3) :
        Dipole               -5.2494 Ry au,        -13.3426 Debye
        Dipole field         -0.0099 Ry au,

        Potential amp.        0.9183 Ry
        Total length         46.3494 bohr

     Starting wfcs are  295 atomic wfcs
  @ DRIVER MODE: Message from server: STATUS
  @ DRIVER MODE: Message from server: POSDATA
  @ DRIVER MODE: Reading and sharing cell
  @ DRIVER MODE: Reading and sharing positions
  @ DRIVER MODE: Received positions

     Self-consistent Calculation

     iteration #  1     ecut=    29.40 Ry     beta= 0.05
     Davidson diagonalization with overlap
     c_bands:  1 eigenvalues not converged
     c_bands:  4 eigenvalues not converged
     c_bands:  1 eigenvalues not converged
     c_bands:  2 eigenvalues not converged
     c_bands:  4 eigenvalues not converged
     c_bands:  1 eigenvalues not converged
     c_bands:  1 eigenvalues not converged
     c_bands:  3 eigenvalues not converged
     ethr =  1.00E-05,  avg # of iterations = 19.6

[...]

     total energy              =   -2799.58883081 Ry
     estimated scf accuracy    <    1447.68260376 Ry

     iteration #  2     ecut=    29.40 Ry     beta= 0.05
     Davidson diagonalization with overlap
     ethr =  1.00E-02,  avg # of iterations = 16.9

[...]

     iteration # 57     ecut=    29.40 Ry     beta= 0.05
     Davidson diagonalization with overlap
     ethr =  8.22E-11,  avg # of iterations =  9.3

[...]

     total energy              =   -2931.32923550 Ry
     estimated scf accuracy    <       0.00000009 Ry

     iteration # 58     ecut=    29.40 Ry     beta= 0.05
     Davidson diagonalization with overlap
     c_bands:  1 eigenvalues not converged
     ethr =  2.19E-11,  avg # of iterations = 12.1

     negative rho (up, down):  1.890E-02 0.000E+00

     Adding external electric field

     Computed dipole along edir(3) :
        Dipole                0.9539 Ry au,          2.4245 Debye
        Dipole field          0.0018 Ry au,

        Potential amp.       -0.1669 Ry
        Total length         46.3494 bohr

     End of self-consistent calculation

          k = 0.0000 0.0000 0.0000 ( 18029 PWs)   bands (ev):

   -55.8501 -55.8125 -55.7582 -55.7455 -55.6921 -55.6846 -55.6696 -55.6652
   -55.6349 -55.6161 -55.6143 -55.5886 -55.5821 -55.5657 -54.8251 -54.7911
   -32.3594 -32.3244 -32.2336 -32.2045 -32.1591 -32.1340 -32.1220 -32.0976
   -32.0886 -32.0610 -32.0348 -32.0131 -32.0048 -31.9917 -31.9644 -31.9572
   -31.9464 -31.9351 -31.9168 -31.9139 -31.9094 -31.9035 -31.8759 -31.8578
   -31.8524 -31.8493 -31.8479 -31.8381 -31.8315 -31.8222 -31.8137 -31.8112
   -31.8009 -31.7886 -31.7849 -31.7837 -31.7712 -31.7656 -31.7483 -31.7368
   -31.7178 -31.6453 -31.2323 -31.1429 -31.1204 -31.0493 -30.9630 -30.8515
   -19.5402 -16.5538 -16.3379 -16.1511 -16.0521 -16.0017 -15.8330 -15.7509
   -15.5406 -15.4881 -15.4764 -15.4504 -15.3943 -15.3778 -15.3715 -15.3526
   -15.3408 -15.3160 -15.2565 -15.2478 -15.2395 -15.2046 -15.1471 -15.1170
   -14.9900 -14.9812 -14.9655 -14.9467 -14.8631 -14.7328 -13.3252 -13.2083
    -9.6125  -6.4397  -4.2036  -3.9939  -3.8635  -3.7681  -3.7523  -3.7318
    -3.5691  -3.4958  -3.2711  -3.1391  -3.0874  -3.0202  -2.9802  -2.9185
    -2.8260  -2.7635  -2.7216  -2.6813  -2.6477  -2.6464  -2.6309  -2.5768
    -2.5470  -2.5017  -2.4009  -2.3983  -2.3461  -2.2896  -2.2495  -2.2076
    -2.1663  -2.1509  -2.1303  -2.0938  -2.0604  -2.0506  -2.0180  -1.9878
    -1.9309  -1.8501  -1.8205  -1.5585  -1.4665  -1.3810  -1.3676  -1.3002
    -1.2764  -1.2473  -1.2322  -1.1916  -1.1792  -1.0940  -1.0852  -1.0128
    -0.9715  -0.8902  -0.8299  -0.7532  -0.6900  -0.6312  -0.6095  -0.5800
    -0.5644  -0.5543  -0.3931  -0.3821  -0.3548  -0.2442  -0.2281  -0.1634
    -0.1398  -0.0775  -0.0543   0.0105   0.0686   0.0905   0.1121   0.1483
     0.1587   0.1708   0.2131   0.2951   0.3849   0.3986   0.4160   0.4791
     0.6448   0.7186   0.8221   0.8862   1.1242   1.1998   1.2365   1.2797
     1.3861   1.7736   1.8266   3.2977   3.3671   3.4151   3.4253   3.4642
     3.5461   3.7364   3.7444   3.8032   3.8895

[...]

          k = 0.0380-0.0419 0.0000 ( 17876 PWs)   bands (ev):

[...]

          k =-0.0760-0.0000 0.0000 ( 17886 PWs)   bands (ev):

[...]

          k =-0.0760-0.0839 0.0000 ( 17948 PWs)   bands (ev):

   -55.8393 -55.8232 -55.7539 -55.7388 -55.6985 -55.6885 -55.6660 -55.6599
   -55.6267 -55.6214 -55.5999 -55.5980 -55.5962 -55.5682 -54.8081 -54.8079
   -32.2823 -32.1480 -32.1365 -32.1324 -32.1088 -32.0845 -32.0798 -32.0524
   -32.0207 -32.0031 -31.9931 -31.9897 -31.9769 -31.9672 -31.9654 -31.9605
   -31.9595 -31.9516 -31.9491 -31.9332 -31.9314 -31.9237 -31.9005 -31.8971
   -31.8926 -31.8861 -31.8848 -31.8746 -31.8663 -31.8599 -31.8468 -31.8439
   -31.8344 -31.8255 -31.8233 -31.8138 -31.8107 -31.8086 -31.8068 -31.7947
   -31.7909 -31.6468 -31.1333 -31.1329 -31.0457 -31.0447 -31.0064 -31.0056
   -19.5342 -16.1428 -15.9588 -15.8048 -15.7911 -15.7853 -15.6335 -15.6300
   -15.6050 -15.5686 -15.5356 -15.5177 -15.4797 -15.4754 -15.4324 -15.3809
   -15.3745 -15.3625 -15.3360 -15.2849 -15.2725 -15.2576 -15.1804 -15.1698
   -15.1615 -15.1352 -15.1325 -15.1007 -15.1002 -15.0257 -13.3120 -13.3081
    -9.6129  -6.4231  -4.2099  -3.8551  -3.2831  -3.2100  -3.0173  -3.0025
    -2.9278  -2.8930  -2.8672  -2.8270  -2.7768  -2.7698  -2.7552  -2.6808
    -2.6569  -2.6522  -2.6076  -2.5947  -2.5843  -2.5679  -2.5542  -2.5168
    -2.4939  -2.4696  -2.4465  -2.4312  -2.4094  -2.4007  -2.3960  -2.3507
    -2.3294  -2.2095  -2.1187  -2.0559  -2.0093  -1.9686  -1.9424  -1.9238
    -1.9060  -1.8916  -1.8785  -1.8381  -1.7698  -1.6036  -1.5252  -1.5202
    -1.4569  -1.4370  -1.3852  -1.3662  -1.2906  -1.2611  -1.2107  -1.1992
    -1.1833  -1.0803  -1.0570  -0.9635  -0.9311  -0.8253  -0.8019  -0.7887
    -0.7695  -0.7278  -0.7056  -0.6424  -0.6195  -0.5816  -0.5541  -0.5034
    -0.4581  -0.4414  -0.3438  -0.3025  -0.2486  -0.2015  -0.1342  -0.0254
     0.1532   0.1755   0.2106   0.3151   0.3541   0.4255   0.4819   0.5005
     0.5643   0.6009   0.6450   0.6939   0.7571   0.7936   1.2413   1.5613
     1.5699   1.6344   1.6460   3.6002   3.6493   3.7687   3.7817   3.8114
     3.8221   3.8353   3.8504   3.8998   3.9595

     the Fermi energy is     3.2911 ev

!    total energy              =   -2931.32928490 Ry
     estimated scf accuracy    <       0.00000006 Ry
     smearing contrib. (-TS)   =      -0.02172983 Ry
     internal energy E=F+TS    =   -2931.30755507 Ry

     The total energy is F=E-TS. E is the sum of the following terms:
     one-electron contribution =  -24944.51209491 Ry
     hartree contribution      =   12558.66876017 Ry
     xc contribution           =    -482.04227452 Ry
     ewald contribution        =    9936.57633717 Ry
     electric field correction =       0.00171703 Ry

     convergence has been achieved in  58 iterations

     Forces acting on atoms (cartesian axes, Ry/au):

     atom    1 type  1   force =    -0.00001229    0.00010006    0.10308671
     atom    2 type  1   force =     0.00000632    0.00011213    0.10341178
     atom    3 type  2   force =    -0.00029022    0.00099301    0.09593105
     atom    4 type  2   force =    -0.00015271   -0.00100260    0.10945068
     atom    5 type  2   force =    -0.00014925   -0.00319037   -0.17644477
     atom    6 type  2   force =    -0.00014126    0.00267253   -0.17604183
     atom    7 type  1   force =    -0.07086053    0.00113649   -0.02855427
     atom    8 type  1   force =    -0.07120679   -0.00152516   -0.02858728
     atom    9 type  1   force =     0.07070976    0.00155116   -0.02858411
     atom   10 type  1   force =     0.07092942   -0.00114755   -0.02863072
     atom   11 type  1   force =     0.00048725   -0.00020906    0.05104785
     atom   12 type  1   force =     0.00072085   -0.00042160    0.05031965
     atom   13 type  1   force =     0.00061528    0.00264905   -0.02980063
     atom   14 type  1   force =     0.00055795   -0.00112319   -0.02627443
     atom   15 type  2   force =     0.00019073   -0.00145775   -0.00052420
     atom   16 type  2   force =    -0.00010488    0.00158353   -0.00011095
     atom   17 type  2   force =    -0.00007087   -0.00003840    0.00028604
     atom   18 type  2   force =     0.00008663    0.00060575    0.00040576
     atom   19 type  1   force =    -0.01648370    0.00013151    0.00404087
     atom   20 type  1   force =    -0.01693866   -0.00138417    0.00404250
     atom   21 type  1   force =     0.01272028    0.00185447    0.00028744
     atom   22 type  1   force =     0.01237240    0.00142249    0.00045582
     atom   23 type  1   force =     0.00020251   -0.00009599   -0.00059913
     atom   24 type  1   force =     0.00017377   -0.00041038   -0.00046677
     atom   25 type  1   force =     0.00035074   -0.00003408   -0.00001051
     atom   26 type  1   force =     0.00006994   -0.00044148   -0.00067571
     atom   27 type  2   force =    -0.00001726   -0.00060949   -0.00025450
     atom   28 type  2   force =     0.00016035    0.00005231   -0.00032122
     atom   29 type  2   force =    -0.00011981   -0.00110437    0.00031045
     atom   30 type  2   force =     0.00036805    0.00034706    0.00020002
     atom   31 type  1   force =     0.00014803    0.00005597   -0.00005886
     atom   32 type  1   force =    -0.00009515   -0.00034835    0.00040390
     atom   33 type  1   force =     0.00023277   -0.00017026   -0.00012284
     atom   34 type  1   force =     0.00050214   -0.00037985    0.00026085
     atom   35 type  1   force =    -0.00009826    0.00014583    0.00182091
     atom   36 type  1   force =     0.00034277    0.00014047    0.00036161
     atom   37 type  1   force =     0.00015983    0.00000535   -0.00005293
     atom   38 type  1   force =     0.00043433   -0.00037235    0.00012579
     atom   39 type  2   force =     0.00049387    0.00118607   -0.00079544
     atom   40 type  2   force =     0.00047419   -0.00021824    0.00011266
     atom   41 type  2   force =     0.00007691   -0.00068582    0.00046962
     atom   42 type  2   force =     0.00013978    0.00040086    0.00006973
     atom   43 type  1   force =     0.00101220    0.00004649    0.00012050
     atom   44 type  1   force =     0.00062843   -0.00015007    0.00000038
     atom   45 type  1   force =     0.00009809   -0.00000393    0.00000852
     atom   46 type  1   force =     0.00036992   -0.00026866    0.00020078
     atom   47 type  1   force =     0.00052371    0.00043401   -0.00043767
     atom   48 type  1   force =    -0.00087233    0.00086038   -0.00096529
     atom   49 type  3   force =     0.00024694   -0.00045415   -0.00003784
     atom   50 type  4   force =    -0.00170471   -0.00056485    0.00013656
     atom   51 type  3   force =     0.00236695   -0.00074826    0.00097171
     atom   52 type  3   force =     0.00034560    0.00007343    0.00001176

     Total force =     0.368400     Total SCF correction =     0.000987
  @ DRIVER MODE: Message from server: STATUS
  @ DRIVER MODE: Message from server: GETFORCE
  @ DRIVER MODE: Returning v,forces,stress,ensemble

     Writing output data file ./calc.save/
  @ DRIVER MODE: Message from server: EXIT
  @ DRIVE MODE: Exiting

     General routines

     Parallel routines

   This run was terminated on:   0:27:15  11Sep2021

   JOB DONE.