     Program PWSCF v.6.7GPU starts on 16Sep2021 at  1:46:57

     R & G space division:  proc/nbgrp/npool/nimage =      10
     Reading input from /storage/home/hcoda1/3/ntian30/research/carbon/CxH_vib/H2O_calc/ads_slab/CH2NHHH2O_a/out_0030/pw.inp
Warning: card &CELL ignored
Warning: card   CELL_DYNAMICS='IPI', ignored
Warning: card / ignored

     Current dimensions of program PWSCF are:
     Max number of different atomic species (ntypx) = 10
     Max number of k-points (npk) =  40000
     Max angular momentum in pseudopotentials (lmaxx) =  3
     Presently no symmetry can be used with electric field

     Message from routine cell_base_init:
     DEPRECATED: use true lattice parameter, not A to a.u. conversion factor

     IMPORTANT: XC functional enforced from input :
     Exchange-correlation= BEEF-VDW
                           (   1   4  43  14   2   0   0)
     Any further DFT definition will be discarded
     Please, verify this is what you really want

  @ DRIVER MODE: Connecting to
 qe_1139763_2852609.sched-torque.pace.gatech.eduano2wdpv_scratch
  using UNIX socket
  @ DRIVER MODE: Message from server: STATUS
  @ DRIVER MODE: Message from server: INIT
  @ DRIVER MODE: Receiving replica           0          -1
  @ DRIVER MODE: Receiving encoded integer          25
  @ DRIVER MODE:  SCF:  T  FORCE:  T  STRESS:  F  VC:  F  ENSEMBLE:  F
  @ DRIVER MODE:  SCF:  T  FORCE:  T  STRESS:  F  VC:  F  ENSEMBLE:  F

     Using Slab Decomposition

     bravais-lattice index     =            0
     lattice parameter (alat)  =       1.8897  a.u.
     unit-cell volume          =    6658.9804 (a.u.)^3
     number of atoms/cell      =           56
     number of atomic types    =            5
     number of electrons       =       399.00
     number of Kohn-Sham states=          209
     kinetic-energy cutoff     =      29.3995  Ry
     charge density cutoff     =     293.9946  Ry
     scf convergence threshold =      7.3E-08
     mixing beta               =       0.0500
     number of iterations used =            8  plain     mixing
     Exchange-correlation= BEEF-VDW
                           (   1   4  43  14   2   0   0)

     celldm(1)=   1.889726  celldm(2)=   0.000000  celldm(3)=   0.000000
     celldm(4)=   0.000000  celldm(5)=   0.000000  celldm(6)=   0.000000

     crystal axes: (cart. coord. in units of alat)
               a(1) = (   6.579727   0.000000   0.000000 )
               a(2) = (  -0.000775   5.961596   0.000000 )
               a(3) = (   0.000000   0.000000  25.155947 )

     reciprocal axes: (cart. coord. in units 2 pi/alat)
               b(1) = (  0.151982  0.000020  0.000000 )
               b(2) = (  0.000000  0.167740  0.000000 )
               b(3) = (  0.000000  0.000000  0.039752 )

     PseudoPot. # 1 for Ti read from file:
     /storage/coda1/p-amedford6/0/shared/rich_project_chbe-medford/medford-share/data/pseudos_module/espresso/nninc/pbe/van/Ti.UPF
     MD5 check sum: 8e4df49b7f0d34bbd5052bf3f5ea0213
     Pseudo is Ultrasoft, Zval = 12.0
     Generated by new atomic code, or converted to UPF format
     Using radial grid of  851 points,  6 beta functions with:
                l(1) =   0
                l(2) =   0
                l(3) =   1
                l(4) =   1
                l(5) =   2
                l(6) =   2
     Q(r) pseudized with  8 coefficients,  rinner =    1.000   1.000   1.000
                                                       1.000   1.000

     PseudoPot. # 2 for O  read from file:
     /storage/coda1/p-amedford6/0/shared/rich_project_chbe-medford/medford-share/data/pseudos_module/espresso/nninc/pbe/van/O.UPF
     MD5 check sum: 78c19812648e8988a0fe644b0f25305e
     Pseudo is Ultrasoft, Zval =  6.0
     Generated by new atomic code, or converted to UPF format
     Using radial grid of  737 points,  4 beta functions with:
                l(1) =   0
                l(2) =   0
                l(3) =   1
                l(4) =   1
     Q(r) pseudized with  8 coefficients,  rinner =    0.800   0.800   0.800

     PseudoPot. # 3 for N  read from file:
     /storage/coda1/p-amedford6/0/shared/rich_project_chbe-medford/medford-share/data/pseudos_module/espresso/nninc/pbe/van/N.UPF
     MD5 check sum: 90d10febe142ad51ac9d5be1deb811c4
     Pseudo is Ultrasoft, Zval =  5.0
     Generated by new atomic code, or converted to UPF format
     Using radial grid of  729 points,  4 beta functions with:
                l(1) =   0
                l(2) =   0
                l(3) =   1
                l(4) =   1
     Q(r) pseudized with  8 coefficients,  rinner =    0.800   0.800   0.800

     PseudoPot. # 4 for C  read from file:
     /storage/coda1/p-amedford6/0/shared/rich_project_chbe-medford/medford-share/data/pseudos_module/espresso/nninc/pbe/van/C.UPF
     MD5 check sum: 1a69bf6b8db32088f5b2163dbdb77a27
     Pseudo is Ultrasoft, Zval =  4.0
     Generated by new atomic code, or converted to UPF format
     Using radial grid of  721 points,  4 beta functions with:
                l(1) =   0
                l(2) =   0
                l(3) =   1
                l(4) =   1
     Q(r) pseudized with  8 coefficients,  rinner =    0.800   0.800   0.800

     PseudoPot. # 5 for H  read from file:
     /storage/coda1/p-amedford6/0/shared/rich_project_chbe-medford/medford-share/data/pseudos_module/espresso/nninc/pbe/van/H.UPF
     MD5 check sum: b5ee9d7bfd3a09ee7748110bda690ff7
     Pseudo is Ultrasoft, Zval =  1.0
     Generated by new atomic code, or converted to UPF format
     Using radial grid of  615 points,  1 beta functions with:
                l(1) =   0
     Q(r) pseudized with  8 coefficients,  rinner =    0.800

     atomic species   valence    mass     pseudopotential
        Ti1           12.00    47.86700     Ti( 1.00)
        O1             6.00    15.99900     O ( 1.00)
        N1             5.00    14.00700     N ( 1.00)
        C1             4.00    12.01100     C ( 1.00)
        H1             1.00     1.00800     H ( 1.00)

     No symmetry found

   Cartesian axes

     site n.     atom                  positions (alat units)
         1           Ti1 tau(   1) = (   0.0004258   2.9801865   6.0000000  )
         2           Ti1 tau(   2) = (   3.2906075   1.4906267   6.0002472  )
         3           O1  tau(   3) = (   0.0006271   0.0005054   7.9858123  )
         4           O1  tau(   4) = (   3.2906025   0.0005020   7.3038282  )
         5           O1  tau(   5) = (   4.5942328   1.4918067   9.2879030  )
         6           O1  tau(   6) = (   1.9868534   1.4903216   9.2879459  )
         7           Ti1 tau(   7) = (   3.2907910   2.8959150   9.1758416  )
         8           Ti1 tau(   8) = (   0.0015273   1.4827037   9.2680791  )
         9           O1  tau(   9) = (   3.2861202   0.0128588  11.3777969  )
        10           O1  tau(  10) = (   0.0116148   5.9584955  10.6183126  )
        11           O1  tau(  11) = (   1.2831632   1.4993340  12.6921085  )
        12           O1  tau(  12) = (   5.2921761   1.5015178  12.6679780  )
        13           Ti1 tau(  13) = (   0.0111066   2.9912061  12.5123142  )
        14           Ti1 tau(  14) = (   3.3187119   1.4875497  12.5412637  )
        15           O1  tau(  15) = (   6.5416963   5.9006142  14.6662030  )
        16           O1  tau(  16) = (   3.3066524   0.0016155  14.0179881  )
        17           O1  tau(  17) = (   4.5377470   1.5714702  16.1207712  )
        18           O1  tau(  18) = (   1.9925948   1.5577299  16.0387284  )
        19           Ti1 tau(  19) = (   3.2598466   3.0207798  15.7337896  )
        20           Ti1 tau(  20) = (   0.0086319   1.3133152  15.8444473  )
        21           O1  tau(  21) = (   3.2904802   0.0005063   4.7018136  )
        22           O1  tau(  22) = (   6.5660721   0.1678205  17.2271563  )
        23           O1  tau(  23) = (   1.3043587   1.4918075   6.0039043  )
        24           O1  tau(  24) = (   5.2767064   1.4903225   6.0039473  )
        25           Ti1 tau(  25) = (   0.0000382   5.9609847   6.0000000  )
        26           Ti1 tau(  26) = (   3.2902200   4.4714249   6.0002472  )
        27           O1  tau(  27) = (   0.0002396   2.9813036   7.9858123  )
        28           O1  tau(  28) = (   3.2902150   2.9813002   7.3038282  )
        29           O1  tau(  29) = (   4.5938453   4.4726049   9.2879030  )
        30           O1  tau(  30) = (   1.9864658   4.4711199   9.2879459  )
        31           Ti1 tau(  31) = (   3.2891106   5.8743827   9.1763621  )
        32           Ti1 tau(  32) = (   0.0006254   4.4649316   9.2693709  )
        33           O1  tau(  33) = (   3.2870289   2.9785969  11.3746142  )
        34           O1  tau(  34) = (   0.0092240   2.9805883  10.6323155  )
        35           O1  tau(  35) = (   1.2865429   4.4729593  12.6568099  )
        36           O1  tau(  36) = (   5.2907978   4.4713399  12.6331247  )
        37           Ti1 tau(  37) = (   0.0245089   0.0029545  12.5000319  )
        38           Ti1 tau(  38) = (   3.3192338   4.4773935  12.5310228  )
        39           O1  tau(  39) = (   6.5398775   3.0461246  14.9162120  )
        40           O1  tau(  40) = (   3.2968145   3.0151409  13.9465962  )
        41           O1  tau(  41) = (   4.5189833   4.4812017  16.2068643  )
        42           O1  tau(  42) = (   1.9905864   4.4756957  16.1679402  )
        43           Ti1 tau(  43) = (   3.3140030   0.0507474  15.8534526  )
        44           Ti1 tau(  44) = (   0.0184218   4.5194176  15.9927436  )
        45           O1  tau(  45) = (   3.2900926   2.9813045   4.7018136  )
        46           O1  tau(  46) = (   1.3039711   4.4726057   6.0039043  )
        47           O1  tau(  47) = (   5.2763189   4.4711207   6.0039473  )
        48           N1  tau(  48) = (   6.2908993   3.4294391  18.1752670  )
        49           C1  tau(  49) = (   0.7550536   3.1452864  19.0745941  )
        50           H1  tau(  50) = (   1.1396299   3.9643166  19.6610198  )
        51           H1  tau(  51) = (   1.3301158   2.2513941  18.9084762  )
        52           H1  tau(  52) = (   5.7550451   4.2450011  18.4601662  )
        53           H1  tau(  53) = (   5.6463078   2.6497838  18.0429669  )
        54           O1  tau(  54) = (   3.1180431   0.1968263  18.2683150  )
        55           H1  tau(  55) = (   3.8687171   5.7182160  18.6922429  )
        56           H1  tau(  56) = (   2.3371514   5.6040609  18.4451484  )

     number of k points=    10  Fermi-Dirac smearing, width (Ry)=  0.0073
                       cart. coord. in units 2pi/alat
        k(    1) = (   0.0000000   0.0000000   0.0000000), wk =   0.1250000
        k(    2) = (   0.0000000   0.0419351   0.0000000), wk =   0.2500000
        k(    3) = (   0.0000000  -0.0838702   0.0000000), wk =   0.1250000
        k(    4) = (   0.0379955   0.0000049   0.0000000), wk =   0.2500000
        k(    5) = (   0.0379955   0.0419400   0.0000000), wk =   0.2500000
        k(    6) = (   0.0379955  -0.0838652   0.0000000), wk =   0.2500000
        k(    7) = (   0.0379955  -0.0419301   0.0000000), wk =   0.2500000
        k(    8) = (  -0.0759910  -0.0000099   0.0000000), wk =   0.1250000
        k(    9) = (  -0.0759910   0.0419252   0.0000000), wk =   0.2500000
        k(   10) = (  -0.0759910  -0.0838800   0.0000000), wk =   0.1250000

     Initial potential from superposition of free atoms

     starting charge  382.99914, renormalised to  399.00000

     negative rho (up, down):  1.613E-02 0.000E+00

     %%%%%%%%%%%%%%%%%%%%%%%%%%%%%%%%%%%%%%%%%%%%%%%%%%%%%%%%%%%%%%%%%%%%%%%%
     %                                                                      %
     % You are using vdW-DF, which was implemented by the Thonhauser group. %
     % Please cite the following two papers that made this development      %
     % possible and the two reviews that describe the various versions:     %
     %                                                                      %
     %   T. Thonhauser et al., PRL 115, 136402 (2015).                      %
     %   T. Thonhauser et al., PRB 76, 125112 (2007).                       %
     %   K. Berland et al., Rep. Prog. Phys. 78, 066501 (2015).             %
     %   D.C. Langreth et al., J. Phys.: Condens. Matter 21, 084203 (2009). %
     %                                                                      %
     %                                                                      %
     % If you are calculating the stress with vdW-DF, please also cite:     %
     %                                                                      %
     %   R. Sabatini et al., J. Phys.: Condens. Matter 24, 424209 (2012).   %
     %                                                                      %
     %%%%%%%%%%%%%%%%%%%%%%%%%%%%%%%%%%%%%%%%%%%%%%%%%%%%%%%%%%%%%%%%%%%%%%%%

     Adding external electric field

     Computed dipole along edir(3) :
        Dipole              -11.3177 Ry au,        -28.7667 Debye
        Dipole field         -0.0214 Ry au,

        Potential amp.        1.9799 Ry
        Total length         46.3494 bohr

     Starting wfcs are  302 atomic wfcs
  @ DRIVER MODE: Message from server: STATUS
  @ DRIVER MODE: Message from server: POSDATA
  @ DRIVER MODE: Reading and sharing cell
  @ DRIVER MODE: Reading and sharing positions
  @ DRIVER MODE: Received positions

     Self-consistent Calculation

     iteration #  1     ecut=    29.40 Ry     beta= 0.05
     Davidson diagonalization with overlap
     c_bands:  3 eigenvalues not converged
     c_bands:  3 eigenvalues not converged
     c_bands:  1 eigenvalues not converged
     c_bands:  4 eigenvalues not converged
     c_bands:  1 eigenvalues not converged
     c_bands:  1 eigenvalues not converged
     c_bands:  1 eigenvalues not converged
     c_bands:  2 eigenvalues not converged
     c_bands:  3 eigenvalues not converged
     ethr =  1.00E-05,  avg # of iterations = 24.0

[...]

     total energy              =   -2437.57145079 Ry
     estimated scf accuracy    <    5825.87493444 Ry

     iteration #  2     ecut=    29.40 Ry     beta= 0.05
     Davidson diagonalization with overlap
     ethr =  1.00E-02,  avg # of iterations = 29.2

[...]

     iteration # 85     ecut=    29.40 Ry     beta= 0.05
     Davidson diagonalization with overlap
     ethr =  6.66E-11,  avg # of iterations =  1.5

[...]

     total energy              =   -2955.08682606 Ry
     estimated scf accuracy    <       0.00000009 Ry

     iteration # 87     ecut=    29.40 Ry     beta= 0.05
     Davidson diagonalization with overlap
     c_bands:  1 eigenvalues not converged
     ethr =  2.25E-11,  avg # of iterations =  9.9

     negative rho (up, down):  1.530E-02 0.000E+00

     Adding external electric field

     Computed dipole along edir(3) :
        Dipole                0.9584 Ry au,          2.4360 Debye
        Dipole field          0.0018 Ry au,

        Potential amp.       -0.1677 Ry
        Total length         46.3494 bohr

     End of self-consistent calculation

          k = 0.0000 0.0000 0.0000 ( 18029 PWs)   bands (ev):

   -55.5427 -55.5092 -55.5061 -55.4885 -55.4751 -55.4267 -55.3904 -55.3709
   -55.3538 -55.3412 -55.3360 -55.3076 -55.2958 -55.1130 -54.5352 -54.5011
   -32.0986 -32.0013 -31.9150 -31.8998 -31.8747 -31.8597 -31.8459 -31.8410
   -31.7983 -31.7630 -31.7573 -31.7541 -31.7441 -31.7199 -31.7144 -31.6937
   -31.6841 -31.6815 -31.6699 -31.6615 -31.6404 -31.6228 -31.6057 -31.5996
   -31.5705 -31.5663 -31.5617 -31.5593 -31.5570 -31.5442 -31.5350 -31.5284
   -31.5242 -31.5190 -31.5082 -31.4959 -31.4846 -31.4692 -31.4669 -31.4522
   -31.3384 -31.2940 -30.9444 -30.8506 -30.8285 -30.7608 -30.6741 -30.5631
   -19.2372 -16.3973 -16.3076 -16.0869 -15.9219 -15.8427 -15.7461 -15.6055
   -15.5341 -15.4235 -15.3874 -15.2284 -15.2037 -15.1969 -15.1625 -15.1448
   -15.1061 -15.0879 -15.0588 -15.0473 -15.0458 -15.0240 -14.9874 -14.9835
   -14.9410 -14.9279 -14.8680 -14.7726 -14.7048 -14.6406 -14.3269 -13.0374
   -12.9200  -9.2022  -7.0098  -6.5481  -4.5978  -3.7159  -3.5839  -3.5611
    -3.5016  -3.4475  -3.4056  -3.2991  -3.0686  -3.0173  -2.9777  -2.9268
    -2.8105  -2.7393  -2.7351  -2.6559  -2.5803  -2.5387  -2.4841  -2.4749
    -2.3969  -2.3634  -2.3456  -2.3221  -2.2787  -2.2505  -2.2094  -2.1183
    -2.0969  -2.0251  -1.9896  -1.9451  -1.9412  -1.8938  -1.8759  -1.8370
    -1.8359  -1.8261  -1.8052  -1.7680  -1.7253  -1.6696  -1.5788  -1.5524
    -1.3854  -1.2732  -1.2089  -1.1817  -1.1293  -1.0976  -1.0322  -0.9834
    -0.9696  -0.9335  -0.8667  -0.7639  -0.6977  -0.6853  -0.6255  -0.5344
    -0.4763  -0.4373  -0.3562  -0.3306  -0.3118  -0.3064  -0.2415  -0.1745
    -0.1284  -0.0538  -0.0377   0.0176   0.0402   0.0906   0.1214   0.1883
     0.2438   0.2845   0.3357   0.3901   0.3916   0.4066   0.4417   0.4434
     0.5436   0.5553   0.5777   0.6783   0.7774   0.9658   1.0633   1.0987
     1.3959   1.4113   1.4879   1.6723   2.0635   2.1116   3.5182   3.5485
     3.6324   3.6877   3.6967   3.7267   3.7831   4.0364   4.0479   4.0699
     4.0830

[...]

          k = 0.0380-0.0419 0.0000 ( 17876 PWs)   bands (ev):

[...]

          k =-0.0760-0.0000 0.0000 ( 17886 PWs)   bands (ev):

[...]

          k =-0.0760-0.0839 0.0000 ( 17948 PWs)   bands (ev):

   -55.5282 -55.5204 -55.4923 -55.4919 -55.4863 -55.4144 -55.4027 -55.3562
   -55.3558 -55.3502 -55.3247 -55.3243 -55.2940 -55.1147 -54.5182 -54.5180
   -31.9104 -31.8981 -31.8166 -31.8163 -31.7997 -31.7987 -31.7873 -31.7837
   -31.7835 -31.7673 -31.7560 -31.7489 -31.7313 -31.7137 -31.6946 -31.6887
   -31.6855 -31.6834 -31.6789 -31.6721 -31.6694 -31.6595 -31.6318 -31.6308
   -31.6118 -31.6115 -31.6089 -31.5995 -31.5883 -31.5799 -31.5696 -31.5638
   -31.5545 -31.5540 -31.5517 -31.5421 -31.5124 -31.5044 -31.5038 -31.4809
   -31.3775 -31.3414 -30.8413 -30.8411 -30.7570 -30.7568 -30.7175 -30.7174
   -19.2364 -16.3238 -15.8835 -15.7843 -15.6545 -15.5716 -15.5489 -15.4755
   -15.4172 -15.3836 -15.3271 -15.3044 -15.2905 -15.2750 -15.2404 -15.2140
   -15.1943 -15.1515 -15.1342 -15.1161 -15.0847 -15.0596 -15.0487 -15.0435
   -15.0378 -15.0032 -14.9988 -14.9133 -14.9041 -14.9006 -14.5684 -13.0216
   -13.0214  -9.2013  -7.0412  -6.4885  -4.5805  -3.5481  -3.0869  -3.0476
    -2.9909  -2.8537  -2.7943  -2.7282  -2.6926  -2.6497  -2.5994  -2.5662
    -2.5479  -2.4966  -2.4896  -2.4239  -2.4085  -2.3934  -2.3744  -2.3710
    -2.3625  -2.3253  -2.2899  -2.2767  -2.2695  -2.2605  -2.2466  -2.1999
    -2.1845  -2.1531  -2.1434  -2.1101  -2.0804  -2.0504  -1.9388  -1.9060
    -1.8809  -1.8185  -1.7526  -1.7468  -1.6654  -1.6436  -1.5873  -1.5835
    -1.5637  -1.5253  -1.3991  -1.2919  -1.2805  -1.2293  -1.1964  -1.1727
    -1.1101  -1.0592  -1.0046  -1.0020  -0.9093  -0.8643  -0.8377  -0.7365
    -0.7061  -0.6982  -0.5815  -0.5561  -0.5179  -0.5068  -0.5005  -0.4414
    -0.4338  -0.4092  -0.3272  -0.3086  -0.2816  -0.2700  -0.2074  -0.0467
    -0.0162   0.0283   0.1558   0.1958   0.3591   0.3898   0.4219   0.5281
     0.5728   0.6205   0.6249   0.7477   0.7576   0.8447   0.8573   0.8742
     0.9099   0.9216   1.8447   1.8461   1.9316   1.9317   3.5341   3.7780
     3.8432   3.8506   3.8876   4.0239   4.0676   4.1264   4.1297   4.1395
     4.1580

     the Fermi energy is     3.6047 ev

!    total energy              =   -2955.08682997 Ry
     estimated scf accuracy    <       0.00000006 Ry
     smearing contrib. (-TS)   =      -0.04070208 Ry
     internal energy E=F+TS    =   -2955.04612789 Ry

     The total energy is F=E-TS. E is the sum of the following terms:
     one-electron contribution =  -23872.80887062 Ry
     hartree contribution      =   12028.58958473 Ry
     xc contribution           =    -489.73056590 Ry
     ewald contribution        =    9378.90199054 Ry
     electric field correction =       0.00173336 Ry

     convergence has been achieved in  87 iterations

     Forces acting on atoms (cartesian axes, Ry/au):

     atom    1 type  1   force =    -0.00000818   -0.00025576    0.09335889
     atom    2 type  1   force =    -0.00015462   -0.00039895   -0.17809184
     atom    3 type  2   force =     0.00001216   -0.00034890   -0.02033487
     atom    4 type  2   force =    -0.00003505   -0.00190362    0.05857534
     atom    5 type  2   force =    -0.01017685   -0.00085583    0.00746247
     atom    6 type  2   force =     0.01151619   -0.00018060    0.00626394
     atom    7 type  1   force =    -0.00076374    0.00202730   -0.01055828
     atom    8 type  1   force =     0.00031686    0.00073504   -0.00334578
     atom    9 type  2   force =     0.00024208    0.00042754    0.00015654
     atom   10 type  2   force =    -0.00108457    0.00267562   -0.00406106
     atom   11 type  2   force =    -0.00026888    0.00005329    0.00002309
     atom   12 type  2   force =    -0.00004794   -0.00002766    0.00012459
     atom   13 type  1   force =     0.00075728    0.00072172    0.00041767
     atom   14 type  1   force =    -0.00093545   -0.00011477   -0.00007252
     atom   15 type  2   force =    -0.00012280   -0.00027356    0.00056827
     atom   16 type  2   force =     0.00031587    0.00056430    0.00001209
     atom   17 type  2   force =     0.00012021   -0.00026980    0.00028525
     atom   18 type  2   force =     0.00062589    0.00022032    0.00006214
     atom   19 type  1   force =    -0.00074979   -0.00055549    0.00011435
     atom   20 type  1   force =     0.00021728   -0.00070050   -0.00040671
     atom   21 type  2   force =     0.00002450   -0.00011471    0.10391787
     atom   22 type  2   force =     0.00002381   -0.00115031    0.00046407
     atom   23 type  2   force =    -0.07054915   -0.00021938   -0.02694273
     atom   24 type  2   force =     0.07036598    0.00021889   -0.02698833
     atom   25 type  1   force =     0.00003059   -0.00022040    0.09297295
     atom   26 type  1   force =    -0.00023435   -0.00043682   -0.17805947
     atom   27 type  2   force =     0.00006855   -0.00024101   -0.01930895
     atom   28 type  2   force =     0.00002532   -0.00162612    0.05767195
     atom   29 type  2   force =    -0.01076076   -0.00046740    0.00809139
     atom   30 type  2   force =     0.01197925   -0.00007798    0.00685291
     atom   31 type  1   force =    -0.00063356    0.00609204   -0.01379612
     atom   32 type  1   force =     0.00028309   -0.00085295   -0.00340239
     atom   33 type  2   force =     0.00014299    0.00006683    0.00001935
     atom   34 type  2   force =    -0.00051077   -0.00107176   -0.00266335
     atom   35 type  2   force =    -0.00040488    0.00006184    0.00004558
     atom   36 type  2   force =     0.00003823    0.00001668    0.00026572
     atom   37 type  1   force =     0.00083419   -0.00082164    0.00025536
     atom   38 type  1   force =    -0.00088891    0.00033746   -0.00052409
     atom   39 type  2   force =    -0.00022876   -0.00015287   -0.00013802
     atom   40 type  2   force =     0.00033086    0.00013796    0.00040700
     atom   41 type  2   force =    -0.00007720   -0.00026551   -0.00018187
     atom   42 type  2   force =     0.00054885   -0.00013538   -0.00047737
     atom   43 type  1   force =    -0.00099393   -0.00003468    0.00042403
     atom   44 type  1   force =     0.00104459   -0.00042724    0.00017470
     atom   45 type  2   force =     0.00000893   -0.00012203    0.10392179
     atom   46 type  2   force =    -0.07054540   -0.00016233   -0.02692183
     atom   47 type  2   force =     0.07037110    0.00027567   -0.02699134
     atom   48 type  3   force =    -0.00131424    0.00416436    0.00247648
     atom   49 type  4   force =     0.00149376    0.00038169   -0.00002079
     atom   50 type  5   force =    -0.00052252   -0.00091147   -0.00061236
     atom   51 type  5   force =     0.00033812    0.00008020    0.00033034
     atom   52 type  5   force =     0.00183342   -0.00372285   -0.00285339
     atom   53 type  5   force =    -0.00055615   -0.00022045    0.00078986
     atom   54 type  2   force =    -0.00000637    0.00019408    0.00026440
     atom   55 type  5   force =    -0.00065882   -0.00020595   -0.00015105
     atom   56 type  5   force =    -0.00067632    0.00009386    0.00013414

     Total force =     0.365885     Total SCF correction =     0.000605
  @ DRIVER MODE: Message from server: STATUS
  @ DRIVER MODE: Message from server: GETFORCE
  @ DRIVER MODE: Returning v,forces,stress,ensemble

     Writing output data file ./calc.save/
  @ DRIVER MODE: Message from server: EXIT
  @ DRIVE MODE: Exiting

     General routines

     Parallel routines

   This run was terminated on:   2: 8:35  16Sep2021

   JOB DONE.