     Program PWSCF v.6.7GPU starts on 10Sep2021 at  5:40:23

     R & G space division:  proc/nbgrp/npool/nimage =      10
     Reading input from /storage/home/hcoda1/3/ntian30/research/carbon/CxH_vib/CH3_calc/ads_slab/CH3N2H2O_g/out_0027/pw.inp
Warning: card &CELL ignored
Warning: card   CELL_DYNAMICS='IPI', ignored
Warning: card / ignored

     Current dimensions of program PWSCF are:
     Max number of different atomic species (ntypx) = 10
     Max number of k-points (npk) =  40000
     Max angular momentum in pseudopotentials (lmaxx) =  3
     Presently no symmetry can be used with electric field

     Message from routine cell_base_init:
     DEPRECATED: use true lattice parameter, not A to a.u. conversion factor

     IMPORTANT: XC functional enforced from input :
     Exchange-correlation= BEEF-VDW
                           (   1   4  43  14   2   0   0)
     Any further DFT definition will be discarded
     Please, verify this is what you really want

  @ DRIVER MODE: Connecting to
 qe_1139763_2779714.sched-torque.pace.gatech.edun33frg63_scratch
  using UNIX socket
  @ DRIVER MODE: Message from server: STATUS
  @ DRIVER MODE: Message from server: INIT
  @ DRIVER MODE: Receiving replica           0          -1
  @ DRIVER MODE: Receiving encoded integer          25
  @ DRIVER MODE:  SCF:  T  FORCE:  T  STRESS:  F  VC:  F  ENSEMBLE:  F
  @ DRIVER MODE:  SCF:  T  FORCE:  T  STRESS:  F  VC:  F  ENSEMBLE:  F

     Using Slab Decomposition

     bravais-lattice index     =            0
     lattice parameter (alat)  =       1.8897  a.u.
     unit-cell volume          =    6658.9804 (a.u.)^3
     number of atoms/cell      =           56
     number of atomic types    =            5
     number of electrons       =       403.00
     number of Kohn-Sham states=          211
     kinetic-energy cutoff     =      29.3995  Ry
     charge density cutoff     =     293.9946  Ry
     scf convergence threshold =      7.3E-08
     mixing beta               =       0.0500
     number of iterations used =            8  plain     mixing
     Exchange-correlation= BEEF-VDW
                           (   1   4  43  14   2   0   0)

     celldm(1)=   1.889726  celldm(2)=   0.000000  celldm(3)=   0.000000
     celldm(4)=   0.000000  celldm(5)=   0.000000  celldm(6)=   0.000000

     crystal axes: (cart. coord. in units of alat)
               a(1) = (   6.579727   0.000000   0.000000 )
               a(2) = (  -0.000775   5.961596   0.000000 )
               a(3) = (   0.000000   0.000000  25.155947 )

     reciprocal axes: (cart. coord. in units 2 pi/alat)
               b(1) = (  0.151982  0.000020  0.000000 )
               b(2) = (  0.000000  0.167740  0.000000 )
               b(3) = (  0.000000  0.000000  0.039752 )

     PseudoPot. # 1 for Ti read from file:
     /storage/coda1/p-amedford6/0/shared/rich_project_chbe-medford/medford-share/data/pseudos_module/espresso/nninc/pbe/van/Ti.UPF
     MD5 check sum: 8e4df49b7f0d34bbd5052bf3f5ea0213
     Pseudo is Ultrasoft, Zval = 12.0
     Generated by new atomic code, or converted to UPF format
     Using radial grid of  851 points,  6 beta functions with:
                l(1) =   0
                l(2) =   0
                l(3) =   1
                l(4) =   1
                l(5) =   2
                l(6) =   2
     Q(r) pseudized with  8 coefficients,  rinner =    1.000   1.000   1.000
                                                       1.000   1.000

     PseudoPot. # 2 for O  read from file:
     /storage/coda1/p-amedford6/0/shared/rich_project_chbe-medford/medford-share/data/pseudos_module/espresso/nninc/pbe/van/O.UPF
     MD5 check sum: 78c19812648e8988a0fe644b0f25305e
     Pseudo is Ultrasoft, Zval =  6.0
     Generated by new atomic code, or converted to UPF format
     Using radial grid of  737 points,  4 beta functions with:
                l(1) =   0
                l(2) =   0
                l(3) =   1
                l(4) =   1
     Q(r) pseudized with  8 coefficients,  rinner =    0.800   0.800   0.800

     PseudoPot. # 3 for N  read from file:
     /storage/coda1/p-amedford6/0/shared/rich_project_chbe-medford/medford-share/data/pseudos_module/espresso/nninc/pbe/van/N.UPF
     MD5 check sum: 90d10febe142ad51ac9d5be1deb811c4
     Pseudo is Ultrasoft, Zval =  5.0
     Generated by new atomic code, or converted to UPF format
     Using radial grid of  729 points,  4 beta functions with:
                l(1) =   0
                l(2) =   0
                l(3) =   1
                l(4) =   1
     Q(r) pseudized with  8 coefficients,  rinner =    0.800   0.800   0.800

     PseudoPot. # 4 for C  read from file:
     /storage/coda1/p-amedford6/0/shared/rich_project_chbe-medford/medford-share/data/pseudos_module/espresso/nninc/pbe/van/C.UPF
     MD5 check sum: 1a69bf6b8db32088f5b2163dbdb77a27
     Pseudo is Ultrasoft, Zval =  4.0
     Generated by new atomic code, or converted to UPF format
     Using radial grid of  721 points,  4 beta functions with:
                l(1) =   0
                l(2) =   0
                l(3) =   1
                l(4) =   1
     Q(r) pseudized with  8 coefficients,  rinner =    0.800   0.800   0.800

     PseudoPot. # 5 for H  read from file:
     /storage/coda1/p-amedford6/0/shared/rich_project_chbe-medford/medford-share/data/pseudos_module/espresso/nninc/pbe/van/H.UPF
     MD5 check sum: b5ee9d7bfd3a09ee7748110bda690ff7
     Pseudo is Ultrasoft, Zval =  1.0
     Generated by new atomic code, or converted to UPF format
     Using radial grid of  615 points,  1 beta functions with:
                l(1) =   0
     Q(r) pseudized with  8 coefficients,  rinner =    0.800

     atomic species   valence    mass     pseudopotential
        Ti1           12.00    47.86700     Ti( 1.00)
        O1             6.00    15.99900     O ( 1.00)
        N1             5.00    14.00700     N ( 1.00)
        C1             4.00    12.01100     C ( 1.00)
        H1             1.00     1.00800     H ( 1.00)

     No symmetry found

   Cartesian axes

     site n.     atom                  positions (alat units)
         1           Ti1 tau(   1) = (   0.0004258   2.9801865   6.0000000  )
         2           Ti1 tau(   2) = (   3.2906075   1.4906267   6.0002472  )
         3           O1  tau(   3) = (   0.0006271   0.0005054   7.9858123  )
         4           O1  tau(   4) = (   3.2906025   0.0005020   7.3038282  )
         5           O1  tau(   5) = (   4.5942328   1.4918067   9.2879030  )
         6           O1  tau(   6) = (   1.9868534   1.4903216   9.2879459  )
         7           Ti1 tau(   7) = (   3.2907910   2.8959150   9.1758416  )
         8           Ti1 tau(   8) = (   0.0015273   1.4827037   9.2680791  )
         9           O1  tau(   9) = (   3.3002115   5.9463602  11.3460011  )
        10           O1  tau(  10) = (   0.0116148   5.9584955  10.6183126  )
        11           O1  tau(  11) = (   1.3192008   1.4768417  12.6238339  )
        12           O1  tau(  12) = (   5.3062067   1.4698383  12.6193417  )
        13           Ti1 tau(  13) = (   6.5330844   2.9444840  12.6148558  )
        14           Ti1 tau(  14) = (   3.2222230   1.4676475  12.5013840  )
        15           O1  tau(  15) = (   0.0064324   5.9471174  14.6352917  )
        16           O1  tau(  16) = (   3.3028336   5.9445487  13.9678148  )
        17           O1  tau(  17) = (   4.5628415   1.5226527  16.0793330  )
        18           O1  tau(  18) = (   2.0474444   1.5206590  16.0184434  )
        19           Ti1 tau(  19) = (   3.3141275   2.9607752  15.6908890  )
        20           Ti1 tau(  20) = (   6.5660065   1.5097775  15.7997320  )
        21           O1  tau(  21) = (   3.2904802   0.0005063   4.7018136  )
        22           O1  tau(  22) = (   0.0269361   0.0086655  17.1987262  )
        23           O1  tau(  23) = (   1.3043587   1.4918075   6.0039043  )
        24           O1  tau(  24) = (   5.2767064   1.4903225   6.0039473  )
        25           Ti1 tau(  25) = (   0.0000382   5.9609847   6.0000000  )
        26           Ti1 tau(  26) = (   3.2902200   4.4714249   6.0002472  )
        27           O1  tau(  27) = (   0.0002396   2.9813036   7.9858123  )
        28           O1  tau(  28) = (   3.2902150   2.9813002   7.3038282  )
        29           O1  tau(  29) = (   4.5938453   4.4726049   9.2879030  )
        30           O1  tau(  30) = (   1.9864658   4.4711199   9.2879459  )
        31           Ti1 tau(  31) = (   3.2891106   5.8743827   9.1763621  )
        32           Ti1 tau(  32) = (   0.0006254   4.4649316   9.2693709  )
        33           O1  tau(  33) = (   3.2944391   2.9688829  11.3444728  )
        34           O1  tau(  34) = (   0.0092240   2.9805883  10.6323155  )
        35           O1  tau(  35) = (   1.3142520   4.4635248  12.6275686  )
        36           O1  tau(  36) = (   5.3078217   4.4601700  12.6226734  )
        37           Ti1 tau(  37) = (   6.5374036   5.9186568  12.5467527  )
        38           Ti1 tau(  38) = (   3.2213306   4.4595164  12.5065882  )
        39           O1  tau(  39) = (   6.5756885   2.9534048  14.6511233  )
        40           O1  tau(  40) = (   3.3206316   2.9687378  13.8980937  )
        41           O1  tau(  41) = (   4.5543359   4.4428353  16.0905846  )
        42           O1  tau(  42) = (   2.0427057   4.4323087  16.0570365  )
        43           Ti1 tau(  43) = (   3.2570595   5.9269474  15.8069103  )
        44           Ti1 tau(  44) = (   6.5609319   4.6488967  16.0725391  )
        45           O1  tau(  45) = (   3.2900926   2.9813045   4.7018136  )
        46           O1  tau(  46) = (   1.3039711   4.4726057   6.0039043  )
        47           O1  tau(  47) = (   5.2763189   4.4711207   6.0039473  )
        48           N1  tau(  48) = (   0.2492319   2.6641403  18.6309932  )
        49           N1  tau(  49) = (   0.0782707   2.8835230  17.4382120  )
        50           C1  tau(  50) = (   0.2622466   3.8234900  19.5663878  )
        51           H1  tau(  51) = (   6.1755609   4.6233469  19.2444151  )
        52           H1  tau(  52) = (   6.5754044   3.4377461  20.5519103  )
        53           H1  tau(  53) = (   1.2857956   4.2073973  19.6006198  )
        54           O1  tau(  54) = (   3.1761146   0.0362278  18.2233714  )
        55           H1  tau(  55) = (   3.9097821   0.6076051  18.5038283  )
        56           H1  tau(  56) = (   2.3516031   0.5117379  18.4309238  )

     number of k points=    10  Fermi-Dirac smearing, width (Ry)=  0.0073
                       cart. coord. in units 2pi/alat
        k(    1) = (   0.0000000   0.0000000   0.0000000), wk =   0.1250000
        k(    2) = (   0.0000000   0.0419351   0.0000000), wk =   0.2500000
        k(    3) = (   0.0000000  -0.0838702   0.0000000), wk =   0.1250000
        k(    4) = (   0.0379955   0.0000049   0.0000000), wk =   0.2500000
        k(    5) = (   0.0379955   0.0419400   0.0000000), wk =   0.2500000
        k(    6) = (   0.0379955  -0.0838652   0.0000000), wk =   0.2500000
        k(    7) = (   0.0379955  -0.0419301   0.0000000), wk =   0.2500000
        k(    8) = (  -0.0759910  -0.0000099   0.0000000), wk =   0.1250000
        k(    9) = (  -0.0759910   0.0419252   0.0000000), wk =   0.2500000
        k(   10) = (  -0.0759910  -0.0838800   0.0000000), wk =   0.1250000

     Initial potential from superposition of free atoms

     starting charge  386.99914, renormalised to  403.00000

     negative rho (up, down):  1.449E-02 0.000E+00

     %%%%%%%%%%%%%%%%%%%%%%%%%%%%%%%%%%%%%%%%%%%%%%%%%%%%%%%%%%%%%%%%%%%%%%%%
     %                                                                      %
     % You are using vdW-DF, which was implemented by the Thonhauser group. %
     % Please cite the following two papers that made this development      %
     % possible and the two reviews that describe the various versions:     %
     %                                                                      %
     %   T. Thonhauser et al., PRL 115, 136402 (2015).                      %
     %   T. Thonhauser et al., PRB 76, 125112 (2007).                       %
     %   K. Berland et al., Rep. Prog. Phys. 78, 066501 (2015).             %
     %   D.C. Langreth et al., J. Phys.: Condens. Matter 21, 084203 (2009). %
     %                                                                      %
     %                                                                      %
     % If you are calculating the stress with vdW-DF, please also cite:     %
     %                                                                      %
     %   R. Sabatini et al., J. Phys.: Condens. Matter 24, 424209 (2012).   %
     %                                                                      %
     %%%%%%%%%%%%%%%%%%%%%%%%%%%%%%%%%%%%%%%%%%%%%%%%%%%%%%%%%%%%%%%%%%%%%%%%

     Adding external electric field

     Computed dipole along edir(3) :
        Dipole              -13.2089 Ry au,        -33.5737 Debye
        Dipole field         -0.0249 Ry au,

        Potential amp.        2.3107 Ry
        Total length         46.3494 bohr

     Starting wfcs are  305 atomic wfcs
  @ DRIVER MODE: Message from server: STATUS
  @ DRIVER MODE: Message from server: POSDATA
  @ DRIVER MODE: Reading and sharing cell
  @ DRIVER MODE: Reading and sharing positions
  @ DRIVER MODE: Received positions

     Self-consistent Calculation

     iteration #  1     ecut=    29.40 Ry     beta= 0.05
     Davidson diagonalization with overlap
     c_bands:  4 eigenvalues not converged
     c_bands:  2 eigenvalues not converged
     c_bands:  2 eigenvalues not converged
     c_bands:  5 eigenvalues not converged
     c_bands:  1 eigenvalues not converged
     c_bands:  1 eigenvalues not converged
     c_bands:  4 eigenvalues not converged
     c_bands:  1 eigenvalues not converged
     c_bands:  1 eigenvalues not converged
     ethr =  1.00E-05,  avg # of iterations = 28.0

[...]

     total energy              =   -2367.57994145 Ry
     estimated scf accuracy    <    6916.05750206 Ry

     iteration #  2     ecut=    29.40 Ry     beta= 0.05
     Davidson diagonalization with overlap
     ethr =  1.00E-02,  avg # of iterations = 23.5

[...]

     iteration # 59     ecut=    29.40 Ry     beta= 0.05
     Davidson diagonalization with overlap
     c_bands:  1 eigenvalues not converged
     c_bands:  1 eigenvalues not converged
     ethr =  8.02E-10,  avg # of iterations = 13.0

[...]

     total energy              =   -2974.00270067 Ry
     estimated scf accuracy    <       0.00000010 Ry

     iteration # 65     ecut=    29.40 Ry     beta= 0.05
     Davidson diagonalization with overlap
     ethr =  2.46E-11,  avg # of iterations =  5.9

     negative rho (up, down):  1.476E-02 0.000E+00

     Adding external electric field

     Computed dipole along edir(3) :
        Dipole                0.8882 Ry au,          2.2577 Debye
        Dipole field          0.0017 Ry au,

        Potential amp.       -0.1554 Ry
        Total length         46.3494 bohr

     End of self-consistent calculation

          k = 0.0000 0.0000 0.0000 ( 18029 PWs)   bands (ev):

   -55.6194 -55.5854 -55.5776 -55.5608 -55.5410 -55.4477 -55.4294 -55.4086
   -55.3955 -55.3945 -55.3661 -55.3608 -55.0036 -54.8637 -54.5980 -54.5640
   -32.1198 -32.1019 -31.9623 -31.9452 -31.9282 -31.9123 -31.8840 -31.8784
   -31.8623 -31.8088 -31.8026 -31.7844 -31.7717 -31.7559 -31.7398 -31.7309
   -31.7238 -31.7108 -31.7051 -31.6767 -31.6679 -31.6506 -31.6218 -31.6177
   -31.6020 -31.5993 -31.5988 -31.5935 -31.5694 -31.5647 -31.5618 -31.5569
   -31.5471 -31.5426 -31.5360 -31.5096 -31.5062 -31.2737 -31.1994 -31.1240
   -31.1069 -31.0726 -31.0053 -30.9166 -30.8942 -30.8219 -30.7354 -30.6245
   -18.8647 -18.3054 -16.3114 -16.0829 -15.8533 -15.7655 -15.7169 -15.5173
   -15.4154 -15.3430 -15.2204 -15.1575 -15.1457 -15.1313 -15.1127 -15.1106
   -15.0581 -15.0513 -15.0472 -15.0393 -15.0062 -14.9656 -14.9507 -14.9404
   -14.8465 -14.7731 -14.7557 -14.7320 -14.6865 -14.6700 -14.1974 -13.1004
   -12.9839 -11.2524  -6.8634  -6.6391  -4.1993  -3.8416  -3.7930  -3.6841
    -3.5566  -3.5232  -3.4417  -3.3683  -3.2317  -3.1991  -3.0372  -2.8469
    -2.7863  -2.7602  -2.7074  -2.6407  -2.5270  -2.4677  -2.4230  -2.4160
    -2.3987  -2.3912  -2.3674  -2.3547  -2.2537  -2.2319  -2.1532  -2.1493
    -2.0982  -1.9808  -1.9660  -1.9314  -1.9186  -1.8950  -1.8732  -1.8530
    -1.8425  -1.8185  -1.7677  -1.6984  -1.6308  -1.5948  -1.5071  -1.4401
    -1.3979  -1.3509  -1.2292  -1.1362  -1.1016  -1.0608  -1.0532  -1.0401
    -1.0112  -0.9936  -0.8806  -0.7667  -0.7498  -0.6844  -0.6244  -0.5434
    -0.5169  -0.4371  -0.3830  -0.3647  -0.3611  -0.3155  -0.2857  -0.2266
    -0.0928  -0.0414  -0.0073   0.0018   0.0608   0.1044   0.1330   0.2203
     0.2266   0.2719   0.3101   0.3425   0.3558   0.3708   0.3893   0.4188
     0.4335   0.6250   0.6613   0.7002   0.7380   0.7807   0.9192   0.9433
     1.0418   1.1509   1.3503   1.4241   1.5288   1.6162   1.9956   2.0414
     2.7446   3.5158   3.6030   3.6479   3.6768   3.7606   3.7746   3.9706
     3.9865   4.0249   4.0947

[...]

          k = 0.0380-0.0419 0.0000 ( 17876 PWs)   bands (ev):

[...]

          k =-0.0760-0.0000 0.0000 ( 17886 PWs)   bands (ev):

[...]

          k =-0.0760-0.0839 0.0000 ( 17948 PWs)   bands (ev):

   -55.6028 -55.6018 -55.5634 -55.5592 -55.5549 -55.4374 -55.4191 -55.4130
   -55.4112 -55.3794 -55.3761 -55.3675 -55.0017 -54.8655 -54.5810 -54.5808
   -31.9334 -31.9175 -31.9172 -31.9168 -31.8982 -31.8972 -31.8478 -31.8417
   -31.8205 -31.7953 -31.7831 -31.7740 -31.7699 -31.7318 -31.7271 -31.7256
   -31.7225 -31.7214 -31.7189 -31.7163 -31.7138 -31.7081 -31.6718 -31.6546
   -31.6361 -31.6318 -31.6244 -31.6124 -31.6120 -31.6090 -31.6034 -31.5940
   -31.5906 -31.5798 -31.5789 -31.5704 -31.4207 -31.2756 -31.2155 -31.1627
   -31.1252 -31.0992 -30.9070 -30.9068 -30.8182 -30.8179 -30.7787 -30.7786
   -18.8636 -18.3017 -15.7698 -15.6594 -15.5688 -15.5346 -15.4771 -15.4081
   -15.4002 -15.3135 -15.2974 -15.2944 -15.2288 -15.2081 -15.1708 -15.1638
   -15.1411 -15.1254 -15.1188 -15.0692 -15.0574 -15.0544 -15.0476 -15.0427
   -14.9667 -14.9360 -14.9322 -14.9234 -14.7957 -14.6712 -14.3692 -13.0858
   -13.0856 -11.2501  -6.8915  -6.6154  -4.1259  -3.8731  -3.7550  -3.2163
    -3.0523  -2.8389  -2.8199  -2.7241  -2.7121  -2.6776  -2.5468  -2.5060
    -2.4652  -2.4488  -2.4297  -2.4283  -2.4111  -2.4055  -2.3844  -2.3586
    -2.3346  -2.3142  -2.2853  -2.2817  -2.2689  -2.2559  -2.2327  -2.2204
    -2.2042  -2.1734  -2.1476  -2.1317  -2.0646  -1.9929  -1.8322  -1.7939
    -1.7547  -1.7484  -1.7316  -1.7009  -1.6852  -1.6672  -1.6201  -1.5836
    -1.4999  -1.3573  -1.3382  -1.3143  -1.2930  -1.2827  -1.2106  -1.1022
    -1.0832  -1.0120  -1.0036  -0.8971  -0.8892  -0.8040  -0.7954  -0.7853
    -0.7106  -0.6836  -0.6687  -0.5797  -0.5776  -0.5538  -0.5045  -0.4774
    -0.4126  -0.3701  -0.3396  -0.3362  -0.2902  -0.2680  -0.2240  -0.1575
    -0.1042  -0.0680   0.0283   0.1327   0.2329   0.3487   0.4637   0.4776
     0.5597   0.5932   0.6779   0.6938   0.7022   0.7742   0.7791   0.8777
     0.9228   0.9372   0.9777   1.1003   1.7874   1.7888   1.8609   1.8612
     2.7689   3.7333   3.8531   3.8953   3.9131   3.9875   4.0301   4.0496
     4.0520   4.0861   4.1924

     the Fermi energy is     3.5146 ev

!    total energy              =   -2974.00272983 Ry
     estimated scf accuracy    <       0.00000007 Ry
     smearing contrib. (-TS)   =      -0.02182627 Ry
     internal energy E=F+TS    =   -2973.98090356 Ry

     The total energy is F=E-TS. E is the sum of the following terms:
     one-electron contribution =  -23847.95578027 Ry
     hartree contribution      =   12018.38785371 Ry
     xc contribution           =    -494.02649018 Ry
     ewald contribution        =    9349.61202430 Ry
     electric field correction =       0.00148888 Ry

     convergence has been achieved in  65 iterations

     Forces acting on atoms (cartesian axes, Ry/au):

     atom    1 type  1   force =     0.00003806   -0.00023995    0.09647261
     atom    2 type  1   force =     0.00005878   -0.00044146   -0.17543756
     atom    3 type  2   force =     0.00011572   -0.00009650   -0.02475244
     atom    4 type  2   force =     0.00004308   -0.00157902    0.05349387
     atom    5 type  2   force =    -0.01197441   -0.00100577    0.00308391
     atom    6 type  2   force =     0.01371847   -0.00064723    0.00292207
     atom    7 type  1   force =     0.00074482    0.00068586   -0.00682607
     atom    8 type  1   force =     0.00021908    0.00949722    0.02713981
     atom    9 type  2   force =    -0.00014709   -0.00006166   -0.00005996
     atom   10 type  2   force =    -0.00204636    0.00048367   -0.01820641
     atom   11 type  2   force =    -0.00057213    0.00032898    0.00012638
     atom   12 type  2   force =     0.00067728    0.00012622    0.00031816
     atom   13 type  1   force =    -0.00015338   -0.00009231   -0.00014789
     atom   14 type  1   force =    -0.00040816   -0.00015089    0.00026042
     atom   15 type  2   force =     0.00003298   -0.00062127    0.00070271
     atom   16 type  2   force =    -0.00026117   -0.00007304   -0.00035928
     atom   17 type  2   force =    -0.00023754    0.00016577   -0.00031446
     atom   18 type  2   force =     0.00000002    0.00018922   -0.00030371
     atom   19 type  1   force =    -0.00031131    0.00017311   -0.00007239
     atom   20 type  1   force =    -0.00046274    0.00004435    0.00031916
     atom   21 type  2   force =     0.00008451    0.00001398    0.10328012
     atom   22 type  2   force =     0.00014600    0.00039483    0.00010733
     atom   23 type  2   force =    -0.07143777   -0.00008749   -0.02774096
     atom   24 type  2   force =     0.07139520    0.00036807   -0.02781341
     atom   25 type  1   force =     0.00017923   -0.00033956    0.09614326
     atom   26 type  1   force =     0.00000653   -0.00037651   -0.17577136
     atom   27 type  2   force =     0.00021032   -0.00020597   -0.02375125
     atom   28 type  2   force =     0.00002464   -0.00128301    0.05295885
     atom   29 type  2   force =    -0.01221437    0.00023882    0.00291176
     atom   30 type  2   force =     0.01387738    0.00081869    0.00273043
     atom   31 type  1   force =     0.00041823    0.00343872   -0.00985005
     atom   32 type  1   force =     0.00036491   -0.01132875    0.02755115
     atom   33 type  2   force =     0.00010141    0.00014252   -0.00000306
     atom   34 type  2   force =    -0.00188208   -0.00045003   -0.02414525
     atom   35 type  2   force =     0.00041453    0.00002750   -0.00026435
     atom   36 type  2   force =    -0.00030262   -0.00006434    0.00008348
     atom   37 type  1   force =    -0.00030586   -0.00013528    0.00009214
     atom   38 type  1   force =    -0.00079935    0.00013440   -0.00048668
     atom   39 type  2   force =     0.00009493   -0.00030734   -0.00021110
     atom   40 type  2   force =     0.00019824    0.00033987    0.00047313
     atom   41 type  2   force =     0.00024567    0.00011001   -0.00033110
     atom   42 type  2   force =    -0.00044081   -0.00007768   -0.00034159
     atom   43 type  1   force =     0.00031992    0.00079780    0.00030062
     atom   44 type  1   force =    -0.00010373    0.00105140   -0.00074530
     atom   45 type  2   force =     0.00008413   -0.00002654    0.10327228
     atom   46 type  2   force =    -0.07144496   -0.00002949   -0.02775208
     atom   47 type  2   force =     0.07140274    0.00039753   -0.02780862
     atom   48 type  3   force =    -0.00009689    0.00035947   -0.00259369
     atom   49 type  3   force =    -0.00014809   -0.00052990    0.00111310
     atom   50 type  4   force =    -0.00069093   -0.00260523    0.00388622
     atom   51 type  5   force =     0.00081571   -0.00091189    0.00037757
     atom   52 type  5   force =     0.00081815    0.00349503   -0.00347407
     atom   53 type  5   force =    -0.00008265   -0.00080132    0.00054413
     atom   54 type  2   force =     0.00013657    0.00054345   -0.00076643
     atom   55 type  5   force =    -0.00007927   -0.00008517   -0.00002555
     atom   56 type  5   force =    -0.00038359    0.00028810   -0.00030860

     Total force =     0.368056     Total SCF correction =     0.000688
  @ DRIVER MODE: Message from server: STATUS
  @ DRIVER MODE: Message from server: GETFORCE
  @ DRIVER MODE: Returning v,forces,stress,ensemble

     Writing output data file ./calc.save/
  @ DRIVER MODE: Message from server: EXIT
  @ DRIVE MODE: Exiting

     General routines

     Parallel routines

   This run was terminated on:   6: 0:28  10Sep2021

   JOB DONE.