     Program PWSCF v.6.7GPU starts on 16Jul2021 at 15:31:25

     R & G space division:  proc/nbgrp/npool/nimage =      16
     Reading input from /storage/home/hcoda1/3/ntian30/research/carbon/15Jul_vib/ads_slab/CH3NNH3_a/out_0043/pw.inp
Warning: card &CELL ignored
Warning: card   CELL_DYNAMICS='IPI', ignored
Warning: card / ignored

     Current dimensions of program PWSCF are:
     Max number of different atomic species (ntypx) = 10
     Max number of k-points (npk) =  40000
     Max angular momentum in pseudopotentials (lmaxx) =  3
     Presently no symmetry can be used with electric field

     Message from routine cell_base_init:
     DEPRECATED: use true lattice parameter, not A to a.u. conversion factor

     IMPORTANT: XC functional enforced from input :
     Exchange-correlation= BEEF-VDW
                           (   1   4  43  14   2   0   0)
     Any further DFT definition will be discarded
     Please, verify this is what you really want

  @ DRIVER MODE: Connecting to
 qe_1139763_2351650.sched-torque.pace.gatech.edurfrd26kh_scratch
  using UNIX socket
  @ DRIVER MODE: Message from server: STATUS
  @ DRIVER MODE: Message from server: INIT
  @ DRIVER MODE: Receiving replica           0          -1
  @ DRIVER MODE: Receiving encoded integer          25
  @ DRIVER MODE:  SCF:  T  FORCE:  T  STRESS:  F  VC:  F  ENSEMBLE:  F
  @ DRIVER MODE:  SCF:  T  FORCE:  T  STRESS:  F  VC:  F  ENSEMBLE:  F

     Using Slab Decomposition

     bravais-lattice index     =            0
     lattice parameter (alat)  =       1.8897  a.u.
     unit-cell volume          =    6658.9804 (a.u.)^3
     number of atoms/cell      =           56
     number of atomic types    =            5
     number of electrons       =       398.00
     number of Kohn-Sham states=          209
     kinetic-energy cutoff     =      29.3995  Ry
     charge density cutoff     =     293.9946  Ry
     scf convergence threshold =      7.3E-08
     mixing beta               =       0.0500
     number of iterations used =            8  plain     mixing
     Exchange-correlation= BEEF-VDW
                           (   1   4  43  14   2   0   0)

     celldm(1)=   1.889726  celldm(2)=   0.000000  celldm(3)=   0.000000
     celldm(4)=   0.000000  celldm(5)=   0.000000  celldm(6)=   0.000000

     crystal axes: (cart. coord. in units of alat)
               a(1) = (   6.579727   0.000000   0.000000 )
               a(2) = (  -0.000775   5.961596   0.000000 )
               a(3) = (   0.000000   0.000000  25.155947 )

     reciprocal axes: (cart. coord. in units 2 pi/alat)
               b(1) = (  0.151982  0.000020  0.000000 )
               b(2) = (  0.000000  0.167740  0.000000 )
               b(3) = (  0.000000  0.000000  0.039752 )

     PseudoPot. # 1 for Ti read from file:
     /storage/coda1/p-amedford6/0/shared/rich_project_chbe-medford/medford-share/data/pseudos_module/espresso/nninc/pbe/van/Ti.UPF
     MD5 check sum: 8e4df49b7f0d34bbd5052bf3f5ea0213
     Pseudo is Ultrasoft, Zval = 12.0
     Generated by new atomic code, or converted to UPF format
     Using radial grid of  851 points,  6 beta functions with:
                l(1) =   0
                l(2) =   0
                l(3) =   1
                l(4) =   1
                l(5) =   2
                l(6) =   2
     Q(r) pseudized with  8 coefficients,  rinner =    1.000   1.000   1.000
                                                       1.000   1.000

     PseudoPot. # 2 for O  read from file:
     /storage/coda1/p-amedford6/0/shared/rich_project_chbe-medford/medford-share/data/pseudos_module/espresso/nninc/pbe/van/O.UPF
     MD5 check sum: 78c19812648e8988a0fe644b0f25305e
     Pseudo is Ultrasoft, Zval =  6.0
     Generated by new atomic code, or converted to UPF format
     Using radial grid of  737 points,  4 beta functions with:
                l(1) =   0
                l(2) =   0
                l(3) =   1
                l(4) =   1
     Q(r) pseudized with  8 coefficients,  rinner =    0.800   0.800   0.800

     PseudoPot. # 3 for N  read from file:
     /storage/coda1/p-amedford6/0/shared/rich_project_chbe-medford/medford-share/data/pseudos_module/espresso/nninc/pbe/van/N.UPF
     MD5 check sum: 90d10febe142ad51ac9d5be1deb811c4
     Pseudo is Ultrasoft, Zval =  5.0
     Generated by new atomic code, or converted to UPF format
     Using radial grid of  729 points,  4 beta functions with:
                l(1) =   0
                l(2) =   0
                l(3) =   1
                l(4) =   1
     Q(r) pseudized with  8 coefficients,  rinner =    0.800   0.800   0.800

     PseudoPot. # 4 for C  read from file:
     /storage/coda1/p-amedford6/0/shared/rich_project_chbe-medford/medford-share/data/pseudos_module/espresso/nninc/pbe/van/C.UPF
     MD5 check sum: 1a69bf6b8db32088f5b2163dbdb77a27
     Pseudo is Ultrasoft, Zval =  4.0
     Generated by new atomic code, or converted to UPF format
     Using radial grid of  721 points,  4 beta functions with:
                l(1) =   0
                l(2) =   0
                l(3) =   1
                l(4) =   1
     Q(r) pseudized with  8 coefficients,  rinner =    0.800   0.800   0.800

     PseudoPot. # 5 for H  read from file:
     /storage/coda1/p-amedford6/0/shared/rich_project_chbe-medford/medford-share/data/pseudos_module/espresso/nninc/pbe/van/H.UPF
     MD5 check sum: b5ee9d7bfd3a09ee7748110bda690ff7
     Pseudo is Ultrasoft, Zval =  1.0
     Generated by new atomic code, or converted to UPF format
     Using radial grid of  615 points,  1 beta functions with:
                l(1) =   0
     Q(r) pseudized with  8 coefficients,  rinner =    0.800

     atomic species   valence    mass     pseudopotential
        Ti1           12.00    47.86700     Ti( 1.00)
        O1             6.00    15.99900     O ( 1.00)
        N1             5.00    14.00700     N ( 1.00)
        C1             4.00    12.01100     C ( 1.00)
        H1             1.00     1.00800     H ( 1.00)

     Starting magnetic structure
     atomic species   magnetization
        Ti1          0.000
        O1           0.000
        N1           0.000
        C1           0.025
        H1           0.000

     No symmetry found

   Cartesian axes

     site n.     atom                  positions (alat units)
         1           Ti1 tau(   1) = (   0.0004258   2.9801865   6.0000000  )
         2           Ti1 tau(   2) = (   3.2906075   1.4906267   6.0002472  )
         3           O1  tau(   3) = (   0.0006271   0.0005054   7.9858123  )
         4           O1  tau(   4) = (   3.2906025   0.0005020   7.3038282  )
         5           O1  tau(   5) = (   4.5942328   1.4918067   9.2879030  )
         6           O1  tau(   6) = (   1.9868534   1.4903216   9.2879459  )
         7           Ti1 tau(   7) = (   3.2907910   2.8959150   9.1758416  )
         8           Ti1 tau(   8) = (   0.0015273   1.4827037   9.2680791  )
         9           O1  tau(   9) = (   3.3019049   5.9598586  11.2958584  )
        10           O1  tau(  10) = (   0.0116148   5.9584955  10.6183126  )
        11           O1  tau(  11) = (   1.3346742   1.4914638  12.6145280  )
        12           O1  tau(  12) = (   5.3113054   1.4894223  12.6320738  )
        13           Ti1 tau(  13) = (   6.4919192   2.9607050  12.7581921  )
        14           Ti1 tau(  14) = (   3.1808934   1.4809541  12.4628303  )
        15           O1  tau(  15) = (   0.0259758   5.9327586  14.5948705  )
        16           O1  tau(  16) = (   3.3179433   0.0111293  13.8771559  )
        17           O1  tau(  17) = (   4.5450242   1.5254396  16.0425357  )
        18           O1  tau(  18) = (   2.0945915   1.5254857  16.0466093  )
        19           Ti1 tau(  19) = (   3.3175380   3.0118254  15.6854273  )
        20           Ti1 tau(  20) = (   0.0287691   1.6153805  16.0968480  )
        21           O1  tau(  21) = (   3.2904802   0.0005063   4.7018136  )
        22           O1  tau(  22) = (   0.0272082   0.0527987  17.2096484  )
        23           O1  tau(  23) = (   1.3043587   1.4918075   6.0039043  )
        24           O1  tau(  24) = (   5.2767064   1.4903225   6.0039473  )
        25           Ti1 tau(  25) = (   0.0000382   5.9609847   6.0000000  )
        26           Ti1 tau(  26) = (   3.2902200   4.4714249   6.0002472  )
        27           O1  tau(  27) = (   0.0002396   2.9813036   7.9858123  )
        28           O1  tau(  28) = (   3.2902150   2.9813002   7.3038282  )
        29           O1  tau(  29) = (   4.5938453   4.4726049   9.2879030  )
        30           O1  tau(  30) = (   1.9864658   4.4711199   9.2879459  )
        31           Ti1 tau(  31) = (   3.2891106   5.8743827   9.1763621  )
        32           Ti1 tau(  32) = (   0.0006254   4.4649316   9.2693709  )
        33           O1  tau(  33) = (   3.3007599   2.9794320  11.2948048  )
        34           O1  tau(  34) = (   0.0092240   2.9805883  10.6323155  )
        35           O1  tau(  35) = (   1.3367187   4.4652043  12.6121808  )
        36           O1  tau(  36) = (   5.3110114   4.4536366  12.6300246  )
        37           Ti1 tau(  37) = (   6.5175235   5.9394146  12.7678677  )
        38           Ti1 tau(  38) = (   3.1810223   4.4618757  12.4682998  )
        39           O1  tau(  39) = (   0.0141956   2.9656780  14.6533049  )
        40           O1  tau(  40) = (   3.3125561   2.9946134  13.8784269  )
        41           O1  tau(  41) = (   4.5469694   4.5079638  16.0550352  )
        42           O1  tau(  42) = (   2.0896055   4.5089645  16.0567747  )
        43           Ti1 tau(  43) = (   3.3249511   0.0336637  15.6879192  )
        44           Ti1 tau(  44) = (   0.0309337   4.5948497  16.1324869  )
        45           O1  tau(  45) = (   3.2900926   2.9813045   4.7018136  )
        46           O1  tau(  46) = (   1.3039711   4.4726057   6.0039043  )
        47           O1  tau(  47) = (   5.2763189   4.4711207   6.0039473  )
        48           N1  tau(  48) = (   0.0510883   3.0100077  17.3315927  )
        49           C1  tau(  49) = (   0.2149723   3.0659314  18.7643681  )
        50           H1  tau(  50) = (   6.1109748   3.7957518  19.2115106  )
        51           H1  tau(  51) = (   0.0391147   2.0919789  19.2277120  )
        52           H1  tau(  52) = (   1.2341903   3.3897193  19.0223879  )
        53           N1  tau(  53) = (   4.7717085   1.8344328  21.5424420  )
        54           H1  tau(  54) = (   4.4711387   2.7986659  21.4441960  )
        55           H1  tau(  55) = (   4.1740297   1.2822813  20.9257432  )
        56           H1  tau(  56) = (   4.5427024   1.5537098  22.4892962  )

     number of k points=    10  Fermi-Dirac smearing, width (Ry)=  0.0073
                       cart. coord. in units 2pi/alat
        k(    1) = (   0.0000000   0.0000000   0.0000000), wk =   0.0625000
        k(    2) = (   0.0000000   0.0419351   0.0000000), wk =   0.1250000
        k(    3) = (   0.0000000  -0.0838702   0.0000000), wk =   0.0625000
        k(    4) = (   0.0379955   0.0000049   0.0000000), wk =   0.1250000
        k(    5) = (   0.0379955   0.0419400   0.0000000), wk =   0.1250000
[...]
     % You are using vdW-DF, which was implemented by the Thonhauser group. %
     % Please cite the following two papers that made this development      %
     % possible and the two reviews that describe the various versions:     %
     %                                                                      %
     %   T. Thonhauser et al., PRL 115, 136402 (2015).                      %
     %   T. Thonhauser et al., PRB 76, 125112 (2007).                       %
     %   K. Berland et al., Rep. Prog. Phys. 78, 066501 (2015).             %
     %   D.C. Langreth et al., J. Phys.: Condens. Matter 21, 084203 (2009). %
     %                                                                      %
     %                                                                      %
     % If you are calculating the stress with vdW-DF, please also cite:     %
     %                                                                      %
     %   R. Sabatini et al., J. Phys.: Condens. Matter 24, 424209 (2012).   %
     %                                                                      %
     %%%%%%%%%%%%%%%%%%%%%%%%%%%%%%%%%%%%%%%%%%%%%%%%%%%%%%%%%%%%%%%%%%%%%%%%

     Adding external electric field

     Computed dipole along edir(3) :
        Dipole              -11.2917 Ry au,        -28.7007 Debye
        Dipole field         -0.0213 Ry au,

        Potential amp.        1.9753 Ry
        Total length         46.3494 bohr

[...]

     Starting wfcs are  302 atomic wfcs
  @ DRIVER MODE: Message from server: STATUS
  @ DRIVER MODE: Message from server: POSDATA
  @ DRIVER MODE: Reading and sharing cell
  @ DRIVER MODE: Reading and sharing positions
  @ DRIVER MODE: Received positions

     Self-consistent Calculation

     iteration #  1     ecut=    29.40 Ry     beta= 0.05
     Davidson diagonalization with overlap
     c_bands:  1 eigenvalues not converged
     c_bands:  1 eigenvalues not converged
     c_bands:  2 eigenvalues not converged
     c_bands:  1 eigenvalues not converged
     c_bands:  1 eigenvalues not converged
     c_bands:  1 eigenvalues not converged
     c_bands:  2 eigenvalues not converged
     c_bands:  2 eigenvalues not converged
     c_bands:  1 eigenvalues not converged
     c_bands:  1 eigenvalues not converged
     c_bands:  2 eigenvalues not converged
     c_bands:  1 eigenvalues not converged
     c_bands:  1 eigenvalues not converged
     c_bands:  1 eigenvalues not converged
     c_bands:  2 eigenvalues not converged
     c_bands:  2 eigenvalues not converged
     ethr =  1.00E-05,  avg # of iterations = 19.6

[...]

     total energy              =   -2520.84376672 Ry
     estimated scf accuracy    <    4704.40113849 Ry

     total magnetization       =     0.00 Bohr mag/cell
     absolute magnetization    =     0.01 Bohr mag/cell

     iteration #  2     ecut=    29.40 Ry     beta= 0.05
     Davidson diagonalization with overlap
     ethr =  1.00E-02,  avg # of iterations = 21.9

[...]

     iteration # 42     ecut=    29.40 Ry     beta= 0.05
     Davidson diagonalization with overlap
     c_bands:  2 eigenvalues not converged
     ethr =  6.29E-07,  avg # of iterations =  6.2

[...]

     total energy              =   -2942.90773172 Ry
     estimated scf accuracy    <       0.00000011 Ry

[...]

     iteration # 71     ecut=    29.40 Ry     beta= 0.05
     Davidson diagonalization with overlap
     ethr =  1.95E-11,  avg # of iterations =  5.8

     negative rho (up, down):  5.677E-03 5.677E-03

[...]

     Adding external electric field

     Computed dipole along edir(3) :
        Dipole                0.4200 Ry au,          1.0676 Debye
        Dipole field          0.0008 Ry au,

        Potential amp.       -0.0735 Ry
        Total length         46.3494 bohr

     Magnetic moment per site  (integrated on atomic sphere of radius R)
     atom   1 (R=0.735)  charge=  8.0053  magn=  0.0003
     atom   2 (R=0.735)  charge=  8.0011  magn=  0.0002
     atom   3 (R=0.735)  charge=  4.9958  magn= -0.0001
     atom   4 (R=0.735)  charge=  5.0345  magn= -0.0000
     atom   5 (R=0.735)  charge=  4.9982  magn= -0.0000
     atom   6 (R=0.735)  charge=  4.9994  magn= -0.0000
     atom   7 (R=0.735)  charge=  7.9947  magn=  0.0000
     atom   8 (R=0.735)  charge=  7.9823  magn=  0.0000
     atom   9 (R=0.735)  charge=  5.0128  magn= -0.0000
     atom  10 (R=0.735)  charge=  4.9434  magn= -0.0000
     atom  11 (R=0.735)  charge=  4.9999  magn= -0.0000
     atom  12 (R=0.735)  charge=  5.0035  magn= -0.0000
     atom  13 (R=0.735)  charge=  7.9933  magn=  0.0000
     atom  14 (R=0.735)  charge=  8.0007  magn=  0.0000
     atom  15 (R=0.735)  charge=  4.9894  magn= -0.0000
     atom  16 (R=0.735)  charge=  5.0146  magn= -0.0000
     atom  17 (R=0.735)  charge=  4.9900  magn= -0.0000
     atom  18 (R=0.735)  charge=  4.9888  magn= -0.0000
     atom  19 (R=0.735)  charge=  8.0209  magn=  0.0000
     atom  20 (R=0.735)  charge=  8.0242  magn=  0.0001
     atom  21 (R=0.735)  charge=  4.8827  magn= -0.0003
     atom  22 (R=0.735)  charge=  4.9720  magn= -0.0000
     atom  23 (R=0.735)  charge=  4.9884  magn= -0.0002
     atom  24 (R=0.735)  charge=  4.9885  magn= -0.0002
     atom  25 (R=0.735)  charge=  8.0053  magn=  0.0003
     atom  26 (R=0.735)  charge=  8.0011  magn=  0.0002
     atom  27 (R=0.735)  charge=  4.9957  magn= -0.0001
     atom  28 (R=0.735)  charge=  5.0347  magn= -0.0000
     atom  29 (R=0.735)  charge=  4.9989  magn= -0.0000
     atom  30 (R=0.735)  charge=  5.0001  magn= -0.0000
     atom  31 (R=0.735)  charge=  7.9948  magn=  0.0000
     atom  32 (R=0.735)  charge=  7.9826  magn=  0.0000
     atom  33 (R=0.735)  charge=  5.0125  magn= -0.0000
     atom  34 (R=0.735)  charge=  4.9424  magn= -0.0000
     atom  35 (R=0.735)  charge=  5.0005  magn= -0.0000
     atom  36 (R=0.735)  charge=  5.0043  magn= -0.0000
     atom  37 (R=0.735)  charge=  7.9990  magn=  0.0000
     atom  38 (R=0.735)  charge=  8.0004  magn=  0.0000
     atom  39 (R=0.735)  charge=  4.9853  magn= -0.0000
     atom  40 (R=0.735)  charge=  5.0160  magn= -0.0000
     atom  41 (R=0.735)  charge=  4.9884  magn= -0.0000
     atom  42 (R=0.735)  charge=  4.9878  magn= -0.0000
     atom  43 (R=0.735)  charge=  8.0214  magn=  0.0000
     atom  44 (R=0.735)  charge=  8.0216  magn=  0.0001
     atom  45 (R=0.735)  charge=  4.8827  magn= -0.0003
     atom  46 (R=0.735)  charge=  4.9884  magn= -0.0002
     atom  47 (R=0.735)  charge=  4.9885  magn= -0.0002
     atom  48 (R=0.418)  charge=  1.3137  magn= -0.0002
     atom  49 (R=0.451)  charge=  0.8534  magn=  0.0000
     atom  50 (R=0.418)  charge=  0.4371  magn= -0.0000
     atom  51 (R=0.418)  charge=  0.4391  magn= -0.0000
     atom  52 (R=0.418)  charge=  0.4339  magn= -0.0000
     atom  53 (R=0.418)  charge=  1.3286  magn= -0.0000
     atom  54 (R=0.418)  charge=  0.4523  magn= -0.0000
     atom  55 (R=0.418)  charge=  0.4467  magn= -0.0000
     atom  56 (R=0.418)  charge=  0.4538  magn= -0.0000

     End of self-consistent calculation

 ------ SPIN UP ------------

          k = 0.0000 0.0000 0.0000 ( 18029 PWs)   bands (ev):

   -56.6307 -56.5971 -55.7550 -55.7430 -55.7200 -55.7102 -55.6093 -55.5740
   -55.3918 -55.3560 -55.2959 -55.2900 -55.2620 -55.1922 -54.7266 -54.6151
   -33.0584 -32.9054 -32.8773 -32.8065 -32.7154 -32.6844 -32.2256 -32.2194
   -32.1519 -32.0390 -31.9928 -31.9686 -31.9502 -31.9289 -31.8953 -31.8908
   -31.8893 -31.8839 -31.8583 -31.8555 -31.8443 -31.8168 -31.7920 -31.7769
   -31.7640 -31.7456 -31.7362 -31.7115 -31.6881 -31.6342 -31.6225 -31.6100
   -31.5328 -31.5300 -31.5067 -31.4658 -31.4578 -31.4232 -31.4202 -31.3959
   -31.3734 -31.3124 -31.2323 -30.9724 -30.9570 -30.8742 -30.8369 -30.7469
   -16.7949 -16.3630 -16.1323 -15.9928 -15.9274 -15.8710 -15.8284 -15.7026
   -15.6347 -15.6267 -15.5848 -15.5570 -15.4856 -15.3460 -15.2474 -15.1946
   -15.1501 -15.0295 -14.9687 -14.9361 -14.9257 -14.8828 -14.8732 -14.6794
   -14.6564 -14.5628 -14.5414 -14.4207 -14.1859 -13.7936 -13.6907 -13.6835
   -12.7990  -7.4969  -4.3603  -3.8589  -3.7712  -3.7060  -3.6203  -3.5339
    -3.4266  -3.4127  -3.3260  -3.2116  -3.1674  -3.1197  -3.0032  -3.0019
    -2.8538  -2.8089  -2.8061  -2.8036  -2.7545  -2.6954  -2.6717  -2.6400
    -2.6310  -2.6013  -2.4749  -2.3788  -2.3069  -2.2839  -2.2780  -2.2423
    -2.1671  -2.1376  -2.1292  -2.1255  -2.0179  -1.8728  -1.8663  -1.8430
    -1.8012  -1.7961  -1.7533  -1.7401  -1.6224  -1.5319  -1.4293  -1.4131
    -1.3691  -1.3129  -1.3050  -1.2151  -1.1370  -1.0461  -1.0450  -0.9352
    -0.8879  -0.8709  -0.7807  -0.7211  -0.6817  -0.6555  -0.6431  -0.5429
    -0.5203  -0.5103  -0.4262  -0.4144  -0.3654  -0.2764  -0.2535  -0.2447
    -0.1624  -0.1598  -0.0645  -0.0228   0.0174   0.0526   0.1686   0.1859
     0.2841   0.3128   0.3405   0.4533   0.4694   0.5346   0.6093   0.6718
     0.6996   0.7262   0.7553   0.7747   0.8494   0.9612   0.9703   1.0726
     1.1047   1.2792   1.3181   1.3807   1.6036   1.6357   2.3067   2.6440
     2.8032   3.1018   3.2897   3.4027   3.6184   3.6345   3.6397   3.8089
     3.8615

[...]

          k =-0.0760-0.0000 0.0000 ( 17886 PWs)   bands (ev):

[...]

 ------ SPIN DOWN ----------

[...]

          k = 0.0380-0.0419 0.0000 ( 17876 PWs)   bands (ev):

[...]

          k =-0.0760-0.0839 0.0000 ( 17948 PWs)   bands (ev):

   -56.6129 -56.6126 -55.7397 -55.7339 -55.7273 -55.7267 -55.5920 -55.5911
   -55.3780 -55.3696 -55.2868 -55.2784 -55.2783 -55.1953 -54.7236 -54.6176
   -32.8901 -32.8899 -32.8745 -32.8743 -32.7583 -32.7581 -32.0554 -32.0531
   -32.0439 -32.0372 -31.9841 -31.9831 -31.9404 -31.9400 -31.9381 -31.9370
   -31.9292 -31.9262 -31.9241 -31.9225 -31.8445 -31.8424 -31.7934 -31.7906
   -31.7287 -31.7184 -31.6596 -31.6516 -31.6226 -31.6225 -31.6160 -31.5764
   -31.5721 -31.5442 -31.5100 -31.5039 -31.5038 -31.4647 -31.4646 -31.4610
   -31.4376 -31.3981 -31.1123 -30.9921 -30.9563 -30.9257 -30.8392 -30.8020
   -16.1440 -16.1419 -16.1090 -16.1088 -15.8404 -15.8368 -15.7940 -15.7915
   -15.6178 -15.6116 -15.4051 -15.3965 -15.3898 -15.3883 -15.2603 -15.2545
   -15.1889 -15.1785 -15.0892 -15.0801 -15.0235 -15.0171 -14.9746 -14.9536
   -14.6434 -14.6342 -14.5135 -14.4961 -14.3296 -13.7879 -13.7879 -13.6898
   -12.8160  -7.4874  -3.7794  -3.7134  -3.2428  -3.2425  -3.1788  -3.1778
    -3.0563  -3.0523  -2.9733  -2.9726  -2.8747  -2.8734  -2.7594  -2.7309
    -2.7278  -2.7268  -2.7100  -2.6623  -2.5743  -2.5711  -2.5608  -2.5463
    -2.4879  -2.4860  -2.4637  -2.3978  -2.3839  -2.3525  -2.3147  -2.2007
    -2.1904  -2.1783  -2.1466  -2.0833  -2.0762  -2.0633  -2.0208  -1.9882
    -1.9114  -1.8390  -1.8006  -1.6874  -1.6828  -1.6708  -1.6589  -1.5054
    -1.4652  -1.4346  -1.4276  -1.4214  -1.3735  -1.2787  -1.2712  -1.1392
    -1.1376  -1.0634  -0.9818  -0.9607  -0.9323  -0.8036  -0.7596  -0.7251
    -0.7174  -0.6892  -0.6691  -0.6474  -0.6037  -0.4680  -0.4564  -0.4175
    -0.3830  -0.3608  -0.3265  -0.2689  -0.1831  -0.1047  -0.1043  -0.0494
     0.0191   0.0798   0.1668   0.1768   0.1823   0.4633   0.5420   0.6317
     0.7075   0.7737   0.8370   0.8681   0.9234   0.9682   1.1042   1.1075
     1.1266   1.1270   1.1864   1.1902   1.3636   1.6415   2.1953   3.2174
     3.2177   3.2847   3.2852   3.6086   3.6144   3.7226   3.7319   3.8385
     3.8435

     the Fermi energy is     2.4848 ev

!    total energy              =   -2942.90775620 Ry
     estimated scf accuracy    <       0.00000004 Ry
     smearing contrib. (-TS)   =      -0.00487632 Ry
     internal energy E=F+TS    =   -2942.90287988 Ry

     The total energy is F=E-TS. E is the sum of the following terms:
     one-electron contribution =  -23242.35183368 Ry
     hartree contribution      =   11711.38929642 Ry
     xc contribution           =    -487.46737924 Ry
     ewald contribution        =    9075.52670367 Ry
     electric field correction =       0.00033296 Ry

     total magnetization       =    -0.00 Bohr mag/cell
     absolute magnetization    =     0.01 Bohr mag/cell

     convergence has been achieved in  71 iterations

     Forces acting on atoms (cartesian axes, Ry/au):

     atom    1 type  1   force =     0.00003572   -0.00040873    0.12406238
     atom    2 type  1   force =    -0.00010506   -0.00057108   -0.16068040
     atom    3 type  2   force =     0.00023400   -0.00026895   -0.06797546
     atom    4 type  2   force =     0.00001294   -0.00029250    0.02758552
     atom    5 type  2   force =    -0.01615856    0.00175737   -0.00936793
     atom    6 type  2   force =     0.01818895    0.00219599   -0.00898979
     atom    7 type  1   force =     0.00114942   -0.00377882    0.02170877
     atom    8 type  1   force =    -0.00057917   -0.00291106    0.11106862
     atom    9 type  2   force =    -0.00018244    0.00030390   -0.00044339
     atom   10 type  2   force =    -0.00195931    0.00129435   -0.07322744
     atom   11 type  2   force =     0.00022725   -0.00010702    0.00017671
     atom   12 type  2   force =    -0.00024951    0.00022311    0.00021260
     atom   13 type  1   force =    -0.00009642    0.00008668   -0.00041847
     atom   14 type  1   force =    -0.00058822    0.00045270    0.00040983
     atom   15 type  2   force =     0.00027534   -0.00000112    0.00014912
     atom   16 type  2   force =    -0.00049219   -0.00036855    0.00057852
     atom   17 type  2   force =    -0.00061711    0.00023784    0.00009165
     atom   18 type  2   force =     0.00004356    0.00024360    0.00010414
     atom   19 type  1   force =     0.00039121   -0.00054790    0.00001706
     atom   20 type  1   force =    -0.00010630    0.00007097    0.00017268
     atom   21 type  2   force =     0.00004930   -0.00000892    0.09972779
     atom   22 type  2   force =     0.00027895   -0.00005069   -0.00040331
     atom   23 type  2   force =    -0.07915934    0.00000096   -0.03245389
     atom   24 type  2   force =     0.07904469    0.00043899   -0.03247367
     atom   25 type  1   force =     0.00001580   -0.00041686    0.12358121
     atom   26 type  1   force =    -0.00009917   -0.00046449   -0.16081336
     atom   27 type  2   force =     0.00032907   -0.00048404   -0.06702679
     atom   28 type  2   force =     0.00002777   -0.00012094    0.02731119
     atom   29 type  2   force =    -0.01663452    0.00128096   -0.00947580
     atom   30 type  2   force =     0.01856274    0.00165868   -0.00911024
     atom   31 type  1   force =     0.00116605   -0.00138510    0.02113970
     atom   32 type  1   force =    -0.00053339    0.00034577    0.11171298
     atom   33 type  2   force =    -0.00016285   -0.00024561    0.00007922
     atom   34 type  2   force =    -0.00132464    0.00066921   -0.07267930
     atom   35 type  2   force =    -0.00077805   -0.00043039   -0.00001737
     atom   36 type  2   force =     0.00011624   -0.00001852    0.00011368
     atom   37 type  1   force =     0.00005364    0.00063622    0.00022995
     atom   38 type  1   force =    -0.00021215    0.00002993   -0.00017051
     atom   39 type  2   force =     0.00013155   -0.00018708    0.00089693
     atom   40 type  2   force =    -0.00018400   -0.00046463    0.00034005
     atom   41 type  2   force =     0.00006265   -0.00008695    0.00006730
     atom   42 type  2   force =     0.00041616    0.00002235    0.00003316
     atom   43 type  1   force =    -0.00022194   -0.00011733    0.00008298
     atom   44 type  1   force =    -0.00026127    0.00051160    0.00008780
     atom   45 type  2   force =     0.00002472   -0.00003196    0.09975341
     atom   46 type  2   force =    -0.07916491    0.00005404   -0.03245327
     atom   47 type  2   force =     0.07904446    0.00047758   -0.03246811
     atom   48 type  3   force =     0.00090780    0.00074159   -0.00134955
     atom   49 type  4   force =     0.00009126   -0.00051478    0.00006684
     atom   50 type  5   force =    -0.00008390    0.00076102    0.00080907
     atom   51 type  5   force =     0.00023863    0.00050426   -0.00012118
     atom   52 type  5   force =    -0.00025666   -0.00023120   -0.00000861
     atom   53 type  3   force =    -0.00549005   -0.00616450   -0.00615973
     atom   54 type  5   force =     0.00003281    0.00064615   -0.00022120
     atom   55 type  5   force =     0.00561569    0.00498437    0.00449306
     atom   56 type  5   force =    -0.00106722    0.00004951    0.00164485

     Total force =     0.424601     Total SCF correction =     0.000456
  @ DRIVER MODE: Message from server: STATUS
  @ DRIVER MODE: Message from server: GETFORCE
  @ DRIVER MODE: Returning v,forces,stress,ensemble

     Writing output data file ./calc.save/
  @ DRIVER MODE: Message from server: EXIT
  @ DRIVE MODE: Exiting

     General routines

     Parallel routines

   This run was terminated on:  16: 2: 4  16Jul2021

   JOB DONE.