     Program PWSCF v.6.7GPU starts on 15Sep2021 at 20: 4:28

     R & G space division:  proc/nbgrp/npool/nimage =      10
     Reading input from /storage/home/hcoda1/3/ntian30/research/carbon/CxH_vib/H2O_calc/ads_slab/CH2OH2O_a/out_0013/pw.inp
Warning: card &CELL ignored
Warning: card   CELL_DYNAMICS='IPI', ignored
Warning: card / ignored

     Current dimensions of program PWSCF are:
     Max number of different atomic species (ntypx) = 10
     Max number of k-points (npk) =  40000
     Max angular momentum in pseudopotentials (lmaxx) =  3
     Presently no symmetry can be used with electric field

     Message from routine cell_base_init:
     DEPRECATED: use true lattice parameter, not A to a.u. conversion factor

     IMPORTANT: XC functional enforced from input :
     Exchange-correlation= BEEF-VDW
                           (   1   4  43  14   2   0   0)
     Any further DFT definition will be discarded
     Please, verify this is what you really want

  @ DRIVER MODE: Connecting to
 qe_1139763_2852613.sched-torque.pace.gatech.eduf83iwkgq_scratch
  using UNIX socket
  @ DRIVER MODE: Message from server: STATUS
  @ DRIVER MODE: Message from server: INIT
  @ DRIVER MODE: Receiving replica           0          -1
  @ DRIVER MODE: Receiving encoded integer          25
  @ DRIVER MODE:  SCF:  T  FORCE:  T  STRESS:  F  VC:  F  ENSEMBLE:  F
  @ DRIVER MODE:  SCF:  T  FORCE:  T  STRESS:  F  VC:  F  ENSEMBLE:  F

     Using Slab Decomposition

     bravais-lattice index     =            0
     lattice parameter (alat)  =       1.8897  a.u.
     unit-cell volume          =    6658.9804 (a.u.)^3
     number of atoms/cell      =           54
     number of atomic types    =            4
     number of electrons       =       398.00
     number of Kohn-Sham states=          209
     kinetic-energy cutoff     =      29.3995  Ry
     charge density cutoff     =     293.9946  Ry
     scf convergence threshold =      7.3E-08
     mixing beta               =       0.0500
     number of iterations used =            8  plain     mixing
     Exchange-correlation= BEEF-VDW
                           (   1   4  43  14   2   0   0)

     celldm(1)=   1.889726  celldm(2)=   0.000000  celldm(3)=   0.000000
     celldm(4)=   0.000000  celldm(5)=   0.000000  celldm(6)=   0.000000

     crystal axes: (cart. coord. in units of alat)
               a(1) = (   6.579727   0.000000   0.000000 )
               a(2) = (  -0.000775   5.961596   0.000000 )
               a(3) = (   0.000000   0.000000  25.155947 )

     reciprocal axes: (cart. coord. in units 2 pi/alat)
               b(1) = (  0.151982  0.000020  0.000000 )
               b(2) = (  0.000000  0.167740  0.000000 )
               b(3) = (  0.000000  0.000000  0.039752 )

     PseudoPot. # 1 for O  read from file:
     /storage/coda1/p-amedford6/0/shared/rich_project_chbe-medford/medford-share/data/pseudos_module/espresso/nninc/pbe/van/O.UPF
     MD5 check sum: 78c19812648e8988a0fe644b0f25305e
     Pseudo is Ultrasoft, Zval =  6.0
     Generated by new atomic code, or converted to UPF format
     Using radial grid of  737 points,  4 beta functions with:
                l(1) =   0
                l(2) =   0
                l(3) =   1
                l(4) =   1
     Q(r) pseudized with  8 coefficients,  rinner =    0.800   0.800   0.800

     PseudoPot. # 2 for Ti read from file:
     /storage/coda1/p-amedford6/0/shared/rich_project_chbe-medford/medford-share/data/pseudos_module/espresso/nninc/pbe/van/Ti.UPF
     MD5 check sum: 8e4df49b7f0d34bbd5052bf3f5ea0213
     Pseudo is Ultrasoft, Zval = 12.0
     Generated by new atomic code, or converted to UPF format
     Using radial grid of  851 points,  6 beta functions with:
                l(1) =   0
                l(2) =   0
                l(3) =   1
                l(4) =   1
                l(5) =   2
                l(6) =   2
     Q(r) pseudized with  8 coefficients,  rinner =    1.000   1.000   1.000
                                                       1.000   1.000

     PseudoPot. # 3 for C  read from file:
     /storage/coda1/p-amedford6/0/shared/rich_project_chbe-medford/medford-share/data/pseudos_module/espresso/nninc/pbe/van/C.UPF
     MD5 check sum: 1a69bf6b8db32088f5b2163dbdb77a27
     Pseudo is Ultrasoft, Zval =  4.0
     Generated by new atomic code, or converted to UPF format
     Using radial grid of  721 points,  4 beta functions with:
                l(1) =   0
                l(2) =   0
                l(3) =   1
                l(4) =   1
     Q(r) pseudized with  8 coefficients,  rinner =    0.800   0.800   0.800

     PseudoPot. # 4 for H  read from file:
     /storage/coda1/p-amedford6/0/shared/rich_project_chbe-medford/medford-share/data/pseudos_module/espresso/nninc/pbe/van/H.UPF
     MD5 check sum: b5ee9d7bfd3a09ee7748110bda690ff7
     Pseudo is Ultrasoft, Zval =  1.0
     Generated by new atomic code, or converted to UPF format
     Using radial grid of  615 points,  1 beta functions with:
                l(1) =   0
     Q(r) pseudized with  8 coefficients,  rinner =    0.800

     atomic species   valence    mass     pseudopotential
        O1             6.00    15.99900     O ( 1.00)
        Ti1           12.00    47.86700     Ti( 1.00)
        C1             4.00    12.01100     C ( 1.00)
        H1             1.00     1.00800     H ( 1.00)

     No symmetry found

   Cartesian axes

     site n.     atom                  positions (alat units)
         1           O1  tau(   1) = (   3.2904802   0.0005063   4.7018136  )
         2           O1  tau(   2) = (   3.2900926   2.9813045   4.7018136  )
         3           Ti1 tau(   3) = (   0.0004258   2.9801865   6.0000000  )
         4           Ti1 tau(   4) = (   0.0000382   5.9609847   6.0000000  )
         5           Ti1 tau(   5) = (   3.2906075   1.4906267   6.0002472  )
         6           Ti1 tau(   6) = (   3.2902200   4.4714249   6.0002472  )
         7           O1  tau(   7) = (   1.3043587   1.4918075   6.0039043  )
         8           O1  tau(   8) = (   1.3039711   4.4726057   6.0039043  )
         9           O1  tau(   9) = (   5.2767064   1.4903225   6.0039473  )
        10           O1  tau(  10) = (   5.2763189   4.4711207   6.0039473  )
        11           O1  tau(  11) = (   3.2906025   0.0005020   7.3038282  )
        12           O1  tau(  12) = (   3.2902150   2.9813002   7.3038282  )
        13           O1  tau(  13) = (   0.0006271   0.0005054   7.9858123  )
        14           O1  tau(  14) = (   0.0002396   2.9813036   7.9858123  )
        15           Ti1 tau(  15) = (   3.3036605   0.0548493   9.1550340  )
        16           Ti1 tau(  16) = (   3.3179312   3.0323762   9.1622521  )
        17           Ti1 tau(  17) = (   0.0293130   4.5303424   9.2586280  )
        18           Ti1 tau(  18) = (   0.0255512   1.6071936   9.3606264  )
        19           O1  tau(  19) = (   4.5942328   1.4918067   9.2879030  )
        20           O1  tau(  20) = (   4.5938453   4.4726049   9.2879030  )
        21           O1  tau(  21) = (   1.9868534   1.4903216   9.2879459  )
        22           O1  tau(  22) = (   1.9864658   4.4711199   9.2879459  )
        23           O1  tau(  23) = (   0.0067149   0.0090568  10.6008527  )
        24           O1  tau(  24) = (   0.0066098   2.9904127  10.5810825  )
        25           O1  tau(  25) = (   3.3023248   2.9935247  11.3558429  )
        26           O1  tau(  26) = (   3.3019398   0.0103095  11.3581380  )
        27           Ti1 tau(  27) = (   0.0322082   0.0188897  12.5014682  )
        28           Ti1 tau(  28) = (   3.3323403   4.4947089  12.5096490  )
        29           Ti1 tau(  29) = (   3.3327227   1.5059056  12.5040540  )
        30           Ti1 tau(  30) = (   0.0321551   3.0004163  12.7750784  )
        31           O1  tau(  31) = (   1.2963378   4.4834263  12.6382484  )
        32           O1  tau(  32) = (   1.2968596   1.4996660  12.6342602  )
        33           O1  tau(  33) = (   5.3004736   4.4821179  12.6410582  )
        34           O1  tau(  34) = (   5.3007909   1.4998706  12.6367838  )
        35           O1  tau(  35) = (   3.3017874   2.9879694  13.9086975  )
        36           O1  tau(  36) = (   3.3040514   0.0100701  13.9766235  )
        37           O1  tau(  37) = (   0.0177811   0.0165449  14.6846256  )
        38           O1  tau(  38) = (   0.0218693   2.9952767  14.7100221  )
        39           Ti1 tau(  39) = (   3.3083447   2.9915206  15.7010863  )
        40           Ti1 tau(  40) = (   3.3165693   0.0114089  15.8055842  )
        41           Ti1 tau(  41) = (   0.0300915   4.5703342  15.9344200  )
        42           Ti1 tau(  42) = (   0.0294271   1.3911826  15.9958598  )
        43           O1  tau(  43) = (   4.5666857   4.4545776  16.0545193  )
        44           O1  tau(  44) = (   4.5654216   1.5273373  16.0688375  )
        45           O1  tau(  45) = (   2.0398213   1.5345912  16.0698912  )
        46           O1  tau(  46) = (   2.0372649   4.4468515  16.0554978  )
        47           O1  tau(  47) = (   0.0160947   0.0056016  17.2166677  )
        48           O1  tau(  48) = (   6.5639191   3.0028441  17.4181802  )
        49           C1  tau(  49) = (   6.3909186   3.0704891  18.6902598  )
        50           H1  tau(  50) = (   6.3016585   4.0479728  19.1570877  )
        51           H1  tau(  51) = (   6.3127454   2.1532251  19.2664540  )
        52           O1  tau(  52) = (   3.2659488   5.9319982  18.2141537  )
        53           H1  tau(  53) = (   4.0486762   5.9278262  18.7801078  )
        54           H1  tau(  54) = (   2.4667005   5.9275743  18.7583984  )

     number of k points=    10  Fermi-Dirac smearing, width (Ry)=  0.0073
                       cart. coord. in units 2pi/alat
        k(    1) = (   0.0000000   0.0000000   0.0000000), wk =   0.1250000
        k(    2) = (   0.0000000   0.0419351   0.0000000), wk =   0.2500000
        k(    3) = (   0.0000000  -0.0838702   0.0000000), wk =   0.1250000
        k(    4) = (   0.0379955   0.0000049   0.0000000), wk =   0.2500000
        k(    5) = (   0.0379955   0.0419400   0.0000000), wk =   0.2500000
        k(    6) = (   0.0379955  -0.0838652   0.0000000), wk =   0.2500000
        k(    7) = (   0.0379955  -0.0419301   0.0000000), wk =   0.2500000
        k(    8) = (  -0.0759910  -0.0000099   0.0000000), wk =   0.1250000
        k(    9) = (  -0.0759910   0.0419252   0.0000000), wk =   0.2500000
        k(   10) = (  -0.0759910  -0.0838800   0.0000000), wk =   0.1250000

     Initial potential from superposition of free atoms

     starting charge  381.99917, renormalised to  398.00000

     negative rho (up, down):  1.686E-02 0.000E+00

     %%%%%%%%%%%%%%%%%%%%%%%%%%%%%%%%%%%%%%%%%%%%%%%%%%%%%%%%%%%%%%%%%%%%%%%%
     %                                                                      %
     % You are using vdW-DF, which was implemented by the Thonhauser group. %
     % Please cite the following two papers that made this development      %
     % possible and the two reviews that describe the various versions:     %
     %                                                                      %
     %   T. Thonhauser et al., PRL 115, 136402 (2015).                      %
     %   T. Thonhauser et al., PRB 76, 125112 (2007).                       %
     %   K. Berland et al., Rep. Prog. Phys. 78, 066501 (2015).             %
     %   D.C. Langreth et al., J. Phys.: Condens. Matter 21, 084203 (2009). %
     %                                                                      %
     %                                                                      %
     % If you are calculating the stress with vdW-DF, please also cite:     %
     %                                                                      %
     %   R. Sabatini et al., J. Phys.: Condens. Matter 24, 424209 (2012).   %
     %                                                                      %
     %%%%%%%%%%%%%%%%%%%%%%%%%%%%%%%%%%%%%%%%%%%%%%%%%%%%%%%%%%%%%%%%%%%%%%%%

     Adding external electric field

     Computed dipole along edir(3) :
        Dipole               -9.6373 Ry au,        -24.4955 Debye
        Dipole field         -0.0182 Ry au,

        Potential amp.        1.6859 Ry
        Total length         46.3494 bohr

     Starting wfcs are  300 atomic wfcs
  @ DRIVER MODE: Message from server: STATUS
  @ DRIVER MODE: Message from server: POSDATA
  @ DRIVER MODE: Reading and sharing cell
  @ DRIVER MODE: Reading and sharing positions
  @ DRIVER MODE: Received positions

     Self-consistent Calculation

     iteration #  1     ecut=    29.40 Ry     beta= 0.05
     Davidson diagonalization with overlap
     c_bands:  1 eigenvalues not converged
     c_bands:  3 eigenvalues not converged
     c_bands:  2 eigenvalues not converged
     c_bands:  2 eigenvalues not converged
     c_bands:  2 eigenvalues not converged
     c_bands:  1 eigenvalues not converged
     c_bands:  2 eigenvalues not converged
     c_bands:  1 eigenvalues not converged
     c_bands:  2 eigenvalues not converged
     ethr =  1.00E-05,  avg # of iterations = 19.6

[...]

     total energy              =   -2526.83888296 Ry
     estimated scf accuracy    <    4873.65185723 Ry

     iteration #  2     ecut=    29.40 Ry     beta= 0.05
     Davidson diagonalization with overlap
     ethr =  1.00E-02,  avg # of iterations = 26.3

[...]

     iteration # 69     ecut=    29.40 Ry     beta= 0.05
     Davidson diagonalization with overlap
     ethr =  2.65E-11,  avg # of iterations =  7.4

[...]

     total energy              =   -2964.99535345 Ry
     estimated scf accuracy    <       0.00000009 Ry

     iteration # 71     ecut=    29.40 Ry     beta= 0.05
     Davidson diagonalization with overlap
     c_bands:  1 eigenvalues not converged
     ethr =  2.10E-11,  avg # of iterations = 13.4

     negative rho (up, down):  1.528E-02 0.000E+00

     Adding external electric field

     Computed dipole along edir(3) :
        Dipole                1.2215 Ry au,          3.1046 Debye
        Dipole field          0.0023 Ry au,

        Potential amp.       -0.2137 Ry
        Total length         46.3494 bohr

     End of self-consistent calculation

          k = 0.0000 0.0000 0.0000 ( 18029 PWs)   bands (ev):

   -55.5396 -55.5028 -55.5022 -55.4661 -55.4630 -55.4184 -55.3822 -55.3152
   -55.3024 -55.2794 -55.2690 -55.2597 -55.2182 -55.2100 -54.5509 -54.5168
   -32.0578 -32.0099 -31.8962 -31.8534 -31.8517 -31.8339 -31.8135 -31.8050
   -31.7814 -31.7696 -31.7361 -31.7259 -31.6984 -31.6861 -31.6836 -31.6496
   -31.6463 -31.6399 -31.6350 -31.6318 -31.6031 -31.5978 -31.5902 -31.5861
   -31.5586 -31.5545 -31.5509 -31.5305 -31.5234 -31.5217 -31.4762 -31.4750
   -31.4488 -31.4471 -31.4337 -31.4284 -31.4224 -31.4083 -31.3967 -31.3952
   -31.3921 -31.3757 -30.9604 -30.8642 -30.8418 -30.7769 -30.6908 -30.5797
   -19.3640 -19.1359 -16.2549 -15.9922 -15.8205 -15.7094 -15.6624 -15.4603
   -15.3674 -15.2867 -15.2229 -15.1455 -15.1287 -15.0911 -15.0651 -15.0594
   -15.0543 -15.0057 -14.9965 -14.9571 -14.9452 -14.9439 -14.9251 -14.9064
   -14.8245 -14.7222 -14.6788 -14.6605 -14.6016 -14.5452 -14.5316 -13.0515
   -12.9334  -9.0147  -7.1499  -5.2174  -5.1822  -3.7754  -3.5760  -3.4585
    -3.4240  -3.3882  -3.3195  -3.1380  -3.1299  -3.0370  -2.7997  -2.7093
    -2.6761  -2.6183  -2.6081  -2.5085  -2.4676  -2.3613  -2.3524  -2.3481
    -2.3320  -2.3061  -2.2731  -2.2310  -2.2067  -2.1947  -2.0669  -2.0558
    -1.9276  -1.9217  -1.8983  -1.8435  -1.8386  -1.7965  -1.7834  -1.7800
    -1.7672  -1.7189  -1.7072  -1.5941  -1.5201  -1.4570  -1.3701  -1.2320
    -1.1702  -1.0978  -1.0441  -1.0094  -0.9468  -0.9437  -0.8893  -0.8488
    -0.7904  -0.7783  -0.7716  -0.6751  -0.5763  -0.5544  -0.5242  -0.4459
    -0.3673  -0.2811  -0.2619  -0.2597  -0.2585  -0.2374  -0.0998  -0.0164
     0.0411   0.0460   0.1422   0.1753   0.2106   0.2247   0.2568   0.2775
     0.3335   0.4084   0.4199   0.4333   0.4589   0.5047   0.5103   0.6229
     0.6992   0.7007   0.7369   0.7696   0.9451   0.9800   1.1070   1.2141
     1.3805   1.4735   1.5454   1.6465   2.0596   2.1172   3.6336   3.6754
     3.6903   3.7327   3.7823   3.8089   3.8766   4.0757   4.0921   4.1018
     4.1413

[...]

          k = 0.0380-0.0419 0.0000 ( 17876 PWs)   bands (ev):

[...]

          k =-0.0760-0.0000 0.0000 ( 17886 PWs)   bands (ev):

[...]

          k =-0.0760-0.0839 0.0000 ( 17948 PWs)   bands (ev):

   -55.5282 -55.5141 -55.4854 -55.4826 -55.4615 -55.4082 -55.3924 -55.3117
   -55.2871 -55.2847 -55.2739 -55.2612 -55.2234 -55.2128 -54.5343 -54.5332
   -31.8685 -31.8537 -31.8340 -31.8213 -31.8184 -31.7990 -31.7743 -31.7564
   -31.7435 -31.7386 -31.7382 -31.7305 -31.6970 -31.6631 -31.6569 -31.6530
   -31.6437 -31.6411 -31.6379 -31.6353 -31.6295 -31.6106 -31.6097 -31.6086
   -31.6039 -31.5893 -31.5684 -31.5531 -31.5400 -31.5385 -31.5316 -31.5145
   -31.4969 -31.4925 -31.4856 -31.4840 -31.4658 -31.4477 -31.4424 -31.4370
   -31.4066 -31.4001 -30.8552 -30.8538 -30.7738 -30.7728 -30.7344 -30.7334
   -19.3551 -19.1356 -15.7062 -15.5971 -15.5628 -15.4159 -15.4117 -15.3607
   -15.3523 -15.3166 -15.2366 -15.2332 -15.1833 -15.1641 -15.1296 -15.1060
   -15.0941 -15.0486 -15.0463 -15.0275 -15.0036 -14.9851 -14.9686 -14.9411
   -14.9170 -14.9098 -14.8719 -14.8636 -14.7991 -14.7443 -14.7233 -13.0359
   -13.0336  -9.0156  -7.1473  -5.1940  -5.1592  -3.7316  -3.1566  -2.9902
    -2.8030  -2.7874  -2.6551  -2.6202  -2.6022  -2.5118  -2.4784  -2.4448
    -2.3817  -2.3709  -2.3644  -2.3427  -2.3377  -2.3240  -2.3030  -2.2658
    -2.2559  -2.2243  -2.1945  -2.1806  -2.1600  -2.1502  -2.1217  -2.1022
    -2.0895  -2.0860  -2.0240  -1.9959  -1.9111  -1.8447  -1.7637  -1.7112
    -1.6799  -1.6776  -1.6414  -1.6028  -1.5951  -1.5799  -1.4339  -1.3846
    -1.2619  -1.2485  -1.2293  -1.1531  -1.1373  -1.1034  -1.0976  -1.0313
    -0.9449  -0.9401  -0.9173  -0.8894  -0.8019  -0.7338  -0.6928  -0.6569
    -0.6130  -0.5830  -0.5092  -0.4956  -0.4848  -0.4224  -0.3820  -0.2969
    -0.2832  -0.2641  -0.2130  -0.1838  -0.1492  -0.0803  -0.0623  -0.0393
     0.0416   0.1079   0.1139   0.3238   0.4862   0.5152   0.5317   0.6165
     0.6632   0.7722   0.7952   0.8046   0.8468   0.8922   0.9797   1.0057
     1.0075   1.0850   1.8339   1.8346   1.9220   1.9326   3.5654   3.8792
     3.9436   3.9668   3.9919   4.1071   4.1097   4.1289   4.1376   4.2800
     4.2932

     the Fermi energy is     3.6118 ev

!    total energy              =   -2964.99536674 Ry
     estimated scf accuracy    <       0.00000002 Ry
     smearing contrib. (-TS)   =      -0.03111235 Ry
     internal energy E=F+TS    =   -2964.96425439 Ry

     The total energy is F=E-TS. E is the sum of the following terms:
     one-electron contribution =  -24342.45148229 Ry
     hartree contribution      =   12264.28103226 Ry
     xc contribution           =    -490.10191399 Ry
     ewald contribution        =    9603.30529413 Ry
     electric field correction =       0.00281551 Ry

     convergence has been achieved in  71 iterations

     Forces acting on atoms (cartesian axes, Ry/au):

     atom    1 type  1   force =    -0.00009713    0.00006880    0.10408821
     atom    2 type  1   force =    -0.00008836    0.00006268    0.10409902
     atom    3 type  2   force =    -0.00030072   -0.00188433    0.10330227
     atom    4 type  2   force =    -0.00016126    0.00151337    0.11462241
     atom    5 type  2   force =    -0.00037699    0.00124441   -0.17935721
     atom    6 type  2   force =    -0.00016966   -0.00076758   -0.17974037
     atom    7 type  1   force =    -0.06941060    0.00065335   -0.02930340
     atom    8 type  1   force =    -0.06895785   -0.00122562   -0.02934838
     atom    9 type  1   force =     0.06905391    0.00114622   -0.02936494
     atom   10 type  1   force =     0.06868851   -0.00080660   -0.02942049
     atom   11 type  1   force =     0.00042023    0.00056991    0.04681816
     atom   12 type  1   force =     0.00063315    0.00080676    0.04852738
     atom   13 type  1   force =     0.00026674   -0.00568569   -0.03324599
     atom   14 type  1   force =     0.00033108    0.00339652   -0.02637797
     atom   15 type  2   force =    -0.00010326   -0.00002264    0.00040392
     atom   16 type  2   force =     0.00001399    0.00002979    0.00051775
     atom   17 type  2   force =    -0.00002259    0.00012257    0.00043341
     atom   18 type  2   force =    -0.00006598   -0.00032533    0.00009514
     atom   19 type  1   force =    -0.01807091   -0.00015404    0.00403376
     atom   20 type  1   force =    -0.01684504    0.00147548    0.00328678
     atom   21 type  1   force =     0.01933850   -0.00136542    0.00448219
     atom   22 type  1   force =     0.01790456    0.00116166    0.00356014
     atom   23 type  1   force =     0.00001732    0.00003184   -0.00014459
     atom   24 type  1   force =    -0.00005341   -0.00001131   -0.00009644
     atom   25 type  1   force =    -0.00004911    0.00000465   -0.00059015
     atom   26 type  1   force =    -0.00023101    0.00014425   -0.00067292
     atom   27 type  2   force =     0.00004171    0.00013945   -0.00043369
     atom   28 type  2   force =     0.00023079    0.00001675   -0.00008847
     atom   29 type  2   force =     0.00021472    0.00001626   -0.00020691
     atom   30 type  2   force =    -0.00008586    0.00019929    0.00018820
     atom   31 type  1   force =    -0.00065563   -0.00024169    0.00053056
     atom   32 type  1   force =    -0.00056501    0.00032765    0.00055881
     atom   33 type  1   force =     0.00040637   -0.00014425    0.00034294
     atom   34 type  1   force =     0.00033254    0.00019269    0.00037619
     atom   35 type  1   force =    -0.00014668    0.00000967    0.00022516
     atom   36 type  1   force =    -0.00008986    0.00000832   -0.00019330
     atom   37 type  1   force =    -0.00037799    0.00002130   -0.00019598
     atom   38 type  1   force =    -0.00050906    0.00026687   -0.00003930
     atom   39 type  2   force =    -0.00017754   -0.00008170    0.00128394
     atom   40 type  2   force =     0.00007968    0.00021835   -0.00134213
     atom   41 type  2   force =    -0.00035003   -0.00092170   -0.00059183
     atom   42 type  2   force =    -0.00017840    0.00089274   -0.00047083
     atom   43 type  1   force =    -0.00002648    0.00022376    0.00030734
     atom   44 type  1   force =    -0.00006140   -0.00007433    0.00010977
     atom   45 type  1   force =    -0.00040188   -0.00026603   -0.00002499
     atom   46 type  1   force =    -0.00047310    0.00041270    0.00013476
     atom   47 type  1   force =    -0.00006738   -0.00018786    0.00017857
     atom   48 type  1   force =    -0.00006394    0.00029985    0.00086164
     atom   49 type  3   force =    -0.00056315    0.00010698    0.00063753
     atom   50 type  4   force =     0.00092571   -0.00192287   -0.00015503
     atom   51 type  4   force =     0.00053973   -0.00033708   -0.00064425
     atom   52 type  1   force =     0.00050089    0.00065393   -0.00055312
     atom   53 type  4   force =     0.00034013    0.00001767    0.00023365
     atom   54 type  4   force =    -0.00048299   -0.00003042   -0.00163692

     Total force =     0.374516     Total SCF correction =     0.000380
  @ DRIVER MODE: Message from server: STATUS
  @ DRIVER MODE: Message from server: GETFORCE
  @ DRIVER MODE: Returning v,forces,stress,ensemble

     Writing output data file ./calc.save/
  @ DRIVER MODE: Message from server: EXIT
  @ DRIVE MODE: Exiting

     General routines

     Parallel routines

   This run was terminated on:  20:23:23  15Sep2021

   JOB DONE.