     Program PWSCF v.6.7GPU starts on 21Jul2021 at 10: 6:20

     R & G space division:  proc/nbgrp/npool/nimage =      16
     Reading input from /storage/home/hcoda1/3/ntian30/research/carbon/15Jul_vib/ads_slab/CH3NHH_a/out_0034/pw.inp
Warning: card &CELL ignored
Warning: card   CELL_DYNAMICS='IPI', ignored
Warning: card / ignored

     Current dimensions of program PWSCF are:
     Max number of different atomic species (ntypx) = 10
     Max number of k-points (npk) =  40000
     Max angular momentum in pseudopotentials (lmaxx) =  3
     Presently no symmetry can be used with electric field

     Message from routine cell_base_init:
     DEPRECATED: use true lattice parameter, not A to a.u. conversion factor

     IMPORTANT: XC functional enforced from input :
     Exchange-correlation= BEEF-VDW
                           (   1   4  43  14   2   0   0)
     Any further DFT definition will be discarded
     Please, verify this is what you really want

  @ DRIVER MODE: Connecting to
 qe_1139763_2382402.sched-torque.pace.gatech.edui5ye0y2w_scratch
  using UNIX socket
  @ DRIVER MODE: Message from server: STATUS
  @ DRIVER MODE: Message from server: INIT
  @ DRIVER MODE: Receiving replica           0          -1
  @ DRIVER MODE: Receiving encoded integer          25
  @ DRIVER MODE:  SCF:  T  FORCE:  T  STRESS:  F  VC:  F  ENSEMBLE:  F
  @ DRIVER MODE:  SCF:  T  FORCE:  T  STRESS:  F  VC:  F  ENSEMBLE:  F

     Using Slab Decomposition

     bravais-lattice index     =            0
     lattice parameter (alat)  =       1.8897  a.u.
     unit-cell volume          =    6658.9804 (a.u.)^3
     number of atoms/cell      =           54
     number of atomic types    =            5
     number of electrons       =       392.00
     number of Kohn-Sham states=          206
     kinetic-energy cutoff     =      29.3995  Ry
     charge density cutoff     =     293.9946  Ry
     scf convergence threshold =      7.3E-08
     mixing beta               =       0.0500
     number of iterations used =            8  plain     mixing
     Exchange-correlation= BEEF-VDW
                           (   1   4  43  14   2   0   0)

     celldm(1)=   1.889726  celldm(2)=   0.000000  celldm(3)=   0.000000
     celldm(4)=   0.000000  celldm(5)=   0.000000  celldm(6)=   0.000000

     crystal axes: (cart. coord. in units of alat)
               a(1) = (   6.579727   0.000000   0.000000 )
               a(2) = (  -0.000775   5.961596   0.000000 )
               a(3) = (   0.000000   0.000000  25.155947 )

     reciprocal axes: (cart. coord. in units 2 pi/alat)
               b(1) = (  0.151982  0.000020  0.000000 )
               b(2) = (  0.000000  0.167740  0.000000 )
               b(3) = (  0.000000  0.000000  0.039752 )

     PseudoPot. # 1 for Ti read from file:
     /storage/coda1/p-amedford6/0/shared/rich_project_chbe-medford/medford-share/data/pseudos_module/espresso/nninc/pbe/van/Ti.UPF
     MD5 check sum: 8e4df49b7f0d34bbd5052bf3f5ea0213
     Pseudo is Ultrasoft, Zval = 12.0
     Generated by new atomic code, or converted to UPF format
     Using radial grid of  851 points,  6 beta functions with:
                l(1) =   0
                l(2) =   0
                l(3) =   1
                l(4) =   1
                l(5) =   2
                l(6) =   2
     Q(r) pseudized with  8 coefficients,  rinner =    1.000   1.000   1.000
                                                       1.000   1.000

     PseudoPot. # 2 for O  read from file:
     /storage/coda1/p-amedford6/0/shared/rich_project_chbe-medford/medford-share/data/pseudos_module/espresso/nninc/pbe/van/O.UPF
     MD5 check sum: 78c19812648e8988a0fe644b0f25305e
     Pseudo is Ultrasoft, Zval =  6.0
     Generated by new atomic code, or converted to UPF format
     Using radial grid of  737 points,  4 beta functions with:
                l(1) =   0
                l(2) =   0
                l(3) =   1
                l(4) =   1
     Q(r) pseudized with  8 coefficients,  rinner =    0.800   0.800   0.800

     PseudoPot. # 3 for N  read from file:
     /storage/coda1/p-amedford6/0/shared/rich_project_chbe-medford/medford-share/data/pseudos_module/espresso/nninc/pbe/van/N.UPF
     MD5 check sum: 90d10febe142ad51ac9d5be1deb811c4
     Pseudo is Ultrasoft, Zval =  5.0
     Generated by new atomic code, or converted to UPF format
     Using radial grid of  729 points,  4 beta functions with:
                l(1) =   0
                l(2) =   0
                l(3) =   1
                l(4) =   1
     Q(r) pseudized with  8 coefficients,  rinner =    0.800   0.800   0.800

     PseudoPot. # 4 for C  read from file:
     /storage/coda1/p-amedford6/0/shared/rich_project_chbe-medford/medford-share/data/pseudos_module/espresso/nninc/pbe/van/C.UPF
     MD5 check sum: 1a69bf6b8db32088f5b2163dbdb77a27
     Pseudo is Ultrasoft, Zval =  4.0
     Generated by new atomic code, or converted to UPF format
     Using radial grid of  721 points,  4 beta functions with:
                l(1) =   0
                l(2) =   0
                l(3) =   1
                l(4) =   1
     Q(r) pseudized with  8 coefficients,  rinner =    0.800   0.800   0.800

     PseudoPot. # 5 for H  read from file:
     /storage/coda1/p-amedford6/0/shared/rich_project_chbe-medford/medford-share/data/pseudos_module/espresso/nninc/pbe/van/H.UPF
     MD5 check sum: b5ee9d7bfd3a09ee7748110bda690ff7
     Pseudo is Ultrasoft, Zval =  1.0
     Generated by new atomic code, or converted to UPF format
     Using radial grid of  615 points,  1 beta functions with:
                l(1) =   0
     Q(r) pseudized with  8 coefficients,  rinner =    0.800

     atomic species   valence    mass     pseudopotential
        Ti1           12.00    47.86700     Ti( 1.00)
        O1             6.00    15.99900     O ( 1.00)
        N1             5.00    14.00700     N ( 1.00)
        C1             4.00    12.01100     C ( 1.00)
        H1             1.00     1.00800     H ( 1.00)

     Starting magnetic structure
     atomic species   magnetization
        Ti1          0.000
        O1           0.000
        N1           0.000
        C1           0.025
        H1           0.000

     No symmetry found

   Cartesian axes

     site n.     atom                  positions (alat units)
         1           Ti1 tau(   1) = (   0.0004258   2.9801865   6.0000000  )
         2           Ti1 tau(   2) = (   3.2906075   1.4906267   6.0002472  )
         3           O1  tau(   3) = (   0.0006271   0.0005054   7.9858123  )
         4           O1  tau(   4) = (   3.2906025   0.0005020   7.3038282  )
         5           O1  tau(   5) = (   4.5942328   1.4918067   9.2879030  )
         6           O1  tau(   6) = (   1.9868534   1.4903216   9.2879459  )
         7           Ti1 tau(   7) = (   3.2907910   2.8959150   9.1758416  )
         8           Ti1 tau(   8) = (   0.0015273   1.4827037   9.2680791  )
         9           O1  tau(   9) = (   3.2893523   5.9576907  11.3759447  )
        10           O1  tau(  10) = (   0.0116148   5.9584955  10.6183126  )
        11           O1  tau(  11) = (   1.2892553   1.4862333  12.6941169  )
        12           O1  tau(  12) = (   5.2958346   1.4833122  12.6807028  )
        13           Ti1 tau(  13) = (   0.0095698   2.9692159  12.5083673  )
        14           Ti1 tau(  14) = (   3.3108451   1.4743585  12.5306019  )
        15           O1  tau(  15) = (   6.5736105   5.8801748  14.6991865  )
        16           O1  tau(  16) = (   3.2979610   5.9450902  14.0010558  )
        17           O1  tau(  17) = (   4.5273680   1.5185660  16.1654609  )
        18           O1  tau(  18) = (   2.0122787   1.5163527  16.1384539  )
        19           Ti1 tau(  19) = (   3.2802752   2.9921964  15.7561315  )
        20           Ti1 tau(  20) = (   0.0093588   1.3049760  15.8672178  )
        21           O1  tau(  21) = (   3.2904802   0.0005063   4.7018136  )
        22           O1  tau(  22) = (   6.5538635   0.1342075  17.2452287  )
        23           O1  tau(  23) = (   1.3043587   1.4918075   6.0039043  )
        24           O1  tau(  24) = (   5.2767064   1.4903225   6.0039473  )
        25           Ti1 tau(  25) = (   0.0000382   5.9609847   6.0000000  )
        26           Ti1 tau(  26) = (   3.2902200   4.4714249   6.0002472  )
        27           O1  tau(  27) = (   0.0002396   2.9813036   7.9858123  )
        28           O1  tau(  28) = (   3.2902150   2.9813002   7.3038282  )
        29           O1  tau(  29) = (   4.5938453   4.4726049   9.2879030  )
        30           O1  tau(  30) = (   1.9864658   4.4711199   9.2879459  )
        31           Ti1 tau(  31) = (   3.2891106   5.8743827   9.1763621  )
        32           Ti1 tau(  32) = (   0.0006254   4.4649316   9.2693709  )
        33           O1  tau(  33) = (   3.2933707   2.9638296  11.3700534  )
        34           O1  tau(  34) = (   0.0092240   2.9805883  10.6323155  )
        35           O1  tau(  35) = (   1.2923283   4.4540072  12.6594629  )
        36           O1  tau(  36) = (   5.2938616   4.4568750  12.6477176  )
        37           Ti1 tau(  37) = (   0.0202681   5.9396231  12.5027719  )
        38           Ti1 tau(  38) = (   3.3116628   4.4527548  12.5215617  )
        39           O1  tau(  39) = (   6.5466975   3.0260875  14.9671898  )
        40           O1  tau(  40) = (   3.2966604   2.9917109  13.9679302  )
        41           O1  tau(  41) = (   4.5116687   4.4737236  16.2360857  )
        42           O1  tau(  42) = (   2.0028912   4.4646324  16.2202640  )
        43           Ti1 tau(  43) = (   3.2937213   0.0113368  15.7972781  )
        44           Ti1 tau(  44) = (   0.0208052   4.5175143  16.0574476  )
        45           O1  tau(  45) = (   3.2900926   2.9813045   4.7018136  )
        46           O1  tau(  46) = (   1.3039711   4.4726057   6.0039043  )
        47           O1  tau(  47) = (   5.2763189   4.4711207   6.0039473  )
        48           N1  tau(  48) = (   6.3337458   3.3624127  18.1270434  )
        49           C1  tau(  49) = (   0.8795605   3.2639204  19.0799812  )
        50           H1  tau(  50) = (   1.4196110   4.2071110  19.0760701  )
        51           H1  tau(  51) = (   0.5395241   3.0459488  20.0957609  )
        52           H1  tau(  52) = (   1.5475163   2.4696122  18.7548312  )
        53           H1  tau(  53) = (   5.6940081   4.1073896  18.4182617  )
        54           H1  tau(  54) = (   5.7906660   2.4998151  18.1411682  )

     number of k points=    10  Fermi-Dirac smearing, width (Ry)=  0.0073
                       cart. coord. in units 2pi/alat
        k(    1) = (   0.0000000   0.0000000   0.0000000), wk =   0.0625000
        k(    2) = (   0.0000000   0.0419351   0.0000000), wk =   0.1250000
        k(    3) = (   0.0000000  -0.0838702   0.0000000), wk =   0.0625000
        k(    4) = (   0.0379955   0.0000049   0.0000000), wk =   0.1250000
        k(    5) = (   0.0379955   0.0419400   0.0000000), wk =   0.1250000
        k(    6) = (   0.0379955  -0.0838652   0.0000000), wk =   0.1250000
        k(    7) = (   0.0379955  -0.0419301   0.0000000), wk =   0.1250000
[...]
        k(   10) = (  -0.0759910  -0.0838800   0.0000000), wk =   0.0625000

     Initial potential from superposition of free atoms

     starting charge  375.99915, renormalised to  392.00000

     negative rho (up, down):  8.109E-03 8.116E-03

     %%%%%%%%%%%%%%%%%%%%%%%%%%%%%%%%%%%%%%%%%%%%%%%%%%%%%%%%%%%%%%%%%%%%%%%%
     %                                                                      %
     % You are using vdW-DF, which was implemented by the Thonhauser group. %
     % Please cite the following two papers that made this development      %
     % possible and the two reviews that describe the various versions:     %
     %                                                                      %
     %   T. Thonhauser et al., PRL 115, 136402 (2015).                      %
     %   T. Thonhauser et al., PRB 76, 125112 (2007).                       %
     %   K. Berland et al., Rep. Prog. Phys. 78, 066501 (2015).             %
     %   D.C. Langreth et al., J. Phys.: Condens. Matter 21, 084203 (2009). %
     %                                                                      %
     %                                                                      %
     % If you are calculating the stress with vdW-DF, please also cite:     %
     %                                                                      %
     %   R. Sabatini et al., J. Phys.: Condens. Matter 24, 424209 (2012).   %
     %                                                                      %
     %%%%%%%%%%%%%%%%%%%%%%%%%%%%%%%%%%%%%%%%%%%%%%%%%%%%%%%%%%%%%%%%%%%%%%%%

     Adding external electric field

     Computed dipole along edir(3) :
        Dipole               -7.5471 Ry au,        -19.1827 Debye
        Dipole field         -0.0142 Ry au,

        Potential amp.        1.3202 Ry
        Total length         46.3494 bohr

[...]

     Starting wfcs are  297 atomic wfcs
  @ DRIVER MODE: Message from server: STATUS
  @ DRIVER MODE: Message from server: POSDATA
  @ DRIVER MODE: Reading and sharing cell
  @ DRIVER MODE: Reading and sharing positions
  @ DRIVER MODE: Received positions

     Self-consistent Calculation

     iteration #  1     ecut=    29.40 Ry     beta= 0.05
     Davidson diagonalization with overlap
     c_bands:  1 eigenvalues not converged
     c_bands:  2 eigenvalues not converged
     c_bands:  1 eigenvalues not converged
     c_bands:  1 eigenvalues not converged
     c_bands:  1 eigenvalues not converged
     c_bands:  1 eigenvalues not converged
     c_bands:  1 eigenvalues not converged
     c_bands:  2 eigenvalues not converged
     c_bands:  1 eigenvalues not converged
     c_bands:  1 eigenvalues not converged
     c_bands:  1 eigenvalues not converged
     c_bands:  1 eigenvalues not converged
     ethr =  1.00E-05,  avg # of iterations = 19.6

[...]

     total energy              =   -2679.38880551 Ry
     estimated scf accuracy    <    2680.85554862 Ry

     total magnetization       =     0.00 Bohr mag/cell
     absolute magnetization    =     0.01 Bohr mag/cell

[...]

     iteration #  3     ecut=    29.40 Ry     beta= 0.05
     Davidson diagonalization with overlap
     ethr =  1.00E-02,  avg # of iterations = 14.9

[...]

     iteration # 70     ecut=    29.40 Ry     beta= 0.05
     Davidson diagonalization with overlap
     ethr =  2.54E-10,  avg # of iterations = 12.2

[...]

     total energy              =   -2921.63320444 Ry
     estimated scf accuracy    <       0.00000008 Ry

[...]

     iteration # 76     ecut=    29.40 Ry     beta= 0.05
     Davidson diagonalization with overlap
     c_bands:  2 eigenvalues not converged
     c_bands:  2 eigenvalues not converged
     ethr =  2.09E-11,  avg # of iterations = 13.7

     negative rho (up, down):  8.573E-03 8.575E-03

[...]

     Adding external electric field

     Computed dipole along edir(3) :
        Dipole                1.2968 Ry au,          3.2962 Debye
        Dipole field          0.0024 Ry au,

        Potential amp.       -0.2269 Ry
        Total length         46.3494 bohr

     Magnetic moment per site  (integrated on atomic sphere of radius R)
     atom   1 (R=0.738)  charge=  8.0426  magn=  0.0050
     atom   2 (R=0.738)  charge=  8.0243  magn=  0.0001
     atom   3 (R=0.738)  charge=  5.0120  magn= -0.0006
     atom   4 (R=0.738)  charge=  5.0490  magn= -0.0000
     atom   5 (R=0.738)  charge=  5.0182  magn= -0.0001
     atom   6 (R=0.738)  charge=  5.0186  magn= -0.0001
     atom   7 (R=0.738)  charge=  8.0244  magn=  0.0004
     atom   8 (R=0.738)  charge=  8.0256  magn=  0.0045
     atom   9 (R=0.738)  charge=  5.0260  magn= -0.0002
     atom  10 (R=0.738)  charge=  5.0261  magn= -0.0003
     atom  11 (R=0.738)  charge=  5.0131  magn= -0.0002
     atom  12 (R=0.738)  charge=  5.0142  magn= -0.0002
     atom  13 (R=0.738)  charge=  8.0323  magn=  0.0015
     atom  14 (R=0.738)  charge=  8.0300  magn=  0.0021
     atom  15 (R=0.738)  charge=  5.0263  magn=  0.0002
     atom  16 (R=0.738)  charge=  5.0222  magn= -0.0006
     atom  17 (R=0.738)  charge=  4.9995  magn= -0.0005
     atom  18 (R=0.738)  charge=  5.0035  magn= -0.0005
     atom  19 (R=0.738)  charge=  8.0637  magn=  0.0074
     atom  20 (R=0.738)  charge=  8.0764  magn=  0.0012
     atom  21 (R=0.738)  charge=  4.8972  magn=  0.0000
     atom  22 (R=0.738)  charge=  4.9760  magn=  0.0001
     atom  23 (R=0.738)  charge=  5.0093  magn= -0.0005
     atom  24 (R=0.738)  charge=  5.0095  magn= -0.0005
     atom  25 (R=0.738)  charge=  8.0426  magn=  0.0049
     atom  26 (R=0.738)  charge=  8.0244  magn=  0.0001
     atom  27 (R=0.738)  charge=  5.0118  magn= -0.0006
     atom  28 (R=0.738)  charge=  5.0493  magn= -0.0000
     atom  29 (R=0.738)  charge=  5.0191  magn= -0.0001
     atom  30 (R=0.738)  charge=  5.0194  magn= -0.0001
     atom  31 (R=0.738)  charge=  8.0246  magn=  0.0004
     atom  32 (R=0.738)  charge=  8.0257  magn=  0.0045
     atom  33 (R=0.738)  charge=  5.0254  magn= -0.0002
     atom  34 (R=0.738)  charge=  5.0228  magn= -0.0003
     atom  35 (R=0.738)  charge=  5.0162  magn= -0.0002
     atom  36 (R=0.738)  charge=  5.0179  magn= -0.0002
     atom  37 (R=0.738)  charge=  8.0280  magn=  0.0017
     atom  38 (R=0.738)  charge=  8.0303  magn=  0.0022
     atom  39 (R=0.738)  charge=  5.0062  magn= -0.0000
     atom  40 (R=0.738)  charge=  5.0343  magn= -0.0005
     atom  41 (R=0.738)  charge=  4.9975  magn= -0.0005
     atom  42 (R=0.738)  charge=  5.0021  magn= -0.0005
     atom  43 (R=0.738)  charge=  8.0613  magn=  0.0083
     atom  44 (R=0.738)  charge=  8.0414  magn=  0.0020
     atom  45 (R=0.738)  charge=  4.8972  magn=  0.0001
     atom  46 (R=0.738)  charge=  5.0093  magn= -0.0005
     atom  47 (R=0.738)  charge=  5.0095  magn= -0.0005
     atom  48 (R=0.421)  charge=  1.3449  magn= -0.0000
     atom  49 (R=0.448)  charge=  0.8445  magn=  0.0001
     atom  50 (R=0.421)  charge=  0.4464  magn= -0.0000
     atom  51 (R=0.421)  charge=  0.4475  magn= -0.0000
     atom  52 (R=0.421)  charge=  0.4464  magn= -0.0000
     atom  53 (R=0.421)  charge=  0.4469  magn=  0.0000
     atom  54 (R=0.421)  charge=  0.4524  magn=  0.0000

     End of self-consistent calculation

 ------ SPIN UP ------------

          k = 0.0000 0.0000 0.0000 ( 18029 PWs)   bands (ev):

   -55.4360 -55.3995 -55.3891 -55.3589 -55.3550 -55.3247 -55.3139 -55.2795
   -55.2541 -55.2446 -55.2198 -55.2194 -55.1858 -55.1178 -54.4144 -54.3804
   -32.0042 -31.8899 -31.8791 -31.8019 -31.7532 -31.7501 -31.7434 -31.7256
   -31.6790 -31.6784 -31.6472 -31.6455 -31.6343 -31.6206 -31.6062 -31.6041
   -31.5910 -31.5785 -31.5735 -31.5515 -31.5421 -31.5344 -31.5135 -31.5005
   -31.4915 -31.4877 -31.4849 -31.4566 -31.4469 -31.4446 -31.4364 -31.4201
   -31.4190 -31.4161 -31.4047 -31.4015 -31.3679 -31.3665 -31.3482 -31.3309
   -31.3247 -31.3007 -30.8236 -30.7295 -30.7074 -30.6400 -30.5532 -30.4422
   -16.2910 -16.1481 -15.9747 -15.8275 -15.7504 -15.6329 -15.5179 -15.5010
   -15.3649 -15.2829 -15.1639 -15.1389 -15.1192 -15.0964 -15.0853 -15.0690
   -14.9784 -14.9728 -14.9585 -14.9274 -14.9250 -14.8801 -14.8724 -14.8311
   -14.8103 -14.8080 -14.6845 -14.5932 -14.5203 -14.2827 -12.9172 -12.7998
   -10.2167  -6.2747  -4.8225  -3.9592  -3.6090  -3.4548  -3.3650  -3.3384
    -3.3259  -3.1912  -3.0453  -2.8954  -2.8472  -2.8377  -2.7218  -2.6485
    -2.6386  -2.6188  -2.4639  -2.4325  -2.3896  -2.3423  -2.2985  -2.2441
    -2.2251  -2.2189  -2.2038  -2.1821  -2.1714  -2.0549  -2.0015  -1.9180
    -1.8606  -1.8377  -1.7876  -1.7663  -1.7437  -1.7237  -1.7146  -1.6698
    -1.6589  -1.6288  -1.5728  -1.4627  -1.3633  -1.3102  -1.1923  -1.0712
    -1.0311  -1.0182  -0.9779  -0.9349  -0.9199  -0.8549  -0.8112  -0.7805
    -0.7124  -0.6639  -0.6017  -0.5534  -0.4830  -0.4686  -0.4210  -0.3674
    -0.2540  -0.2163  -0.2014  -0.1756  -0.0824  -0.0462  -0.0013   0.0817
     0.0918   0.1074   0.2078   0.2211   0.2913   0.3376   0.3545   0.4474
     0.4853   0.4953   0.5005   0.5245   0.5512   0.6025   0.6402   0.6684
     0.7388   0.8641   1.0796   1.1543   1.1786   1.5051   1.5138   1.6082
     1.7917   2.1843   2.2324   3.6591   3.7324   3.8045   3.8132   3.8224
     3.8989   4.1365   4.1594   4.1660   4.1730   4.1951

[...]

          k =-0.0760-0.0000 0.0000 ( 17886 PWs)   bands (ev):

[...]

 ------ SPIN DOWN ----------

[...]

          k = 0.0380-0.0419 0.0000 ( 17876 PWs)   bands (ev):

[...]

          k =-0.0760-0.0839 0.0000 ( 17948 PWs)   bands (ev):

   -55.4174 -55.4109 -55.3635 -55.3631 -55.3550 -55.3060 -55.2958 -55.2923
   -55.2381 -55.2355 -55.2341 -55.1954 -55.1947 -55.1174 -54.3975 -54.3973
   -31.8080 -31.8063 -31.8031 -31.7159 -31.6917 -31.6905 -31.6901 -31.6539
   -31.6538 -31.6424 -31.6350 -31.6307 -31.6245 -31.5995 -31.5879 -31.5718
   -31.5707 -31.5663 -31.5635 -31.5588 -31.5580 -31.5548 -31.5161 -31.5061
   -31.5053 -31.5038 -31.5013 -31.4887 -31.4843 -31.4822 -31.4819 -31.4711
   -31.4672 -31.4509 -31.4469 -31.4298 -31.4269 -31.4244 -31.3800 -31.3756
   -31.3741 -31.3270 -30.7201 -30.7198 -30.6364 -30.6362 -30.5967 -30.5965
   -16.1087 -15.7793 -15.6881 -15.6407 -15.4673 -15.4381 -15.4215 -15.4064
   -15.2740 -15.2559 -15.2320 -15.2041 -15.1818 -15.1472 -15.1378 -15.1351
   -15.0555 -15.0413 -15.0343 -15.0185 -14.9526 -14.9427 -14.9404 -14.9331
   -14.8830 -14.8794 -14.8160 -14.7865 -14.7835 -14.5730 -12.9008 -12.9007
   -10.2198  -6.2452  -4.8195  -3.9210  -2.9579  -2.9314  -2.8941  -2.8902
    -2.6820  -2.6409  -2.6057  -2.5800  -2.4900  -2.4506  -2.4349  -2.4273
    -2.3558  -2.3384  -2.3211  -2.2762  -2.2701  -2.2564  -2.2344  -2.2039
    -2.1819  -2.1629  -2.1534  -2.1345  -2.0883  -2.0773  -2.0528  -2.0375
    -2.0346  -2.0159  -1.9884  -1.9421  -1.8153  -1.8072  -1.7397  -1.6407
    -1.6359  -1.5592  -1.5460  -1.5102  -1.4855  -1.4664  -1.4236  -1.2506
    -1.2069  -1.1804  -1.1708  -1.1121  -1.0486  -1.0259  -0.9557  -0.9400
    -0.9215  -0.8175  -0.7728  -0.7582  -0.6681  -0.6559  -0.5778  -0.5106
    -0.4683  -0.4423  -0.3935  -0.3900  -0.3880  -0.3401  -0.3326  -0.2513
    -0.2044  -0.1682  -0.1540  -0.1239   0.0729   0.0837   0.1099   0.2502
     0.2790   0.4023   0.4365   0.4884   0.5635   0.5961   0.6777   0.7132
     0.8427   0.8717   0.8733   0.9457   0.9571   1.0191   1.0287   1.9651
     1.9658   2.0530   2.0532   3.8265   3.9054   3.9274   3.9691   4.0816
     4.1547   4.1826   4.2030   4.2509   4.2536   4.3206

     the Fermi energy is     3.7275 ev

!    total energy              =   -2921.63322090 Ry
     estimated scf accuracy    <       0.00000007 Ry
     smearing contrib. (-TS)   =      -0.03708195 Ry
     internal energy E=F+TS    =   -2921.59613895 Ry

     The total energy is F=E-TS. E is the sum of the following terms:
     one-electron contribution =  -24028.52584192 Ry
     hartree contribution      =   12103.34167036 Ry
     xc contribution           =    -481.74420845 Ry
     ewald contribution        =    9485.32906736 Ry
     electric field correction =       0.00317370 Ry

     total magnetization       =     0.06 Bohr mag/cell
     absolute magnetization    =     0.08 Bohr mag/cell

     convergence has been achieved in  76 iterations

     Forces acting on atoms (cartesian axes, Ry/au):

     atom    1 type  1   force =     0.00002910   -0.00021645    0.09331387
     atom    2 type  1   force =    -0.00019285   -0.00036838   -0.17830898
     atom    3 type  2   force =     0.00002907   -0.00040092   -0.02023028
     atom    4 type  2   force =    -0.00002602   -0.00194860    0.05876781
     atom    5 type  2   force =    -0.01019859   -0.00112218    0.00777272
     atom    6 type  2   force =     0.01167413   -0.00040300    0.00693914
     atom    7 type  1   force =    -0.00049028    0.00210589   -0.01456908
     atom    8 type  1   force =     0.00024470   -0.00049374   -0.00479704
     atom    9 type  2   force =     0.00015331    0.00011573   -0.00007411
     atom   10 type  2   force =    -0.00113624    0.00137616    0.00052670
     atom   11 type  2   force =    -0.00010686    0.00015510    0.00006854
     atom   12 type  2   force =    -0.00002938    0.00036108    0.00024292
     atom   13 type  1   force =    -0.00005368   -0.00018673   -0.00018649
     atom   14 type  1   force =    -0.00014604    0.00012302    0.00029943
     atom   15 type  2   force =    -0.00020693   -0.00029195    0.00009204
     atom   16 type  2   force =    -0.00022287    0.00019640    0.00017911
     atom   17 type  2   force =     0.00015762   -0.00013022    0.00007416
     atom   18 type  2   force =    -0.00005493   -0.00021572    0.00016791
     atom   19 type  1   force =    -0.00029597    0.00031950    0.00046320
     atom   20 type  1   force =    -0.00000128    0.00004816   -0.00039021
     atom   21 type  2   force =     0.00002888   -0.00006253    0.10391806
     atom   22 type  2   force =     0.00022737    0.00037380    0.00015843
     atom   23 type  2   force =    -0.07041014   -0.00016157   -0.02694354
     atom   24 type  2   force =     0.07024902    0.00028051   -0.02698953
     atom   25 type  1   force =    -0.00001468   -0.00014978    0.09282305
     atom   26 type  1   force =    -0.00021211   -0.00048773   -0.17832280
     atom   27 type  2   force =     0.00008732   -0.00026660   -0.01929937
     atom   28 type  2   force =     0.00004314   -0.00171600    0.05810785
     atom   29 type  2   force =    -0.01072021   -0.00111589    0.00833462
     atom   30 type  2   force =     0.01206826   -0.00083956    0.00745580
     atom   31 type  1   force =    -0.00039906    0.00596104   -0.01544207
     atom   32 type  1   force =     0.00022299   -0.00004271   -0.00517633
     atom   33 type  2   force =    -0.00007846    0.00001116    0.00007240
     atom   34 type  2   force =    -0.00101310   -0.00248435   -0.00001733
     atom   35 type  2   force =    -0.00006030    0.00024093   -0.00005243
     atom   36 type  2   force =    -0.00012193    0.00009662    0.00000987
     atom   37 type  1   force =    -0.00003238    0.00006598   -0.00021314
     atom   38 type  1   force =    -0.00007356    0.00000700    0.00012156
     atom   39 type  2   force =     0.00021330   -0.00004577    0.00015084
     atom   40 type  2   force =    -0.00030290    0.00024007   -0.00003911
     atom   41 type  2   force =     0.00017862    0.00049351    0.00005120
     atom   42 type  2   force =    -0.00006372    0.00014725    0.00033191
     atom   43 type  1   force =    -0.00032823    0.00028683    0.00007591
     atom   44 type  1   force =     0.00001382   -0.00042797   -0.00000579
     atom   45 type  2   force =     0.00001967   -0.00007393    0.10389366
     atom   46 type  2   force =    -0.07038120   -0.00009387   -0.02688983
     atom   47 type  2   force =     0.07023059    0.00033250   -0.02694054
     atom   48 type  3   force =    -0.00551476    0.00732050    0.00239537
     atom   49 type  4   force =    -0.00031972   -0.00039655   -0.00015937
     atom   50 type  5   force =     0.00069623    0.00095558   -0.00008379
     atom   51 type  5   force =     0.00025199    0.00026556   -0.00053606
     atom   52 type  5   force =     0.00020858   -0.00044141    0.00004017
     atom   53 type  5   force =     0.00631587   -0.00857846   -0.00158807
     atom   54 type  5   force =    -0.00013519    0.00128271    0.00040702

     Total force =     0.366488     Total SCF correction =     0.000407
  @ DRIVER MODE: Message from server: STATUS
  @ DRIVER MODE: Message from server: GETFORCE
  @ DRIVER MODE: Returning v,forces,stress,ensemble

     Writing output data file ./calc.save/
  @ DRIVER MODE: Message from server: EXIT
  @ DRIVE MODE: Exiting

     General routines

     Parallel routines

   This run was terminated on:  10:40:39  21Jul2021

   JOB DONE.