     Program PWSCF v.6.7GPU starts on 19Oct2021 at  8:54:37

     R & G space division:  proc/nbgrp/npool/nimage =       8
     Reading input from /storage/home/hcoda1/3/ntian30/research/carbon/CxH_vib/Thiel_calc/ads_slab/NH3NH2H_perslab/out_0042/pw.inp
Warning: card &CELL ignored
Warning: card   CELL_DYNAMICS='IPI', ignored
Warning: card / ignored

     Current dimensions of program PWSCF are:
     Max number of different atomic species (ntypx) = 10
     Max number of k-points (npk) =  40000
     Max angular momentum in pseudopotentials (lmaxx) =  3
     Presently no symmetry can be used with electric field

     Message from routine cell_base_init:
     DEPRECATED: use true lattice parameter, not A to a.u. conversion factor

     IMPORTANT: XC functional enforced from input :
     Exchange-correlation= BEEF-VDW
                           (   1   4  43  14   2   0   0)
     Any further DFT definition will be discarded
     Please, verify this is what you really want

  @ DRIVER MODE: Connecting to
 qe_1139763_3255139.sched-torque.pace.gatech.edut3sybkfk_scratch
  using UNIX socket
  @ DRIVER MODE: Message from server: STATUS
  @ DRIVER MODE: Message from server: INIT
  @ DRIVER MODE: Receiving replica           0          -1
  @ DRIVER MODE: Receiving encoded integer          25
  @ DRIVER MODE:  SCF:  T  FORCE:  T  STRESS:  F  VC:  F  ENSEMBLE:  F
  @ DRIVER MODE:  SCF:  T  FORCE:  T  STRESS:  F  VC:  F  ENSEMBLE:  F

     Using Slab Decomposition

     bravais-lattice index     =            0
     lattice parameter (alat)  =       1.8897  a.u.
     unit-cell volume          =    9988.4706 (a.u.)^3
     number of atoms/cell      =           61
     number of atomic types    =            4
     number of electrons       =       442.00
     number of Kohn-Sham states=          231
     kinetic-energy cutoff     =      29.3995  Ry
     charge density cutoff     =     293.9946  Ry
     scf convergence threshold =      7.3E-08
     mixing beta               =       0.0500
     number of iterations used =            8  plain     mixing
     Exchange-correlation= BEEF-VDW
                           (   1   4  43  14   2   0   0)

     celldm(1)=   1.889726  celldm(2)=   0.000000  celldm(3)=   0.000000
     celldm(4)=   0.000000  celldm(5)=   0.000000  celldm(6)=   0.000000

     crystal axes: (cart. coord. in units of alat)
               a(1) = (   6.579727   0.000000   0.000000 )
               a(2) = (  -0.001163   8.942395   0.000000 )
               a(3) = (   0.000000   0.000000  25.155947 )

     reciprocal axes: (cart. coord. in units 2 pi/alat)
               b(1) = (  0.151982  0.000020  0.000000 )
               b(2) = (  0.000000  0.111827  0.000000 )
               b(3) = (  0.000000  0.000000  0.039752 )

     PseudoPot. # 1 for O  read from file:
     /storage/coda1/p-amedford6/0/shared/rich_project_chbe-medford/medford-share/data/pseudos_module/espresso/nninc/pbe/van/O.UPF
     MD5 check sum: 78c19812648e8988a0fe644b0f25305e
     Pseudo is Ultrasoft, Zval =  6.0
     Generated by new atomic code, or converted to UPF format
     Using radial grid of  737 points,  4 beta functions with:
                l(1) =   0
                l(2) =   0
                l(3) =   1
                l(4) =   1
     Q(r) pseudized with  8 coefficients,  rinner =    0.800   0.800   0.800

     PseudoPot. # 2 for Ti read from file:
     /storage/coda1/p-amedford6/0/shared/rich_project_chbe-medford/medford-share/data/pseudos_module/espresso/nninc/pbe/van/Ti.UPF
     MD5 check sum: 8e4df49b7f0d34bbd5052bf3f5ea0213
     Pseudo is Ultrasoft, Zval = 12.0
     Generated by new atomic code, or converted to UPF format
     Using radial grid of  851 points,  6 beta functions with:
                l(1) =   0
                l(2) =   0
                l(3) =   1
                l(4) =   1
                l(5) =   2
                l(6) =   2
     Q(r) pseudized with  8 coefficients,  rinner =    1.000   1.000   1.000
                                                       1.000   1.000

     PseudoPot. # 3 for H  read from file:
     /storage/coda1/p-amedford6/0/shared/rich_project_chbe-medford/medford-share/data/pseudos_module/espresso/nninc/pbe/van/H.UPF
     MD5 check sum: b5ee9d7bfd3a09ee7748110bda690ff7
     Pseudo is Ultrasoft, Zval =  1.0
     Generated by new atomic code, or converted to UPF format
     Using radial grid of  615 points,  1 beta functions with:
                l(1) =   0
     Q(r) pseudized with  8 coefficients,  rinner =    0.800

     PseudoPot. # 4 for N  read from file:
     /storage/coda1/p-amedford6/0/shared/rich_project_chbe-medford/medford-share/data/pseudos_module/espresso/nninc/pbe/van/N.UPF
     MD5 check sum: 90d10febe142ad51ac9d5be1deb811c4
     Pseudo is Ultrasoft, Zval =  5.0
     Generated by new atomic code, or converted to UPF format
     Using radial grid of  729 points,  4 beta functions with:
                l(1) =   0
                l(2) =   0
                l(3) =   1
                l(4) =   1
     Q(r) pseudized with  8 coefficients,  rinner =    0.800   0.800   0.800

     atomic species   valence    mass     pseudopotential
        O1             6.00    15.99900     O ( 1.00)
        Ti1           12.00    47.86700     Ti( 1.00)
        H1             1.00     1.00800     H ( 1.00)
        N1             5.00    14.00700     N ( 1.00)

     No symmetry found

   Cartesian axes

     site n.     atom                  positions (alat units)
         1           O1  tau(   1) = (   0.0007354   0.0005023  10.5931620  )
         2           O1  tau(   2) = (   3.2892937   8.9423630  13.8814308  )
         3           O1  tau(   3) = (   6.5785080   0.0907754  17.2996570  )
         4           O1  tau(   4) = (   0.0006271   0.0005054   7.9858123  )
         5           O1  tau(   5) = (   3.2892617   8.9274694  11.1867540  )
         6           O1  tau(   6) = (   0.0001068   0.0384811  14.5856928  )
         7           O1  tau(   7) = (   1.9868534   1.4903216   9.2879459  )
         8           O1  tau(   8) = (   5.2392332   1.6199063  12.5840971  )
         9           O1  tau(   9) = (   2.0046145   1.5651943  16.0652335  )
        10           Ti1 tau(  10) = (   0.0007404   1.4906270   9.2895810  )
        11           Ti1 tau(  11) = (   3.2903033   1.3475644  12.4784176  )
        12           Ti1 tau(  12) = (   0.0002083   1.2954417  15.7753146  )
        13           O1  tau(  13) = (   4.5942328   1.4918067   9.2879030  )
        14           O1  tau(  14) = (   1.3408909   1.6195689  12.5841697  )
        15           O1  tau(  15) = (   4.5747373   1.5650701  16.0650860  )
        16           Ti1 tau(  16) = (   3.2902859   2.9801868   9.2893338  )
        17           Ti1 tau(  17) = (   0.0003213   2.8429885  12.4272127  )
        18           Ti1 tau(  18) = (   3.2894782   2.8703589  15.6911549  )
        19           O1  tau(  19) = (   0.0003479   2.9813005  10.5931620  )
        20           O1  tau(  20) = (   3.2897922   2.9583395  13.9032781  )
        21           O1  tau(  21) = (   0.0002396   2.9813036   7.9858123  )
        22           O1  tau(  22) = (   3.2900450   2.9730570  11.1907869  )
        23           O1  tau(  23) = (   0.0001206   2.9807552  14.9070210  )
        24           O1  tau(  24) = (   1.9864658   4.4711199   9.2879459  )
        25           O1  tau(  25) = (   5.2482068   4.5640541  12.6028892  )
        26           O1  tau(  26) = (   2.0118887   4.5193519  16.0312246  )
        27           Ti1 tau(  27) = (   0.0003529   4.4714252   9.2895810  )
        28           Ti1 tau(  28) = (   3.2901403   4.3402809  12.5217819  )
        29           Ti1 tau(  29) = (   0.0009811   4.3515161  16.1888847  )
        30           O1  tau(  30) = (   4.5938453   4.4726049   9.2879030  )
        31           O1  tau(  31) = (   1.3314901   4.5639303  12.6028828  )
        32           O1  tau(  32) = (   4.5682806   4.5188618  16.0312494  )
        33           Ti1 tau(  33) = (   3.2898983   5.9609850   9.2893338  )
        34           Ti1 tau(  34) = (   0.0001002   5.8006911  12.4939615  )
        35           Ti1 tau(  35) = (   3.2910898   5.8128663  15.8108673  )
        36           O1  tau(  36) = (  -0.0000397   5.9620987  10.5931620  )
        37           O1  tau(  37) = (   3.2898758   5.9691391  13.9384534  )
        38           O1  tau(  38) = (   0.0001572   5.9906873  17.2924393  )
        39           O1  tau(  39) = (  -0.0001480   5.9621018   7.9858123  )
        40           O1  tau(  40) = (   3.2897271   5.9334558  11.2049738  )
        41           O1  tau(  41) = (   0.0000685   5.9641935  14.6703060  )
        42           O1  tau(  42) = (   1.9860782   7.4519181   9.2879459  )
        43           O1  tau(  43) = (   5.2398882   7.5535610  12.5750285  )
        44           O1  tau(  44) = (   1.9879998   7.5809304  16.0172394  )
        45           Ti1 tau(  45) = (  -0.0000347   7.4522234   9.2895810  )
        46           Ti1 tau(  46) = (   3.2896426   7.2731609  12.5447809  )
        47           Ti1 tau(  47) = (   0.0002275   7.1890881  15.9781391  )
        48           O1  tau(  48) = (   4.5934577   7.4534031   9.2879030  )
        49           O1  tau(  49) = (   1.3388943   7.5534522  12.5751898  )
        50           O1  tau(  50) = (   4.5903976   7.5792304  16.0166626  )
        51           Ti1 tau(  51) = (   3.2895107   8.9417832   9.2893338  )
        52           Ti1 tau(  52) = (  -0.0003648   8.7758640  12.4444508  )
        53           Ti1 tau(  53) = (   3.2897763   8.8353469  15.6829021  )
        54           H1  tau(  54) = (   0.0028024   0.0378429  18.2586218  )
        55           N1  tau(  55) = (   0.0000016   3.3024973  17.8430138  )
        56           H1  tau(  56) = (   6.5772996   2.3364033  18.1430564  )
        57           H1  tau(  57) = (   6.5785254   3.8921159  18.6668881  )
        58           N1  tau(  58) = (   3.2892544   5.9906839  18.1401779  )
        59           H1  tau(  59) = (   3.2890604   5.0659402  18.5578254  )
        60           H1  tau(  60) = (   2.4549486   6.4784715  18.4600629  )
        61           H1  tau(  61) = (   4.1227990   6.4789769  18.4516084  )

     number of k points=    10  Fermi-Dirac smearing, width (Ry)=  0.0073
                       cart. coord. in units 2pi/alat
        k(    1) = (   0.0000000   0.0000000   0.0000000), wk =   0.1250000
        k(    2) = (   0.0000000   0.0279567   0.0000000), wk =   0.2500000
        k(    3) = (   0.0000000  -0.0559134   0.0000000), wk =   0.1250000
        k(    4) = (   0.0379955   0.0000049   0.0000000), wk =   0.2500000
        k(    5) = (   0.0379955   0.0279617   0.0000000), wk =   0.2500000
        k(    6) = (   0.0379955  -0.0559085   0.0000000), wk =   0.2500000
        k(    7) = (   0.0379955  -0.0279518   0.0000000), wk =   0.2500000
        k(    8) = (  -0.0759910  -0.0000099   0.0000000), wk =   0.1250000
        k(    9) = (  -0.0759910   0.0279468   0.0000000), wk =   0.2500000
        k(   10) = (  -0.0759910  -0.0559233   0.0000000), wk =   0.1250000

     Initial potential from superposition of free atoms

     starting charge  423.99908, renormalised to  442.00000

     negative rho (up, down):  3.653E-02 0.000E+00

     %%%%%%%%%%%%%%%%%%%%%%%%%%%%%%%%%%%%%%%%%%%%%%%%%%%%%%%%%%%%%%%%%%%%%%%%
     %                                                                      %
     % You are using vdW-DF, which was implemented by the Thonhauser group. %
     % Please cite the following two papers that made this development      %
     % possible and the two reviews that describe the various versions:     %
     %                                                                      %
     %   T. Thonhauser et al., PRL 115, 136402 (2015).                      %
     %   T. Thonhauser et al., PRB 76, 125112 (2007).                       %
     %   K. Berland et al., Rep. Prog. Phys. 78, 066501 (2015).             %
     %   D.C. Langreth et al., J. Phys.: Condens. Matter 21, 084203 (2009). %
     %                                                                      %
     %                                                                      %
     % If you are calculating the stress with vdW-DF, please also cite:     %
     %                                                                      %
     %   R. Sabatini et al., J. Phys.: Condens. Matter 24, 424209 (2012).   %
     %                                                                      %
     %%%%%%%%%%%%%%%%%%%%%%%%%%%%%%%%%%%%%%%%%%%%%%%%%%%%%%%%%%%%%%%%%%%%%%%%

     Adding external electric field

     Computed dipole along edir(3) :
        Dipole               -6.3682 Ry au,        -16.1864 Debye
        Dipole field         -0.0080 Ry au,

        Potential amp.        0.7427 Ry
        Total length         46.3494 bohr

     Starting wfcs are  334 atomic wfcs
  @ DRIVER MODE: Message from server: STATUS
  @ DRIVER MODE: Message from server: POSDATA
  @ DRIVER MODE: Reading and sharing cell
  @ DRIVER MODE: Reading and sharing positions
  @ DRIVER MODE: Received positions

     Self-consistent Calculation

     iteration #  1     ecut=    29.40 Ry     beta= 0.05
     Davidson diagonalization with overlap
     c_bands:  2 eigenvalues not converged
     c_bands:  3 eigenvalues not converged
     c_bands:  3 eigenvalues not converged
     c_bands:  2 eigenvalues not converged
     c_bands:  1 eigenvalues not converged
     c_bands:  4 eigenvalues not converged
     c_bands:  1 eigenvalues not converged
     c_bands:  1 eigenvalues not converged
     c_bands:  5 eigenvalues not converged
     ethr =  1.00E-05,  avg # of iterations = 20.0

[...]

     total energy              =   -3277.30397080 Ry
     estimated scf accuracy    <     250.09369611 Ry

     iteration #  2     ecut=    29.40 Ry     beta= 0.05
     Davidson diagonalization with overlap
     ethr =  1.00E-02,  avg # of iterations = 15.3

[...]

     iteration # 64     ecut=    29.40 Ry     beta= 0.05
     Davidson diagonalization with overlap
     c_bands:  1 eigenvalues not converged
     c_bands:  2 eigenvalues not converged
     c_bands:  1 eigenvalues not converged
     ethr =  7.91E-11,  avg # of iterations = 18.1

[...]

     total energy              =   -3295.81882241 Ry
     estimated scf accuracy    <       0.00000008 Ry

     iteration # 67     ecut=    29.40 Ry     beta= 0.05
     Davidson diagonalization with overlap
     ethr =  1.89E-11,  avg # of iterations = 13.3

     negative rho (up, down):  3.513E-02 0.000E+00

     Adding external electric field

     Computed dipole along edir(3) :
        Dipole                2.0126 Ry au,          5.1155 Debye
        Dipole field          0.0025 Ry au,

        Potential amp.       -0.2347 Ry
        Total length         46.3494 bohr

     End of self-consistent calculation

          k = 0.0000 0.0000 0.0000 ( 26871 PWs)   bands (ev):

   -57.4442 -57.4212 -57.4126 -57.4054 -57.3624 -57.3514 -57.3100 -57.3053
   -57.2912 -57.2617 -57.2412 -57.2328 -57.2238 -57.1889 -57.0088 -56.5092
   -56.4825 -56.4659 -33.8421 -33.8304 -33.8236 -33.8193 -33.8099 -33.7775
   -33.7662 -33.7599 -33.7512 -33.7370 -33.7332 -33.7125 -33.6919 -33.6787
   -33.6513 -33.6481 -33.6360 -33.6325 -33.6125 -33.6109 -33.5906 -33.5790
   -33.5554 -33.5527 -33.5514 -33.5421 -33.5385 -33.5359 -33.5339 -33.5248
   -33.5161 -33.5038 -33.4885 -33.4728 -33.4654 -33.4541 -33.4394 -33.4374
   -33.4331 -33.4304 -33.4019 -33.3786 -33.3388 -33.3029 -33.2302 -32.8287
   -32.8215 -32.8078 -32.8007 -32.7865 -32.7336 -32.6748 -32.6547 -32.5298
   -19.1386 -18.2993 -17.9719 -17.7556 -17.7085 -17.6858 -17.6047 -17.5402
   -17.5325 -17.4608 -17.3833 -17.3032 -17.2757 -17.2702 -17.2358 -17.2077
   -17.1887 -17.1646 -17.1635 -17.1230 -17.1124 -17.0929 -17.0661 -17.0185
   -16.9454 -16.9325 -16.8983 -16.8911 -16.8856 -16.8855 -16.7417 -16.6635
   -16.5830 -15.2657 -14.9694 -14.9130 -14.9058  -7.6888  -7.6309  -7.2325
    -6.7456  -5.6230  -5.4628  -5.3772  -5.2752  -4.9366  -4.8704  -4.8490
    -4.8356  -4.7902  -4.7516  -4.7504  -4.6928  -4.6839  -4.6651  -4.5844
    -4.5706  -4.5478  -4.4963  -4.4739  -4.4238  -4.4230  -4.3734  -4.3188
    -4.2684  -4.2599  -4.2589  -4.2332  -4.2326  -4.2097  -4.2055  -4.0931
    -4.0873  -4.0122  -3.9042  -3.8972  -3.8478  -3.7750  -3.7654  -3.7399
    -3.7118  -3.6506  -3.6032  -3.5495  -3.5417  -3.5284  -3.4652  -3.4403
    -3.3607  -3.2550  -3.2431  -3.2103  -3.1655  -3.1520  -3.1049  -3.0742
    -3.0017  -2.9263  -2.8469  -2.8208  -2.7162  -2.6703  -2.6511  -2.6180
    -2.6110  -2.5372  -2.5336  -2.5084  -2.3560  -2.2547  -2.2426  -2.2231
    -2.2121  -2.1847  -2.1813  -2.1537  -2.0886  -2.0428  -2.0347  -2.0187
    -1.9991  -1.9870  -1.8975  -1.8385  -1.8112  -1.7824  -1.7665  -1.6726
    -1.6337  -1.5979  -1.5874  -1.4824  -1.4278  -1.3211  -1.3163  -1.3022
    -1.2314  -1.1851  -1.1127  -0.7958  -0.6267  -0.5544  -0.2674  -0.2093
    -0.2013   0.0587   0.0710   0.1991   1.5446   1.7758   1.9762   1.9786
     1.9942   2.0650   2.1329   2.1459   2.2104   2.2637   2.2792

[...]

          k = 0.0380-0.0280 0.0000 ( 26873 PWs)   bands (ev):

[...]

          k =-0.0760-0.0000 0.0000 ( 26902 PWs)   bands (ev):

[...]

          k =-0.0760-0.0559 0.0000 ( 26868 PWs)   bands (ev):

   -57.4387 -57.4316 -57.4076 -57.4047 -57.3632 -57.3515 -57.3090 -57.3060
   -57.2903 -57.2602 -57.2438 -57.2347 -57.2221 -57.1883 -57.0087 -56.5066
   -56.4878 -56.4632 -33.9208 -33.9030 -33.8525 -33.8216 -33.8054 -33.7814
   -33.7725 -33.7640 -33.7221 -33.7066 -33.6923 -33.6628 -33.6398 -33.6360
   -33.6317 -33.6110 -33.5975 -33.5970 -33.5957 -33.5878 -33.5857 -33.5798
   -33.5681 -33.5597 -33.5553 -33.5515 -33.5340 -33.5280 -33.5217 -33.5161
   -33.5152 -33.5121 -33.5032 -33.5003 -33.4933 -33.4853 -33.4550 -33.4541
   -33.4458 -33.4339 -33.4321 -33.3934 -33.3597 -33.3025 -33.2336 -32.9101
   -32.8243 -32.8067 -32.7837 -32.7217 -32.7005 -32.6448 -32.6351 -32.6161
   -19.1321 -17.9928 -17.9213 -17.6807 -17.6258 -17.6132 -17.5980 -17.5616
   -17.5068 -17.4759 -17.4357 -17.4098 -17.3709 -17.3255 -17.3119 -17.2377
   -17.2329 -17.2293 -17.1631 -17.1611 -17.1436 -17.0986 -17.0853 -17.0624
   -17.0135 -16.9725 -16.9584 -16.8798 -16.8546 -16.8143 -16.7194 -16.6504
   -16.6164 -15.2632 -14.9707 -14.9604 -14.8476  -7.6724  -7.6277  -7.2230
    -6.7482  -5.2449  -5.2135  -5.1791  -5.1502  -5.0453  -4.8598  -4.7836
    -4.7503  -4.7464  -4.6813  -4.6609  -4.6546  -4.6103  -4.5980  -4.5732
    -4.5502  -4.5205  -4.4861  -4.4782  -4.4425  -4.4101  -4.3949  -4.3734
    -4.3559  -4.3503  -4.3362  -4.2480  -4.1860  -4.1729  -4.1168  -4.0882
    -4.0626  -4.0199  -4.0068  -3.9659  -3.9383  -3.7108  -3.6238  -3.6081
    -3.6069  -3.5806  -3.5446  -3.4886  -3.4305  -3.4026  -3.3687  -3.2428
    -3.2035  -3.1897  -3.1850  -3.1502  -3.0665  -3.0403  -3.0113  -2.9784
    -2.9630  -2.9137  -2.9009  -2.8606  -2.8201  -2.7513  -2.7048  -2.6677
    -2.6355  -2.6020  -2.5909  -2.5644  -2.5352  -2.5308  -2.5040  -2.4852
    -2.4124  -2.4104  -2.3713  -2.3148  -2.2417  -2.2080  -2.1901  -2.1113
    -2.0330  -1.9819  -1.9582  -1.9378  -1.8601  -1.7432  -1.7177  -1.7084
    -1.6751  -1.6269  -1.5758  -1.5419  -1.4917  -1.4011  -1.2692  -1.2489
    -1.1807  -1.0846  -1.0634  -1.0432  -0.8222  -0.7318  -0.4182  -0.1593
    -0.1145  -0.0954   0.0637   0.0712   1.7051   1.7721   1.8348   1.8680
     1.8844   1.9157   1.9183   1.9874   2.0431   2.1120   2.1304

     the Fermi energy is     1.6441 ev

!    total energy              =   -3295.81884217 Ry
     estimated scf accuracy    <       0.00000005 Ry
     smearing contrib. (-TS)   =      -0.03294911 Ry
     internal energy E=F+TS    =   -3295.78589306 Ry

     The total energy is F=E-TS. E is the sum of the following terms:
     one-electron contribution =  -34382.32652107 Ry
     hartree contribution      =   17260.48016020 Ry
     xc contribution           =    -543.89385533 Ry
     ewald contribution        =   14369.94922720 Ry
     electric field correction =       0.00509594 Ry

     convergence has been achieved in  67 iterations

     Forces acting on atoms (cartesian axes, Ry/au):

     atom    1 type  1   force =     0.00000544    0.00790865    0.05044877
     atom    2 type  1   force =    -0.00000571    0.00035551   -0.00971620
     atom    3 type  1   force =    -0.00003336   -0.00469561   -0.00050754
     atom    4 type  1   force =     0.00005774    0.00282570    0.10762379
     atom    5 type  1   force =     0.00000414    0.00070010    0.00922659
     atom    6 type  1   force =    -0.00001294   -0.00161912    0.00013310
     atom    7 type  1   force =     0.06463758    0.00007708   -0.02899391
     atom    8 type  1   force =     0.00390348   -0.02786644    0.00323704
     atom    9 type  1   force =     0.00826704   -0.01831019    0.00242352
     atom   10 type  2   force =    -0.00005045   -0.00797796   -0.19371507
     atom   11 type  2   force =    -0.00002486    0.02061060   -0.00635489
     atom   12 type  2   force =    -0.00005024    0.02205991   -0.00304375
     atom   13 type  1   force =    -0.06473187   -0.00037667   -0.02894145
     atom   14 type  1   force =    -0.00390170   -0.02784756    0.00323226
     atom   15 type  1   force =    -0.00824921   -0.01829446    0.00241560
     atom   16 type  2   force =     0.00010092    0.00058988    0.06675104
     atom   17 type  2   force =     0.00002453    0.03325789    0.00614248
     atom   18 type  2   force =    -0.00001765    0.02086967    0.00184373
     atom   19 type  1   force =     0.00000438    0.00225793    0.05629847
     atom   20 type  1   force =    -0.00000242   -0.00132867   -0.00685196
     atom   21 type  1   force =     0.00005978   -0.00139244    0.10886761
     atom   22 type  1   force =     0.00000825   -0.00024364    0.00986187
     atom   23 type  1   force =     0.00000435   -0.00482081    0.00114454
     atom   24 type  1   force =     0.06619589   -0.00051099   -0.02949573
     atom   25 type  1   force =     0.00418450   -0.03009654    0.00218971
     atom   26 type  1   force =     0.00999208   -0.02419463    0.00222338
     atom   27 type  2   force =    -0.00006787    0.01375918   -0.18653847
     atom   28 type  2   force =    -0.00002047    0.02335027   -0.00582628
     atom   29 type  2   force =     0.00000462    0.01738475   -0.00913893
     atom   30 type  1   force =    -0.06630272   -0.00096258   -0.02945110
     atom   31 type  1   force =    -0.00417908   -0.03006687    0.00218930
     atom   32 type  1   force =    -0.00992534   -0.02410358    0.00232282
     atom   33 type  2   force =     0.00009499   -0.00141212    0.06832939
     atom   34 type  2   force =     0.00002325    0.03782897    0.00402168
     atom   35 type  2   force =    -0.00029816    0.03604506    0.00775023
     atom   36 type  1   force =     0.00001535    0.00057174    0.06525384
     atom   37 type  1   force =    -0.00000846    0.00224992   -0.01093060
     atom   38 type  1   force =    -0.00006173   -0.00088858    0.00175277
     atom   39 type  1   force =     0.00005863   -0.00143447    0.10680671
     atom   40 type  1   force =     0.00000044   -0.00039909    0.00776334
     atom   41 type  1   force =    -0.00000626   -0.00033393    0.00572552
     atom   42 type  1   force =     0.06731846   -0.00097010   -0.02906389
     atom   43 type  1   force =     0.00312162   -0.02830087    0.00236783
     atom   44 type  1   force =     0.00713642   -0.02141820    0.00444454
     atom   45 type  2   force =    -0.00006786   -0.00850037   -0.18087047
     atom   46 type  2   force =    -0.00000554    0.01747161   -0.00235401
     atom   47 type  2   force =     0.00004104    0.02042054   -0.00633044
     atom   48 type  1   force =    -0.06741390   -0.00141738   -0.02901920
     atom   49 type  1   force =    -0.00309135   -0.02829928    0.00236419
     atom   50 type  1   force =    -0.00708691   -0.02149162    0.00453745
     atom   51 type  2   force =     0.00012271   -0.00305208    0.06676262
     atom   52 type  2   force =     0.00000688    0.03510738    0.00727631
     atom   53 type  2   force =    -0.00010227    0.02406356    0.00302748
     atom   54 type  3   force =     0.00011164   -0.00017779    0.00056953
     atom   55 type  4   force =    -0.00001345   -0.00014854    0.00096003
     atom   56 type  3   force =    -0.00003640    0.00070497    0.00034282
     atom   57 type  3   force =    -0.00000216    0.00052718    0.00078505
     atom   58 type  4   force =    -0.00433795    0.00331531    0.00091340
     atom   59 type  3   force =     0.00056560   -0.00043821   -0.00001959
     atom   60 type  3   force =     0.00315463   -0.00132836   -0.00276147
     atom   61 type  3   force =     0.00088192    0.00040639   -0.00040544

     Total force =     0.461664     Total SCF correction =     0.000495
  @ DRIVER MODE: Message from server: STATUS
  @ DRIVER MODE: Message from server: GETFORCE
  @ DRIVER MODE: Returning v,forces,stress,ensemble

     Writing output data file ./calc.save/
  @ DRIVER MODE: Message from server: EXIT
  @ DRIVE MODE: Exiting

     General routines

     Parallel routines

   This run was terminated on:   9:28:33  19Oct2021

   JOB DONE.