     Program PWSCF v.6.7GPU starts on  9Sep2021 at  0:33:27

     R & G space division:  proc/nbgrp/npool/nimage =      10
     Reading input from /storage/home/hcoda1/3/ntian30/research/carbon/CxH_vib/CH2_calc/ads_slab/CH2NNHH_a/out_0008/pw.inp
Warning: card &CELL ignored
Warning: card   CELL_DYNAMICS='IPI', ignored
Warning: card / ignored

     Current dimensions of program PWSCF are:
     Max number of different atomic species (ntypx) = 10
     Max number of k-points (npk) =  40000
     Max angular momentum in pseudopotentials (lmaxx) =  3
     Presently no symmetry can be used with electric field

     Message from routine cell_base_init:
     DEPRECATED: use true lattice parameter, not A to a.u. conversion factor

     IMPORTANT: XC functional enforced from input :
     Exchange-correlation= BEEF-VDW
                           (   1   4  43  14   2   0   0)
     Any further DFT definition will be discarded
     Please, verify this is what you really want

  @ DRIVER MODE: Connecting to
 qe_1139763_2767391.sched-torque.pace.gatech.edux5eudy77_scratch
  using UNIX socket
  @ DRIVER MODE: Message from server: STATUS
  @ DRIVER MODE: Message from server: INIT
  @ DRIVER MODE: Receiving replica           0          -1
  @ DRIVER MODE: Receiving encoded integer          25
  @ DRIVER MODE:  SCF:  T  FORCE:  T  STRESS:  F  VC:  F  ENSEMBLE:  F
  @ DRIVER MODE:  SCF:  T  FORCE:  T  STRESS:  F  VC:  F  ENSEMBLE:  F

     Using Slab Decomposition

     bravais-lattice index     =            0
     lattice parameter (alat)  =       1.8897  a.u.
     unit-cell volume          =    6658.9804 (a.u.)^3
     number of atoms/cell      =           54
     number of atomic types    =            5
     number of electrons       =       396.00
     number of Kohn-Sham states=          208
     kinetic-energy cutoff     =      29.3995  Ry
     charge density cutoff     =     293.9946  Ry
     scf convergence threshold =      7.3E-08
     mixing beta               =       0.0500
     number of iterations used =            8  plain     mixing
     Exchange-correlation= BEEF-VDW
                           (   1   4  43  14   2   0   0)

     celldm(1)=   1.889726  celldm(2)=   0.000000  celldm(3)=   0.000000
     celldm(4)=   0.000000  celldm(5)=   0.000000  celldm(6)=   0.000000

     crystal axes: (cart. coord. in units of alat)
               a(1) = (   6.579727   0.000000   0.000000 )
               a(2) = (  -0.000775   5.961596   0.000000 )
               a(3) = (   0.000000   0.000000  25.155947 )

     reciprocal axes: (cart. coord. in units 2 pi/alat)
               b(1) = (  0.151982  0.000020  0.000000 )
               b(2) = (  0.000000  0.167740  0.000000 )
               b(3) = (  0.000000  0.000000  0.039752 )

     PseudoPot. # 1 for Ti read from file:
     /storage/coda1/p-amedford6/0/shared/rich_project_chbe-medford/medford-share/data/pseudos_module/espresso/nninc/pbe/van/Ti.UPF
     MD5 check sum: 8e4df49b7f0d34bbd5052bf3f5ea0213
     Pseudo is Ultrasoft, Zval = 12.0
     Generated by new atomic code, or converted to UPF format
     Using radial grid of  851 points,  6 beta functions with:
                l(1) =   0
                l(2) =   0
                l(3) =   1
                l(4) =   1
                l(5) =   2
                l(6) =   2
     Q(r) pseudized with  8 coefficients,  rinner =    1.000   1.000   1.000
                                                       1.000   1.000

     PseudoPot. # 2 for O  read from file:
     /storage/coda1/p-amedford6/0/shared/rich_project_chbe-medford/medford-share/data/pseudos_module/espresso/nninc/pbe/van/O.UPF
     MD5 check sum: 78c19812648e8988a0fe644b0f25305e
     Pseudo is Ultrasoft, Zval =  6.0
     Generated by new atomic code, or converted to UPF format
     Using radial grid of  737 points,  4 beta functions with:
                l(1) =   0
                l(2) =   0
                l(3) =   1
                l(4) =   1
     Q(r) pseudized with  8 coefficients,  rinner =    0.800   0.800   0.800

     PseudoPot. # 3 for N  read from file:
     /storage/coda1/p-amedford6/0/shared/rich_project_chbe-medford/medford-share/data/pseudos_module/espresso/nninc/pbe/van/N.UPF
     MD5 check sum: 90d10febe142ad51ac9d5be1deb811c4
     Pseudo is Ultrasoft, Zval =  5.0
     Generated by new atomic code, or converted to UPF format
     Using radial grid of  729 points,  4 beta functions with:
                l(1) =   0
                l(2) =   0
                l(3) =   1
                l(4) =   1
     Q(r) pseudized with  8 coefficients,  rinner =    0.800   0.800   0.800

     PseudoPot. # 4 for C  read from file:
     /storage/coda1/p-amedford6/0/shared/rich_project_chbe-medford/medford-share/data/pseudos_module/espresso/nninc/pbe/van/C.UPF
     MD5 check sum: 1a69bf6b8db32088f5b2163dbdb77a27
     Pseudo is Ultrasoft, Zval =  4.0
     Generated by new atomic code, or converted to UPF format
     Using radial grid of  721 points,  4 beta functions with:
                l(1) =   0
                l(2) =   0
                l(3) =   1
                l(4) =   1
     Q(r) pseudized with  8 coefficients,  rinner =    0.800   0.800   0.800

     PseudoPot. # 5 for H  read from file:
     /storage/coda1/p-amedford6/0/shared/rich_project_chbe-medford/medford-share/data/pseudos_module/espresso/nninc/pbe/van/H.UPF
     MD5 check sum: b5ee9d7bfd3a09ee7748110bda690ff7
     Pseudo is Ultrasoft, Zval =  1.0
     Generated by new atomic code, or converted to UPF format
     Using radial grid of  615 points,  1 beta functions with:
                l(1) =   0
     Q(r) pseudized with  8 coefficients,  rinner =    0.800

     atomic species   valence    mass     pseudopotential
        Ti1           12.00    47.86700     Ti( 1.00)
        O1             6.00    15.99900     O ( 1.00)
        N1             5.00    14.00700     N ( 1.00)
        C1             4.00    12.01100     C ( 1.00)
        H1             1.00     1.00800     H ( 1.00)

     No symmetry found

   Cartesian axes

     site n.     atom                  positions (alat units)
         1           Ti1 tau(   1) = (   0.0004258   2.9801865   6.0000000  )
         2           Ti1 tau(   2) = (   3.2906075   1.4906267   6.0002472  )
         3           O1  tau(   3) = (   0.0006271   0.0005054   7.9858123  )
         4           O1  tau(   4) = (   3.2906025   0.0005020   7.3038282  )
         5           O1  tau(   5) = (   4.5942328   1.4918067   9.2879030  )
         6           O1  tau(   6) = (   1.9868534   1.4903216   9.2879459  )
         7           Ti1 tau(   7) = (   3.2907910   2.8959150   9.1758416  )
         8           Ti1 tau(   8) = (   0.0015273   1.4827037   9.2680791  )
         9           O1  tau(   9) = (   3.2741875   5.9357071  11.3735532  )
        10           O1  tau(  10) = (   0.0116148   5.9584955  10.6183126  )
        11           O1  tau(  11) = (   1.2759687   1.4857368  12.6615302  )
        12           O1  tau(  12) = (   5.2764777   1.4850508  12.6403612  )
        13           Ti1 tau(  13) = (   6.5724762   2.9646551  12.5117882  )
        14           Ti1 tau(  14) = (   3.2886223   1.4652571  12.5194246  )
        15           O1  tau(  15) = (   6.5416971   0.0664024  14.6986244  )
        16           O1  tau(  16) = (   3.2828258   5.9593040  13.9967703  )
        17           O1  tau(  17) = (   4.5136565   1.4796660  16.2299008  )
        18           O1  tau(  18) = (   2.0038615   1.4742267  16.2123189  )
        19           Ti1 tau(  19) = (   3.2480181   2.9445974  15.7466143  )
        20           Ti1 tau(  20) = (   6.5118905   1.3801257  16.1190456  )
        21           O1  tau(  21) = (   3.2904802   0.0005063   4.7018136  )
        22           O1  tau(  22) = (   6.5538845   5.8109167  17.2256470  )
        23           O1  tau(  23) = (   1.3043587   1.4918075   6.0039043  )
        24           O1  tau(  24) = (   5.2767064   1.4903225   6.0039473  )
        25           Ti1 tau(  25) = (   0.0000382   5.9609847   6.0000000  )
        26           Ti1 tau(  26) = (   3.2902200   4.4714249   6.0002472  )
        27           O1  tau(  27) = (   0.0002396   2.9813036   7.9858123  )
        28           O1  tau(  28) = (   3.2902150   2.9813002   7.3038282  )
        29           O1  tau(  29) = (   4.5938453   4.4726049   9.2879030  )
        30           O1  tau(  30) = (   1.9864658   4.4711199   9.2879459  )
        31           Ti1 tau(  31) = (   3.2891106   5.8743827   9.1763621  )
        32           Ti1 tau(  32) = (   0.0006254   4.4649316   9.2693709  )
        33           O1  tau(  33) = (   3.2754078   2.9701464  11.3677572  )
        34           O1  tau(  34) = (   0.0092240   2.9805883  10.6323155  )
        35           O1  tau(  35) = (   1.2711598   4.4556272  12.7031535  )
        36           O1  tau(  36) = (   5.2783420   4.4558858  12.6781970  )
        37           Ti1 tau(  37) = (   0.0002938   5.9583472  12.5066983  )
        38           Ti1 tau(  38) = (   3.2916940   4.4447674  12.5292973  )
        39           O1  tau(  39) = (   6.5347695   2.9176514  14.9891124  )
        40           O1  tau(  40) = (   3.2818703   2.9467213  13.9608579  )
        41           O1  tau(  41) = (   4.5039121   4.4250859  16.1805084  )
        42           O1  tau(  42) = (   2.0002864   4.4376668  16.1101511  )
        43           Ti1 tau(  43) = (   3.2613398   5.9375382  15.7939200  )
        44           Ti1 tau(  44) = (   0.0097882   4.6113729  15.8292928  )
        45           O1  tau(  45) = (   3.2900926   2.9813045   4.7018136  )
        46           O1  tau(  46) = (   1.3039711   4.4726057   6.0039043  )
        47           O1  tau(  47) = (   5.2763189   4.4711207   6.0039473  )
        48           N1  tau(  48) = (   6.5527080   2.6566917  18.2311642  )
        49           C1  tau(  49) = (   1.0050107   2.5313988  18.9921798  )
        50           H1  tau(  50) = (   0.9966315   2.9146593  20.0110098  )
        51           H1  tau(  51) = (   1.8622571   2.0164067  18.6108951  )
        52           N1  tau(  52) = (   5.4094651   3.2293427  18.7544413  )
        53           H1  tau(  53) = (   5.6216840   3.8708726  19.5154782  )
        54           H1  tau(  54) = (   4.9168071   3.7283298  18.0160565  )

     number of k points=    10  Fermi-Dirac smearing, width (Ry)=  0.0073
                       cart. coord. in units 2pi/alat
        k(    1) = (   0.0000000   0.0000000   0.0000000), wk =   0.1250000
        k(    2) = (   0.0000000   0.0419351   0.0000000), wk =   0.2500000
        k(    3) = (   0.0000000  -0.0838702   0.0000000), wk =   0.1250000
        k(    4) = (   0.0379955   0.0000049   0.0000000), wk =   0.2500000
        k(    5) = (   0.0379955   0.0419400   0.0000000), wk =   0.2500000
        k(    6) = (   0.0379955  -0.0838652   0.0000000), wk =   0.2500000
        k(    7) = (   0.0379955  -0.0419301   0.0000000), wk =   0.2500000
        k(    8) = (  -0.0759910  -0.0000099   0.0000000), wk =   0.1250000
        k(    9) = (  -0.0759910   0.0419252   0.0000000), wk =   0.2500000
        k(   10) = (  -0.0759910  -0.0838800   0.0000000), wk =   0.1250000

     Initial potential from superposition of free atoms

     starting charge  379.99915, renormalised to  396.00000

     negative rho (up, down):  1.580E-02 0.000E+00

     %%%%%%%%%%%%%%%%%%%%%%%%%%%%%%%%%%%%%%%%%%%%%%%%%%%%%%%%%%%%%%%%%%%%%%%%
     %                                                                      %
     % You are using vdW-DF, which was implemented by the Thonhauser group. %
     % Please cite the following two papers that made this development      %
     % possible and the two reviews that describe the various versions:     %
     %                                                                      %
     %   T. Thonhauser et al., PRL 115, 136402 (2015).                      %
     %   T. Thonhauser et al., PRB 76, 125112 (2007).                       %
     %   K. Berland et al., Rep. Prog. Phys. 78, 066501 (2015).             %
     %   D.C. Langreth et al., J. Phys.: Condens. Matter 21, 084203 (2009). %
     %                                                                      %
     %                                                                      %
     % If you are calculating the stress with vdW-DF, please also cite:     %
     %                                                                      %
     %   R. Sabatini et al., J. Phys.: Condens. Matter 24, 424209 (2012).   %
     %                                                                      %
     %%%%%%%%%%%%%%%%%%%%%%%%%%%%%%%%%%%%%%%%%%%%%%%%%%%%%%%%%%%%%%%%%%%%%%%%

     Adding external electric field

     Computed dipole along edir(3) :
        Dipole               -9.9798 Ry au,        -25.3661 Debye
        Dipole field         -0.0188 Ry au,

        Potential amp.        1.7458 Ry
        Total length         46.3494 bohr

     Starting wfcs are  300 atomic wfcs
  @ DRIVER MODE: Message from server: STATUS
  @ DRIVER MODE: Message from server: POSDATA
  @ DRIVER MODE: Reading and sharing cell
  @ DRIVER MODE: Reading and sharing positions
  @ DRIVER MODE: Received positions

     Self-consistent Calculation

     iteration #  1     ecut=    29.40 Ry     beta= 0.05
     Davidson diagonalization with overlap
     c_bands:  1 eigenvalues not converged
     c_bands:  2 eigenvalues not converged
     c_bands:  2 eigenvalues not converged
     c_bands:  1 eigenvalues not converged
     c_bands:  3 eigenvalues not converged
     c_bands:  2 eigenvalues not converged
     c_bands:  3 eigenvalues not converged
     c_bands:  2 eigenvalues not converged
     c_bands:  1 eigenvalues not converged
     c_bands:  1 eigenvalues not converged
     ethr =  1.00E-05,  avg # of iterations = 20.0

[...]

     total energy              =   -2515.78867022 Ry
     estimated scf accuracy    <    4741.26412451 Ry

     iteration #  2     ecut=    29.40 Ry     beta= 0.05
     Davidson diagonalization with overlap
     ethr =  1.00E-02,  avg # of iterations = 23.5

[...]

     iteration # 68     ecut=    29.40 Ry     beta= 0.05
     Davidson diagonalization with overlap
     ethr =  2.93E-11,  avg # of iterations = 10.3

[...]

     total energy              =   -2940.36645741 Ry
     estimated scf accuracy    <       0.00000009 Ry

     iteration # 69     ecut=    29.40 Ry     beta= 0.05
     Davidson diagonalization with overlap
     c_bands:  1 eigenvalues not converged
     ethr =  2.16E-11,  avg # of iterations =  9.3

     negative rho (up, down):  1.642E-02 0.000E+00

     Adding external electric field

     Computed dipole along edir(3) :
        Dipole                1.2634 Ry au,          3.2113 Debye
        Dipole field          0.0024 Ry au,

        Potential amp.       -0.2210 Ry
        Total length         46.3494 bohr

     End of self-consistent calculation

          k = 0.0000 0.0000 0.0000 ( 18029 PWs)   bands (ev):

   -55.4191 -55.3824 -55.3710 -55.3369 -55.2981 -55.2942 -55.2873 -55.2636
   -55.2369 -55.2207 -55.2025 -55.2022 -55.1687 -55.0502 -54.3987 -54.3647
   -31.9882 -31.8634 -31.8186 -31.7863 -31.7324 -31.7265 -31.7217 -31.7078
   -31.6601 -31.6525 -31.6293 -31.6281 -31.6159 -31.5892 -31.5742 -31.5687
   -31.5561 -31.5558 -31.5345 -31.5274 -31.5234 -31.5131 -31.4848 -31.4755
   -31.4676 -31.4643 -31.4393 -31.4290 -31.4281 -31.4203 -31.4197 -31.4009
   -31.4000 -31.3948 -31.3874 -31.3849 -31.3509 -31.3377 -31.3305 -31.3135
   -31.2720 -31.2144 -30.8081 -30.7141 -30.6920 -30.6245 -30.5377 -30.4268
   -18.5549 -16.2506 -15.9818 -15.8391 -15.7147 -15.6163 -15.4916 -15.4690
   -15.3420 -15.2571 -15.1437 -15.0988 -15.0872 -15.0845 -15.0514 -15.0236
   -14.9606 -14.9560 -14.9381 -14.9120 -14.9012 -14.8582 -14.8550 -14.8137
   -14.7931 -14.7900 -14.6645 -14.5758 -14.5055 -14.1801 -13.6377 -12.9015
   -12.7841  -8.7688  -6.4884  -6.0257  -4.0293  -3.5915  -3.4356  -3.3749
    -3.3374  -3.3110  -3.1837  -3.1608  -3.0242  -2.8268  -2.7781  -2.6887
    -2.6263  -2.6179  -2.5989  -2.4180  -2.4099  -2.3534  -2.3034  -2.2616
    -2.2398  -2.2255  -2.2064  -2.1808  -2.1702  -2.1603  -1.9865  -1.9699
    -1.9003  -1.8262  -1.8166  -1.7663  -1.7454  -1.7145  -1.7069  -1.6989
    -1.6534  -1.6335  -1.6039  -1.5550  -1.4302  -1.3388  -1.3085  -1.2255
    -1.0978  -1.0545  -1.0022  -0.9989  -0.9061  -0.9010  -0.8813  -0.7965
    -0.7631  -0.7123  -0.6411  -0.5726  -0.5157  -0.4575  -0.4096  -0.3996
    -0.3442  -0.2272  -0.2023  -0.1835  -0.1611  -0.0408  -0.0221   0.0183
     0.0925   0.1226   0.1235   0.2403   0.2675   0.3241   0.3291   0.4055
     0.4661   0.5107   0.5197   0.5389   0.5675   0.5708   0.6460   0.6584
     0.6885   0.7590   0.8332   0.9172   1.1480   1.1830   1.1957   1.5288
     1.5306   1.6239   1.8076   2.1997   2.2478   3.6801   3.7502   3.8247
     3.8310   3.8496   3.9176   4.1543   4.1728   4.1804   4.1859   4.2291

[...]

          k = 0.0380-0.0419 0.0000 ( 17876 PWs)   bands (ev):

[...]

          k =-0.0760-0.0000 0.0000 ( 17886 PWs)   bands (ev):

[...]

          k =-0.0760-0.0839 0.0000 ( 17948 PWs)   bands (ev):

   -55.4043 -55.3968 -55.3539 -55.3538 -55.2891 -55.2868 -55.2826 -55.2791
   -55.2248 -55.2212 -55.2175 -55.1860 -55.1852 -55.0515 -54.3817 -54.3816
   -31.7945 -31.7890 -31.7458 -31.6950 -31.6814 -31.6786 -31.6784 -31.6456
   -31.6452 -31.6291 -31.6200 -31.6154 -31.6108 -31.5639 -31.5566 -31.5545
   -31.5520 -31.5502 -31.5449 -31.5396 -31.5241 -31.5103 -31.4948 -31.4943
   -31.4904 -31.4761 -31.4740 -31.4735 -31.4735 -31.4713 -31.4545 -31.4504
   -31.4427 -31.4343 -31.4310 -31.4162 -31.4149 -31.4115 -31.3663 -31.3662
   -31.2927 -31.2756 -30.7047 -30.7046 -30.6206 -30.6205 -30.5811 -30.5810
   -18.5524 -15.7118 -15.6799 -15.6225 -15.4422 -15.4145 -15.4077 -15.3887
   -15.2578 -15.2415 -15.2108 -15.1815 -15.1503 -15.1254 -15.1212 -15.1029
   -15.0333 -15.0224 -15.0143 -14.9967 -14.9315 -14.9276 -14.9187 -14.9139
   -14.8671 -14.8643 -14.7691 -14.7676 -14.6656 -14.5488 -13.6436 -12.8856
   -12.8855  -8.7500  -6.4618  -6.0406  -4.0410  -3.2346  -2.9460  -2.8794
    -2.8502  -2.6540  -2.6303  -2.5877  -2.5319  -2.4519  -2.4261  -2.4191
    -2.4105  -2.3389  -2.3280  -2.2782  -2.2692  -2.2504  -2.2350  -2.2244
    -2.1948  -2.1684  -2.1451  -2.1361  -2.1248  -2.0706  -2.0606  -2.0425
    -2.0120  -1.9929  -1.9831  -1.9666  -1.8669  -1.7831  -1.7528  -1.7261
    -1.6226  -1.6183  -1.5378  -1.5219  -1.4909  -1.4499  -1.4369  -1.4158
    -1.2337  -1.2040  -1.1730  -1.1608  -1.1523  -1.0121  -0.9992  -0.9425
    -0.9017  -0.8959  -0.7875  -0.7618  -0.7382  -0.6609  -0.6261  -0.5916
    -0.5402  -0.4348  -0.4181  -0.4080  -0.3741  -0.3701  -0.3138  -0.3019
    -0.2267  -0.1847  -0.1518  -0.1379  -0.0948   0.0943   0.1167   0.1317
     0.2748   0.3317   0.4240   0.5244   0.5342   0.5902   0.6290   0.6948
     0.7561   0.8230   0.8719   0.8911   0.8917   0.9704   0.9881   1.0414
     1.0433   1.9808   1.9814   2.0677   2.0681   3.8230   3.9311   3.9426
     3.9831   4.0612   4.1240   4.1964   4.2250   4.2639   4.2661   4.3318

     the Fermi energy is     3.7420 ev

!    total energy              =   -2940.36647642 Ry
     estimated scf accuracy    <       0.00000003 Ry
     smearing contrib. (-TS)   =      -0.03729521 Ry
     internal energy E=F+TS    =   -2940.32918121 Ry

     The total energy is F=E-TS. E is the sum of the following terms:
     one-electron contribution =  -23758.79770479 Ry
     hartree contribution      =   11970.72945692 Ry
     xc contribution           =    -486.11060375 Ry
     ewald contribution        =    9333.84665815 Ry
     electric field correction =       0.00301225 Ry

     convergence has been achieved in  69 iterations

     Forces acting on atoms (cartesian axes, Ry/au):

     atom    1 type  1   force =     0.00006369   -0.00013373    0.09326747
     atom    2 type  1   force =    -0.00005809   -0.00026102   -0.17806137
     atom    3 type  2   force =     0.00002059   -0.00015810   -0.02025262
     atom    4 type  2   force =     0.00000861   -0.00195837    0.05851068
     atom    5 type  2   force =    -0.01066042   -0.00127148    0.00870619
     atom    6 type  2   force =     0.01175451   -0.00061685    0.00682655
     atom    7 type  1   force =    -0.00091792    0.00298363   -0.01442157
     atom    8 type  1   force =     0.00064015   -0.00048045   -0.00371115
     atom    9 type  2   force =     0.00014359    0.00010568    0.00008523
     atom   10 type  2   force =    -0.00209674   -0.00121741    0.00062249
     atom   11 type  2   force =     0.00008221    0.00021700   -0.00013144
     atom   12 type  2   force =     0.00056725    0.00028750   -0.00008019
     atom   13 type  1   force =    -0.00013482    0.00029193    0.00013860
     atom   14 type  1   force =     0.00013820    0.00046576   -0.00038757
     atom   15 type  2   force =     0.00001828    0.00041113   -0.00015207
     atom   16 type  2   force =     0.00042114    0.00017136   -0.00032537
     atom   17 type  2   force =     0.00018252   -0.00035682   -0.00040146
     atom   18 type  2   force =     0.00026334   -0.00055675    0.00008765
     atom   19 type  1   force =    -0.00097015   -0.00006255    0.00022880
     atom   20 type  1   force =     0.00020853    0.00017730    0.00023101
     atom   21 type  2   force =     0.00009626    0.00000172    0.10391803
     atom   22 type  2   force =    -0.00022279    0.00001699    0.00012269
     atom   23 type  2   force =    -0.07041075   -0.00011613   -0.02688897
     atom   24 type  2   force =     0.07034225    0.00034060   -0.02692810
     atom   25 type  1   force =     0.00008736   -0.00022604    0.09283493
     atom   26 type  1   force =    -0.00004715   -0.00034729   -0.17804751
     atom   27 type  2   force =     0.00011106   -0.00036756   -0.01932038
     atom   28 type  2   force =     0.00004039   -0.00165305    0.05793074
     atom   29 type  2   force =    -0.01064628   -0.00128143    0.00803112
     atom   30 type  2   force =     0.01164988   -0.00088720    0.00609057
     atom   31 type  1   force =    -0.00089953    0.00489743   -0.01540697
     atom   32 type  1   force =     0.00083414    0.00018369   -0.00391692
     atom   33 type  2   force =     0.00010261    0.00046144    0.00020789
     atom   34 type  2   force =    -0.00177379    0.00109307    0.00067978
     atom   35 type  2   force =     0.00031650    0.00006457    0.00006772
     atom   36 type  2   force =     0.00025780   -0.00024939    0.00017911
     atom   37 type  1   force =    -0.00035629    0.00001980   -0.00005528
     atom   38 type  1   force =    -0.00024332    0.00050398   -0.00015549
     atom   39 type  2   force =     0.00047866   -0.00070774   -0.00015306
     atom   40 type  2   force =    -0.00015548    0.00006730   -0.00000977
     atom   41 type  2   force =     0.00007229   -0.00012996   -0.00010787
     atom   42 type  2   force =     0.00028187    0.00013974   -0.00011745
     atom   43 type  1   force =    -0.00028438   -0.00013115    0.00011840
     atom   44 type  1   force =     0.00018096    0.00001968   -0.00004034
     atom   45 type  2   force =     0.00010803   -0.00003219    0.10389315
     atom   46 type  2   force =    -0.07042492   -0.00006250   -0.02689047
     atom   47 type  2   force =     0.07037466    0.00036296   -0.02689879
     atom   48 type  3   force =     0.01224659   -0.00184658    0.00601265
     atom   49 type  4   force =    -0.02563511    0.00744380   -0.00400850
     atom   50 type  5   force =     0.00270363   -0.00058345    0.00022167
     atom   51 type  5   force =     0.00828797   -0.00471904   -0.00379971
     atom   52 type  3   force =     0.00356740    0.00008882    0.00090978
     atom   53 type  5   force =    -0.00041839   -0.00029175    0.00125104
     atom   54 type  5   force =    -0.00029660   -0.00011091   -0.00050355

     Total force =     0.367291     Total SCF correction =     0.000388
  @ DRIVER MODE: Message from server: STATUS
  @ DRIVER MODE: Message from server: GETFORCE
  @ DRIVER MODE: Returning v,forces,stress,ensemble

     Writing output data file ./calc.save/
  @ DRIVER MODE: Message from server: EXIT
  @ DRIVE MODE: Exiting

     General routines

     Parallel routines

   This run was terminated on:   0:51:45   9Sep2021

   JOB DONE.