     Program PWSCF v.6.7GPU starts on  4Aug2021 at 10:17: 5

     R & G space division:  proc/nbgrp/npool/nimage =      16
     Reading input from /storage/home/hcoda1/3/ntian30/research/carbon/02Aug_vib_paired/ads_slab/CH3NN_b/out_0016/pw.inp
Warning: card &CELL ignored
Warning: card   CELL_DYNAMICS='IPI', ignored
Warning: card / ignored

     Current dimensions of program PWSCF are:
     Max number of different atomic species (ntypx) = 10
     Max number of k-points (npk) =  40000
     Max angular momentum in pseudopotentials (lmaxx) =  3
     Presently no symmetry can be used with electric field

     Message from routine cell_base_init:
     DEPRECATED: use true lattice parameter, not A to a.u. conversion factor

     IMPORTANT: XC functional enforced from input :
     Exchange-correlation= BEEF-VDW
                           (   1   4  43  14   2   0   0)
     Any further DFT definition will be discarded
     Please, verify this is what you really want

  @ DRIVER MODE: Connecting to
 qe_1139763_2492023.sched-torque.pace.gatech.edud19yujue_scratch
  using UNIX socket
  @ DRIVER MODE: Message from server: STATUS
  @ DRIVER MODE: Message from server: INIT
  @ DRIVER MODE: Receiving replica           0          -1
  @ DRIVER MODE: Receiving encoded integer          25
  @ DRIVER MODE:  SCF:  T  FORCE:  T  STRESS:  F  VC:  F  ENSEMBLE:  F
  @ DRIVER MODE:  SCF:  T  FORCE:  T  STRESS:  F  VC:  F  ENSEMBLE:  F

     Using Slab Decomposition

     bravais-lattice index     =            0
     lattice parameter (alat)  =       1.8897  a.u.
     unit-cell volume          =    6658.9804 (a.u.)^3
     number of atoms/cell      =           53
     number of atomic types    =            5
     number of electrons       =       395.00
     number of Kohn-Sham states=          207
     kinetic-energy cutoff     =      29.3995  Ry
     charge density cutoff     =     293.9946  Ry
     scf convergence threshold =      7.3E-08
     mixing beta               =       0.0500
     number of iterations used =            8  plain     mixing
     Exchange-correlation= BEEF-VDW
                           (   1   4  43  14   2   0   0)

     celldm(1)=   1.889726  celldm(2)=   0.000000  celldm(3)=   0.000000
     celldm(4)=   0.000000  celldm(5)=   0.000000  celldm(6)=   0.000000

     crystal axes: (cart. coord. in units of alat)
               a(1) = (   6.579727   0.000000   0.000000 )
               a(2) = (  -0.000775   5.961596   0.000000 )
               a(3) = (   0.000000   0.000000  25.155947 )

     reciprocal axes: (cart. coord. in units 2 pi/alat)
               b(1) = (  0.151982  0.000020  0.000000 )
               b(2) = (  0.000000  0.167740  0.000000 )
               b(3) = (  0.000000  0.000000  0.039752 )

     PseudoPot. # 1 for Ti read from file:
     /storage/coda1/p-amedford6/0/shared/rich_project_chbe-medford/medford-share/data/pseudos_module/espresso/nninc/pbe/van/Ti.UPF
     MD5 check sum: 8e4df49b7f0d34bbd5052bf3f5ea0213
     Pseudo is Ultrasoft, Zval = 12.0
     Generated by new atomic code, or converted to UPF format
     Using radial grid of  851 points,  6 beta functions with:
                l(1) =   0
                l(2) =   0
                l(3) =   1
                l(4) =   1
                l(5) =   2
                l(6) =   2
     Q(r) pseudized with  8 coefficients,  rinner =    1.000   1.000   1.000
                                                       1.000   1.000

     PseudoPot. # 2 for O  read from file:
     /storage/coda1/p-amedford6/0/shared/rich_project_chbe-medford/medford-share/data/pseudos_module/espresso/nninc/pbe/van/O.UPF
     MD5 check sum: 78c19812648e8988a0fe644b0f25305e
     Pseudo is Ultrasoft, Zval =  6.0
     Generated by new atomic code, or converted to UPF format
     Using radial grid of  737 points,  4 beta functions with:
                l(1) =   0
                l(2) =   0
                l(3) =   1
                l(4) =   1
     Q(r) pseudized with  8 coefficients,  rinner =    0.800   0.800   0.800

     PseudoPot. # 3 for N  read from file:
     /storage/coda1/p-amedford6/0/shared/rich_project_chbe-medford/medford-share/data/pseudos_module/espresso/nninc/pbe/van/N.UPF
     MD5 check sum: 90d10febe142ad51ac9d5be1deb811c4
     Pseudo is Ultrasoft, Zval =  5.0
     Generated by new atomic code, or converted to UPF format
     Using radial grid of  729 points,  4 beta functions with:
                l(1) =   0
                l(2) =   0
                l(3) =   1
                l(4) =   1
     Q(r) pseudized with  8 coefficients,  rinner =    0.800   0.800   0.800

     PseudoPot. # 4 for C  read from file:
     /storage/coda1/p-amedford6/0/shared/rich_project_chbe-medford/medford-share/data/pseudos_module/espresso/nninc/pbe/van/C.UPF
     MD5 check sum: 1a69bf6b8db32088f5b2163dbdb77a27
     Pseudo is Ultrasoft, Zval =  4.0
     Generated by new atomic code, or converted to UPF format
     Using radial grid of  721 points,  4 beta functions with:
                l(1) =   0
                l(2) =   0
                l(3) =   1
                l(4) =   1
     Q(r) pseudized with  8 coefficients,  rinner =    0.800   0.800   0.800

     PseudoPot. # 5 for H  read from file:
     /storage/coda1/p-amedford6/0/shared/rich_project_chbe-medford/medford-share/data/pseudos_module/espresso/nninc/pbe/van/H.UPF
     MD5 check sum: b5ee9d7bfd3a09ee7748110bda690ff7
     Pseudo is Ultrasoft, Zval =  1.0
     Generated by new atomic code, or converted to UPF format
     Using radial grid of  615 points,  1 beta functions with:
                l(1) =   0
     Q(r) pseudized with  8 coefficients,  rinner =    0.800

     atomic species   valence    mass     pseudopotential
        Ti1           12.00    47.86700     Ti( 1.00)
        O1             6.00    15.99900     O ( 1.00)
        N1             5.00    14.00700     N ( 1.00)
        C1             4.00    12.01100     C ( 1.00)
        H1             1.00     1.00800     H ( 1.00)

     No symmetry found

   Cartesian axes

     site n.     atom                  positions (alat units)
         1           Ti1 tau(   1) = (   0.0004258   2.9801865   6.0000000  )
         2           Ti1 tau(   2) = (   3.2906075   1.4906267   6.0002472  )
         3           O1  tau(   3) = (   0.0006271   0.0005054   7.9858123  )
         4           O1  tau(   4) = (   3.2906025   0.0005020   7.3038282  )
         5           O1  tau(   5) = (   4.5942328   1.4918067   9.2879030  )
         6           O1  tau(   6) = (   1.9868534   1.4903216   9.2879459  )
         7           Ti1 tau(   7) = (   3.2907910   2.8959150   9.1758416  )
         8           Ti1 tau(   8) = (   0.0015273   1.4827037   9.2680791  )
         9           O1  tau(   9) = (   3.2846693   5.9452209  11.3340492  )
        10           O1  tau(  10) = (   0.0116148   5.9584955  10.6183126  )
        11           O1  tau(  11) = (   1.2834543   1.4847615  12.6293855  )
        12           O1  tau(  12) = (   5.2674731   1.4768263  12.6150299  )
        13           Ti1 tau(  13) = (   0.0515077   3.0114797  12.6524288  )
        14           Ti1 tau(  14) = (   3.3730355   1.4714245  12.4820590  )
        15           O1  tau(  15) = (   6.5599962   0.0037305  14.6029173  )
        16           O1  tau(  16) = (   3.2800597   5.9387738  13.9271036  )
        17           O1  tau(  17) = (   4.5186125   1.4654914  16.0451899  )
        18           O1  tau(  18) = (   2.0258539   1.4687252  16.0523685  )
        19           Ti1 tau(  19) = (   3.2649076   2.9492218  15.6988400  )
        20           Ti1 tau(  20) = (   6.5508048   1.3556675  15.8025096  )
        21           O1  tau(  21) = (   3.2904802   0.0005063   4.7018136  )
        22           O1  tau(  22) = (   6.5741700   5.9536011  17.1303138  )
        23           O1  tau(  23) = (   1.3043587   1.4918075   6.0039043  )
        24           O1  tau(  24) = (   5.2767064   1.4903225   6.0039473  )
        25           Ti1 tau(  25) = (   0.0000382   5.9609847   6.0000000  )
        26           Ti1 tau(  26) = (   3.2902200   4.4714249   6.0002472  )
        27           O1  tau(  27) = (   0.0002396   2.9813036   7.9858123  )
        28           O1  tau(  28) = (   3.2902150   2.9813002   7.3038282  )
        29           O1  tau(  29) = (   4.5938453   4.4726049   9.2879030  )
        30           O1  tau(  30) = (   1.9864658   4.4711199   9.2879459  )
        31           Ti1 tau(  31) = (   3.2891106   5.8743827   9.1763621  )
        32           Ti1 tau(  32) = (   0.0006254   4.4649316   9.2693709  )
        33           O1  tau(  33) = (   3.2861826   2.9668924  11.3320306  )
        34           O1  tau(  34) = (   0.0092240   2.9805883  10.6323155  )
        35           O1  tau(  35) = (   1.2809698   4.4658153  12.6346578  )
        36           O1  tau(  36) = (   5.2715881   4.4563464  12.6201172  )
        37           Ti1 tau(  37) = (   0.0635592   0.0233401  12.5351680  )
        38           Ti1 tau(  38) = (   3.3726470   4.4512063  12.4842852  )
        39           O1  tau(  39) = (   6.5700678   2.9603531  14.7052597  )
        40           O1  tau(  40) = (   3.2800127   2.9650284  13.9044324  )
        41           O1  tau(  41) = (   4.5221929   4.4260918  16.0817388  )
        42           O1  tau(  42) = (   2.0277389   4.4301665  16.0727494  )
        43           Ti1 tau(  43) = (   3.2617617   5.9330256  15.7261539  )
        44           Ti1 tau(  44) = (   6.5423007   4.4542687  16.1498850  )
        45           O1  tau(  45) = (   3.2900926   2.9813045   4.7018136  )
        46           O1  tau(  46) = (   1.3039711   4.4726057   6.0039043  )
        47           O1  tau(  47) = (   5.2763189   4.4711207   6.0039473  )
        48           N1  tau(  48) = (   2.8794700   5.9070534  18.9683957  )
        49           C1  tau(  49) = (   6.5502552   3.0456858  17.8350167  )
        50           H1  tau(  50) = (   5.8927902   3.7356694  18.3776660  )
        51           H1  tau(  51) = (   6.1439290   2.0579341  18.0513002  )
        52           H1  tau(  52) = (   0.9704482   3.1013269  18.2919552  )
        53           N1  tau(  53) = (   2.0963344   5.7764004  19.7355773  )

     number of k points=    10  Fermi-Dirac smearing, width (Ry)=  0.0073
                       cart. coord. in units 2pi/alat
        k(    1) = (   0.0000000   0.0000000   0.0000000), wk =   0.1250000
        k(    2) = (   0.0000000   0.0419351   0.0000000), wk =   0.2500000
        k(    3) = (   0.0000000  -0.0838702   0.0000000), wk =   0.1250000
        k(    4) = (   0.0379955   0.0000049   0.0000000), wk =   0.2500000
        k(    5) = (   0.0379955   0.0419400   0.0000000), wk =   0.2500000
        k(    6) = (   0.0379955  -0.0838652   0.0000000), wk =   0.2500000
        k(    7) = (   0.0379955  -0.0419301   0.0000000), wk =   0.2500000
        k(    8) = (  -0.0759910  -0.0000099   0.0000000), wk =   0.1250000
        k(    9) = (  -0.0759910   0.0419252   0.0000000), wk =   0.2500000
        k(   10) = (  -0.0759910  -0.0838800   0.0000000), wk =   0.1250000

     Initial potential from superposition of free atoms

     starting charge  378.99916, renormalised to  395.00000

     negative rho (up, down):  1.681E-02 0.000E+00

     %%%%%%%%%%%%%%%%%%%%%%%%%%%%%%%%%%%%%%%%%%%%%%%%%%%%%%%%%%%%%%%%%%%%%%%%
     %                                                                      %
     % You are using vdW-DF, which was implemented by the Thonhauser group. %
     % Please cite the following two papers that made this development      %
     % possible and the two reviews that describe the various versions:     %
     %                                                                      %
     %   T. Thonhauser et al., PRL 115, 136402 (2015).                      %
     %   T. Thonhauser et al., PRB 76, 125112 (2007).                       %
     %   K. Berland et al., Rep. Prog. Phys. 78, 066501 (2015).             %
     %   D.C. Langreth et al., J. Phys.: Condens. Matter 21, 084203 (2009). %
     %                                                                      %
     %                                                                      %
     % If you are calculating the stress with vdW-DF, please also cite:     %
     %                                                                      %
     %   R. Sabatini et al., J. Phys.: Condens. Matter 24, 424209 (2012).   %
     %                                                                      %
     %%%%%%%%%%%%%%%%%%%%%%%%%%%%%%%%%%%%%%%%%%%%%%%%%%%%%%%%%%%%%%%%%%%%%%%%

     Adding external electric field

     Computed dipole along edir(3) :
        Dipole               -8.8656 Ry au,        -22.5341 Debye
        Dipole field         -0.0167 Ry au,

        Potential amp.        1.5509 Ry
        Total length         46.3494 bohr

     Starting wfcs are  299 atomic wfcs
  @ DRIVER MODE: Message from server: STATUS
  @ DRIVER MODE: Message from server: POSDATA
  @ DRIVER MODE: Reading and sharing cell
  @ DRIVER MODE: Reading and sharing positions
  @ DRIVER MODE: Received positions

     Self-consistent Calculation

     iteration #  1     ecut=    29.40 Ry     beta= 0.05
     Davidson diagonalization with overlap
     c_bands:  2 eigenvalues not converged
     c_bands:  1 eigenvalues not converged
     c_bands:  1 eigenvalues not converged
     c_bands:  3 eigenvalues not converged
     c_bands:  3 eigenvalues not converged
     c_bands:  1 eigenvalues not converged
     c_bands:  1 eigenvalues not converged
     ethr =  1.00E-05,  avg # of iterations = 19.2

[...]

     total energy              =   -2623.98640983 Ry
     estimated scf accuracy    <    3510.47231084 Ry

[...]

     iteration #  3     ecut=    29.40 Ry     beta= 0.05
     Davidson diagonalization with overlap
     ethr =  1.00E-02,  avg # of iterations = 15.6

[...]

     iteration # 51     ecut=    29.40 Ry     beta= 0.05
     Davidson diagonalization with overlap
     c_bands:  1 eigenvalues not converged
     ethr =  4.57E-08,  avg # of iterations = 13.6

[...]

     total energy              =   -2939.21020842 Ry
     estimated scf accuracy    <       0.00000010 Ry

     iteration # 65     ecut=    29.40 Ry     beta= 0.05
     Davidson diagonalization with overlap
     ethr =  2.41E-11,  avg # of iterations = 10.5

     negative rho (up, down):  1.664E-02 0.000E+00

     Adding external electric field

     Computed dipole along edir(3) :
        Dipole                0.4569 Ry au,          1.1614 Debye
        Dipole field          0.0009 Ry au,

        Potential amp.       -0.0799 Ry
        Total length         46.3494 bohr

     End of self-consistent calculation

          k = 0.0000 0.0000 0.0000 ( 18029 PWs)   bands (ev):

   -56.0391 -56.0289 -56.0050 -55.9925 -55.9301 -55.8960 -55.8739 -55.8519
   -55.8451 -55.8121 -55.8111 -55.7783 -55.6072 -55.4876 -55.0160 -54.9820
   -32.5837 -32.5213 -32.3924 -32.3785 -32.3452 -32.3446 -32.3318 -32.3025
   -32.2810 -32.2607 -32.2533 -32.2369 -32.2093 -32.1912 -32.1815 -32.1683
   -32.1576 -32.1432 -32.1274 -32.1015 -32.0987 -32.0962 -32.0678 -32.0499
   -32.0458 -32.0429 -32.0332 -32.0294 -32.0160 -32.0143 -32.0064 -31.9885
   -31.9859 -31.9798 -31.9648 -31.9482 -31.9238 -31.8924 -31.8190 -31.7674
   -31.7024 -31.5942 -31.4231 -31.3348 -31.3123 -31.2399 -31.1534 -31.0423
   -20.9791 -16.7854 -16.5150 -16.2950 -16.1941 -16.1695 -16.0441 -15.8822
   -15.7591 -15.7113 -15.6102 -15.6010 -15.5747 -15.5523 -15.5383 -15.5273
   -15.4912 -15.4807 -15.4633 -15.4525 -15.4024 -15.3925 -15.3743 -15.2763
   -15.2195 -15.1737 -15.1597 -15.0943 -15.0423 -14.6805 -13.5185 -13.4021
    -9.1323  -6.2276  -4.1612  -4.1327  -4.1136  -3.9988  -3.9448  -3.9038
    -3.8765  -3.6582  -3.5870  -3.2912  -3.2296  -3.2101  -3.1952  -3.1646
    -3.0269  -2.9874  -2.9439  -2.8804  -2.8560  -2.8413  -2.8174  -2.8076
    -2.7896  -2.7573  -2.7220  -2.7123  -2.6531  -2.6033  -2.5318  -2.4531
    -2.4350  -2.3537  -2.3363  -2.3117  -2.2814  -2.2719  -2.2670  -2.2391
    -2.2091  -2.2048  -2.0152  -1.9885  -1.9303  -1.8336  -1.8098  -1.6458
    -1.5784  -1.4962  -1.4859  -1.4663  -1.4480  -1.4291  -1.3381  -1.1988
    -1.1772  -1.1553  -1.1054  -1.0447  -1.0112  -0.9161  -0.8836  -0.8070
    -0.8001  -0.7764  -0.7114  -0.6585  -0.5270  -0.4953  -0.4837  -0.4399
    -0.3943  -0.3322  -0.3166  -0.2565  -0.1903  -0.1811  -0.1053  -0.0758
    -0.0692  -0.0536  -0.0322   0.0028   0.0164   0.1431   0.1658   0.2521
     0.2926   0.3812   0.5135   0.6201   0.6466   0.7141   0.9318   1.0061
     1.1038   1.1305   1.1981   1.5773   1.6230   3.0995   3.1830   3.2310
     3.2420   3.3287   3.3461   3.5484   3.5770   3.6077   3.6429

[...]

          k = 0.0380-0.0419 0.0000 ( 17876 PWs)   bands (ev):

[...]

          k =-0.0760-0.0000 0.0000 ( 17886 PWs)   bands (ev):

[...]

          k =-0.0760-0.0839 0.0000 ( 17948 PWs)   bands (ev):

   -56.0227 -56.0213 -56.0136 -56.0076 -55.9242 -55.8879 -55.8796 -55.8599
   -55.8294 -55.8265 -55.7968 -55.7938 -55.6052 -55.4895 -54.9990 -54.9988
   -32.3900 -32.3841 -32.3370 -32.3361 -32.3178 -32.3166 -32.3047 -32.2927
   -32.2478 -32.2314 -32.2293 -32.2270 -32.1933 -32.1711 -32.1687 -32.1574
   -32.1505 -32.1422 -32.1409 -32.1406 -32.1348 -32.1315 -32.1220 -32.1061
   -32.0777 -32.0768 -32.0742 -32.0479 -32.0295 -32.0283 -32.0269 -32.0252
   -32.0108 -32.0095 -32.0067 -32.0004 -31.9721 -31.8778 -31.8211 -31.7703
   -31.7427 -31.6456 -31.3251 -31.3249 -31.2360 -31.2357 -31.1967 -31.1966
   -20.9790 -16.2234 -16.1921 -16.0007 -15.9533 -15.9482 -15.9369 -15.8471
   -15.7392 -15.7338 -15.7325 -15.6623 -15.6398 -15.6318 -15.5793 -15.5764
   -15.5659 -15.5548 -15.5498 -15.5012 -15.4934 -15.4769 -15.4675 -15.4105
   -15.3551 -15.3508 -15.3419 -15.1439 -15.0289 -14.9641 -13.5041 -13.5037
    -9.1460  -6.2286  -4.1447  -4.1208  -3.5164  -3.4765  -3.2649  -3.1994
    -3.1854  -3.1131  -2.9794  -2.9652  -2.9375  -2.9314  -2.9167  -2.8857
    -2.8716  -2.8526  -2.8459  -2.8273  -2.8144  -2.7888  -2.7529  -2.7454
    -2.7377  -2.7082  -2.6911  -2.6678  -2.6593  -2.6393  -2.6325  -2.5987
    -2.5745  -2.5543  -2.5476  -2.4249  -2.2811  -2.2361  -2.1806  -2.1664
    -2.1613  -2.1301  -2.1010  -2.0906  -2.0646  -2.0221  -1.8666  -1.7669
    -1.7416  -1.7127  -1.6686  -1.6285  -1.5732  -1.4390  -1.4253  -1.3974
    -1.3414  -1.3277  -1.2797  -1.2650  -1.2488  -1.1692  -1.1366  -1.0832
    -1.0108  -0.9998  -0.9929  -0.9376  -0.8834  -0.8083  -0.7995  -0.7599
    -0.7183  -0.6774  -0.6432  -0.6191  -0.5507  -0.5154  -0.3998  -0.3464
    -0.1150  -0.0742   0.0093   0.0533   0.1068   0.1505   0.1606   0.2789
     0.2814   0.3019   0.3867   0.3965   0.4886   0.5076   0.5188   0.7184
     1.2191   1.3698   1.3707   1.4424   1.4430   3.3825   3.3956   3.4212
     3.4669   3.6010   3.6096   3.6284   3.6303   3.7565   3.7772

     the Fermi energy is     3.0961 ev

!    total energy              =   -2939.21024194 Ry
     estimated scf accuracy    <       0.00000006 Ry
     smearing contrib. (-TS)   =      -0.02183220 Ry
     internal energy E=F+TS    =   -2939.18840975 Ry

     The total energy is F=E-TS. E is the sum of the following terms:
     one-electron contribution =  -24056.62094654 Ry
     hartree contribution      =   12113.86100041 Ry
     xc contribution           =    -484.93415678 Ry
     ewald contribution        =    9488.50529915 Ry
     electric field correction =       0.00039402 Ry

     convergence has been achieved in  65 iterations

     Forces acting on atoms (cartesian axes, Ry/au):

     atom    1 type  1   force =     0.00023692   -0.00018610    0.09666717
     atom    2 type  1   force =    -0.00017248   -0.00056677   -0.17530862
     atom    3 type  2   force =    -0.00000819   -0.00004769   -0.02512191
     atom    4 type  2   force =     0.00006932   -0.00152210    0.05288437
     atom    5 type  2   force =    -0.01232678   -0.00156240    0.00379762
     atom    6 type  2   force =     0.01380811   -0.00083565    0.00222361
     atom    7 type  1   force =    -0.00114075    0.00042929   -0.01135851
     atom    8 type  1   force =     0.00079590    0.01678222    0.02865403
     atom    9 type  2   force =     0.00010983   -0.00021400   -0.00000959
     atom   10 type  2   force =    -0.00174089    0.00057233   -0.01859475
     atom   11 type  2   force =    -0.00019763   -0.00005242   -0.00013612
     atom   12 type  2   force =    -0.00000271   -0.00000604   -0.00001319
     atom   13 type  1   force =     0.00012959   -0.00028799   -0.00021510
     atom   14 type  1   force =    -0.00010308    0.00032693    0.00028807
     atom   15 type  2   force =    -0.00023903   -0.00004479   -0.00101084
     atom   16 type  2   force =     0.00000719   -0.00023011   -0.00032600
     atom   17 type  2   force =     0.00040740    0.00033407    0.00035199
     atom   18 type  2   force =    -0.00048453   -0.00000356   -0.00012212
     atom   19 type  1   force =    -0.00046679   -0.00008177   -0.00010369
     atom   20 type  1   force =    -0.00003942    0.00081652    0.00010940
     atom   21 type  2   force =     0.00013092    0.00001551    0.10320677
     atom   22 type  2   force =     0.00005344   -0.00043321   -0.00012778
     atom   23 type  2   force =    -0.07147413   -0.00012266   -0.02774745
     atom   24 type  2   force =     0.07147300    0.00030237   -0.02773558
     atom   25 type  1   force =     0.00012438   -0.00017520    0.09648143
     atom   26 type  1   force =    -0.00006911   -0.00019556   -0.17537863
     atom   27 type  2   force =     0.00008784   -0.00016588   -0.02390191
     atom   28 type  2   force =     0.00008895   -0.00126368    0.05295323
     atom   29 type  2   force =    -0.01251553    0.00044097    0.00363866
     atom   30 type  2   force =     0.01395013    0.00084732    0.00204808
     atom   31 type  1   force =    -0.00128887    0.00339810   -0.01272103
     atom   32 type  1   force =     0.00074660   -0.01754815    0.02977973
     atom   33 type  2   force =     0.00017462    0.00017801   -0.00007665
     atom   34 type  2   force =    -0.00105114    0.00009052   -0.02246624
     atom   35 type  2   force =     0.00009720    0.00021959    0.00006191
     atom   36 type  2   force =     0.00008665    0.00010137    0.00020335
     atom   37 type  1   force =    -0.00012612    0.00038163   -0.00020553
     atom   38 type  1   force =    -0.00017865    0.00027097    0.00032466
     atom   39 type  2   force =     0.00007857    0.00021021    0.00046487
     atom   40 type  2   force =    -0.00002861   -0.00000639    0.00001396
     atom   41 type  2   force =     0.00033480   -0.00023220    0.00008300
     atom   42 type  2   force =     0.00023627   -0.00016938    0.00005087
     atom   43 type  1   force =    -0.00009194   -0.00027911    0.00019309
     atom   44 type  1   force =     0.00009306   -0.00010238    0.00035372
     atom   45 type  2   force =     0.00010986   -0.00001623    0.10322729
     atom   46 type  2   force =    -0.07146474   -0.00011212   -0.02771905
     atom   47 type  2   force =     0.07147831    0.00037084   -0.02774398
     atom   48 type  3   force =    -0.00142059    0.00015117   -0.00080379
     atom   49 type  4   force =     0.00892085    0.00005836    0.00320441
     atom   50 type  5   force =     0.00028606    0.00021590    0.00073742
     atom   51 type  5   force =     0.00023281   -0.00027201    0.00032979
     atom   52 type  5   force =    -0.00961077   -0.00033918   -0.00401565
     atom   53 type  3   force =     0.00189392    0.00056054    0.00063121

     Total force =     0.369019     Total SCF correction =     0.000837
  @ DRIVER MODE: Message from server: STATUS
  @ DRIVER MODE: Message from server: GETFORCE
  @ DRIVER MODE: Returning v,forces,stress,ensemble

     Writing output data file ./calc.save/
  @ DRIVER MODE: Message from server: EXIT
  @ DRIVE MODE: Exiting

     General routines

     Parallel routines

   This run was terminated on:  10:30:59   4Aug2021

   JOB DONE.