     Program PWSCF v.6.7GPU starts on 22Sep2021 at 23:13:33

     R & G space division:  proc/nbgrp/npool/nimage =      10
     Reading input from /storage/home/hcoda1/3/ntian30/research/carbon/CxH_vib/H2O_calc/ads_slab/CHNNHHHO_a/out_0021/pw.inp
Warning: card &CELL ignored
Warning: card   CELL_DYNAMICS='IPI', ignored
Warning: card / ignored

     Current dimensions of program PWSCF are:
     Max number of different atomic species (ntypx) = 10
     Max number of k-points (npk) =  40000
     Max angular momentum in pseudopotentials (lmaxx) =  3
     Presently no symmetry can be used with electric field

     Message from routine cell_base_init:
     DEPRECATED: use true lattice parameter, not A to a.u. conversion factor

     IMPORTANT: XC functional enforced from input :
     Exchange-correlation= BEEF-VDW
                           (   1   4  43  14   2   0   0)
     Any further DFT definition will be discarded
     Please, verify this is what you really want

  @ DRIVER MODE: Connecting to
 qe_1139763_2937315.sched-torque.pace.gatech.edubqw_k2ts_scratch
  using UNIX socket
  @ DRIVER MODE: Message from server: STATUS
  @ DRIVER MODE: Message from server: INIT
  @ DRIVER MODE: Receiving replica           0          -1
  @ DRIVER MODE: Receiving encoded integer          25
  @ DRIVER MODE:  SCF:  T  FORCE:  T  STRESS:  F  VC:  F  ENSEMBLE:  F
  @ DRIVER MODE:  SCF:  T  FORCE:  T  STRESS:  F  VC:  F  ENSEMBLE:  F

     Using Slab Decomposition

     bravais-lattice index     =            0
     lattice parameter (alat)  =       1.8897  a.u.
     unit-cell volume          =    6658.9804 (a.u.)^3
     number of atoms/cell      =           55
     number of atomic types    =            5
     number of electrons       =       402.00
     number of Kohn-Sham states=          211
     kinetic-energy cutoff     =      29.3995  Ry
     charge density cutoff     =     293.9946  Ry
     scf convergence threshold =      7.3E-08
     mixing beta               =       0.0500
     number of iterations used =            8  plain     mixing
     Exchange-correlation= BEEF-VDW
                           (   1   4  43  14   2   0   0)

     celldm(1)=   1.889726  celldm(2)=   0.000000  celldm(3)=   0.000000
     celldm(4)=   0.000000  celldm(5)=   0.000000  celldm(6)=   0.000000

     crystal axes: (cart. coord. in units of alat)
               a(1) = (   6.579727   0.000000   0.000000 )
               a(2) = (  -0.000775   5.961596   0.000000 )
               a(3) = (   0.000000   0.000000  25.155947 )

     reciprocal axes: (cart. coord. in units 2 pi/alat)
               b(1) = (  0.151982  0.000020  0.000000 )
               b(2) = (  0.000000  0.167740  0.000000 )
               b(3) = (  0.000000  0.000000  0.039752 )

     PseudoPot. # 1 for Ti read from file:
     /storage/coda1/p-amedford6/0/shared/rich_project_chbe-medford/medford-share/data/pseudos_module/espresso/nninc/pbe/van/Ti.UPF
     MD5 check sum: 8e4df49b7f0d34bbd5052bf3f5ea0213
     Pseudo is Ultrasoft, Zval = 12.0
     Generated by new atomic code, or converted to UPF format
     Using radial grid of  851 points,  6 beta functions with:
                l(1) =   0
                l(2) =   0
                l(3) =   1
                l(4) =   1
                l(5) =   2
                l(6) =   2
     Q(r) pseudized with  8 coefficients,  rinner =    1.000   1.000   1.000
                                                       1.000   1.000

     PseudoPot. # 2 for O  read from file:
     /storage/coda1/p-amedford6/0/shared/rich_project_chbe-medford/medford-share/data/pseudos_module/espresso/nninc/pbe/van/O.UPF
     MD5 check sum: 78c19812648e8988a0fe644b0f25305e
     Pseudo is Ultrasoft, Zval =  6.0
     Generated by new atomic code, or converted to UPF format
     Using radial grid of  737 points,  4 beta functions with:
                l(1) =   0
                l(2) =   0
                l(3) =   1
                l(4) =   1
     Q(r) pseudized with  8 coefficients,  rinner =    0.800   0.800   0.800

     PseudoPot. # 3 for N  read from file:
     /storage/coda1/p-amedford6/0/shared/rich_project_chbe-medford/medford-share/data/pseudos_module/espresso/nninc/pbe/van/N.UPF
     MD5 check sum: 90d10febe142ad51ac9d5be1deb811c4
     Pseudo is Ultrasoft, Zval =  5.0
     Generated by new atomic code, or converted to UPF format
     Using radial grid of  729 points,  4 beta functions with:
                l(1) =   0
                l(2) =   0
                l(3) =   1
                l(4) =   1
     Q(r) pseudized with  8 coefficients,  rinner =    0.800   0.800   0.800

     PseudoPot. # 4 for C  read from file:
     /storage/coda1/p-amedford6/0/shared/rich_project_chbe-medford/medford-share/data/pseudos_module/espresso/nninc/pbe/van/C.UPF
     MD5 check sum: 1a69bf6b8db32088f5b2163dbdb77a27
     Pseudo is Ultrasoft, Zval =  4.0
     Generated by new atomic code, or converted to UPF format
     Using radial grid of  721 points,  4 beta functions with:
                l(1) =   0
                l(2) =   0
                l(3) =   1
                l(4) =   1
     Q(r) pseudized with  8 coefficients,  rinner =    0.800   0.800   0.800

     PseudoPot. # 5 for H  read from file:
     /storage/coda1/p-amedford6/0/shared/rich_project_chbe-medford/medford-share/data/pseudos_module/espresso/nninc/pbe/van/H.UPF
     MD5 check sum: b5ee9d7bfd3a09ee7748110bda690ff7
     Pseudo is Ultrasoft, Zval =  1.0
     Generated by new atomic code, or converted to UPF format
     Using radial grid of  615 points,  1 beta functions with:
                l(1) =   0
     Q(r) pseudized with  8 coefficients,  rinner =    0.800

     atomic species   valence    mass     pseudopotential
        Ti1           12.00    47.86700     Ti( 1.00)
        O1             6.00    15.99900     O ( 1.00)
        N1             5.00    14.00700     N ( 1.00)
        C1             4.00    12.01100     C ( 1.00)
        H1             1.00     1.00800     H ( 1.00)

     No symmetry found

   Cartesian axes

     site n.     atom                  positions (alat units)
         1           Ti1 tau(   1) = (   0.0004258   2.9801865   6.0000000  )
         2           Ti1 tau(   2) = (   3.2906075   1.4906267   6.0002472  )
         3           O1  tau(   3) = (   0.0006271   0.0005054   7.9858123  )
         4           O1  tau(   4) = (   3.2906025   0.0005020   7.3038282  )
         5           O1  tau(   5) = (   4.5942328   1.4918067   9.2879030  )
         6           O1  tau(   6) = (   1.9868534   1.4903216   9.2879459  )
         7           Ti1 tau(   7) = (   3.2907910   2.8959150   9.1758416  )
         8           Ti1 tau(   8) = (   0.0015273   1.4827037   9.2680791  )
         9           O1  tau(   9) = (   3.3019041   5.9340972  11.2780832  )
        10           O1  tau(  10) = (   0.0116148   5.9584955  10.6183126  )
        11           O1  tau(  11) = (   1.2869077   1.4717189  12.6473688  )
        12           O1  tau(  12) = (   5.3188397   1.4655789  12.6430575  )
        13           Ti1 tau(  13) = (   0.0521173   3.0639968  12.7333969  )
        14           Ti1 tau(  14) = (   3.2906581   1.3001642  12.6471297  )
        15           O1  tau(  15) = (   0.0021475   5.9326859  14.6872502  )
        16           O1  tau(  16) = (   3.3040199   0.0265785  13.8678754  )
        17           O1  tau(  17) = (   4.6240569   1.6264218  16.1080407  )
        18           O1  tau(  18) = (   2.0715169   1.5429601  15.9546445  )
        19           Ti1 tau(  19) = (   3.3363059   2.9874148  15.6109769  )
        20           Ti1 tau(  20) = (   0.0492893   1.4028208  15.7974426  )
        21           O1  tau(  21) = (   3.2904802   0.0005063   4.7018136  )
        22           O1  tau(  22) = (   0.0944532   0.0627470  17.1934044  )
        23           O1  tau(  23) = (   1.3043587   1.4918075   6.0039043  )
        24           O1  tau(  24) = (   5.2767064   1.4903225   6.0039473  )
        25           Ti1 tau(  25) = (   0.0000382   5.9609847   6.0000000  )
        26           Ti1 tau(  26) = (   3.2902200   4.4714249   6.0002472  )
        27           O1  tau(  27) = (   0.0002396   2.9813036   7.9858123  )
        28           O1  tau(  28) = (   3.2902150   2.9813002   7.3038282  )
        29           O1  tau(  29) = (   4.5938453   4.4726049   9.2879030  )
        30           O1  tau(  30) = (   1.9864658   4.4711199   9.2879459  )
        31           Ti1 tau(  31) = (   3.2891106   5.8743827   9.1763621  )
        32           Ti1 tau(  32) = (   0.0006254   4.4649316   9.2693709  )
        33           O1  tau(  33) = (   3.3033179   3.0104581  11.2528581  )
        34           O1  tau(  34) = (   0.0092240   2.9805883  10.6323155  )
        35           O1  tau(  35) = (   1.3074756   4.4469578  12.6382572  )
        36           O1  tau(  36) = (   5.3202433   4.4545580  12.6357595  )
        37           Ti1 tau(  37) = (   6.5572640   0.0741000  12.5519234  )
        38           Ti1 tau(  38) = (   3.3179412   4.3950854  12.4030220  )
        39           O1  tau(  39) = (   0.0383827   2.9948909  14.7437145  )
        40           O1  tau(  40) = (   3.3238341   2.9662938  13.8354460  )
        41           O1  tau(  41) = (   4.5722604   4.5101538  15.9256862  )
        42           O1  tau(  42) = (   2.0839069   4.4665637  16.0501180  )
        43           Ti1 tau(  43) = (   3.2507700   5.9423238  16.2547716  )
        44           Ti1 tau(  44) = (   6.5063516   4.5631136  16.2071476  )
        45           O1  tau(  45) = (   3.2900926   2.9813045   4.7018136  )
        46           O1  tau(  46) = (   1.3039711   4.4726057   6.0039043  )
        47           O1  tau(  47) = (   5.2763189   4.4711207   6.0039473  )
        48           N1  tau(  48) = (   0.4124544   2.9287237  17.8391456  )
        49           C1  tau(  49) = (   1.3780350   3.0145335  18.6736463  )
        50           H1  tau(  50) = (   2.3027514   2.5668077  18.2879847  )
        51           N1  tau(  51) = (   5.7762606   3.6015528  18.1636368  )
        52           H1  tau(  52) = (   5.8537390   4.1179332  19.0469945  )
        53           H1  tau(  53) = (   5.0130290   2.9392956  18.1702355  )
        54           O1  tau(  54) = (   3.2882145   0.0116813  18.0866318  )
        55           H1  tau(  55) = (   2.5950809   5.5738040  18.6371346  )

     number of k points=    10  Fermi-Dirac smearing, width (Ry)=  0.0073
                       cart. coord. in units 2pi/alat
        k(    1) = (   0.0000000   0.0000000   0.0000000), wk =   0.1250000
        k(    2) = (   0.0000000   0.0419351   0.0000000), wk =   0.2500000
        k(    3) = (   0.0000000  -0.0838702   0.0000000), wk =   0.1250000
        k(    4) = (   0.0379955   0.0000049   0.0000000), wk =   0.2500000
        k(    5) = (   0.0379955   0.0419400   0.0000000), wk =   0.2500000
        k(    6) = (   0.0379955  -0.0838652   0.0000000), wk =   0.2500000
        k(    7) = (   0.0379955  -0.0419301   0.0000000), wk =   0.2500000
        k(    8) = (  -0.0759910  -0.0000099   0.0000000), wk =   0.1250000
        k(    9) = (  -0.0759910   0.0419252   0.0000000), wk =   0.2500000
        k(   10) = (  -0.0759910  -0.0838800   0.0000000), wk =   0.1250000

     Initial potential from superposition of free atoms

     starting charge  385.99915, renormalised to  402.00000

     negative rho (up, down):  1.703E-02 0.000E+00

     %%%%%%%%%%%%%%%%%%%%%%%%%%%%%%%%%%%%%%%%%%%%%%%%%%%%%%%%%%%%%%%%%%%%%%%%
     %                                                                      %
     % You are using vdW-DF, which was implemented by the Thonhauser group. %
     % Please cite the following two papers that made this development      %
     % possible and the two reviews that describe the various versions:     %
     %                                                                      %
     %   T. Thonhauser et al., PRL 115, 136402 (2015).                      %
     %   T. Thonhauser et al., PRB 76, 125112 (2007).                       %
     %   K. Berland et al., Rep. Prog. Phys. 78, 066501 (2015).             %
     %   D.C. Langreth et al., J. Phys.: Condens. Matter 21, 084203 (2009). %
     %                                                                      %
     %                                                                      %
     % If you are calculating the stress with vdW-DF, please also cite:     %
     %                                                                      %
     %   R. Sabatini et al., J. Phys.: Condens. Matter 24, 424209 (2012).   %
     %                                                                      %
     %%%%%%%%%%%%%%%%%%%%%%%%%%%%%%%%%%%%%%%%%%%%%%%%%%%%%%%%%%%%%%%%%%%%%%%%

     Adding external electric field

     Computed dipole along edir(3) :
        Dipole              -11.1544 Ry au,        -28.3516 Debye
        Dipole field         -0.0210 Ry au,

        Potential amp.        1.9513 Ry
        Total length         46.3494 bohr

     Starting wfcs are  304 atomic wfcs
  @ DRIVER MODE: Message from server: STATUS
  @ DRIVER MODE: Message from server: POSDATA
  @ DRIVER MODE: Reading and sharing cell
  @ DRIVER MODE: Reading and sharing positions
  @ DRIVER MODE: Received positions

     Self-consistent Calculation

     iteration #  1     ecut=    29.40 Ry     beta= 0.05
     Davidson diagonalization with overlap
     c_bands:  2 eigenvalues not converged
     c_bands:  3 eigenvalues not converged
     c_bands:  1 eigenvalues not converged
     c_bands:  5 eigenvalues not converged
     c_bands:  1 eigenvalues not converged
     c_bands:  1 eigenvalues not converged
     c_bands:  5 eigenvalues not converged
     c_bands:  3 eigenvalues not converged
     ethr =  1.00E-05,  avg # of iterations = 27.6

[...]

     total energy              =   -2400.31261435 Ry
     estimated scf accuracy    <    6416.16109430 Ry

     iteration #  2     ecut=    29.40 Ry     beta= 0.05
     Davidson diagonalization with overlap
     ethr =  1.00E-02,  avg # of iterations = 24.2

[...]

     iteration # 46     ecut=    29.40 Ry     beta= 0.05
     Davidson diagonalization with overlap
     c_bands:  2 eigenvalues not converged
     ethr =  4.81E-07,  avg # of iterations =  9.6

[...]

     total energy              =   -2972.60982631 Ry
     estimated scf accuracy    <       0.00000012 Ry

     iteration # 68     ecut=    29.40 Ry     beta= 0.05
     Davidson diagonalization with overlap
     ethr =  3.03E-11,  avg # of iterations =  6.0

     negative rho (up, down):  1.637E-02 0.000E+00

     Adding external electric field

     Computed dipole along edir(3) :
        Dipole                0.2193 Ry au,          0.5575 Debye
        Dipole field          0.0004 Ry au,

        Potential amp.       -0.0384 Ry
        Total length         46.3494 bohr

     End of self-consistent calculation

          k = 0.0000 0.0000 0.0000 ( 18029 PWs)   bands (ev):

   -56.4668 -56.4331 -56.0102 -55.9743 -55.7587 -55.7042 -55.6462 -55.6371
   -55.6044 -55.5148 -55.5062 -55.4507 -55.4074 -55.2827 -55.2113 -55.1773
   -32.9134 -32.7582 -32.7308 -32.6267 -32.5379 -32.5344 -32.4917 -32.2420
   -32.2279 -32.2059 -32.1591 -32.1541 -32.1286 -32.1088 -32.0261 -32.0120
   -31.9932 -31.9799 -31.9620 -31.9237 -31.9182 -31.9102 -31.9066 -31.8839
   -31.8651 -31.8635 -31.8592 -31.8063 -31.7899 -31.7698 -31.7472 -31.7230
   -31.7104 -31.6951 -31.6786 -31.6733 -31.6451 -31.6063 -31.5967 -31.5778
   -31.5475 -31.5463 -31.5226 -31.5142 -31.4908 -31.4255 -31.3412 -31.2290
   -17.9453 -16.7387 -16.4748 -16.4024 -16.2036 -16.0133 -15.9199 -15.9046
   -15.8850 -15.7647 -15.7638 -15.6126 -15.5322 -15.4769 -15.4145 -15.4037
   -15.3345 -15.3171 -15.2539 -15.2264 -15.2137 -15.1877 -15.1389 -15.0770
   -15.0662 -15.0397 -14.8528 -14.8284 -14.8126 -14.6288 -14.5345 -13.7086
   -13.5969 -13.2177  -7.8594  -6.2028  -4.2625  -4.2548  -4.1396  -3.9339
    -3.7349  -3.6732  -3.5796  -3.4345  -3.4041  -3.1617  -3.1465  -3.1048
    -3.0164  -2.9974  -2.9620  -2.9019  -2.8433  -2.8242  -2.7654  -2.6862
    -2.6835  -2.6732  -2.6412  -2.6194  -2.5155  -2.4771  -2.4149  -2.3742
    -2.3484  -2.3382  -2.2986  -2.2430  -2.2164  -2.1639  -2.1463  -2.0651
    -2.0327  -1.9487  -1.8882  -1.8697  -1.8161  -1.7591  -1.7543  -1.6994
    -1.5679  -1.4578  -1.3909  -1.3494  -1.2947  -1.2395  -1.2097  -1.1543
    -1.0898  -1.0665  -1.0427  -1.0065  -0.9459  -0.9168  -0.8700  -0.8157
    -0.7400  -0.6715  -0.6263  -0.6046  -0.4997  -0.4342  -0.3968  -0.3797
    -0.3440  -0.2893  -0.2338  -0.1942  -0.1833  -0.1612  -0.1008   0.0230
     0.0343   0.0931   0.1478   0.1812   0.1938   0.2094   0.2711   0.3383
     0.4123   0.4558   0.4680   0.5256   0.5902   0.6287   0.7434   0.8133
     0.8411   0.8805   0.9566   1.0383   1.0481   1.3545   1.3679   1.3971
     2.5151   2.7683   2.8990   3.0783   3.1992   3.3341   3.6527   3.6699
     3.6816   3.7023   3.7941

[...]

          k = 0.0380-0.0419 0.0000 ( 17876 PWs)   bands (ev):

[...]

          k =-0.0760-0.0000 0.0000 ( 17886 PWs)   bands (ev):

[...]

          k =-0.0760-0.0839 0.0000 ( 17948 PWs)   bands (ev):

   -56.4501 -56.4497 -55.9985 -55.9858 -55.7527 -55.7100 -55.6376 -55.6356
   -55.6128 -55.5125 -55.5077 -55.4490 -55.4094 -55.2843 -55.1948 -55.1937
   -32.7439 -32.7435 -32.7296 -32.7294 -32.5792 -32.5783 -32.3205 -32.3095
   -32.1904 -32.1842 -32.1760 -32.1744 -32.0605 -32.0281 -31.9816 -31.9745
   -31.9615 -31.9569 -31.9483 -31.9398 -31.9365 -31.9286 -31.9081 -31.8711
   -31.8635 -31.8574 -31.8551 -31.8405 -31.8209 -31.7963 -31.7825 -31.7728
   -31.7262 -31.7091 -31.7014 -31.6822 -31.6509 -31.6329 -31.6303 -31.6010
   -31.5498 -31.5359 -31.5351 -31.4948 -31.4220 -31.4207 -31.3840 -31.3831
   -17.9362 -16.4553 -16.1443 -16.1334 -16.0157 -16.0101 -15.8579 -15.8377
   -15.8195 -15.7459 -15.6820 -15.6603 -15.5128 -15.5001 -15.4636 -15.4282
   -15.4001 -15.3625 -15.3581 -15.3345 -15.3016 -15.2364 -15.2149 -15.1900
   -15.1796 -15.1031 -14.9235 -14.9014 -14.8972 -14.8227 -14.6840 -13.7006
   -13.6997 -13.2291  -7.8217  -6.1368  -4.3812  -4.0851  -3.3150  -3.2511
    -3.1768  -3.1493  -3.1326  -3.0572  -3.0424  -2.9268  -2.8987  -2.8595
    -2.8331  -2.8231  -2.8030  -2.7518  -2.7308  -2.6845  -2.6682  -2.6667
    -2.6349  -2.5945  -2.5739  -2.5505  -2.5406  -2.4709  -2.4412  -2.3980
    -2.3811  -2.3694  -2.3225  -2.2623  -2.2421  -2.1875  -2.1740  -2.1420
    -2.1051  -2.0428  -2.0066  -1.9634  -1.8658  -1.8444  -1.7760  -1.6583
    -1.6371  -1.5541  -1.5252  -1.5039  -1.4821  -1.4039  -1.3725  -1.3388
    -1.2505  -1.2242  -1.2168  -1.1900  -1.1554  -1.1302  -1.0751  -1.0133
    -0.9174  -0.8540  -0.8424  -0.8234  -0.7844  -0.7580  -0.7173  -0.6248
    -0.6029  -0.5680  -0.5587  -0.5169  -0.4045  -0.3781  -0.2284  -0.1914
    -0.1019  -0.0746  -0.0540  -0.0143   0.1087   0.1358   0.1862   0.2066
     0.2657   0.3105   0.3611   0.4508   0.5534   0.5655   0.6981   0.7243
     0.7459   0.8192   0.9560   0.9935   1.2076   1.2123   1.2139   1.2160
     2.4947   3.3209   3.3234   3.3566   3.3689   3.5720   3.5921   3.7179
     3.8027   3.8106   3.8118

     the Fermi energy is     2.6949 ev

!    total energy              =   -2972.60985765 Ry
     estimated scf accuracy    <       0.00000007 Ry
     smearing contrib. (-TS)   =      -0.01175255 Ry
     internal energy E=F+TS    =   -2972.59810510 Ry

     The total energy is F=E-TS. E is the sum of the following terms:
     one-electron contribution =  -24036.60856918 Ry
     hartree contribution      =   12109.69131153 Ry
     xc contribution           =    -493.07999179 Ry
     ewald contribution        =    9447.39905356 Ry
     electric field correction =       0.00009078 Ry

     convergence has been achieved in  68 iterations

     Forces acting on atoms (cartesian axes, Ry/au):

     atom    1 type  1   force =    -0.00003288   -0.00046333    0.10841578
     atom    2 type  1   force =     0.00000849    0.00008071   -0.16404558
     atom    3 type  2   force =     0.00013194    0.00046734   -0.04118159
     atom    4 type  2   force =     0.00009414   -0.00056974    0.03216721
     atom    5 type  2   force =    -0.00380676   -0.00332890   -0.00776798
     atom    6 type  2   force =     0.00586582   -0.00273703   -0.00759266
     atom    7 type  1   force =     0.00017136   -0.00552606    0.03627882
     atom    8 type  1   force =     0.00012316    0.02543291    0.06346514
     atom    9 type  2   force =     0.00013971    0.00040005    0.00013510
     atom   10 type  2   force =    -0.00195223    0.00076205   -0.03775773
     atom   11 type  2   force =     0.00010698   -0.00015243   -0.00016519
     atom   12 type  2   force =    -0.00074672    0.00020734   -0.00017084
     atom   13 type  1   force =     0.00044980    0.00044513    0.00082672
     atom   14 type  1   force =    -0.00056097   -0.00025784    0.00014553
     atom   15 type  2   force =    -0.00010022   -0.00008415    0.00087688
     atom   16 type  2   force =    -0.00012272    0.00031089   -0.00015147
     atom   17 type  2   force =    -0.00102510    0.00045103   -0.00004020
     atom   18 type  2   force =     0.00059809   -0.00009286   -0.00034048
     atom   19 type  1   force =     0.00023295   -0.00079625    0.00001021
     atom   20 type  1   force =    -0.00038737    0.00014566   -0.00032383
     atom   21 type  2   force =     0.00009710    0.00018747    0.10010666
     atom   22 type  2   force =    -0.00038420   -0.00087810    0.00063393
     atom   23 type  2   force =    -0.07742127    0.00001513   -0.03031473
     atom   24 type  2   force =     0.07741380    0.00043184   -0.03035983
     atom   25 type  1   force =    -0.00001355   -0.00031973    0.10859702
     atom   26 type  1   force =    -0.00004367   -0.00111191   -0.16408435
     atom   27 type  2   force =     0.00011692   -0.00017750   -0.03919250
     atom   28 type  2   force =     0.00011605    0.00117831    0.02838450
     atom   29 type  2   force =    -0.00230860    0.00468130   -0.01050135
     atom   30 type  2   force =     0.00438441    0.00496448   -0.01045910
     atom   31 type  1   force =     0.00005453    0.00318831    0.01910866
     atom   32 type  1   force =     0.00036417   -0.02766692    0.06521518
     atom   33 type  2   force =    -0.00003524   -0.00078535   -0.00040505
     atom   34 type  2   force =    -0.00062834    0.00085712   -0.05565481
     atom   35 type  2   force =    -0.00034756   -0.00023232   -0.00026052
     atom   36 type  2   force =    -0.00007406   -0.00003780   -0.00018648
     atom   37 type  1   force =     0.00030684   -0.00053165    0.00006743
     atom   38 type  1   force =    -0.00036726   -0.00014847    0.00024464
     atom   39 type  2   force =    -0.00017938    0.00028737   -0.00010320
     atom   40 type  2   force =    -0.00016749   -0.00026756   -0.00030542
     atom   41 type  2   force =    -0.00027218    0.00019480    0.00019757
     atom   42 type  2   force =    -0.00041951    0.00006102    0.00005972
     atom   43 type  1   force =     0.00025912    0.00030637   -0.00007074
     atom   44 type  1   force =    -0.00039302   -0.00016143   -0.00068408
     atom   45 type  2   force =     0.00010208    0.00001488    0.09991395
     atom   46 type  2   force =    -0.07745308   -0.00001302   -0.03032699
     atom   47 type  2   force =     0.07747273    0.00041883   -0.03036464
     atom   48 type  3   force =     0.00056754   -0.00323339   -0.00106858
     atom   49 type  4   force =     0.00043444   -0.00042282   -0.00014222
     atom   50 type  5   force =    -0.00009762    0.00041246   -0.00042588
     atom   51 type  3   force =     0.00757242    0.01555825    0.00709270
     atom   52 type  5   force =    -0.00083595   -0.00405666   -0.00674228
     atom   53 type  5   force =    -0.00660944   -0.00741379   -0.00023634
     atom   54 type  2   force =     0.00078484    0.00067175   -0.00129715
     atom   55 type  5   force =    -0.00118302   -0.00066582    0.00078045

     Total force =     0.383526     Total SCF correction =     0.000752
  @ DRIVER MODE: Message from server: STATUS
  @ DRIVER MODE: Message from server: GETFORCE
  @ DRIVER MODE: Returning v,forces,stress,ensemble

     Writing output data file ./calc.save/
  @ DRIVER MODE: Message from server: EXIT
  @ DRIVE MODE: Exiting

     General routines

     Parallel routines

   This run was terminated on:  23:32:25  22Sep2021

   JOB DONE.