     Program PWSCF v.6.7GPU starts on 18Aug2021 at 22:13:56

     R & G space division:  proc/nbgrp/npool/nimage =       8
     Reading input from /storage/home/hcoda1/3/ntian30/research/carbon/CH2_calc/ads_slab/CH2NHHH_a/CH2_calc.log/pw.inp
Warning: card &CELL ignored
Warning: card   CELL_DYNAMICS='IPI', ignored
Warning: card / ignored

     Current dimensions of program PWSCF are:
     Max number of different atomic species (ntypx) = 10
     Max number of k-points (npk) =  40000
     Max angular momentum in pseudopotentials (lmaxx) =  3
     Presently no symmetry can be used with electric field

     Message from routine cell_base_init:
     DEPRECATED: use true lattice parameter, not A to a.u. conversion factor

     IMPORTANT: XC functional enforced from input :
     Exchange-correlation= BEEF-VDW
                           (   1   4  43  14   2   0   0)
     Any further DFT definition will be discarded
     Please, verify this is what you really want

  @ DRIVER MODE: Connecting to
 qe_1139763_2596344.sched-torque.pace.gatech.edu0f7r69k0_scratch
  using UNIX socket
  @ DRIVER MODE: Message from server: STATUS
  @ DRIVER MODE: Message from server: INIT
  @ DRIVER MODE: Receiving replica           0          -1
  @ DRIVER MODE: Receiving encoded integer          25
  @ DRIVER MODE:  SCF:  T  FORCE:  T  STRESS:  F  VC:  F  ENSEMBLE:  F
  @ DRIVER MODE:  SCF:  T  FORCE:  T  STRESS:  F  VC:  F  ENSEMBLE:  F

     Using Slab Decomposition

     bravais-lattice index     =            0
     lattice parameter (alat)  =       1.8897  a.u.
     unit-cell volume          =    6658.9804 (a.u.)^3
     number of atoms/cell      =           54
     number of atomic types    =            5
     number of electrons       =       392.00
     number of Kohn-Sham states=          206
     kinetic-energy cutoff     =      29.3995  Ry
     charge density cutoff     =     293.9946  Ry
     scf convergence threshold =      7.3E-08
     mixing beta               =       0.0500
     number of iterations used =            8  plain     mixing
     Exchange-correlation= BEEF-VDW
                           (   1   4  43  14   2   0   0)

     celldm(1)=   1.889726  celldm(2)=   0.000000  celldm(3)=   0.000000
     celldm(4)=   0.000000  celldm(5)=   0.000000  celldm(6)=   0.000000

     crystal axes: (cart. coord. in units of alat)
               a(1) = (   6.579727   0.000000   0.000000 )
               a(2) = (  -0.000775   5.961596   0.000000 )
               a(3) = (   0.000000   0.000000  25.155947 )

     reciprocal axes: (cart. coord. in units 2 pi/alat)
               b(1) = (  0.151982  0.000020  0.000000 )
               b(2) = (  0.000000  0.167740  0.000000 )
               b(3) = (  0.000000  0.000000  0.039752 )

     PseudoPot. # 1 for Ti read from file:
     /storage/coda1/p-amedford6/0/shared/rich_project_chbe-medford/medford-share/data/pseudos_module/espresso/nninc/pbe/van/Ti.UPF
     MD5 check sum: 8e4df49b7f0d34bbd5052bf3f5ea0213
     Pseudo is Ultrasoft, Zval = 12.0
     Generated by new atomic code, or converted to UPF format
     Using radial grid of  851 points,  6 beta functions with:
                l(1) =   0
                l(2) =   0
                l(3) =   1
                l(4) =   1
                l(5) =   2
                l(6) =   2
     Q(r) pseudized with  8 coefficients,  rinner =    1.000   1.000   1.000
                                                       1.000   1.000

     PseudoPot. # 2 for O  read from file:
     /storage/coda1/p-amedford6/0/shared/rich_project_chbe-medford/medford-share/data/pseudos_module/espresso/nninc/pbe/van/O.UPF
     MD5 check sum: 78c19812648e8988a0fe644b0f25305e
     Pseudo is Ultrasoft, Zval =  6.0
     Generated by new atomic code, or converted to UPF format
     Using radial grid of  737 points,  4 beta functions with:
                l(1) =   0
                l(2) =   0
                l(3) =   1
                l(4) =   1
     Q(r) pseudized with  8 coefficients,  rinner =    0.800   0.800   0.800

     PseudoPot. # 3 for N  read from file:
     /storage/coda1/p-amedford6/0/shared/rich_project_chbe-medford/medford-share/data/pseudos_module/espresso/nninc/pbe/van/N.UPF
     MD5 check sum: 90d10febe142ad51ac9d5be1deb811c4
     Pseudo is Ultrasoft, Zval =  5.0
     Generated by new atomic code, or converted to UPF format
     Using radial grid of  729 points,  4 beta functions with:
                l(1) =   0
                l(2) =   0
                l(3) =   1
                l(4) =   1
     Q(r) pseudized with  8 coefficients,  rinner =    0.800   0.800   0.800

     PseudoPot. # 4 for C  read from file:
     /storage/coda1/p-amedford6/0/shared/rich_project_chbe-medford/medford-share/data/pseudos_module/espresso/nninc/pbe/van/C.UPF
     MD5 check sum: 1a69bf6b8db32088f5b2163dbdb77a27
     Pseudo is Ultrasoft, Zval =  4.0
     Generated by new atomic code, or converted to UPF format
     Using radial grid of  721 points,  4 beta functions with:
                l(1) =   0
                l(2) =   0
                l(3) =   1
                l(4) =   1
     Q(r) pseudized with  8 coefficients,  rinner =    0.800   0.800   0.800

     PseudoPot. # 5 for H  read from file:
     /storage/coda1/p-amedford6/0/shared/rich_project_chbe-medford/medford-share/data/pseudos_module/espresso/nninc/pbe/van/H.UPF
     MD5 check sum: b5ee9d7bfd3a09ee7748110bda690ff7
     Pseudo is Ultrasoft, Zval =  1.0
     Generated by new atomic code, or converted to UPF format
     Using radial grid of  615 points,  1 beta functions with:
                l(1) =   0
     Q(r) pseudized with  8 coefficients,  rinner =    0.800

     atomic species   valence    mass     pseudopotential
        Ti1           12.00    47.86700     Ti( 1.00)
        O1             6.00    15.99900     O ( 1.00)
        N1             5.00    14.00700     N ( 1.00)
        C1             4.00    12.01100     C ( 1.00)
        H1             1.00     1.00800     H ( 1.00)

     No symmetry found

   Cartesian axes

     site n.     atom                  positions (alat units)
         1           Ti1 tau(   1) = (   0.0004258   2.9801865   6.0000000  )
         2           Ti1 tau(   2) = (   3.2906075   1.4906267   6.0002472  )
         3           O1  tau(   3) = (   0.0006271   0.0005054   7.9858123  )
         4           O1  tau(   4) = (   3.2906025   0.0005020   7.3038282  )
         5           O1  tau(   5) = (   4.5942328   1.4918067   9.2879030  )
         6           O1  tau(   6) = (   1.9868534   1.4903216   9.2879459  )
         7           Ti1 tau(   7) = (   3.2907910   2.8959150   9.1758416  )
         8           Ti1 tau(   8) = (   0.0015273   1.4827037   9.2680791  )
         9           O1  tau(   9) = (   3.2893523   5.9576907  11.3759447  )
        10           O1  tau(  10) = (   0.0116148   5.9584955  10.6183126  )
        11           O1  tau(  11) = (   1.2892553   1.4862333  12.6941169  )
        12           O1  tau(  12) = (   5.2958346   1.4833122  12.6807028  )
        13           Ti1 tau(  13) = (   0.0095698   2.9692159  12.5083673  )
        14           Ti1 tau(  14) = (   3.3108451   1.4743585  12.5306019  )
        15           O1  tau(  15) = (   6.5736105   5.8801748  14.6991865  )
        16           O1  tau(  16) = (   3.2979610   5.9450902  14.0010558  )
        17           O1  tau(  17) = (   4.5273680   1.5185660  16.1654609  )
        18           O1  tau(  18) = (   2.0122787   1.5163527  16.1384539  )
        19           Ti1 tau(  19) = (   3.2802752   2.9921964  15.7561315  )
        20           Ti1 tau(  20) = (   0.0093588   1.3049760  15.8672178  )
        21           O1  tau(  21) = (   3.2904802   0.0005063   4.7018136  )
        22           O1  tau(  22) = (   6.5538635   0.1342075  17.2452287  )
        23           O1  tau(  23) = (   1.3043587   1.4918075   6.0039043  )
        24           O1  tau(  24) = (   5.2767064   1.4903225   6.0039473  )
        25           Ti1 tau(  25) = (   0.0000382   5.9609847   6.0000000  )
        26           Ti1 tau(  26) = (   3.2902200   4.4714249   6.0002472  )
        27           O1  tau(  27) = (   0.0002396   2.9813036   7.9858123  )
        28           O1  tau(  28) = (   3.2902150   2.9813002   7.3038282  )
        29           O1  tau(  29) = (   4.5938453   4.4726049   9.2879030  )
        30           O1  tau(  30) = (   1.9864658   4.4711199   9.2879459  )
        31           Ti1 tau(  31) = (   3.2891106   5.8743827   9.1763621  )
        32           Ti1 tau(  32) = (   0.0006254   4.4649316   9.2693709  )
        33           O1  tau(  33) = (   3.2933707   2.9638296  11.3700534  )
        34           O1  tau(  34) = (   0.0092240   2.9805883  10.6323155  )
        35           O1  tau(  35) = (   1.2923283   4.4540072  12.6594629  )
        36           O1  tau(  36) = (   5.2938616   4.4568750  12.6477176  )
        37           Ti1 tau(  37) = (   0.0202681   5.9396231  12.5027719  )
        38           Ti1 tau(  38) = (   3.3116628   4.4527548  12.5215617  )
        39           O1  tau(  39) = (   6.5466975   3.0260875  14.9671898  )
        40           O1  tau(  40) = (   3.2966604   2.9917109  13.9679302  )
        41           O1  tau(  41) = (   4.5116687   4.4737236  16.2360857  )
        42           O1  tau(  42) = (   2.0028912   4.4646324  16.2202640  )
        43           Ti1 tau(  43) = (   3.2937213   0.0113368  15.7972781  )
        44           Ti1 tau(  44) = (   0.0208052   4.5175143  16.0574476  )
        45           O1  tau(  45) = (   3.2900926   2.9813045   4.7018136  )
        46           O1  tau(  46) = (   1.3039711   4.4726057   6.0039043  )
        47           O1  tau(  47) = (   5.2763189   4.4711207   6.0039473  )
        48           N1  tau(  48) = (   6.3337458   3.3624127  18.0270434  )
        49           C1  tau(  49) = (   0.8795605   3.2639204  18.9799812  )
        50           H1  tau(  50) = (   0.5395241   3.0459488  19.9957609  )
        51           H1  tau(  51) = (   1.5475163   2.4696122  18.6548312  )
        52           H1  tau(  52) = (   5.6941302   4.0972494  18.3182061  )
        53           H1  tau(  53) = (   5.6924933   2.9904231  17.3311355  )
        54           H1  tau(  54) = (   6.3563687   2.6858065  18.8857009  )

     number of k points=    10  Fermi-Dirac smearing, width (Ry)=  0.0073
                       cart. coord. in units 2pi/alat
        k(    1) = (   0.0000000   0.0000000   0.0000000), wk =   0.1250000
        k(    2) = (   0.0000000   0.0419351   0.0000000), wk =   0.2500000
        k(    3) = (   0.0000000  -0.0838702   0.0000000), wk =   0.1250000
        k(    4) = (   0.0379955   0.0000049   0.0000000), wk =   0.2500000
        k(    5) = (   0.0379955   0.0419400   0.0000000), wk =   0.2500000
        k(    6) = (   0.0379955  -0.0838652   0.0000000), wk =   0.2500000
        k(    7) = (   0.0379955  -0.0419301   0.0000000), wk =   0.2500000
        k(    8) = (  -0.0759910  -0.0000099   0.0000000), wk =   0.1250000
        k(    9) = (  -0.0759910   0.0419252   0.0000000), wk =   0.2500000
        k(   10) = (  -0.0759910  -0.0838800   0.0000000), wk =   0.1250000

[...]
        40           O1  tau(  40) = (   3.2547941   2.9573168  13.9810269  )
        41           O1  tau(  41) = (   4.4795624   4.4217236  16.2576866  )
        42           O1  tau(  42) = (   1.9661072   4.4245494  16.2354245  )
        43           Ti1 tau(  43) = (   3.2460457   5.9248689  15.8159566  )
        44           Ti1 tau(  44) = (   6.5493084   4.4657408  16.0645965  )
        45           O1  tau(  45) = (   3.2900926   2.9813045   4.7018136  )
        46           O1  tau(  46) = (   1.3039711   4.4726057   6.0039043  )
        47           O1  tau(  47) = (   5.2763189   4.4711207   6.0039473  )
        48           N1  tau(  48) = (   6.3414748   3.3468368  18.1959791  )
        49           C1  tau(  49) = (   0.8867005   2.9668400  19.0912423  )
        50           H1  tau(  50) = (   0.7231989   3.3264620  20.1111481  )
        51           H1  tau(  51) = (   1.8192569   3.3918166  18.7160236  )
        52           H1  tau(  52) = (   5.9087393   4.2020334  18.5361404  )
        53           H1  tau(  53) = (   5.6174406   2.6283739  18.2233508  )
        54           H1  tau(  54) = (   0.9839510   1.8785957  19.0950877  )

     number of k points=    10  Fermi-Dirac smearing, width (Ry)=  0.0073
                       cart. coord. in units 2pi/alat
        k(    1) = (   0.0000000   0.0000000   0.0000000), wk =   0.1250000
        k(    2) = (   0.0000000   0.0419351   0.0000000), wk =   0.2500000
        k(    3) = (   0.0000000  -0.0838702   0.0000000), wk =   0.1250000
        k(    4) = (   0.0379955   0.0000049   0.0000000), wk =   0.2500000
        k(    5) = (   0.0379955   0.0419400   0.0000000), wk =   0.2500000
        k(    6) = (   0.0379955  -0.0838652   0.0000000), wk =   0.2500000
        k(    7) = (   0.0379955  -0.0419301   0.0000000), wk =   0.2500000
        k(    8) = (  -0.0759910  -0.0000099   0.0000000), wk =   0.1250000
        k(    9) = (  -0.0759910   0.0419252   0.0000000), wk =   0.2500000
        k(   10) = (  -0.0759910  -0.0838800   0.0000000), wk =   0.1250000

     Initial potential from superposition of free atoms

     starting charge  375.99915, renormalised to  392.00000

[...]

     %%%%%%%%%%%%%%%%%%%%%%%%%%%%%%%%%%%%%%%%%%%%%%%%%%%%%%%%%%%%%%%%%%%%%%%%
     %                                                                      %
     % You are using vdW-DF, which was implemented by the Thonhauser group. %
     % Please cite the following two papers that made this development      %
     % possible and the two reviews that describe the various versions:     %
     %                                                                      %
     %   T. Thonhauser et al., PRL 115, 136402 (2015).                      %
     %   T. Thonhauser et al., PRB 76, 125112 (2007).                       %
     %   K. Berland et al., Rep. Prog. Phys. 78, 066501 (2015).             %
     %   D.C. Langreth et al., J. Phys.: Condens. Matter 21, 084203 (2009). %
     %                                                                      %
     %                                                                      %
     % If you are calculating the stress with vdW-DF, please also cite:     %
     %                                                                      %
     %   R. Sabatini et al., J. Phys.: Condens. Matter 24, 424209 (2012).   %
     %                                                                      %
     %%%%%%%%%%%%%%%%%%%%%%%%%%%%%%%%%%%%%%%%%%%%%%%%%%%%%%%%%%%%%%%%%%%%%%%%

[...]

     Starting wfcs are  297 atomic wfcs
  @ DRIVER MODE: Message from server: STATUS
  @ DRIVER MODE: Message from server: POSDATA
  @ DRIVER MODE: Reading and sharing cell
  @ DRIVER MODE: Reading and sharing positions
  @ DRIVER MODE: Received positions

[...]

     Self-consistent Calculation

[...]

     iteration # 17     ecut=    29.40 Ry     beta= 0.05
     Davidson diagonalization with overlap
     ethr =  5.26E-11,  avg # of iterations = 11.7

[...]

     total energy              =   -2921.63255559 Ry
     estimated scf accuracy    <       0.00000011 Ry

     iteration # 19     ecut=    29.40 Ry     beta= 0.05
     Davidson diagonalization with overlap
     c_bands:  1 eigenvalues not converged
     ethr =  2.73E-11,  avg # of iterations = 10.0

[...]

     End of self-consistent calculation

[...]

          k = 0.0380-0.0419 0.0000 ( 17876 PWs)   bands (ev):

[...]

          k =-0.0760-0.0839 0.0000 ( 17948 PWs)   bands (ev):

   -55.4134 -55.4043 -55.3607 -55.3602 -55.3513 -55.3065 -55.2889 -55.2864
   -55.2309 -55.2288 -55.2251 -55.1923 -55.1915 -55.0966 -54.3889 -54.3886
   -31.8040 -31.7998 -31.7967 -31.7143 -31.6883 -31.6853 -31.6849 -31.6520
   -31.6518 -31.6362 -31.6297 -31.6270 -31.6203 -31.5982 -31.5830 -31.5662
   -31.5622 -31.5598 -31.5580 -31.5530 -31.5528 -31.5500 -31.5069 -31.5050
   -31.5019 -31.4979 -31.4954 -31.4822 -31.4804 -31.4800 -31.4781 -31.4619
   -31.4584 -31.4424 -31.4386 -31.4247 -31.4217 -31.4191 -31.3733 -31.3731
   -31.3669 -31.3059 -30.7119 -30.7116 -30.6278 -30.6276 -30.5883 -30.5882
   -16.1283 -15.7782 -15.6916 -15.6360 -15.4604 -15.4326 -15.4184 -15.3989
   -15.2698 -15.2441 -15.2184 -15.1960 -15.1749 -15.1374 -15.1297 -15.1249
   -15.0471 -15.0341 -15.0284 -15.0138 -14.9445 -14.9355 -14.9316 -14.9254
   -14.8751 -14.8713 -14.8283 -14.7777 -14.7744 -14.5595 -12.8926 -12.8925
   -10.2160  -6.2765  -4.8067  -3.9132  -2.9617  -2.9352  -2.8923  -2.8920
    -2.6766  -2.6390  -2.6036  -2.5796  -2.4880  -2.4457  -2.4268  -2.4261
    -2.3518  -2.3315  -2.3200  -2.2684  -2.2634  -2.2516  -2.2280  -2.1959
    -2.1702  -2.1558  -2.1460  -2.1275  -2.0839  -2.0701  -2.0503  -2.0300
    -2.0240  -2.0113  -1.9823  -1.9425  -1.8117  -1.8006  -1.7399  -1.6326
    -1.6277  -1.5525  -1.5420  -1.4971  -1.4836  -1.4590  -1.4244  -1.2449
    -1.2028  -1.1721  -1.1626  -1.1080  -1.0319  -1.0153  -0.9526  -0.9313
    -0.9131  -0.8084  -0.7654  -0.7503  -0.6602  -0.6517  -0.5689  -0.5189
    -0.4585  -0.4328  -0.3980  -0.3822  -0.3801  -0.3323  -0.3266  -0.2428
    -0.1970  -0.1608  -0.1473  -0.1151   0.0838   0.0908   0.1133   0.2589
     0.2785   0.4139   0.4411   0.4925   0.5722   0.6053   0.6858   0.7187
     0.8482   0.8789   0.8814   0.9511   0.9654   1.0275   1.0379   1.9736
     1.9743   2.0608   2.0611   3.8213   3.9130   3.9331   3.9756   4.0886
     4.1632   4.1878   4.2094   4.2564   4.2596   4.3207

     the Fermi energy is     3.7344 ev

!    total energy              =   -2921.63256681 Ry
     estimated scf accuracy    <       0.00000004 Ry
     smearing contrib. (-TS)   =      -0.03702997 Ry
     internal energy E=F+TS    =   -2921.59553684 Ry

     The total energy is F=E-TS. E is the sum of the following terms:
     one-electron contribution =  -24082.18130098 Ry
     hartree contribution      =   12130.23055295 Ry
     xc contribution           =    -481.76093158 Ry
     ewald contribution        =    9512.11292728 Ry
     electric field correction =       0.00321550 Ry

     convergence has been achieved in  19 iterations

     Forces acting on atoms (cartesian axes, Ry/au):

     atom    1 type  1   force =     0.00006766   -0.00021923    0.09317175
     atom    2 type  1   force =    -0.00012162   -0.00041876   -0.17824000
     atom    3 type  2   force =     0.00003430   -0.00038422   -0.02022648
     atom    4 type  2   force =    -0.00000327   -0.00185201    0.05855117
     atom    5 type  2   force =    -0.00993679   -0.00080122    0.00750086
     atom    6 type  2   force =     0.01147527   -0.00024962    0.00679967
     atom    7 type  1   force =    -0.00038349    0.00196458   -0.01464011
     atom    8 type  1   force =     0.00012811   -0.00009258   -0.00501346
     atom    9 type  2   force =    -0.00009649   -0.00007307    0.00001363
     atom   10 type  2   force =    -0.00116730    0.00221289   -0.00031918
     atom   11 type  2   force =     0.00002137   -0.00019363    0.00005780
     atom   12 type  2   force =     0.00060587   -0.00052595    0.00012992
     atom   13 type  1   force =    -0.00065278    0.00032697   -0.00035916
     atom   14 type  1   force =     0.00000667   -0.00063314    0.00006965
     atom   15 type  2   force =    -0.00000870   -0.00058454   -0.00042639
     atom   16 type  2   force =     0.00025712    0.00062598    0.00050801
     atom   17 type  2   force =    -0.00001431   -0.00064133    0.00036526
     atom   18 type  2   force =     0.00011143   -0.00017548    0.00033419
     atom   19 type  1   force =     0.00003745   -0.00034631    0.00178489
     atom   20 type  1   force =    -0.00030628    0.00047661    0.00024590
     atom   21 type  2   force =     0.00002379   -0.00007126    0.10390383
     atom   22 type  2   force =     0.00015280   -0.00020817    0.00054742
     atom   23 type  2   force =    -0.07046509   -0.00016052   -0.02692958
     atom   24 type  2   force =     0.07030989    0.00028453   -0.02697282
     atom   25 type  1   force =     0.00001007   -0.00014173    0.09268061
     atom   26 type  1   force =    -0.00019380   -0.00047175   -0.17826402
     atom   27 type  2   force =     0.00008695   -0.00021894   -0.01927992
     atom   28 type  2   force =     0.00002699   -0.00163515    0.05789917
     atom   29 type  2   force =    -0.01050772   -0.00095255    0.00820216
     atom   30 type  2   force =     0.01193440   -0.00050922    0.00742890
     atom   31 type  1   force =    -0.00033776    0.00606790   -0.01542865
     atom   32 type  1   force =     0.00013728   -0.00037194   -0.00542930
     atom   33 type  2   force =     0.00035014   -0.00011121   -0.00031632
     atom   34 type  2   force =    -0.00062069   -0.00202294   -0.00049712
     atom   35 type  2   force =    -0.00037523   -0.00003698    0.00025558
     atom   36 type  2   force =     0.00068608   -0.00007929   -0.00003257
     atom   37 type  1   force =    -0.00035118   -0.00027177    0.00027096
     atom   38 type  1   force =     0.00002467    0.00035301   -0.00003022
     atom   39 type  2   force =     0.00015222   -0.00016015    0.00017948
     atom   40 type  2   force =     0.00017248    0.00024268    0.00012381
     atom   41 type  2   force =    -0.00050726    0.00020242   -0.00008901
     atom   42 type  2   force =     0.00043447    0.00077787   -0.00013494
     atom   43 type  1   force =     0.00038703    0.00059148    0.00024258
     atom   44 type  1   force =     0.00044977    0.00045882    0.00025097
     atom   45 type  2   force =     0.00003065   -0.00007544    0.10387339
     atom   46 type  2   force =    -0.07043504   -0.00010500   -0.02686581
     atom   47 type  2   force =     0.07028819    0.00032202   -0.02692152
     atom   48 type  3   force =    -0.00002510   -0.00140599    0.00047796
     atom   49 type  4   force =     0.00068322   -0.00075919   -0.00017791
     atom   50 type  5   force =    -0.00050369    0.00021692    0.00046229
     atom   51 type  5   force =    -0.00020657    0.00021096    0.00002239
     atom   52 type  5   force =    -0.00088417   -0.00036972    0.00016058
     atom   53 type  5   force =    -0.00083537    0.00054720   -0.00014778
     atom   54 type  5   force =    -0.00014664    0.00144717    0.00022749

     Total force =     0.366020     Total SCF correction =     0.000652
  @ DRIVER MODE: Message from server: STATUS
  @ DRIVER MODE: Message from server: GETFORCE
  @ DRIVER MODE: Returning v,forces,stress,ensemble

     Writing output data file ./calc.save/
  @ DRIVER MODE: Message from server: STATUS
  @ DRIVER MODE: Message from server: INIT
  @ DRIVER MODE: Receiving replica           0           0
  @ DRIVER MODE: Receiving encoded integer           2
  @ DRIVER MODE:  SCF:  T  FORCE:  T  STRESS:  F  VC:  F  ENSEMBLE:  F
  @ DRIVER MODE:  SCF:  F  FORCE:  F  STRESS:  F  VC:  F  ENSEMBLE:  T
  @ DRIVER MODE: Message from server: STATUS
  @ DRIVER MODE: Message from server: POSDATA
  @ DRIVER MODE: Reading and sharing positions
  @ DRIVER MODE: Received positions
     NEW-OLD atomic charge density approx. for the potential

[...]

     Adding external electric field

     Computed dipole along edir(3) :
        Dipole                1.3053 Ry au,          3.3178 Debye
        Dipole field          0.0025 Ry au,

        Potential amp.       -0.2283 Ry
        Total length         46.3494 bohr

  @ DRIVER MODE: BEEF-vdw

[...]

     negative rho (up, down):  1.723E-02 0.000E+00

     negative rho (up, down):  1.723E-02 0.000E+00
 BEEFens 2000 ensemble energies
             -0.345837789721232E+02
             -0.201261363364772E+01
             -0.712443901835067E+01
              0.240016113433190E+02
             -0.118859613629278E+02
             -0.918780550314983E+01
             -0.239956662832225E+02
             -0.501706296022171E+02
             -0.214045713146520E+02
             -0.225309981345570E+02
             -0.209436271005132E+02
              0.425685081111360E+01
              0.198898053356001E+01
             -0.106913121771430E+01
              0.171828979841476E+01
              0.264398170418452E+02
             -0.101787393251670E+02
             -0.717462329272072E+01
              0.117108507980882E+02
             -0.617570470926139E+02
              0.309619942693736E+02
             -0.132801550417799E+02
             -0.239471470541776E+01
             -0.558233877122376E+01
             -0.959917189066061E+00
             -0.210879149179692E+01
              0.478838629798664E+02
             -0.150090031597721E+02
             -0.399519567157142E+01
             -0.302907719132598E+02
              0.391252082366138E+02
             -0.431215329881910E+01
             -0.212978483035518E+02
              0.111860570806097E+02
             -0.204786406456191E+01
              0.129955019568660E+02
             -0.539038755102013E+00
              0.271523358109549E+01
              0.189023126743005E+02
             -0.544865683053248E+02
              0.303681099788000E+02
              0.811084730404669E+01
             -0.625325699025242E+01
             -0.174230301203211E+02
              0.687804493887805E+01
             -0.109336370011694E+02
              0.248313049608739E+02
              0.198372930601960E+02
             -0.127782864761361E+02
             -0.163195190752000E+02
             -0.172589995121044E+02
             -0.207436212287262E+02
              0.105456858982552E+02
             -0.270066008013403E+02
              0.827622052900801E+01
              0.345241488356491E+02
              0.398048826703640E+02
              0.185373372186793E+02
              0.826768788792131E+01
              0.173077663580370E+02
[...]
             -0.406953815169816E+02
              0.278549841492958E+01
             -0.145575902108780E+01
             -0.566611273376105E+01
              0.497719079717456E-01
             -0.362209554546271E+02
             -0.697460057757000E+01
              0.491380102862235E+01
              0.740984887099516E+01
              0.271521536121256E+02
             -0.237353240349607E+02
              0.309461589000321E+02
             -0.221696779836792E+02
              0.142636980837306E+02
              0.224324820442537E+02

 BEEF-vdW xc energy contributions
           1 :   -408.165576610974
           2 :    355.563330026731
           3 :   -270.690808428275
           4 :    182.143137030060
           5 :   -112.666669569128
           6 :    71.2251783901635
           7 :   -53.9977185481971
           8 :    50.9262624789581
           9 :   -52.6216275508076
          10 :    53.8847249698841
          11 :   -53.4694924856636
          12 :    51.9050850894600
          13 :   -49.6311778368543
          14 :    46.4486331943395
          15 :   -42.0339852898130
          16 :    36.5957043722144
          17 :   -31.0362167777428
          18 :    26.5249095198350
          19 :   -23.8851245958914
          20 :    23.2262185725363
          21 :   -24.0256082546315
          22 :    25.4960137831766
          23 :   -26.9383584866335
          24 :    27.8780780729422
          25 :   -28.0259018441763
          26 :    27.2148009026033
          27 :   -25.4208250274626
          28 :    22.8421710863054
          29 :   -19.9363311596815
          30 :    17.3217018765732
          31 :   -47.9813834717012
          32 :   -32.5704972367989
  @ DRIVER MODE: Message from server: STATUS
  @ DRIVER MODE: Message from server: GETFORCE
  @ DRIVER MODE: Returning v,forces,stress,ensemble
  @ DRIVE MODE: Returning Ensemble Energies

     Writing output data file ./calc.save/
  @ DRIVER MODE: Message from server: EXIT
  @ DRIVE MODE: Exiting

     General routines

     Parallel routines

   This run was terminated on:  19:33:13  19Aug2021

   JOB DONE.