     Program PWSCF v.6.7GPU starts on  5Oct2021 at 13:44: 5

     R & G space division:  proc/nbgrp/npool/nimage =       8
     Reading input from /storage/home/hcoda1/3/ntian30/research/carbon/CxH_vib/pristine/ads_slab/CH2N2_a/out_0008/pw.inp
Warning: card &CELL ignored
Warning: card   CELL_DYNAMICS='IPI', ignored
Warning: card / ignored

     Current dimensions of program PWSCF are:
     Max number of different atomic species (ntypx) = 10
     Max number of k-points (npk) =  40000
     Max angular momentum in pseudopotentials (lmaxx) =  3
     Presently no symmetry can be used with electric field

     Message from routine cell_base_init:
     DEPRECATED: use true lattice parameter, not A to a.u. conversion factor

     IMPORTANT: XC functional enforced from input :
     Exchange-correlation= BEEF-VDW
                           (   1   4  43  14   2   0   0)
     Any further DFT definition will be discarded
     Please, verify this is what you really want

  @ DRIVER MODE: Connecting to
 qe_1139763_3091261.sched-torque.pace.gatech.eduy3opsez2_scratch
  using UNIX socket
  @ DRIVER MODE: Message from server: STATUS
  @ DRIVER MODE: Message from server: INIT
  @ DRIVER MODE: Receiving replica           0          -1
  @ DRIVER MODE: Receiving encoded integer          25
  @ DRIVER MODE:  SCF:  T  FORCE:  T  STRESS:  F  VC:  F  ENSEMBLE:  F
  @ DRIVER MODE:  SCF:  T  FORCE:  T  STRESS:  F  VC:  F  ENSEMBLE:  F

     Using Slab Decomposition

     bravais-lattice index     =            0
     lattice parameter (alat)  =       1.8897  a.u.
     unit-cell volume          =    6658.9804 (a.u.)^3
     number of atoms/cell      =           53
     number of atomic types    =            5
     number of electrons       =       400.00
     number of Kohn-Sham states=          210
     kinetic-energy cutoff     =      29.3995  Ry
     charge density cutoff     =     293.9946  Ry
     scf convergence threshold =      7.3E-08
     mixing beta               =       0.0500
     number of iterations used =            8  plain     mixing
     Exchange-correlation= BEEF-VDW
                           (   1   4  43  14   2   0   0)

     celldm(1)=   1.889726  celldm(2)=   0.000000  celldm(3)=   0.000000
     celldm(4)=   0.000000  celldm(5)=   0.000000  celldm(6)=   0.000000

     crystal axes: (cart. coord. in units of alat)
               a(1) = (   6.579727   0.000000   0.000000 )
               a(2) = (  -0.000775   5.961596   0.000000 )
               a(3) = (   0.000000   0.000000  25.155947 )

     reciprocal axes: (cart. coord. in units 2 pi/alat)
               b(1) = (  0.151982  0.000020  0.000000 )
               b(2) = (  0.000000  0.167740  0.000000 )
               b(3) = (  0.000000  0.000000  0.039752 )

     PseudoPot. # 1 for Ti read from file:
     /storage/coda1/p-amedford6/0/shared/rich_project_chbe-medford/medford-share/data/pseudos_module/espresso/nninc/pbe/van/Ti.UPF
     MD5 check sum: 8e4df49b7f0d34bbd5052bf3f5ea0213
     Pseudo is Ultrasoft, Zval = 12.0
     Generated by new atomic code, or converted to UPF format
     Using radial grid of  851 points,  6 beta functions with:
                l(1) =   0
                l(2) =   0
                l(3) =   1
                l(4) =   1
                l(5) =   2
                l(6) =   2
     Q(r) pseudized with  8 coefficients,  rinner =    1.000   1.000   1.000
                                                       1.000   1.000

     PseudoPot. # 2 for O  read from file:
     /storage/coda1/p-amedford6/0/shared/rich_project_chbe-medford/medford-share/data/pseudos_module/espresso/nninc/pbe/van/O.UPF
     MD5 check sum: 78c19812648e8988a0fe644b0f25305e
     Pseudo is Ultrasoft, Zval =  6.0
     Generated by new atomic code, or converted to UPF format
     Using radial grid of  737 points,  4 beta functions with:
                l(1) =   0
                l(2) =   0
                l(3) =   1
                l(4) =   1
     Q(r) pseudized with  8 coefficients,  rinner =    0.800   0.800   0.800

     PseudoPot. # 3 for N  read from file:
     /storage/coda1/p-amedford6/0/shared/rich_project_chbe-medford/medford-share/data/pseudos_module/espresso/nninc/pbe/van/N.UPF
     MD5 check sum: 90d10febe142ad51ac9d5be1deb811c4
     Pseudo is Ultrasoft, Zval =  5.0
     Generated by new atomic code, or converted to UPF format
     Using radial grid of  729 points,  4 beta functions with:
                l(1) =   0
                l(2) =   0
                l(3) =   1
                l(4) =   1
     Q(r) pseudized with  8 coefficients,  rinner =    0.800   0.800   0.800

     PseudoPot. # 4 for C  read from file:
     /storage/coda1/p-amedford6/0/shared/rich_project_chbe-medford/medford-share/data/pseudos_module/espresso/nninc/pbe/van/C.UPF
     MD5 check sum: 1a69bf6b8db32088f5b2163dbdb77a27
     Pseudo is Ultrasoft, Zval =  4.0
     Generated by new atomic code, or converted to UPF format
     Using radial grid of  721 points,  4 beta functions with:
                l(1) =   0
                l(2) =   0
                l(3) =   1
                l(4) =   1
     Q(r) pseudized with  8 coefficients,  rinner =    0.800   0.800   0.800

     PseudoPot. # 5 for H  read from file:
     /storage/coda1/p-amedford6/0/shared/rich_project_chbe-medford/medford-share/data/pseudos_module/espresso/nninc/pbe/van/H.UPF
     MD5 check sum: b5ee9d7bfd3a09ee7748110bda690ff7
     Pseudo is Ultrasoft, Zval =  1.0
     Generated by new atomic code, or converted to UPF format
     Using radial grid of  615 points,  1 beta functions with:
                l(1) =   0
     Q(r) pseudized with  8 coefficients,  rinner =    0.800

     atomic species   valence    mass     pseudopotential
        Ti1           12.00    47.86700     Ti( 1.00)
        O1             6.00    15.99900     O ( 1.00)
        N1             5.00    14.00700     N ( 1.00)
        C1             4.00    12.01100     C ( 1.00)
        H1             1.00     1.00800     H ( 1.00)

     No symmetry found

   Cartesian axes

     site n.     atom                  positions (alat units)
         1           Ti1 tau(   1) = (   0.0004258   2.9801865   6.0000000  )
         2           Ti1 tau(   2) = (   3.2906075   1.4906267   6.0002472  )
         3           O1  tau(   3) = (   0.0006271   0.0005054   7.9858123  )
         4           O1  tau(   4) = (   3.2906025   0.0005020   7.3038282  )
         5           O1  tau(   5) = (   4.5942328   1.4918067   9.2879030  )
         6           O1  tau(   6) = (   1.9868534   1.4903216   9.2879459  )
         7           Ti1 tau(   7) = (   3.2967797   2.8647345   9.1688538  )
         8           Ti1 tau(   8) = (   0.0139078   1.4260134   9.3797207  )
         9           O1  tau(   9) = (   3.2818202   5.9426219  11.3413624  )
        10           O1  tau(  10) = (  -0.0006713   5.9438105  10.5613913  )
        11           O1  tau(  11) = (   1.2629550   1.4689526  12.6431422  )
        12           O1  tau(  12) = (   5.2627372   1.4724369  12.6244454  )
        13           Ti1 tau(  13) = (   0.0649248   2.9521173  12.8162972  )
        14           Ti1 tau(  14) = (   3.3900010   1.4623865  12.4921655  )
        15           O1  tau(  15) = (   6.5612248   5.9427239  14.6529025  )
        16           O1  tau(  16) = (   3.2707349   5.9499158  13.9186396  )
        17           O1  tau(  17) = (   4.5120437   1.4930778  16.0516072  )
        18           O1  tau(  18) = (   2.0188724   1.4901805  16.0528637  )
        19           Ti1 tau(  19) = (   3.2526435   2.9656207  15.7242400  )
        20           Ti1 tau(  20) = (   6.5390660   1.5270114  16.1581541  )
        21           O1  tau(  21) = (   3.2904802   0.0005063   4.7018136  )
        22           O1  tau(  22) = (   6.5517350   0.0054997  17.2382445  )
        23           O1  tau(  23) = (   1.3043587   1.4918075   6.0039043  )
        24           O1  tau(  24) = (   5.2767064   1.4903225   6.0039473  )
        25           Ti1 tau(  25) = (   0.0000382   5.9609847   6.0000000  )
        26           Ti1 tau(  26) = (   3.2902200   4.4714249   6.0002472  )
        27           O1  tau(  27) = (   0.0002396   2.9813036   7.9858123  )
        28           O1  tau(  28) = (   3.2902150   2.9813002   7.3038282  )
        29           O1  tau(  29) = (   4.5938453   4.4726049   9.2879030  )
        30           O1  tau(  30) = (   1.9864658   4.4711199   9.2879459  )
        31           Ti1 tau(  31) = (   3.2991641   5.8454459   9.1677744  )
        32           Ti1 tau(  32) = (   0.0142928   4.4069258   9.3804372  )
        33           O1  tau(  33) = (   3.2794024   2.9620648  11.3429404  )
        34           O1  tau(  34) = (   0.0008107   2.9631099  10.5617750  )
        35           O1  tau(  35) = (   1.2628400   4.4505553  12.6449227  )
        36           O1  tau(  36) = (   5.2621040   4.4508628  12.6271667  )
        37           Ti1 tau(  37) = (   0.0634051   5.9337149  12.8176510  )
        38           Ti1 tau(  38) = (   3.3888395   4.4462795  12.4902329  )
        39           O1  tau(  39) = (   6.5643088   2.9532696  14.6533357  )
        40           O1  tau(  40) = (   3.2687884   2.9653797  13.9163527  )
        41           O1  tau(  41) = (   4.5138939   4.4677068  16.0260545  )
        42           O1  tau(  42) = (   2.0159196   4.4685127  16.0260682  )
        43           Ti1 tau(  43) = (   3.2551286   5.9518885  15.7372992  )
        44           Ti1 tau(  44) = (   6.5382561   4.5045293  16.1449140  )
        45           O1  tau(  45) = (   3.2900926   2.9813045   4.7018136  )
        46           O1  tau(  46) = (   6.5520679   2.9954315  17.2342401  )
        47           O1  tau(  47) = (   1.3039711   4.4726057   6.0039043  )
        48           O1  tau(  48) = (   5.2763189   4.4711207   6.0039473  )
        49           N1  tau(  49) = (   3.2718132   4.4933032  18.6889481  )
        50           N1  tau(  50) = (   3.2719367   3.3563452  18.5802627  )
        51           C1  tau(  51) = (   3.2831389   5.7900214  18.6539038  )
        52           H1  tau(  52) = (   2.3406966   0.3270794  18.8225995  )
        53           H1  tau(  53) = (   4.2401870   0.3074325  18.8013464  )

     number of k points=    10  Fermi-Dirac smearing, width (Ry)=  0.0073
                       cart. coord. in units 2pi/alat
        k(    1) = (   0.0000000   0.0000000   0.0000000), wk =   0.1250000
        k(    2) = (   0.0000000   0.0419351   0.0000000), wk =   0.2500000
        k(    3) = (   0.0000000  -0.0838702   0.0000000), wk =   0.1250000
        k(    4) = (   0.0379955   0.0000049   0.0000000), wk =   0.2500000
        k(    5) = (   0.0379955   0.0419400   0.0000000), wk =   0.2500000
        k(    6) = (   0.0379955  -0.0838652   0.0000000), wk =   0.2500000
        k(    7) = (   0.0379955  -0.0419301   0.0000000), wk =   0.2500000
        k(    8) = (  -0.0759910  -0.0000099   0.0000000), wk =   0.1250000
        k(    9) = (  -0.0759910   0.0419252   0.0000000), wk =   0.2500000
        k(   10) = (  -0.0759910  -0.0838800   0.0000000), wk =   0.1250000

     Initial potential from superposition of free atoms

     starting charge  383.99917, renormalised to  400.00000

     negative rho (up, down):  1.829E-02 0.000E+00

     %%%%%%%%%%%%%%%%%%%%%%%%%%%%%%%%%%%%%%%%%%%%%%%%%%%%%%%%%%%%%%%%%%%%%%%%
     %                                                                      %
     % You are using vdW-DF, which was implemented by the Thonhauser group. %
     % Please cite the following two papers that made this development      %
     % possible and the two reviews that describe the various versions:     %
     %                                                                      %
     %   T. Thonhauser et al., PRL 115, 136402 (2015).                      %
     %   T. Thonhauser et al., PRB 76, 125112 (2007).                       %
     %   K. Berland et al., Rep. Prog. Phys. 78, 066501 (2015).             %
     %   D.C. Langreth et al., J. Phys.: Condens. Matter 21, 084203 (2009). %
     %                                                                      %
     %                                                                      %
     % If you are calculating the stress with vdW-DF, please also cite:     %
     %                                                                      %
     %   R. Sabatini et al., J. Phys.: Condens. Matter 24, 424209 (2012).   %
     %                                                                      %
     %%%%%%%%%%%%%%%%%%%%%%%%%%%%%%%%%%%%%%%%%%%%%%%%%%%%%%%%%%%%%%%%%%%%%%%%

     Adding external electric field

     Computed dipole along edir(3) :
        Dipole               -9.8398 Ry au,        -25.0102 Debye
        Dipole field         -0.0186 Ry au,

        Potential amp.        1.7213 Ry
        Total length         46.3494 bohr

     Starting wfcs are  302 atomic wfcs
  @ DRIVER MODE: Message from server: STATUS
  @ DRIVER MODE: Message from server: POSDATA
  @ DRIVER MODE: Reading and sharing cell
  @ DRIVER MODE: Reading and sharing positions
  @ DRIVER MODE: Received positions

     Self-consistent Calculation

     iteration #  1     ecut=    29.40 Ry     beta= 0.05
     Davidson diagonalization with overlap
     c_bands:  1 eigenvalues not converged
     c_bands:  2 eigenvalues not converged
     c_bands:  1 eigenvalues not converged
     c_bands:  2 eigenvalues not converged
     c_bands:  2 eigenvalues not converged
     c_bands:  2 eigenvalues not converged
     c_bands:  1 eigenvalues not converged
     c_bands:  3 eigenvalues not converged
     ethr =  1.00E-05,  avg # of iterations = 20.0

[...]

     total energy              =   -2519.78139113 Ry
     estimated scf accuracy    <    5013.08195503 Ry

     iteration #  2     ecut=    29.40 Ry     beta= 0.05
     Davidson diagonalization with overlap
     ethr =  1.00E-02,  avg # of iterations = 25.1

[...]

     iteration # 56     ecut=    29.40 Ry     beta= 0.05
     Davidson diagonalization with overlap
     c_bands:  4 eigenvalues not converged
     c_bands:  1 eigenvalues not converged
     c_bands:  1 eigenvalues not converged
     c_bands:  1 eigenvalues not converged
     ethr =  6.49E-07,  avg # of iterations = 14.2

[...]

     total energy              =   -2970.35088572 Ry
     estimated scf accuracy    <       0.00000023 Ry

     iteration # 78     ecut=    29.40 Ry     beta= 0.05
     Davidson diagonalization with overlap
     ethr =  5.86E-11,  avg # of iterations =  4.8

     negative rho (up, down):  1.789E-02 0.000E+00

     Adding external electric field

     Computed dipole along edir(3) :
        Dipole                0.5371 Ry au,          1.3651 Debye
        Dipole field          0.0010 Ry au,

        Potential amp.       -0.0940 Ry
        Total length         46.3494 bohr

     End of self-consistent calculation

          k = 0.0000 0.0000 0.0000 ( 18029 PWs)   bands (ev):

   -56.2388 -56.2052 -55.8895 -55.8538 -55.7646 -55.7296 -55.6314 -55.6075
   -55.5968 -55.5735 -55.5268 -55.4917 -55.4808 -55.4441 -55.0118 -54.9778
   -32.6657 -32.4864 -32.4585 -32.4301 -32.4245 -32.3390 -32.2926 -32.2387
   -32.1857 -32.1344 -32.1035 -32.0995 -32.0686 -32.0669 -32.0511 -32.0453
   -32.0320 -32.0125 -32.0067 -31.9909 -31.9054 -31.8825 -31.8720 -31.8607
   -31.8512 -31.8461 -31.8227 -31.8140 -31.8008 -31.7722 -31.7654 -31.7438
   -31.7371 -31.7238 -31.7058 -31.7040 -31.7039 -31.6872 -31.6846 -31.6566
   -31.6308 -31.5516 -31.4111 -31.3390 -31.3151 -31.2295 -31.1445 -31.0327
   -21.0537 -16.5566 -16.3929 -16.1718 -16.0184 -15.9294 -15.7982 -15.6028
   -15.5775 -15.4845 -15.4820 -15.4584 -15.3877 -15.3872 -15.3538 -15.3486
   -15.3199 -15.2988 -15.2592 -15.2425 -15.2401 -15.1975 -15.1377 -15.1121
   -15.0194 -14.9723 -14.8671 -14.8619 -14.8315 -14.7469 -14.7158 -14.2803
   -13.5057 -13.3923  -6.8082  -5.8723  -5.1011  -3.9839  -3.9282  -3.8934
    -3.7782  -3.7592  -3.6329  -3.3547  -3.2997  -3.0486  -2.9937  -2.9769
    -2.9314  -2.9095  -2.8420  -2.8309  -2.7375  -2.7329  -2.6866  -2.6797
    -2.6465  -2.6442  -2.6277  -2.5672  -2.5463  -2.4614  -2.4528  -2.4211
    -2.3928  -2.2797  -2.2351  -2.1904  -2.1886  -2.1598  -2.0605  -2.0529
    -2.0391  -2.0098  -1.9275  -1.8766  -1.7495  -1.6491  -1.6329  -1.5877
    -1.5267  -1.4940  -1.2952  -1.2478  -1.2441  -1.2230  -1.2008  -1.1882
    -1.1195  -1.0530  -0.9303  -0.8559  -0.8296  -0.7748  -0.7541  -0.7482
    -0.7289  -0.6508  -0.6212  -0.6148  -0.5917  -0.4506  -0.3052  -0.2662
    -0.2438  -0.2292  -0.2074  -0.1283  -0.1120  -0.0758  -0.0348  -0.0173
     0.0029   0.0513   0.0798   0.0886   0.1930   0.2132   0.2746   0.2959
     0.3057   0.3413   0.3852   0.5309   0.6176   0.7313   0.7404   0.8199
     0.9680   0.9748   1.0157   1.2202   1.2301   1.2772   1.6012   1.6743
     3.0332   3.2166   3.4483   3.5188   3.5391   3.6318   3.7374   3.7673
     3.8340   3.9129

[...]

          k = 0.0380-0.0419 0.0000 ( 17876 PWs)   bands (ev):

[...]

          k =-0.0760-0.0000 0.0000 ( 17886 PWs)   bands (ev):

[...]

          k =-0.0760-0.0839 0.0000 ( 17948 PWs)   bands (ev):

   -56.2220 -56.2219 -55.8719 -55.8712 -55.7493 -55.7447 -55.6148 -55.6133
   -55.5908 -55.5899 -55.5099 -55.5086 -55.4628 -55.4620 -54.9948 -54.9947
   -32.4832 -32.4831 -32.4721 -32.4719 -32.3829 -32.3828 -32.2307 -32.2264
   -32.1355 -32.1308 -32.0779 -32.0769 -32.0673 -32.0565 -32.0367 -32.0283
   -31.9545 -31.9471 -31.9360 -31.9343 -31.9208 -31.9200 -31.8544 -31.8540
   -31.8430 -31.8417 -31.8360 -31.8355 -31.8295 -31.8292 -31.8010 -31.8002
   -31.7899 -31.7836 -31.7258 -31.7248 -31.7164 -31.7153 -31.6991 -31.6979
   -31.6825 -31.6816 -31.3280 -31.3280 -31.2254 -31.2253 -31.1871 -31.1871
   -21.0527 -15.9775 -15.9658 -15.7722 -15.7672 -15.7042 -15.7040 -15.6638
   -15.6614 -15.6114 -15.6101 -15.4719 -15.4687 -15.4680 -15.4634 -15.3878
   -15.3865 -15.3724 -15.3713 -15.3205 -15.3188 -15.1845 -15.1833 -15.0972
   -15.0962 -15.0524 -15.0516 -14.9955 -14.9948 -14.8955 -14.8817 -14.2925
   -13.4947 -13.4947  -6.6509  -5.8428  -5.0895  -4.1522  -3.2632  -3.2499
    -2.9839  -2.9780  -2.8844  -2.8629  -2.8489  -2.8258  -2.8242  -2.7391
    -2.7308  -2.7075  -2.7020  -2.6746  -2.6704  -2.6131  -2.6117  -2.5890
    -2.5833  -2.5736  -2.5725  -2.5672  -2.5650  -2.4756  -2.4722  -2.4588
    -2.4568  -2.3843  -2.3781  -2.3440  -2.3317  -2.1234  -2.1229  -2.0535
    -2.0524  -1.9344  -1.9331  -1.9167  -1.9128  -1.8767  -1.8370  -1.5983
    -1.5961  -1.5388  -1.5361  -1.4869  -1.4727  -1.3669  -1.3378  -1.2103
    -1.1912  -1.1750  -1.1675  -1.0173  -1.0137  -1.0119  -1.0083  -0.9845
    -0.9811  -0.8652  -0.8516  -0.7655  -0.7585  -0.7416  -0.7381  -0.6999
    -0.6823  -0.5321  -0.5317  -0.5086  -0.5029  -0.3615  -0.3603  -0.3012
    -0.2945  -0.0526  -0.0444   0.0679   0.0682   0.2977   0.3316   0.3526
     0.3638   0.5063   0.5148   0.5286   0.5375   0.6627   0.6672   0.6841
     0.6900   0.7771   0.7771   1.2170   1.4034   1.4039   1.4557   1.4558
     3.5741   3.5785   3.5831   3.5875   3.6278   3.6294   3.6749   3.6767
     3.9323   3.9546

     the Fermi energy is     2.4060 ev

!    total energy              =   -2970.35090069 Ry
     estimated scf accuracy    <       0.00000005 Ry
     smearing contrib. (-TS)   =      -0.00009817 Ry
     internal energy E=F+TS    =   -2970.35080253 Ry

     The total energy is F=E-TS. E is the sum of the following terms:
     one-electron contribution =  -24066.90393207 Ry
     hartree contribution      =   12123.76554683 Ry
     xc contribution           =    -491.48434201 Ry
     ewald contribution        =    9464.27138038 Ry
     electric field correction =       0.00054435 Ry

     convergence has been achieved in  78 iterations

     Forces acting on atoms (cartesian axes, Ry/au):

     atom    1 type  1   force =     0.00011439   -0.00010369    0.14849049
     atom    2 type  1   force =    -0.00010588   -0.00048959   -0.16837005
     atom    3 type  2   force =     0.00014030    0.00223411   -0.05994678
     atom    4 type  2   force =     0.00015590   -0.00146757    0.03993137
     atom    5 type  2   force =    -0.02119743   -0.00097584    0.00397532
     atom    6 type  2   force =     0.02099340    0.00032538    0.00310641
     atom    7 type  1   force =    -0.00011607   -0.00019126   -0.00001199
     atom    8 type  1   force =    -0.00022312    0.00002830    0.00002972
     atom    9 type  2   force =    -0.00023540   -0.00005709    0.00011131
     atom   10 type  2   force =     0.00001536   -0.00000303    0.00006403
     atom   11 type  2   force =     0.00000609   -0.00006534   -0.00012487
     atom   12 type  2   force =    -0.00009641   -0.00013517   -0.00006700
     atom   13 type  1   force =    -0.00008405   -0.00000822   -0.00008324
     atom   14 type  1   force =     0.00006100   -0.00002699    0.00005732
     atom   15 type  2   force =     0.00011487    0.00001047   -0.00002254
     atom   16 type  2   force =     0.00007452   -0.00004483    0.00012952
     atom   17 type  2   force =     0.00005055   -0.00016135    0.00015601
     atom   18 type  2   force =     0.00021364   -0.00004299   -0.00001744
     atom   19 type  1   force =     0.00031524    0.00006283   -0.00001652
     atom   20 type  1   force =    -0.00019482   -0.00005264   -0.00014321
     atom   21 type  2   force =     0.00004257   -0.00004560    0.10205090
     atom   22 type  2   force =     0.00006528   -0.00005734   -0.00004228
     atom   23 type  2   force =    -0.07526932    0.00015840   -0.03467822
     atom   24 type  2   force =     0.07520053    0.00058517   -0.03475072
     atom   25 type  1   force =     0.00011309   -0.00013034    0.14840267
     atom   26 type  1   force =    -0.00013015   -0.00086549   -0.16860496
     atom   27 type  2   force =     0.00012307    0.00218533   -0.05989946
     atom   28 type  2   force =     0.00009096   -0.00145910    0.04021429
     atom   29 type  2   force =    -0.02099371   -0.00108067    0.00395494
     atom   30 type  2   force =     0.02118800    0.00040797    0.00310515
     atom   31 type  1   force =    -0.00019552   -0.00009471   -0.00003027
     atom   32 type  1   force =    -0.00012463   -0.00005150   -0.00010776
     atom   33 type  2   force =     0.00013107    0.00008187    0.00002822
     atom   34 type  2   force =    -0.00008971    0.00002587   -0.00001509
     atom   35 type  2   force =    -0.00002571    0.00002754    0.00003544
     atom   36 type  2   force =    -0.00014659    0.00022510   -0.00014657
     atom   37 type  1   force =    -0.00006726   -0.00014979   -0.00004749
     atom   38 type  1   force =     0.00005459    0.00005440    0.00020653
     atom   39 type  2   force =    -0.00007604   -0.00001026   -0.00016686
     atom   40 type  2   force =     0.00011222    0.00001959    0.00007119
     atom   41 type  2   force =     0.00023954   -0.00004859    0.00002786
     atom   42 type  2   force =     0.00022839   -0.00011834    0.00029424
     atom   43 type  1   force =    -0.00005339    0.00031134    0.00022315
     atom   44 type  1   force =    -0.00006204    0.00005822    0.00002228
     atom   45 type  2   force =     0.00003996   -0.00005068    0.10204464
     atom   46 type  2   force =     0.00006809    0.00002765   -0.00011887
     atom   47 type  2   force =    -0.07527549    0.00019837   -0.03467599
     atom   48 type  2   force =     0.07520943    0.00062845   -0.03474602
     atom   49 type  3   force =     0.00158036   -0.00015989   -0.00115513
     atom   50 type  3   force =    -0.00097258    0.00037809    0.00107103
     atom   51 type  4   force =    -0.00170585   -0.00005546   -0.00058968
     atom   52 type  5   force =     0.00010283   -0.00013104    0.00028185
     atom   53 type  5   force =     0.00059591    0.00029998    0.00049316

     Total force =     0.401738     Total SCF correction =     0.000561
  @ DRIVER MODE: Message from server: STATUS
  @ DRIVER MODE: Message from server: GETFORCE
  @ DRIVER MODE: Returning v,forces,stress,ensemble

     Writing output data file ./calc.save/
  @ DRIVER MODE: Message from server: EXIT
  @ DRIVE MODE: Exiting

     General routines

     Parallel routines

   This run was terminated on:  14:10:24   5Oct2021

   JOB DONE.