     Program PWSCF v.6.7GPU starts on  9Sep2021 at  2:19:32

     R & G space division:  proc/nbgrp/npool/nimage =      10
     Reading input from /storage/home/hcoda1/3/ntian30/research/carbon/CxH_vib/CH_calc/ads_slab/CHNH_a/out_0017/pw.inp
Warning: card &CELL ignored
Warning: card   CELL_DYNAMICS='IPI', ignored
Warning: card / ignored

     Current dimensions of program PWSCF are:
     Max number of different atomic species (ntypx) = 10
     Max number of k-points (npk) =  40000
     Max angular momentum in pseudopotentials (lmaxx) =  3
     Presently no symmetry can be used with electric field

     Message from routine cell_base_init:
     DEPRECATED: use true lattice parameter, not A to a.u. conversion factor

     IMPORTANT: XC functional enforced from input :
     Exchange-correlation= BEEF-VDW
                           (   1   4  43  14   2   0   0)
     Any further DFT definition will be discarded
     Please, verify this is what you really want

  @ DRIVER MODE: Connecting to
 qe_1139763_2767380.sched-torque.pace.gatech.edu6exe5mmh_scratch
  using UNIX socket
  @ DRIVER MODE: Message from server: STATUS
  @ DRIVER MODE: Message from server: INIT
  @ DRIVER MODE: Receiving replica           0          -1
  @ DRIVER MODE: Receiving encoded integer          25
  @ DRIVER MODE:  SCF:  T  FORCE:  T  STRESS:  F  VC:  F  ENSEMBLE:  F
  @ DRIVER MODE:  SCF:  T  FORCE:  T  STRESS:  F  VC:  F  ENSEMBLE:  F

     Using Slab Decomposition

     bravais-lattice index     =            0
     lattice parameter (alat)  =       1.8897  a.u.
     unit-cell volume          =    6658.9804 (a.u.)^3
     number of atoms/cell      =           51
     number of atomic types    =            5
     number of electrons       =       389.00
     number of Kohn-Sham states=          204
     kinetic-energy cutoff     =      29.3995  Ry
     charge density cutoff     =     293.9946  Ry
     scf convergence threshold =      7.3E-08
     mixing beta               =       0.0500
     number of iterations used =            8  plain     mixing
     Exchange-correlation= BEEF-VDW
                           (   1   4  43  14   2   0   0)

     celldm(1)=   1.889726  celldm(2)=   0.000000  celldm(3)=   0.000000
     celldm(4)=   0.000000  celldm(5)=   0.000000  celldm(6)=   0.000000

     crystal axes: (cart. coord. in units of alat)
               a(1) = (   6.579727   0.000000   0.000000 )
               a(2) = (  -0.000775   5.961596   0.000000 )
               a(3) = (   0.000000   0.000000  25.155947 )

     reciprocal axes: (cart. coord. in units 2 pi/alat)
               b(1) = (  0.151982  0.000020  0.000000 )
               b(2) = (  0.000000  0.167740  0.000000 )
               b(3) = (  0.000000  0.000000  0.039752 )

     PseudoPot. # 1 for Ti read from file:
     /storage/coda1/p-amedford6/0/shared/rich_project_chbe-medford/medford-share/data/pseudos_module/espresso/nninc/pbe/van/Ti.UPF
     MD5 check sum: 8e4df49b7f0d34bbd5052bf3f5ea0213
     Pseudo is Ultrasoft, Zval = 12.0
     Generated by new atomic code, or converted to UPF format
     Using radial grid of  851 points,  6 beta functions with:
                l(1) =   0
                l(2) =   0
                l(3) =   1
                l(4) =   1
                l(5) =   2
                l(6) =   2
     Q(r) pseudized with  8 coefficients,  rinner =    1.000   1.000   1.000
                                                       1.000   1.000

     PseudoPot. # 2 for O  read from file:
     /storage/coda1/p-amedford6/0/shared/rich_project_chbe-medford/medford-share/data/pseudos_module/espresso/nninc/pbe/van/O.UPF
     MD5 check sum: 78c19812648e8988a0fe644b0f25305e
     Pseudo is Ultrasoft, Zval =  6.0
     Generated by new atomic code, or converted to UPF format
     Using radial grid of  737 points,  4 beta functions with:
                l(1) =   0
                l(2) =   0
                l(3) =   1
                l(4) =   1
     Q(r) pseudized with  8 coefficients,  rinner =    0.800   0.800   0.800

     PseudoPot. # 3 for N  read from file:
     /storage/coda1/p-amedford6/0/shared/rich_project_chbe-medford/medford-share/data/pseudos_module/espresso/nninc/pbe/van/N.UPF
     MD5 check sum: 90d10febe142ad51ac9d5be1deb811c4
     Pseudo is Ultrasoft, Zval =  5.0
     Generated by new atomic code, or converted to UPF format
     Using radial grid of  729 points,  4 beta functions with:
                l(1) =   0
                l(2) =   0
                l(3) =   1
                l(4) =   1
     Q(r) pseudized with  8 coefficients,  rinner =    0.800   0.800   0.800

     PseudoPot. # 4 for C  read from file:
     /storage/coda1/p-amedford6/0/shared/rich_project_chbe-medford/medford-share/data/pseudos_module/espresso/nninc/pbe/van/C.UPF
     MD5 check sum: 1a69bf6b8db32088f5b2163dbdb77a27
     Pseudo is Ultrasoft, Zval =  4.0
     Generated by new atomic code, or converted to UPF format
     Using radial grid of  721 points,  4 beta functions with:
                l(1) =   0
                l(2) =   0
                l(3) =   1
                l(4) =   1
     Q(r) pseudized with  8 coefficients,  rinner =    0.800   0.800   0.800

     PseudoPot. # 5 for H  read from file:
     /storage/coda1/p-amedford6/0/shared/rich_project_chbe-medford/medford-share/data/pseudos_module/espresso/nninc/pbe/van/H.UPF
     MD5 check sum: b5ee9d7bfd3a09ee7748110bda690ff7
     Pseudo is Ultrasoft, Zval =  1.0
     Generated by new atomic code, or converted to UPF format
     Using radial grid of  615 points,  1 beta functions with:
                l(1) =   0
     Q(r) pseudized with  8 coefficients,  rinner =    0.800

     atomic species   valence    mass     pseudopotential
        Ti1           12.00    47.86700     Ti( 1.00)
        O1             6.00    15.99900     O ( 1.00)
        N1             5.00    14.00700     N ( 1.00)
        C1             4.00    12.01100     C ( 1.00)
        H1             1.00     1.00800     H ( 1.00)

     No symmetry found

   Cartesian axes

     site n.     atom                  positions (alat units)
         1           Ti1 tau(   1) = (   0.0004258   2.9801865   6.0000000  )
         2           Ti1 tau(   2) = (   3.2906075   1.4906267   6.0002472  )
         3           O1  tau(   3) = (   0.0006271   0.0005054   7.9858123  )
         4           O1  tau(   4) = (   3.2906025   0.0005020   7.3038282  )
         5           O1  tau(   5) = (   4.5942328   1.4918067   9.2879030  )
         6           O1  tau(   6) = (   1.9868534   1.4903216   9.2879459  )
         7           Ti1 tau(   7) = (   3.2907910   2.8959150   9.1758416  )
         8           Ti1 tau(   8) = (   0.0015273   1.4827037   9.2680791  )
         9           O1  tau(   9) = (   3.3107583   5.9394213  11.3440837  )
        10           O1  tau(  10) = (   0.0116148   5.9584955  10.6183126  )
        11           O1  tau(  11) = (   1.3209705   1.4681434  12.6387851  )
        12           O1  tau(  12) = (   5.3117763   1.4689694  12.6372993  )
        13           Ti1 tau(  13) = (   6.5586693   2.9297660  12.6634068  )
        14           Ti1 tau(  14) = (   3.2703198   1.4638114  12.4955107  )
        15           O1  tau(  15) = (   0.0083729   5.9498784  14.6531507  )
        16           O1  tau(  16) = (   3.3267446   5.9373244  13.9471573  )
        17           O1  tau(  17) = (   4.5400383   1.4607670  16.1300196  )
        18           O1  tau(  18) = (   2.0562451   1.4605895  16.0859588  )
        19           Ti1 tau(  19) = (   3.3219294   2.9366742  15.7081325  )
        20           Ti1 tau(  20) = (   0.0794022   1.3719971  16.1804440  )
        21           O1  tau(  21) = (   3.2904802   0.0005063   4.7018136  )
        22           O1  tau(  22) = (   0.0048811   5.8540159  17.1722642  )
        23           O1  tau(  23) = (   1.3043587   1.4918075   6.0039043  )
        24           O1  tau(  24) = (   5.2767064   1.4903225   6.0039473  )
        25           Ti1 tau(  25) = (   0.0000382   5.9609847   6.0000000  )
        26           Ti1 tau(  26) = (   3.2902200   4.4714249   6.0002472  )
        27           O1  tau(  27) = (   0.0002396   2.9813036   7.9858123  )
        28           O1  tau(  28) = (   3.2902150   2.9813002   7.3038282  )
        29           O1  tau(  29) = (   4.5938453   4.4726049   9.2879030  )
        30           O1  tau(  30) = (   1.9864658   4.4711199   9.2879459  )
        31           Ti1 tau(  31) = (   3.2891106   5.8743827   9.1763621  )
        32           Ti1 tau(  32) = (   0.0006254   4.4649316   9.2693709  )
        33           O1  tau(  33) = (   3.3036409   2.9595551  11.3414423  )
        34           O1  tau(  34) = (   0.0092240   2.9805883  10.6323155  )
        35           O1  tau(  35) = (   1.3251634   4.4629088  12.6456700  )
        36           O1  tau(  36) = (   5.3099897   4.4533368  12.6426351  )
        37           Ti1 tau(  37) = (   0.0071655   5.9203210  12.5194715  )
        38           Ti1 tau(  38) = (   3.2774562   4.4456010  12.4944480  )
        39           O1  tau(  39) = (   0.0172281   2.9510719  14.7337574  )
        40           O1  tau(  40) = (   3.3230371   2.9488945  13.9167408  )
        41           O1  tau(  41) = (   4.5572773   4.4147185  16.0816828  )
        42           O1  tau(  42) = (   2.0601761   4.4202290  16.0727324  )
        43           Ti1 tau(  43) = (   3.3574729   5.9210026  15.7440268  )
        44           Ti1 tau(  44) = (   0.0706454   4.5402764  15.7844247  )
        45           O1  tau(  45) = (   3.2900926   2.9813045   4.7018136  )
        46           O1  tau(  46) = (   1.3039711   4.4726057   6.0039043  )
        47           O1  tau(  47) = (   5.2763189   4.4711207   6.0039473  )
        48           N1  tau(  48) = (   6.3928749   2.8496863  17.7411295  )
        49           C1  tau(  49) = (   0.6235525   2.6789418  18.7295412  )
        50           H1  tau(  50) = (   1.5351458   2.1120716  18.4633693  )
        51           H1  tau(  51) = (   5.5197072   3.3230476  17.9821812  )

     number of k points=    10  Fermi-Dirac smearing, width (Ry)=  0.0073
                       cart. coord. in units 2pi/alat
        k(    1) = (   0.0000000   0.0000000   0.0000000), wk =   0.1250000
        k(    2) = (   0.0000000   0.0419351   0.0000000), wk =   0.2500000
        k(    3) = (   0.0000000  -0.0838702   0.0000000), wk =   0.1250000
        k(    4) = (   0.0379955   0.0000049   0.0000000), wk =   0.2500000
        k(    5) = (   0.0379955   0.0419400   0.0000000), wk =   0.2500000
        k(    6) = (   0.0379955  -0.0838652   0.0000000), wk =   0.2500000
        k(    7) = (   0.0379955  -0.0419301   0.0000000), wk =   0.2500000
        k(    8) = (  -0.0759910  -0.0000099   0.0000000), wk =   0.1250000
        k(    9) = (  -0.0759910   0.0419252   0.0000000), wk =   0.2500000
        k(   10) = (  -0.0759910  -0.0838800   0.0000000), wk =   0.1250000

     Initial potential from superposition of free atoms

     starting charge  372.99918, renormalised to  389.00000

     negative rho (up, down):  1.910E-02 0.000E+00

     %%%%%%%%%%%%%%%%%%%%%%%%%%%%%%%%%%%%%%%%%%%%%%%%%%%%%%%%%%%%%%%%%%%%%%%%
     %                                                                      %
     % You are using vdW-DF, which was implemented by the Thonhauser group. %
     % Please cite the following two papers that made this development      %
     % possible and the two reviews that describe the various versions:     %
     %                                                                      %
     %   T. Thonhauser et al., PRL 115, 136402 (2015).                      %
     %   T. Thonhauser et al., PRB 76, 125112 (2007).                       %
     %   K. Berland et al., Rep. Prog. Phys. 78, 066501 (2015).             %
     %   D.C. Langreth et al., J. Phys.: Condens. Matter 21, 084203 (2009). %
     %                                                                      %
     %                                                                      %
     % If you are calculating the stress with vdW-DF, please also cite:     %
     %                                                                      %
     %   R. Sabatini et al., J. Phys.: Condens. Matter 24, 424209 (2012).   %
     %                                                                      %
     %%%%%%%%%%%%%%%%%%%%%%%%%%%%%%%%%%%%%%%%%%%%%%%%%%%%%%%%%%%%%%%%%%%%%%%%

     Adding external electric field

     Computed dipole along edir(3) :
        Dipole               -4.7373 Ry au,        -12.0409 Debye
        Dipole field         -0.0089 Ry au,

        Potential amp.        0.8287 Ry
        Total length         46.3494 bohr

     Starting wfcs are  294 atomic wfcs
  @ DRIVER MODE: Message from server: STATUS
  @ DRIVER MODE: Message from server: POSDATA
  @ DRIVER MODE: Reading and sharing cell
  @ DRIVER MODE: Reading and sharing positions
  @ DRIVER MODE: Received positions

     Self-consistent Calculation

     iteration #  1     ecut=    29.40 Ry     beta= 0.05
     Davidson diagonalization with overlap
     c_bands:  4 eigenvalues not converged
     c_bands:  2 eigenvalues not converged
     c_bands:  1 eigenvalues not converged
     c_bands:  3 eigenvalues not converged
     c_bands:  2 eigenvalues not converged
     c_bands:  1 eigenvalues not converged
     c_bands:  2 eigenvalues not converged
     c_bands:  2 eigenvalues not converged
     c_bands:  1 eigenvalues not converged
     c_bands:  1 eigenvalues not converged
     ethr =  1.00E-05,  avg # of iterations = 20.0

[...]

     total energy              =   -2847.40825644 Ry
     estimated scf accuracy    <     789.07910678 Ry

     iteration #  2     ecut=    29.40 Ry     beta= 0.05
     Davidson diagonalization with overlap
     ethr =  1.00E-02,  avg # of iterations = 15.4

[...]

     iteration # 56     ecut=    29.40 Ry     beta= 0.05
     Davidson diagonalization with overlap
     c_bands:  2 eigenvalues not converged
     ethr =  4.16E-09,  avg # of iterations = 15.0

[...]

     total energy              =   -2917.76280691 Ry
     estimated scf accuracy    <       0.00000009 Ry

     iteration # 67     ecut=    29.40 Ry     beta= 0.05
     Davidson diagonalization with overlap
     ethr =  2.36E-11,  avg # of iterations =  6.1

     negative rho (up, down):  1.798E-02 0.000E+00

     Adding external electric field

     Computed dipole along edir(3) :
        Dipole                0.1107 Ry au,          0.2813 Debye
        Dipole field          0.0002 Ry au,

        Potential amp.       -0.0194 Ry
        Total length         46.3494 bohr

     End of self-consistent calculation

          k = 0.0000 0.0000 0.0000 ( 18029 PWs)   bands (ev):

   -56.3295 -56.3239 -56.2931 -56.2898 -56.2232 -56.1898 -56.1636 -56.1491
   -56.1315 -56.1118 -56.0971 -56.0783 -55.9251 -55.7669 -55.3091 -55.2751
   -32.8913 -32.8074 -32.6758 -32.6711 -32.6436 -32.6319 -32.6161 -32.6020
   -32.5662 -32.5588 -32.5377 -32.5344 -32.5078 -32.4764 -32.4751 -32.4648
   -32.4597 -32.4292 -32.4269 -32.4220 -32.3960 -32.3853 -32.3812 -32.3490
   -32.3432 -32.3302 -32.3296 -32.3231 -32.3185 -32.3146 -32.2958 -32.2803
   -32.2803 -32.2682 -32.2638 -32.2340 -32.2253 -32.2208 -32.1385 -32.0514
   -32.0007 -31.8980 -31.7167 -31.6273 -31.6050 -31.5333 -31.4468 -31.3358
   -17.0886 -16.8221 -16.6547 -16.5028 -16.4678 -16.3565 -16.1910 -16.0666
   -16.0228 -16.0032 -15.9224 -15.8991 -15.8708 -15.8623 -15.8595 -15.8383
   -15.8340 -15.7805 -15.7580 -15.7413 -15.7144 -15.6957 -15.6726 -15.6364
   -15.5382 -15.4838 -15.4599 -15.3921 -15.3229 -14.9899 -13.8117 -13.6951
    -8.2718  -4.4545  -4.3607  -4.2783  -4.2340  -4.1909  -3.9750  -3.8994
    -3.8826  -3.6894  -3.5683  -3.5207  -3.5052  -3.4638  -3.4623  -3.2490
    -3.2092  -3.1463  -3.1426  -3.1246  -3.1203  -3.0933  -3.0833  -3.0636
    -3.0150  -2.9326  -2.8741  -2.7700  -2.7374  -2.6874  -2.6624  -2.6392
    -2.6018  -2.5914  -2.5837  -2.5651  -2.5500  -2.5358  -2.4466  -2.4017
    -2.2971  -2.1617  -2.1479  -2.1255  -1.9432  -1.8877  -1.8110  -1.7924
    -1.7626  -1.7463  -1.7215  -1.6362  -1.5577  -1.5248  -1.4546  -1.4516
    -1.3636  -1.3209  -1.2322  -1.2040  -1.1689  -1.0921  -1.0828  -1.0761
    -1.0233  -0.8292  -0.8057  -0.7985  -0.7773  -0.7131  -0.6582  -0.6214
    -0.5623  -0.5346  -0.4938  -0.4092  -0.4022  -0.3663  -0.3450  -0.3307
    -0.3018  -0.2970  -0.1072  -0.1023  -0.0587  -0.0462   0.0417   0.1947
     0.2881   0.3241   0.3982   0.6345   0.7128   0.7905   0.9037   1.2853
     1.3314   2.5390   2.8078   2.8802   2.8959   2.9371   3.0331   3.0435
     3.2593   3.2695   3.2960   3.3161

[...]

          k = 0.0380-0.0419 0.0000 ( 17876 PWs)   bands (ev):

[...]

          k =-0.0760-0.0000 0.0000 ( 17886 PWs)   bands (ev):

[...]

          k =-0.0760-0.0839 0.0000 ( 17948 PWs)   bands (ev):

   -56.3140 -56.3083 -56.3077 -56.3059 -56.2177 -56.1809 -56.1690 -56.1580
   -56.1156 -56.1122 -56.0968 -56.0938 -55.9236 -55.7683 -55.2922 -55.2919
   -32.6978 -32.6909 -32.6233 -32.6221 -32.6040 -32.6023 -32.6009 -32.5909
   -32.5322 -32.5273 -32.5265 -32.5152 -32.4889 -32.4599 -32.4545 -32.4445
   -32.4380 -32.4332 -32.4297 -32.4281 -32.4273 -32.4256 -32.4252 -32.3950
   -32.3901 -32.3731 -32.3610 -32.3477 -32.3375 -32.3286 -32.3271 -32.3193
   -32.3175 -32.3101 -32.3087 -32.2911 -32.2871 -32.2143 -32.1409 -32.0726
   -32.0045 -31.9495 -31.6178 -31.6175 -31.5296 -31.5293 -31.4901 -31.4900
   -16.5349 -16.4944 -16.3246 -16.2619 -16.2505 -16.2392 -16.1955 -16.0810
   -16.0515 -16.0333 -16.0124 -15.9993 -15.9754 -15.9655 -15.8737 -15.8618
   -15.8586 -15.8361 -15.7971 -15.7926 -15.7870 -15.7796 -15.7636 -15.7617
   -15.7270 -15.6529 -15.6486 -15.4280 -15.3359 -15.2677 -13.7971 -13.7966
    -8.2751  -4.0526  -3.8243  -3.7736  -3.6427  -3.5497  -3.4963  -3.4768
    -3.4018  -3.2813  -3.2232  -3.2159  -3.2053  -3.1743  -3.1685  -3.1480
    -3.1380  -3.1246  -3.0816  -3.0606  -3.0446  -3.0341  -3.0095  -2.9951
    -2.9738  -2.9640  -2.9514  -2.9263  -2.8912  -2.8891  -2.8605  -2.8526
    -2.6269  -2.6141  -2.5509  -2.5003  -2.4787  -2.4665  -2.4642  -2.4056
    -2.3861  -2.3631  -2.2664  -2.1995  -2.0472  -2.0305  -2.0225  -1.9835
    -1.9506  -1.8173  -1.7597  -1.7404  -1.7093  -1.6578  -1.6490  -1.5872
    -1.5700  -1.5323  -1.4629  -1.4269  -1.3800  -1.3612  -1.2876  -1.2811
    -1.2476  -1.1941  -1.1145  -1.0943  -1.0767  -1.0646  -1.0103  -0.9701
    -0.9257  -0.8723  -0.8014  -0.7059  -0.6259  -0.4756  -0.4113  -0.3131
    -0.2527  -0.2144  -0.1611  -0.1314  -0.0445  -0.0145  -0.0122   0.0508
     0.0861   0.1852   0.1903   0.2080   0.4362   1.0753   1.0764   1.1507
     1.1515   2.5437   3.0742   3.0886   3.1000   3.1474   3.3055   3.3114
     3.3386   3.3407   3.4312   3.4642

     the Fermi energy is     2.8090 ev

!    total energy              =   -2917.76282534 Ry
     estimated scf accuracy    <       0.00000005 Ry
     smearing contrib. (-TS)   =      -0.02756586 Ry
     internal energy E=F+TS    =   -2917.73525948 Ry

     The total energy is F=E-TS. E is the sum of the following terms:
     one-electron contribution =  -24684.33370519 Ry
     hartree contribution      =   12421.92237048 Ry
     xc contribution           =    -479.08266378 Ry
     ewald contribution        =    9823.75871589 Ry
     electric field correction =       0.00002312 Ry

     convergence has been achieved in  67 iterations

     Forces acting on atoms (cartesian axes, Ry/au):

     atom    1 type  1   force =     0.00012453   -0.00024560    0.09635125
     atom    2 type  1   force =    -0.00005652   -0.00047633   -0.17577194
     atom    3 type  2   force =     0.00009152   -0.00008401   -0.02480921
     atom    4 type  2   force =     0.00006439   -0.00165865    0.05385997
     atom    5 type  2   force =    -0.01231776   -0.00181086    0.00351010
     atom    6 type  2   force =     0.01429254   -0.00152793    0.00391508
     atom    7 type  1   force =     0.00060979    0.00061625   -0.01169496
     atom    8 type  1   force =    -0.00019988    0.02055414    0.02642804
     atom    9 type  2   force =    -0.00054869    0.00047988   -0.00021003
     atom   10 type  2   force =    -0.00145378   -0.00067065   -0.01376292
     atom   11 type  2   force =     0.00040804    0.00026155   -0.00020067
     atom   12 type  2   force =    -0.00053255    0.00053830   -0.00043463
     atom   13 type  1   force =     0.00051210   -0.00033358   -0.00073825
     atom   14 type  1   force =    -0.00116656    0.00108217   -0.00109951
     atom   15 type  2   force =     0.00001312   -0.00007099    0.00064103
     atom   16 type  2   force =     0.00022483    0.00068014   -0.00042397
     atom   17 type  2   force =    -0.00074206    0.00040904   -0.00095002
     atom   18 type  2   force =     0.00127641    0.00070914    0.00023593
     atom   19 type  1   force =    -0.00028208    0.00069522   -0.00096422
     atom   20 type  1   force =    -0.00032412    0.00054806   -0.00001807
     atom   21 type  2   force =     0.00004876    0.00002499    0.10340218
     atom   22 type  2   force =     0.00041808   -0.00072355    0.00050306
     atom   23 type  2   force =    -0.07131056   -0.00005109   -0.02763036
     atom   24 type  2   force =     0.07127432    0.00033728   -0.02773242
     atom   25 type  1   force =     0.00020168   -0.00035534    0.09606126
     atom   26 type  1   force =     0.00000959   -0.00025968   -0.17592516
     atom   27 type  2   force =     0.00022031   -0.00036698   -0.02359514
     atom   28 type  2   force =     0.00006417   -0.00138244    0.05391950
     atom   29 type  2   force =    -0.01263859    0.00048357    0.00327258
     atom   30 type  2   force =     0.01458644    0.00113553    0.00365578
     atom   31 type  1   force =     0.00072307    0.00351425   -0.01312484
     atom   32 type  1   force =     0.00000322   -0.02245056    0.02633254
     atom   33 type  2   force =     0.00006022   -0.00002549    0.00098669
     atom   34 type  2   force =    -0.00088456   -0.00053880   -0.01874663
     atom   35 type  2   force =    -0.00025062   -0.00022616    0.00016625
     atom   36 type  2   force =     0.00011782   -0.00032831   -0.00005389
     atom   37 type  1   force =     0.00038226    0.00059384   -0.00041179
     atom   38 type  1   force =    -0.00132620   -0.00095243   -0.00045632
     atom   39 type  2   force =     0.00002237    0.00108609   -0.00064776
     atom   40 type  2   force =    -0.00013471   -0.00011489   -0.00035905
     atom   41 type  2   force =     0.00044759    0.00030187    0.00004600
     atom   42 type  2   force =    -0.00072256    0.00005153   -0.00038376
     atom   43 type  1   force =    -0.00039897   -0.00022783   -0.00056271
     atom   44 type  1   force =    -0.00016963    0.00046908   -0.00049278
     atom   45 type  2   force =     0.00006502   -0.00001001    0.10338987
     atom   46 type  2   force =    -0.07129214   -0.00005597   -0.02762957
     atom   47 type  2   force =     0.07126828    0.00043170   -0.02769389
     atom   48 type  3   force =    -0.00309273    0.00127731   -0.00080961
     atom   49 type  4   force =     0.00328212   -0.00168655   -0.00123225
     atom   50 type  5   force =    -0.00191623    0.00112909    0.00161957
     atom   51 type  5   force =     0.00094891   -0.00077535    0.00026965

     Total force =     0.368979     Total SCF correction =     0.000688
  @ DRIVER MODE: Message from server: STATUS
  @ DRIVER MODE: Message from server: GETFORCE
  @ DRIVER MODE: Returning v,forces,stress,ensemble

     Writing output data file ./calc.save/
  @ DRIVER MODE: Message from server: EXIT
  @ DRIVE MODE: Exiting

     General routines

     Parallel routines

   This run was terminated on:   2:35:47   9Sep2021

   JOB DONE.