     Program PWSCF v.6.7GPU starts on 22Sep2021 at 20:23:33

     R & G space division:  proc/nbgrp/npool/nimage =      10
     Reading input from /storage/home/hcoda1/3/ntian30/research/carbon/CxH_vib/H2O_calc/ads_slab/CH2HO_a/out_0016/pw.inp
Warning: card &CELL ignored
Warning: card   CELL_DYNAMICS='IPI', ignored
Warning: card / ignored

     Current dimensions of program PWSCF are:
     Max number of different atomic species (ntypx) = 10
     Max number of k-points (npk) =  40000
     Max angular momentum in pseudopotentials (lmaxx) =  3
     Presently no symmetry can be used with electric field

     Message from routine cell_base_init:
     DEPRECATED: use true lattice parameter, not A to a.u. conversion factor

     IMPORTANT: XC functional enforced from input :
     Exchange-correlation= BEEF-VDW
                           (   1   4  43  14   2   0   0)
     Any further DFT definition will be discarded
     Please, verify this is what you really want

  @ DRIVER MODE: Connecting to
 qe_1139763_2937324.sched-torque.pace.gatech.eduxx1o5qu0_scratch
  using UNIX socket
  @ DRIVER MODE: Message from server: STATUS
  @ DRIVER MODE: Message from server: INIT
  @ DRIVER MODE: Receiving replica           0          -1
  @ DRIVER MODE: Receiving encoded integer          25
  @ DRIVER MODE:  SCF:  T  FORCE:  T  STRESS:  F  VC:  F  ENSEMBLE:  F
  @ DRIVER MODE:  SCF:  T  FORCE:  T  STRESS:  F  VC:  F  ENSEMBLE:  F

     Using Slab Decomposition

     bravais-lattice index     =            0
     lattice parameter (alat)  =       1.8897  a.u.
     unit-cell volume          =    6658.9804 (a.u.)^3
     number of atoms/cell      =           52
     number of atomic types    =            4
     number of electrons       =       391.00
     number of Kohn-Sham states=          205
     kinetic-energy cutoff     =      29.3995  Ry
     charge density cutoff     =     293.9946  Ry
     scf convergence threshold =      7.3E-08
     mixing beta               =       0.0500
     number of iterations used =            8  plain     mixing
     Exchange-correlation= BEEF-VDW
                           (   1   4  43  14   2   0   0)

     celldm(1)=   1.889726  celldm(2)=   0.000000  celldm(3)=   0.000000
     celldm(4)=   0.000000  celldm(5)=   0.000000  celldm(6)=   0.000000

     crystal axes: (cart. coord. in units of alat)
               a(1) = (   6.579727   0.000000   0.000000 )
               a(2) = (  -0.000775   5.961596   0.000000 )
               a(3) = (   0.000000   0.000000  25.155947 )

     reciprocal axes: (cart. coord. in units 2 pi/alat)
               b(1) = (  0.151982  0.000020  0.000000 )
               b(2) = (  0.000000  0.167740  0.000000 )
               b(3) = (  0.000000  0.000000  0.039752 )

     PseudoPot. # 1 for Ti read from file:
     /storage/coda1/p-amedford6/0/shared/rich_project_chbe-medford/medford-share/data/pseudos_module/espresso/nninc/pbe/van/Ti.UPF
     MD5 check sum: 8e4df49b7f0d34bbd5052bf3f5ea0213
     Pseudo is Ultrasoft, Zval = 12.0
     Generated by new atomic code, or converted to UPF format
     Using radial grid of  851 points,  6 beta functions with:
                l(1) =   0
                l(2) =   0
                l(3) =   1
                l(4) =   1
                l(5) =   2
                l(6) =   2
     Q(r) pseudized with  8 coefficients,  rinner =    1.000   1.000   1.000
                                                       1.000   1.000

     PseudoPot. # 2 for O  read from file:
     /storage/coda1/p-amedford6/0/shared/rich_project_chbe-medford/medford-share/data/pseudos_module/espresso/nninc/pbe/van/O.UPF
     MD5 check sum: 78c19812648e8988a0fe644b0f25305e
     Pseudo is Ultrasoft, Zval =  6.0
     Generated by new atomic code, or converted to UPF format
     Using radial grid of  737 points,  4 beta functions with:
                l(1) =   0
                l(2) =   0
                l(3) =   1
                l(4) =   1
     Q(r) pseudized with  8 coefficients,  rinner =    0.800   0.800   0.800

     PseudoPot. # 3 for C  read from file:
     /storage/coda1/p-amedford6/0/shared/rich_project_chbe-medford/medford-share/data/pseudos_module/espresso/nninc/pbe/van/C.UPF
     MD5 check sum: 1a69bf6b8db32088f5b2163dbdb77a27
     Pseudo is Ultrasoft, Zval =  4.0
     Generated by new atomic code, or converted to UPF format
     Using radial grid of  721 points,  4 beta functions with:
                l(1) =   0
                l(2) =   0
                l(3) =   1
                l(4) =   1
     Q(r) pseudized with  8 coefficients,  rinner =    0.800   0.800   0.800

     PseudoPot. # 4 for H  read from file:
     /storage/coda1/p-amedford6/0/shared/rich_project_chbe-medford/medford-share/data/pseudos_module/espresso/nninc/pbe/van/H.UPF
     MD5 check sum: b5ee9d7bfd3a09ee7748110bda690ff7
     Pseudo is Ultrasoft, Zval =  1.0
     Generated by new atomic code, or converted to UPF format
     Using radial grid of  615 points,  1 beta functions with:
                l(1) =   0
     Q(r) pseudized with  8 coefficients,  rinner =    0.800

     atomic species   valence    mass     pseudopotential
        Ti1           12.00    47.86700     Ti( 1.00)
        O1             6.00    15.99900     O ( 1.00)
        C1             4.00    12.01100     C ( 1.00)
        H1             1.00     1.00800     H ( 1.00)

     No symmetry found

   Cartesian axes

     site n.     atom                  positions (alat units)
         1           Ti1 tau(   1) = (   0.0004258   2.9801865   6.0000000  )
         2           Ti1 tau(   2) = (   3.2906075   1.4906267   6.0002472  )
         3           O1  tau(   3) = (   0.0006271   0.0005054   7.9858123  )
         4           O1  tau(   4) = (   3.2906025   0.0005020   7.3038282  )
         5           O1  tau(   5) = (   4.5942328   1.4918067   9.2879030  )
         6           O1  tau(   6) = (   1.9868534   1.4903216   9.2879459  )
         7           Ti1 tau(   7) = (   3.2576197   2.8654215   9.2214558  )
         8           Ti1 tau(   8) = (   6.5344909   1.4429808   9.3601258  )
         9           O1  tau(   9) = (   3.2692782   5.9266415  11.3199434  )
        10           O1  tau(  10) = (   6.5685443   5.9434748  10.5851361  )
        11           O1  tau(  11) = (   1.2543606   1.4786140  12.6270584  )
        12           O1  tau(  12) = (   5.2804994   1.4734118  12.6291387  )
        13           Ti1 tau(  13) = (   6.5561640   2.8465321  12.8092297  )
        14           Ti1 tau(  14) = (   3.2590950   1.2910582  12.6820668  )
        15           O1  tau(  15) = (   6.5637791   5.9505241  14.6246090  )
        16           O1  tau(  16) = (   3.2632455   0.0300109  13.9168947  )
        17           O1  tau(  17) = (   4.5093043   1.5331652  16.1230905  )
        18           O1  tau(  18) = (   1.9844652   1.5452522  16.1286669  )
        19           Ti1 tau(  19) = (   3.2766647   3.0056044  15.6806532  )
        20           Ti1 tau(  20) = (   0.0376264   1.5104518  16.1289793  )
        21           O1  tau(  21) = (   3.2904802   0.0005063   4.7018136  )
        22           O1  tau(  22) = (   6.5370995   5.9187843  17.1758003  )
        23           O1  tau(  23) = (   1.3043587   1.4918075   6.0039043  )
        24           O1  tau(  24) = (   5.2767064   1.4903225   6.0039473  )
        25           Ti1 tau(  25) = (   0.0000382   5.9609847   6.0000000  )
        26           Ti1 tau(  26) = (   3.2902200   4.4714249   6.0002472  )
        27           O1  tau(  27) = (   0.0002396   2.9813036   7.9858123  )
        28           O1  tau(  28) = (   3.2902150   2.9813002   7.3038282  )
        29           O1  tau(  29) = (   4.5938453   4.4726049   9.2879030  )
        30           O1  tau(  30) = (   1.9864658   4.4711199   9.2879459  )
        31           Ti1 tau(  31) = (   3.2565375   5.8496818   9.1814359  )
        32           Ti1 tau(  32) = (   6.5349656   4.3900073   9.3400910  )
        33           O1  tau(  33) = (   3.2728704   3.0037829  11.2907943  )
        34           O1  tau(  34) = (   6.5689136   2.9626257  10.5472476  )
        35           O1  tau(  35) = (   1.2549189   4.4436098  12.6280720  )
        36           O1  tau(  36) = (   5.2752285   4.4450423  12.6314263  )
        37           Ti1 tau(  37) = (   6.5445616   5.8332433  12.5976854  )
        38           Ti1 tau(  38) = (   3.2543598   4.3897341  12.4334224  )
        39           O1  tau(  39) = (   6.5579435   2.9355163  14.7117218  )
        40           O1  tau(  40) = (   3.2602875   2.9656724  13.9017019  )
        41           O1  tau(  41) = (   4.5395605   4.4315404  16.0360363  )
        42           O1  tau(  42) = (   2.0063696   4.4444213  16.0824092  )
        43           Ti1 tau(  43) = (   3.2990179   0.0081159  16.3450624  )
        44           Ti1 tau(  44) = (   6.5722952   4.6241161  15.8901152  )
        45           O1  tau(  45) = (   3.2900926   2.9813045   4.7018136  )
        46           O1  tau(  46) = (   1.3039711   4.4726057   6.0039043  )
        47           O1  tau(  47) = (   5.2763189   4.4711207   6.0039473  )
        48           C1  tau(  48) = (   6.5366691   2.9215611  17.7332970  )
        49           H1  tau(  49) = (   0.8393079   3.1163452  18.3454380  )
        50           H1  tau(  50) = (   5.6239513   3.1193896  18.3013171  )
        51           O1  tau(  51) = (   3.3457726   5.9061862  18.1608053  )
        52           H1  tau(  52) = (   4.0847859   0.3069366  18.6733355  )

     number of k points=    10  Fermi-Dirac smearing, width (Ry)=  0.0073
                       cart. coord. in units 2pi/alat
        k(    1) = (   0.0000000   0.0000000   0.0000000), wk =   0.1250000
        k(    2) = (   0.0000000   0.0419351   0.0000000), wk =   0.2500000
        k(    3) = (   0.0000000  -0.0838702   0.0000000), wk =   0.1250000
        k(    4) = (   0.0379955   0.0000049   0.0000000), wk =   0.2500000
        k(    5) = (   0.0379955   0.0419400   0.0000000), wk =   0.2500000
        k(    6) = (   0.0379955  -0.0838652   0.0000000), wk =   0.2500000
        k(    7) = (   0.0379955  -0.0419301   0.0000000), wk =   0.2500000
        k(    8) = (  -0.0759910  -0.0000099   0.0000000), wk =   0.1250000
        k(    9) = (  -0.0759910   0.0419252   0.0000000), wk =   0.2500000
        k(   10) = (  -0.0759910  -0.0838800   0.0000000), wk =   0.1250000

     Initial potential from superposition of free atoms

     starting charge  374.99918, renormalised to  391.00000

     negative rho (up, down):  1.929E-02 0.000E+00

     %%%%%%%%%%%%%%%%%%%%%%%%%%%%%%%%%%%%%%%%%%%%%%%%%%%%%%%%%%%%%%%%%%%%%%%%
     %                                                                      %
     % You are using vdW-DF, which was implemented by the Thonhauser group. %
     % Please cite the following two papers that made this development      %
     % possible and the two reviews that describe the various versions:     %
     %                                                                      %
     %   T. Thonhauser et al., PRL 115, 136402 (2015).                      %
     %   T. Thonhauser et al., PRB 76, 125112 (2007).                       %
     %   K. Berland et al., Rep. Prog. Phys. 78, 066501 (2015).             %
     %   D.C. Langreth et al., J. Phys.: Condens. Matter 21, 084203 (2009). %
     %                                                                      %
     %                                                                      %
     % If you are calculating the stress with vdW-DF, please also cite:     %
     %                                                                      %
     %   R. Sabatini et al., J. Phys.: Condens. Matter 24, 424209 (2012).   %
     %                                                                      %
     %%%%%%%%%%%%%%%%%%%%%%%%%%%%%%%%%%%%%%%%%%%%%%%%%%%%%%%%%%%%%%%%%%%%%%%%

     Adding external electric field

     Computed dipole along edir(3) :
        Dipole               -4.4316 Ry au,        -11.2641 Debye
        Dipole field         -0.0084 Ry au,

        Potential amp.        0.7752 Ry
        Total length         46.3494 bohr

     Starting wfcs are  295 atomic wfcs
  @ DRIVER MODE: Message from server: STATUS
  @ DRIVER MODE: Message from server: POSDATA
  @ DRIVER MODE: Reading and sharing cell
  @ DRIVER MODE: Reading and sharing positions
  @ DRIVER MODE: Received positions

     Self-consistent Calculation

     iteration #  1     ecut=    29.40 Ry     beta= 0.05
     Davidson diagonalization with overlap
     c_bands:  5 eigenvalues not converged
     c_bands:  2 eigenvalues not converged
     c_bands:  2 eigenvalues not converged
     c_bands:  2 eigenvalues not converged
     c_bands:  2 eigenvalues not converged
     c_bands:  1 eigenvalues not converged
     c_bands:  3 eigenvalues not converged
     c_bands:  1 eigenvalues not converged
     c_bands:  3 eigenvalues not converged
     ethr =  1.00E-05,  avg # of iterations = 19.9

[...]

     total energy              =   -2883.35367323 Ry
     estimated scf accuracy    <     548.00894649 Ry

     iteration #  2     ecut=    29.40 Ry     beta= 0.05
     Davidson diagonalization with overlap
     ethr =  1.00E-02,  avg # of iterations = 14.4

[...]

     iteration # 23     ecut=    29.40 Ry     beta= 0.05
     Davidson diagonalization with overlap
     c_bands:  1 eigenvalues not converged
     c_bands:  2 eigenvalues not converged
     ethr =  2.96E-06,  avg # of iterations = 15.6

[...]

     total energy              =   -2931.27741684 Ry
     estimated scf accuracy    <       0.00000013 Ry

     iteration # 49     ecut=    29.40 Ry     beta= 0.05
     Davidson diagonalization with overlap
     ethr =  2.67E-11,  avg # of iterations =  5.2

     negative rho (up, down):  1.858E-02 0.000E+00

     Adding external electric field

     Computed dipole along edir(3) :
        Dipole                0.4334 Ry au,          1.1016 Debye
        Dipole field          0.0008 Ry au,

        Potential amp.       -0.0758 Ry
        Total length         46.3494 bohr

     End of self-consistent calculation

          k = 0.0000 0.0000 0.0000 ( 18029 PWs)   bands (ev):

   -56.6095 -56.5595 -56.1476 -56.0380 -55.9958 -55.9389 -55.9124 -55.8969
   -55.8543 -55.8128 -55.7832 -55.7265 -55.6793 -55.6101 -55.2190 -55.1851
   -33.0213 -32.8744 -32.8201 -32.7883 -32.6926 -32.6475 -32.4988 -32.4861
   -32.4661 -32.4029 -32.3721 -32.3508 -32.3076 -32.2852 -32.2666 -32.2428
   -32.2390 -32.2238 -32.2099 -32.1441 -32.1414 -32.1281 -32.1255 -32.1118
   -32.0995 -32.0942 -32.0896 -32.0865 -32.0609 -32.0405 -32.0170 -31.9996
   -31.9945 -31.9845 -31.9833 -31.9737 -31.9268 -31.8708 -31.8443 -31.8387
   -31.8220 -31.7893 -31.6135 -31.5594 -31.5350 -31.4302 -31.3452 -31.2345
   -16.9542 -16.7672 -16.6236 -16.4002 -16.2557 -16.1516 -15.9356 -15.9253
   -15.8035 -15.7861 -15.7615 -15.6301 -15.6169 -15.6005 -15.5605 -15.5389
   -15.5313 -15.5295 -15.5180 -15.4916 -15.4594 -15.4385 -15.3986 -15.3169
   -15.2416 -15.2343 -15.1990 -15.1436 -15.0799 -14.8606 -13.7219 -13.6135
    -8.9078  -4.6506  -4.2917  -4.0789  -3.9706  -3.8928  -3.7865  -3.6330
    -3.4340  -3.2954  -3.2451  -3.2092  -3.1608  -3.1432  -3.1239  -3.0776
    -3.0328  -2.9809  -2.9516  -2.8898  -2.8652  -2.8259  -2.7890  -2.7640
    -2.7488  -2.7296  -2.7241  -2.5878  -2.5243  -2.5140  -2.4673  -2.4654
    -2.4071  -2.3903  -2.3666  -2.3172  -2.2830  -2.1880  -2.1296  -2.0966
    -2.0502  -1.8294  -1.8111  -1.7454  -1.6710  -1.6182  -1.5599  -1.5173
    -1.4629  -1.4350  -1.3737  -1.3343  -1.2866  -1.2621  -1.2227  -1.1556
    -1.1355  -1.1006  -1.0394  -0.9633  -0.9177  -0.8490  -0.7828  -0.7462
    -0.6909  -0.6820  -0.6522  -0.5608  -0.4776  -0.4577  -0.4242  -0.3833
    -0.3660  -0.2950  -0.2811  -0.2390  -0.2226  -0.1459  -0.1309  -0.1015
    -0.0690  -0.0470  -0.0248   0.0417   0.1637   0.2316   0.2747   0.3112
     0.3280   0.4144   0.4341   0.5219   0.6773   0.7973   0.8366   1.0070
     1.0594   1.3481   1.3941   1.9248   2.6920   2.8565   3.1422   3.2450
     3.2809   3.3573   3.4018   3.4333   3.6297

[...]

          k = 0.0380-0.0419 0.0000 ( 17876 PWs)   bands (ev):

[...]

          k =-0.0760-0.0000 0.0000 ( 17886 PWs)   bands (ev):

[...]

          k =-0.0760-0.0839 0.0000 ( 17948 PWs)   bands (ev):

   -56.6030 -56.5658 -56.1468 -56.0356 -55.9897 -55.9447 -55.9146 -55.8975
   -55.8455 -55.8215 -55.7815 -55.7203 -55.6855 -55.6117 -55.2022 -55.2017
   -32.8702 -32.8538 -32.8241 -32.8219 -32.7549 -32.7231 -32.4237 -32.3801
   -32.3675 -32.3514 -32.3344 -32.2913 -32.2683 -32.2613 -32.2506 -32.2308
   -32.2152 -32.2028 -32.1920 -32.1830 -32.1637 -32.1629 -32.1405 -32.1369
   -32.1355 -32.1244 -32.1096 -32.1055 -32.0727 -32.0682 -32.0550 -32.0422
   -32.0033 -31.9960 -31.9877 -31.9876 -31.9544 -31.9306 -31.9109 -31.8725
   -31.8252 -31.8125 -31.5482 -31.5479 -31.4291 -31.4272 -31.3874 -31.3865
   -16.9422 -16.1454 -16.0840 -16.0745 -16.0613 -16.0314 -15.9899 -15.9184
   -15.9163 -15.8189 -15.7920 -15.7480 -15.7099 -15.6978 -15.6521 -15.6389
   -15.6264 -15.5636 -15.5215 -15.5027 -15.4872 -15.4745 -15.4537 -15.4289
   -15.4174 -15.3972 -15.3297 -15.2477 -15.2174 -15.0028 -13.7179 -13.7166
    -8.9157  -4.6419  -3.3823  -3.3281  -3.2492  -3.2300  -3.2150  -3.1504
    -3.0942  -3.0890  -3.0313  -3.0179  -2.9746  -2.9451  -2.9154  -2.9094
    -2.9023  -2.8925  -2.8790  -2.8553  -2.8012  -2.7983  -2.7806  -2.7714
    -2.7551  -2.7391  -2.7065  -2.6656  -2.6350  -2.6108  -2.5289  -2.4259
    -2.4201  -2.3861  -2.3552  -2.3219  -2.2804  -2.2587  -2.1831  -2.1757
    -2.1597  -2.1102  -2.0117  -1.7788  -1.7710  -1.7164  -1.6834  -1.6748
    -1.6118  -1.5428  -1.5360  -1.4513  -1.4481  -1.4348  -1.3343  -1.3164
    -1.2839  -1.2647  -1.2391  -1.2101  -1.1071  -1.0859  -1.0777  -1.0464
    -1.0009  -0.9800  -0.8883  -0.8700  -0.8518  -0.8237  -0.7420  -0.6896
    -0.6504  -0.6321  -0.4942  -0.4470  -0.4357  -0.2843  -0.2313  -0.1972
    -0.1750  -0.0882   0.0158   0.0557   0.1127   0.1600   0.2193   0.3255
     0.3384   0.3611   0.4248   0.4648   0.4723   0.4876   0.5640   1.1915
     1.1922   1.2004   1.2073   2.0837   3.2333   3.2587   3.2708   3.3043
     3.5173   3.5406   3.5512   3.6101   3.6520

     the Fermi energy is     2.0047 ev

!    total energy              =   -2931.27752912 Ry
     estimated scf accuracy    <       0.00000003 Ry
     smearing contrib. (-TS)   =      -0.01004486 Ry
     internal energy E=F+TS    =   -2931.26748425 Ry

     The total energy is F=E-TS. E is the sum of the following terms:
     one-electron contribution =  -24332.04214661 Ry
     hartree contribution      =   12249.80563927 Ry
     xc contribution           =    -481.69917421 Ry
     ewald contribution        =    9632.66784283 Ry
     electric field correction =       0.00035446 Ry

     convergence has been achieved in  49 iterations

     Forces acting on atoms (cartesian axes, Ry/au):

     atom    1 type  1   force =     0.00036085   -0.00078122    0.13236431
     atom    2 type  1   force =     0.00014227    0.00690705   -0.15727795
     atom    3 type  2   force =    -0.00018649    0.00281824   -0.05348208
     atom    4 type  2   force =    -0.00072744   -0.00116850    0.04118636
     atom    5 type  2   force =    -0.01141080   -0.00238706    0.00284930
     atom    6 type  2   force =     0.00918934   -0.00644123    0.00177922
     atom    7 type  1   force =     0.00044064    0.00029938   -0.00038313
     atom    8 type  1   force =     0.00019225   -0.00003111    0.00093486
     atom    9 type  2   force =    -0.00002091    0.00043940    0.00041091
     atom   10 type  2   force =     0.00025394    0.00023499   -0.00011307
     atom   11 type  2   force =     0.00049880    0.00033913    0.00026434
     atom   12 type  2   force =    -0.00013596    0.00027450   -0.00025196
     atom   13 type  1   force =    -0.00025851   -0.00046129   -0.00091879
     atom   14 type  1   force =     0.00020402    0.00050952   -0.00024110
     atom   15 type  2   force =     0.00007417   -0.00017818    0.00151985
     atom   16 type  2   force =     0.00048168   -0.00018769    0.00006368
     atom   17 type  2   force =     0.00025082   -0.00026954   -0.00040742
     atom   18 type  2   force =    -0.00107066   -0.00029112   -0.00025493
     atom   19 type  1   force =     0.00115698   -0.00009263   -0.00018001
     atom   20 type  1   force =    -0.00033981    0.00031697    0.00005003
     atom   21 type  2   force =     0.00021067    0.00008815    0.09898159
     atom   22 type  2   force =     0.00009264    0.00079222   -0.00112079
     atom   23 type  2   force =    -0.08050227    0.00137004   -0.03418033
     atom   24 type  2   force =     0.08057720    0.00190099   -0.03419172
     atom   25 type  1   force =     0.00030972   -0.00010980    0.14243066
     atom   26 type  1   force =     0.00016953   -0.00836641   -0.15753794
     atom   27 type  2   force =    -0.00039372   -0.00117180   -0.05197674
     atom   28 type  2   force =    -0.00064136   -0.00038150    0.04298437
     atom   29 type  2   force =    -0.01011906    0.00503455    0.00017647
     atom   30 type  2   force =     0.00779399    0.00127879   -0.00110708
     atom   31 type  1   force =     0.00010316    0.00001506   -0.00025524
     atom   32 type  1   force =     0.00009577   -0.00044154    0.00096915
     atom   33 type  2   force =     0.00003538   -0.00033816   -0.00006992
     atom   34 type  2   force =     0.00024505    0.00012617   -0.00024836
     atom   35 type  2   force =    -0.00051875    0.00035018    0.00018942
     atom   36 type  2   force =     0.00132164    0.00030814   -0.00025127
     atom   37 type  1   force =     0.00000869   -0.00020779   -0.00043059
     atom   38 type  1   force =     0.00029467   -0.00009559   -0.00017061
     atom   39 type  2   force =     0.00001898    0.00009479    0.00015579
     atom   40 type  2   force =     0.00040110    0.00010392   -0.00036737
     atom   41 type  2   force =    -0.00103992    0.00009795   -0.00011275
     atom   42 type  2   force =     0.00028410    0.00027711   -0.00020583
     atom   43 type  1   force =     0.00115761    0.00048827    0.00031924
     atom   44 type  1   force =    -0.00043002    0.00058458   -0.00039449
     atom   45 type  2   force =     0.00020157   -0.00000032    0.09855256
     atom   46 type  2   force =    -0.08049204   -0.00109949   -0.03416565
     atom   47 type  2   force =     0.08058213   -0.00056220   -0.03424877
     atom   48 type  3   force =    -0.00170473    0.00118463    0.00105481
     atom   49 type  4   force =    -0.00004277   -0.00041863    0.00000791
     atom   50 type  4   force =     0.00180504   -0.00057830   -0.00137810
     atom   51 type  2   force =    -0.00002608    0.00052063   -0.00134177
     atom   52 type  4   force =     0.00110689   -0.00069422    0.00002091

     Total force =     0.383715     Total SCF correction =     0.000545
  @ DRIVER MODE: Message from server: STATUS
  @ DRIVER MODE: Message from server: GETFORCE
  @ DRIVER MODE: Returning v,forces,stress,ensemble

     Writing output data file ./calc.save/
  @ DRIVER MODE: Message from server: EXIT
  @ DRIVE MODE: Exiting

     General routines

     Parallel routines

   This run was terminated on:  20:36: 0  22Sep2021

   JOB DONE.