     Program PWSCF v.6.7GPU starts on 24Sep2021 at 12:37: 2

     R & G space division:  proc/nbgrp/npool/nimage =       8
     Reading input from /storage/home/hcoda1/3/ntian30/research/carbon/CxH_vib/H2O_calc/ads_slab/CH3ON2HO_a/out_0052/pw.inp
Warning: card &CELL ignored
Warning: card   CELL_DYNAMICS='IPI', ignored
Warning: card / ignored

     Current dimensions of program PWSCF are:
     Max number of different atomic species (ntypx) = 10
     Max number of k-points (npk) =  40000
     Max angular momentum in pseudopotentials (lmaxx) =  3
     Presently no symmetry can be used with electric field

     Message from routine cell_base_init:
     DEPRECATED: use true lattice parameter, not A to a.u. conversion factor

     IMPORTANT: XC functional enforced from input :
     Exchange-correlation= BEEF-VDW
                           (   1   4  43  14   2   0   0)
     Any further DFT definition will be discarded
     Please, verify this is what you really want

  @ DRIVER MODE: Connecting to
 qe_1139763_2947306.sched-torque.pace.gatech.eduig94qr2q_scratch
  using UNIX socket
  @ DRIVER MODE: Message from server: STATUS
  @ DRIVER MODE: Message from server: INIT
  @ DRIVER MODE: Receiving replica           0          -1
  @ DRIVER MODE: Receiving encoded integer          25
  @ DRIVER MODE:  SCF:  T  FORCE:  T  STRESS:  F  VC:  F  ENSEMBLE:  F
  @ DRIVER MODE:  SCF:  T  FORCE:  T  STRESS:  F  VC:  F  ENSEMBLE:  F

     Using Slab Decomposition

     bravais-lattice index     =            0
     lattice parameter (alat)  =       1.8897  a.u.
     unit-cell volume          =    6658.9804 (a.u.)^3
     number of atoms/cell      =           56
     number of atomic types    =            5
     number of electrons       =       408.00
     number of Kohn-Sham states=          214
     kinetic-energy cutoff     =      29.3995  Ry
     charge density cutoff     =     293.9946  Ry
     scf convergence threshold =      7.3E-08
     mixing beta               =       0.0500
     number of iterations used =            8  plain     mixing
     Exchange-correlation= BEEF-VDW
                           (   1   4  43  14   2   0   0)

     celldm(1)=   1.889726  celldm(2)=   0.000000  celldm(3)=   0.000000
     celldm(4)=   0.000000  celldm(5)=   0.000000  celldm(6)=   0.000000

     crystal axes: (cart. coord. in units of alat)
               a(1) = (   6.579727   0.000000   0.000000 )
               a(2) = (  -0.000775   5.961596   0.000000 )
               a(3) = (   0.000000   0.000000  25.155947 )

     reciprocal axes: (cart. coord. in units 2 pi/alat)
               b(1) = (  0.151982  0.000020  0.000000 )
               b(2) = (  0.000000  0.167740  0.000000 )
               b(3) = (  0.000000  0.000000  0.039752 )

     PseudoPot. # 1 for Ti read from file:
     /storage/coda1/p-amedford6/0/shared/rich_project_chbe-medford/medford-share/data/pseudos_module/espresso/nninc/pbe/van/Ti.UPF
     MD5 check sum: 8e4df49b7f0d34bbd5052bf3f5ea0213
     Pseudo is Ultrasoft, Zval = 12.0
     Generated by new atomic code, or converted to UPF format
     Using radial grid of  851 points,  6 beta functions with:
                l(1) =   0
                l(2) =   0
                l(3) =   1
                l(4) =   1
                l(5) =   2
                l(6) =   2
     Q(r) pseudized with  8 coefficients,  rinner =    1.000   1.000   1.000
                                                       1.000   1.000

     PseudoPot. # 2 for O  read from file:
     /storage/coda1/p-amedford6/0/shared/rich_project_chbe-medford/medford-share/data/pseudos_module/espresso/nninc/pbe/van/O.UPF
     MD5 check sum: 78c19812648e8988a0fe644b0f25305e
     Pseudo is Ultrasoft, Zval =  6.0
     Generated by new atomic code, or converted to UPF format
     Using radial grid of  737 points,  4 beta functions with:
                l(1) =   0
                l(2) =   0
                l(3) =   1
                l(4) =   1
     Q(r) pseudized with  8 coefficients,  rinner =    0.800   0.800   0.800

     PseudoPot. # 3 for C  read from file:
     /storage/coda1/p-amedford6/0/shared/rich_project_chbe-medford/medford-share/data/pseudos_module/espresso/nninc/pbe/van/C.UPF
     MD5 check sum: 1a69bf6b8db32088f5b2163dbdb77a27
     Pseudo is Ultrasoft, Zval =  4.0
     Generated by new atomic code, or converted to UPF format
     Using radial grid of  721 points,  4 beta functions with:
                l(1) =   0
                l(2) =   0
                l(3) =   1
                l(4) =   1
     Q(r) pseudized with  8 coefficients,  rinner =    0.800   0.800   0.800

     PseudoPot. # 4 for H  read from file:
     /storage/coda1/p-amedford6/0/shared/rich_project_chbe-medford/medford-share/data/pseudos_module/espresso/nninc/pbe/van/H.UPF
     MD5 check sum: b5ee9d7bfd3a09ee7748110bda690ff7
     Pseudo is Ultrasoft, Zval =  1.0
     Generated by new atomic code, or converted to UPF format
     Using radial grid of  615 points,  1 beta functions with:
                l(1) =   0
     Q(r) pseudized with  8 coefficients,  rinner =    0.800

     PseudoPot. # 5 for N  read from file:
     /storage/coda1/p-amedford6/0/shared/rich_project_chbe-medford/medford-share/data/pseudos_module/espresso/nninc/pbe/van/N.UPF
     MD5 check sum: 90d10febe142ad51ac9d5be1deb811c4
     Pseudo is Ultrasoft, Zval =  5.0
     Generated by new atomic code, or converted to UPF format
     Using radial grid of  729 points,  4 beta functions with:
                l(1) =   0
                l(2) =   0
                l(3) =   1
                l(4) =   1
     Q(r) pseudized with  8 coefficients,  rinner =    0.800   0.800   0.800

     atomic species   valence    mass     pseudopotential
        Ti1           12.00    47.86700     Ti( 1.00)
        O1             6.00    15.99900     O ( 1.00)
        C1             4.00    12.01100     C ( 1.00)
        H1             1.00     1.00800     H ( 1.00)
        N1             5.00    14.00700     N ( 1.00)

     No symmetry found

   Cartesian axes

     site n.     atom                  positions (alat units)
         1           Ti1 tau(   1) = (   0.0004258   2.9801865   6.0000000  )
         2           Ti1 tau(   2) = (   3.2906075   1.4906267   6.0002472  )
         3           O1  tau(   3) = (   0.0006271   0.0005054   7.9858123  )
         4           O1  tau(   4) = (   3.2906025   0.0005020   7.3038282  )
         5           O1  tau(   5) = (   4.5942328   1.4918067   9.2879030  )
         6           O1  tau(   6) = (   1.9868534   1.4903216   9.2879459  )
         7           Ti1 tau(   7) = (   3.3138730   3.1023225   9.2183157  )
         8           Ti1 tau(   8) = (   0.0392070   1.5780841   9.3433077  )
         9           O1  tau(   9) = (   3.2868017   0.0212601  11.3135411  )
        10           O1  tau(  10) = (   0.0022550   0.0140515  10.5858881  )
        11           O1  tau(  11) = (   1.2767464   1.5002397  12.6205121  )
        12           O1  tau(  12) = (   5.2993684   1.4943797  12.6172415  )
        13           Ti1 tau(  13) = (   0.0200588   3.0780815  12.7918821  )
        14           Ti1 tau(  14) = (   3.2574684   1.5637424  12.4212484  )
        15           O1  tau(  15) = (   6.5768379   0.0158506  14.6682411  )
        16           O1  tau(  16) = (   3.2886937   5.9311801  13.9109749  )
        17           O1  tau(  17) = (   4.5620935   1.5260772  16.0398494  )
        18           O1  tau(  18) = (   2.0292830   1.5431627  16.0187044  )
        19           Ti1 tau(  19) = (   3.3027642   2.9567202  15.6520962  )
        20           Ti1 tau(  20) = (   0.0552782   1.4362356  15.9688716  )
        21           O1  tau(  21) = (   3.2904802   0.0005063   4.7018136  )
        22           O1  tau(  22) = (   0.0488089   0.0211857  17.1900833  )
        23           O1  tau(  23) = (   1.3043587   1.4918075   6.0039043  )
        24           O1  tau(  24) = (   5.2767064   1.4903225   6.0039473  )
        25           Ti1 tau(  25) = (   0.0000382   5.9609847   6.0000000  )
        26           Ti1 tau(  26) = (   3.2902200   4.4714249   6.0002472  )
        27           O1  tau(  27) = (   0.0002396   2.9813036   7.9858123  )
        28           O1  tau(  28) = (   3.2902150   2.9813002   7.3038282  )
        29           O1  tau(  29) = (   4.5938453   4.4726049   9.2879030  )
        30           O1  tau(  30) = (   1.9864658   4.4711199   9.2879459  )
        31           Ti1 tau(  31) = (   3.3219941   0.1169887   9.1790125  )
        32           Ti1 tau(  32) = (   0.0373256   4.5280481   9.3594506  )
        33           O1  tau(  33) = (   3.2887547   2.9594671  11.2851190  )
        34           O1  tau(  34) = (   0.0046902   2.9985155  10.5475055  )
        35           O1  tau(  35) = (   1.2817606   4.4707209  12.6310527  )
        36           O1  tau(  36) = (   5.3098963   4.4869072  12.6241852  )
        37           Ti1 tau(  37) = (   6.5328698   0.0937101  12.6083326  )
        38           Ti1 tau(  38) = (   3.2790761   4.6595539  12.6693962  )
        39           O1  tau(  39) = (   0.0062896   2.9920245  14.6683812  )
        40           O1  tau(  40) = (   3.3079832   2.9813091  13.8732900  )
        41           O1  tau(  41) = (   4.5514670   4.4448635  16.0695425  )
        42           O1  tau(  42) = (   2.0242163   4.4286948  16.0089506  )
        43           Ti1 tau(  43) = (   3.3772342   5.9382356  16.2476532  )
        44           Ti1 tau(  44) = (   0.0845355   4.5653432  16.0322982  )
        45           O1  tau(  45) = (   3.2900926   2.9813045   4.7018136  )
        46           O1  tau(  46) = (   1.3039711   4.4726057   6.0039043  )
        47           O1  tau(  47) = (   5.2763189   4.4711207   6.0039473  )
        48           C1  tau(  48) = (   6.0101766   2.9784267  18.6088694  )
        49           O1  tau(  49) = (   6.5649008   2.9952511  17.2928482  )
        50           H1  tau(  50) = (   4.9185495   2.9407445  18.5675634  )
        51           H1  tau(  51) = (   6.3703738   2.0936667  19.1370987  )
        52           H1  tau(  52) = (   6.3118891   3.8824302  19.1399426  )
        53           N1  tau(  53) = (   6.0262039   3.1690275  22.5535725  )
        54           N1  tau(  54) = (   5.1417247   3.1052473  21.8962875  )
        55           O1  tau(  55) = (   3.2068502   5.9581871  18.0710493  )
        56           H1  tau(  56) = (   2.3500504   0.2377792  18.4614507  )

     number of k points=    10  Fermi-Dirac smearing, width (Ry)=  0.0073
                       cart. coord. in units 2pi/alat
        k(    1) = (   0.0000000   0.0000000   0.0000000), wk =   0.1250000
        k(    2) = (   0.0000000   0.0419351   0.0000000), wk =   0.2500000
        k(    3) = (   0.0000000  -0.0838702   0.0000000), wk =   0.1250000
        k(    4) = (   0.0379955   0.0000049   0.0000000), wk =   0.2500000
        k(    5) = (   0.0379955   0.0419400   0.0000000), wk =   0.2500000
        k(    6) = (   0.0379955  -0.0838652   0.0000000), wk =   0.2500000
        k(    7) = (   0.0379955  -0.0419301   0.0000000), wk =   0.2500000
        k(    8) = (  -0.0759910  -0.0000099   0.0000000), wk =   0.1250000
        k(    9) = (  -0.0759910   0.0419252   0.0000000), wk =   0.2500000
        k(   10) = (  -0.0759910  -0.0838800   0.0000000), wk =   0.1250000

     Initial potential from superposition of free atoms

     starting charge  391.99915, renormalised to  408.00000

     negative rho (up, down):  9.976E-03 0.000E+00

     %%%%%%%%%%%%%%%%%%%%%%%%%%%%%%%%%%%%%%%%%%%%%%%%%%%%%%%%%%%%%%%%%%%%%%%%
     %                                                                      %
     % You are using vdW-DF, which was implemented by the Thonhauser group. %
     % Please cite the following two papers that made this development      %
     % possible and the two reviews that describe the various versions:     %
     %                                                                      %
     %   T. Thonhauser et al., PRL 115, 136402 (2015).                      %
     %   T. Thonhauser et al., PRB 76, 125112 (2007).                       %
     %   K. Berland et al., Rep. Prog. Phys. 78, 066501 (2015).             %
     %   D.C. Langreth et al., J. Phys.: Condens. Matter 21, 084203 (2009). %
     %                                                                      %
     %                                                                      %
     % If you are calculating the stress with vdW-DF, please also cite:     %
     %                                                                      %
     %   R. Sabatini et al., J. Phys.: Condens. Matter 24, 424209 (2012).   %
     %                                                                      %
     %%%%%%%%%%%%%%%%%%%%%%%%%%%%%%%%%%%%%%%%%%%%%%%%%%%%%%%%%%%%%%%%%%%%%%%%

     Adding external electric field

     Computed dipole along edir(3) :
        Dipole              -16.8152 Ry au,        -42.7399 Debye
        Dipole field         -0.0317 Ry au,

        Potential amp.        2.9416 Ry
        Total length         46.3494 bohr

     Starting wfcs are  308 atomic wfcs
  @ DRIVER MODE: Message from server: STATUS
  @ DRIVER MODE: Message from server: POSDATA
  @ DRIVER MODE: Reading and sharing cell
  @ DRIVER MODE: Reading and sharing positions
  @ DRIVER MODE: Received positions

     Self-consistent Calculation

     iteration #  1     ecut=    29.40 Ry     beta= 0.05
     Davidson diagonalization with overlap
     c_bands:  4 eigenvalues not converged
     c_bands:  1 eigenvalues not converged
     c_bands:  5 eigenvalues not converged
     c_bands:  1 eigenvalues not converged
     c_bands:  3 eigenvalues not converged
     c_bands:  2 eigenvalues not converged
     c_bands:  1 eigenvalues not converged
     c_bands:  5 eigenvalues not converged
     ethr =  1.00E-05,  avg # of iterations = 27.3

[...]

     total energy              =   -2248.47773435 Ry
     estimated scf accuracy    <    8689.00202444 Ry

     iteration #  2     ecut=    29.40 Ry     beta= 0.05
     Davidson diagonalization with overlap
     ethr =  1.00E-02,  avg # of iterations = 30.4

[...]

     iteration # 67     ecut=    29.40 Ry     beta= 0.05
     Davidson diagonalization with overlap
     c_bands:  1 eigenvalues not converged
     c_bands:  1 eigenvalues not converged
     c_bands:  1 eigenvalues not converged
     ethr =  4.27E-07,  avg # of iterations = 15.6

[...]

     total energy              =   -3005.28915498 Ry
     estimated scf accuracy    <       0.00000010 Ry

     iteration # 98     ecut=    29.40 Ry     beta= 0.05
     Davidson diagonalization with overlap
     ethr =  2.42E-11,  avg # of iterations =  4.5

     negative rho (up, down):  1.141E-02 0.000E+00

     Adding external electric field

     Computed dipole along edir(3) :
        Dipole                0.5479 Ry au,          1.3926 Debye
        Dipole field          0.0010 Ry au,

        Potential amp.       -0.0958 Ry
        Total length         46.3494 bohr

     End of self-consistent calculation

          k = 0.0000 0.0000 0.0000 ( 18029 PWs)   bands (ev):

   -56.1296 -56.0821 -55.5721 -55.5527 -55.5383 -55.5143 -55.4812 -55.4571
   -55.4225 -55.3968 -55.3630 -55.3211 -55.3199 -55.1838 -54.7427 -54.7088
   -32.5425 -32.3938 -32.3434 -32.3091 -32.2144 -32.1689 -32.0754 -32.0188
   -32.0106 -31.9045 -31.8604 -31.8427 -31.8370 -31.8157 -31.8133 -31.7751
   -31.7724 -31.7588 -31.7384 -31.7316 -31.7279 -31.6865 -31.6771 -31.6617
   -31.6586 -31.6407 -31.6377 -31.6286 -31.6206 -31.6113 -31.6042 -31.5871
   -31.5723 -31.5670 -31.5608 -31.5260 -31.5168 -31.5141 -31.4838 -31.4385
   -31.4005 -31.3890 -31.1371 -31.0829 -31.0585 -30.9540 -30.8691 -30.7582
   -20.8570 -17.3368 -16.3306 -16.2849 -16.1445 -15.9082 -15.7638 -15.6868
   -15.4572 -15.4467 -15.3320 -15.3250 -15.2903 -15.1591 -15.1418 -15.1341
   -15.0829 -15.0684 -15.0452 -15.0431 -15.0394 -15.0310 -14.9735 -14.9544
   -14.9148 -14.8559 -14.7798 -14.7596 -14.7104 -14.6994 -14.6577 -14.4322
   -13.2440 -13.1353  -9.0876  -6.0176  -4.1094  -3.9867  -3.9802  -3.9293
    -3.8131  -3.7626  -3.5881  -3.4893  -3.4638  -3.3875  -3.2914  -3.1861
    -2.9718  -2.8204  -2.7573  -2.7191  -2.7161  -2.6763  -2.6350  -2.5734
    -2.5188  -2.4766  -2.4427  -2.4088  -2.3486  -2.3363  -2.3203  -2.2900
    -2.2702  -2.2492  -2.2132  -2.2015  -2.0702  -2.0336  -2.0039  -1.9924
    -1.9392  -1.9206  -1.9018  -1.8919  -1.8470  -1.7506  -1.6527  -1.6386
    -1.5946  -1.4088  -1.3330  -1.2870  -1.2087  -1.1432  -1.0656  -1.0451
    -1.0352  -0.9809  -0.9426  -0.8413  -0.8072  -0.7681  -0.7005  -0.6950
    -0.6560  -0.5964  -0.5713  -0.5097  -0.4819  -0.4484  -0.3102  -0.2731
    -0.2562  -0.1940  -0.1937  -0.1015  -0.0424   0.0109   0.0298   0.0852
     0.1253   0.1474   0.1984   0.2292   0.2431   0.3265   0.3756   0.3826
     0.4166   0.4560   0.4748   0.5066   0.5949   0.6430   0.6694   0.6950
     0.8391   0.8524   0.9080   1.0141   1.0238   1.2057   1.2750   1.3106
     1.4972   1.5354   1.8267   1.8724   3.1706   3.3339   3.6132   3.7256
     3.7696   3.8095   3.8849   3.9119   4.0665   4.1110

[...]

          k = 0.0380-0.0419 0.0000 ( 17876 PWs)   bands (ev):

[...]

          k =-0.0760-0.0000 0.0000 ( 17886 PWs)   bands (ev):

[...]

          k =-0.0760-0.0839 0.0000 ( 17948 PWs)   bands (ev):

   -56.1226 -56.0889 -55.5701 -55.5478 -55.5372 -55.5083 -55.4856 -55.4629
   -55.4244 -55.3981 -55.3544 -55.3293 -55.3181 -55.1858 -54.7259 -54.7255
   -32.3893 -32.3737 -32.3474 -32.3450 -32.2746 -32.2460 -31.9639 -31.8839
   -31.8547 -31.8379 -31.8148 -31.8047 -31.7920 -31.7864 -31.7765 -31.7620
   -31.7566 -31.7467 -31.7465 -31.7387 -31.7292 -31.7204 -31.7072 -31.7057
   -31.7038 -31.6869 -31.6816 -31.6568 -31.6484 -31.6470 -31.6295 -31.6233
   -31.6006 -31.5937 -31.5783 -31.5663 -31.5636 -31.5360 -31.5210 -31.5031
   -31.4390 -31.3925 -31.0716 -31.0715 -30.9527 -30.9510 -30.9112 -30.9103
   -20.8569 -17.2993 -16.3016 -15.6931 -15.6035 -15.5941 -15.5867 -15.5538
   -15.5180 -15.4532 -15.4387 -15.3706 -15.2985 -15.2678 -15.2268 -15.2020
   -15.1862 -15.1494 -15.1447 -15.0828 -15.0393 -15.0303 -15.0157 -15.0018
   -14.9574 -14.9493 -14.9405 -14.9244 -14.9152 -14.8545 -14.7546 -14.5769
   -13.2395 -13.2386  -9.0878  -6.0191  -4.0463  -3.9946  -3.9696  -3.8586
    -3.7020  -3.4605  -2.9260  -2.8458  -2.7670  -2.7649  -2.7027  -2.6761
    -2.6282  -2.6052  -2.5689  -2.5535  -2.5316  -2.4660  -2.4412  -2.4268
    -2.4233  -2.4145  -2.3985  -2.3796  -2.3372  -2.3280  -2.3149  -2.3055
    -2.2866  -2.2822  -2.2696  -2.2488  -2.2080  -2.1460  -2.0887  -1.9482
    -1.9400  -1.9140  -1.8949  -1.8705  -1.8454  -1.7946  -1.7130  -1.6929
    -1.6743  -1.5987  -1.5397  -1.3348  -1.3136  -1.2961  -1.2262  -1.1578
    -1.0915  -1.0737  -1.0391  -1.0050  -0.9817  -0.9417  -0.8850  -0.8507
    -0.8076  -0.7948  -0.7567  -0.7189  -0.6726  -0.6087  -0.6005  -0.5681
    -0.5177  -0.4940  -0.4040  -0.3958  -0.3717  -0.3542  -0.3206  -0.2292
    -0.1766  -0.1309  -0.0421  -0.0027   0.0378   0.1707   0.2369   0.2727
     0.3452   0.3876   0.4937   0.5151   0.5950   0.6164   0.6456   0.6709
     0.7364   0.8071   0.8587   0.9079   0.9482   0.9630   1.0143   1.0642
     1.6684   1.6710   1.6785   1.6848   3.7136   3.7398   3.7476   3.7809
     3.9846   4.0148   4.0880   4.1046   4.1249   4.1902

     the Fermi energy is     2.5788 ev

!    total energy              =   -3005.28916760 Ry
     estimated scf accuracy    <       0.00000007 Ry
     smearing contrib. (-TS)   =      -0.00015431 Ry
     internal energy E=F+TS    =   -3005.28901329 Ry

     The total energy is F=E-TS. E is the sum of the following terms:
     one-electron contribution =  -22581.85197429 Ry
     hartree contribution      =   11387.22834956 Ry
     xc contribution           =    -500.23895889 Ry
     ewald contribution        =    8689.57300388 Ry
     electric field correction =       0.00056646 Ry

     convergence has been achieved in  98 iterations

     Forces acting on atoms (cartesian axes, Ry/au):

     atom    1 type  1   force =     0.00012202    0.00010221    0.13278499
     atom    2 type  1   force =    -0.00011046    0.00819973   -0.15824431
     atom    3 type  2   force =     0.00029964   -0.00362371   -0.05308158
     atom    4 type  2   force =     0.00059321    0.00104952    0.04009784
     atom    5 type  2   force =    -0.00785457   -0.00195050   -0.00034107
     atom    6 type  2   force =     0.00845657   -0.00490291   -0.00004728
     atom    7 type  1   force =    -0.00017442   -0.00031609   -0.00005963
     atom    8 type  1   force =    -0.00000842   -0.00027018    0.00020431
     atom    9 type  2   force =     0.00013392    0.00009966    0.00001692
     atom   10 type  2   force =    -0.00003307    0.00020658    0.00008349
     atom   11 type  2   force =    -0.00003543    0.00013983   -0.00000425
     atom   12 type  2   force =     0.00036102   -0.00009726   -0.00005208
     atom   13 type  1   force =    -0.00018556    0.00001982    0.00016052
     atom   14 type  1   force =     0.00011571    0.00057464    0.00008845
     atom   15 type  2   force =    -0.00011019    0.00013078   -0.00004183
     atom   16 type  2   force =     0.00002811    0.00007305   -0.00044568
     atom   17 type  2   force =     0.00016334   -0.00035136    0.00018372
     atom   18 type  2   force =    -0.00004477   -0.00058201    0.00020033
     atom   19 type  1   force =    -0.00038593    0.00032835   -0.00008602
     atom   20 type  1   force =     0.00033294    0.00001906   -0.00008538
     atom   21 type  2   force =    -0.00006542    0.00009435    0.09919796
     atom   22 type  2   force =    -0.00025411    0.00019197    0.00000912
     atom   23 type  2   force =    -0.08060250    0.00057989   -0.03416052
     atom   24 type  2   force =     0.08037705    0.00110200   -0.03420168
     atom   25 type  1   force =    -0.00021598   -0.00017658    0.14169564
     atom   26 type  1   force =    -0.00019106   -0.00685609   -0.15776031
     atom   27 type  2   force =     0.00043996    0.00018081   -0.05212051
     atom   28 type  2   force =     0.00043962    0.00035620    0.04188392
     atom   29 type  2   force =    -0.00939090    0.00597760    0.00164826
     atom   30 type  2   force =     0.00930396    0.00235052    0.00175672
     atom   31 type  1   force =    -0.00002736    0.00011027    0.00012863
     atom   32 type  1   force =     0.00002208   -0.00014076   -0.00011763
     atom   33 type  2   force =    -0.00006337   -0.00032402    0.00027587
     atom   34 type  2   force =    -0.00009784   -0.00005499    0.00003026
     atom   35 type  2   force =     0.00063273    0.00025438   -0.00007181
     atom   36 type  2   force =    -0.00020060    0.00014496    0.00005473
     atom   37 type  1   force =    -0.00039162    0.00047735   -0.00062906
     atom   38 type  1   force =     0.00024398   -0.00033864   -0.00011588
     atom   39 type  2   force =    -0.00003368   -0.00000964    0.00027809
     atom   40 type  2   force =     0.00013468   -0.00009106   -0.00034557
     atom   41 type  2   force =     0.00067045    0.00022833    0.00028028
     atom   42 type  2   force =    -0.00044428    0.00026452   -0.00005818
     atom   43 type  1   force =    -0.00060563   -0.00043702    0.00001101
     atom   44 type  1   force =     0.00015202   -0.00036441   -0.00038813
     atom   45 type  2   force =    -0.00007684    0.00018489    0.09875364
     atom   46 type  2   force =    -0.08056676   -0.00156519   -0.03411463
     atom   47 type  2   force =     0.08037118   -0.00103131   -0.03419948
     atom   48 type  3   force =     0.00030082   -0.00006773    0.00037527
     atom   49 type  2   force =    -0.00019072   -0.00034160    0.00058091
     atom   50 type  4   force =    -0.00040953    0.00016560   -0.00032223
     atom   51 type  4   force =    -0.00014088   -0.00009648    0.00011242
     atom   52 type  4   force =     0.00019708    0.00033368   -0.00030845
     atom   53 type  5   force =     0.00098978    0.00010857    0.00073589
     atom   54 type  5   force =    -0.00129691   -0.00000237   -0.00083220
     atom   55 type  2   force =    -0.00516883    0.00204920    0.00221558
     atom   56 type  4   force =     0.00449579   -0.00210641   -0.00160940

     Total force =     0.383794     Total SCF correction =     0.000608
  @ DRIVER MODE: Message from server: STATUS
  @ DRIVER MODE: Message from server: GETFORCE
  @ DRIVER MODE: Returning v,forces,stress,ensemble

     Writing output data file ./calc.save/
  @ DRIVER MODE: Message from server: EXIT
  @ DRIVE MODE: Exiting

     General routines

     Parallel routines

   This run was terminated on:  13:17: 9  24Sep2021

   JOB DONE.