     Program PWSCF v.6.7GPU starts on  2Aug2021 at 16:51:15

     R & G space division:  proc/nbgrp/npool/nimage =      16
     Reading input from /storage/home/hcoda1/3/ntian30/research/carbon/02Aug_vib_paired/ads_slab/CH3NH3_a/out_0012/pw.inp
Warning: card &CELL ignored
Warning: card   CELL_DYNAMICS='IPI', ignored
Warning: card / ignored

     Current dimensions of program PWSCF are:
     Max number of different atomic species (ntypx) = 10
     Max number of k-points (npk) =  40000
     Max angular momentum in pseudopotentials (lmaxx) =  3
     Presently no symmetry can be used with electric field

     Message from routine cell_base_init:
     DEPRECATED: use true lattice parameter, not A to a.u. conversion factor

     IMPORTANT: XC functional enforced from input :
     Exchange-correlation= BEEF-VDW
                           (   1   4  43  14   2   0   0)
     Any further DFT definition will be discarded
     Please, verify this is what you really want

  @ DRIVER MODE: Connecting to
 qe_1139763_2482539.sched-torque.pace.gatech.edu6w2u3e0e_scratch
  using UNIX socket
  @ DRIVER MODE: Message from server: STATUS
  @ DRIVER MODE: Message from server: INIT
  @ DRIVER MODE: Receiving replica           0          -1
  @ DRIVER MODE: Receiving encoded integer          25
  @ DRIVER MODE:  SCF:  T  FORCE:  T  STRESS:  F  VC:  F  ENSEMBLE:  F
  @ DRIVER MODE:  SCF:  T  FORCE:  T  STRESS:  F  VC:  F  ENSEMBLE:  F

     Using Slab Decomposition

     bravais-lattice index     =            0
     lattice parameter (alat)  =       1.8897  a.u.
     unit-cell volume          =    6658.9804 (a.u.)^3
     number of atoms/cell      =           55
     number of atomic types    =            5
     number of electrons       =       393.00
     number of Kohn-Sham states=          206
     kinetic-energy cutoff     =      29.3995  Ry
     charge density cutoff     =     293.9946  Ry
     scf convergence threshold =      7.3E-08
     mixing beta               =       0.0500
     number of iterations used =            8  plain     mixing
     Exchange-correlation= BEEF-VDW
                           (   1   4  43  14   2   0   0)

     celldm(1)=   1.889726  celldm(2)=   0.000000  celldm(3)=   0.000000
     celldm(4)=   0.000000  celldm(5)=   0.000000  celldm(6)=   0.000000

     crystal axes: (cart. coord. in units of alat)
               a(1) = (   6.579727   0.000000   0.000000 )
               a(2) = (  -0.000775   5.961596   0.000000 )
               a(3) = (   0.000000   0.000000  25.155947 )

     reciprocal axes: (cart. coord. in units 2 pi/alat)
               b(1) = (  0.151982  0.000020  0.000000 )
               b(2) = (  0.000000  0.167740  0.000000 )
               b(3) = (  0.000000  0.000000  0.039752 )

     PseudoPot. # 1 for Ti read from file:
     /storage/coda1/p-amedford6/0/shared/rich_project_chbe-medford/medford-share/data/pseudos_module/espresso/nninc/pbe/van/Ti.UPF
     MD5 check sum: 8e4df49b7f0d34bbd5052bf3f5ea0213
     Pseudo is Ultrasoft, Zval = 12.0
     Generated by new atomic code, or converted to UPF format
     Using radial grid of  851 points,  6 beta functions with:
                l(1) =   0
                l(2) =   0
                l(3) =   1
                l(4) =   1
                l(5) =   2
                l(6) =   2
     Q(r) pseudized with  8 coefficients,  rinner =    1.000   1.000   1.000
                                                       1.000   1.000

     PseudoPot. # 2 for O  read from file:
     /storage/coda1/p-amedford6/0/shared/rich_project_chbe-medford/medford-share/data/pseudos_module/espresso/nninc/pbe/van/O.UPF
     MD5 check sum: 78c19812648e8988a0fe644b0f25305e
     Pseudo is Ultrasoft, Zval =  6.0
     Generated by new atomic code, or converted to UPF format
     Using radial grid of  737 points,  4 beta functions with:
                l(1) =   0
                l(2) =   0
                l(3) =   1
                l(4) =   1
     Q(r) pseudized with  8 coefficients,  rinner =    0.800   0.800   0.800

     PseudoPot. # 3 for C  read from file:
     /storage/coda1/p-amedford6/0/shared/rich_project_chbe-medford/medford-share/data/pseudos_module/espresso/nninc/pbe/van/C.UPF
     MD5 check sum: 1a69bf6b8db32088f5b2163dbdb77a27
     Pseudo is Ultrasoft, Zval =  4.0
     Generated by new atomic code, or converted to UPF format
     Using radial grid of  721 points,  4 beta functions with:
                l(1) =   0
                l(2) =   0
                l(3) =   1
                l(4) =   1
     Q(r) pseudized with  8 coefficients,  rinner =    0.800   0.800   0.800

     PseudoPot. # 4 for H  read from file:
     /storage/coda1/p-amedford6/0/shared/rich_project_chbe-medford/medford-share/data/pseudos_module/espresso/nninc/pbe/van/H.UPF
     MD5 check sum: b5ee9d7bfd3a09ee7748110bda690ff7
     Pseudo is Ultrasoft, Zval =  1.0
     Generated by new atomic code, or converted to UPF format
     Using radial grid of  615 points,  1 beta functions with:
                l(1) =   0
     Q(r) pseudized with  8 coefficients,  rinner =    0.800

     PseudoPot. # 5 for N  read from file:
     /storage/coda1/p-amedford6/0/shared/rich_project_chbe-medford/medford-share/data/pseudos_module/espresso/nninc/pbe/van/N.UPF
     MD5 check sum: 90d10febe142ad51ac9d5be1deb811c4
     Pseudo is Ultrasoft, Zval =  5.0
     Generated by new atomic code, or converted to UPF format
     Using radial grid of  729 points,  4 beta functions with:
                l(1) =   0
                l(2) =   0
                l(3) =   1
                l(4) =   1
     Q(r) pseudized with  8 coefficients,  rinner =    0.800   0.800   0.800

     atomic species   valence    mass     pseudopotential
        Ti1           12.00    47.86700     Ti( 1.00)
        O1             6.00    15.99900     O ( 1.00)
        C1             4.00    12.01100     C ( 1.00)
        H1             1.00     1.00800     H ( 1.00)
        N1             5.00    14.00700     N ( 1.00)

     No symmetry found

   Cartesian axes

     site n.     atom                  positions (alat units)
         1           Ti1 tau(   1) = (   0.0004258   2.9801865   6.0000000  )
         2           Ti1 tau(   2) = (   3.2906075   1.4906267   6.0002472  )
         3           O1  tau(   3) = (   0.0006271   0.0005054   7.9858123  )
         4           O1  tau(   4) = (   3.2906025   0.0005020   7.3038282  )
         5           O1  tau(   5) = (   4.5942328   1.4918067   9.2879030  )
         6           O1  tau(   6) = (   1.9868534   1.4903216   9.2879459  )
         7           Ti1 tau(   7) = (   3.2907910   2.8959150   9.1758416  )
         8           Ti1 tau(   8) = (   0.0015273   1.4827037   9.2680791  )
         9           O1  tau(   9) = (   3.2981156   0.0012339  11.3300471  )
        10           O1  tau(  10) = (   0.0116148   5.9584955  10.6183126  )
        11           O1  tau(  11) = (   1.3033605   1.5036236  12.6199488  )
        12           O1  tau(  12) = (   5.2811161   1.5074500  12.6162500  )
        13           Ti1 tau(  13) = (   0.0407500   2.9455431  12.6352795  )
        14           Ti1 tau(  14) = (   3.3444429   1.4910927  12.4779025  )
        15           O1  tau(  15) = (   0.0052662   0.0451097  14.6026341  )
        16           O1  tau(  16) = (   3.2946143   0.0124870  13.9210852  )
        17           O1  tau(  17) = (   4.5465206   1.5046604  16.0624161  )
        18           O1  tau(  18) = (   2.0546879   1.5048301  16.0609706  )
        19           Ti1 tau(  19) = (   3.2991624   2.9918142  15.6995589  )
        20           Ti1 tau(  20) = (   6.5707204   1.4025535  15.8059435  )
        21           O1  tau(  21) = (   3.2904802   0.0005063   4.7018136  )
        22           O1  tau(  22) = (   0.0164654   0.0145536  17.1360041  )
        23           O1  tau(  23) = (   1.3043587   1.4918075   6.0039043  )
        24           O1  tau(  24) = (   5.2767064   1.4903225   6.0039473  )
        25           Ti1 tau(  25) = (   0.0000382   5.9609847   6.0000000  )
        26           Ti1 tau(  26) = (   3.2902200   4.4714249   6.0002472  )
        27           O1  tau(  27) = (   0.0002396   2.9813036   7.9858123  )
        28           O1  tau(  28) = (   3.2902150   2.9813002   7.3038282  )
        29           O1  tau(  29) = (   4.5938453   4.4726049   9.2879030  )
        30           O1  tau(  30) = (   1.9864658   4.4711199   9.2879459  )
        31           Ti1 tau(  31) = (   3.2891106   5.8743827   9.1763621  )
        32           Ti1 tau(  32) = (   0.0006254   4.4649316   9.2693709  )
        33           O1  tau(  33) = (   3.2977166   2.9913250  11.3287690  )
        34           O1  tau(  34) = (   0.0092240   2.9805883  10.6323155  )
        35           O1  tau(  35) = (   1.3008534   4.4801743  12.6308489  )
        36           O1  tau(  36) = (   5.2850400   4.4860598  12.6280017  )
        37           Ti1 tau(  37) = (   0.0409916   5.9178611  12.5441859  )
        38           Ti1 tau(  38) = (   3.3442415   4.4710906  12.4862270  )
        39           O1  tau(  39) = (   0.0109228   2.9791018  14.7123696  )
        40           O1  tau(  40) = (   3.2998940   2.9912248  13.9043662  )
        41           O1  tau(  41) = (   4.5474046   4.4713503  16.0779382  )
        42           O1  tau(  42) = (   2.0618872   4.4767818  16.0643778  )
        43           Ti1 tau(  43) = (   3.2722838   0.0128901  15.7174356  )
        44           Ti1 tau(  44) = (   6.5592075   4.4947239  16.1563676  )
        45           O1  tau(  45) = (   3.2900926   2.9813045   4.7018136  )
        46           O1  tau(  46) = (   1.3039711   4.4726057   6.0039043  )
        47           O1  tau(  47) = (   5.2763189   4.4711207   6.0039473  )
        48           C1  tau(  48) = (   0.0359503   3.0870652  17.8341721  )
        49           H1  tau(  49) = (   5.8142062   3.6010452  18.3863092  )
        50           H1  tau(  50) = (   6.4784518   2.0305676  18.0614951  )
        51           H1  tau(  51) = (   0.9863100   3.3782628  18.2908018  )
        52           N1  tau(  52) = (   4.7642638   1.7931862  21.6370373  )
        53           H1  tau(  53) = (   4.5527921   2.7808570  21.5386679  )
        54           H1  tau(  54) = (   4.1042548   1.2952780  21.0483319  )
        55           H1  tau(  55) = (   4.5435699   1.5432347  22.5953497  )

     number of k points=    10  Fermi-Dirac smearing, width (Ry)=  0.0073
                       cart. coord. in units 2pi/alat
        k(    1) = (   0.0000000   0.0000000   0.0000000), wk =   0.1250000
        k(    2) = (   0.0000000   0.0419351   0.0000000), wk =   0.2500000
        k(    3) = (   0.0000000  -0.0838702   0.0000000), wk =   0.1250000
        k(    4) = (   0.0379955   0.0000049   0.0000000), wk =   0.2500000
        k(    5) = (   0.0379955   0.0419400   0.0000000), wk =   0.2500000
        k(    6) = (   0.0379955  -0.0838652   0.0000000), wk =   0.2500000
        k(    7) = (   0.0379955  -0.0419301   0.0000000), wk =   0.2500000
        k(    8) = (  -0.0759910  -0.0000099   0.0000000), wk =   0.1250000
        k(    9) = (  -0.0759910   0.0419252   0.0000000), wk =   0.2500000
        k(   10) = (  -0.0759910  -0.0838800   0.0000000), wk =   0.1250000

     Initial potential from superposition of free atoms

     starting charge  376.99914, renormalised to  393.00000

     negative rho (up, down):  1.000E-02 0.000E+00

     %%%%%%%%%%%%%%%%%%%%%%%%%%%%%%%%%%%%%%%%%%%%%%%%%%%%%%%%%%%%%%%%%%%%%%%%
     %                                                                      %
     % You are using vdW-DF, which was implemented by the Thonhauser group. %
     % Please cite the following two papers that made this development      %
     % possible and the two reviews that describe the various versions:     %
     %                                                                      %
     %   T. Thonhauser et al., PRL 115, 136402 (2015).                      %
     %   T. Thonhauser et al., PRB 76, 125112 (2007).                       %
     %   K. Berland et al., Rep. Prog. Phys. 78, 066501 (2015).             %
     %   D.C. Langreth et al., J. Phys.: Condens. Matter 21, 084203 (2009). %
     %                                                                      %
     %                                                                      %
     % If you are calculating the stress with vdW-DF, please also cite:     %
     %                                                                      %
     %   R. Sabatini et al., J. Phys.: Condens. Matter 24, 424209 (2012).   %
     %                                                                      %
     %%%%%%%%%%%%%%%%%%%%%%%%%%%%%%%%%%%%%%%%%%%%%%%%%%%%%%%%%%%%%%%%%%%%%%%%

     Adding external electric field

     Computed dipole along edir(3) :
        Dipole               -9.0624 Ry au,        -23.0343 Debye
        Dipole field         -0.0171 Ry au,

        Potential amp.        1.5853 Ry
        Total length         46.3494 bohr

     Starting wfcs are  298 atomic wfcs
  @ DRIVER MODE: Message from server: STATUS
  @ DRIVER MODE: Message from server: POSDATA
  @ DRIVER MODE: Reading and sharing cell
  @ DRIVER MODE: Reading and sharing positions
  @ DRIVER MODE: Received positions

     Self-consistent Calculation

     iteration #  1     ecut=    29.40 Ry     beta= 0.05
     Davidson diagonalization with overlap
     c_bands:  1 eigenvalues not converged
     c_bands:  1 eigenvalues not converged
     c_bands:  1 eigenvalues not converged
     ethr =  1.00E-05,  avg # of iterations = 17.8

[...]

     total energy              =   -2692.43319447 Ry
     estimated scf accuracy    <    2566.29785228 Ry

[...]

     iteration #  3     ecut=    29.40 Ry     beta= 0.05
     Davidson diagonalization with overlap
     ethr =  1.00E-02,  avg # of iterations = 15.5

[...]

     iteration # 35     ecut=    29.40 Ry     beta= 0.05
     Davidson diagonalization with overlap
     c_bands:  1 eigenvalues not converged
     c_bands:  1 eigenvalues not converged
     ethr =  8.64E-07,  avg # of iterations = 13.0

[...]

     total energy              =   -2922.78949110 Ry
     estimated scf accuracy    <       0.00000023 Ry

     iteration # 57     ecut=    29.40 Ry     beta= 0.05
     Davidson diagonalization with overlap
     ethr =  3.14E-11,  avg # of iterations =  6.9

     negative rho (up, down):  1.131E-02 0.000E+00

     Adding external electric field

     Computed dipole along edir(3) :
        Dipole                0.5498 Ry au,          1.3975 Debye
        Dipole field          0.0010 Ry au,

        Potential amp.       -0.0962 Ry
        Total length         46.3494 bohr

     End of self-consistent calculation

          k = 0.0000 0.0000 0.0000 ( 18029 PWs)   bands (ev):

   -56.0340 -56.0301 -55.9999 -55.9937 -55.9014 -55.8666 -55.8666 -55.8418
   -55.8235 -55.8079 -55.8029 -55.7692 -55.5699 -55.4021 -55.0093 -54.9752
   -32.5884 -32.5159 -32.3609 -32.3552 -32.3411 -32.3400 -32.3270 -32.2935
   -32.2765 -32.2394 -32.2335 -32.2328 -32.2096 -32.1861 -32.1733 -32.1671
   -32.1378 -32.1352 -32.1212 -32.0911 -32.0811 -32.0702 -32.0385 -32.0337
   -32.0293 -32.0282 -32.0135 -32.0121 -32.0052 -31.9806 -31.9795 -31.9771
   -31.9719 -31.9713 -31.9560 -31.9467 -31.9152 -31.8486 -31.7839 -31.6895
   -31.6302 -31.5198 -31.4163 -31.3282 -31.3057 -31.2330 -31.1465 -31.0355
   -16.7683 -16.5049 -16.2728 -16.1823 -16.1326 -16.0460 -15.8685 -15.7520
   -15.7035 -15.6027 -15.5702 -15.5503 -15.5337 -15.5034 -15.4951 -15.4700
   -15.4587 -15.4524 -15.4179 -15.3898 -15.3648 -15.3503 -15.2305 -15.1779
   -15.1618 -15.1305 -15.0826 -15.0664 -14.6120 -13.6566 -13.5119 -13.3956
    -9.0356  -4.1430  -3.9628  -3.9375  -3.8891  -3.8472  -3.7153  -3.6980
    -3.6448  -3.5843  -3.2666  -3.2095  -3.2013  -3.1606  -3.1459  -2.9874
    -2.9236  -2.8503  -2.8329  -2.8284  -2.8028  -2.7975  -2.7927  -2.7501
    -2.7075  -2.6514  -2.6279  -2.5560  -2.5157  -2.4437  -2.3706  -2.3435
    -2.3012  -2.2953  -2.2620  -2.2496  -2.2416  -2.2316  -2.1956  -2.1754
    -2.0014  -1.9437  -1.8790  -1.8164  -1.8011  -1.6381  -1.5313  -1.4832
    -1.4650  -1.4579  -1.4396  -1.4229  -1.3270  -1.2087  -1.1761  -1.1268
    -1.0786  -1.0299  -1.0002  -0.8999  -0.8833  -0.7923  -0.7790  -0.7604
    -0.6471  -0.6239  -0.4911  -0.4692  -0.4638  -0.4034  -0.3878  -0.3151
    -0.2910  -0.2345  -0.1693  -0.1572  -0.0889  -0.0629  -0.0597  -0.0029
     0.0016   0.0467   0.0616   0.1704   0.2268   0.2761   0.3301   0.4367
     0.5165   0.6309   0.6777   0.7371   0.9388   1.0124   1.1217   1.1759
     1.2054   1.4650   1.5837   1.6292   3.1047   3.1897   3.2113   3.2372
     3.3447   3.3697   3.5552   3.5719   3.6062   3.6262

[...]

          k = 0.0380-0.0419 0.0000 ( 17876 PWs)   bands (ev):

[...]

          k =-0.0760-0.0000 0.0000 ( 17886 PWs)   bands (ev):

[...]

          k =-0.0760-0.0839 0.0000 ( 17948 PWs)   bands (ev):

   -56.0174 -56.0163 -56.0148 -56.0089 -55.8865 -55.8813 -55.8582 -55.8320
   -55.8254 -55.8236 -55.7873 -55.7849 -55.5685 -55.4034 -54.9923 -54.9921
   -32.3944 -32.3879 -32.3315 -32.3308 -32.3128 -32.3120 -32.2931 -32.2885
   -32.2221 -32.2213 -32.2182 -32.2075 -32.1670 -32.1659 -32.1469 -32.1425
   -32.1382 -32.1369 -32.1358 -32.1277 -32.1265 -32.1237 -32.0879 -32.0773
   -32.0730 -32.0508 -32.0466 -32.0327 -32.0237 -32.0228 -32.0190 -32.0171
   -32.0018 -32.0004 -31.9964 -31.9902 -31.9267 -31.8315 -31.7861 -31.6922
   -31.6749 -31.5637 -31.3185 -31.3184 -31.2292 -31.2290 -31.1899 -31.1898
   -16.2102 -16.1872 -15.9808 -15.9465 -15.9431 -15.9360 -15.8054 -15.7250
   -15.7245 -15.6987 -15.6373 -15.6259 -15.6043 -15.5658 -15.5414 -15.5390
   -15.5203 -15.5153 -15.4891 -15.4790 -15.4661 -15.4589 -15.3664 -15.3467
   -15.3428 -15.2935 -15.1481 -15.0021 -14.8924 -13.6559 -13.4975 -13.4973
    -9.0499  -3.7176  -3.7088  -3.5063  -3.4750  -3.2327  -3.1944  -3.1812
    -3.1122  -2.9559  -2.9162  -2.8982  -2.8906  -2.8462  -2.8386  -2.8333
    -2.8218  -2.7930  -2.7760  -2.7383  -2.7313  -2.7178  -2.7097  -2.6991
    -2.6821  -2.6522  -2.6435  -2.6085  -2.6080  -2.5862  -2.5710  -2.5431
    -2.5384  -2.4101  -2.2520  -2.2280  -2.1672  -2.1599  -2.1089  -2.0977
    -2.0941  -2.0668  -2.0319  -2.0101  -1.8486  -1.7401  -1.7256  -1.7088
    -1.6402  -1.6125  -1.5266  -1.4371  -1.3961  -1.3779  -1.3097  -1.3065
    -1.2554  -1.2315  -1.2107  -1.1433  -1.0864  -1.0495  -0.9925  -0.9866
    -0.9783  -0.9083  -0.8658  -0.7910  -0.7823  -0.7452  -0.7103  -0.6549
    -0.6177  -0.6096  -0.5192  -0.4871  -0.3746  -0.3260  -0.0676  -0.0188
     0.0337   0.0618   0.1271   0.1850   0.1888   0.2865   0.2903   0.3268
     0.4060   0.4275   0.4983   0.5177   0.5675   0.7293   1.2722   1.3765
     1.3773   1.4488   1.4491   1.4553   3.4026   3.4143   3.4214   3.4660
     3.6113   3.6159   3.6346   3.6361   3.7751   3.7926

     the Fermi energy is     3.1012 ev

!    total energy              =   -2922.78954643 Ry
     estimated scf accuracy    <       0.00000006 Ry
     smearing contrib. (-TS)   =      -0.02169540 Ry
     internal energy E=F+TS    =   -2922.76785103 Ry

     The total energy is F=E-TS. E is the sum of the following terms:
     one-electron contribution =  -23650.82777044 Ry
     hartree contribution      =   11909.62512967 Ry
     xc contribution           =    -482.25991048 Ry
     ewald contribution        =    9300.69412971 Ry
     electric field correction =       0.00057052 Ry

     convergence has been achieved in  57 iterations

     Forces acting on atoms (cartesian axes, Ry/au):

     atom    1 type  1   force =     0.00004863   -0.00022129    0.09688184
     atom    2 type  1   force =    -0.00017672   -0.00055616   -0.17513752
     atom    3 type  2   force =     0.00002309   -0.00005038   -0.02502976
     atom    4 type  2   force =     0.00002852   -0.00139913    0.05262919
     atom    5 type  2   force =    -0.01205735   -0.00050431    0.00329864
     atom    6 type  2   force =     0.01378418    0.00009200    0.00269925
     atom    7 type  1   force =    -0.00058117    0.00057078   -0.01157604
     atom    8 type  1   force =     0.00020317    0.01200753    0.02899453
     atom    9 type  2   force =    -0.00029659    0.00056900    0.00059326
     atom   10 type  2   force =    -0.00153385    0.00252447   -0.01946265
     atom   11 type  2   force =    -0.00019331   -0.00037337   -0.00014775
     atom   12 type  2   force =    -0.00089546    0.00003701   -0.00030070
     atom   13 type  1   force =     0.00054744   -0.00097187    0.00105587
     atom   14 type  1   force =     0.00146268    0.00057693   -0.00067286
     atom   15 type  2   force =    -0.00016142   -0.00093766    0.00046340
     atom   16 type  2   force =    -0.00021408   -0.00020171   -0.00148066
     atom   17 type  2   force =    -0.00067493    0.00071916   -0.00004427
     atom   18 type  2   force =     0.00043909    0.00095423    0.00002925
     atom   19 type  1   force =    -0.00011540   -0.00108143    0.00067406
     atom   20 type  1   force =    -0.00018306    0.00023087   -0.00018440
     atom   21 type  2   force =     0.00004511   -0.00003757    0.10325444
     atom   22 type  2   force =     0.00027770   -0.00032009    0.00083841
     atom   23 type  2   force =    -0.07157035   -0.00014512   -0.02770182
     atom   24 type  2   force =     0.07146589    0.00026937   -0.02773348
     atom   25 type  1   force =     0.00005280   -0.00028276    0.09647411
     atom   26 type  1   force =    -0.00019113   -0.00028167   -0.17536698
     atom   27 type  2   force =     0.00008668   -0.00017068   -0.02382049
     atom   28 type  2   force =     0.00004414   -0.00113957    0.05271357
     atom   29 type  2   force =    -0.01209874    0.00085739    0.00276465
     atom   30 type  2   force =     0.01374144    0.00124298    0.00218373
     atom   31 type  1   force =    -0.00047005    0.00304351   -0.01243998
     atom   32 type  1   force =     0.00018518   -0.01423252    0.02940509
     atom   33 type  2   force =    -0.00023113   -0.00062770    0.00044944
     atom   34 type  2   force =    -0.00098028    0.00176307   -0.02267213
     atom   35 type  2   force =    -0.00068040   -0.00060214   -0.00012402
     atom   36 type  2   force =     0.00003440   -0.00014676   -0.00033912
     atom   37 type  1   force =     0.00064331    0.00028073    0.00052239
     atom   38 type  1   force =     0.00150595    0.00018429   -0.00066237
     atom   39 type  2   force =     0.00008700    0.00013595   -0.00116210
     atom   40 type  2   force =    -0.00035087   -0.00010529    0.00174734
     atom   41 type  2   force =    -0.00082438   -0.00102572   -0.00019531
     atom   42 type  2   force =     0.00025203   -0.00148183    0.00026038
     atom   43 type  1   force =     0.00028833    0.00062589    0.00110110
     atom   44 type  1   force =     0.00024132   -0.00017455    0.00103182
     atom   45 type  2   force =     0.00005598   -0.00009352    0.10321953
     atom   46 type  2   force =    -0.07155675   -0.00011700   -0.02770496
     atom   47 type  2   force =     0.07146365    0.00031622   -0.02773913
     atom   48 type  3   force =    -0.00371671    0.00375676    0.00297120
     atom   49 type  4   force =     0.00294100   -0.00247851   -0.00407932
     atom   50 type  4   force =    -0.00017887   -0.00070677    0.00088635
     atom   51 type  4   force =    -0.00038341   -0.00038062   -0.00040970
     atom   52 type  5   force =    -0.00007985   -0.00018730   -0.00037957
     atom   53 type  4   force =     0.00064726   -0.00005197   -0.00037105
     atom   54 type  4   force =     0.00007814    0.00020313   -0.00010979
     atom   55 type  4   force =    -0.00027785    0.00012570   -0.00009489

     Total force =     0.368478     Total SCF correction =     0.000505
  @ DRIVER MODE: Message from server: STATUS
  @ DRIVER MODE: Message from server: GETFORCE
  @ DRIVER MODE: Returning v,forces,stress,ensemble

     Writing output data file ./calc.save/
  @ DRIVER MODE: Message from server: EXIT
  @ DRIVE MODE: Exiting

     General routines

     Parallel routines

   This run was terminated on:  17: 4:39   2Aug2021

   JOB DONE.