     Program PWSCF v.6.7GPU starts on 18Oct2021 at 19: 5:16

     R & G space division:  proc/nbgrp/npool/nimage =       8
     Reading input from /storage/home/hcoda1/3/ntian30/research/carbon/CxH_vib/Thiel_calc/ads_slab/NH2NH2HH_perslab/out_0016/pw.inp
Warning: card &CELL ignored
Warning: card   CELL_DYNAMICS='IPI', ignored
Warning: card / ignored

     Current dimensions of program PWSCF are:
     Max number of different atomic species (ntypx) = 10
     Max number of k-points (npk) =  40000
     Max angular momentum in pseudopotentials (lmaxx) =  3
     Presently no symmetry can be used with electric field

     Message from routine cell_base_init:
     DEPRECATED: use true lattice parameter, not A to a.u. conversion factor

     IMPORTANT: XC functional enforced from input :
     Exchange-correlation= BEEF-VDW
                           (   1   4  43  14   2   0   0)
     Any further DFT definition will be discarded
     Please, verify this is what you really want

  @ DRIVER MODE: Connecting to
 qe_1139763_3255137.sched-torque.pace.gatech.edu1zx_qhxc_scratch
  using UNIX socket
  @ DRIVER MODE: Message from server: STATUS
  @ DRIVER MODE: Message from server: INIT
  @ DRIVER MODE: Receiving replica           0          -1
  @ DRIVER MODE: Receiving encoded integer          25
  @ DRIVER MODE:  SCF:  T  FORCE:  T  STRESS:  F  VC:  F  ENSEMBLE:  F
  @ DRIVER MODE:  SCF:  T  FORCE:  T  STRESS:  F  VC:  F  ENSEMBLE:  F

     Using Slab Decomposition

     bravais-lattice index     =            0
     lattice parameter (alat)  =       1.8897  a.u.
     unit-cell volume          =    9988.4706 (a.u.)^3
     number of atoms/cell      =           61
     number of atomic types    =            4
     number of electrons       =       442.00
     number of Kohn-Sham states=          231
     kinetic-energy cutoff     =      29.3995  Ry
     charge density cutoff     =     293.9946  Ry
     scf convergence threshold =      7.3E-08
     mixing beta               =       0.0500
     number of iterations used =            8  plain     mixing
     Exchange-correlation= BEEF-VDW
                           (   1   4  43  14   2   0   0)

     celldm(1)=   1.889726  celldm(2)=   0.000000  celldm(3)=   0.000000
     celldm(4)=   0.000000  celldm(5)=   0.000000  celldm(6)=   0.000000

     crystal axes: (cart. coord. in units of alat)
               a(1) = (   6.579727   0.000000   0.000000 )
               a(2) = (  -0.001163   8.942395   0.000000 )
               a(3) = (   0.000000   0.000000  25.155947 )

     reciprocal axes: (cart. coord. in units 2 pi/alat)
               b(1) = (  0.151982  0.000020  0.000000 )
               b(2) = (  0.000000  0.111827  0.000000 )
               b(3) = (  0.000000  0.000000  0.039752 )

     PseudoPot. # 1 for O  read from file:
     /storage/coda1/p-amedford6/0/shared/rich_project_chbe-medford/medford-share/data/pseudos_module/espresso/nninc/pbe/van/O.UPF
     MD5 check sum: 78c19812648e8988a0fe644b0f25305e
     Pseudo is Ultrasoft, Zval =  6.0
     Generated by new atomic code, or converted to UPF format
     Using radial grid of  737 points,  4 beta functions with:
                l(1) =   0
                l(2) =   0
                l(3) =   1
                l(4) =   1
     Q(r) pseudized with  8 coefficients,  rinner =    0.800   0.800   0.800

     PseudoPot. # 2 for Ti read from file:
     /storage/coda1/p-amedford6/0/shared/rich_project_chbe-medford/medford-share/data/pseudos_module/espresso/nninc/pbe/van/Ti.UPF
     MD5 check sum: 8e4df49b7f0d34bbd5052bf3f5ea0213
     Pseudo is Ultrasoft, Zval = 12.0
     Generated by new atomic code, or converted to UPF format
     Using radial grid of  851 points,  6 beta functions with:
                l(1) =   0
                l(2) =   0
                l(3) =   1
                l(4) =   1
                l(5) =   2
                l(6) =   2
     Q(r) pseudized with  8 coefficients,  rinner =    1.000   1.000   1.000
                                                       1.000   1.000

     PseudoPot. # 3 for N  read from file:
     /storage/coda1/p-amedford6/0/shared/rich_project_chbe-medford/medford-share/data/pseudos_module/espresso/nninc/pbe/van/N.UPF
     MD5 check sum: 90d10febe142ad51ac9d5be1deb811c4
     Pseudo is Ultrasoft, Zval =  5.0
     Generated by new atomic code, or converted to UPF format
     Using radial grid of  729 points,  4 beta functions with:
                l(1) =   0
                l(2) =   0
                l(3) =   1
                l(4) =   1
     Q(r) pseudized with  8 coefficients,  rinner =    0.800   0.800   0.800

     PseudoPot. # 4 for H  read from file:
     /storage/coda1/p-amedford6/0/shared/rich_project_chbe-medford/medford-share/data/pseudos_module/espresso/nninc/pbe/van/H.UPF
     MD5 check sum: b5ee9d7bfd3a09ee7748110bda690ff7
     Pseudo is Ultrasoft, Zval =  1.0
     Generated by new atomic code, or converted to UPF format
     Using radial grid of  615 points,  1 beta functions with:
                l(1) =   0
     Q(r) pseudized with  8 coefficients,  rinner =    0.800

     atomic species   valence    mass     pseudopotential
        O1             6.00    15.99900     O ( 1.00)
        Ti1           12.00    47.86700     Ti( 1.00)
        N1             5.00    14.00700     N ( 1.00)
        H1             1.00     1.00800     H ( 1.00)

     No symmetry found

   Cartesian axes

     site n.     atom                  positions (alat units)
         1           O1  tau(   1) = (   0.0007354   0.0005023  10.5931620  )
         2           O1  tau(   2) = (   3.2456387   0.0208629  13.8623892  )
         3           O1  tau(   3) = (   6.5569189   0.0555649  17.3369326  )
         4           O1  tau(   4) = (   0.0006271   0.0005054   7.9858123  )
         5           O1  tau(   5) = (   3.2933513   8.9300833  11.1812556  )
         6           O1  tau(   6) = (   0.0337597   0.0712708  14.6279364  )
         7           O1  tau(   7) = (   1.9868534   1.4903216   9.2879459  )
         8           O1  tau(   8) = (   5.2215124   1.6184176  12.5791628  )
         9           O1  tau(   9) = (   1.9922958   1.5902288  16.0980526  )
        10           Ti1 tau(  10) = (   0.0007404   1.4906270   9.2895810  )
        11           Ti1 tau(  11) = (   3.2860490   1.3455809  12.4359399  )
        12           Ti1 tau(  12) = (   6.5618936   1.3602716  15.8812525  )
        13           O1  tau(  13) = (   4.5942328   1.4918067   9.2879030  )
        14           O1  tau(  14) = (   1.3307156   1.5887400  12.5381291  )
        15           O1  tau(  15) = (   4.5725103   1.6118788  16.0006659  )
        16           Ti1 tau(  16) = (   3.2902859   2.9801868   9.2893338  )
        17           Ti1 tau(  17) = (   0.0046584   2.8227806  12.4510757  )
        18           Ti1 tau(  18) = (   3.2555632   2.8898243  15.6661830  )
        19           O1  tau(  19) = (   0.0003479   2.9813005  10.5931620  )
        20           O1  tau(  20) = (   3.2279248   2.9553539  13.8813459  )
        21           O1  tau(  21) = (   0.0002396   2.9813036   7.9858123  )
        22           O1  tau(  22) = (   3.2889556   2.9859946  11.1941525  )
        23           O1  tau(  23) = (   0.0559812   2.9852445  14.6488683  )
        24           O1  tau(  24) = (   1.9864658   4.4711199   9.2879459  )
        25           O1  tau(  25) = (   5.2314886   4.5920767  12.6107679  )
        26           O1  tau(  26) = (   1.9969377   4.5324570  16.1535429  )
        27           Ti1 tau(  27) = (   0.0003529   4.4714252   9.2895810  )
        28           Ti1 tau(  28) = (   3.2845268   4.3564118  12.5295435  )
        29           Ti1 tau(  29) = (   6.5676402   4.3565080  15.8255799  )
        30           O1  tau(  30) = (   4.5938453   4.4726049   9.2879030  )
        31           O1  tau(  31) = (   1.3315080   4.5776727  12.5731030  )
        32           O1  tau(  32) = (   4.5871741   4.4544688  15.9274438  )
        33           Ti1 tau(  33) = (   3.2898983   5.9609850   9.2893338  )
        34           Ti1 tau(  34) = (   6.5783773   5.8108302  12.4536689  )
        35           Ti1 tau(  35) = (   3.3162440   5.8110762  16.0333210  )
        36           O1  tau(  36) = (  -0.0000397   5.9620987  10.5931620  )
        37           O1  tau(  37) = (   3.2636778   5.9869953  13.9790019  )
        38           O1  tau(  38) = (   6.4104969   6.0475349  17.2872242  )
        39           O1  tau(  39) = (  -0.0001480   5.9621018   7.9858123  )
        40           O1  tau(  40) = (   3.2905218   5.9516507  11.2202175  )
        41           O1  tau(  41) = (   0.0617018   5.9803669  14.6637187  )
        42           O1  tau(  42) = (   1.9860782   7.4519181   9.2879459  )
        43           O1  tau(  43) = (   5.2407037   7.5572870  12.6049163  )
        44           O1  tau(  44) = (   1.9881273   7.5959696  16.0809372  )
        45           Ti1 tau(  45) = (  -0.0000347   7.4522234   9.2895810  )
        46           Ti1 tau(  46) = (   3.2912638   7.2305267  12.6172466  )
        47           Ti1 tau(  47) = (   0.0232661   7.3094817  15.9177444  )
        48           O1  tau(  48) = (   4.5934577   7.4534031   9.2879030  )
        49           O1  tau(  49) = (   1.3287160   7.5404973  12.5734398  )
        50           O1  tau(  50) = (   4.6507959   7.6754627  15.9163669  )
        51           Ti1 tau(  51) = (   3.2895107   8.9417832   9.2893338  )
        52           Ti1 tau(  52) = (   0.0077981   8.7799231  12.4640552  )
        53           Ti1 tau(  53) = (   3.2910717   8.8534038  15.6608489  )
        54           N1  tau(  54) = (   3.7626148   6.0985185  18.0019073  )
        55           H1  tau(  55) = (   3.4663780   5.3841571  18.6619304  )
        56           H1  tau(  56) = (   3.5565419   7.0088739  18.4208443  )
        57           N1  tau(  57) = (   6.5319303   3.0529623  17.4095181  )
        58           H1  tau(  58) = (   5.7013393   3.0140474  17.9904383  )
        59           H1  tau(  59) = (   0.7603229   3.1006543  18.0203722  )
        60           H1  tau(  60) = (   5.4974376   6.0468821  17.7423635  )
        61           H1  tau(  61) = (   0.7324116   0.0679216  17.9402240  )

     number of k points=    10  Fermi-Dirac smearing, width (Ry)=  0.0073
                       cart. coord. in units 2pi/alat
        k(    1) = (   0.0000000   0.0000000   0.0000000), wk =   0.1250000
        k(    2) = (   0.0000000   0.0279567   0.0000000), wk =   0.2500000
        k(    3) = (   0.0000000  -0.0559134   0.0000000), wk =   0.1250000
        k(    4) = (   0.0379955   0.0000049   0.0000000), wk =   0.2500000
        k(    5) = (   0.0379955   0.0279617   0.0000000), wk =   0.2500000
        k(    6) = (   0.0379955  -0.0559085   0.0000000), wk =   0.2500000
        k(    7) = (   0.0379955  -0.0279518   0.0000000), wk =   0.2500000
        k(    8) = (  -0.0759910  -0.0000099   0.0000000), wk =   0.1250000
        k(    9) = (  -0.0759910   0.0279468   0.0000000), wk =   0.2500000
        k(   10) = (  -0.0759910  -0.0559233   0.0000000), wk =   0.1250000

     Initial potential from superposition of free atoms

     starting charge  423.99908, renormalised to  442.00000

     negative rho (up, down):  3.745E-02 0.000E+00

     %%%%%%%%%%%%%%%%%%%%%%%%%%%%%%%%%%%%%%%%%%%%%%%%%%%%%%%%%%%%%%%%%%%%%%%%
     %                                                                      %
     % You are using vdW-DF, which was implemented by the Thonhauser group. %
     % Please cite the following two papers that made this development      %
     % possible and the two reviews that describe the various versions:     %
     %                                                                      %
     %   T. Thonhauser et al., PRL 115, 136402 (2015).                      %
     %   T. Thonhauser et al., PRB 76, 125112 (2007).                       %
     %   K. Berland et al., Rep. Prog. Phys. 78, 066501 (2015).             %
     %   D.C. Langreth et al., J. Phys.: Condens. Matter 21, 084203 (2009). %
     %                                                                      %
     %                                                                      %
     % If you are calculating the stress with vdW-DF, please also cite:     %
     %                                                                      %
     %   R. Sabatini et al., J. Phys.: Condens. Matter 24, 424209 (2012).   %
     %                                                                      %
     %%%%%%%%%%%%%%%%%%%%%%%%%%%%%%%%%%%%%%%%%%%%%%%%%%%%%%%%%%%%%%%%%%%%%%%%

     Adding external electric field

     Computed dipole along edir(3) :
        Dipole               -5.9687 Ry au,        -15.1708 Debye
        Dipole field         -0.0075 Ry au,

        Potential amp.        0.6961 Ry
        Total length         46.3494 bohr

     Starting wfcs are  334 atomic wfcs
  @ DRIVER MODE: Message from server: STATUS
  @ DRIVER MODE: Message from server: POSDATA
  @ DRIVER MODE: Reading and sharing cell
  @ DRIVER MODE: Reading and sharing positions
  @ DRIVER MODE: Received positions

     Self-consistent Calculation

     iteration #  1     ecut=    29.40 Ry     beta= 0.05
     Davidson diagonalization with overlap
     c_bands:  3 eigenvalues not converged
     c_bands:  3 eigenvalues not converged
     c_bands:  5 eigenvalues not converged
     c_bands:  3 eigenvalues not converged
     c_bands:  4 eigenvalues not converged
     c_bands:  4 eigenvalues not converged
     c_bands:  4 eigenvalues not converged
     c_bands:  4 eigenvalues not converged
     c_bands:  5 eigenvalues not converged
     ethr =  1.00E-05,  avg # of iterations = 21.0

[...]

     total energy              =   -3277.91367564 Ry
     estimated scf accuracy    <     239.89910092 Ry

     iteration #  2     ecut=    29.40 Ry     beta= 0.05
     Davidson diagonalization with overlap
     ethr =  1.00E-02,  avg # of iterations = 16.1

[...]

     iteration # 31     ecut=    29.40 Ry     beta= 0.05
     Davidson diagonalization with overlap
     c_bands:  1 eigenvalues not converged
     ethr =  2.02E-07,  avg # of iterations = 13.2

[...]

     total energy              =   -3295.80744422 Ry
     estimated scf accuracy    <       0.00000011 Ry

     iteration # 58     ecut=    29.40 Ry     beta= 0.05
     Davidson diagonalization with overlap
     ethr =  2.47E-11,  avg # of iterations =  2.4

     negative rho (up, down):  3.605E-02 0.000E+00

     Adding external electric field

     Computed dipole along edir(3) :
        Dipole                1.5092 Ry au,          3.8361 Debye
        Dipole field          0.0019 Ry au,

        Potential amp.       -0.1760 Ry
        Total length         46.3494 bohr

     End of self-consistent calculation

          k = 0.0000 0.0000 0.0000 ( 26871 PWs)   bands (ev):

   -57.7250 -57.6993 -57.6889 -57.6628 -57.6537 -57.6202 -57.6059 -57.5988
   -57.5708 -57.5578 -57.5085 -57.4780 -57.4614 -57.4554 -57.4472 -56.7470
   -56.7228 -56.7184 -34.1065 -34.1032 -34.0946 -34.0857 -34.0737 -34.0570
   -34.0564 -34.0423 -34.0292 -34.0176 -33.9878 -33.9695 -33.9501 -33.9439
   -33.9363 -33.9178 -33.9126 -33.9110 -33.8927 -33.8875 -33.8655 -33.8633
   -33.8429 -33.8333 -33.8292 -33.8232 -33.8122 -33.8102 -33.8048 -33.7954
   -33.7838 -33.7819 -33.7677 -33.7319 -33.7229 -33.7189 -33.7042 -33.7034
   -33.6957 -33.6947 -33.6834 -33.6750 -33.6682 -33.6622 -33.6397 -33.0622
   -33.0612 -33.0567 -33.0452 -33.0410 -32.9731 -32.9110 -32.9058 -32.7728
   -19.3028 -18.7610 -18.5257 -18.2273 -18.0164 -17.9740 -17.9410 -17.8197
   -17.7841 -17.7601 -17.6626 -17.6513 -17.5878 -17.5341 -17.5060 -17.4573
   -17.4392 -17.3787 -17.3647 -17.3564 -17.3511 -17.3409 -17.3307 -17.2652
   -17.2381 -17.2099 -17.1710 -17.1553 -17.1487 -17.1412 -17.1188 -16.8461
   -15.5020 -15.2132 -15.1551 -15.1539 -15.0455  -6.9864  -6.8132  -6.6487
    -6.3265  -5.8604  -5.7868  -5.6375  -5.5135  -5.2214  -5.1937  -5.1423
    -5.1155  -5.0868  -5.0221  -5.0019  -4.9890  -4.9337  -4.9162  -4.8438
    -4.8208  -4.7793  -4.7556  -4.7295  -4.6850  -4.6448  -4.6176  -4.6055
    -4.5749  -4.5673  -4.5109  -4.4871  -4.4578  -4.4523  -4.4361  -4.3269
    -4.2944  -4.2378  -4.1688  -4.0915  -4.0394  -4.0313  -3.9747  -3.9553
    -3.9031  -3.8631  -3.8260  -3.8171  -3.7808  -3.7422  -3.6428  -3.6085
    -3.5879  -3.5223  -3.5004  -3.4314  -3.4141  -3.3808  -3.3393  -3.3325
    -3.2963  -3.1983  -3.1644  -3.0840  -3.0267  -2.9741  -2.9345  -2.8903
    -2.8438  -2.8106  -2.7853  -2.7035  -2.6265  -2.5436  -2.4934  -2.4807
    -2.4687  -2.4182  -2.4113  -2.4086  -2.3515  -2.3257  -2.3151  -2.2776
    -2.2258  -2.2032  -2.1409  -2.0961  -2.0608  -1.9933  -1.9776  -1.8969
    -1.8882  -1.8270  -1.7838  -1.7443  -1.6327  -1.5977  -1.5655  -1.5629
    -1.4441  -1.4078  -1.1450  -1.0046  -0.7857  -0.7534  -0.5003  -0.4515
    -0.4487  -0.1857  -0.1823  -0.0541   1.3220   1.5107   1.6444   1.6999
     1.7047   1.7382   1.8043   1.8908   1.9161   1.9633   1.9949

[...]

          k = 0.0380-0.0280 0.0000 ( 26873 PWs)   bands (ev):

[...]

          k =-0.0760-0.0000 0.0000 ( 26902 PWs)   bands (ev):

[...]

          k =-0.0760-0.0559 0.0000 ( 26868 PWs)   bands (ev):

   -57.7215 -57.7069 -57.6847 -57.6617 -57.6536 -57.6209 -57.6072 -57.5985
   -57.5702 -57.5576 -57.5087 -57.4730 -57.4655 -57.4609 -57.4425 -56.7407
   -56.7355 -56.7120 -34.1939 -34.1566 -34.1543 -34.0946 -34.0604 -34.0528
   -34.0421 -34.0394 -34.0020 -33.9680 -33.9339 -33.9205 -33.9149 -33.9135
   -33.9024 -33.9003 -33.8805 -33.8733 -33.8687 -33.8687 -33.8647 -33.8592
   -33.8540 -33.8458 -33.8315 -33.8266 -33.8240 -33.8189 -33.8146 -33.7937
   -33.7929 -33.7707 -33.7639 -33.7565 -33.7507 -33.7319 -33.7260 -33.7206
   -33.7009 -33.7006 -33.6988 -33.6954 -33.6861 -33.6680 -33.6510 -33.1510
   -33.0619 -33.0568 -33.0344 -32.9545 -32.9487 -32.8869 -32.8723 -32.8671
   -19.2893 -18.7353 -18.2720 -18.1352 -17.9637 -17.9220 -17.8480 -17.8349
   -17.8231 -17.7937 -17.7017 -17.6785 -17.6521 -17.5690 -17.5502 -17.5004
   -17.4565 -17.4433 -17.4251 -17.4141 -17.4060 -17.3893 -17.3553 -17.3233
   -17.2905 -17.2387 -17.1767 -17.1579 -17.1094 -17.0947 -17.0641 -16.8799
   -15.4967 -15.2112 -15.2092 -15.0924 -15.0469  -6.9910  -6.8447  -6.6409
    -6.3077  -5.5171  -5.4541  -5.3705  -5.3561  -5.2384  -5.2060  -5.0144
    -5.0044  -4.9896  -4.9575  -4.9255  -4.8894  -4.8627  -4.8386  -4.8250
    -4.8107  -4.7899  -4.7640  -4.7520  -4.7356  -4.6916  -4.6447  -4.6385
    -4.6274  -4.6049  -4.5505  -4.5053  -4.4779  -4.4253  -4.4221  -4.3416
    -4.3181  -4.3001  -4.2248  -4.2177  -4.0945  -3.9484  -3.8872  -3.8673
    -3.8427  -3.7958  -3.7857  -3.7322  -3.7096  -3.6928  -3.5567  -3.4741
    -3.4502  -3.4158  -3.3846  -3.3618  -3.3262  -3.2986  -3.2766  -3.2512
    -3.2351  -3.1822  -3.1659  -3.1226  -3.0799  -2.9986  -2.9547  -2.8965
    -2.8739  -2.8554  -2.8371  -2.8334  -2.8128  -2.7800  -2.7505  -2.6951
    -2.6856  -2.6558  -2.5844  -2.5288  -2.5017  -2.4770  -2.4348  -2.4277
    -2.2729  -2.2537  -2.2204  -2.2083  -2.1347  -2.0915  -1.9998  -1.9733
    -1.9507  -1.8793  -1.8076  -1.7641  -1.7077  -1.5112  -1.5025  -1.3834
    -1.3466  -1.2978  -1.2722  -1.2296  -1.0694  -0.7330  -0.6628  -0.3796
    -0.3684  -0.3423  -0.1869  -0.1806   1.4291   1.4528   1.5380   1.5942
     1.6130   1.6508   1.6636   1.7026   1.7231   1.7797   1.9152

     the Fermi energy is     1.3729 ev

!    total energy              =   -3295.80749212 Ry
     estimated scf accuracy    <       0.00000007 Ry
     smearing contrib. (-TS)   =      -0.03571755 Ry
     internal energy E=F+TS    =   -3295.77177457 Ry

     The total energy is F=E-TS. E is the sum of the following terms:
     one-electron contribution =  -34705.68557501 Ry
     hartree contribution      =   17418.75568381 Ry
     xc contribution           =    -543.85747332 Ry
     ewald contribution        =   14535.01272425 Ry
     electric field correction =       0.00286570 Ry

     convergence has been achieved in  58 iterations

     Forces acting on atoms (cartesian axes, Ry/au):

     atom    1 type  1   force =    -0.00168723    0.00376951    0.05471889
     atom    2 type  1   force =     0.00024419   -0.00251207   -0.00841550
     atom    3 type  1   force =     0.00044656   -0.00352072    0.00034150
     atom    4 type  1   force =     0.00004407   -0.00003260    0.10679163
     atom    5 type  1   force =    -0.00020419    0.00066404    0.00659483
     atom    6 type  1   force =     0.00003032   -0.00444586    0.00375241
     atom    7 type  1   force =     0.06649216    0.00079322   -0.02967202
     atom    8 type  1   force =     0.00659788   -0.02712675    0.00195566
     atom    9 type  1   force =     0.00663961   -0.02256556    0.00514045
     atom   10 type  2   force =    -0.00011394   -0.00450820   -0.18345030
     atom   11 type  2   force =     0.00067431    0.02088108   -0.00413830
     atom   12 type  2   force =    -0.00177646    0.02771346   -0.00662649
     atom   13 type  1   force =    -0.06654952    0.00044917   -0.02981633
     atom   14 type  1   force =    -0.00434135   -0.02770528    0.00253503
     atom   15 type  1   force =    -0.00659334   -0.02336351    0.00503227
     atom   16 type  2   force =     0.00008444    0.00069112    0.06700558
     atom   17 type  2   force =    -0.00238028    0.03352686    0.00350133
     atom   18 type  2   force =     0.00127462    0.02454753   -0.00366390
     atom   19 type  1   force =    -0.00169747    0.00675200    0.05327319
     atom   20 type  1   force =     0.00023916   -0.00116178   -0.00660634
     atom   21 type  1   force =     0.00003491    0.00109777    0.10726519
     atom   22 type  1   force =    -0.00025164   -0.00198924    0.00722227
     atom   23 type  1   force =     0.00072036   -0.00582951    0.00415925
     atom   24 type  1   force =     0.06752008    0.00136948   -0.02907563
     atom   25 type  1   force =     0.00528273   -0.03015486    0.00245470
     atom   26 type  1   force =     0.00675810   -0.02611187   -0.00413438
     atom   27 type  2   force =     0.00011061   -0.00121276   -0.18673619
     atom   28 type  2   force =     0.00007941    0.02386837   -0.00246378
     atom   29 type  2   force =    -0.00111116    0.02212554    0.00086590
     atom   30 type  1   force =    -0.06762435    0.00086636   -0.02892754
     atom   31 type  1   force =    -0.00537510   -0.02961873    0.00279366
     atom   32 type  1   force =    -0.00428783   -0.02250345    0.00261030
     atom   33 type  2   force =    -0.00004853    0.00131132    0.07476888
     atom   34 type  2   force =     0.00092538    0.03692194    0.00407531
     atom   35 type  2   force =    -0.00217712    0.03487037    0.00503414
     atom   36 type  1   force =    -0.00186562    0.00288135    0.05590293
     atom   37 type  1   force =     0.00132479    0.00403076   -0.01136657
     atom   38 type  1   force =     0.00014835   -0.00406304    0.00418535
     atom   39 type  1   force =     0.00002254   -0.00063798    0.10728244
     atom   40 type  1   force =     0.00015636   -0.00141045    0.00716700
     atom   41 type  1   force =    -0.00025476   -0.00396843    0.00183123
     atom   42 type  1   force =     0.06785382   -0.00221610   -0.02971163
     atom   43 type  1   force =     0.00369231   -0.02636122    0.00153018
     atom   44 type  1   force =     0.01000475   -0.01795015    0.00262151
     atom   45 type  2   force =     0.00003156    0.00217355   -0.18330702
     atom   46 type  2   force =    -0.00023698    0.01479031    0.00206066
     atom   47 type  2   force =     0.00300776    0.02646332   -0.00879555
     atom   48 type  1   force =    -0.06791752   -0.00284318   -0.02986874
     atom   49 type  1   force =    -0.00375765   -0.02550361    0.00183139
     atom   50 type  1   force =    -0.00795079   -0.02366877    0.00523743
     atom   51 type  2   force =     0.00045061   -0.00350328    0.06842516
     atom   52 type  2   force =    -0.00010965    0.03118245    0.00596282
     atom   53 type  2   force =    -0.00213114    0.02595096   -0.00062817
     atom   54 type  3   force =    -0.00145867    0.01044474    0.00351857
     atom   55 type  4   force =    -0.00103283    0.00126159    0.00009592
     atom   56 type  4   force =     0.00278739   -0.01246508   -0.00371711
     atom   57 type  3   force =     0.00131593   -0.00272641   -0.00028900
     atom   58 type  4   force =     0.00050046    0.00103054   -0.00006689
     atom   59 type  4   force =     0.00006486    0.00028265    0.00071247
     atom   60 type  4   force =    -0.00139043    0.00009088    0.00010438
     atom   61 type  4   force =    -0.00123480   -0.00112178    0.00111560

     Total force =     0.459895     Total SCF correction =     0.000677
  @ DRIVER MODE: Message from server: STATUS
  @ DRIVER MODE: Message from server: GETFORCE
  @ DRIVER MODE: Returning v,forces,stress,ensemble

     Writing output data file ./calc.save/
  @ DRIVER MODE: Message from server: EXIT
  @ DRIVE MODE: Exiting

     General routines

     Parallel routines

   This run was terminated on:  19:36:11  18Oct2021

   JOB DONE.