     Program PWSCF v.6.7GPU starts on 15Sep2021 at 16:41:33

     R & G space division:  proc/nbgrp/npool/nimage =      10
     Reading input from /storage/home/hcoda1/3/ntian30/research/carbon/CxH_vib/H2O_calc/ads_slab/CH3NH2O_a/out_0004/pw.inp
Warning: card &CELL ignored
Warning: card   CELL_DYNAMICS='IPI', ignored
Warning: card / ignored

     Current dimensions of program PWSCF are:
     Max number of different atomic species (ntypx) = 10
     Max number of k-points (npk) =  40000
     Max angular momentum in pseudopotentials (lmaxx) =  3
     Presently no symmetry can be used with electric field

     Message from routine cell_base_init:
     DEPRECATED: use true lattice parameter, not A to a.u. conversion factor

     IMPORTANT: XC functional enforced from input :
     Exchange-correlation= BEEF-VDW
                           (   1   4  43  14   2   0   0)
     Any further DFT definition will be discarded
     Please, verify this is what you really want

  @ DRIVER MODE: Connecting to
 qe_1139763_2852618.sched-torque.pace.gatech.edutlg22c1l_scratch
  using UNIX socket
  @ DRIVER MODE: Message from server: STATUS
  @ DRIVER MODE: Message from server: INIT
  @ DRIVER MODE: Receiving replica           0          -1
  @ DRIVER MODE: Receiving encoded integer          25
  @ DRIVER MODE:  SCF:  T  FORCE:  T  STRESS:  F  VC:  F  ENSEMBLE:  F
  @ DRIVER MODE:  SCF:  T  FORCE:  T  STRESS:  F  VC:  F  ENSEMBLE:  F

     Using Slab Decomposition

     bravais-lattice index     =            0
     lattice parameter (alat)  =       1.8897  a.u.
     unit-cell volume          =    6658.9804 (a.u.)^3
     number of atoms/cell      =           55
     number of atomic types    =            5
     number of electrons       =       398.00
     number of Kohn-Sham states=          209
     kinetic-energy cutoff     =      29.3995  Ry
     charge density cutoff     =     293.9946  Ry
     scf convergence threshold =      7.3E-08
     mixing beta               =       0.0500
     number of iterations used =            8  plain     mixing
     Exchange-correlation= BEEF-VDW
                           (   1   4  43  14   2   0   0)

     celldm(1)=   1.889726  celldm(2)=   0.000000  celldm(3)=   0.000000
     celldm(4)=   0.000000  celldm(5)=   0.000000  celldm(6)=   0.000000

     crystal axes: (cart. coord. in units of alat)
               a(1) = (   6.579727   0.000000   0.000000 )
               a(2) = (  -0.000775   5.961596   0.000000 )
               a(3) = (   0.000000   0.000000  25.155947 )

     reciprocal axes: (cart. coord. in units 2 pi/alat)
               b(1) = (  0.151982  0.000020  0.000000 )
               b(2) = (  0.000000  0.167740  0.000000 )
               b(3) = (  0.000000  0.000000  0.039752 )

     PseudoPot. # 1 for Ti read from file:
     /storage/coda1/p-amedford6/0/shared/rich_project_chbe-medford/medford-share/data/pseudos_module/espresso/nninc/pbe/van/Ti.UPF
     MD5 check sum: 8e4df49b7f0d34bbd5052bf3f5ea0213
     Pseudo is Ultrasoft, Zval = 12.0
     Generated by new atomic code, or converted to UPF format
     Using radial grid of  851 points,  6 beta functions with:
                l(1) =   0
                l(2) =   0
                l(3) =   1
                l(4) =   1
                l(5) =   2
                l(6) =   2
     Q(r) pseudized with  8 coefficients,  rinner =    1.000   1.000   1.000
                                                       1.000   1.000

     PseudoPot. # 2 for O  read from file:
     /storage/coda1/p-amedford6/0/shared/rich_project_chbe-medford/medford-share/data/pseudos_module/espresso/nninc/pbe/van/O.UPF
     MD5 check sum: 78c19812648e8988a0fe644b0f25305e
     Pseudo is Ultrasoft, Zval =  6.0
     Generated by new atomic code, or converted to UPF format
     Using radial grid of  737 points,  4 beta functions with:
                l(1) =   0
                l(2) =   0
                l(3) =   1
                l(4) =   1
     Q(r) pseudized with  8 coefficients,  rinner =    0.800   0.800   0.800

     PseudoPot. # 3 for N  read from file:
     /storage/coda1/p-amedford6/0/shared/rich_project_chbe-medford/medford-share/data/pseudos_module/espresso/nninc/pbe/van/N.UPF
     MD5 check sum: 90d10febe142ad51ac9d5be1deb811c4
     Pseudo is Ultrasoft, Zval =  5.0
     Generated by new atomic code, or converted to UPF format
     Using radial grid of  729 points,  4 beta functions with:
                l(1) =   0
                l(2) =   0
                l(3) =   1
                l(4) =   1
     Q(r) pseudized with  8 coefficients,  rinner =    0.800   0.800   0.800

     PseudoPot. # 4 for C  read from file:
     /storage/coda1/p-amedford6/0/shared/rich_project_chbe-medford/medford-share/data/pseudos_module/espresso/nninc/pbe/van/C.UPF
     MD5 check sum: 1a69bf6b8db32088f5b2163dbdb77a27
     Pseudo is Ultrasoft, Zval =  4.0
     Generated by new atomic code, or converted to UPF format
     Using radial grid of  721 points,  4 beta functions with:
                l(1) =   0
                l(2) =   0
                l(3) =   1
                l(4) =   1
     Q(r) pseudized with  8 coefficients,  rinner =    0.800   0.800   0.800

     PseudoPot. # 5 for H  read from file:
     /storage/coda1/p-amedford6/0/shared/rich_project_chbe-medford/medford-share/data/pseudos_module/espresso/nninc/pbe/van/H.UPF
     MD5 check sum: b5ee9d7bfd3a09ee7748110bda690ff7
     Pseudo is Ultrasoft, Zval =  1.0
     Generated by new atomic code, or converted to UPF format
     Using radial grid of  615 points,  1 beta functions with:
                l(1) =   0
     Q(r) pseudized with  8 coefficients,  rinner =    0.800

     atomic species   valence    mass     pseudopotential
        Ti1           12.00    47.86700     Ti( 1.00)
        O1             6.00    15.99900     O ( 1.00)
        N1             5.00    14.00700     N ( 1.00)
        C1             4.00    12.01100     C ( 1.00)
        H1             1.00     1.00800     H ( 1.00)

     No symmetry found

   Cartesian axes

     site n.     atom                  positions (alat units)
         1           Ti1 tau(   1) = (   0.0004258   2.9801865   6.0000000  )
         2           Ti1 tau(   2) = (   3.2906075   1.4906267   6.0002472  )
         3           O1  tau(   3) = (   0.0006271   0.0005054   7.9858123  )
         4           O1  tau(   4) = (   3.2906025   0.0005020   7.3038282  )
         5           O1  tau(   5) = (   4.5942328   1.4918067   9.2879030  )
         6           O1  tau(   6) = (   1.9868534   1.4903216   9.2879459  )
         7           Ti1 tau(   7) = (   3.2907910   2.8959150   9.1758416  )
         8           Ti1 tau(   8) = (   0.0015273   1.4827037   9.2680791  )
         9           O1  tau(   9) = (   3.2951577   0.0167633  11.2896499  )
        10           O1  tau(  10) = (   0.0116148   5.9584955  10.6183126  )
        11           O1  tau(  11) = (   1.3222759   1.5071707  12.6129440  )
        12           O1  tau(  12) = (   5.3060066   1.5095485  12.6267335  )
        13           Ti1 tau(  13) = (   6.4824898   3.0013615  12.7357613  )
        14           Ti1 tau(  14) = (   3.1735365   1.4973312  12.4739500  )
        15           O1  tau(  15) = (   0.0245190   0.0017265  14.5963640  )
        16           O1  tau(  16) = (   3.2983568   0.0259644  13.8884976  )
        17           O1  tau(  17) = (   4.5535709   1.5599051  15.9919625  )
        18           O1  tau(  18) = (   2.0723989   1.5598234  15.9883263  )
        19           Ti1 tau(  19) = (   3.3263631   3.0313633  15.6478355  )
        20           Ti1 tau(  20) = (   0.0083359   1.6222165  16.0589653  )
        21           O1  tau(  21) = (   3.2904802   0.0005063   4.7018136  )
        22           O1  tau(  22) = (   0.0206953   0.0548308  17.2083480  )
        23           O1  tau(  23) = (   1.3043587   1.4918075   6.0039043  )
        24           O1  tau(  24) = (   5.2767064   1.4903225   6.0039473  )
        25           Ti1 tau(  25) = (   0.0000382   5.9609847   6.0000000  )
        26           Ti1 tau(  26) = (   3.2902200   4.4714249   6.0002472  )
        27           O1  tau(  27) = (   0.0002396   2.9813036   7.9858123  )
        28           O1  tau(  28) = (   3.2902150   2.9813002   7.3038282  )
        29           O1  tau(  29) = (   4.5938453   4.4726049   9.2879030  )
        30           O1  tau(  30) = (   1.9864658   4.4711199   9.2879459  )
        31           Ti1 tau(  31) = (   3.2891106   5.8743827   9.1763621  )
        32           Ti1 tau(  32) = (   0.0006254   4.4649316   9.2693709  )
        33           O1  tau(  33) = (   3.2909539   2.9954008  11.2901670  )
        34           O1  tau(  34) = (   0.0092240   2.9805883  10.6323155  )
        35           O1  tau(  35) = (   1.3211080   4.4795309  12.6092917  )
        36           O1  tau(  36) = (   5.3058445   4.4798052  12.6251394  )
        37           Ti1 tau(  37) = (   6.5140999   0.0198189  12.7603067  )
        38           Ti1 tau(  38) = (   3.1705570   4.4938763  12.4677136  )
        39           O1  tau(  39) = (   0.0016069   2.9863809  14.6467327  )
        40           O1  tau(  40) = (   3.3112668   3.0122049  13.8485686  )
        41           O1  tau(  41) = (   4.5534170   4.5051619  16.0179686  )
        42           O1  tau(  42) = (   2.0797414   4.5084034  16.0201905  )
        43           Ti1 tau(  43) = (   3.2815144   0.0627375  15.7417980  )
        44           Ti1 tau(  44) = (   0.0076503   4.5954094  16.1032789  )
        45           O1  tau(  45) = (   3.2900926   2.9813045   4.7018136  )
        46           O1  tau(  46) = (   1.3039711   4.4726057   6.0039043  )
        47           O1  tau(  47) = (   5.2763189   4.4711207   6.0039473  )
        48           N1  tau(  48) = (   0.0651939   3.0376870  17.3150544  )
        49           C1  tau(  49) = (   0.3375872   3.0185870  18.7284822  )
        50           H1  tau(  50) = (   0.4544735   4.0311245  19.1352477  )
        51           H1  tau(  51) = (   6.1015407   2.5302758  19.2785169  )
        52           H1  tau(  52) = (   1.2508204   2.4494767  18.9518403  )
        53           O1  tau(  53) = (   3.3357083   0.1159715  18.1615364  )
        54           H1  tau(  54) = (   4.1514219   5.6051498  18.3929375  )
        55           H1  tau(  55) = (   2.5926282   5.5337384  18.4710493  )

     number of k points=    10  Fermi-Dirac smearing, width (Ry)=  0.0073
                       cart. coord. in units 2pi/alat
        k(    1) = (   0.0000000   0.0000000   0.0000000), wk =   0.1250000
        k(    2) = (   0.0000000   0.0419351   0.0000000), wk =   0.2500000
        k(    3) = (   0.0000000  -0.0838702   0.0000000), wk =   0.1250000
        k(    4) = (   0.0379955   0.0000049   0.0000000), wk =   0.2500000
        k(    5) = (   0.0379955   0.0419400   0.0000000), wk =   0.2500000
        k(    6) = (   0.0379955  -0.0838652   0.0000000), wk =   0.2500000
        k(    7) = (   0.0379955  -0.0419301   0.0000000), wk =   0.2500000
        k(    8) = (  -0.0759910  -0.0000099   0.0000000), wk =   0.1250000
        k(    9) = (  -0.0759910   0.0419252   0.0000000), wk =   0.2500000
        k(   10) = (  -0.0759910  -0.0838800   0.0000000), wk =   0.1250000

     Initial potential from superposition of free atoms

     starting charge  381.99915, renormalised to  398.00000

     negative rho (up, down):  1.656E-02 0.000E+00

     %%%%%%%%%%%%%%%%%%%%%%%%%%%%%%%%%%%%%%%%%%%%%%%%%%%%%%%%%%%%%%%%%%%%%%%%
     %                                                                      %
     % You are using vdW-DF, which was implemented by the Thonhauser group. %
     % Please cite the following two papers that made this development      %
     % possible and the two reviews that describe the various versions:     %
     %                                                                      %
     %   T. Thonhauser et al., PRL 115, 136402 (2015).                      %
     %   T. Thonhauser et al., PRB 76, 125112 (2007).                       %
     %   K. Berland et al., Rep. Prog. Phys. 78, 066501 (2015).             %
     %   D.C. Langreth et al., J. Phys.: Condens. Matter 21, 084203 (2009). %
     %                                                                      %
     %                                                                      %
     % If you are calculating the stress with vdW-DF, please also cite:     %
     %                                                                      %
     %   R. Sabatini et al., J. Phys.: Condens. Matter 24, 424209 (2012).   %
     %                                                                      %
     %%%%%%%%%%%%%%%%%%%%%%%%%%%%%%%%%%%%%%%%%%%%%%%%%%%%%%%%%%%%%%%%%%%%%%%%

     Adding external electric field

     Computed dipole along edir(3) :
        Dipole               -9.1079 Ry au,        -23.1500 Debye
        Dipole field         -0.0172 Ry au,

        Potential amp.        1.5933 Ry
        Total length         46.3494 bohr

     Starting wfcs are  301 atomic wfcs
  @ DRIVER MODE: Message from server: STATUS
  @ DRIVER MODE: Message from server: POSDATA
  @ DRIVER MODE: Reading and sharing cell
  @ DRIVER MODE: Reading and sharing positions
  @ DRIVER MODE: Received positions

     Self-consistent Calculation

     iteration #  1     ecut=    29.40 Ry     beta= 0.05
     Davidson diagonalization with overlap
     c_bands:  1 eigenvalues not converged
     c_bands:  1 eigenvalues not converged
     c_bands:  1 eigenvalues not converged
     c_bands:  1 eigenvalues not converged
     c_bands:  1 eigenvalues not converged
     c_bands:  1 eigenvalues not converged
     c_bands:  1 eigenvalues not converged
     c_bands:  2 eigenvalues not converged
     ethr =  1.00E-05,  avg # of iterations = 19.6

[...]

     total energy              =   -2564.52340384 Ry
     estimated scf accuracy    <    4317.20324972 Ry

     iteration #  2     ecut=    29.40 Ry     beta= 0.05
     Davidson diagonalization with overlap
     ethr =  1.00E-02,  avg # of iterations = 23.6

[...]

     iteration # 40     ecut=    29.40 Ry     beta= 0.05
     Davidson diagonalization with overlap
     c_bands:  1 eigenvalues not converged
     ethr =  7.87E-07,  avg # of iterations =  8.8

[...]

     total energy              =   -2953.97100699 Ry
     estimated scf accuracy    <       0.00000012 Ry

     iteration # 59     ecut=    29.40 Ry     beta= 0.05
     Davidson diagonalization with overlap
     ethr =  3.08E-11,  avg # of iterations =  5.0

     negative rho (up, down):  1.668E-02 0.000E+00

     Adding external electric field

     Computed dipole along edir(3) :
        Dipole                0.5298 Ry au,          1.3466 Debye
        Dipole field          0.0010 Ry au,

        Potential amp.       -0.0927 Ry
        Total length         46.3494 bohr

     End of self-consistent calculation

          k = 0.0000 0.0000 0.0000 ( 18029 PWs)   bands (ev):

   -56.5942 -56.5606 -55.7125 -55.6786 -55.6681 -55.6334 -55.4923 -55.4562
   -55.3624 -55.2429 -55.2306 -55.2290 -55.2090 -55.1318 -54.7212 -54.6864
   -33.0210 -32.8686 -32.8404 -32.7706 -32.6796 -32.6471 -32.1804 -32.1507
   -32.0279 -31.9773 -31.9295 -31.9102 -31.8813 -31.8708 -31.8434 -31.8372
   -31.8180 -31.8134 -31.7917 -31.7749 -31.7682 -31.7121 -31.7075 -31.6700
   -31.6564 -31.6339 -31.6272 -31.6185 -31.5958 -31.5874 -31.5826 -31.5584
   -31.4667 -31.4530 -31.4202 -31.4076 -31.3803 -31.3698 -31.3562 -31.3369
   -31.3098 -31.2589 -31.2425 -30.9595 -30.9383 -30.9327 -30.9086 -30.7891
   -18.7853 -16.7498 -16.2865 -16.0456 -15.9505 -15.8686 -15.8285 -15.7853
   -15.6389 -15.5649 -15.5451 -15.5423 -15.4752 -15.3311 -15.2766 -15.1787
   -15.0930 -14.9520 -14.9405 -14.8997 -14.8873 -14.8509 -14.8475 -14.7962
   -14.6266 -14.5915 -14.5453 -14.4871 -14.3944 -14.1750 -13.7413 -13.6317
   -12.9694  -7.7731  -6.5796  -4.3170  -3.7849  -3.5202  -3.4877  -3.3592
    -3.3554  -3.3124  -3.1744  -3.1638  -3.0887  -3.0635  -3.0189  -2.9495
    -2.9019  -2.8694  -2.7790  -2.7649  -2.7457  -2.7387  -2.7162  -2.5999
    -2.5555  -2.5055  -2.4024  -2.2918  -2.2497  -2.2225  -2.1763  -2.1432
    -2.0917  -2.0805  -2.0687  -2.0564  -1.9535  -1.8304  -1.8074  -1.7827
    -1.7361  -1.7216  -1.7136  -1.6903  -1.6049  -1.4961  -1.4013  -1.3353
    -1.3295  -1.2530  -1.2449  -1.1824  -1.0761  -1.0145  -1.0131  -0.9888
    -0.8846  -0.8601  -0.7890  -0.7271  -0.6675  -0.6140  -0.5514  -0.4995
    -0.4756  -0.4668  -0.3691  -0.2993  -0.2745  -0.2189  -0.2117  -0.2057
    -0.1785  -0.0844  -0.0484   0.0280   0.0639   0.1115   0.1472   0.2259
     0.2854   0.3517   0.3984   0.4203   0.4859   0.5413   0.5965   0.6872
     0.7452   0.7506   0.7788   0.8372   0.8504   0.9238   1.0069   1.0271
     1.0931   1.1642   1.3285   1.3676   1.6182   1.6865   2.3127   2.6830
     2.8442   3.1394   3.3287   3.4669   3.6623   3.6727   3.6799   3.9004
     3.9291

[...]

          k = 0.0380-0.0419 0.0000 ( 17876 PWs)   bands (ev):

[...]

          k =-0.0760-0.0000 0.0000 ( 17886 PWs)   bands (ev):

[...]

          k =-0.0760-0.0839 0.0000 ( 17948 PWs)   bands (ev):

   -56.5775 -56.5770 -55.6974 -55.6932 -55.6553 -55.6463 -55.4782 -55.4701
   -55.3600 -55.2329 -55.2259 -55.2258 -55.2258 -55.1349 -54.7053 -54.7021
   -32.8545 -32.8541 -32.8380 -32.8377 -32.7238 -32.7233 -32.0040 -31.9982
   -31.9865 -31.9795 -31.9033 -31.8886 -31.8876 -31.8834 -31.8766 -31.8751
   -31.8675 -31.8594 -31.8335 -31.8167 -31.7233 -31.7170 -31.6853 -31.6776
   -31.6548 -31.6192 -31.5871 -31.5714 -31.5713 -31.5708 -31.5496 -31.5316
   -31.4802 -31.4507 -31.4505 -31.4471 -31.4320 -31.4117 -31.4116 -31.4025
   -31.3740 -31.3382 -31.0990 -31.0474 -30.9290 -30.9256 -30.9063 -30.8743
   -18.7845 -16.1005 -16.0986 -16.0631 -16.0624 -15.7960 -15.7926 -15.7032
   -15.6977 -15.5663 -15.4457 -15.3412 -15.3285 -15.2946 -15.2683 -15.1581
   -15.1374 -15.1267 -15.1155 -15.0093 -14.9883 -14.9438 -14.9265 -14.9095
   -14.9034 -14.6105 -14.5916 -14.4938 -14.4656 -14.3258 -13.7353 -13.7352
   -12.9880  -7.7666  -6.5727  -3.1970  -3.1904  -3.1510  -3.1359  -3.1350
    -3.0744  -2.9779  -2.9299  -2.9281  -2.9266  -2.8444  -2.7825  -2.7747
    -2.7015  -2.6675  -2.6506  -2.5938  -2.5795  -2.5149  -2.4882  -2.4803
    -2.4624  -2.4386  -2.4373  -2.3441  -2.2782  -2.2323  -2.2269  -2.1681
    -2.1377  -2.0796  -2.0551  -2.0442  -2.0125  -1.9707  -1.9581  -1.9205
    -1.8787  -1.8435  -1.7794  -1.6136  -1.6045  -1.5958  -1.5756  -1.4546
    -1.4461  -1.4102  -1.3794  -1.3740  -1.3036  -1.2533  -1.2158  -1.1643
    -1.0770  -1.0556  -0.9520  -0.8985  -0.8558  -0.7997  -0.6949  -0.6744
    -0.6670  -0.6556  -0.6250  -0.5558  -0.5208  -0.5173  -0.3946  -0.3706
    -0.3319  -0.3026  -0.2450  -0.2152  -0.1564  -0.1239  -0.0539  -0.0401
     0.0007   0.0752   0.1515   0.1840   0.2369   0.2431   0.5171   0.5911
     0.7207   0.7822   0.8460   0.9125   0.9796   1.0077   1.0363   1.1623
     1.1669   1.1763   1.1769   1.2464   1.2522   1.5945   2.1905   3.2591
     3.2594   3.3257   3.3263   3.6471   3.6534   3.7604   3.7707   3.9303
     3.9447

     the Fermi energy is     2.5103 ev

!    total energy              =   -2953.97105807 Ry
     estimated scf accuracy    <       0.00000006 Ry
     smearing contrib. (-TS)   =      -0.00444123 Ry
     internal energy E=F+TS    =   -2953.96661684 Ry

     The total energy is F=E-TS. E is the sum of the following terms:
     one-electron contribution =  -24343.90889910 Ry
     hartree contribution      =   12263.83736912 Ry
     xc contribution           =    -488.77025063 Ry
     ewald contribution        =    9614.87463409 Ry
     electric field correction =       0.00052968 Ry

     convergence has been achieved in  59 iterations

     Forces acting on atoms (cartesian axes, Ry/au):

     atom    1 type  1   force =    -0.00002477   -0.00048527    0.12441490
     atom    2 type  1   force =    -0.00003020   -0.00049132   -0.15978032
     atom    3 type  2   force =     0.00020041   -0.00023785   -0.06780261
     atom    4 type  2   force =     0.00000221   -0.00009125    0.02614861
     atom    5 type  2   force =    -0.01438503    0.00191299   -0.00989791
     atom    6 type  2   force =     0.01616977    0.00232567   -0.01027673
     atom    7 type  1   force =     0.00071657   -0.00388784    0.02845938
     atom    8 type  1   force =    -0.00034004   -0.00438450    0.10931782
     atom    9 type  2   force =     0.00002370    0.00000516    0.00009855
     atom   10 type  2   force =    -0.00225652    0.00267522   -0.07364766
     atom   11 type  2   force =     0.00081424    0.00001273   -0.00023899
     atom   12 type  2   force =    -0.00043189    0.00012317   -0.00019028
     atom   13 type  1   force =    -0.00003753    0.00013390   -0.00038385
     atom   14 type  1   force =    -0.00034917    0.00047328   -0.00043245
     atom   15 type  2   force =     0.00003136    0.00057911   -0.00073786
     atom   16 type  2   force =    -0.00018509    0.00004698    0.00043121
     atom   17 type  2   force =     0.00010064   -0.00017479   -0.00008836
     atom   18 type  2   force =    -0.00038957   -0.00000658    0.00032884
     atom   19 type  1   force =     0.00042978    0.00085278   -0.00022539
     atom   20 type  1   force =    -0.00010182    0.00003398    0.00062642
     atom   21 type  2   force =     0.00006754   -0.00004029    0.09950704
     atom   22 type  2   force =     0.00007180    0.00153758    0.00022157
     atom   23 type  2   force =    -0.07968766   -0.00006542   -0.03245310
     atom   24 type  2   force =     0.07956020    0.00037377   -0.03250861
     atom   25 type  1   force =    -0.00000295   -0.00058105    0.12405145
     atom   26 type  1   force =    -0.00010842   -0.00061274   -0.15990649
     atom   27 type  2   force =     0.00033240   -0.00035747   -0.06687045
     atom   28 type  2   force =    -0.00002442    0.00017526    0.02517283
     atom   29 type  2   force =    -0.01497495    0.00189644   -0.00987355
     atom   30 type  2   force =     0.01666228    0.00242369   -0.01020749
     atom   31 type  1   force =     0.00078148   -0.00076178    0.02372698
     atom   32 type  1   force =    -0.00023048    0.00202956    0.10994506
     atom   33 type  2   force =     0.00004656   -0.00026151    0.00035964
     atom   34 type  2   force =    -0.00212560    0.00207074   -0.07168734
     atom   35 type  2   force =     0.00022803   -0.00015664   -0.00006852
     atom   36 type  2   force =    -0.00016477   -0.00032135   -0.00014598
     atom   37 type  1   force =     0.00045135   -0.00001031    0.00052752
     atom   38 type  1   force =     0.00001067   -0.00056520   -0.00021579
     atom   39 type  2   force =     0.00006273   -0.00031610    0.00108516
     atom   40 type  2   force =    -0.00008579   -0.00027872    0.00029701
     atom   41 type  2   force =     0.00005692   -0.00023117   -0.00020590
     atom   42 type  2   force =    -0.00033306   -0.00023580    0.00028260
     atom   43 type  1   force =    -0.00000124   -0.00118545    0.00005991
     atom   44 type  1   force =    -0.00039679    0.00008806   -0.00126760
     atom   45 type  2   force =     0.00005871   -0.00004707    0.09945690
     atom   46 type  2   force =    -0.07969996    0.00000367   -0.03247716
     atom   47 type  2   force =     0.07957996    0.00043110   -0.03250381
     atom   48 type  3   force =    -0.00055881   -0.00560770   -0.00125356
     atom   49 type  4   force =    -0.00032722    0.00187617    0.00015589
     atom   50 type  5   force =    -0.00029975   -0.00017719    0.00112932
     atom   51 type  5   force =    -0.00026726   -0.00076292    0.00013256
     atom   52 type  5   force =     0.00052187   -0.00001326   -0.00031386
     atom   53 type  2   force =    -0.00061849   -0.00010443   -0.00069971
     atom   54 type  5   force =     0.00081113    0.00035708    0.00067131
     atom   55 type  5   force =     0.00064697    0.00001488   -0.00024716

     Total force =     0.423344     Total SCF correction =     0.000768
  @ DRIVER MODE: Message from server: STATUS
  @ DRIVER MODE: Message from server: GETFORCE
  @ DRIVER MODE: Returning v,forces,stress,ensemble

     Writing output data file ./calc.save/
  @ DRIVER MODE: Message from server: EXIT
  @ DRIVE MODE: Exiting

     General routines

     Parallel routines

   This run was terminated on:  16:57:27  15Sep2021

   JOB DONE.