     Program PWSCF v.6.7GPU starts on  5Oct2021 at 21:10:53

     R & G space division:  proc/nbgrp/npool/nimage =       8
     Reading input from /storage/home/hcoda1/3/ntian30/research/carbon/CxH_vib/pristine/ads_slab/CH2N2_a/out_0028/pw.inp
Warning: card &CELL ignored
Warning: card   CELL_DYNAMICS='IPI', ignored
Warning: card / ignored

     Current dimensions of program PWSCF are:
     Max number of different atomic species (ntypx) = 10
     Max number of k-points (npk) =  40000
     Max angular momentum in pseudopotentials (lmaxx) =  3
     Presently no symmetry can be used with electric field

     Message from routine cell_base_init:
     DEPRECATED: use true lattice parameter, not A to a.u. conversion factor

     IMPORTANT: XC functional enforced from input :
     Exchange-correlation= BEEF-VDW
                           (   1   4  43  14   2   0   0)
     Any further DFT definition will be discarded
     Please, verify this is what you really want

  @ DRIVER MODE: Connecting to
 qe_1139763_3091261.sched-torque.pace.gatech.edubyj5_ru4_scratch
  using UNIX socket
  @ DRIVER MODE: Message from server: STATUS
  @ DRIVER MODE: Message from server: INIT
  @ DRIVER MODE: Receiving replica           0          -1
  @ DRIVER MODE: Receiving encoded integer          25
  @ DRIVER MODE:  SCF:  T  FORCE:  T  STRESS:  F  VC:  F  ENSEMBLE:  F
  @ DRIVER MODE:  SCF:  T  FORCE:  T  STRESS:  F  VC:  F  ENSEMBLE:  F

     Using Slab Decomposition

     bravais-lattice index     =            0
     lattice parameter (alat)  =       1.8897  a.u.
     unit-cell volume          =    6658.9804 (a.u.)^3
     number of atoms/cell      =           53
     number of atomic types    =            5
     number of electrons       =       400.00
     number of Kohn-Sham states=          210
     kinetic-energy cutoff     =      29.3995  Ry
     charge density cutoff     =     293.9946  Ry
     scf convergence threshold =      7.3E-08
     mixing beta               =       0.0500
     number of iterations used =            8  plain     mixing
     Exchange-correlation= BEEF-VDW
                           (   1   4  43  14   2   0   0)

     celldm(1)=   1.889726  celldm(2)=   0.000000  celldm(3)=   0.000000
     celldm(4)=   0.000000  celldm(5)=   0.000000  celldm(6)=   0.000000

     crystal axes: (cart. coord. in units of alat)
               a(1) = (   6.579727   0.000000   0.000000 )
               a(2) = (  -0.000775   5.961596   0.000000 )
               a(3) = (   0.000000   0.000000  25.155947 )

     reciprocal axes: (cart. coord. in units 2 pi/alat)
               b(1) = (  0.151982  0.000020  0.000000 )
               b(2) = (  0.000000  0.167740  0.000000 )
               b(3) = (  0.000000  0.000000  0.039752 )

     PseudoPot. # 1 for Ti read from file:
     /storage/coda1/p-amedford6/0/shared/rich_project_chbe-medford/medford-share/data/pseudos_module/espresso/nninc/pbe/van/Ti.UPF
     MD5 check sum: 8e4df49b7f0d34bbd5052bf3f5ea0213
     Pseudo is Ultrasoft, Zval = 12.0
     Generated by new atomic code, or converted to UPF format
     Using radial grid of  851 points,  6 beta functions with:
                l(1) =   0
                l(2) =   0
                l(3) =   1
                l(4) =   1
                l(5) =   2
                l(6) =   2
     Q(r) pseudized with  8 coefficients,  rinner =    1.000   1.000   1.000
                                                       1.000   1.000

     PseudoPot. # 2 for O  read from file:
     /storage/coda1/p-amedford6/0/shared/rich_project_chbe-medford/medford-share/data/pseudos_module/espresso/nninc/pbe/van/O.UPF
     MD5 check sum: 78c19812648e8988a0fe644b0f25305e
     Pseudo is Ultrasoft, Zval =  6.0
     Generated by new atomic code, or converted to UPF format
     Using radial grid of  737 points,  4 beta functions with:
                l(1) =   0
                l(2) =   0
                l(3) =   1
                l(4) =   1
     Q(r) pseudized with  8 coefficients,  rinner =    0.800   0.800   0.800

     PseudoPot. # 3 for N  read from file:
     /storage/coda1/p-amedford6/0/shared/rich_project_chbe-medford/medford-share/data/pseudos_module/espresso/nninc/pbe/van/N.UPF
     MD5 check sum: 90d10febe142ad51ac9d5be1deb811c4
     Pseudo is Ultrasoft, Zval =  5.0
     Generated by new atomic code, or converted to UPF format
     Using radial grid of  729 points,  4 beta functions with:
                l(1) =   0
                l(2) =   0
                l(3) =   1
                l(4) =   1
     Q(r) pseudized with  8 coefficients,  rinner =    0.800   0.800   0.800

     PseudoPot. # 4 for C  read from file:
     /storage/coda1/p-amedford6/0/shared/rich_project_chbe-medford/medford-share/data/pseudos_module/espresso/nninc/pbe/van/C.UPF
     MD5 check sum: 1a69bf6b8db32088f5b2163dbdb77a27
     Pseudo is Ultrasoft, Zval =  4.0
     Generated by new atomic code, or converted to UPF format
     Using radial grid of  721 points,  4 beta functions with:
                l(1) =   0
                l(2) =   0
                l(3) =   1
                l(4) =   1
     Q(r) pseudized with  8 coefficients,  rinner =    0.800   0.800   0.800

     PseudoPot. # 5 for H  read from file:
     /storage/coda1/p-amedford6/0/shared/rich_project_chbe-medford/medford-share/data/pseudos_module/espresso/nninc/pbe/van/H.UPF
     MD5 check sum: b5ee9d7bfd3a09ee7748110bda690ff7
     Pseudo is Ultrasoft, Zval =  1.0
     Generated by new atomic code, or converted to UPF format
     Using radial grid of  615 points,  1 beta functions with:
                l(1) =   0
     Q(r) pseudized with  8 coefficients,  rinner =    0.800

     atomic species   valence    mass     pseudopotential
        Ti1           12.00    47.86700     Ti( 1.00)
        O1             6.00    15.99900     O ( 1.00)
        N1             5.00    14.00700     N ( 1.00)
        C1             4.00    12.01100     C ( 1.00)
        H1             1.00     1.00800     H ( 1.00)

     No symmetry found

   Cartesian axes

     site n.     atom                  positions (alat units)
         1           Ti1 tau(   1) = (   0.0004258   2.9801865   6.0000000  )
         2           Ti1 tau(   2) = (   3.2906075   1.4906267   6.0002472  )
         3           O1  tau(   3) = (   0.0006271   0.0005054   7.9858123  )
         4           O1  tau(   4) = (   3.2906025   0.0005020   7.3038282  )
         5           O1  tau(   5) = (   4.5942328   1.4918067   9.2879030  )
         6           O1  tau(   6) = (   1.9868534   1.4903216   9.2879459  )
         7           Ti1 tau(   7) = (   3.2967797   2.8647345   9.1688538  )
         8           Ti1 tau(   8) = (   0.0139078   1.4260134   9.3797207  )
         9           O1  tau(   9) = (   3.2818202   5.9426219  11.3413624  )
        10           O1  tau(  10) = (  -0.0006713   5.9438105  10.5613913  )
        11           O1  tau(  11) = (   1.2629550   1.4689526  12.6431422  )
        12           O1  tau(  12) = (   5.2627372   1.4724369  12.6244454  )
        13           Ti1 tau(  13) = (   0.0649248   2.9521173  12.8162972  )
        14           Ti1 tau(  14) = (   3.3900010   1.4623865  12.4921655  )
        15           O1  tau(  15) = (   6.5612248   5.9427239  14.6529025  )
        16           O1  tau(  16) = (   3.2707349   5.9499158  13.9186396  )
        17           O1  tau(  17) = (   4.5120437   1.4930778  16.0516072  )
        18           O1  tau(  18) = (   2.0188724   1.4901805  16.0528637  )
        19           Ti1 tau(  19) = (   3.2526435   2.9656207  15.7242400  )
        20           Ti1 tau(  20) = (   6.5390660   1.5270114  16.1581541  )
        21           O1  tau(  21) = (   3.2904802   0.0005063   4.7018136  )
        22           O1  tau(  22) = (   6.5517350   0.0054997  17.2382445  )
        23           O1  tau(  23) = (   1.3043587   1.4918075   6.0039043  )
        24           O1  tau(  24) = (   5.2767064   1.4903225   6.0039473  )
        25           Ti1 tau(  25) = (   0.0000382   5.9609847   6.0000000  )
        26           Ti1 tau(  26) = (   3.2902200   4.4714249   6.0002472  )
        27           O1  tau(  27) = (   0.0002396   2.9813036   7.9858123  )
        28           O1  tau(  28) = (   3.2902150   2.9813002   7.3038282  )
        29           O1  tau(  29) = (   4.5938453   4.4726049   9.2879030  )
        30           O1  tau(  30) = (   1.9864658   4.4711199   9.2879459  )
        31           Ti1 tau(  31) = (   3.2991641   5.8454459   9.1677744  )
        32           Ti1 tau(  32) = (   0.0142928   4.4069258   9.3804372  )
        33           O1  tau(  33) = (   3.2794024   2.9620648  11.3429404  )
        34           O1  tau(  34) = (   0.0008107   2.9631099  10.5617750  )
        35           O1  tau(  35) = (   1.2628400   4.4505553  12.6449227  )
        36           O1  tau(  36) = (   5.2621040   4.4508628  12.6271667  )
        37           Ti1 tau(  37) = (   0.0634051   5.9337149  12.8176510  )
        38           Ti1 tau(  38) = (   3.3888395   4.4462795  12.4902329  )
        39           O1  tau(  39) = (   6.5643088   2.9532696  14.6533357  )
        40           O1  tau(  40) = (   3.2687884   2.9653797  13.9163527  )
        41           O1  tau(  41) = (   4.5138939   4.4677068  16.0260545  )
        42           O1  tau(  42) = (   2.0159196   4.4685127  16.0260682  )
        43           Ti1 tau(  43) = (   3.2551286   5.9518885  15.7372992  )
        44           Ti1 tau(  44) = (   6.5382561   4.5045293  16.1449140  )
        45           O1  tau(  45) = (   3.2900926   2.9813045   4.7018136  )
        46           O1  tau(  46) = (   6.5520679   2.9954315  17.2342401  )
        47           O1  tau(  47) = (   1.3039711   4.4726057   6.0039043  )
        48           O1  tau(  48) = (   5.2763189   4.4711207   6.0039473  )
        49           N1  tau(  49) = (   3.2718132   4.4933032  18.6889481  )
        50           N1  tau(  50) = (   3.2619367   3.3563452  18.5802627  )
        51           C1  tau(  51) = (   3.2831389   5.7900214  18.6539038  )
        52           H1  tau(  52) = (   2.3406966   0.3270794  18.8225995  )
        53           H1  tau(  53) = (   4.2401870   0.3174325  18.8013464  )

     number of k points=    10  Fermi-Dirac smearing, width (Ry)=  0.0073
                       cart. coord. in units 2pi/alat
        k(    1) = (   0.0000000   0.0000000   0.0000000), wk =   0.1250000
        k(    2) = (   0.0000000   0.0419351   0.0000000), wk =   0.2500000
        k(    3) = (   0.0000000  -0.0838702   0.0000000), wk =   0.1250000
        k(    4) = (   0.0379955   0.0000049   0.0000000), wk =   0.2500000
        k(    5) = (   0.0379955   0.0419400   0.0000000), wk =   0.2500000
        k(    6) = (   0.0379955  -0.0838652   0.0000000), wk =   0.2500000
        k(    7) = (   0.0379955  -0.0419301   0.0000000), wk =   0.2500000
        k(    8) = (  -0.0759910  -0.0000099   0.0000000), wk =   0.1250000
        k(    9) = (  -0.0759910   0.0419252   0.0000000), wk =   0.2500000
        k(   10) = (  -0.0759910  -0.0838800   0.0000000), wk =   0.1250000

     Initial potential from superposition of free atoms

     starting charge  383.99917, renormalised to  400.00000

     negative rho (up, down):  1.829E-02 0.000E+00

     %%%%%%%%%%%%%%%%%%%%%%%%%%%%%%%%%%%%%%%%%%%%%%%%%%%%%%%%%%%%%%%%%%%%%%%%
     %                                                                      %
     % You are using vdW-DF, which was implemented by the Thonhauser group. %
     % Please cite the following two papers that made this development      %
     % possible and the two reviews that describe the various versions:     %
     %                                                                      %
     %   T. Thonhauser et al., PRL 115, 136402 (2015).                      %
     %   T. Thonhauser et al., PRB 76, 125112 (2007).                       %
     %   K. Berland et al., Rep. Prog. Phys. 78, 066501 (2015).             %
     %   D.C. Langreth et al., J. Phys.: Condens. Matter 21, 084203 (2009). %
     %                                                                      %
     %                                                                      %
     % If you are calculating the stress with vdW-DF, please also cite:     %
     %                                                                      %
     %   R. Sabatini et al., J. Phys.: Condens. Matter 24, 424209 (2012).   %
     %                                                                      %
     %%%%%%%%%%%%%%%%%%%%%%%%%%%%%%%%%%%%%%%%%%%%%%%%%%%%%%%%%%%%%%%%%%%%%%%%

     Adding external electric field

     Computed dipole along edir(3) :
        Dipole               -9.8398 Ry au,        -25.0102 Debye
        Dipole field         -0.0186 Ry au,

        Potential amp.        1.7213 Ry
        Total length         46.3494 bohr

     Starting wfcs are  302 atomic wfcs
  @ DRIVER MODE: Message from server: STATUS
  @ DRIVER MODE: Message from server: POSDATA
  @ DRIVER MODE: Reading and sharing cell
  @ DRIVER MODE: Reading and sharing positions
  @ DRIVER MODE: Received positions

     Self-consistent Calculation

     iteration #  1     ecut=    29.40 Ry     beta= 0.05
     Davidson diagonalization with overlap
     c_bands:  1 eigenvalues not converged
     c_bands:  2 eigenvalues not converged
     c_bands:  1 eigenvalues not converged
     c_bands:  2 eigenvalues not converged
     c_bands:  2 eigenvalues not converged
     c_bands:  2 eigenvalues not converged
     c_bands:  1 eigenvalues not converged
     c_bands:  3 eigenvalues not converged
     ethr =  1.00E-05,  avg # of iterations = 20.0

[...]

     total energy              =   -2519.78672260 Ry
     estimated scf accuracy    <    5013.12364519 Ry

     iteration #  2     ecut=    29.40 Ry     beta= 0.05
     Davidson diagonalization with overlap
     ethr =  1.00E-02,  avg # of iterations = 24.3

[...]

     iteration # 54     ecut=    29.40 Ry     beta= 0.05
     Davidson diagonalization with overlap
     c_bands:  1 eigenvalues not converged
     ethr =  5.70E-08,  avg # of iterations =  6.7

[...]

     total energy              =   -2970.35085521 Ry
     estimated scf accuracy    <       0.00000010 Ry

     iteration # 72     ecut=    29.40 Ry     beta= 0.05
     Davidson diagonalization with overlap
     ethr =  2.02E-11,  avg # of iterations =  1.7

     negative rho (up, down):  1.789E-02 0.000E+00

     Adding external electric field

     Computed dipole along edir(3) :
        Dipole                0.5368 Ry au,          1.3644 Debye
        Dipole field          0.0010 Ry au,

        Potential amp.       -0.0939 Ry
        Total length         46.3494 bohr

     End of self-consistent calculation

          k = 0.0000 0.0000 0.0000 ( 18029 PWs)   bands (ev):

   -56.2388 -56.2053 -55.8892 -55.8535 -55.7650 -55.7301 -55.6313 -55.6074
   -55.5967 -55.5735 -55.5268 -55.4917 -55.4809 -55.4441 -55.0120 -54.9780
   -32.6658 -32.4865 -32.4586 -32.4302 -32.4242 -32.3391 -32.2927 -32.2391
   -32.1856 -32.1343 -32.1032 -32.0994 -32.0684 -32.0672 -32.0508 -32.0457
   -32.0320 -32.0122 -32.0071 -31.9910 -31.9058 -31.8824 -31.8718 -31.8605
   -31.8512 -31.8466 -31.8226 -31.8139 -31.8006 -31.7722 -31.7653 -31.7437
   -31.7372 -31.7237 -31.7058 -31.7040 -31.7039 -31.6873 -31.6846 -31.6567
   -31.6308 -31.5517 -31.4113 -31.3392 -31.3154 -31.2297 -31.1447 -31.0329
   -21.0541 -16.5566 -16.3930 -16.1720 -16.0184 -15.9294 -15.7982 -15.6030
   -15.5775 -15.4845 -15.4822 -15.4587 -15.3877 -15.3874 -15.3539 -15.3486
   -15.3199 -15.2991 -15.2593 -15.2423 -15.2401 -15.1976 -15.1374 -15.1123
   -15.0195 -14.9726 -14.8668 -14.8618 -14.8314 -14.7471 -14.7161 -14.2763
   -13.5060 -13.3926  -6.8107  -5.8584  -5.1016  -3.9841  -3.9300  -3.8939
    -3.7785  -3.7592  -3.6328  -3.3548  -3.2996  -3.0485  -2.9935  -2.9768
    -2.9314  -2.9094  -2.8420  -2.8219  -2.7375  -2.7331  -2.6867  -2.6798
    -2.6465  -2.6442  -2.6273  -2.5672  -2.5462  -2.4615  -2.4530  -2.4214
    -2.3897  -2.2796  -2.2351  -2.1903  -2.1885  -2.1599  -2.0603  -2.0529
    -2.0392  -2.0098  -1.9276  -1.8765  -1.7494  -1.6491  -1.6329  -1.5877
    -1.5267  -1.4942  -1.2951  -1.2476  -1.2443  -1.2231  -1.2007  -1.1882
    -1.1196  -1.0530  -0.9304  -0.8561  -0.8294  -0.7746  -0.7542  -0.7482
    -0.7289  -0.6507  -0.6213  -0.6148  -0.5918  -0.4507  -0.3052  -0.2662
    -0.2440  -0.2293  -0.2074  -0.1284  -0.1119  -0.0759  -0.0347  -0.0175
     0.0030   0.0513   0.0799   0.0886   0.1927   0.2129   0.2745   0.2959
     0.3058   0.3410   0.3851   0.5310   0.6179   0.7313   0.7405   0.8196
     0.9679   0.9746   1.0155   1.2203   1.2299   1.2772   1.6010   1.6742
     3.0333   3.2167   3.4479   3.5189   3.5392   3.6319   3.7373   3.7673
     3.8343   3.9128

[...]

          k = 0.0380-0.0419 0.0000 ( 17876 PWs)   bands (ev):

[...]

          k =-0.0760-0.0000 0.0000 ( 17886 PWs)   bands (ev):

[...]

          k =-0.0760-0.0839 0.0000 ( 17948 PWs)   bands (ev):

   -56.2221 -56.2219 -55.8716 -55.8710 -55.7498 -55.7452 -55.6146 -55.6132
   -55.5907 -55.5899 -55.5099 -55.5086 -55.4629 -55.4621 -54.9950 -54.9949
   -32.4833 -32.4832 -32.4722 -32.4720 -32.3830 -32.3829 -32.2304 -32.2261
   -32.1354 -32.1306 -32.0776 -32.0766 -32.0676 -32.0569 -32.0371 -32.0287
   -31.9549 -31.9475 -31.9358 -31.9342 -31.9207 -31.9199 -31.8544 -31.8539
   -31.8428 -31.8416 -31.8359 -31.8355 -31.8295 -31.8291 -31.8010 -31.8002
   -31.7899 -31.7837 -31.7258 -31.7248 -31.7164 -31.7153 -31.6992 -31.6979
   -31.6826 -31.6816 -31.3283 -31.3282 -31.2256 -31.2255 -31.1873 -31.1873
   -21.0530 -15.9775 -15.9658 -15.7722 -15.7673 -15.7042 -15.7041 -15.6639
   -15.6615 -15.6115 -15.6101 -15.4720 -15.4690 -15.4680 -15.4640 -15.3878
   -15.3865 -15.3724 -15.3713 -15.3205 -15.3188 -15.1843 -15.1831 -15.0972
   -15.0963 -15.0524 -15.0516 -14.9955 -14.9947 -14.8956 -14.8821 -14.2885
   -13.4950 -13.4950  -6.6533  -5.8287  -5.0901  -4.1549  -3.2632  -3.2499
    -2.9838  -2.9778  -2.8792  -2.8629  -2.8447  -2.8259  -2.8239  -2.7389
    -2.7298  -2.7074  -2.7017  -2.6745  -2.6703  -2.6130  -2.6117  -2.5894
    -2.5835  -2.5735  -2.5725  -2.5671  -2.5649  -2.4756  -2.4721  -2.4587
    -2.4567  -2.3845  -2.3779  -2.3441  -2.3318  -2.1235  -2.1230  -2.0534
    -2.0524  -1.9343  -1.9331  -1.9167  -1.9127  -1.8769  -1.8373  -1.5982
    -1.5960  -1.5387  -1.5360  -1.4870  -1.4726  -1.3670  -1.3379  -1.2104
    -1.1912  -1.1751  -1.1676  -1.0173  -1.0138  -1.0119  -1.0083  -0.9845
    -0.9812  -0.8653  -0.8517  -0.7656  -0.7584  -0.7415  -0.7380  -0.7000
    -0.6824  -0.5320  -0.5316  -0.5086  -0.5029  -0.3614  -0.3603  -0.3012
    -0.2946  -0.0527  -0.0445   0.0678   0.0680   0.2974   0.3314   0.3526
     0.3635   0.5063   0.5148   0.5284   0.5373   0.6627   0.6673   0.6841
     0.6900   0.7772   0.7772   1.2168   1.4032   1.4037   1.4555   1.4556
     3.5740   3.5786   3.5831   3.5874   3.6279   3.6295   3.6749   3.6767
     3.9323   3.9546

     the Fermi energy is     2.4059 ev

!    total energy              =   -2970.35087449 Ry
     estimated scf accuracy    <       0.00000007 Ry
     smearing contrib. (-TS)   =      -0.00009805 Ry
     internal energy E=F+TS    =   -2970.35077644 Ry

     The total energy is F=E-TS. E is the sum of the following terms:
     one-electron contribution =  -24066.84261254 Ry
     hartree contribution      =   12123.72796227 Ry
     xc contribution           =    -491.48145936 Ry
     ewald contribution        =    9464.24478939 Ry
     electric field correction =       0.00054380 Ry

     convergence has been achieved in  72 iterations

     Forces acting on atoms (cartesian axes, Ry/au):

     atom    1 type  1   force =     0.00011053   -0.00011610    0.14849014
     atom    2 type  1   force =    -0.00010650   -0.00048745   -0.16835381
     atom    3 type  2   force =     0.00014144    0.00223417   -0.05995159
     atom    4 type  2   force =     0.00015588   -0.00146680    0.03993790
     atom    5 type  2   force =    -0.02121137   -0.00097196    0.00398930
     atom    6 type  2   force =     0.02100926    0.00033045    0.00312288
     atom    7 type  1   force =    -0.00011801   -0.00020228   -0.00001587
     atom    8 type  1   force =    -0.00021908    0.00002729    0.00003795
     atom    9 type  2   force =    -0.00023436   -0.00005839    0.00014256
     atom   10 type  2   force =     0.00001780   -0.00000048    0.00006197
     atom   11 type  2   force =     0.00000329   -0.00006518   -0.00012725
     atom   12 type  2   force =    -0.00010639   -0.00013447   -0.00006827
     atom   13 type  1   force =    -0.00007675   -0.00000906   -0.00010905
     atom   14 type  1   force =     0.00005742   -0.00002786    0.00002119
     atom   15 type  2   force =     0.00010591    0.00001086   -0.00001955
     atom   16 type  2   force =     0.00007519   -0.00004437    0.00012926
     atom   17 type  2   force =     0.00006004   -0.00011843    0.00021427
     atom   18 type  2   force =     0.00020501   -0.00007588   -0.00006149
     atom   19 type  1   force =     0.00020668    0.00009496   -0.00005805
     atom   20 type  1   force =    -0.00013038   -0.00006644   -0.00017460
     atom   21 type  2   force =     0.00004204   -0.00004447    0.10202991
     atom   22 type  2   force =     0.00007441   -0.00003452   -0.00006799
     atom   23 type  2   force =    -0.07527804    0.00015807   -0.03466213
     atom   24 type  2   force =     0.07521240    0.00058441   -0.03473795
     atom   25 type  1   force =     0.00010991   -0.00013302    0.14839721
     atom   26 type  1   force =    -0.00013713   -0.00085481   -0.16858937
     atom   27 type  2   force =     0.00012455    0.00218332   -0.05990325
     atom   28 type  2   force =     0.00009079   -0.00146203    0.04021887
     atom   29 type  2   force =    -0.02100897   -0.00107645    0.00396905
     atom   30 type  2   force =     0.02120216    0.00041165    0.00312002
     atom   31 type  1   force =    -0.00019598   -0.00010793   -0.00001502
     atom   32 type  1   force =    -0.00011573   -0.00005479   -0.00008700
     atom   33 type  2   force =     0.00013262    0.00008170    0.00006029
     atom   34 type  2   force =    -0.00008492    0.00002924   -0.00001513
     atom   35 type  2   force =    -0.00002919    0.00002642    0.00003418
     atom   36 type  2   force =    -0.00015262    0.00022376   -0.00014851
     atom   37 type  1   force =    -0.00006322   -0.00014397   -0.00007753
     atom   38 type  1   force =     0.00004578    0.00004789    0.00017912
     atom   39 type  2   force =    -0.00007837   -0.00000735   -0.00016273
     atom   40 type  2   force =     0.00011427    0.00001835    0.00006195
     atom   41 type  2   force =     0.00024095   -0.00011659    0.00007888
     atom   42 type  2   force =     0.00021380   -0.00005537    0.00023516
     atom   43 type  1   force =    -0.00010256    0.00029506    0.00017803
     atom   44 type  1   force =    -0.00007238    0.00007842    0.00001610
     atom   45 type  2   force =     0.00003739   -0.00004865    0.10202729
     atom   46 type  2   force =     0.00003368    0.00001573   -0.00010579
     atom   47 type  2   force =    -0.07528146    0.00019740   -0.03466271
     atom   48 type  2   force =     0.07521957    0.00063026   -0.03473478
     atom   49 type  3   force =     0.00099029    0.00114936   -0.00089476
     atom   50 type  3   force =     0.00004988    0.00026903    0.00101252
     atom   51 type  4   force =     0.00316447    0.00336408    0.00009810
     atom   52 type  5   force =    -0.00038802   -0.00055640    0.00020849
     atom   53 type  5   force =    -0.00405601   -0.00392036   -0.00026840

     Total force =     0.401780     Total SCF correction =     0.001031
  @ DRIVER MODE: Message from server: STATUS
  @ DRIVER MODE: Message from server: GETFORCE
  @ DRIVER MODE: Returning v,forces,stress,ensemble

     Writing output data file ./calc.save/
  @ DRIVER MODE: Message from server: EXIT
  @ DRIVE MODE: Exiting

     General routines

     Parallel routines

   This run was terminated on:  21:37:23   5Oct2021

   JOB DONE.