     Program PWSCF v.6.7GPU starts on 12Oct2021 at 23:11:51

     R & G space division:  proc/nbgrp/npool/nimage =       8
     Reading input from /storage/home/hcoda1/3/ntian30/research/carbon/ACS_vib/ads_slab/N2H6/out_0034/pw.inp
Warning: card &CELL ignored
Warning: card   CELL_DYNAMICS='IPI', ignored
Warning: card / ignored

     Current dimensions of program PWSCF are:
     Max number of different atomic species (ntypx) = 10
     Max number of k-points (npk) =  40000
     Max angular momentum in pseudopotentials (lmaxx) =  3
     Presently no symmetry can be used with electric field

     Message from routine cell_base_init:
     DEPRECATED: use true lattice parameter, not A to a.u. conversion factor

     IMPORTANT: XC functional enforced from input :
     Exchange-correlation= BEEF-VDW
                           (   1   4  43  14   2   0   0)
     Any further DFT definition will be discarded
     Please, verify this is what you really want

  @ DRIVER MODE: Connecting to
 qe_1139763_3181315.sched-torque.pace.gatech.edulxyf4w9l_scratch
  using UNIX socket
  @ DRIVER MODE: Message from server: STATUS
  @ DRIVER MODE: Message from server: INIT
  @ DRIVER MODE: Receiving replica           0          -1
  @ DRIVER MODE: Receiving encoded integer          25
  @ DRIVER MODE:  SCF:  T  FORCE:  T  STRESS:  F  VC:  F  ENSEMBLE:  F
  @ DRIVER MODE:  SCF:  T  FORCE:  T  STRESS:  F  VC:  F  ENSEMBLE:  F

     Using Slab Decomposition

     bravais-lattice index     =            0
     lattice parameter (alat)  =       1.8897  a.u.
     unit-cell volume          =    6658.9804 (a.u.)^3
     number of atoms/cell      =           55
     number of atomic types    =            4
     number of electrons       =       394.00
     number of Kohn-Sham states=          207
     kinetic-energy cutoff     =      29.3995  Ry
     charge density cutoff     =     293.9946  Ry
     scf convergence threshold =      7.3E-08
     mixing beta               =       0.0500
     number of iterations used =            8  plain     mixing
     Exchange-correlation= BEEF-VDW
                           (   1   4  43  14   2   0   0)

     celldm(1)=   1.889726  celldm(2)=   0.000000  celldm(3)=   0.000000
     celldm(4)=   0.000000  celldm(5)=   0.000000  celldm(6)=   0.000000

     crystal axes: (cart. coord. in units of alat)
               a(1) = (   6.579727   0.000000   0.000000 )
               a(2) = (  -0.000775   5.961596   0.000000 )
               a(3) = (   0.000000   0.000000  25.155947 )

     reciprocal axes: (cart. coord. in units 2 pi/alat)
               b(1) = (  0.151982  0.000020  0.000000 )
               b(2) = (  0.000000  0.167740  0.000000 )
               b(3) = (  0.000000  0.000000  0.039752 )

     PseudoPot. # 1 for Ti read from file:
     /storage/coda1/p-amedford6/0/shared/rich_project_chbe-medford/medford-share/data/pseudos_module/espresso/nninc/pbe/van/Ti.UPF
     MD5 check sum: 8e4df49b7f0d34bbd5052bf3f5ea0213
     Pseudo is Ultrasoft, Zval = 12.0
     Generated by new atomic code, or converted to UPF format
     Using radial grid of  851 points,  6 beta functions with:
                l(1) =   0
                l(2) =   0
                l(3) =   1
                l(4) =   1
                l(5) =   2
                l(6) =   2
     Q(r) pseudized with  8 coefficients,  rinner =    1.000   1.000   1.000
                                                       1.000   1.000

     PseudoPot. # 2 for O  read from file:
     /storage/coda1/p-amedford6/0/shared/rich_project_chbe-medford/medford-share/data/pseudos_module/espresso/nninc/pbe/van/O.UPF
     MD5 check sum: 78c19812648e8988a0fe644b0f25305e
     Pseudo is Ultrasoft, Zval =  6.0
     Generated by new atomic code, or converted to UPF format
     Using radial grid of  737 points,  4 beta functions with:
                l(1) =   0
                l(2) =   0
                l(3) =   1
                l(4) =   1
     Q(r) pseudized with  8 coefficients,  rinner =    0.800   0.800   0.800

     PseudoPot. # 3 for N  read from file:
     /storage/coda1/p-amedford6/0/shared/rich_project_chbe-medford/medford-share/data/pseudos_module/espresso/nninc/pbe/van/N.UPF
     MD5 check sum: 90d10febe142ad51ac9d5be1deb811c4
     Pseudo is Ultrasoft, Zval =  5.0
     Generated by new atomic code, or converted to UPF format
     Using radial grid of  729 points,  4 beta functions with:
                l(1) =   0
                l(2) =   0
                l(3) =   1
                l(4) =   1
     Q(r) pseudized with  8 coefficients,  rinner =    0.800   0.800   0.800

     PseudoPot. # 4 for H  read from file:
     /storage/coda1/p-amedford6/0/shared/rich_project_chbe-medford/medford-share/data/pseudos_module/espresso/nninc/pbe/van/H.UPF
     MD5 check sum: b5ee9d7bfd3a09ee7748110bda690ff7
     Pseudo is Ultrasoft, Zval =  1.0
     Generated by new atomic code, or converted to UPF format
     Using radial grid of  615 points,  1 beta functions with:
                l(1) =   0
     Q(r) pseudized with  8 coefficients,  rinner =    0.800

     atomic species   valence    mass     pseudopotential
        Ti1           12.00    47.86700     Ti( 1.00)
        O1             6.00    15.99900     O ( 1.00)
        N1             5.00    14.00700     N ( 1.00)
        H1             1.00     1.00800     H ( 1.00)

     No symmetry found

   Cartesian axes

     site n.     atom                  positions (alat units)
         1           Ti1 tau(   1) = (   0.0004258   2.9801865   6.0000000  )
         2           Ti1 tau(   2) = (   3.2906075   1.4906267   6.0002472  )
         3           O1  tau(   3) = (   0.0006271   0.0005054   7.9858123  )
         4           O1  tau(   4) = (   3.2906025   0.0005020   7.3038282  )
         5           O1  tau(   5) = (   4.5942328   1.4918067   9.2879030  )
         6           O1  tau(   6) = (   1.9868534   1.4903216   9.2879459  )
         7           Ti1 tau(   7) = (   3.2905188   2.9817269   9.1608671  )
         8           Ti1 tau(   8) = (   0.0008727   1.4903491   9.2579811  )
         9           O1  tau(   9) = (   3.2897677   5.9391746  11.3820438  )
        10           O1  tau(  10) = (  -0.0000005   5.9544960  10.6146985  )
        11           O1  tau(  11) = (   1.2884133   1.4789655  12.6516217  )
        12           O1  tau(  12) = (   5.2921206   1.4788385  12.6515509  )
        13           Ti1 tau(  13) = (   0.0005720   2.9629092  12.4975245  )
        14           Ti1 tau(  14) = (   3.2903801   1.4745319  12.5205501  )
        15           O1  tau(  15) = (   0.0004407   0.0388239  14.7059933  )
        16           O1  tau(  16) = (   3.2897445   5.9465346  14.0037610  )
        17           O1  tau(  17) = (   4.5472543   1.4569283  16.2215039  )
        18           O1  tau(  18) = (   2.0329396   1.4568822  16.2213506  )
        19           Ti1 tau(  19) = (   3.2899346   2.9358424  15.7577366  )
        20           Ti1 tau(  20) = (   0.0004932   1.4309995  16.0137732  )
        21           O1  tau(  21) = (   3.2904802   0.0005063   4.7018136  )
        22           O1  tau(  22) = (  -0.0003511   5.7889056  17.2622344  )
        23           O1  tau(  23) = (   1.3043587   1.4918075   6.0039043  )
        24           O1  tau(  24) = (   5.2767064   1.4903225   6.0039473  )
        25           Ti1 tau(  25) = (   0.0000382   5.9609847   6.0000000  )
        26           Ti1 tau(  26) = (   3.2902200   4.4714249   6.0002472  )
        27           O1  tau(  27) = (   0.0002396   2.9813036   7.9858123  )
        28           O1  tau(  28) = (   3.2902150   2.9813002   7.3038282  )
        29           O1  tau(  29) = (   4.5938453   4.4726049   9.2879030  )
        30           O1  tau(  30) = (   1.9864658   4.4711199   9.2879459  )
        31           Ti1 tau(  31) = (   3.2908958   0.0009406   9.1591437  )
        32           Ti1 tau(  32) = (   0.0004876   4.4725358   9.2579169  )
        33           O1  tau(  33) = (   3.2901541   2.9707129  11.3740276  )
        34           O1  tau(  34) = (   0.0003862   2.9798045  10.6274311  )
        35           O1  tau(  35) = (   1.2860740   4.4511954  12.6821393  )
        36           O1  tau(  36) = (   5.2936768   4.4510845  12.6820400  )
        37           Ti1 tau(  37) = (   0.0001324   5.9497034  12.4914426  )
        38           Ti1 tau(  38) = (   3.2900283   4.4525324  12.5305491  )
        39           O1  tau(  39) = (   0.0000299   2.9046373  14.9484161  )
        40           O1  tau(  40) = (   3.2901113   2.9423191  13.9685580  )
        41           O1  tau(  41) = (   4.5465916   4.4073028  16.1601725  )
        42           O1  tau(  42) = (   2.0329218   4.4072560  16.1600144  )
        43           Ti1 tau(  43) = (   3.2897320   5.9176933  15.7983882  )
        44           Ti1 tau(  44) = (   0.0000796   4.6311109  15.9036278  )
        45           O1  tau(  45) = (   3.2900926   2.9813045   4.7018136  )
        46           O1  tau(  46) = (   1.3039711   4.4726057   6.0039043  )
        47           O1  tau(  47) = (   5.2763189   4.4711207   6.0039473  )
        48           N1  tau(  48) = (   6.5791966   2.5420708  18.0661808  )
        49           H1  tau(  49) = (   6.5785613   1.6509345  18.5577087  )
        50           H1  tau(  50) = (   0.8131443   3.0604954  18.3807411  )
        51           H1  tau(  51) = (   5.7641953   3.0602838  18.3787844  )
        52           N1  tau(  52) = (  -0.0000615   4.8677125  20.5088556  )
        53           H1  tau(  53) = (   6.5774456   5.1224690  21.4935560  )
        54           H1  tau(  54) = (   0.8078797   5.3121143  20.0844266  )
        55           H1  tau(  55) = (   5.7710899   5.3082688  20.0816402  )

     number of k points=    10  Fermi-Dirac smearing, width (Ry)=  0.0073
                       cart. coord. in units 2pi/alat
        k(    1) = (   0.0000000   0.0000000   0.0000000), wk =   0.1250000
        k(    2) = (   0.0000000   0.0419351   0.0000000), wk =   0.2500000
        k(    3) = (   0.0000000  -0.0838702   0.0000000), wk =   0.1250000
        k(    4) = (   0.0379955   0.0000049   0.0000000), wk =   0.2500000
        k(    5) = (   0.0379955   0.0419400   0.0000000), wk =   0.2500000
        k(    6) = (   0.0379955  -0.0838652   0.0000000), wk =   0.2500000
        k(    7) = (   0.0379955  -0.0419301   0.0000000), wk =   0.2500000
        k(    8) = (  -0.0759910  -0.0000099   0.0000000), wk =   0.1250000
        k(    9) = (  -0.0759910   0.0419252   0.0000000), wk =   0.2500000
        k(   10) = (  -0.0759910  -0.0838800   0.0000000), wk =   0.1250000

     Initial potential from superposition of free atoms

     starting charge  377.99918, renormalised to  394.00000

     negative rho (up, down):  1.302E-02 0.000E+00

     %%%%%%%%%%%%%%%%%%%%%%%%%%%%%%%%%%%%%%%%%%%%%%%%%%%%%%%%%%%%%%%%%%%%%%%%
     %                                                                      %
     % You are using vdW-DF, which was implemented by the Thonhauser group. %
     % Please cite the following two papers that made this development      %
     % possible and the two reviews that describe the various versions:     %
     %                                                                      %
     %   T. Thonhauser et al., PRL 115, 136402 (2015).                      %
     %   T. Thonhauser et al., PRB 76, 125112 (2007).                       %
     %   K. Berland et al., Rep. Prog. Phys. 78, 066501 (2015).             %
     %   D.C. Langreth et al., J. Phys.: Condens. Matter 21, 084203 (2009). %
     %                                                                      %
     %                                                                      %
     % If you are calculating the stress with vdW-DF, please also cite:     %
     %                                                                      %
     %   R. Sabatini et al., J. Phys.: Condens. Matter 24, 424209 (2012).   %
     %                                                                      %
     %%%%%%%%%%%%%%%%%%%%%%%%%%%%%%%%%%%%%%%%%%%%%%%%%%%%%%%%%%%%%%%%%%%%%%%%

     Adding external electric field

     Computed dipole along edir(3) :
        Dipole               -9.7176 Ry au,        -24.6996 Debye
        Dipole field         -0.0183 Ry au,

        Potential amp.        1.6999 Ry
        Total length         46.3494 bohr

     Starting wfcs are  298 atomic wfcs
  @ DRIVER MODE: Message from server: STATUS
  @ DRIVER MODE: Message from server: POSDATA
  @ DRIVER MODE: Reading and sharing cell
  @ DRIVER MODE: Reading and sharing positions
  @ DRIVER MODE: Received positions

     Self-consistent Calculation

     iteration #  1     ecut=    29.40 Ry     beta= 0.05
     Davidson diagonalization with overlap
     c_bands:  1 eigenvalues not converged
     c_bands:  1 eigenvalues not converged
     c_bands:  1 eigenvalues not converged
     c_bands:  1 eigenvalues not converged
     ethr =  1.00E-05,  avg # of iterations = 18.0

[...]

     total energy              =   -2597.50261040 Ry
     estimated scf accuracy    <    3727.33631878 Ry

     iteration #  2     ecut=    29.40 Ry     beta= 0.05
     Davidson diagonalization with overlap
     ethr =  1.00E-02,  avg # of iterations = 22.4

[...]

     iteration # 77     ecut=    29.40 Ry     beta= 0.05
     Davidson diagonalization with overlap
     c_bands:  1 eigenvalues not converged
     c_bands:  1 eigenvalues not converged
     ethr =  5.86E-11,  avg # of iterations = 13.8

[...]

     total energy              =   -2931.48034053 Ry
     estimated scf accuracy    <       0.00000008 Ry

     iteration # 78     ecut=    29.40 Ry     beta= 0.05
     Davidson diagonalization with overlap
     ethr =  2.00E-11,  avg # of iterations =  5.6

     negative rho (up, down):  1.427E-02 0.000E+00

     Adding external electric field

     Computed dipole along edir(3) :
        Dipole                1.3602 Ry au,          3.4574 Debye
        Dipole field          0.0026 Ry au,

        Potential amp.       -0.2380 Ry
        Total length         46.3494 bohr

     End of self-consistent calculation

          k = 0.0000 0.0000 0.0000 ( 18029 PWs)   bands (ev):

   -55.2828 -55.2464 -55.2344 -55.2042 -55.2003 -55.1681 -55.1541 -55.1198
   -55.1133 -55.0838 -55.0790 -55.0615 -55.0273 -54.9516 -54.3259 -54.2918
   -31.8508 -31.7373 -31.7336 -31.6404 -31.6006 -31.5897 -31.5871 -31.5731
   -31.5271 -31.5249 -31.4894 -31.4894 -31.4797 -31.4748 -31.4555 -31.4409
   -31.4357 -31.4228 -31.4185 -31.3923 -31.3859 -31.3770 -31.3673 -31.3543
   -31.3518 -31.3390 -31.3334 -31.3202 -31.2901 -31.2853 -31.2689 -31.2644
   -31.2585 -31.2552 -31.2523 -31.2449 -31.2117 -31.2067 -31.1936 -31.1756
   -31.1546 -31.1538 -30.7378 -30.6361 -30.6145 -30.5539 -30.4675 -30.3566
   -16.1144 -15.8773 -15.7472 -15.5888 -15.4988 -15.4591 -15.3591 -15.3338
   -15.2252 -15.1496 -15.0165 -14.9826 -14.9409 -14.9338 -14.9260 -14.9067
   -14.9003 -14.8296 -14.8068 -14.8000 -14.7912 -14.7693 -14.7679 -14.7485
   -14.7191 -14.6660 -14.6457 -14.5164 -14.4352 -14.3774 -14.1273 -12.8270
   -12.7078  -5.6507  -5.5113  -4.9249  -4.8060  -3.4453  -3.2914  -3.2566
    -3.2059  -3.1947  -3.0414  -2.8806  -2.7312  -2.7120  -2.5625  -2.5336
    -2.4814  -2.4594  -2.3081  -2.2827  -2.2382  -2.2121  -2.1628  -2.1528
    -2.1450  -2.1333  -2.0544  -2.0431  -2.0276  -1.8914  -1.8720  -1.7606
    -1.7203  -1.6642  -1.6508  -1.6459  -1.6121  -1.5938  -1.5535  -1.5428
    -1.5262  -1.5008  -1.4906  -1.3264  -1.3000  -1.2013  -1.1406  -1.0496
    -1.0340  -0.8893  -0.8537  -0.7650  -0.7462  -0.7290  -0.7143  -0.6816
    -0.6334  -0.5255  -0.4359  -0.4145  -0.3538  -0.3291  -0.2909  -0.2029
    -0.0992  -0.0707  -0.0378  -0.0355   0.0810   0.1055   0.1506   0.2171
     0.2298   0.2371   0.2611   0.3513   0.3657   0.4639   0.4875   0.4948
     0.5431   0.6324   0.6365   0.6508   0.6609   0.6872   0.7578   0.7644
     0.8639   0.8871   1.0034   1.2147   1.2857   1.3123   1.5906   1.6511
     1.6997   1.8623   2.2829   2.3353   3.8155   3.8820   3.9150   3.9483
     3.9846   4.0253   4.3128   4.3206   4.3331   4.3375   4.3741

[...]

          k = 0.0380-0.0419 0.0000 ( 17876 PWs)   bands (ev):

[...]

          k =-0.0760-0.0000 0.0000 ( 17886 PWs)   bands (ev):

[...]

          k =-0.0760-0.0839 0.0000 ( 17948 PWs)   bands (ev):

   -55.2674 -55.2616 -55.2175 -55.2171 -55.2027 -55.1646 -55.1379 -55.1359
   -55.0975 -55.0945 -55.0873 -55.0467 -55.0421 -54.9529 -54.3088 -54.3087
   -31.6561 -31.6518 -31.6515 -31.5717 -31.5486 -31.5483 -31.5421 -31.5102
   -31.5102 -31.4838 -31.4838 -31.4801 -31.4765 -31.4577 -31.4375 -31.4179
   -31.4135 -31.4116 -31.4113 -31.4054 -31.4039 -31.4012 -31.3623 -31.3613
   -31.3578 -31.3551 -31.3521 -31.3509 -31.3494 -31.3357 -31.3354 -31.3312
   -31.3285 -31.2948 -31.2926 -31.2766 -31.2740 -31.2687 -31.2315 -31.2307
   -31.2264 -31.1585 -30.6271 -30.6271 -30.5505 -30.5503 -30.5108 -30.5107
   -15.6342 -15.5214 -15.5136 -15.4756 -15.3226 -15.3016 -15.2641 -15.2494
   -15.1309 -15.0949 -15.0758 -15.0596 -15.0273 -15.0233 -15.0162 -14.9795
   -14.8957 -14.8758 -14.8703 -14.8581 -14.8111 -14.7943 -14.7889 -14.7822
   -14.7812 -14.7462 -14.7427 -14.7006 -14.6977 -14.6924 -14.3762 -12.8089
   -12.8088  -5.6289  -5.5142  -4.8920  -4.8148  -2.7944  -2.7381  -2.7379
    -2.5475  -2.4764  -2.4592  -2.4423  -2.3593  -2.3198  -2.2903  -2.2668
    -2.2359  -2.1939  -2.1901  -2.1692  -2.1606  -2.1446  -2.0991  -2.0808
    -2.0551  -2.0015  -1.9770  -1.9688  -1.9565  -1.9477  -1.9431  -1.9197
    -1.9176  -1.8914  -1.8803  -1.8245  -1.6730  -1.6574  -1.5792  -1.5104
    -1.5061  -1.5044  -1.4208  -1.4007  -1.3460  -1.3369  -1.3308  -1.0877
    -1.0658  -1.0656  -1.0605  -1.0281  -0.9137  -0.9046  -0.8320  -0.8024
    -0.7839  -0.6772  -0.6664  -0.6065  -0.6026  -0.4953  -0.4936  -0.4350
    -0.3069  -0.3003  -0.2871  -0.2622  -0.2604  -0.2189  -0.2147  -0.1073
    -0.0713  -0.0205  -0.0092   0.0233   0.1773   0.2284   0.2416   0.2709
     0.4041   0.4247   0.5588   0.5665   0.6214   0.7310   0.7610   0.7998
     0.8278   0.9770   0.9878   1.0096   1.1008   1.1148   1.1524   1.1589
     2.0504   2.0519   2.1535   2.1538   3.9760   4.0577   4.0831   4.1226
     4.2277   4.3257   4.3411   4.3418   4.3766   4.3788   4.4749

     the Fermi energy is     3.8790 ev

!    total energy              =   -2931.48035335 Ry
     estimated scf accuracy    <       0.00000005 Ry
     smearing contrib. (-TS)   =      -0.03684664 Ry
     internal energy E=F+TS    =   -2931.44350670 Ry

     The total energy is F=E-TS. E is the sum of the following terms:
     one-electron contribution =  -23481.05711740 Ry
     hartree contribution      =   11831.21508894 Ry
     xc contribution           =    -484.16664975 Ry
     ewald contribution        =    9202.56167990 Ry
     electric field correction =       0.00349161 Ry

     convergence has been achieved in  78 iterations

     Forces acting on atoms (cartesian axes, Ry/au):

     atom    1 type  1   force =     0.00008580   -0.00009018    0.09071151
     atom    2 type  1   force =    -0.00005252    0.00053765   -0.18276724
     atom    3 type  2   force =     0.00005345   -0.00003434   -0.02346970
     atom    4 type  2   force =     0.00001839   -0.00005854    0.05278456
     atom    5 type  2   force =    -0.01301799   -0.00097484    0.00606700
     atom    6 type  2   force =     0.01296494   -0.00048179    0.00605638
     atom    7 type  1   force =    -0.00000082    0.00067420   -0.00328331
     atom    8 type  1   force =     0.00001968   -0.00015224    0.00141057
     atom    9 type  2   force =    -0.00003154   -0.00016539   -0.00048947
     atom   10 type  2   force =     0.00001799   -0.00005931   -0.00021348
     atom   11 type  2   force =     0.00017298    0.00017271    0.00016973
     atom   12 type  2   force =    -0.00009096    0.00016872    0.00014641
     atom   13 type  1   force =    -0.00019899   -0.00019501    0.00002379
     atom   14 type  1   force =     0.00014974    0.00045802   -0.00096685
     atom   15 type  2   force =     0.00002326   -0.00058091    0.00007622
     atom   16 type  2   force =    -0.00002751    0.00000970    0.00043883
     atom   17 type  2   force =     0.00042439    0.00001994    0.00049319
     atom   18 type  2   force =    -0.00045722    0.00001421    0.00049250
     atom   19 type  1   force =     0.00006422    0.00003275    0.00034506
     atom   20 type  1   force =    -0.00003254   -0.00087232    0.00030456
     atom   21 type  2   force =     0.00005683    0.00012690    0.10489709
     atom   22 type  2   force =     0.00000766    0.00015166    0.00103596
     atom   23 type  2   force =    -0.06824917   -0.00021604   -0.02628514
     atom   24 type  2   force =     0.06815978    0.00022004   -0.02633063
     atom   25 type  1   force =     0.00009514    0.00003787    0.09033693
     atom   26 type  1   force =    -0.00005769   -0.00044527   -0.18294758
     atom   27 type  2   force =     0.00005085   -0.00092471   -0.02257701
     atom   28 type  2   force =     0.00001869   -0.00006796    0.05255814
     atom   29 type  2   force =    -0.01330917   -0.00072910    0.00529367
     atom   30 type  2   force =     0.01324592   -0.00023656    0.00527932
     atom   31 type  1   force =     0.00000828   -0.00072038   -0.00308865
     atom   32 type  1   force =     0.00001372   -0.00006849    0.00153019
     atom   33 type  2   force =    -0.00003006   -0.00015258    0.00018421
     atom   34 type  2   force =     0.00002064    0.00007931   -0.00047200
     atom   35 type  2   force =     0.00013933   -0.00013778    0.00023839
     atom   36 type  2   force =    -0.00006161   -0.00015136    0.00021462
     atom   37 type  1   force =    -0.00019397    0.00005230    0.00092882
     atom   38 type  1   force =     0.00014361   -0.00028659   -0.00096682
     atom   39 type  2   force =     0.00001299    0.00027055   -0.00015468
     atom   40 type  2   force =    -0.00003111   -0.00001383    0.00107995
     atom   41 type  2   force =     0.00056640   -0.00017644    0.00025042
     atom   42 type  2   force =    -0.00061121   -0.00017431    0.00026156
     atom   43 type  1   force =     0.00007100    0.00008402    0.00067991
     atom   44 type  1   force =    -0.00003816    0.00104933   -0.00108851
     atom   45 type  2   force =     0.00005647    0.00014028    0.10486399
     atom   46 type  2   force =    -0.06824699   -0.00009712   -0.02630372
     atom   47 type  2   force =     0.06815202    0.00033941   -0.02634747
     atom   48 type  3   force =    -0.00049754    0.00002649   -0.00023368
     atom   49 type  4   force =     0.00002090   -0.00007093    0.00078750
     atom   50 type  4   force =     0.00096548    0.00098821    0.00004110
     atom   51 type  4   force =    -0.00051217    0.00071098   -0.00015737
     atom   52 type  3   force =    -0.00001500    0.00215638    0.00505970
     atom   53 type  4   force =    -0.00001428   -0.00026091   -0.00466059
     atom   54 type  4   force =     0.00013096    0.00002871   -0.00112488
     atom   55 type  4   force =    -0.00015329    0.00004488   -0.00111304

     Total force =     0.366289     Total SCF correction =     0.000647
  @ DRIVER MODE: Message from server: STATUS
  @ DRIVER MODE: Message from server: GETFORCE
  @ DRIVER MODE: Returning v,forces,stress,ensemble

     Writing output data file ./calc.save/
  @ DRIVER MODE: Message from server: EXIT
  @ DRIVE MODE: Exiting

     General routines

     Parallel routines

   This run was terminated on:  23:39: 6  12Oct2021

   JOB DONE.