     Program PWSCF v.6.7GPU starts on  8Sep2021 at 22:32:50

     R & G space division:  proc/nbgrp/npool/nimage =      10
     Reading input from /storage/home/hcoda1/3/ntian30/research/carbon/CxH_vib/CH2_calc/ads_slab/CH2O_a/out_0002/pw.inp
Warning: card &CELL ignored
Warning: card   CELL_DYNAMICS='IPI', ignored
Warning: card / ignored

     Current dimensions of program PWSCF are:
     Max number of different atomic species (ntypx) = 10
     Max number of k-points (npk) =  40000
     Max angular momentum in pseudopotentials (lmaxx) =  3
     Presently no symmetry can be used with electric field

     Message from routine cell_base_init:
     DEPRECATED: use true lattice parameter, not A to a.u. conversion factor

     IMPORTANT: XC functional enforced from input :
     Exchange-correlation= BEEF-VDW
                           (   1   4  43  14   2   0   0)
     Any further DFT definition will be discarded
     Please, verify this is what you really want

  @ DRIVER MODE: Connecting to
 qe_1139763_2767394.sched-torque.pace.gatech.edu4n9befo9_scratch
  using UNIX socket
  @ DRIVER MODE: Message from server: STATUS
  @ DRIVER MODE: Message from server: INIT
  @ DRIVER MODE: Receiving replica           0          -1
  @ DRIVER MODE: Receiving encoded integer          25
  @ DRIVER MODE:  SCF:  T  FORCE:  T  STRESS:  F  VC:  F  ENSEMBLE:  F
  @ DRIVER MODE:  SCF:  T  FORCE:  T  STRESS:  F  VC:  F  ENSEMBLE:  F

     Using Slab Decomposition

     bravais-lattice index     =            0
     lattice parameter (alat)  =       1.8897  a.u.
     unit-cell volume          =    6658.9804 (a.u.)^3
     number of atoms/cell      =           51
     number of atomic types    =            4
     number of electrons       =       390.00
     number of Kohn-Sham states=          205
     kinetic-energy cutoff     =      29.3995  Ry
     charge density cutoff     =     293.9946  Ry
     scf convergence threshold =      7.3E-08
     mixing beta               =       0.0500
     number of iterations used =            8  plain     mixing
     Exchange-correlation= BEEF-VDW
                           (   1   4  43  14   2   0   0)

     celldm(1)=   1.889726  celldm(2)=   0.000000  celldm(3)=   0.000000
     celldm(4)=   0.000000  celldm(5)=   0.000000  celldm(6)=   0.000000

     crystal axes: (cart. coord. in units of alat)
               a(1) = (   6.579727   0.000000   0.000000 )
               a(2) = (  -0.000775   5.961596   0.000000 )
               a(3) = (   0.000000   0.000000  25.155947 )

     reciprocal axes: (cart. coord. in units 2 pi/alat)
               b(1) = (  0.151982  0.000020  0.000000 )
               b(2) = (  0.000000  0.167740  0.000000 )
               b(3) = (  0.000000  0.000000  0.039752 )

     PseudoPot. # 1 for O  read from file:
     /storage/coda1/p-amedford6/0/shared/rich_project_chbe-medford/medford-share/data/pseudos_module/espresso/nninc/pbe/van/O.UPF
     MD5 check sum: 78c19812648e8988a0fe644b0f25305e
     Pseudo is Ultrasoft, Zval =  6.0
     Generated by new atomic code, or converted to UPF format
     Using radial grid of  737 points,  4 beta functions with:
                l(1) =   0
                l(2) =   0
                l(3) =   1
                l(4) =   1
     Q(r) pseudized with  8 coefficients,  rinner =    0.800   0.800   0.800

     PseudoPot. # 2 for Ti read from file:
     /storage/coda1/p-amedford6/0/shared/rich_project_chbe-medford/medford-share/data/pseudos_module/espresso/nninc/pbe/van/Ti.UPF
     MD5 check sum: 8e4df49b7f0d34bbd5052bf3f5ea0213
     Pseudo is Ultrasoft, Zval = 12.0
     Generated by new atomic code, or converted to UPF format
     Using radial grid of  851 points,  6 beta functions with:
                l(1) =   0
                l(2) =   0
                l(3) =   1
                l(4) =   1
                l(5) =   2
                l(6) =   2
     Q(r) pseudized with  8 coefficients,  rinner =    1.000   1.000   1.000
                                                       1.000   1.000

     PseudoPot. # 3 for C  read from file:
     /storage/coda1/p-amedford6/0/shared/rich_project_chbe-medford/medford-share/data/pseudos_module/espresso/nninc/pbe/van/C.UPF
     MD5 check sum: 1a69bf6b8db32088f5b2163dbdb77a27
     Pseudo is Ultrasoft, Zval =  4.0
     Generated by new atomic code, or converted to UPF format
     Using radial grid of  721 points,  4 beta functions with:
                l(1) =   0
                l(2) =   0
                l(3) =   1
                l(4) =   1
     Q(r) pseudized with  8 coefficients,  rinner =    0.800   0.800   0.800

     PseudoPot. # 4 for H  read from file:
     /storage/coda1/p-amedford6/0/shared/rich_project_chbe-medford/medford-share/data/pseudos_module/espresso/nninc/pbe/van/H.UPF
     MD5 check sum: b5ee9d7bfd3a09ee7748110bda690ff7
     Pseudo is Ultrasoft, Zval =  1.0
     Generated by new atomic code, or converted to UPF format
     Using radial grid of  615 points,  1 beta functions with:
                l(1) =   0
     Q(r) pseudized with  8 coefficients,  rinner =    0.800

     atomic species   valence    mass     pseudopotential
        O1             6.00    15.99900     O ( 1.00)
        Ti1           12.00    47.86700     Ti( 1.00)
        C1             4.00    12.01100     C ( 1.00)
        H1             1.00     1.00800     H ( 1.00)

     No symmetry found

   Cartesian axes

     site n.     atom                  positions (alat units)
         1           O1  tau(   1) = (   3.2904802   0.0005063   4.7018136  )
         2           O1  tau(   2) = (   3.2900926   2.9813045   4.7018136  )
         3           Ti1 tau(   3) = (   0.0004258   2.9801865   6.0000000  )
         4           Ti1 tau(   4) = (   0.0000382   5.9609847   6.0000000  )
         5           Ti1 tau(   5) = (   3.2906075   1.4906267   6.0002472  )
         6           Ti1 tau(   6) = (   3.2902200   4.4714249   6.0002472  )
         7           O1  tau(   7) = (   1.3043587   1.4918075   6.0039043  )
         8           O1  tau(   8) = (   1.3039711   4.4726057   6.0039043  )
         9           O1  tau(   9) = (   5.2767064   1.4903225   6.0039473  )
        10           O1  tau(  10) = (   5.2763189   4.4711207   6.0039473  )
        11           O1  tau(  11) = (   3.2906025   0.0005020   7.3038282  )
        12           O1  tau(  12) = (   3.2902150   2.9813002   7.3038282  )
        13           O1  tau(  13) = (   0.0006271   0.0005054   7.9858123  )
        14           O1  tau(  14) = (   0.0002396   2.9813036   7.9858123  )
        15           Ti1 tau(  15) = (   3.3042095   0.0533388   9.1528587  )
        16           Ti1 tau(  16) = (   3.3174724   3.0316863   9.1560957  )
        17           Ti1 tau(  17) = (   0.0293802   4.5322946   9.2552644  )
        18           Ti1 tau(  18) = (   0.0259946   1.6073196   9.3627105  )
        19           O1  tau(  19) = (   4.5942328   1.4918067   9.2879030  )
        20           O1  tau(  20) = (   4.5938453   4.4726049   9.2879030  )
        21           O1  tau(  21) = (   1.9868534   1.4903216   9.2879459  )
        22           O1  tau(  22) = (   1.9864658   4.4711199   9.2879459  )
        23           O1  tau(  23) = (   0.0064038   0.0081980  10.6024552  )
        24           O1  tau(  24) = (   0.0073862   2.9894728  10.5866593  )
        25           O1  tau(  25) = (   3.3023414   2.9953748  11.3432802  )
        26           O1  tau(  26) = (   3.3032852   0.0099373  11.3464837  )
        27           Ti1 tau(  27) = (   0.0309755   0.0166663  12.4994564  )
        28           Ti1 tau(  28) = (   3.3310982   4.4887825  12.4897803  )
        29           Ti1 tau(  29) = (   3.3310371   1.5113328  12.4846922  )
        30           Ti1 tau(  30) = (   0.0327574   2.9992265  12.7695683  )
        31           O1  tau(  31) = (   1.3002707   4.4821552  12.6388042  )
        32           O1  tau(  32) = (   1.3007223   1.5002113  12.6333963  )
        33           O1  tau(  33) = (   5.2991570   4.4805309  12.6421864  )
        34           O1  tau(  34) = (   5.3000174   1.5011411  12.6364809  )
        35           O1  tau(  35) = (   3.3018339   2.9879062  13.9210104  )
        36           O1  tau(  36) = (   3.3040464   0.0111531  13.9455706  )
        37           O1  tau(  37) = (   0.0204374   0.0165334  14.6791819  )
        38           O1  tau(  38) = (   0.0263865   2.9938028  14.7196832  )
        39           Ti1 tau(  39) = (   3.3100843   2.9899001  15.7147585  )
        40           Ti1 tau(  40) = (   3.3190225   0.0114617  15.7368552  )
        41           Ti1 tau(  41) = (   0.0307220   4.5758675  15.9389875  )
        42           Ti1 tau(  42) = (   0.0306600   1.3860070  15.9976826  )
        43           O1  tau(  43) = (   4.5579467   4.4706051  16.0879179  )
        44           O1  tau(  44) = (   4.5582295   1.5117582  16.0998906  )
        45           O1  tau(  45) = (   2.0559277   1.5139458  16.1062704  )
        46           O1  tau(  46) = (   2.0563840   4.4680477  16.0963298  )
        47           O1  tau(  47) = (   0.0152972   0.0023678  17.1988758  )
        48           O1  tau(  48) = (   6.5745367   3.0020129  17.4248639  )
        49           C1  tau(  49) = (   6.3846989   3.0744571  18.6868163  )
        50           H1  tau(  50) = (   6.3100824   4.0552778  19.1474226  )
        51           H1  tau(  51) = (   6.3122094   2.1591535  19.2648898  )

     number of k points=    10  Fermi-Dirac smearing, width (Ry)=  0.0073
                       cart. coord. in units 2pi/alat
        k(    1) = (   0.0000000   0.0000000   0.0000000), wk =   0.1250000
        k(    2) = (   0.0000000   0.0419351   0.0000000), wk =   0.2500000
        k(    3) = (   0.0000000  -0.0838702   0.0000000), wk =   0.1250000
        k(    4) = (   0.0379955   0.0000049   0.0000000), wk =   0.2500000
        k(    5) = (   0.0379955   0.0419400   0.0000000), wk =   0.2500000
        k(    6) = (   0.0379955  -0.0838652   0.0000000), wk =   0.2500000
        k(    7) = (   0.0379955  -0.0419301   0.0000000), wk =   0.2500000
        k(    8) = (  -0.0759910  -0.0000099   0.0000000), wk =   0.1250000
        k(    9) = (  -0.0759910   0.0419252   0.0000000), wk =   0.2500000
        k(   10) = (  -0.0759910  -0.0838800   0.0000000), wk =   0.1250000

     Initial potential from superposition of free atoms

     starting charge  373.99919, renormalised to  390.00000

     negative rho (up, down):  1.842E-02 0.000E+00

     %%%%%%%%%%%%%%%%%%%%%%%%%%%%%%%%%%%%%%%%%%%%%%%%%%%%%%%%%%%%%%%%%%%%%%%%
     %                                                                      %
     % You are using vdW-DF, which was implemented by the Thonhauser group. %
     % Please cite the following two papers that made this development      %
     % possible and the two reviews that describe the various versions:     %
     %                                                                      %
     %   T. Thonhauser et al., PRL 115, 136402 (2015).                      %
     %   T. Thonhauser et al., PRB 76, 125112 (2007).                       %
     %   K. Berland et al., Rep. Prog. Phys. 78, 066501 (2015).             %
     %   D.C. Langreth et al., J. Phys.: Condens. Matter 21, 084203 (2009). %
     %                                                                      %
     %                                                                      %
     % If you are calculating the stress with vdW-DF, please also cite:     %
     %                                                                      %
     %   R. Sabatini et al., J. Phys.: Condens. Matter 24, 424209 (2012).   %
     %                                                                      %
     %%%%%%%%%%%%%%%%%%%%%%%%%%%%%%%%%%%%%%%%%%%%%%%%%%%%%%%%%%%%%%%%%%%%%%%%

     Adding external electric field

     Computed dipole along edir(3) :
        Dipole               -5.1853 Ry au,        -13.1796 Debye
        Dipole field         -0.0098 Ry au,

        Potential amp.        0.9071 Ry
        Total length         46.3494 bohr

     Starting wfcs are  294 atomic wfcs
  @ DRIVER MODE: Message from server: STATUS
  @ DRIVER MODE: Message from server: POSDATA
  @ DRIVER MODE: Reading and sharing cell
  @ DRIVER MODE: Reading and sharing positions
  @ DRIVER MODE: Received positions

     Self-consistent Calculation

     iteration #  1     ecut=    29.40 Ry     beta= 0.05
     Davidson diagonalization with overlap
     c_bands:  3 eigenvalues not converged
     c_bands:  3 eigenvalues not converged
     c_bands:  2 eigenvalues not converged
     c_bands:  1 eigenvalues not converged
     c_bands:  2 eigenvalues not converged
     c_bands:  2 eigenvalues not converged
     c_bands:  3 eigenvalues not converged
     c_bands:  2 eigenvalues not converged
     ethr =  1.00E-05,  avg # of iterations = 21.8

[...]

     total energy              =   -2822.11364440 Ry
     estimated scf accuracy    <    1191.56462165 Ry

     iteration #  2     ecut=    29.40 Ry     beta= 0.05
     Davidson diagonalization with overlap
     ethr =  1.00E-02,  avg # of iterations = 16.4

[...]

     iteration # 69     ecut=    29.40 Ry     beta= 0.05
     Davidson diagonalization with overlap
     c_bands:  1 eigenvalues not converged
     ethr =  2.11E-11,  avg # of iterations = 10.7

[...]

     total energy              =   -2930.16722917 Ry
     estimated scf accuracy    <       0.00000008 Ry

     iteration # 70     ecut=    29.40 Ry     beta= 0.05
     Davidson diagonalization with overlap
     ethr =  2.01E-11,  avg # of iterations =  8.4

     negative rho (up, down):  1.726E-02 0.000E+00

     Adding external electric field

     Computed dipole along edir(3) :
        Dipole                0.9290 Ry au,          2.3613 Debye
        Dipole field          0.0018 Ry au,

        Potential amp.       -0.1625 Ry
        Total length         46.3494 bohr

     End of self-consistent calculation

          k = 0.0000 0.0000 0.0000 ( 18029 PWs)   bands (ev):

   -55.8227 -55.8113 -55.7866 -55.7750 -55.7129 -55.6999 -55.6741 -55.6076
   -55.6034 -55.5920 -55.5795 -55.5586 -55.5174 -55.5038 -54.8509 -54.8168
   -32.3802 -32.2957 -32.1906 -32.1643 -32.1287 -32.1265 -32.1178 -32.1006
   -32.0716 -32.0559 -32.0519 -32.0261 -31.9969 -31.9924 -31.9814 -31.9593
   -31.9440 -31.9409 -31.9343 -31.9175 -31.8910 -31.8886 -31.8860 -31.8758
   -31.8615 -31.8469 -31.8458 -31.8222 -31.8183 -31.8167 -31.7944 -31.7656
   -31.7518 -31.7371 -31.7365 -31.7345 -31.7209 -31.7012 -31.6988 -31.6907
   -31.6839 -31.6730 -31.2610 -31.1630 -31.1408 -31.0778 -30.9918 -30.8804
   -19.8310 -16.5936 -16.2995 -16.1502 -16.0217 -15.9709 -15.8527 -15.6973
   -15.6206 -15.5423 -15.4925 -15.4443 -15.4058 -15.4049 -15.3757 -15.3598
   -15.3569 -15.3522 -15.2774 -15.2727 -15.2387 -15.2217 -15.2108 -15.1226
   -15.0576 -14.9995 -14.9538 -14.8981 -14.8430 -14.8133 -13.3514 -13.2329
    -9.3005  -5.5418  -5.5143  -3.9434  -3.7679  -3.7269  -3.7068  -3.6567
    -3.5288  -3.4329  -3.3976  -3.1143  -3.0237  -2.9905  -2.9810  -2.9678
    -2.8261  -2.7817  -2.6684  -2.6625  -2.6543  -2.6477  -2.6283  -2.5936
    -2.5822  -2.5396  -2.5129  -2.4023  -2.3696  -2.2573  -2.2405  -2.2186
    -2.1604  -2.1338  -2.1046  -2.0910  -2.0621  -2.0588  -2.0545  -2.0087
    -1.9110  -1.8180  -1.7560  -1.6697  -1.6329  -1.5437  -1.3800  -1.3140
    -1.2743  -1.2365  -1.1862  -1.1698  -1.1372  -1.1119  -1.0966  -1.0780
    -0.9843  -0.8684  -0.8649  -0.7641  -0.7022  -0.6745  -0.6620  -0.5803
    -0.5617  -0.5522  -0.4519  -0.3145  -0.3075  -0.3022  -0.1838  -0.1529
    -0.1291  -0.0820  -0.0615  -0.0231   0.0076   0.0660   0.1055   0.1181
     0.1622   0.1819   0.2030   0.3103   0.3658   0.3754   0.4253   0.4634
     0.6524   0.6700   0.8039   0.8724   1.0760   1.1740   1.2309   1.3419
     1.7618   1.8201   3.3411   3.3742   3.3979   3.4520   3.4897   3.5363
     3.5860   3.7880   3.8010   3.8099   3.8325

[...]

          k = 0.0380-0.0419 0.0000 ( 17876 PWs)   bands (ev):

[...]

          k =-0.0760-0.0000 0.0000 ( 17886 PWs)   bands (ev):

[...]

          k =-0.0760-0.0839 0.0000 ( 17948 PWs)   bands (ev):

   -55.8107 -55.7984 -55.7935 -55.7925 -55.7039 -55.6965 -55.6830 -55.6107
   -55.5996 -55.5770 -55.5743 -55.5742 -55.5226 -55.5068 -54.8343 -54.8332
   -32.1822 -32.1812 -32.1188 -32.1055 -32.1035 -32.0985 -32.0841 -32.0691
   -32.0642 -32.0365 -32.0255 -32.0125 -31.9970 -31.9604 -31.9478 -31.9404
   -31.9379 -31.9351 -31.9273 -31.9243 -31.9071 -31.9026 -31.9002 -31.8998
   -31.8970 -31.8940 -31.8783 -31.8558 -31.8367 -31.8319 -31.8306 -31.8099
   -31.8034 -31.7863 -31.7816 -31.7739 -31.7714 -31.7668 -31.7455 -31.7302
   -31.7016 -31.7009 -31.1541 -31.1527 -31.0744 -31.0735 -31.0353 -31.0343
   -19.8230 -16.0220 -15.9952 -15.8832 -15.7631 -15.7531 -15.7091 -15.6695
   -15.6119 -15.5605 -15.5570 -15.5075 -15.4885 -15.4866 -15.4392 -15.4077
   -15.3621 -15.3543 -15.3451 -15.3411 -15.2893 -15.2844 -15.2418 -15.2184
   -15.2092 -15.1737 -15.1686 -15.1001 -15.0390 -15.0204 -13.3351 -13.3331
    -9.3016  -5.5210  -5.4949  -3.5551  -3.3109  -3.2803  -3.1177  -2.9839
    -2.9738  -2.9161  -2.8315  -2.7960  -2.7510  -2.6997  -2.6951  -2.6752
    -2.6625  -2.6508  -2.6416  -2.6347  -2.5873  -2.5711  -2.5287  -2.4806
    -2.4767  -2.4647  -2.4572  -2.4180  -2.4020  -2.3904  -2.3835  -2.3759
    -2.3024  -2.2297  -2.1560  -2.0766  -2.0249  -2.0032  -1.9825  -1.9447
    -1.9120  -1.8924  -1.8756  -1.7497  -1.7284  -1.5779  -1.5628  -1.5423
    -1.5287  -1.4791  -1.4658  -1.3417  -1.2778  -1.2709  -1.1964  -1.1734
    -1.1521  -1.0969  -1.0778  -0.9980  -0.9556  -0.9145  -0.8589  -0.7980
    -0.7878  -0.7211  -0.7124  -0.6241  -0.6073  -0.5882  -0.5845  -0.5159
    -0.4827  -0.3967  -0.3892  -0.3665  -0.2550  -0.1948  -0.1849   0.0002
     0.1735   0.1786   0.2012   0.2998   0.3302   0.3727   0.4382   0.4441
     0.5322   0.5817   0.6725   0.6928   0.7027   0.7836   1.5327   1.5338
     1.6252   1.6353   3.2959   3.5624   3.6000   3.6013   3.6627   3.8154
     3.8184   3.8351   3.8452   3.9758   3.9966

     the Fermi energy is     3.3269 ev

!    total energy              =   -2930.16724264 Ry
     estimated scf accuracy    <       0.00000004 Ry
     smearing contrib. (-TS)   =      -0.03342160 Ry
     internal energy E=F+TS    =   -2930.13382104 Ry

     The total energy is F=E-TS. E is the sum of the following terms:
     one-electron contribution =  -24703.35426282 Ry
     hartree contribution      =   12437.11558402 Ry
     xc contribution           =    -481.27196725 Ry
     ewald contribution        =    9817.37519633 Ry
     electric field correction =       0.00162868 Ry

     convergence has been achieved in  70 iterations

     Forces acting on atoms (cartesian axes, Ry/au):

     atom    1 type  1   force =    -0.00010069    0.00004094    0.10432737
     atom    2 type  1   force =    -0.00008911    0.00005135    0.10436791
     atom    3 type  2   force =    -0.00026379   -0.00201569    0.10307789
     atom    4 type  2   force =    -0.00013934    0.00162441    0.11355671
     atom    5 type  2   force =    -0.00036288    0.00048483   -0.18057796
     atom    6 type  2   force =    -0.00019213   -0.00001491   -0.18096193
     atom    7 type  1   force =    -0.06891798    0.00060194   -0.02907428
     atom    8 type  1   force =    -0.06843762   -0.00116397   -0.02910828
     atom    9 type  1   force =     0.06855214    0.00109631   -0.02914671
     atom   10 type  1   force =     0.06816667   -0.00076261   -0.02918864
     atom   11 type  1   force =     0.00041198    0.00044079    0.04542923
     atom   12 type  1   force =     0.00057505    0.00075912    0.04654959
     atom   13 type  1   force =     0.00030332   -0.00542656   -0.03232495
     atom   14 type  1   force =     0.00033796    0.00325242   -0.02500955
     atom   15 type  2   force =     0.00002235    0.00033117    0.00054673
     atom   16 type  2   force =     0.00007355   -0.00033267    0.00081923
     atom   17 type  2   force =    -0.00020606   -0.00110956    0.00028203
     atom   18 type  2   force =    -0.00023755    0.00074272   -0.00050138
     atom   19 type  1   force =    -0.01759976    0.00012656    0.00383354
     atom   20 type  1   force =    -0.01643526    0.00134000    0.00291207
     atom   21 type  1   force =     0.01896294   -0.00112827    0.00431531
     atom   22 type  1   force =     0.01762280    0.00110141    0.00322445
     atom   23 type  1   force =     0.00009216    0.00020175   -0.00067534
     atom   24 type  1   force =    -0.00008481   -0.00016232   -0.00046020
     atom   25 type  1   force =     0.00003685   -0.00061546    0.00021732
     atom   26 type  1   force =    -0.00019007    0.00042025    0.00006745
     atom   27 type  2   force =     0.00001939    0.00074054    0.00032745
     atom   28 type  2   force =     0.00000098   -0.00020217   -0.00020551
     atom   29 type  2   force =     0.00007436   -0.00018390    0.00015912
     atom   30 type  2   force =    -0.00022474   -0.00025286    0.00041482
     atom   31 type  1   force =    -0.00014601   -0.00019246    0.00006413
     atom   32 type  1   force =     0.00028297    0.00035013    0.00020148
     atom   33 type  1   force =     0.00014168   -0.00013054    0.00006946
     atom   34 type  1   force =    -0.00056195    0.00022616    0.00019608
     atom   35 type  1   force =    -0.00004439   -0.00011587   -0.00018000
     atom   36 type  1   force =     0.00001220    0.00025273   -0.00037555
     atom   37 type  1   force =    -0.00020362   -0.00034145   -0.00044503
     atom   38 type  1   force =    -0.00012535    0.00058458   -0.00047648
     atom   39 type  2   force =    -0.00052841    0.00067462    0.00001542
     atom   40 type  2   force =    -0.00054293   -0.00040619    0.00007867
     atom   41 type  2   force =     0.00034710   -0.00005854    0.00024506
     atom   42 type  2   force =     0.00038340    0.00011171    0.00017684
     atom   43 type  1   force =     0.00087152   -0.00009521    0.00060299
     atom   44 type  1   force =     0.00015517    0.00045604    0.00037528
     atom   45 type  1   force =     0.00033347    0.00007753    0.00012088
     atom   46 type  1   force =    -0.00060041    0.00025925    0.00021917
     atom   47 type  1   force =    -0.00048821   -0.00009602    0.00081114
     atom   48 type  1   force =    -0.00263310    0.00038625    0.00316387
     atom   49 type  3   force =     0.00210118    0.00071703   -0.00228321
     atom   50 type  4   force =    -0.00023671   -0.00093195    0.00036599
     atom   51 type  4   force =    -0.00028832   -0.00171335   -0.00013969

     Total force =     0.374339     Total SCF correction =     0.000620
  @ DRIVER MODE: Message from server: STATUS
  @ DRIVER MODE: Message from server: GETFORCE
  @ DRIVER MODE: Returning v,forces,stress,ensemble

     Writing output data file ./calc.save/
  @ DRIVER MODE: Message from server: EXIT
  @ DRIVE MODE: Exiting

     General routines

     Parallel routines

   This run was terminated on:  22:50: 2   8Sep2021

   JOB DONE.