     Program PWSCF v.6.7GPU starts on 14Sep2021 at 16:43:16

     R & G space division:  proc/nbgrp/npool/nimage =      10
     Reading input from /storage/home/hcoda1/3/ntian30/research/carbon/CxH_vib/CH2_calc/ads_slab/CH2OHN2_a/out_0009/pw.inp
Warning: card &CELL ignored
Warning: card   CELL_DYNAMICS='IPI', ignored
Warning: card / ignored

     Current dimensions of program PWSCF are:
     Max number of different atomic species (ntypx) = 10
     Max number of k-points (npk) =  40000
     Max angular momentum in pseudopotentials (lmaxx) =  3
     Presently no symmetry can be used with electric field

     Message from routine cell_base_init:
     DEPRECATED: use true lattice parameter, not A to a.u. conversion factor

     IMPORTANT: XC functional enforced from input :
     Exchange-correlation= BEEF-VDW
                           (   1   4  43  14   2   0   0)
     Any further DFT definition will be discarded
     Please, verify this is what you really want

  @ DRIVER MODE: Connecting to
 qe_1139763_2840440.sched-torque.pace.gatech.eduhzjzwoxy_scratch
  using UNIX socket
  @ DRIVER MODE: Message from server: STATUS
  @ DRIVER MODE: Message from server: INIT
  @ DRIVER MODE: Receiving replica           0          -1
  @ DRIVER MODE: Receiving encoded integer          25
  @ DRIVER MODE:  SCF:  T  FORCE:  T  STRESS:  F  VC:  F  ENSEMBLE:  F
  @ DRIVER MODE:  SCF:  T  FORCE:  T  STRESS:  F  VC:  F  ENSEMBLE:  F

     Using Slab Decomposition

     bravais-lattice index     =            0
     lattice parameter (alat)  =       1.8897  a.u.
     unit-cell volume          =    6658.9804 (a.u.)^3
     number of atoms/cell      =           54
     number of atomic types    =            5
     number of electrons       =       401.00
     number of Kohn-Sham states=          210
     kinetic-energy cutoff     =      29.3995  Ry
     charge density cutoff     =     293.9946  Ry
     scf convergence threshold =      7.3E-08
     mixing beta               =       0.0500
     number of iterations used =            8  plain     mixing
     Exchange-correlation= BEEF-VDW
                           (   1   4  43  14   2   0   0)

     celldm(1)=   1.889726  celldm(2)=   0.000000  celldm(3)=   0.000000
     celldm(4)=   0.000000  celldm(5)=   0.000000  celldm(6)=   0.000000

     crystal axes: (cart. coord. in units of alat)
               a(1) = (   6.579727   0.000000   0.000000 )
               a(2) = (  -0.000775   5.961596   0.000000 )
               a(3) = (   0.000000   0.000000  25.155947 )

     reciprocal axes: (cart. coord. in units 2 pi/alat)
               b(1) = (  0.151982  0.000020  0.000000 )
               b(2) = (  0.000000  0.167740  0.000000 )
               b(3) = (  0.000000  0.000000  0.039752 )

     PseudoPot. # 1 for C  read from file:
     /storage/coda1/p-amedford6/0/shared/rich_project_chbe-medford/medford-share/data/pseudos_module/espresso/nninc/pbe/van/C.UPF
     MD5 check sum: 1a69bf6b8db32088f5b2163dbdb77a27
     Pseudo is Ultrasoft, Zval =  4.0
     Generated by new atomic code, or converted to UPF format
     Using radial grid of  721 points,  4 beta functions with:
                l(1) =   0
                l(2) =   0
                l(3) =   1
                l(4) =   1
     Q(r) pseudized with  8 coefficients,  rinner =    0.800   0.800   0.800

     PseudoPot. # 2 for H  read from file:
     /storage/coda1/p-amedford6/0/shared/rich_project_chbe-medford/medford-share/data/pseudos_module/espresso/nninc/pbe/van/H.UPF
     MD5 check sum: b5ee9d7bfd3a09ee7748110bda690ff7
     Pseudo is Ultrasoft, Zval =  1.0
     Generated by new atomic code, or converted to UPF format
     Using radial grid of  615 points,  1 beta functions with:
                l(1) =   0
     Q(r) pseudized with  8 coefficients,  rinner =    0.800

     PseudoPot. # 3 for O  read from file:
     /storage/coda1/p-amedford6/0/shared/rich_project_chbe-medford/medford-share/data/pseudos_module/espresso/nninc/pbe/van/O.UPF
     MD5 check sum: 78c19812648e8988a0fe644b0f25305e
     Pseudo is Ultrasoft, Zval =  6.0
     Generated by new atomic code, or converted to UPF format
     Using radial grid of  737 points,  4 beta functions with:
                l(1) =   0
                l(2) =   0
                l(3) =   1
                l(4) =   1
     Q(r) pseudized with  8 coefficients,  rinner =    0.800   0.800   0.800

     PseudoPot. # 4 for Ti read from file:
     /storage/coda1/p-amedford6/0/shared/rich_project_chbe-medford/medford-share/data/pseudos_module/espresso/nninc/pbe/van/Ti.UPF
     MD5 check sum: 8e4df49b7f0d34bbd5052bf3f5ea0213
     Pseudo is Ultrasoft, Zval = 12.0
     Generated by new atomic code, or converted to UPF format
     Using radial grid of  851 points,  6 beta functions with:
                l(1) =   0
                l(2) =   0
                l(3) =   1
                l(4) =   1
                l(5) =   2
                l(6) =   2
     Q(r) pseudized with  8 coefficients,  rinner =    1.000   1.000   1.000
                                                       1.000   1.000

     PseudoPot. # 5 for N  read from file:
     /storage/coda1/p-amedford6/0/shared/rich_project_chbe-medford/medford-share/data/pseudos_module/espresso/nninc/pbe/van/N.UPF
     MD5 check sum: 90d10febe142ad51ac9d5be1deb811c4
     Pseudo is Ultrasoft, Zval =  5.0
     Generated by new atomic code, or converted to UPF format
     Using radial grid of  729 points,  4 beta functions with:
                l(1) =   0
                l(2) =   0
                l(3) =   1
                l(4) =   1
     Q(r) pseudized with  8 coefficients,  rinner =    0.800   0.800   0.800

     atomic species   valence    mass     pseudopotential
        C1             4.00    12.01100     C ( 1.00)
        H1             1.00     1.00800     H ( 1.00)
        O1             6.00    15.99900     O ( 1.00)
        Ti1           12.00    47.86700     Ti( 1.00)
        N1             5.00    14.00700     N ( 1.00)

     No symmetry found

   Cartesian axes

     site n.     atom                  positions (alat units)
         1           C1  tau(   1) = (   5.1764158   1.5385028  19.8564928  )
         2           H1  tau(   2) = (   4.2418317   1.4168958  19.3325039  )
         3           H1  tau(   3) = (   6.1328006   2.9100337  18.2018079  )
         4           H1  tau(   4) = (   6.0297582   0.9181690  19.6386741  )
         5           O1  tau(   5) = (   0.0006271   0.0005054   7.9858123  )
         6           O1  tau(   6) = (   3.2906025   0.0005020   7.3038282  )
         7           O1  tau(   7) = (   4.5942328   1.4918067   9.2879030  )
         8           O1  tau(   8) = (   1.9868534   1.4903216   9.2879459  )
         9           O1  tau(   9) = (   3.2696825   0.0177092  11.3460806  )
        10           O1  tau(  10) = (   6.5743896   0.0111799  10.6115589  )
        11           O1  tau(  11) = (   1.2770957   1.5070501  12.6511825  )
        12           O1  tau(  12) = (   5.2749141   1.5057152  12.6378801  )
        13           O1  tau(  13) = (   6.5263050   0.0247340  14.7317399  )
        14           O1  tau(  14) = (   3.2747511   0.0213673  13.9312909  )
        15           O1  tau(  15) = (   4.4933390   1.5239927  16.1070736  )
        16           O1  tau(  16) = (   2.0026543   1.5217075  16.0711130  )
        17           O1  tau(  17) = (   3.2904802   0.0005063   4.7018136  )
        18           O1  tau(  18) = (   6.5469758   0.0421337  17.2556835  )
        19           O1  tau(  19) = (   1.3043587   1.4918075   6.0039043  )
        20           O1  tau(  20) = (   5.2767064   1.4903225   6.0039473  )
        21           O1  tau(  21) = (   0.0002396   2.9813036   7.9858123  )
        22           O1  tau(  22) = (   3.2902150   2.9813002   7.3038282  )
        23           O1  tau(  23) = (   4.5938453   4.4726049   9.2879030  )
        24           O1  tau(  24) = (   1.9864658   4.4711199   9.2879459  )
        25           O1  tau(  25) = (   3.2722311   3.0011533  11.3472759  )
        26           O1  tau(  26) = (   6.5787409   2.9955660  10.5677177  )
        27           O1  tau(  27) = (   1.2755865   4.4883074  12.6550720  )
        28           O1  tau(  28) = (   5.2773609   4.4903743  12.6413705  )
        29           O1  tau(  29) = (   6.5451067   2.9841024  14.7029789  )
        30           O1  tau(  30) = (   3.2773495   3.0062142  13.9304278  )
        31           O1  tau(  31) = (   4.4941242   4.5002890  16.1165364  )
        32           O1  tau(  32) = (   2.0016379   4.5015838  16.0818063  )
        33           O1  tau(  33) = (   3.2900926   2.9813045   4.7018136  )
        34           O1  tau(  34) = (   1.3039711   4.4726057   6.0039043  )
        35           O1  tau(  35) = (   5.2763189   4.4711207   6.0039473  )
        36           O1  tau(  36) = (   6.5536212   3.0044252  17.3297899  )
        37           Ti1 tau(  37) = (   0.0004258   2.9801865   6.0000000  )
        38           Ti1 tau(  38) = (   3.2906075   1.4906267   6.0002472  )
        39           Ti1 tau(  39) = (   3.3348906   3.0327224   9.1579215  )
        40           Ti1 tau(  40) = (   0.0203972   1.6099837   9.3624797  )
        41           Ti1 tau(  41) = (   6.5380572   3.0081639  12.8251979  )
        42           Ti1 tau(  42) = (   3.2225065   1.5141752  12.4854623  )
        43           Ti1 tau(  43) = (   3.2525775   3.0161725  15.7233172  )
        44           Ti1 tau(  44) = (   6.5465844   1.4469101  15.9770741  )
        45           Ti1 tau(  45) = (   0.0000382   5.9609847   6.0000000  )
        46           Ti1 tau(  46) = (   3.2902200   4.4714249   6.0002472  )
        47           Ti1 tau(  47) = (   3.2831171   0.0558662   9.1532617  )
        48           Ti1 tau(  48) = (   0.0294011   4.5318189   9.2743274  )
        49           Ti1 tau(  49) = (   6.5160019   0.0123579  12.5245727  )
        50           Ti1 tau(  50) = (   3.2207252   4.4944464  12.4919313  )
        51           Ti1 tau(  51) = (   3.2545639   0.0336594  15.7221480  )
        52           Ti1 tau(  52) = (   6.5427997   4.6104004  16.1309301  )
        53           N1  tau(  53) = (   5.0796009   2.6163306  22.0446247  )
        54           N1  tau(  54) = (   5.1188049   2.0915644  21.0330699  )

     number of k points=    10  Fermi-Dirac smearing, width (Ry)=  0.0073
                       cart. coord. in units 2pi/alat
        k(    1) = (   0.0000000   0.0000000   0.0000000), wk =   0.1250000
        k(    2) = (   0.0000000   0.0419351   0.0000000), wk =   0.2500000
        k(    3) = (   0.0000000  -0.0838702   0.0000000), wk =   0.1250000
        k(    4) = (   0.0379955   0.0000049   0.0000000), wk =   0.2500000
        k(    5) = (   0.0379955   0.0419400   0.0000000), wk =   0.2500000
        k(    6) = (   0.0379955  -0.0838652   0.0000000), wk =   0.2500000
        k(    7) = (   0.0379955  -0.0419301   0.0000000), wk =   0.2500000
        k(    8) = (  -0.0759910  -0.0000099   0.0000000), wk =   0.1250000
        k(    9) = (  -0.0759910   0.0419252   0.0000000), wk =   0.2500000
        k(   10) = (  -0.0759910  -0.0838800   0.0000000), wk =   0.1250000

     Initial potential from superposition of free atoms

     starting charge  384.99916, renormalised to  401.00000

     negative rho (up, down):  1.196E-02 0.000E+00

     %%%%%%%%%%%%%%%%%%%%%%%%%%%%%%%%%%%%%%%%%%%%%%%%%%%%%%%%%%%%%%%%%%%%%%%%
     %                                                                      %
     % You are using vdW-DF, which was implemented by the Thonhauser group. %
     % Please cite the following two papers that made this development      %
     % possible and the two reviews that describe the various versions:     %
     %                                                                      %
     %   T. Thonhauser et al., PRL 115, 136402 (2015).                      %
     %   T. Thonhauser et al., PRB 76, 125112 (2007).                       %
     %   K. Berland et al., Rep. Prog. Phys. 78, 066501 (2015).             %
     %   D.C. Langreth et al., J. Phys.: Condens. Matter 21, 084203 (2009). %
     %                                                                      %
     %                                                                      %
     % If you are calculating the stress with vdW-DF, please also cite:     %
     %                                                                      %
     %   R. Sabatini et al., J. Phys.: Condens. Matter 24, 424209 (2012).   %
     %                                                                      %
     %%%%%%%%%%%%%%%%%%%%%%%%%%%%%%%%%%%%%%%%%%%%%%%%%%%%%%%%%%%%%%%%%%%%%%%%

     Adding external electric field

     Computed dipole along edir(3) :
        Dipole              -14.0962 Ry au,        -35.8290 Debye
        Dipole field         -0.0266 Ry au,

        Potential amp.        2.4659 Ry
        Total length         46.3494 bohr

     Starting wfcs are  303 atomic wfcs
  @ DRIVER MODE: Message from server: STATUS
  @ DRIVER MODE: Message from server: POSDATA
  @ DRIVER MODE: Reading and sharing cell
  @ DRIVER MODE: Reading and sharing positions
  @ DRIVER MODE: Received positions

     Self-consistent Calculation

     iteration #  1     ecut=    29.40 Ry     beta= 0.05
     Davidson diagonalization with overlap
     c_bands:  5 eigenvalues not converged
     c_bands:  4 eigenvalues not converged
     c_bands:  5 eigenvalues not converged
     c_bands:  2 eigenvalues not converged
     c_bands:  4 eigenvalues not converged
     c_bands:  4 eigenvalues not converged
     c_bands:  4 eigenvalues not converged
     c_bands:  4 eigenvalues not converged
     c_bands:  5 eigenvalues not converged
     ethr =  1.00E-05,  avg # of iterations = 22.0

[...]

     total energy              =   -2410.43977866 Ry
     estimated scf accuracy    <    6378.86780200 Ry

     iteration #  2     ecut=    29.40 Ry     beta= 0.05
     Davidson diagonalization with overlap
     ethr =  1.00E-02,  avg # of iterations = 24.3

[...]

     iteration # 74     ecut=    29.40 Ry     beta= 0.05
     Davidson diagonalization with overlap
     c_bands:  1 eigenvalues not converged
     ethr =  5.75E-09,  avg # of iterations = 14.1

[...]

     total energy              =   -2971.53800920 Ry
     estimated scf accuracy    <       0.00000012 Ry

     iteration # 84     ecut=    29.40 Ry     beta= 0.05
     Davidson diagonalization with overlap
     ethr =  2.87E-11,  avg # of iterations =  8.4

     negative rho (up, down):  1.325E-02 0.000E+00

     Adding external electric field

     Computed dipole along edir(3) :
        Dipole                0.4417 Ry au,          1.1226 Debye
        Dipole field          0.0008 Ry au,

        Potential amp.       -0.0773 Ry
        Total length         46.3494 bohr

     End of self-consistent calculation

          k = 0.0000 0.0000 0.0000 ( 18029 PWs)   bands (ev):

   -55.7649 -55.7528 -55.7279 -55.7144 -55.6728 -55.6515 -55.6258 -55.5925
   -55.5894 -55.5793 -55.5381 -55.5148 -55.4812 -55.4153 -54.7752 -54.7412
   -32.3161 -32.2320 -32.1987 -32.1136 -32.0841 -32.0663 -32.0567 -32.0334
   -31.9946 -31.9903 -31.9755 -31.9681 -31.9621 -31.9325 -31.9253 -31.9218
   -31.9178 -31.8959 -31.8876 -31.8609 -31.8542 -31.8305 -31.8301 -31.8241
   -31.8073 -31.8008 -31.7824 -31.7784 -31.7709 -31.7689 -31.7614 -31.7542
   -31.7422 -31.7390 -31.7340 -31.6952 -31.6943 -31.6598 -31.6371 -31.6211
   -31.6040 -31.6011 -31.1849 -31.0881 -31.0657 -31.0016 -30.9156 -30.8044
   -20.7420 -16.9997 -16.5005 -16.2062 -16.0397 -15.9123 -15.8842 -15.7826
   -15.5920 -15.4574 -15.4407 -15.3661 -15.3316 -15.3265 -15.2954 -15.2841
   -15.2778 -15.2679 -15.2217 -15.1947 -15.1789 -15.1656 -15.1395 -15.0878
   -15.0405 -14.9680 -14.9178 -14.8808 -14.8609 -14.7621 -14.7434 -13.9450
   -13.2760 -13.1578  -6.5483  -5.5892  -4.9823  -4.5194  -3.8641  -3.6883
    -3.6705  -3.6521  -3.5689  -3.5129  -3.3257  -3.3105  -3.0097  -2.9346
    -2.9041  -2.9011  -2.8872  -2.7089  -2.6482  -2.5999  -2.5904  -2.5743
    -2.5720  -2.5485  -2.5282  -2.5181  -2.4904  -2.4689  -2.4611  -2.3234
    -2.2933  -2.1772  -2.1557  -2.1456  -2.0905  -2.0642  -2.0305  -2.0082
    -2.0040  -1.9871  -1.9656  -1.9306  -1.8449  -1.8216  -1.6957  -1.5912
    -1.5551  -1.4607  -1.3177  -1.2391  -1.2212  -1.1897  -1.1639  -1.1511
    -1.1019  -1.0771  -1.0245  -0.9611  -0.9569  -0.8526  -0.7793  -0.7419
    -0.6649  -0.6452  -0.6260  -0.5085  -0.4844  -0.4740  -0.3026  -0.2431
    -0.2336  -0.2234  -0.0964  -0.0562  -0.0228  -0.0079   0.0212   0.0527
     0.0973   0.1394   0.1995   0.2227   0.2327   0.2418   0.2655   0.2900
     0.4073   0.4244   0.4350   0.5522   0.5717   0.7610   0.7681   0.8853
     0.9855   1.1531   1.2490   1.3202   1.4201   1.7210   1.8379   1.8982
     3.4248   3.4554   3.4871   3.5044   3.5757   3.6987   3.8080   3.8613
     3.8829   3.9053

[...]

          k = 0.0380-0.0419 0.0000 ( 17876 PWs)   bands (ev):

[...]

          k =-0.0760-0.0000 0.0000 ( 17886 PWs)   bands (ev):

[...]

          k =-0.0760-0.0839 0.0000 ( 17948 PWs)   bands (ev):

   -55.7538 -55.7398 -55.7389 -55.7271 -55.6694 -55.6467 -55.6137 -55.6014
   -55.5973 -55.5825 -55.5353 -55.4988 -55.4973 -55.4177 -54.7587 -54.7576
   -32.1231 -32.1122 -32.0987 -32.0560 -32.0458 -32.0404 -32.0236 -32.0221
   -32.0148 -31.9810 -31.9537 -31.9467 -31.9425 -31.9098 -31.9053 -31.8968
   -31.8887 -31.8807 -31.8802 -31.8705 -31.8668 -31.8594 -31.8548 -31.8476
   -31.8445 -31.8225 -31.8177 -31.8132 -31.8060 -31.8056 -31.8019 -31.7831
   -31.7762 -31.7588 -31.7554 -31.7495 -31.7340 -31.7171 -31.7041 -31.6970
   -31.6455 -31.6105 -31.0790 -31.0777 -30.9983 -30.9975 -30.9591 -30.9582
   -20.7418 -16.9342 -15.9450 -15.9314 -15.6920 -15.6849 -15.6808 -15.6105
   -15.5251 -15.5086 -15.4832 -15.4792 -15.4290 -15.4160 -15.4024 -15.3419
   -15.3120 -15.3056 -15.2649 -15.2475 -15.2127 -15.2033 -15.1617 -15.1390
   -15.1208 -15.1151 -15.0907 -15.0863 -15.0465 -14.9860 -14.9173 -13.9448
   -13.2603 -13.2579  -6.5425  -5.5916  -4.9206  -4.5182  -3.5125  -3.2344
    -3.2234  -2.9572  -2.9087  -2.8959  -2.8132  -2.7517  -2.6863  -2.6474
    -2.6181  -2.6105  -2.5972  -2.5908  -2.5843  -2.5692  -2.5673  -2.5504
    -2.5266  -2.5138  -2.4526  -2.4415  -2.4134  -2.3940  -2.3870  -2.3743
    -2.3378  -2.3186  -2.3084  -2.2923  -2.2876  -2.2068  -2.0612  -2.0130
    -1.9200  -1.9000  -1.8905  -1.8481  -1.8265  -1.8096  -1.7948  -1.7461
    -1.7296  -1.5601  -1.4919  -1.4753  -1.4577  -1.4237  -1.3691  -1.2769
    -1.2500  -1.1777  -1.1640  -1.1239  -1.0662  -0.9911  -0.9697  -0.9276
    -0.8693  -0.8325  -0.7769  -0.7419  -0.7192  -0.7141  -0.6624  -0.6057
    -0.5673  -0.5073  -0.4814  -0.4175  -0.3754  -0.3411  -0.2880  -0.2588
    -0.2239  -0.1128  -0.0062   0.1299   0.1915   0.2676   0.2757   0.3134
     0.3287   0.4471   0.4768   0.5059   0.5478   0.6348   0.6883   0.7589
     0.7782   0.8067   0.8650   1.6095   1.6107   1.7000   1.7107   1.7243
     3.6220   3.6576   3.6760   3.7271   3.8831   3.8878   3.9066   3.9146
     3.9675   4.0466

     the Fermi energy is     3.3907 ev

!    total energy              =   -2971.53801541 Ry
     estimated scf accuracy    <       0.00000006 Ry
     smearing contrib. (-TS)   =      -0.02329144 Ry
     internal energy E=F+TS    =   -2971.51472398 Ry

     The total energy is F=E-TS. E is the sum of the following terms:
     one-electron contribution =  -22751.42845762 Ry
     hartree contribution      =   11466.78525508 Ry
     xc contribution           =    -492.33098819 Ry
     ewald contribution        =    8805.45909864 Ry
     electric field correction =       0.00036812 Ry

     convergence has been achieved in  84 iterations

     Forces acting on atoms (cartesian axes, Ry/au):

     atom    1 type  1   force =    -0.00063703    0.00095969    0.00073298
     atom    2 type  2   force =    -0.00046597    0.00082631   -0.00061463
     atom    3 type  2   force =    -0.00144977   -0.00072370   -0.00051054
     atom    4 type  2   force =     0.00082429   -0.00050821   -0.00026237
     atom    5 type  3   force =     0.00034531   -0.00680075   -0.03336704
     atom    6 type  3   force =    -0.00001901    0.00054547    0.04533370
     atom    7 type  3   force =    -0.02047532    0.00053237    0.00449266
     atom    8 type  3   force =     0.01815669   -0.00159888    0.00413240
     atom    9 type  3   force =     0.00013646   -0.00071307   -0.00010047
     atom   10 type  3   force =    -0.00004144   -0.00056070    0.00016787
     atom   11 type  3   force =     0.00052760    0.00008513   -0.00031267
     atom   12 type  3   force =     0.00105281   -0.00014462   -0.00014319
     atom   13 type  3   force =     0.00030814   -0.00056252   -0.00017081
     atom   14 type  3   force =     0.00035867   -0.00017707   -0.00003690
     atom   15 type  3   force =    -0.00023662   -0.00012262    0.00034442
     atom   16 type  3   force =     0.00027821   -0.00008142    0.00007436
     atom   17 type  3   force =     0.00003797    0.00006303    0.10415599
     atom   18 type  3   force =    -0.00011669    0.00014184    0.00058164
     atom   19 type  3   force =    -0.06899786    0.00070307   -0.02965990
     atom   20 type  3   force =     0.06877592    0.00126804   -0.02964948
     atom   21 type  3   force =     0.00038517    0.00376751   -0.02829839
     atom   22 type  3   force =     0.00085851    0.00085095    0.04703138
     atom   23 type  3   force =    -0.01796733    0.00141533    0.00378630
     atom   24 type  3   force =     0.01767652    0.00227875    0.00330905
     atom   25 type  3   force =    -0.00015830    0.00053560    0.00003255
     atom   26 type  3   force =     0.00016780    0.00022091    0.00038851
     atom   27 type  3   force =    -0.00053237    0.00004503    0.00026791
     atom   28 type  3   force =    -0.00064884   -0.00048435    0.00058158
     atom   29 type  3   force =     0.00009189   -0.00022429    0.00010104
     atom   30 type  3   force =    -0.00019431    0.00006155    0.00039078
     atom   31 type  3   force =    -0.00034216   -0.00010458    0.00000239
     atom   32 type  3   force =    -0.00006117   -0.00019790   -0.00039865
     atom   33 type  3   force =     0.00004650    0.00003696    0.10423679
     atom   34 type  3   force =    -0.06857622   -0.00135560   -0.02969247
     atom   35 type  3   force =     0.06846184   -0.00098266   -0.02967503
     atom   36 type  3   force =     0.00111855    0.00046894    0.00008444
     atom   37 type  4   force =    -0.00000474   -0.00157685    0.10640604
     atom   38 type  4   force =    -0.00017026    0.00073393   -0.17961672
     atom   39 type  4   force =    -0.00038734    0.00002060   -0.00014051
     atom   40 type  4   force =     0.00000673    0.00005538    0.00015070
     atom   41 type  4   force =    -0.00002801   -0.00592727   -0.00053492
     atom   42 type  4   force =    -0.00027742   -0.00000258    0.00057386
     atom   43 type  4   force =    -0.00015258   -0.00027247   -0.00047925
     atom   44 type  4   force =     0.00055589    0.00047626   -0.00057038
     atom   45 type  4   force =    -0.00001186    0.00121909    0.11836391
     atom   46 type  4   force =     0.00001138   -0.00035315   -0.17987956
     atom   47 type  4   force =     0.00036050    0.00010937   -0.00025515
     atom   48 type  4   force =    -0.00002512    0.00023993   -0.00054897
     atom   49 type  4   force =     0.00044601    0.00743430   -0.00007770
     atom   50 type  4   force =     0.00030098    0.00011285   -0.00114266
     atom   51 type  4   force =     0.00039466   -0.00073895   -0.00014637
     atom   52 type  4   force =     0.00088131   -0.00099075    0.00060846
     atom   53 type  5   force =     0.00067920    0.00127965   -0.00000631
     atom   54 type  5   force =    -0.00126780   -0.00128283   -0.00004067

     Total force =     0.376688     Total SCF correction =     0.000869
  @ DRIVER MODE: Message from server: STATUS
  @ DRIVER MODE: Message from server: GETFORCE
  @ DRIVER MODE: Returning v,forces,stress,ensemble

     Writing output data file ./calc.save/
  @ DRIVER MODE: Message from server: EXIT
  @ DRIVE MODE: Exiting

     General routines

     Parallel routines

   This run was terminated on:  17: 7:14  14Sep2021

   JOB DONE.