     Program PWSCF v.6.7GPU starts on 16Sep2021 at 13:34:34

     R & G space division:  proc/nbgrp/npool/nimage =      10
     Reading input from /storage/home/hcoda1/3/ntian30/research/carbon/CxH_vib/H2O_calc/ads_slab/CH3NNH3H2O_a/out_0062/pw.inp
Warning: card &CELL ignored
Warning: card   CELL_DYNAMICS='IPI', ignored
Warning: card / ignored

     Current dimensions of program PWSCF are:
     Max number of different atomic species (ntypx) = 10
     Max number of k-points (npk) =  40000
     Max angular momentum in pseudopotentials (lmaxx) =  3
     Presently no symmetry can be used with electric field

     Message from routine cell_base_init:
     DEPRECATED: use true lattice parameter, not A to a.u. conversion factor

     IMPORTANT: XC functional enforced from input :
     Exchange-correlation= BEEF-VDW
                           (   1   4  43  14   2   0   0)
     Any further DFT definition will be discarded
     Please, verify this is what you really want

  @ DRIVER MODE: Connecting to
 qe_1139763_2852621.sched-torque.pace.gatech.edupuxszkmp_scratch
  using UNIX socket
  @ DRIVER MODE: Message from server: STATUS
  @ DRIVER MODE: Message from server: INIT
  @ DRIVER MODE: Receiving replica           0          -1
  @ DRIVER MODE: Receiving encoded integer          25
  @ DRIVER MODE:  SCF:  T  FORCE:  T  STRESS:  F  VC:  F  ENSEMBLE:  F
  @ DRIVER MODE:  SCF:  T  FORCE:  T  STRESS:  F  VC:  F  ENSEMBLE:  F

     Using Slab Decomposition

     bravais-lattice index     =            0
     lattice parameter (alat)  =       1.8897  a.u.
     unit-cell volume          =    6658.9804 (a.u.)^3
     number of atoms/cell      =           59
     number of atomic types    =            5
     number of electrons       =       406.00
     number of Kohn-Sham states=          213
     kinetic-energy cutoff     =      29.3995  Ry
     charge density cutoff     =     293.9946  Ry
     scf convergence threshold =      7.3E-08
     mixing beta               =       0.0500
     number of iterations used =            8  plain     mixing
     Exchange-correlation= BEEF-VDW
                           (   1   4  43  14   2   0   0)

     celldm(1)=   1.889726  celldm(2)=   0.000000  celldm(3)=   0.000000
     celldm(4)=   0.000000  celldm(5)=   0.000000  celldm(6)=   0.000000

     crystal axes: (cart. coord. in units of alat)
               a(1) = (   6.579727   0.000000   0.000000 )
               a(2) = (  -0.000775   5.961596   0.000000 )
               a(3) = (   0.000000   0.000000  25.155947 )

     reciprocal axes: (cart. coord. in units 2 pi/alat)
               b(1) = (  0.151982  0.000020  0.000000 )
               b(2) = (  0.000000  0.167740  0.000000 )
               b(3) = (  0.000000  0.000000  0.039752 )

     PseudoPot. # 1 for Ti read from file:
     /storage/coda1/p-amedford6/0/shared/rich_project_chbe-medford/medford-share/data/pseudos_module/espresso/nninc/pbe/van/Ti.UPF
     MD5 check sum: 8e4df49b7f0d34bbd5052bf3f5ea0213
     Pseudo is Ultrasoft, Zval = 12.0
     Generated by new atomic code, or converted to UPF format
     Using radial grid of  851 points,  6 beta functions with:
                l(1) =   0
                l(2) =   0
                l(3) =   1
                l(4) =   1
                l(5) =   2
                l(6) =   2
     Q(r) pseudized with  8 coefficients,  rinner =    1.000   1.000   1.000
                                                       1.000   1.000

     PseudoPot. # 2 for O  read from file:
     /storage/coda1/p-amedford6/0/shared/rich_project_chbe-medford/medford-share/data/pseudos_module/espresso/nninc/pbe/van/O.UPF
     MD5 check sum: 78c19812648e8988a0fe644b0f25305e
     Pseudo is Ultrasoft, Zval =  6.0
     Generated by new atomic code, or converted to UPF format
     Using radial grid of  737 points,  4 beta functions with:
                l(1) =   0
                l(2) =   0
                l(3) =   1
                l(4) =   1
     Q(r) pseudized with  8 coefficients,  rinner =    0.800   0.800   0.800

     PseudoPot. # 3 for N  read from file:
     /storage/coda1/p-amedford6/0/shared/rich_project_chbe-medford/medford-share/data/pseudos_module/espresso/nninc/pbe/van/N.UPF
     MD5 check sum: 90d10febe142ad51ac9d5be1deb811c4
     Pseudo is Ultrasoft, Zval =  5.0
     Generated by new atomic code, or converted to UPF format
     Using radial grid of  729 points,  4 beta functions with:
                l(1) =   0
                l(2) =   0
                l(3) =   1
                l(4) =   1
     Q(r) pseudized with  8 coefficients,  rinner =    0.800   0.800   0.800

     PseudoPot. # 4 for C  read from file:
     /storage/coda1/p-amedford6/0/shared/rich_project_chbe-medford/medford-share/data/pseudos_module/espresso/nninc/pbe/van/C.UPF
     MD5 check sum: 1a69bf6b8db32088f5b2163dbdb77a27
     Pseudo is Ultrasoft, Zval =  4.0
     Generated by new atomic code, or converted to UPF format
     Using radial grid of  721 points,  4 beta functions with:
                l(1) =   0
                l(2) =   0
                l(3) =   1
                l(4) =   1
     Q(r) pseudized with  8 coefficients,  rinner =    0.800   0.800   0.800

     PseudoPot. # 5 for H  read from file:
     /storage/coda1/p-amedford6/0/shared/rich_project_chbe-medford/medford-share/data/pseudos_module/espresso/nninc/pbe/van/H.UPF
     MD5 check sum: b5ee9d7bfd3a09ee7748110bda690ff7
     Pseudo is Ultrasoft, Zval =  1.0
     Generated by new atomic code, or converted to UPF format
     Using radial grid of  615 points,  1 beta functions with:
                l(1) =   0
     Q(r) pseudized with  8 coefficients,  rinner =    0.800

     atomic species   valence    mass     pseudopotential
        Ti1           12.00    47.86700     Ti( 1.00)
        O1             6.00    15.99900     O ( 1.00)
        N1             5.00    14.00700     N ( 1.00)
        C1             4.00    12.01100     C ( 1.00)
        H1             1.00     1.00800     H ( 1.00)

     No symmetry found

   Cartesian axes

     site n.     atom                  positions (alat units)
         1           Ti1 tau(   1) = (   0.0004258   2.9801865   6.0000000  )
         2           Ti1 tau(   2) = (   3.2906075   1.4906267   6.0002472  )
         3           O1  tau(   3) = (   0.0006271   0.0005054   7.9858123  )
         4           O1  tau(   4) = (   3.2906025   0.0005020   7.3038282  )
         5           O1  tau(   5) = (   4.5942328   1.4918067   9.2879030  )
         6           O1  tau(   6) = (   1.9868534   1.4903216   9.2879459  )
         7           Ti1 tau(   7) = (   3.2907910   2.8959150   9.1758416  )
         8           Ti1 tau(   8) = (   0.0015273   1.4827037   9.2680791  )
         9           O1  tau(   9) = (   3.2954490   0.0159868  11.2922163  )
        10           O1  tau(  10) = (   0.0116148   5.9584955  10.6183126  )
        11           O1  tau(  11) = (   1.3242731   1.5050266  12.6143764  )
        12           O1  tau(  12) = (   5.3073597   1.5103589  12.6267567  )
        13           Ti1 tau(  13) = (   6.4831477   3.0011104  12.7364612  )
        14           Ti1 tau(  14) = (   3.1751638   1.4975352  12.4748964  )
        15           O1  tau(  15) = (   0.0212859   5.9607631  14.5987152  )
        16           O1  tau(  16) = (   3.3058086   0.0238703  13.8910224  )
        17           O1  tau(  17) = (   4.5539421   1.5574750  15.9960573  )
        18           O1  tau(  18) = (   2.0731809   1.5597727  15.9888445  )
        19           Ti1 tau(  19) = (   3.3176354   3.0289328  15.6523405  )
        20           Ti1 tau(  20) = (   0.0198791   1.6227889  16.0606591  )
        21           O1  tau(  21) = (   3.2904802   0.0005063   4.7018136  )
        22           O1  tau(  22) = (   0.0290054   0.0533443  17.2129705  )
        23           O1  tau(  23) = (   1.3043587   1.4918075   6.0039043  )
        24           O1  tau(  24) = (   5.2767064   1.4903225   6.0039473  )
        25           Ti1 tau(  25) = (   0.0000382   5.9609847   6.0000000  )
        26           Ti1 tau(  26) = (   3.2902200   4.4714249   6.0002472  )
        27           O1  tau(  27) = (   0.0002396   2.9813036   7.9858123  )
        28           O1  tau(  28) = (   3.2902150   2.9813002   7.3038282  )
        29           O1  tau(  29) = (   4.5938453   4.4726049   9.2879030  )
        30           O1  tau(  30) = (   1.9864658   4.4711199   9.2879459  )
        31           Ti1 tau(  31) = (   3.2891106   5.8743827   9.1763621  )
        32           Ti1 tau(  32) = (   0.0006254   4.4649316   9.2693709  )
        33           O1  tau(  33) = (   3.2918316   2.9938763  11.2915017  )
        34           O1  tau(  34) = (   0.0092240   2.9805883  10.6323155  )
        35           O1  tau(  35) = (   1.3226278   4.4784642  12.6110361  )
        36           O1  tau(  36) = (   5.3078083   4.4770455  12.6250823  )
        37           Ti1 tau(  37) = (   6.5141033   0.0190828  12.7620745  )
        38           Ti1 tau(  38) = (   3.1722404   4.4939287  12.4712879  )
        39           O1  tau(  39) = (   0.0035410   2.9850241  14.6487316  )
        40           O1  tau(  40) = (   3.3118331   3.0109266  13.8519036  )
        41           O1  tau(  41) = (   4.5522870   4.5059159  16.0259181  )
        42           O1  tau(  42) = (   2.0778134   4.5048723  16.0185459  )
        43           Ti1 tau(  43) = (   3.3116469   0.0596163  15.7453941  )
        44           Ti1 tau(  44) = (   0.0183239   4.5967015  16.1059876  )
        45           O1  tau(  45) = (   3.2900926   2.9813045   4.7018136  )
        46           O1  tau(  46) = (   1.3039711   4.4726057   6.0039043  )
        47           O1  tau(  47) = (   5.2763189   4.4711207   6.0039473  )
        48           N1  tau(  48) = (   0.0600715   3.0265251  17.3188267  )
        49           N1  tau(  49) = (   6.2826239   2.5295367  22.6224490  )
        50           C1  tau(  50) = (   0.2859397   3.0149959  18.7399364  )
        51           H1  tau(  51) = (   0.1411154   4.0060466  19.1894648  )
        52           H1  tau(  52) = (   6.1913215   2.3105648  19.2421896  )
        53           H1  tau(  53) = (   1.3125146   2.6868920  18.9691123  )
        54           H1  tau(  54) = (   6.1000088   3.2491606  23.3142794  )
        55           H1  tau(  55) = (   0.1456284   1.7586669  23.1118534  )
        56           H1  tau(  56) = (   0.3974265   2.9048463  21.9856970  )
        57           O1  tau(  57) = (   3.2908421   0.1144680  18.1630233  )
        58           H1  tau(  58) = (   4.0779411   5.5688996  18.4486002  )
        59           H1  tau(  59) = (   2.5060966   5.5711546  18.4327789  )

     number of k points=    10  Fermi-Dirac smearing, width (Ry)=  0.0073
                       cart. coord. in units 2pi/alat
        k(    1) = (   0.0000000   0.0000000   0.0000000), wk =   0.1250000
        k(    2) = (   0.0000000   0.0419351   0.0000000), wk =   0.2500000
        k(    3) = (   0.0000000  -0.0838702   0.0000000), wk =   0.1250000
        k(    4) = (   0.0379955   0.0000049   0.0000000), wk =   0.2500000
        k(    5) = (   0.0379955   0.0419400   0.0000000), wk =   0.2500000
        k(    6) = (   0.0379955  -0.0838652   0.0000000), wk =   0.2500000
        k(    7) = (   0.0379955  -0.0419301   0.0000000), wk =   0.2500000
        k(    8) = (  -0.0759910  -0.0000099   0.0000000), wk =   0.1250000
        k(    9) = (  -0.0759910   0.0419252   0.0000000), wk =   0.2500000
        k(   10) = (  -0.0759910  -0.0838800   0.0000000), wk =   0.1250000

     Initial potential from superposition of free atoms

     starting charge  389.99912, renormalised to  406.00000

     negative rho (up, down):  6.917E-03 0.000E+00

     %%%%%%%%%%%%%%%%%%%%%%%%%%%%%%%%%%%%%%%%%%%%%%%%%%%%%%%%%%%%%%%%%%%%%%%%
     %                                                                      %
     % You are using vdW-DF, which was implemented by the Thonhauser group. %
     % Please cite the following two papers that made this development      %
     % possible and the two reviews that describe the various versions:     %
     %                                                                      %
     %   T. Thonhauser et al., PRL 115, 136402 (2015).                      %
     %   T. Thonhauser et al., PRB 76, 125112 (2007).                       %
     %   K. Berland et al., Rep. Prog. Phys. 78, 066501 (2015).             %
     %   D.C. Langreth et al., J. Phys.: Condens. Matter 21, 084203 (2009). %
     %                                                                      %
     %                                                                      %
     % If you are calculating the stress with vdW-DF, please also cite:     %
     %                                                                      %
     %   R. Sabatini et al., J. Phys.: Condens. Matter 24, 424209 (2012).   %
     %                                                                      %
     %%%%%%%%%%%%%%%%%%%%%%%%%%%%%%%%%%%%%%%%%%%%%%%%%%%%%%%%%%%%%%%%%%%%%%%%

     Adding external electric field

     Computed dipole along edir(3) :
        Dipole              -16.2336 Ry au,        -41.2616 Debye
        Dipole field         -0.0306 Ry au,

        Potential amp.        2.8398 Ry
        Total length         46.3494 bohr

     Starting wfcs are  308 atomic wfcs
  @ DRIVER MODE: Message from server: STATUS
  @ DRIVER MODE: Message from server: POSDATA
  @ DRIVER MODE: Reading and sharing cell
  @ DRIVER MODE: Reading and sharing positions
  @ DRIVER MODE: Received positions

     Self-consistent Calculation

     iteration #  1     ecut=    29.40 Ry     beta= 0.05
     Davidson diagonalization with overlap
     c_bands:  2 eigenvalues not converged
     c_bands:  2 eigenvalues not converged
     c_bands:  5 eigenvalues not converged
     c_bands:  3 eigenvalues not converged
     c_bands:  3 eigenvalues not converged
     c_bands:  3 eigenvalues not converged
     c_bands:  1 eigenvalues not converged
     c_bands:  3 eigenvalues not converged
     ethr =  1.00E-05,  avg # of iterations = 21.1

[...]

     total energy              =   -2252.64972674 Ry
     estimated scf accuracy    <    8271.70349904 Ry

     iteration #  2     ecut=    29.40 Ry     beta= 0.05
     Davidson diagonalization with overlap
     ethr =  1.00E-02,  avg # of iterations = 26.4

[...]

     iteration # 48     ecut=    29.40 Ry     beta= 0.05
     Davidson diagonalization with overlap
     c_bands:  1 eigenvalues not converged
     ethr =  3.31E-07,  avg # of iterations =  3.8

[...]

     total energy              =   -2977.74428070 Ry
     estimated scf accuracy    <       0.00000011 Ry

     iteration # 93     ecut=    29.40 Ry     beta= 0.05
     Davidson diagonalization with overlap
     ethr =  2.14E-11,  avg # of iterations =  2.0

     negative rho (up, down):  8.780E-03 0.000E+00

     Adding external electric field

     Computed dipole along edir(3) :
        Dipole                0.7643 Ry au,          1.9425 Debye
        Dipole field          0.0014 Ry au,

        Potential amp.       -0.1337 Ry
        Total length         46.3494 bohr

     End of self-consistent calculation

          k = 0.0000 0.0000 0.0000 ( 18029 PWs)   bands (ev):

   -56.2625 -56.2289 -55.3797 -55.3458 -55.3375 -55.3025 -55.1546 -55.1193
   -55.0322 -54.9123 -54.8946 -54.8920 -54.8784 -54.8080 -54.3919 -54.3423
   -32.6893 -32.5369 -32.5088 -32.4388 -32.3479 -32.3154 -31.8475 -31.8197
   -31.6900 -31.6455 -31.5967 -31.5788 -31.5486 -31.5395 -31.5105 -31.5055
   -31.4869 -31.4805 -31.4578 -31.4439 -31.4305 -31.3819 -31.3711 -31.3323
   -31.3199 -31.3033 -31.2938 -31.2809 -31.2564 -31.2556 -31.2519 -31.2277
   -31.1334 -31.1223 -31.0819 -31.0724 -31.0439 -31.0392 -31.0308 -31.0122
   -30.9816 -30.9283 -30.9066 -30.6355 -30.6132 -30.5822 -30.5613 -30.4525
   -18.3936 -16.4184 -15.9521 -15.7088 -15.6192 -15.5360 -15.4973 -15.4532
   -15.3007 -15.2336 -15.2111 -15.2106 -15.1400 -14.9916 -14.9446 -14.8466
   -14.7529 -14.6182 -14.6010 -14.5677 -14.5497 -14.5171 -14.5103 -14.4579
   -14.2951 -14.2594 -14.2113 -14.1478 -14.0629 -14.0382 -13.8387 -13.4107
   -13.3010 -12.6445  -7.4504  -6.2106  -4.1044  -4.0839  -3.9857  -3.4517
    -3.1819  -3.1549  -3.0262  -3.0214  -2.9755  -2.8351  -2.8226  -2.7548
    -2.7312  -2.6841  -2.6177  -2.5843  -2.5319  -2.4456  -2.4336  -2.4135
    -2.4003  -2.3838  -2.2629  -2.2208  -2.1685  -2.0655  -1.9572  -1.9143
    -1.8872  -1.8433  -1.8053  -1.7581  -1.7454  -1.7311  -1.7246  -1.6123
    -1.4992  -1.4664  -1.4516  -1.4052  -1.3867  -1.3781  -1.3558  -1.2712
    -1.1598  -1.0675  -1.0002  -0.9873  -0.9210  -0.9130  -0.8535  -0.7359
    -0.6769  -0.6718  -0.6566  -0.5533  -0.5266  -0.4552  -0.3922  -0.3343
    -0.2797  -0.2170  -0.1668  -0.1442  -0.1313  -0.0322   0.0393   0.0627
     0.1139   0.1233   0.1344   0.1529   0.2497   0.2853   0.3591   0.4039
     0.4399   0.4846   0.5668   0.6173   0.6850   0.7349   0.7577   0.8195
     0.8727   0.9282   1.0235   1.0742   1.0780   1.0864   1.1093   1.1695
     1.1833   1.2595   1.3424   1.3579   1.4300   1.4988   1.6594   1.6985
     1.9483   2.0199   2.6464   3.0146   3.1759   3.4711   3.6609   3.7984
     3.9939   4.0043   4.0113   4.2607   4.3365

[...]

          k = 0.0380-0.0419 0.0000 ( 17876 PWs)   bands (ev):

[...]

          k =-0.0760-0.0000 0.0000 ( 17886 PWs)   bands (ev):

[...]

          k =-0.0760-0.0839 0.0000 ( 17948 PWs)   bands (ev):

   -56.2459 -56.2454 -55.3647 -55.3603 -55.3249 -55.3152 -55.1380 -55.1357
   -55.0300 -54.8954 -54.8952 -54.8941 -54.8909 -54.8116 -54.3848 -54.3492
   -32.5228 -32.5224 -32.5062 -32.5060 -32.3920 -32.3916 -31.6712 -31.6653
   -31.6555 -31.6481 -31.5717 -31.5567 -31.5547 -31.5504 -31.5442 -31.5426
   -31.5369 -31.5282 -31.4961 -31.4796 -31.3835 -31.3814 -31.3479 -31.3421
   -31.3225 -31.2861 -31.2480 -31.2408 -31.2406 -31.2395 -31.2160 -31.1929
   -31.1511 -31.1202 -31.1199 -31.1170 -31.0931 -31.0810 -31.0809 -31.0668
   -31.0497 -31.0143 -30.7673 -30.7046 -30.6110 -30.5867 -30.5692 -30.5230
   -18.3927 -15.7690 -15.7670 -15.7318 -15.7311 -15.4642 -15.4608 -15.3673
   -15.3621 -15.2276 -15.1105 -15.0090 -14.9963 -14.9607 -14.9335 -14.8215
   -14.8009 -14.7918 -14.7817 -14.6697 -14.6496 -14.6046 -14.5935 -14.5769
   -14.5667 -14.2732 -14.2600 -14.1571 -14.1333 -14.0375 -13.9920 -13.4046
   -13.4046 -12.6631  -7.4441  -6.2030  -4.1143  -4.0857  -2.8632  -2.8584
    -2.8071  -2.8037  -2.8029  -2.7441  -2.6384  -2.5987  -2.5971  -2.5956
    -2.5092  -2.4472  -2.4393  -2.3680  -2.3351  -2.3157  -2.2564  -2.2469
    -2.1816  -2.1553  -2.1469  -2.1305  -2.1070  -2.1057  -2.0097  -1.9470
    -1.8952  -1.8918  -1.8243  -1.8054  -1.7421  -1.7213  -1.7097  -1.6776
    -1.6366  -1.6134  -1.5806  -1.5482  -1.5070  -1.4475  -1.2807  -1.2718
    -1.2625  -1.2409  -1.1154  -1.1076  -1.0778  -1.0476  -1.0418  -0.9678
    -0.9170  -0.8831  -0.8231  -0.7421  -0.7195  -0.6178  -0.5668  -0.5205
    -0.4632  -0.3583  -0.3408  -0.3294  -0.3204  -0.2909  -0.2243  -0.1947
    -0.1791  -0.0588  -0.0392   0.0140   0.0350   0.0915   0.1174   0.1834
     0.2090   0.2805   0.2924   0.3314   0.4054   0.4865   0.5205   0.5690
     0.5736   0.8498   0.9236   1.0542   1.0652   1.1216   1.1800   1.2518
     1.3113   1.3436   1.3705   1.4936   1.4979   1.5072   1.5077   1.5791
     1.5841   1.9260   2.5237   3.5905   3.5908   3.6573   3.6580   3.9787
     3.9850   4.0919   4.1022   4.2631   4.2781

     the Fermi energy is     2.8425 ev

!    total energy              =   -2977.74428418 Ry
     estimated scf accuracy    <       0.00000007 Ry
     smearing contrib. (-TS)   =      -0.00445468 Ry
     internal energy E=F+TS    =   -2977.73982949 Ry

     The total energy is F=E-TS. E is the sum of the following terms:
     one-electron contribution =  -22875.87492974 Ry
     hartree contribution      =   11535.65288110 Ry
     xc contribution           =    -496.31937500 Ry
     ewald contribution        =    8858.80049190 Ry
     electric field correction =       0.00110224 Ry

     convergence has been achieved in  93 iterations

     Forces acting on atoms (cartesian axes, Ry/au):

     atom    1 type  1   force =    -0.00003320   -0.00046239    0.12449842
     atom    2 type  1   force =    -0.00009004   -0.00048266   -0.15980840
     atom    3 type  2   force =     0.00019024   -0.00024369   -0.06791622
     atom    4 type  2   force =    -0.00000748   -0.00011578    0.02622335
     atom    5 type  2   force =    -0.01448277    0.00181838   -0.00990771
     atom    6 type  2   force =     0.01626102    0.00224274   -0.01025478
     atom    7 type  1   force =     0.00071229   -0.00388099    0.02888674
     atom    8 type  1   force =    -0.00034937   -0.00440011    0.10953154
     atom    9 type  2   force =     0.00024333   -0.00029150   -0.00052261
     atom   10 type  2   force =    -0.00232041    0.00256387   -0.07335654
     atom   11 type  2   force =    -0.00002850   -0.00033614   -0.00000340
     atom   12 type  2   force =    -0.00016196   -0.00082473    0.00002045
     atom   13 type  1   force =     0.00105911   -0.00040429    0.00012243
     atom   14 type  1   force =    -0.00063454    0.00064245   -0.00008929
     atom   15 type  2   force =    -0.00029357   -0.00039749   -0.00071885
     atom   16 type  2   force =    -0.00000881   -0.00011160    0.00063151
     atom   17 type  2   force =     0.00019690   -0.00090880   -0.00019306
     atom   18 type  2   force =     0.00046229   -0.00051172    0.00012095
     atom   19 type  1   force =    -0.00115391   -0.00007264   -0.00091735
     atom   20 type  1   force =     0.00082534   -0.00007012   -0.00050667
     atom   21 type  2   force =     0.00004456   -0.00003605    0.09942646
     atom   22 type  2   force =    -0.00004721   -0.00024385   -0.00028412
     atom   23 type  2   force =    -0.07967577   -0.00005761   -0.03249307
     atom   24 type  2   force =     0.07951780    0.00038120   -0.03254132
     atom   25 type  1   force =    -0.00000460   -0.00057503    0.12416194
     atom   26 type  1   force =    -0.00008823   -0.00062736   -0.15995987
     atom   27 type  2   force =     0.00029923   -0.00036189   -0.06696830
     atom   28 type  2   force =    -0.00002086    0.00015151    0.02514212
     atom   29 type  2   force =    -0.01510566    0.00192797   -0.00984252
     atom   30 type  2   force =     0.01678121    0.00242765   -0.01016076
     atom   31 type  1   force =     0.00074315   -0.00076522    0.02406357
     atom   32 type  1   force =    -0.00028230    0.00204878    0.11014859
     atom   33 type  2   force =     0.00008288    0.00029382    0.00057134
     atom   34 type  2   force =    -0.00194278    0.00199991   -0.07167270
     atom   35 type  2   force =    -0.00002258    0.00034645   -0.00001558
     atom   36 type  2   force =    -0.00054039    0.00061096   -0.00005484
     atom   37 type  1   force =     0.00120088    0.00043275    0.00030113
     atom   38 type  1   force =    -0.00052850   -0.00087425   -0.00021073
     atom   39 type  2   force =    -0.00028078   -0.00014698    0.00092323
     atom   40 type  2   force =     0.00018712   -0.00012805    0.00023646
     atom   41 type  2   force =     0.00110112    0.00013442    0.00014076
     atom   42 type  2   force =    -0.00053097   -0.00024713    0.00051372
     atom   43 type  1   force =    -0.00163164   -0.00001884   -0.00010825
     atom   44 type  1   force =     0.00095194   -0.00022741   -0.00047708
     atom   45 type  2   force =     0.00001902   -0.00004740    0.09938897
     atom   46 type  2   force =    -0.07969206    0.00000442   -0.03250467
     atom   47 type  2   force =     0.07954140    0.00043928   -0.03252907
     atom   48 type  3   force =    -0.00088318   -0.00076398   -0.00043760
     atom   49 type  3   force =    -0.00033181   -0.00048082    0.00131970
     atom   50 type  4   force =    -0.00023090   -0.00012269    0.00004701
     atom   51 type  5   force =    -0.00019929    0.00038076    0.00028907
     atom   52 type  5   force =    -0.00007276   -0.00053318    0.00073346
     atom   53 type  5   force =     0.00049986   -0.00013195    0.00020270
     atom   54 type  5   force =     0.00006190   -0.00022951   -0.00059450
     atom   55 type  5   force =     0.00003285    0.00031303   -0.00029515
     atom   56 type  5   force =     0.00029659    0.00036581   -0.00181708
     atom   57 type  2   force =     0.01380847   -0.00647552    0.00297318
     atom   58 type  5   force =    -0.01361095    0.00787572   -0.00395001
     atom   59 type  5   force =     0.00016727   -0.00079251    0.00049334

     Total force =     0.424105     Total SCF correction =     0.000906
  @ DRIVER MODE: Message from server: STATUS
  @ DRIVER MODE: Message from server: GETFORCE
  @ DRIVER MODE: Returning v,forces,stress,ensemble

     Writing output data file ./calc.save/
  @ DRIVER MODE: Message from server: EXIT
  @ DRIVE MODE: Exiting

     General routines

     Parallel routines

   This run was terminated on:  13:57:45  16Sep2021

   JOB DONE.