     Program PWSCF v.6.7GPU starts on 10Sep2021 at 13:43:34

     R & G space division:  proc/nbgrp/npool/nimage =      10
     Reading input from /storage/home/hcoda1/3/ntian30/research/carbon/CxH_vib/CH3_calc/ads_slab/CH3N2H2O_g/out_0050/pw.inp
Warning: card &CELL ignored
Warning: card   CELL_DYNAMICS='IPI', ignored
Warning: card / ignored

     Current dimensions of program PWSCF are:
     Max number of different atomic species (ntypx) = 10
     Max number of k-points (npk) =  40000
     Max angular momentum in pseudopotentials (lmaxx) =  3
     Presently no symmetry can be used with electric field

     Message from routine cell_base_init:
     DEPRECATED: use true lattice parameter, not A to a.u. conversion factor

     IMPORTANT: XC functional enforced from input :
     Exchange-correlation= BEEF-VDW
                           (   1   4  43  14   2   0   0)
     Any further DFT definition will be discarded
     Please, verify this is what you really want

  @ DRIVER MODE: Connecting to
 qe_1139763_2779714.sched-torque.pace.gatech.eduwmnhovbh_scratch
  using UNIX socket
  @ DRIVER MODE: Message from server: STATUS
  @ DRIVER MODE: Message from server: INIT
  @ DRIVER MODE: Receiving replica           0          -1
  @ DRIVER MODE: Receiving encoded integer          25
  @ DRIVER MODE:  SCF:  T  FORCE:  T  STRESS:  F  VC:  F  ENSEMBLE:  F
  @ DRIVER MODE:  SCF:  T  FORCE:  T  STRESS:  F  VC:  F  ENSEMBLE:  F

     Using Slab Decomposition

     bravais-lattice index     =            0
     lattice parameter (alat)  =       1.8897  a.u.
     unit-cell volume          =    6658.9804 (a.u.)^3
     number of atoms/cell      =           56
     number of atomic types    =            5
     number of electrons       =       403.00
     number of Kohn-Sham states=          211
     kinetic-energy cutoff     =      29.3995  Ry
     charge density cutoff     =     293.9946  Ry
     scf convergence threshold =      7.3E-08
     mixing beta               =       0.0500
     number of iterations used =            8  plain     mixing
     Exchange-correlation= BEEF-VDW
                           (   1   4  43  14   2   0   0)

     celldm(1)=   1.889726  celldm(2)=   0.000000  celldm(3)=   0.000000
     celldm(4)=   0.000000  celldm(5)=   0.000000  celldm(6)=   0.000000

     crystal axes: (cart. coord. in units of alat)
               a(1) = (   6.579727   0.000000   0.000000 )
               a(2) = (  -0.000775   5.961596   0.000000 )
               a(3) = (   0.000000   0.000000  25.155947 )

     reciprocal axes: (cart. coord. in units 2 pi/alat)
               b(1) = (  0.151982  0.000020  0.000000 )
               b(2) = (  0.000000  0.167740  0.000000 )
               b(3) = (  0.000000  0.000000  0.039752 )

     PseudoPot. # 1 for Ti read from file:
     /storage/coda1/p-amedford6/0/shared/rich_project_chbe-medford/medford-share/data/pseudos_module/espresso/nninc/pbe/van/Ti.UPF
     MD5 check sum: 8e4df49b7f0d34bbd5052bf3f5ea0213
     Pseudo is Ultrasoft, Zval = 12.0
     Generated by new atomic code, or converted to UPF format
     Using radial grid of  851 points,  6 beta functions with:
                l(1) =   0
                l(2) =   0
                l(3) =   1
                l(4) =   1
                l(5) =   2
                l(6) =   2
     Q(r) pseudized with  8 coefficients,  rinner =    1.000   1.000   1.000
                                                       1.000   1.000

     PseudoPot. # 2 for O  read from file:
     /storage/coda1/p-amedford6/0/shared/rich_project_chbe-medford/medford-share/data/pseudos_module/espresso/nninc/pbe/van/O.UPF
     MD5 check sum: 78c19812648e8988a0fe644b0f25305e
     Pseudo is Ultrasoft, Zval =  6.0
     Generated by new atomic code, or converted to UPF format
     Using radial grid of  737 points,  4 beta functions with:
                l(1) =   0
                l(2) =   0
                l(3) =   1
                l(4) =   1
     Q(r) pseudized with  8 coefficients,  rinner =    0.800   0.800   0.800

     PseudoPot. # 3 for N  read from file:
     /storage/coda1/p-amedford6/0/shared/rich_project_chbe-medford/medford-share/data/pseudos_module/espresso/nninc/pbe/van/N.UPF
     MD5 check sum: 90d10febe142ad51ac9d5be1deb811c4
     Pseudo is Ultrasoft, Zval =  5.0
     Generated by new atomic code, or converted to UPF format
     Using radial grid of  729 points,  4 beta functions with:
                l(1) =   0
                l(2) =   0
                l(3) =   1
                l(4) =   1
     Q(r) pseudized with  8 coefficients,  rinner =    0.800   0.800   0.800

     PseudoPot. # 4 for C  read from file:
     /storage/coda1/p-amedford6/0/shared/rich_project_chbe-medford/medford-share/data/pseudos_module/espresso/nninc/pbe/van/C.UPF
     MD5 check sum: 1a69bf6b8db32088f5b2163dbdb77a27
     Pseudo is Ultrasoft, Zval =  4.0
     Generated by new atomic code, or converted to UPF format
     Using radial grid of  721 points,  4 beta functions with:
                l(1) =   0
                l(2) =   0
                l(3) =   1
                l(4) =   1
     Q(r) pseudized with  8 coefficients,  rinner =    0.800   0.800   0.800

     PseudoPot. # 5 for H  read from file:
     /storage/coda1/p-amedford6/0/shared/rich_project_chbe-medford/medford-share/data/pseudos_module/espresso/nninc/pbe/van/H.UPF
     MD5 check sum: b5ee9d7bfd3a09ee7748110bda690ff7
     Pseudo is Ultrasoft, Zval =  1.0
     Generated by new atomic code, or converted to UPF format
     Using radial grid of  615 points,  1 beta functions with:
                l(1) =   0
     Q(r) pseudized with  8 coefficients,  rinner =    0.800

     atomic species   valence    mass     pseudopotential
        Ti1           12.00    47.86700     Ti( 1.00)
        O1             6.00    15.99900     O ( 1.00)
        N1             5.00    14.00700     N ( 1.00)
        C1             4.00    12.01100     C ( 1.00)
        H1             1.00     1.00800     H ( 1.00)

     No symmetry found

   Cartesian axes

     site n.     atom                  positions (alat units)
         1           Ti1 tau(   1) = (   0.0004258   2.9801865   6.0000000  )
         2           Ti1 tau(   2) = (   3.2906075   1.4906267   6.0002472  )
         3           O1  tau(   3) = (   0.0006271   0.0005054   7.9858123  )
         4           O1  tau(   4) = (   3.2906025   0.0005020   7.3038282  )
         5           O1  tau(   5) = (   4.5942328   1.4918067   9.2879030  )
         6           O1  tau(   6) = (   1.9868534   1.4903216   9.2879459  )
         7           Ti1 tau(   7) = (   3.2907910   2.8959150   9.1758416  )
         8           Ti1 tau(   8) = (   0.0015273   1.4827037   9.2680791  )
         9           O1  tau(   9) = (   3.3002115   5.9463602  11.3460011  )
        10           O1  tau(  10) = (   0.0116148   5.9584955  10.6183126  )
        11           O1  tau(  11) = (   1.3192008   1.4768417  12.6238339  )
        12           O1  tau(  12) = (   5.3062067   1.4698383  12.6193417  )
        13           Ti1 tau(  13) = (   6.5330844   2.9444840  12.6148558  )
        14           Ti1 tau(  14) = (   3.2222230   1.4676475  12.5013840  )
        15           O1  tau(  15) = (   0.0064324   5.9471174  14.6352917  )
        16           O1  tau(  16) = (   3.3028336   5.9445487  13.9678148  )
        17           O1  tau(  17) = (   4.5628415   1.5226527  16.0793330  )
        18           O1  tau(  18) = (   2.0474444   1.5206590  16.0184434  )
        19           Ti1 tau(  19) = (   3.3141275   2.9607752  15.6908890  )
        20           Ti1 tau(  20) = (   6.5660065   1.5097775  15.7997320  )
        21           O1  tau(  21) = (   3.2904802   0.0005063   4.7018136  )
        22           O1  tau(  22) = (   0.0269361   0.0086655  17.1987262  )
        23           O1  tau(  23) = (   1.3043587   1.4918075   6.0039043  )
        24           O1  tau(  24) = (   5.2767064   1.4903225   6.0039473  )
        25           Ti1 tau(  25) = (   0.0000382   5.9609847   6.0000000  )
        26           Ti1 tau(  26) = (   3.2902200   4.4714249   6.0002472  )
        27           O1  tau(  27) = (   0.0002396   2.9813036   7.9858123  )
        28           O1  tau(  28) = (   3.2902150   2.9813002   7.3038282  )
        29           O1  tau(  29) = (   4.5938453   4.4726049   9.2879030  )
        30           O1  tau(  30) = (   1.9864658   4.4711199   9.2879459  )
        31           Ti1 tau(  31) = (   3.2891106   5.8743827   9.1763621  )
        32           Ti1 tau(  32) = (   0.0006254   4.4649316   9.2693709  )
        33           O1  tau(  33) = (   3.2944391   2.9688829  11.3444728  )
        34           O1  tau(  34) = (   0.0092240   2.9805883  10.6323155  )
        35           O1  tau(  35) = (   1.3142520   4.4635248  12.6275686  )
        36           O1  tau(  36) = (   5.3078217   4.4601700  12.6226734  )
        37           Ti1 tau(  37) = (   6.5374036   5.9186568  12.5467527  )
        38           Ti1 tau(  38) = (   3.2213306   4.4595164  12.5065882  )
        39           O1  tau(  39) = (   6.5756885   2.9534048  14.6511233  )
        40           O1  tau(  40) = (   3.3206316   2.9687378  13.8980937  )
        41           O1  tau(  41) = (   4.5543359   4.4428353  16.0905846  )
        42           O1  tau(  42) = (   2.0427057   4.4323087  16.0570365  )
        43           Ti1 tau(  43) = (   3.2570595   5.9269474  15.8069103  )
        44           Ti1 tau(  44) = (   6.5609319   4.6488967  16.0725391  )
        45           O1  tau(  45) = (   3.2900926   2.9813045   4.7018136  )
        46           O1  tau(  46) = (   1.3039711   4.4726057   6.0039043  )
        47           O1  tau(  47) = (   5.2763189   4.4711207   6.0039473  )
        48           N1  tau(  48) = (   0.2492319   2.6641403  18.6309932  )
        49           N1  tau(  49) = (   0.0782707   2.8835230  17.4382120  )
        50           C1  tau(  50) = (   0.2622466   3.8234900  19.5663878  )
        51           H1  tau(  51) = (   6.1755609   4.6233469  19.2444151  )
        52           H1  tau(  52) = (   6.5754044   3.4477461  20.5519103  )
        53           H1  tau(  53) = (   1.2857956   4.2073973  19.6006198  )
        54           O1  tau(  54) = (   3.1761146   0.0362278  18.2233714  )
        55           H1  tau(  55) = (   3.9097821   0.6076051  18.5038283  )
        56           H1  tau(  56) = (   2.3616031   0.5117379  18.4309238  )

     number of k points=    10  Fermi-Dirac smearing, width (Ry)=  0.0073
                       cart. coord. in units 2pi/alat
        k(    1) = (   0.0000000   0.0000000   0.0000000), wk =   0.1250000
        k(    2) = (   0.0000000   0.0419351   0.0000000), wk =   0.2500000
        k(    3) = (   0.0000000  -0.0838702   0.0000000), wk =   0.1250000
        k(    4) = (   0.0379955   0.0000049   0.0000000), wk =   0.2500000
        k(    5) = (   0.0379955   0.0419400   0.0000000), wk =   0.2500000
        k(    6) = (   0.0379955  -0.0838652   0.0000000), wk =   0.2500000
        k(    7) = (   0.0379955  -0.0419301   0.0000000), wk =   0.2500000
        k(    8) = (  -0.0759910  -0.0000099   0.0000000), wk =   0.1250000
        k(    9) = (  -0.0759910   0.0419252   0.0000000), wk =   0.2500000
        k(   10) = (  -0.0759910  -0.0838800   0.0000000), wk =   0.1250000

     Initial potential from superposition of free atoms

     starting charge  386.99914, renormalised to  403.00000

     negative rho (up, down):  1.449E-02 0.000E+00

     %%%%%%%%%%%%%%%%%%%%%%%%%%%%%%%%%%%%%%%%%%%%%%%%%%%%%%%%%%%%%%%%%%%%%%%%
     %                                                                      %
     % You are using vdW-DF, which was implemented by the Thonhauser group. %
     % Please cite the following two papers that made this development      %
     % possible and the two reviews that describe the various versions:     %
     %                                                                      %
     %   T. Thonhauser et al., PRL 115, 136402 (2015).                      %
     %   T. Thonhauser et al., PRB 76, 125112 (2007).                       %
     %   K. Berland et al., Rep. Prog. Phys. 78, 066501 (2015).             %
     %   D.C. Langreth et al., J. Phys.: Condens. Matter 21, 084203 (2009). %
     %                                                                      %
     %                                                                      %
     % If you are calculating the stress with vdW-DF, please also cite:     %
     %                                                                      %
     %   R. Sabatini et al., J. Phys.: Condens. Matter 24, 424209 (2012).   %
     %                                                                      %
     %%%%%%%%%%%%%%%%%%%%%%%%%%%%%%%%%%%%%%%%%%%%%%%%%%%%%%%%%%%%%%%%%%%%%%%%

     Adding external electric field

     Computed dipole along edir(3) :
        Dipole              -13.2089 Ry au,        -33.5737 Debye
        Dipole field         -0.0249 Ry au,

        Potential amp.        2.3107 Ry
        Total length         46.3494 bohr

     Starting wfcs are  305 atomic wfcs
  @ DRIVER MODE: Message from server: STATUS
  @ DRIVER MODE: Message from server: POSDATA
  @ DRIVER MODE: Reading and sharing cell
  @ DRIVER MODE: Reading and sharing positions
  @ DRIVER MODE: Received positions

     Self-consistent Calculation

     iteration #  1     ecut=    29.40 Ry     beta= 0.05
     Davidson diagonalization with overlap
     c_bands:  4 eigenvalues not converged
     c_bands:  2 eigenvalues not converged
     c_bands:  2 eigenvalues not converged
     c_bands:  5 eigenvalues not converged
     c_bands:  1 eigenvalues not converged
     c_bands:  1 eigenvalues not converged
     c_bands:  4 eigenvalues not converged
     c_bands:  1 eigenvalues not converged
     c_bands:  1 eigenvalues not converged
     ethr =  1.00E-05,  avg # of iterations = 28.0

[...]

     total energy              =   -2367.58384488 Ry
     estimated scf accuracy    <    6915.73673226 Ry

     iteration #  2     ecut=    29.40 Ry     beta= 0.05
     Davidson diagonalization with overlap
     ethr =  1.00E-02,  avg # of iterations = 22.8

[...]

     iteration # 53     ecut=    29.40 Ry     beta= 0.05
     Davidson diagonalization with overlap
     c_bands:  1 eigenvalues not converged
     ethr =  2.33E-09,  avg # of iterations = 10.0

[...]

     total energy              =   -2974.00255529 Ry
     estimated scf accuracy    <       0.00000009 Ry

     iteration # 62     ecut=    29.40 Ry     beta= 0.05
     Davidson diagonalization with overlap
     ethr =  2.26E-11,  avg # of iterations =  2.0

     negative rho (up, down):  1.476E-02 0.000E+00

     Adding external electric field

     Computed dipole along edir(3) :
        Dipole                0.8909 Ry au,          2.2645 Debye
        Dipole field          0.0017 Ry au,

        Potential amp.       -0.1559 Ry
        Total length         46.3494 bohr

     End of self-consistent calculation

          k = 0.0000 0.0000 0.0000 ( 18029 PWs)   bands (ev):

   -55.6189 -55.5848 -55.5771 -55.5607 -55.5404 -55.4471 -55.4290 -55.4080
   -55.3950 -55.3940 -55.3660 -55.3603 -55.0027 -54.8620 -54.5980 -54.5639
   -32.1193 -32.1012 -31.9622 -31.9445 -31.9277 -31.9118 -31.8835 -31.8780
   -31.8618 -31.8086 -31.8021 -31.7842 -31.7713 -31.7554 -31.7397 -31.7303
   -31.7231 -31.7104 -31.7046 -31.6762 -31.6674 -31.6499 -31.6213 -31.6172
   -31.6013 -31.5987 -31.5982 -31.5930 -31.5689 -31.5645 -31.5613 -31.5562
   -31.5466 -31.5424 -31.5356 -31.5083 -31.5057 -31.2729 -31.1982 -31.1224
   -31.1053 -31.0712 -31.0052 -30.9166 -30.8941 -30.8218 -30.7353 -30.6244
   -18.9216 -18.3048 -16.3109 -16.0825 -15.8530 -15.7652 -15.7164 -15.5169
   -15.4150 -15.3427 -15.2200 -15.1572 -15.1452 -15.1309 -15.1120 -15.1102
   -15.0577 -15.0509 -15.0469 -15.0390 -15.0057 -14.9653 -14.9503 -14.9397
   -14.8458 -14.7727 -14.7554 -14.7315 -14.6859 -14.6696 -14.1950 -13.1003
   -12.9839 -11.2541  -6.8713  -6.6701  -4.1994  -3.8409  -3.7969  -3.6839
    -3.5561  -3.5229  -3.4427  -3.3677  -3.2337  -3.2119  -3.0438  -2.8465
    -2.7859  -2.7604  -2.7069  -2.6412  -2.5265  -2.4672  -2.4228  -2.4159
    -2.3983  -2.3907  -2.3672  -2.3545  -2.2534  -2.2314  -2.1533  -2.1488
    -2.0975  -1.9802  -1.9659  -1.9311  -1.9183  -1.8949  -1.8730  -1.8526
    -1.8421  -1.8181  -1.7675  -1.6985  -1.6314  -1.5951  -1.5096  -1.4392
    -1.3976  -1.3525  -1.2291  -1.1365  -1.1032  -1.0603  -1.0530  -1.0400
    -1.0109  -0.9931  -0.8802  -0.7662  -0.7492  -0.6841  -0.6241  -0.5430
    -0.5174  -0.4369  -0.3824  -0.3642  -0.3606  -0.3156  -0.2851  -0.2274
    -0.0924  -0.0409  -0.0072   0.0025   0.0611   0.1045   0.1334   0.2210
     0.2271   0.2724   0.3104   0.3430   0.3562   0.3713   0.3897   0.4193
     0.4341   0.6256   0.6619   0.7010   0.7386   0.7816   0.9197   0.9445
     1.0421   1.1515   1.3505   1.4242   1.5293   1.6164   1.9957   2.0415
     2.7462   3.5163   3.6034   3.6484   3.6772   3.7611   3.7748   3.9712
     3.9870   4.0252   4.0950

[...]

          k = 0.0380-0.0419 0.0000 ( 17876 PWs)   bands (ev):

[...]

          k =-0.0760-0.0000 0.0000 ( 17886 PWs)   bands (ev):

[...]

          k =-0.0760-0.0839 0.0000 ( 17948 PWs)   bands (ev):

   -55.6023 -55.6013 -55.5629 -55.5591 -55.5544 -55.4368 -55.4184 -55.4126
   -55.4107 -55.3789 -55.3756 -55.3674 -55.0008 -54.8638 -54.5810 -54.5807
   -31.9328 -31.9168 -31.9167 -31.9162 -31.8976 -31.8967 -31.8477 -31.8415
   -31.8201 -31.7947 -31.7825 -31.7737 -31.7697 -31.7314 -31.7269 -31.7251
   -31.7220 -31.7210 -31.7183 -31.7158 -31.7133 -31.7074 -31.6716 -31.6540
   -31.6354 -31.6312 -31.6238 -31.6119 -31.6115 -31.6085 -31.6030 -31.5935
   -31.5900 -31.5793 -31.5784 -31.5703 -31.4195 -31.2747 -31.2139 -31.1616
   -31.1235 -31.0976 -30.9069 -30.9067 -30.8181 -30.8178 -30.7786 -30.7785
   -18.9205 -18.3011 -15.7694 -15.6590 -15.5684 -15.5343 -15.4767 -15.4075
   -15.3999 -15.3130 -15.2971 -15.2941 -15.2285 -15.2077 -15.1705 -15.1635
   -15.1407 -15.1250 -15.1184 -15.0689 -15.0570 -15.0540 -15.0472 -15.0423
   -14.9661 -14.9357 -14.9318 -14.9229 -14.7952 -14.6706 -14.3663 -13.0858
   -13.0855 -11.2518  -6.9002  -6.6457  -4.1252  -3.8729  -3.7594  -3.2377
    -3.0519  -2.8418  -2.8194  -2.7239  -2.7117  -2.6772  -2.5462  -2.5056
    -2.4646  -2.4483  -2.4293  -2.4279  -2.4108  -2.4051  -2.3841  -2.3584
    -2.3342  -2.3138  -2.2853  -2.2813  -2.2685  -2.2555  -2.2323  -2.2200
    -2.2037  -2.1730  -2.1475  -2.1318  -2.0649  -1.9926  -1.8317  -1.7936
    -1.7543  -1.7482  -1.7314  -1.7010  -1.6848  -1.6670  -1.6201  -1.5845
    -1.4995  -1.3581  -1.3379  -1.3147  -1.2955  -1.2822  -1.2099  -1.1021
    -1.0835  -1.0116  -1.0031  -0.8968  -0.8901  -0.8035  -0.7953  -0.7848
    -0.7102  -0.6842  -0.6681  -0.5794  -0.5772  -0.5528  -0.5046  -0.4761
    -0.4123  -0.3698  -0.3396  -0.3358  -0.2898  -0.2676  -0.2235  -0.1581
    -0.1041  -0.0683   0.0288   0.1332   0.2345   0.3492   0.4639   0.4782
     0.5602   0.5936   0.6784   0.6941   0.7026   0.7747   0.7795   0.8788
     0.9232   0.9377   0.9782   1.1008   1.7875   1.7889   1.8611   1.8614
     2.7707   3.7335   3.8535   3.8955   3.9135   3.9879   4.0305   4.0500
     4.0525   4.0866   4.1925

     the Fermi energy is     3.5150 ev

!    total energy              =   -2974.00261713 Ry
     estimated scf accuracy    <       0.00000007 Ry
     smearing contrib. (-TS)   =      -0.02183007 Ry
     internal energy E=F+TS    =   -2973.98078706 Ry

     The total energy is F=E-TS. E is the sum of the following terms:
     one-electron contribution =  -23848.07094160 Ry
     hartree contribution      =   12018.45184582 Ry
     xc contribution           =    -494.03683665 Ry
     ewald contribution        =    9349.67364743 Ry
     electric field correction =       0.00149794 Ry

     convergence has been achieved in  62 iterations

     Forces acting on atoms (cartesian axes, Ry/au):

     atom    1 type  1   force =     0.00004116   -0.00024031    0.09647657
     atom    2 type  1   force =     0.00005478   -0.00044143   -0.17542921
     atom    3 type  2   force =     0.00011514   -0.00009727   -0.02475480
     atom    4 type  2   force =     0.00004273   -0.00157802    0.05348342
     atom    5 type  2   force =    -0.01195720   -0.00100594    0.00309125
     atom    6 type  2   force =     0.01369793   -0.00064996    0.00292774
     atom    7 type  1   force =     0.00074301    0.00069142   -0.00680367
     atom    8 type  1   force =     0.00022120    0.00948433    0.02714578
     atom    9 type  2   force =    -0.00014826   -0.00006516   -0.00005130
     atom   10 type  2   force =    -0.00204618    0.00048580   -0.01820481
     atom   11 type  2   force =    -0.00057502    0.00032936    0.00012755
     atom   12 type  2   force =     0.00068068    0.00013278    0.00031787
     atom   13 type  1   force =    -0.00015506   -0.00009456   -0.00011887
     atom   14 type  1   force =    -0.00040570   -0.00013965    0.00025479
     atom   15 type  2   force =     0.00003285   -0.00058217    0.00066615
     atom   16 type  2   force =    -0.00025999   -0.00007473   -0.00030838
     atom   17 type  2   force =    -0.00025737    0.00015883   -0.00025763
     atom   18 type  2   force =     0.00005500    0.00016027   -0.00023617
     atom   19 type  1   force =    -0.00032742    0.00021360   -0.00010200
     atom   20 type  1   force =    -0.00043877   -0.00007232    0.00040743
     atom   21 type  2   force =     0.00008656    0.00001432    0.10323105
     atom   22 type  2   force =     0.00005859    0.00034262   -0.00011048
     atom   23 type  2   force =    -0.07146586   -0.00008753   -0.02775305
     atom   24 type  2   force =     0.07142258    0.00036469   -0.02782300
     atom   25 type  1   force =     0.00018029   -0.00034213    0.09614171
     atom   26 type  1   force =     0.00000417   -0.00037626   -0.17575076
     atom   27 type  2   force =     0.00021092   -0.00020818   -0.02375061
     atom   28 type  2   force =     0.00002470   -0.00128208    0.05294601
     atom   29 type  2   force =    -0.01219811    0.00023717    0.00291833
     atom   30 type  2   force =     0.01385950    0.00081614    0.00273697
     atom   31 type  1   force =     0.00041643    0.00344100   -0.00983789
     atom   32 type  1   force =     0.00036895   -0.01131572    0.02755108
     atom   33 type  2   force =     0.00010017    0.00014355    0.00001068
     atom   34 type  2   force =    -0.00188359   -0.00045168   -0.02414832
     atom   35 type  2   force =     0.00041308    0.00002891   -0.00026270
     atom   36 type  2   force =    -0.00030172   -0.00006825    0.00008315
     atom   37 type  1   force =    -0.00030136   -0.00012683    0.00011913
     atom   38 type  1   force =    -0.00079534    0.00013089   -0.00049669
     atom   39 type  2   force =     0.00009218   -0.00031995   -0.00024945
     atom   40 type  2   force =     0.00019488    0.00033759    0.00047144
     atom   41 type  2   force =     0.00019975    0.00011470   -0.00030134
     atom   42 type  2   force =    -0.00039843   -0.00006809   -0.00032862
     atom   43 type  1   force =     0.00031535    0.00075437    0.00004099
     atom   44 type  1   force =    -0.00008042    0.00119736   -0.00060039
     atom   45 type  2   force =     0.00008655   -0.00002659    0.10322531
     atom   46 type  2   force =    -0.07146755   -0.00002794   -0.02776516
     atom   47 type  2   force =     0.07142591    0.00039885   -0.02782160
     atom   48 type  3   force =    -0.00044544    0.00008532   -0.00151669
     atom   49 type  3   force =    -0.00007808   -0.00041089    0.00133557
     atom   50 type  4   force =     0.00012742    0.00057116    0.00036106
     atom   51 type  5   force =     0.00113731   -0.00071373   -0.00028780
     atom   52 type  5   force =    -0.00011026    0.00012207   -0.00015635
     atom   53 type  5   force =    -0.00005117   -0.00065187    0.00014867
     atom   54 type  2   force =     0.01399953   -0.00575468   -0.00342851
     atom   55 type  5   force =     0.00092284   -0.00092689   -0.00041602
     atom   56 type  5   force =    -0.01518385    0.00744369    0.00285255

     Total force =     0.368690     Total SCF correction =     0.000611
  @ DRIVER MODE: Message from server: STATUS
  @ DRIVER MODE: Message from server: GETFORCE
  @ DRIVER MODE: Returning v,forces,stress,ensemble

     Writing output data file ./calc.save/
  @ DRIVER MODE: Message from server: EXIT
  @ DRIVE MODE: Exiting

     General routines

     Parallel routines

   This run was terminated on:  14: 2: 5  10Sep2021

   JOB DONE.