     Program PWSCF v.6.8 starts on 23Aug2021 at 19: 3:48

     R & G space division:  proc/nbgrp/npool/nimage =      72

     Reading input from /storage/home/hcoda1/3/ntian30/research/carbon/CH3_end_on/ads_slab/CH3N_a/CH3_end_on.log/pw.inp
Warning: card &CELL ignored
Warning: card   CELL_DYNAMICS='IPI', ignored
Warning: card / ignored

     Current dimensions of program PWSCF are:
     Max number of different atomic species (ntypx) = 10
     Max number of k-points (npk) =  40000
     Max angular momentum in pseudopotentials (lmaxx) =  4
     Presently no symmetry can be used with electric field

     Message from routine cell_base_init:
     DEPRECATED: use true lattice parameter, not A to a.u. conversion factor

     IMPORTANT: XC functional enforced from input :
     Exchange-correlation= BEEF-VDW
                           (   1   4  43  14   2   0   0)
     Any further DFT definition will be discarded
     Please, verify this is what you really want

  @ DRIVER MODE: Connecting to
 qe_1139763_2634946.sched-torque.pace.gatech.eduxvb707ws_scratch
  using UNIX socket
  @ DRIVER MODE: Message from server: STATUS
  @ DRIVER MODE: Message from server: INIT
  @ DRIVER MODE: Receiving replica           0          -1
  @ DRIVER MODE: Receiving encoded integer          25
  @ DRIVER MODE:  SCF:  T  FORCE:  T  STRESS:  F  VC:  F  ENSEMBLE:  F
  @ DRIVER MODE:  SCF:  T  FORCE:  T  STRESS:  F  VC:  F  ENSEMBLE:  F

     Using Slab Decomposition

     bravais-lattice index     =            0
     lattice parameter (alat)  =       1.8897  a.u.
     unit-cell volume          =    6658.9804 (a.u.)^3
     number of atoms/cell      =           52
     number of atomic types    =            5
     number of electrons       =       390.00
     number of Kohn-Sham states=          205
     kinetic-energy cutoff     =      29.3995  Ry
     charge density cutoff     =     293.9946  Ry
     scf convergence threshold =      7.3E-08
     mixing beta               =       0.0500
     number of iterations used =            8  plain     mixing
     Exchange-correlation= BEEF-VDW
                           (   1   4  43  14   2   0   0)

     celldm(1)=   1.889726  celldm(2)=   0.000000  celldm(3)=   0.000000
     celldm(4)=   0.000000  celldm(5)=   0.000000  celldm(6)=   0.000000

     crystal axes: (cart. coord. in units of alat)
               a(1) = (   6.579727   0.000000   0.000000 )
               a(2) = (  -0.000775   5.961596   0.000000 )
               a(3) = (   0.000000   0.000000  25.155947 )

     reciprocal axes: (cart. coord. in units 2 pi/alat)
               b(1) = (  0.151982  0.000020  0.000000 )
               b(2) = (  0.000000  0.167740  0.000000 )
               b(3) = (  0.000000  0.000000  0.039752 )

     PseudoPot. # 1 for Ti read from file:
     /storage/coda1/p-amedford6/0/shared/rich_project_chbe-medford/medford-share/data/pseudos_module/espresso/nninc/pbe/van/Ti.UPF
     MD5 check sum: 8e4df49b7f0d34bbd5052bf3f5ea0213
     Pseudo is Ultrasoft, Zval = 12.0
     Generated by new atomic code, or converted to UPF format
     Using radial grid of  851 points,  6 beta functions with:
                l(1) =   0
                l(2) =   0
                l(3) =   1
                l(4) =   1
                l(5) =   2
                l(6) =   2
     Q(r) pseudized with  8 coefficients,  rinner =    1.000   1.000   1.000
                                                       1.000   1.000

     PseudoPot. # 2 for O  read from file:
     /storage/coda1/p-amedford6/0/shared/rich_project_chbe-medford/medford-share/data/pseudos_module/espresso/nninc/pbe/van/O.UPF
     MD5 check sum: 78c19812648e8988a0fe644b0f25305e
     Pseudo is Ultrasoft, Zval =  6.0
     Generated by new atomic code, or converted to UPF format
     Using radial grid of  737 points,  4 beta functions with:
                l(1) =   0
                l(2) =   0
                l(3) =   1
                l(4) =   1
     Q(r) pseudized with  8 coefficients,  rinner =    0.800   0.800   0.800

     PseudoPot. # 3 for N  read from file:
     /storage/coda1/p-amedford6/0/shared/rich_project_chbe-medford/medford-share/data/pseudos_module/espresso/nninc/pbe/van/N.UPF
     MD5 check sum: 90d10febe142ad51ac9d5be1deb811c4
     Pseudo is Ultrasoft, Zval =  5.0
     Generated by new atomic code, or converted to UPF format
     Using radial grid of  729 points,  4 beta functions with:
                l(1) =   0
                l(2) =   0
                l(3) =   1
                l(4) =   1
     Q(r) pseudized with  8 coefficients,  rinner =    0.800   0.800   0.800

     PseudoPot. # 4 for C  read from file:
     /storage/coda1/p-amedford6/0/shared/rich_project_chbe-medford/medford-share/data/pseudos_module/espresso/nninc/pbe/van/C.UPF
     MD5 check sum: 1a69bf6b8db32088f5b2163dbdb77a27
     Pseudo is Ultrasoft, Zval =  4.0
     Generated by new atomic code, or converted to UPF format
     Using radial grid of  721 points,  4 beta functions with:
                l(1) =   0
                l(2) =   0
                l(3) =   1
                l(4) =   1
     Q(r) pseudized with  8 coefficients,  rinner =    0.800   0.800   0.800

     PseudoPot. # 5 for H  read from file:
     /storage/coda1/p-amedford6/0/shared/rich_project_chbe-medford/medford-share/data/pseudos_module/espresso/nninc/pbe/van/H.UPF
     MD5 check sum: b5ee9d7bfd3a09ee7748110bda690ff7
     Pseudo is Ultrasoft, Zval =  1.0
     Generated by new atomic code, or converted to UPF format
     Using radial grid of  615 points,  1 beta functions with:
                l(1) =   0
     Q(r) pseudized with  8 coefficients,  rinner =    0.800

     atomic species   valence    mass     pseudopotential
        Ti1           12.00    47.86700     Ti( 1.00)
        O1             6.00    15.99900     O ( 1.00)
        N1             5.00    14.00700     N ( 1.00)
        C1             4.00    12.01100     C ( 1.00)
        H1             1.00     1.00800     H ( 1.00)

     No symmetry found

   Cartesian axes

     site n.     atom                  positions (alat units)
         1           Ti1 tau(   1) = (   0.0004258   2.9801865   6.0000000  )
         2           Ti1 tau(   2) = (   3.2906075   1.4906267   6.0002472  )
         3           O1  tau(   3) = (   0.0006271   0.0005054   7.9858123  )
         4           O1  tau(   4) = (   3.2906025   0.0005020   7.3038282  )
         5           O1  tau(   5) = (   4.5942328   1.4918067   9.2879030  )
         6           O1  tau(   6) = (   1.9868534   1.4903216   9.2879459  )
         7           Ti1 tau(   7) = (   3.2907910   2.8959150   9.1758416  )
         8           Ti1 tau(   8) = (   0.0015273   1.4827037   9.2680791  )
         9           O1  tau(   9) = (   3.2699222   5.9536033  11.3554233  )
        10           O1  tau(  10) = (   0.0116148   5.9584955  10.6183126  )
        11           O1  tau(  11) = (   1.2760981   1.4902538  12.6495331  )
        12           O1  tau(  12) = (   5.2666461   1.4980809  12.6127452  )
        13           Ti1 tau(  13) = (   6.5538232   2.9519463  12.5986591  )
        14           Ti1 tau(  14) = (   3.2780242   1.4849004  12.5045904  )
        15           O1  tau(  15) = (   6.5029322   0.0546631  14.6354764  )
        16           O1  tau(  16) = (   3.2973926   0.0171946  13.9606865  )
        17           O1  tau(  17) = (   4.4960542   1.5195597  16.1876360  )
        18           O1  tau(  18) = (   1.9840545   1.4896563  16.1007476  )
        19           Ti1 tau(  19) = (   3.2258645   2.9847238  15.7364371  )
        20           Ti1 tau(  20) = (   6.5382061   1.4270968  16.0920740  )
        21           O1  tau(  21) = (   3.2904802   0.0005063   4.7018136  )
        22           O1  tau(  22) = (   6.5463944   5.8629434  17.1590714  )
        23           O1  tau(  23) = (   1.3043587   1.4918075   6.0039043  )
        24           O1  tau(  24) = (   5.2767064   1.4903225   6.0039473  )
        25           Ti1 tau(  25) = (   0.0000382   5.9609847   6.0000000  )
        26           Ti1 tau(  26) = (   3.2902200   4.4714249   6.0002472  )
        27           O1  tau(  27) = (   0.0002396   2.9813036   7.9858123  )
        28           O1  tau(  28) = (   3.2902150   2.9813002   7.3038282  )
        29           O1  tau(  29) = (   4.5938453   4.4726049   9.2879030  )
        30           O1  tau(  30) = (   1.9864658   4.4711199   9.2879459  )
        31           Ti1 tau(  31) = (   3.2891106   5.8743827   9.1763621  )
        32           Ti1 tau(  32) = (   0.0006254   4.4649316   9.2693709  )
        33           O1  tau(  33) = (   3.2664227   2.9848571  11.3540358  )
        34           O1  tau(  34) = (   0.0092240   2.9805883  10.6323155  )
        35           O1  tau(  35) = (   1.2759511   4.4767355  12.6779455  )
        36           O1  tau(  36) = (   5.2674172   4.4692992  12.6414261  )
        37           Ti1 tau(  37) = (  -0.0007426   5.9432387  12.5103267  )
        38           Ti1 tau(  38) = (   3.2812793   4.4629601  12.5102583  )
        39           O1  tau(  39) = (   6.5213654   2.9547334  14.7940495  )
        40           O1  tau(  40) = (   3.2796844   2.9696623  13.9426451  )
        41           O1  tau(  41) = (   4.4880643   4.4546178  16.1257439  )
        42           O1  tau(  42) = (   1.9873624   4.4847864  16.0203396  )
        43           Ti1 tau(  43) = (   3.2694461   0.0036575  15.7573890  )
        44           Ti1 tau(  44) = (   6.5473833   4.6119939  15.7769242  )
        45           O1  tau(  45) = (   3.2900926   2.9813045   4.7018136  )
        46           O1  tau(  46) = (   1.3039711   4.4726057   6.0039043  )
        47           O1  tau(  47) = (   5.2763189   4.4711207   6.0039473  )
        48           N1  tau(  48) = (   1.0037513   3.0486814  17.5355748  )
        49           C1  tau(  49) = (   0.7485692   3.8840760  18.6971503  )
        50           H1  tau(  50) = (   0.6711064   4.9240759  18.3553590  )
        51           H1  tau(  51) = (   6.3905656   3.6202211  19.2048319  )
        52           H1  tau(  52) = (   1.5854369   3.7976686  19.3867600  )

     number of k points=    10  Fermi-Dirac smearing, width (Ry)=  0.0073
                       cart. coord. in units 2pi/alat
        k(    1) = (   0.0000000   0.0000000   0.0000000), wk =   0.1250000
        k(    2) = (   0.0000000   0.0419351   0.0000000), wk =   0.2500000
        k(    3) = (   0.0000000  -0.0838702   0.0000000), wk =   0.1250000
        k(    4) = (   0.0379955   0.0000049   0.0000000), wk =   0.2500000
        k(    5) = (   0.0379955   0.0419400   0.0000000), wk =   0.2500000
        k(    6) = (   0.0379955  -0.0838652   0.0000000), wk =   0.2500000
        k(    7) = (   0.0379955  -0.0419301   0.0000000), wk =   0.2500000
        k(    8) = (  -0.0759910  -0.0000099   0.0000000), wk =   0.1250000
        k(    9) = (  -0.0759910   0.0419252   0.0000000), wk =   0.2500000
        k(   10) = (  -0.0759910  -0.0838800   0.0000000), wk =   0.1250000

     Initial potential from superposition of free atoms

     starting charge  373.99917, renormalised to  390.00000

[...]
     atom   13 type  1   force =     0.00001806   -0.00205377    0.01625534
     atom   14 type  1   force =    -0.00046245   -0.00083590    0.01094428
     atom   15 type  2   force =     0.00746678    0.02280365   -0.00883840
     atom   16 type  2   force =     0.00060987   -0.00035013   -0.01943518
     atom   17 type  2   force =     0.00559835    0.00227283   -0.00108749
     atom   18 type  2   force =     0.04407818   -0.05642325   -0.05579376
     atom   19 type  1   force =    -0.01478061   -0.00733035    0.04421798
     atom   20 type  1   force =     0.02565901    0.03833433    0.02839588
     atom   21 type  2   force =     0.00012245   -0.00002512    0.10356190
     atom   22 type  2   force =    -0.01498627    0.04361168   -0.02551652
     atom   23 type  2   force =    -0.07092333   -0.00014742   -0.02740040
     atom   24 type  2   force =     0.07089331    0.00032629   -0.02744149
     atom   25 type  1   force =     0.00016428   -0.00018600    0.09455236
     atom   26 type  1   force =    -0.00000529   -0.00029977   -0.17672614
     atom   27 type  2   force =     0.00010356   -0.00027838   -0.02151943
     atom   28 type  2   force =     0.00003162   -0.00141511    0.05553938
     atom   29 type  2   force =    -0.01190706    0.00019754    0.00549290
     atom   30 type  2   force =     0.01275625    0.00080631    0.00310694
     atom   31 type  1   force =    -0.00102403    0.00406756   -0.01197475
     atom   32 type  1   force =     0.00100858   -0.01422622    0.01605638
     atom   33 type  2   force =     0.00032951    0.00009594   -0.00288911
     atom   34 type  2   force =    -0.00200464    0.00214455   -0.01346700
     atom   35 type  2   force =    -0.00038864    0.00071451   -0.00328015
     atom   36 type  2   force =     0.00084197    0.00082086   -0.00332229
     atom   37 type  1   force =     0.00015440    0.00103448    0.01279206
     atom   38 type  1   force =    -0.00040196    0.00043869    0.01005157
     atom   39 type  2   force =    -0.00496936    0.00097646   -0.02235469
     atom   40 type  2   force =    -0.00001152    0.00074929   -0.02006747
     atom   41 type  2   force =    -0.00097193   -0.00156715   -0.00523031
     atom   42 type  2   force =     0.01926397    0.02829457   -0.02907703
     atom   43 type  1   force =    -0.00892484    0.00842754    0.01905710
     atom   44 type  1   force =    -0.00743009   -0.05917327    0.01641488
     atom   45 type  2   force =     0.00012241   -0.00007311    0.10351695
     atom   46 type  2   force =    -0.07093378   -0.00007210   -0.02740127
     atom   47 type  2   force =     0.07090646    0.00032721   -0.02742750
     atom   48 type  3   force =    -0.07585895    0.03057043    0.03576831
     atom   49 type  4   force =     0.02998453   -0.05956502   -0.02029794
     atom   50 type  5   force =    -0.00344705    0.00295233    0.02050064
     atom   51 type  5   force =    -0.00476920    0.00494978   -0.00220861
     atom   52 type  5   force =     0.00475928   -0.00134714    0.01534429

     Total force =     0.416311     Total SCF correction =     0.000412
  @ DRIVER MODE: Message from server: STATUS
  @ DRIVER MODE: Message from server: GETFORCE
  @ DRIVER MODE: Returning v,forces,stress,ensemble

     Writing config to output data dir ./calc.save/
  @ DRIVER MODE: Message from server: STATUS
  @ DRIVER MODE: Message from server: INIT
  @ DRIVER MODE: Receiving replica           0           0
  @ DRIVER MODE: Receiving encoded integer          25
  @ DRIVER MODE:  SCF:  T  FORCE:  T  STRESS:  F  VC:  F  ENSEMBLE:  F
  @ DRIVER MODE:  SCF:  T  FORCE:  T  STRESS:  F  VC:  F  ENSEMBLE:  F
  @ DRIVER MODE: Message from server: STATUS
  @ DRIVER MODE: Message from server: POSDATA
  @ DRIVER MODE: Reading and sharing positions
  @ DRIVER MODE: Received positions
     NEW-OLD atomic charge density approx. for the potential

[...]

     iteration #  6     ecut=    29.40 Ry     beta= 0.05
     Davidson diagonalization with overlap
     c_bands:  1 eigenvalues not converged
     c_bands:  1 eigenvalues not converged
     ethr =  3.22E-07,  avg # of iterations = 10.0

[...]

     Self-consistent Calculation

[...]

     total energy              =   -2919.13188847 Ry
     estimated scf accuracy    <       0.00000008 Ry

     iteration # 21     ecut=    29.40 Ry     beta= 0.05
     Davidson diagonalization with overlap
     ethr =  2.01E-11,  avg # of iterations =  5.8

[...]

     End of self-consistent calculation

[...]

          k = 0.0380-0.0419 0.0000 ( 17876 PWs)   bands (ev):

[...]

          k =-0.0760-0.0839 0.0000 ( 17948 PWs)   bands (ev):

   -56.8703 -56.8700 -55.9939 -55.9882 -55.9817 -55.9810 -55.8503 -55.8350
   -55.6308 -55.6249 -55.5450 -55.5343 -55.5341 -55.4415 -54.9592 -54.9281
   -33.1477 -33.1474 -33.1318 -33.1317 -33.0161 -33.0159 -32.3099 -32.3075
   -32.2983 -32.2917 -32.2385 -32.2353 -32.1965 -32.1927 -32.1915 -32.1875
   -32.1835 -32.1806 -32.1785 -32.1769 -32.1007 -32.0886 -32.0495 -32.0377
   -31.9813 -31.9728 -31.9131 -31.9072 -31.8787 -31.8786 -31.8731 -31.8295
   -31.8278 -31.7981 -31.7613 -31.7599 -31.7597 -31.7207 -31.7207 -31.7187
   -31.6843 -31.6449 -31.3620 -31.2845 -31.1889 -31.1618 -31.1498 -31.1083
   -16.3999 -16.3979 -16.3651 -16.3648 -16.0960 -16.0924 -16.0461 -16.0428
   -15.8712 -15.8640 -15.6593 -15.6504 -15.6432 -15.6405 -15.5127 -15.5070
   -15.4436 -15.4294 -15.3414 -15.3390 -15.2761 -15.2700 -15.2314 -15.2117
   -14.9016 -14.8840 -14.7720 -14.7466 -14.5826 -14.0433 -14.0432 -13.0972
    -7.8016  -3.4985  -3.4977  -3.4342  -3.4332  -3.3087  -3.3028  -3.2297
    -3.2289  -3.1274  -3.1237  -3.0791  -2.9958  -2.9845  -2.9815  -2.9706
    -2.9581  -2.8298  -2.8274  -2.8162  -2.8002  -2.7442  -2.7419  -2.7291
    -2.6524  -2.6377  -2.6037  -2.5655  -2.4566  -2.4432  -2.4299  -2.3984
    -2.3428  -2.3287  -2.3157  -2.2741  -2.2498  -2.1627  -2.1070  -2.0546
    -1.9387  -1.9356  -1.9271  -1.9116  -1.7604  -1.7186  -1.6909  -1.6838
    -1.6756  -1.6319  -1.5337  -1.5270  -1.3923  -1.3918  -1.3118  -1.2330
    -1.2153  -1.1853  -1.0553  -1.0148  -0.9783  -0.9701  -0.9427  -0.9230
    -0.8995  -0.8621  -0.7208  -0.7076  -0.6706  -0.6356  -0.6306  -0.5749
    -0.5172  -0.4373  -0.3608  -0.3598  -0.3055  -0.2329  -0.1726  -0.0913
    -0.0777  -0.0731   0.2071   0.2867   0.3790   0.4555   0.5240   0.5774
     0.6122   0.6771   0.7156   0.8487   0.8533   0.8711   0.8714   0.9335
     0.9351   1.3375   1.9360   2.9606   2.9610   3.0278   3.0282   3.3517
     3.3576   3.4658   3.4753   3.5864   3.5887

     the Fermi energy is     2.2265 ev

!    total energy              =   -2919.13189561 Ry
     estimated scf accuracy    <       0.00000002 Ry
     smearing contrib. (-TS)   =      -0.00481304 Ry
     internal energy E=F+TS    =   -2919.12708257 Ry

     The total energy is F=E-TS. E is the sum of the following terms:
     one-electron contribution =  -24569.38574426 Ry
     hartree contribution      =   12368.91845006 Ry
     xc contribution           =    -479.89987147 Ry
     ewald contribution        =    9761.23995569 Ry
     electric field correction =       0.00012740 Ry

     convergence has been achieved in  21 iterations

     Forces acting on atoms (cartesian axes, Ry/au):

     atom    1 type  1   force =     0.00004622   -0.00051970    0.12424290
     atom    2 type  1   force =    -0.00010035   -0.00057634   -0.16067685
     atom    3 type  2   force =     0.00022158   -0.00025983   -0.06811243
     atom    4 type  2   force =    -0.00000202   -0.00034182    0.02758793
     atom    5 type  2   force =    -0.01620308    0.00172449   -0.00936721
     atom    6 type  2   force =     0.01825725    0.00226077   -0.00891949
     atom    7 type  1   force =     0.00112773   -0.00385583    0.02203601
     atom    8 type  1   force =    -0.00062497   -0.00327001    0.11123573
     atom    9 type  2   force =    -0.00008981    0.00143725   -0.00037337
     atom   10 type  2   force =    -0.00190621    0.00176710   -0.07346591
     atom   11 type  2   force =     0.00085545    0.00003870    0.00009109
     atom   12 type  2   force =    -0.00066772    0.00023684    0.00014527
     atom   13 type  1   force =     0.00006822    0.00026045   -0.00041729
     atom   14 type  1   force =    -0.00099675   -0.00021257   -0.00048949
     atom   15 type  2   force =    -0.00007757   -0.00023222    0.00008610
     atom   16 type  2   force =     0.00000640    0.00110285    0.00077450
     atom   17 type  2   force =     0.00008425    0.00023528   -0.00045693
     atom   18 type  2   force =     0.00002919    0.00024805   -0.00009560
     atom   19 type  1   force =     0.00009533   -0.00001535   -0.00074754
     atom   20 type  1   force =     0.00028405   -0.00098010    0.00010363
     atom   21 type  2   force =     0.00003989   -0.00008169    0.09973964
     atom   22 type  2   force =     0.00015628   -0.00049777   -0.00008789
     atom   23 type  2   force =    -0.07918928   -0.00007418   -0.03242632
     atom   24 type  2   force =     0.07905692    0.00036044   -0.03245640
     atom   25 type  1   force =     0.00003251   -0.00051611    0.12368730
     atom   26 type  1   force =    -0.00010623   -0.00053024   -0.16068330
     atom   27 type  2   force =     0.00032449   -0.00050173   -0.06716582
     atom   28 type  2   force =     0.00002599   -0.00016241    0.02728124
     atom   29 type  2   force =    -0.01660222    0.00132730   -0.00957403
     atom   30 type  2   force =     0.01854389    0.00163158   -0.00914581
     atom   31 type  1   force =     0.00110521   -0.00131942    0.02158985
     atom   32 type  1   force =    -0.00052433    0.00067903    0.11188140
     atom   33 type  2   force =    -0.00036811   -0.00117918    0.00015328
     atom   34 type  2   force =    -0.00156736    0.00133805   -0.07239542
     atom   35 type  2   force =    -0.00181847   -0.00019573    0.00031198
     atom   36 type  2   force =     0.00071175   -0.00043587   -0.00006276
     atom   37 type  1   force =     0.00073831   -0.00028314    0.00074662
     atom   38 type  1   force =    -0.00014816    0.00055422    0.00021880
     atom   39 type  2   force =     0.00018669   -0.00031542   -0.00038982
     atom   40 type  2   force =     0.00015705   -0.00015820    0.00035573
     atom   41 type  2   force =     0.00002767    0.00051175   -0.00008449
     atom   42 type  2   force =     0.00024359    0.00062300   -0.00006066
     atom   43 type  1   force =     0.00039767    0.00015897   -0.00038477
     atom   44 type  1   force =    -0.00024857    0.00010888    0.00015382
     atom   45 type  2   force =     0.00002365   -0.00008611    0.09975839
     atom   46 type  2   force =    -0.07919828   -0.00002654   -0.03243090
     atom   47 type  2   force =     0.07906898    0.00040661   -0.03245570
     atom   48 type  3   force =    -0.00002053   -0.00089935   -0.00060763
     atom   49 type  4   force =    -0.00053349   -0.00013514    0.00081634
     atom   50 type  5   force =    -0.00070499    0.00002922    0.00016063
     atom   51 type  5   force =     0.00019390    0.00015075    0.00021139
     atom   52 type  5   force =    -0.00041166    0.00047041    0.00016424

     Total force =     0.424616     Total SCF correction =     0.000730
  @ DRIVER MODE: Message from server: STATUS
  @ DRIVER MODE: Message from server: GETFORCE
  @ DRIVER MODE: Returning v,forces,stress,ensemble

     Writing config to output data dir ./calc.save/
  @ DRIVER MODE: Message from server: STATUS
  @ DRIVER MODE: Message from server: INIT
  @ DRIVER MODE: Receiving replica           0           0
  @ DRIVER MODE: Receiving encoded integer           2
  @ DRIVER MODE:  SCF:  T  FORCE:  T  STRESS:  F  VC:  F  ENSEMBLE:  F
  @ DRIVER MODE:  SCF:  F  FORCE:  F  STRESS:  F  VC:  F  ENSEMBLE:  T
  @ DRIVER MODE: Message from server: STATUS
  @ DRIVER MODE: Message from server: POSDATA
  @ DRIVER MODE: Reading and sharing positions
  @ DRIVER MODE: Received positions
     NEW-OLD atomic charge density approx. for the potential

[...]

     Adding external electric field

     Computed dipole along edir(3) :
        Dipole                0.2598 Ry au,          0.6604 Debye
        Dipole field          0.0005 Ry au,

        Potential amp.       -0.0455 Ry
        Total length         46.3494 bohr

  @ DRIVER MODE: BEEF-vdw

[...]

     negative rho (up, down):  1.787E-02 0.000E+00

     negative rho (up, down):  1.787E-02 0.000E+00
 BEEFens 2000 ensemble energies
             -0.344494003165556E+02
             -0.201483822126619E+01
             -0.709344931455531E+01
              0.239093965930386E+02
             -0.118337318578685E+02
             -0.915194520401116E+01
             -0.238840928942083E+02
             -0.499684742996671E+02
             -0.213148684299481E+02
             -0.224553742713986E+02
             -0.208844059488398E+02
              0.423189977992166E+01
              0.198692000636241E+01
             -0.105673528738039E+01
              0.170823913920651E+01
              0.263361432367068E+02
             -0.101328204853152E+02
             -0.715824840035800E+01
              0.116916952361083E+02
             -0.615116361464436E+02
              0.308518380731383E+02
             -0.132476206076021E+02
             -0.238414078009090E+01
             -0.554940744130667E+01
             -0.978576411208508E+00
             -0.210184685384445E+01
              0.476956130648619E+02
             -0.149515178424813E+02
             -0.397182258908009E+01
             -0.301917279570501E+02
              0.389966145974113E+02
             -0.430599930072005E+01
             -0.212232018092258E+02
              0.111441061995023E+02
             -0.203932573385785E+01
              0.129554809957021E+02
             -0.537829090082738E+00
              0.270598016559525E+01
              0.188385332133509E+02
             -0.542718595859114E+02
              0.302382834862808E+02
              0.807835205937255E+01
             -0.622197078735348E+01
             -0.173533270837829E+02
              0.685501314048017E+01
             -0.108731312206065E+02
              0.247389805917174E+02
              0.197608198858735E+02
             -0.127317191509921E+02
             -0.162763472564818E+02
             -0.172161905740371E+02
             -0.206576448089664E+02
              0.104947755261229E+02
             -0.268996977493992E+02
              0.823618575469072E+01
              0.343844216263751E+02
              0.396507613702667E+02
              0.184605044253537E+02
              0.822682854952545E+01
              0.172262014861872E+02
[...]
             -0.405435230583504E+02
              0.276582990438254E+01
             -0.146297348376923E+01
             -0.564831610271887E+01
              0.588055880477327E-01
             -0.360939184976600E+02
             -0.696212282813875E+01
              0.488520956931875E+01
              0.737075095699981E+01
              0.270500645876530E+02
             -0.236533643115099E+02
              0.308273159498107E+02
             -0.220802544106416E+02
              0.141969794931805E+02
              0.223544119570593E+02

 BEEF-vdW xc energy contributions
           1 :   -406.648435047225
           2 :    354.364537625105
           3 :   -269.913033161588
           4 :    181.653290957630
           5 :   -112.266592051570
           6 :    70.8148788684871
           7 :   -53.5962498167609
           8 :    50.5742034691594
           9 :   -52.3103824946436
          10 :    53.5834307137632
          11 :   -53.1801883994710
          12 :    51.6561673709147
          13 :   -49.4293748173516
          14 :    46.2638196739794
          15 :   -41.8374749531723
          16 :    36.3976725163954
          17 :   -30.8725190917626
          18 :    26.4138480624112
          19 :   -23.8054699235027
          20 :    23.1355708094753
          21 :   -23.8931152450432
          22 :    25.3174095521363
          23 :   -26.7269940703434
          24 :    27.6441262390543
          25 :   -27.7634699794062
          26 :    26.9069173708956
          27 :   -25.0541588219334
          28 :    22.4158530607909
          29 :   -19.4600029910039
          30 :    16.8085013307785
          31 :   -47.7702177951111
          32 :   -32.4494992809778
  @ DRIVER MODE: Message from server: STATUS
  @ DRIVER MODE: Message from server: GETFORCE
  @ DRIVER MODE: Returning v,forces,stress,ensemble
  @ DRIVE MODE: Returning Ensemble Energies

     Writing config to output data dir ./calc.save/
  @ DRIVER MODE: Message from server: EXIT
  @ DRIVE MODE: Exiting

     General routines

     Parallel routines

   This run was terminated on:   6:44: 1  24Aug2021

   JOB DONE.