     Program PWSCF v.6.7GPU starts on 23Sep2021 at 13:30: 3

     R & G space division:  proc/nbgrp/npool/nimage =      10
     Reading input from /storage/home/hcoda1/3/ntian30/research/carbon/CxH_vib/H2O_calc/ads_slab/CHNHNH2H2O_b/out_0059/pw.inp
Warning: card &CELL ignored
Warning: card   CELL_DYNAMICS='IPI', ignored
Warning: card / ignored

     Current dimensions of program PWSCF are:
     Max number of different atomic species (ntypx) = 10
     Max number of k-points (npk) =  40000
     Max angular momentum in pseudopotentials (lmaxx) =  3
     Presently no symmetry can be used with electric field

     Message from routine cell_base_init:
     DEPRECATED: use true lattice parameter, not A to a.u. conversion factor

     IMPORTANT: XC functional enforced from input :
     Exchange-correlation= BEEF-VDW
                           (   1   4  43  14   2   0   0)
     Any further DFT definition will be discarded
     Please, verify this is what you really want

  @ DRIVER MODE: Connecting to
 qe_1139763_2937312.sched-torque.pace.gatech.edu9j0ui5a2_scratch
  using UNIX socket
  @ DRIVER MODE: Message from server: STATUS
  @ DRIVER MODE: Message from server: INIT
  @ DRIVER MODE: Receiving replica           0          -1
  @ DRIVER MODE: Receiving encoded integer          25
  @ DRIVER MODE:  SCF:  T  FORCE:  T  STRESS:  F  VC:  F  ENSEMBLE:  F
  @ DRIVER MODE:  SCF:  T  FORCE:  T  STRESS:  F  VC:  F  ENSEMBLE:  F

     Using Slab Decomposition

     bravais-lattice index     =            0
     lattice parameter (alat)  =       1.8897  a.u.
     unit-cell volume          =    6658.9804 (a.u.)^3
     number of atoms/cell      =           57
     number of atomic types    =            5
     number of electrons       =       404.00
     number of Kohn-Sham states=          212
     kinetic-energy cutoff     =      29.3995  Ry
     charge density cutoff     =     293.9946  Ry
     scf convergence threshold =      7.3E-08
     mixing beta               =       0.0500
     number of iterations used =            8  plain     mixing
     Exchange-correlation= BEEF-VDW
                           (   1   4  43  14   2   0   0)

     celldm(1)=   1.889726  celldm(2)=   0.000000  celldm(3)=   0.000000
     celldm(4)=   0.000000  celldm(5)=   0.000000  celldm(6)=   0.000000

     crystal axes: (cart. coord. in units of alat)
               a(1) = (   6.579727   0.000000   0.000000 )
               a(2) = (  -0.000775   5.961596   0.000000 )
               a(3) = (   0.000000   0.000000  25.155947 )

     reciprocal axes: (cart. coord. in units 2 pi/alat)
               b(1) = (  0.151982  0.000020  0.000000 )
               b(2) = (  0.000000  0.167740  0.000000 )
               b(3) = (  0.000000  0.000000  0.039752 )

     PseudoPot. # 1 for Ti read from file:
     /storage/coda1/p-amedford6/0/shared/rich_project_chbe-medford/medford-share/data/pseudos_module/espresso/nninc/pbe/van/Ti.UPF
     MD5 check sum: 8e4df49b7f0d34bbd5052bf3f5ea0213
     Pseudo is Ultrasoft, Zval = 12.0
     Generated by new atomic code, or converted to UPF format
     Using radial grid of  851 points,  6 beta functions with:
                l(1) =   0
                l(2) =   0
                l(3) =   1
                l(4) =   1
                l(5) =   2
                l(6) =   2
     Q(r) pseudized with  8 coefficients,  rinner =    1.000   1.000   1.000
                                                       1.000   1.000

     PseudoPot. # 2 for O  read from file:
     /storage/coda1/p-amedford6/0/shared/rich_project_chbe-medford/medford-share/data/pseudos_module/espresso/nninc/pbe/van/O.UPF
     MD5 check sum: 78c19812648e8988a0fe644b0f25305e
     Pseudo is Ultrasoft, Zval =  6.0
     Generated by new atomic code, or converted to UPF format
     Using radial grid of  737 points,  4 beta functions with:
                l(1) =   0
                l(2) =   0
                l(3) =   1
                l(4) =   1
     Q(r) pseudized with  8 coefficients,  rinner =    0.800   0.800   0.800

     PseudoPot. # 3 for N  read from file:
     /storage/coda1/p-amedford6/0/shared/rich_project_chbe-medford/medford-share/data/pseudos_module/espresso/nninc/pbe/van/N.UPF
     MD5 check sum: 90d10febe142ad51ac9d5be1deb811c4
     Pseudo is Ultrasoft, Zval =  5.0
     Generated by new atomic code, or converted to UPF format
     Using radial grid of  729 points,  4 beta functions with:
                l(1) =   0
                l(2) =   0
                l(3) =   1
                l(4) =   1
     Q(r) pseudized with  8 coefficients,  rinner =    0.800   0.800   0.800

     PseudoPot. # 4 for C  read from file:
     /storage/coda1/p-amedford6/0/shared/rich_project_chbe-medford/medford-share/data/pseudos_module/espresso/nninc/pbe/van/C.UPF
     MD5 check sum: 1a69bf6b8db32088f5b2163dbdb77a27
     Pseudo is Ultrasoft, Zval =  4.0
     Generated by new atomic code, or converted to UPF format
     Using radial grid of  721 points,  4 beta functions with:
                l(1) =   0
                l(2) =   0
                l(3) =   1
                l(4) =   1
     Q(r) pseudized with  8 coefficients,  rinner =    0.800   0.800   0.800

     PseudoPot. # 5 for H  read from file:
     /storage/coda1/p-amedford6/0/shared/rich_project_chbe-medford/medford-share/data/pseudos_module/espresso/nninc/pbe/van/H.UPF
     MD5 check sum: b5ee9d7bfd3a09ee7748110bda690ff7
     Pseudo is Ultrasoft, Zval =  1.0
     Generated by new atomic code, or converted to UPF format
     Using radial grid of  615 points,  1 beta functions with:
                l(1) =   0
     Q(r) pseudized with  8 coefficients,  rinner =    0.800

     atomic species   valence    mass     pseudopotential
        Ti1           12.00    47.86700     Ti( 1.00)
        O1             6.00    15.99900     O ( 1.00)
        N1             5.00    14.00700     N ( 1.00)
        C1             4.00    12.01100     C ( 1.00)
        H1             1.00     1.00800     H ( 1.00)

     No symmetry found

   Cartesian axes

     site n.     atom                  positions (alat units)
         1           Ti1 tau(   1) = (   0.0004258   2.9801865   6.0000000  )
         2           Ti1 tau(   2) = (   3.2906075   1.4906267   6.0002472  )
         3           O1  tau(   3) = (   0.0006271   0.0005054   7.9858123  )
         4           O1  tau(   4) = (   3.2906025   0.0005020   7.3038282  )
         5           O1  tau(   5) = (   4.5942328   1.4918067   9.2879030  )
         6           O1  tau(   6) = (   1.9868534   1.4903216   9.2879459  )
         7           Ti1 tau(   7) = (   3.2907910   2.8959150   9.1758416  )
         8           Ti1 tau(   8) = (   0.0015273   1.4827037   9.2680791  )
         9           O1  tau(   9) = (   3.3066417   5.9496923  11.3845403  )
        10           O1  tau(  10) = (   0.0116148   5.9584955  10.6183126  )
        11           O1  tau(  11) = (   1.3010148   1.4986442  12.6442229  )
        12           O1  tau(  12) = (   5.3085967   1.5001388  12.6592367  )
        13           Ti1 tau(  13) = (   0.0282779   2.9853959  12.5065338  )
        14           Ti1 tau(  14) = (   3.3279724   1.4707331  12.5413945  )
        15           O1  tau(  15) = (   0.0378505   0.0859181  14.6860672  )
        16           O1  tau(  16) = (   3.3018867   0.0259462  14.0338077  )
        17           O1  tau(  17) = (   4.5998927   1.5484098  16.1661054  )
        18           O1  tau(  18) = (   2.0454451   1.5021798  16.2221046  )
        19           Ti1 tau(  19) = (   3.3206312   2.9825829  15.7321521  )
        20           Ti1 tau(  20) = (   0.0140791   1.4435866  15.9983415  )
        21           O1  tau(  21) = (   3.2904802   0.0005063   4.7018136  )
        22           O1  tau(  22) = (   6.5273045   5.8164216  17.2577718  )
        23           O1  tau(  23) = (   1.3043587   1.4918075   6.0039043  )
        24           O1  tau(  24) = (   5.2767064   1.4903225   6.0039473  )
        25           Ti1 tau(  25) = (   0.0000382   5.9609847   6.0000000  )
        26           Ti1 tau(  26) = (   3.2902200   4.4714249   6.0002472  )
        27           O1  tau(  27) = (   0.0002396   2.9813036   7.9858123  )
        28           O1  tau(  28) = (   3.2902150   2.9813002   7.3038282  )
        29           O1  tau(  29) = (   4.5938453   4.4726049   9.2879030  )
        30           O1  tau(  30) = (   1.9864658   4.4711199   9.2879459  )
        31           Ti1 tau(  31) = (   3.2891106   5.8743827   9.1763621  )
        32           Ti1 tau(  32) = (   0.0006254   4.4649316   9.2693709  )
        33           O1  tau(  33) = (   3.3068470   2.9864458  11.3814114  )
        34           O1  tau(  34) = (   0.0092240   2.9805883  10.6323155  )
        35           O1  tau(  35) = (   1.2982948   4.4740332  12.6840172  )
        36           O1  tau(  36) = (   5.3097620   4.4704985  12.6972095  )
        37           Ti1 tau(  37) = (   0.0348817   0.0130325  12.4954113  )
        38           Ti1 tau(  38) = (   3.3270268   4.4633798  12.5435021  )
        39           O1  tau(  39) = (   0.0563025   2.9439880  14.9425960  )
        40           O1  tau(  40) = (   3.2900316   2.9661073  13.9503945  )
        41           O1  tau(  41) = (   4.5967999   4.4093095  16.0633277  )
        42           O1  tau(  42) = (   2.0412097   4.4536800  16.1303113  )
        43           Ti1 tau(  43) = (   3.2964201   5.9600488  15.8742613  )
        44           Ti1 tau(  44) = (   0.0241369   4.6516137  15.8518307  )
        45           O1  tau(  45) = (   3.2900926   2.9813045   4.7018136  )
        46           O1  tau(  46) = (   1.3039711   4.4726057   6.0039043  )
        47           O1  tau(  47) = (   5.2763189   4.4711207   6.0039473  )
        48           N1  tau(  48) = (   1.4509408   2.7109095  18.7602185  )
        49           N1  tau(  49) = (   0.0917387   2.5303350  18.2207845  )
        50           C1  tau(  50) = (   1.9503960   3.7723240  19.2784661  )
        51           H1  tau(  51) = (   1.1612915   4.5273475  19.4152495  )
        52           H1  tau(  52) = (   2.0208952   1.9183395  18.4664618  )
        53           H1  tau(  53) = (   6.1377449   3.3539424  18.4987646  )
        54           H1  tau(  54) = (   6.2616785   1.7135167  18.6767212  )
        55           O1  tau(  55) = (   3.7012217   5.9496235  18.2853534  )
        56           H1  tau(  56) = (   4.6684668   5.8470116  18.1670174  )
        57           H1  tau(  57) = (   3.3852657   5.1278045  18.7238684  )

     number of k points=    10  Fermi-Dirac smearing, width (Ry)=  0.0073
                       cart. coord. in units 2pi/alat
        k(    1) = (   0.0000000   0.0000000   0.0000000), wk =   0.1250000
        k(    2) = (   0.0000000   0.0419351   0.0000000), wk =   0.2500000
        k(    3) = (   0.0000000  -0.0838702   0.0000000), wk =   0.1250000
        k(    4) = (   0.0379955   0.0000049   0.0000000), wk =   0.2500000
        k(    5) = (   0.0379955   0.0419400   0.0000000), wk =   0.2500000
        k(    6) = (   0.0379955  -0.0838652   0.0000000), wk =   0.2500000
        k(    7) = (   0.0379955  -0.0419301   0.0000000), wk =   0.2500000
        k(    8) = (  -0.0759910  -0.0000099   0.0000000), wk =   0.1250000
        k(    9) = (  -0.0759910   0.0419252   0.0000000), wk =   0.2500000
        k(   10) = (  -0.0759910  -0.0838800   0.0000000), wk =   0.1250000

     Initial potential from superposition of free atoms

     starting charge  387.99913, renormalised to  404.00000

     negative rho (up, down):  1.598E-02 0.000E+00

     %%%%%%%%%%%%%%%%%%%%%%%%%%%%%%%%%%%%%%%%%%%%%%%%%%%%%%%%%%%%%%%%%%%%%%%%
     %                                                                      %
     % You are using vdW-DF, which was implemented by the Thonhauser group. %
     % Please cite the following two papers that made this development      %
     % possible and the two reviews that describe the various versions:     %
     %                                                                      %
     %   T. Thonhauser et al., PRL 115, 136402 (2015).                      %
     %   T. Thonhauser et al., PRB 76, 125112 (2007).                       %
     %   K. Berland et al., Rep. Prog. Phys. 78, 066501 (2015).             %
     %   D.C. Langreth et al., J. Phys.: Condens. Matter 21, 084203 (2009). %
     %                                                                      %
     %                                                                      %
     % If you are calculating the stress with vdW-DF, please also cite:     %
     %                                                                      %
     %   R. Sabatini et al., J. Phys.: Condens. Matter 24, 424209 (2012).   %
     %                                                                      %
     %%%%%%%%%%%%%%%%%%%%%%%%%%%%%%%%%%%%%%%%%%%%%%%%%%%%%%%%%%%%%%%%%%%%%%%%

     Adding external electric field

     Computed dipole along edir(3) :
        Dipole              -14.3577 Ry au,        -36.4937 Debye
        Dipole field         -0.0271 Ry au,

        Potential amp.        2.5117 Ry
        Total length         46.3494 bohr

     Starting wfcs are  306 atomic wfcs
  @ DRIVER MODE: Message from server: STATUS
  @ DRIVER MODE: Message from server: POSDATA
  @ DRIVER MODE: Reading and sharing cell
  @ DRIVER MODE: Reading and sharing positions
  @ DRIVER MODE: Received positions

     Self-consistent Calculation

     iteration #  1     ecut=    29.40 Ry     beta= 0.05
     Davidson diagonalization with overlap
     c_bands:  4 eigenvalues not converged
     c_bands:  4 eigenvalues not converged
     c_bands:  4 eigenvalues not converged
     c_bands:  4 eigenvalues not converged
     c_bands:  3 eigenvalues not converged
     c_bands:  2 eigenvalues not converged
     c_bands:  4 eigenvalues not converged
     ethr =  1.00E-05,  avg # of iterations = 23.4

[...]

     total energy              =   -2220.91945306 Ry
     estimated scf accuracy    <    8587.37381989 Ry

     iteration #  2     ecut=    29.40 Ry     beta= 0.05
     Davidson diagonalization with overlap
     ethr =  1.00E-02,  avg # of iterations = 28.1

[...]

     iteration # 67     ecut=    29.40 Ry     beta= 0.05
     Davidson diagonalization with overlap
     c_bands:  1 eigenvalues not converged
     ethr =  6.33E-11,  avg # of iterations = 15.0

[...]

     total energy              =   -2975.10524932 Ry
     estimated scf accuracy    <       0.00000012 Ry

     iteration # 70     ecut=    29.40 Ry     beta= 0.05
     Davidson diagonalization with overlap
     ethr =  2.70E-11,  avg # of iterations =  8.5

     negative rho (up, down):  1.579E-02 0.000E+00

     Adding external electric field

     Computed dipole along edir(3) :
        Dipole                1.0202 Ry au,          2.5930 Debye
        Dipole field          0.0019 Ry au,

        Potential amp.       -0.1785 Ry
        Total length         46.3494 bohr

     End of self-consistent calculation

          k = 0.0000 0.0000 0.0000 ( 18029 PWs)   bands (ev):

   -55.3871 -55.3513 -55.3472 -55.3131 -55.3097 -55.3042 -55.2691 -55.2338
   -55.2187 -55.1839 -55.1770 -55.1619 -55.1433 -55.1142 -54.3786 -54.3446
   -31.9461 -31.8820 -31.8399 -31.7587 -31.7098 -31.7073 -31.6829 -31.6801
   -31.6360 -31.6002 -31.5930 -31.5918 -31.5847 -31.5814 -31.5631 -31.5611
   -31.5364 -31.5284 -31.5255 -31.5142 -31.4999 -31.4933 -31.4744 -31.4697
   -31.4613 -31.4483 -31.4476 -31.4189 -31.4045 -31.4007 -31.3976 -31.3754
   -31.3716 -31.3675 -31.3640 -31.3428 -31.3318 -31.3197 -31.3049 -31.3047
   -31.2945 -31.2881 -30.7881 -30.6936 -30.6715 -30.6045 -30.5177 -30.4068
   -18.8780 -18.4851 -16.2219 -15.9746 -15.8385 -15.7341 -15.5967 -15.4985
   -15.3893 -15.2760 -15.2530 -15.1590 -15.0849 -15.0812 -15.0440 -15.0181
   -14.9555 -14.9342 -14.9104 -14.9044 -14.8899 -14.8796 -14.8431 -14.8322
   -14.7989 -14.7883 -14.7710 -14.6473 -14.6281 -14.5537 -14.4831 -14.3456
   -12.8810 -12.7635  -9.8326  -6.9974  -6.4004  -6.0848  -4.4263  -3.7300
    -3.5454  -3.4121  -3.3337  -3.3044  -3.2874  -3.1559  -3.0652  -2.9040
    -2.8653  -2.8089  -2.6755  -2.5997  -2.5932  -2.5055  -2.4328  -2.4095
    -2.3767  -2.2674  -2.2611  -2.2118  -2.1940  -2.1709  -2.1616  -2.1150
    -2.0688  -2.0417  -1.9566  -1.8551  -1.8119  -1.7915  -1.7553  -1.7325
    -1.7278  -1.6842  -1.6780  -1.6543  -1.6157  -1.5914  -1.5457  -1.4338
    -1.3957  -1.2343  -1.1965  -1.0422  -1.0220  -0.9827  -0.9617  -0.9234
    -0.8953  -0.8790  -0.8627  -0.7740  -0.7157  -0.6494  -0.5854  -0.4955
    -0.4842  -0.4093  -0.3844  -0.3192  -0.2329  -0.1872  -0.1775  -0.1529
    -0.1496  -0.0358   0.0092   0.0693   0.0880   0.1453   0.1614   0.1836
     0.2535   0.3069   0.3766   0.4070   0.4864   0.5046   0.5397   0.5489
     0.5812   0.5917   0.6677   0.6827   0.7108   0.8136   0.9111   1.0048
     1.2147   1.2166   1.2579   1.5491   1.5512   1.6444   1.8278   2.2208
     2.2692   3.7027   3.7811   3.8306   3.8483   3.8528   3.9376   4.1922
     4.2065   4.2192   4.2254   4.2662

[...]

          k = 0.0380-0.0419 0.0000 ( 17876 PWs)   bands (ev):

[...]

          k =-0.0760-0.0000 0.0000 ( 17886 PWs)   bands (ev):

[...]

          k =-0.0760-0.0839 0.0000 ( 17948 PWs)   bands (ev):

   -55.3703 -55.3679 -55.3301 -55.3300 -55.3068 -55.3033 -55.2553 -55.2475
   -55.2044 -55.1977 -55.1638 -55.1611 -55.1594 -55.1160 -54.3616 -54.3615
   -31.7967 -31.7586 -31.7445 -31.6550 -31.6549 -31.6405 -31.6284 -31.6213
   -31.6212 -31.6003 -31.5952 -31.5921 -31.5692 -31.5614 -31.5496 -31.5357
   -31.5325 -31.5299 -31.5259 -31.5179 -31.5130 -31.5111 -31.5101 -31.5024
   -31.4705 -31.4691 -31.4499 -31.4498 -31.4494 -31.4446 -31.4417 -31.4373
   -31.4279 -31.4165 -31.4108 -31.3940 -31.3922 -31.3823 -31.3410 -31.3400
   -31.3395 -31.3207 -30.6842 -30.6842 -30.6007 -30.6005 -30.5611 -30.5611
   -18.8719 -18.4878 -15.8413 -15.6548 -15.5034 -15.4315 -15.4113 -15.3281
   -15.2728 -15.2696 -15.1964 -15.1784 -15.1659 -15.1443 -15.1347 -15.0873
   -15.0502 -15.0135 -14.9948 -14.9721 -14.9289 -14.9063 -14.9047 -14.8979
   -14.8902 -14.8498 -14.8446 -14.8413 -14.7496 -14.7477 -14.7069 -14.5598
   -12.8650 -12.8649  -9.8419  -6.9862  -6.3762  -6.0607  -4.4391  -3.6564
    -3.0277  -2.9129  -2.9024  -2.6743  -2.6550  -2.5940  -2.5814  -2.4935
    -2.4778  -2.4172  -2.3936  -2.3438  -2.3206  -2.2828  -2.2689  -2.2473
    -2.2261  -2.2124  -2.1862  -2.1697  -2.1528  -2.1331  -2.1221  -2.1108
    -2.0553  -2.0498  -2.0411  -2.0156  -1.9927  -1.9564  -1.9465  -1.9300
    -1.7748  -1.7597  -1.7385  -1.6022  -1.5979  -1.5634  -1.5236  -1.4961
    -1.4391  -1.4296  -1.4020  -1.3443  -1.1487  -1.1387  -1.1263  -1.1082
    -1.0371  -0.9827  -0.9685  -0.9502  -0.8965  -0.8184  -0.7836  -0.7322
    -0.6418  -0.5908  -0.5813  -0.5556  -0.4343  -0.4115  -0.3686  -0.3508
    -0.3345  -0.3001  -0.2985  -0.2419  -0.1889  -0.1530  -0.1301  -0.1158
    -0.0788   0.0760   0.1279   0.1441   0.2588   0.2879   0.4661   0.5086
     0.5303   0.6354   0.7189   0.7469   0.7612   0.8870   0.9090   0.9114
     0.9797   1.0019   1.0620   1.0677   1.2150   2.0005   2.0018   2.0890
     2.0893   3.8278   3.9507   3.9949   4.0307   4.1068   4.1594   4.2165
     4.2755   4.2872   4.2906   4.3574

     the Fermi energy is     3.7648 ev

!    total energy              =   -2975.10527260 Ry
     estimated scf accuracy    <       0.00000003 Ry
     smearing contrib. (-TS)   =      -0.03671861 Ry
     internal energy E=F+TS    =   -2975.06855399 Ry

     The total energy is F=E-TS. E is the sum of the following terms:
     one-electron contribution =  -23505.91688473 Ry
     hartree contribution      =   11848.95309973 Ry
     xc contribution           =    -494.92212637 Ry
     ewald contribution        =    9176.81539335 Ry
     electric field correction =       0.00196403 Ry

     convergence has been achieved in  70 iterations

     Forces acting on atoms (cartesian axes, Ry/au):

     atom    1 type  1   force =     0.00002832   -0.00025114    0.09309880
     atom    2 type  1   force =    -0.00018202   -0.00032225   -0.17837990
     atom    3 type  2   force =     0.00006131   -0.00017129   -0.02024474
     atom    4 type  2   force =     0.00001759   -0.00203717    0.05925356
     atom    5 type  2   force =    -0.01033015   -0.00110220    0.00808849
     atom    6 type  2   force =     0.01217603   -0.00054675    0.00816825
     atom    7 type  1   force =     0.00014960    0.00329148   -0.01111751
     atom    8 type  1   force =    -0.00030360    0.00052850   -0.00562246
     atom    9 type  2   force =     0.00004159    0.00017639   -0.00014678
     atom   10 type  2   force =    -0.00146434   -0.00003676   -0.00172039
     atom   11 type  2   force =     0.00037686   -0.00003858   -0.00006466
     atom   12 type  2   force =    -0.00009505    0.00010118   -0.00009422
     atom   13 type  1   force =    -0.00009678   -0.00017114   -0.00023993
     atom   14 type  1   force =    -0.00021414   -0.00036737    0.00035277
     atom   15 type  2   force =     0.00006970   -0.00049783    0.00007378
     atom   16 type  2   force =     0.00022116    0.00008669    0.00023966
     atom   17 type  2   force =     0.00037275   -0.00013705    0.00013657
     atom   18 type  2   force =    -0.00005520   -0.00015922   -0.00015876
     atom   19 type  1   force =    -0.00029351   -0.00055908   -0.00002340
     atom   20 type  1   force =     0.00012308    0.00032326    0.00062127
     atom   21 type  2   force =    -0.00000252   -0.00007497    0.10402965
     atom   22 type  2   force =    -0.00013271   -0.00005856   -0.00014708
     atom   23 type  2   force =    -0.07035073   -0.00016304   -0.02683395
     atom   24 type  2   force =     0.07021922    0.00028312   -0.02691100
     atom   25 type  1   force =     0.00002378   -0.00015891    0.09276107
     atom   26 type  1   force =    -0.00015780   -0.00039810   -0.17832469
     atom   27 type  2   force =     0.00011188   -0.00030804   -0.01918402
     atom   28 type  2   force =     0.00004671   -0.00163427    0.05840362
     atom   29 type  2   force =    -0.01028408   -0.00064226    0.00729435
     atom   30 type  2   force =     0.01201960   -0.00031057    0.00742861
     atom   31 type  1   force =     0.00007624    0.00515264   -0.01465740
     atom   32 type  1   force =    -0.00013664   -0.00051501   -0.00596582
     atom   33 type  2   force =     0.00012894   -0.00039334   -0.00023282
     atom   34 type  2   force =    -0.00078745    0.00260689   -0.00104346
     atom   35 type  2   force =    -0.00007108   -0.00011167   -0.00012850
     atom   36 type  2   force =     0.00023839    0.00000406   -0.00015542
     atom   37 type  1   force =    -0.00044455    0.00008065    0.00003412
     atom   38 type  1   force =    -0.00002791   -0.00023949   -0.00023597
     atom   39 type  2   force =    -0.00030304   -0.00019949   -0.00018454
     atom   40 type  2   force =    -0.00013451   -0.00005675   -0.00004382
     atom   41 type  2   force =    -0.00017133   -0.00012670    0.00044242
     atom   42 type  2   force =    -0.00003010   -0.00020875    0.00020054
     atom   43 type  1   force =     0.00004619   -0.00010099   -0.00004509
     atom   44 type  1   force =     0.00000585   -0.00001561    0.00020534
     atom   45 type  2   force =     0.00000980   -0.00011108    0.10400079
     atom   46 type  2   force =    -0.07037284   -0.00011621   -0.02685541
     atom   47 type  2   force =     0.07021989    0.00031841   -0.02691548
     atom   48 type  3   force =     0.00011300    0.00096716    0.00039878
     atom   49 type  3   force =    -0.00094698   -0.00086360    0.00015149
     atom   50 type  4   force =     0.00038796    0.00085656    0.00054379
     atom   51 type  5   force =     0.00000529   -0.00062295   -0.00039702
     atom   52 type  5   force =    -0.00009857   -0.00099948   -0.00025045
     atom   53 type  5   force =    -0.00006967    0.00003856    0.00003742
     atom   54 type  5   force =     0.00021556    0.00055072   -0.00003602
     atom   55 type  2   force =     0.00245306    0.00546756   -0.00310514
     atom   56 type  5   force =     0.00021918   -0.00024251   -0.00051111
     atom   57 type  5   force =    -0.00262126   -0.00576364    0.00401180

     Total force =     0.366342     Total SCF correction =     0.000400
  @ DRIVER MODE: Message from server: STATUS
  @ DRIVER MODE: Message from server: GETFORCE
  @ DRIVER MODE: Returning v,forces,stress,ensemble

     Writing output data file ./calc.save/
  @ DRIVER MODE: Message from server: EXIT
  @ DRIVE MODE: Exiting

     General routines

     Parallel routines

   This run was terminated on:  13:50:18  23Sep2021

   JOB DONE.