     Program PWSCF v.6.7GPU starts on 24Sep2021 at  5:36:26

     R & G space division:  proc/nbgrp/npool/nimage =       8
     Reading input from /storage/home/hcoda1/3/ntian30/research/carbon/CxH_vib/H2O_calc/ads_slab/CH3NNHHHHO_a/out_0046/pw.inp
Warning: card &CELL ignored
Warning: card   CELL_DYNAMICS='IPI', ignored
Warning: card / ignored

     Current dimensions of program PWSCF are:
     Max number of different atomic species (ntypx) = 10
     Max number of k-points (npk) =  40000
     Max angular momentum in pseudopotentials (lmaxx) =  3
     Presently no symmetry can be used with electric field

     Message from routine cell_base_init:
     DEPRECATED: use true lattice parameter, not A to a.u. conversion factor

     IMPORTANT: XC functional enforced from input :
     Exchange-correlation= BEEF-VDW
                           (   1   4  43  14   2   0   0)
     Any further DFT definition will be discarded
     Please, verify this is what you really want

  @ DRIVER MODE: Connecting to
 qe_1139763_2947308.sched-torque.pace.gatech.edui7f6s2ck_scratch
  using UNIX socket
  @ DRIVER MODE: Message from server: STATUS
  @ DRIVER MODE: Message from server: INIT
  @ DRIVER MODE: Receiving replica           0          -1
  @ DRIVER MODE: Receiving encoded integer          25
  @ DRIVER MODE:  SCF:  T  FORCE:  T  STRESS:  F  VC:  F  ENSEMBLE:  F
  @ DRIVER MODE:  SCF:  T  FORCE:  T  STRESS:  F  VC:  F  ENSEMBLE:  F

     Using Slab Decomposition

     bravais-lattice index     =            0
     lattice parameter (alat)  =       1.8897  a.u.
     unit-cell volume          =    6658.9804 (a.u.)^3
     number of atoms/cell      =           58
     number of atomic types    =            5
     number of electrons       =       405.00
     number of Kohn-Sham states=          212
     kinetic-energy cutoff     =      29.3995  Ry
     charge density cutoff     =     293.9946  Ry
     scf convergence threshold =      7.3E-08
     mixing beta               =       0.0500
     number of iterations used =            8  plain     mixing
     Exchange-correlation= BEEF-VDW
                           (   1   4  43  14   2   0   0)

     celldm(1)=   1.889726  celldm(2)=   0.000000  celldm(3)=   0.000000
     celldm(4)=   0.000000  celldm(5)=   0.000000  celldm(6)=   0.000000

     crystal axes: (cart. coord. in units of alat)
               a(1) = (   6.579727   0.000000   0.000000 )
               a(2) = (  -0.000775   5.961596   0.000000 )
               a(3) = (   0.000000   0.000000  25.155947 )

     reciprocal axes: (cart. coord. in units 2 pi/alat)
               b(1) = (  0.151982  0.000020  0.000000 )
               b(2) = (  0.000000  0.167740  0.000000 )
               b(3) = (  0.000000  0.000000  0.039752 )

     PseudoPot. # 1 for Ti read from file:
     /storage/coda1/p-amedford6/0/shared/rich_project_chbe-medford/medford-share/data/pseudos_module/espresso/nninc/pbe/van/Ti.UPF
     MD5 check sum: 8e4df49b7f0d34bbd5052bf3f5ea0213
     Pseudo is Ultrasoft, Zval = 12.0
     Generated by new atomic code, or converted to UPF format
     Using radial grid of  851 points,  6 beta functions with:
                l(1) =   0
                l(2) =   0
                l(3) =   1
                l(4) =   1
                l(5) =   2
                l(6) =   2
     Q(r) pseudized with  8 coefficients,  rinner =    1.000   1.000   1.000
                                                       1.000   1.000

     PseudoPot. # 2 for O  read from file:
     /storage/coda1/p-amedford6/0/shared/rich_project_chbe-medford/medford-share/data/pseudos_module/espresso/nninc/pbe/van/O.UPF
     MD5 check sum: 78c19812648e8988a0fe644b0f25305e
     Pseudo is Ultrasoft, Zval =  6.0
     Generated by new atomic code, or converted to UPF format
     Using radial grid of  737 points,  4 beta functions with:
                l(1) =   0
                l(2) =   0
                l(3) =   1
                l(4) =   1
     Q(r) pseudized with  8 coefficients,  rinner =    0.800   0.800   0.800

     PseudoPot. # 3 for N  read from file:
     /storage/coda1/p-amedford6/0/shared/rich_project_chbe-medford/medford-share/data/pseudos_module/espresso/nninc/pbe/van/N.UPF
     MD5 check sum: 90d10febe142ad51ac9d5be1deb811c4
     Pseudo is Ultrasoft, Zval =  5.0
     Generated by new atomic code, or converted to UPF format
     Using radial grid of  729 points,  4 beta functions with:
                l(1) =   0
                l(2) =   0
                l(3) =   1
                l(4) =   1
     Q(r) pseudized with  8 coefficients,  rinner =    0.800   0.800   0.800

     PseudoPot. # 4 for C  read from file:
     /storage/coda1/p-amedford6/0/shared/rich_project_chbe-medford/medford-share/data/pseudos_module/espresso/nninc/pbe/van/C.UPF
     MD5 check sum: 1a69bf6b8db32088f5b2163dbdb77a27
     Pseudo is Ultrasoft, Zval =  4.0
     Generated by new atomic code, or converted to UPF format
     Using radial grid of  721 points,  4 beta functions with:
                l(1) =   0
                l(2) =   0
                l(3) =   1
                l(4) =   1
     Q(r) pseudized with  8 coefficients,  rinner =    0.800   0.800   0.800

     PseudoPot. # 5 for H  read from file:
     /storage/coda1/p-amedford6/0/shared/rich_project_chbe-medford/medford-share/data/pseudos_module/espresso/nninc/pbe/van/H.UPF
     MD5 check sum: b5ee9d7bfd3a09ee7748110bda690ff7
     Pseudo is Ultrasoft, Zval =  1.0
     Generated by new atomic code, or converted to UPF format
     Using radial grid of  615 points,  1 beta functions with:
                l(1) =   0
     Q(r) pseudized with  8 coefficients,  rinner =    0.800

     atomic species   valence    mass     pseudopotential
        Ti1           12.00    47.86700     Ti( 1.00)
        O1             6.00    15.99900     O ( 1.00)
        N1             5.00    14.00700     N ( 1.00)
        C1             4.00    12.01100     C ( 1.00)
        H1             1.00     1.00800     H ( 1.00)

     No symmetry found

   Cartesian axes

     site n.     atom                  positions (alat units)
         1           Ti1 tau(   1) = (   0.0004258   2.9801865   6.0000000  )
         2           Ti1 tau(   2) = (   3.2906075   1.4906267   6.0002472  )
         3           O1  tau(   3) = (   0.0006271   0.0005054   7.9858123  )
         4           O1  tau(   4) = (   3.2906025   0.0005020   7.3038282  )
         5           O1  tau(   5) = (   4.5942328   1.4918067   9.2879030  )
         6           O1  tau(   6) = (   1.9868534   1.4903216   9.2879459  )
         7           Ti1 tau(   7) = (   3.2907910   2.8959150   9.1758416  )
         8           Ti1 tau(   8) = (   0.0015273   1.4827037   9.2680791  )
         9           O1  tau(   9) = (   3.3066316   0.0080679  11.3583267  )
        10           O1  tau(  10) = (   0.0116148   5.9584955  10.6183126  )
        11           O1  tau(  11) = (   1.3000076   1.5005770  12.6434233  )
        12           O1  tau(  12) = (   5.3281586   1.4930334  12.6431679  )
        13           Ti1 tau(  13) = (   0.0126194   3.0144704  12.5166071  )
        14           Ti1 tau(  14) = (   3.3185830   1.5708444  12.4374219  )
        15           O1  tau(  15) = (   0.0449490   0.0685618  14.6579901  )
        16           O1  tau(  16) = (   3.3164028   5.8986079  13.9921319  )
        17           O1  tau(  17) = (   4.5763498   1.4919541  16.1892649  )
        18           O1  tau(  18) = (   2.0390356   1.5007807  16.1677599  )
        19           Ti1 tau(  19) = (   3.3152479   2.9236451  15.6986563  )
        20           Ti1 tau(  20) = (   0.0808212   1.4292116  16.0039943  )
        21           O1  tau(  21) = (   3.2904802   0.0005063   4.7018136  )
        22           O1  tau(  22) = (   0.0303022   5.8046116  17.1736243  )
        23           O1  tau(  23) = (   1.3043587   1.4918075   6.0039043  )
        24           O1  tau(  24) = (   5.2767064   1.4903225   6.0039473  )
        25           Ti1 tau(  25) = (   0.0000382   5.9609847   6.0000000  )
        26           Ti1 tau(  26) = (   3.2902200   4.4714249   6.0002472  )
        27           O1  tau(  27) = (   0.0002396   2.9813036   7.9858123  )
        28           O1  tau(  28) = (   3.2902150   2.9813002   7.3038282  )
        29           O1  tau(  29) = (   4.5938453   4.4726049   9.2879030  )
        30           O1  tau(  30) = (   1.9864658   4.4711199   9.2879459  )
        31           Ti1 tau(  31) = (   3.2891106   5.8743827   9.1763621  )
        32           Ti1 tau(  32) = (   0.0006254   4.4649316   9.2693709  )
        33           O1  tau(  33) = (   3.3101163   2.9547251  11.3177968  )
        34           O1  tau(  34) = (   0.0092240   2.9805883  10.6323155  )
        35           O1  tau(  35) = (   1.2917786   4.4638488  12.6831265  )
        36           O1  tau(  36) = (   5.3332004   4.4701953  12.6833355  )
        37           Ti1 tau(  37) = (   0.0360484   0.0435164  12.5022323  )
        38           Ti1 tau(  38) = (   3.3166134   4.6596848  12.7231989  )
        39           O1  tau(  39) = (   6.5734590   2.9070644  14.8960501  )
        40           O1  tau(  40) = (   3.3256711   2.9499323  13.9293234  )
        41           O1  tau(  41) = (   4.5718193   4.3849529  16.1598725  )
        42           O1  tau(  42) = (   2.0293811   4.3548050  16.0908550  )
        43           Ti1 tau(  43) = (   3.3839698   5.9011270  16.3477160  )
        44           Ti1 tau(  44) = (   0.0762916   4.6312412  15.8077656  )
        45           O1  tau(  45) = (   3.2900926   2.9813045   4.7018136  )
        46           O1  tau(  46) = (   1.3039711   4.4726057   6.0039043  )
        47           O1  tau(  47) = (   5.2763189   4.4711207   6.0039473  )
        48           N1  tau(  48) = (   1.0338470   3.0145746  18.8549854  )
        49           N1  tau(  49) = (   6.4614719   2.5758313  18.0922931  )
        50           C1  tau(  50) = (   0.6385090   3.7489381  20.0602371  )
        51           H1  tau(  51) = (   6.5128770   4.5633600  19.8465500  )
        52           H1  tau(  52) = (   0.1876125   3.0656416  20.7809517  )
        53           H1  tau(  53) = (   1.5398112   4.1767214  20.4987412  )
        54           H1  tau(  54) = (   5.7034478   3.2665398  18.1448723  )
        55           H1  tau(  55) = (   6.1095767   1.7363867  18.5341855  )
        56           H1  tau(  56) = (   1.5400177   3.6533120  18.2466354  )
        57           O1  tau(  57) = (   3.2295176   5.8880611  18.1942677  )
        58           H1  tau(  58) = (   2.6769533   0.6239085  18.5854980  )

     number of k points=    10  Fermi-Dirac smearing, width (Ry)=  0.0073
                       cart. coord. in units 2pi/alat
        k(    1) = (   0.0000000   0.0000000   0.0000000), wk =   0.1250000
        k(    2) = (   0.0000000   0.0419351   0.0000000), wk =   0.2500000
        k(    3) = (   0.0000000  -0.0838702   0.0000000), wk =   0.1250000
        k(    4) = (   0.0379955   0.0000049   0.0000000), wk =   0.2500000
        k(    5) = (   0.0379955   0.0419400   0.0000000), wk =   0.2500000
        k(    6) = (   0.0379955  -0.0838652   0.0000000), wk =   0.2500000
        k(    7) = (   0.0379955  -0.0419301   0.0000000), wk =   0.2500000
        k(    8) = (  -0.0759910  -0.0000099   0.0000000), wk =   0.1250000
        k(    9) = (  -0.0759910   0.0419252   0.0000000), wk =   0.2500000
        k(   10) = (  -0.0759910  -0.0838800   0.0000000), wk =   0.1250000

     Initial potential from superposition of free atoms

     starting charge  388.99913, renormalised to  405.00000

     negative rho (up, down):  1.325E-02 0.000E+00

     %%%%%%%%%%%%%%%%%%%%%%%%%%%%%%%%%%%%%%%%%%%%%%%%%%%%%%%%%%%%%%%%%%%%%%%%
     %                                                                      %
     % You are using vdW-DF, which was implemented by the Thonhauser group. %
     % Please cite the following two papers that made this development      %
     % possible and the two reviews that describe the various versions:     %
     %                                                                      %
     %   T. Thonhauser et al., PRL 115, 136402 (2015).                      %
     %   T. Thonhauser et al., PRB 76, 125112 (2007).                       %
     %   K. Berland et al., Rep. Prog. Phys. 78, 066501 (2015).             %
     %   D.C. Langreth et al., J. Phys.: Condens. Matter 21, 084203 (2009). %
     %                                                                      %
     %                                                                      %
     % If you are calculating the stress with vdW-DF, please also cite:     %
     %                                                                      %
     %   R. Sabatini et al., J. Phys.: Condens. Matter 24, 424209 (2012).   %
     %                                                                      %
     %%%%%%%%%%%%%%%%%%%%%%%%%%%%%%%%%%%%%%%%%%%%%%%%%%%%%%%%%%%%%%%%%%%%%%%%

     Adding external electric field

     Computed dipole along edir(3) :
        Dipole              -14.7651 Ry au,        -37.5293 Debye
        Dipole field         -0.0279 Ry au,

        Potential amp.        2.5829 Ry
        Total length         46.3494 bohr

     Starting wfcs are  307 atomic wfcs
  @ DRIVER MODE: Message from server: STATUS
  @ DRIVER MODE: Message from server: POSDATA
  @ DRIVER MODE: Reading and sharing cell
  @ DRIVER MODE: Reading and sharing positions
  @ DRIVER MODE: Received positions

     Self-consistent Calculation

     iteration #  1     ecut=    29.40 Ry     beta= 0.05
     Davidson diagonalization with overlap
     c_bands:  3 eigenvalues not converged
     c_bands:  4 eigenvalues not converged
     c_bands:  2 eigenvalues not converged
     c_bands:  3 eigenvalues not converged
     c_bands:  3 eigenvalues not converged
     c_bands:  3 eigenvalues not converged
     ethr =  1.00E-05,  avg # of iterations = 23.2

[...]

     total energy              =   -2204.20726235 Ry
     estimated scf accuracy    <    8785.92835062 Ry

     iteration #  2     ecut=    29.40 Ry     beta= 0.05
     Davidson diagonalization with overlap
     ethr =  1.00E-02,  avg # of iterations = 30.3

[...]

     iteration # 63     ecut=    29.40 Ry     beta= 0.05
     Davidson diagonalization with overlap
     c_bands:  2 eigenvalues not converged
     ethr =  5.09E-08,  avg # of iterations = 16.5

[...]

     total energy              =   -2976.49816322 Ry
     estimated scf accuracy    <       0.00000009 Ry

     iteration # 80     ecut=    29.40 Ry     beta= 0.05
     Davidson diagonalization with overlap
     ethr =  2.26E-11,  avg # of iterations = 11.2

     negative rho (up, down):  1.443E-02 0.000E+00

     Adding external electric field

     Computed dipole along edir(3) :
        Dipole                0.9947 Ry au,          2.5283 Debye
        Dipole field          0.0019 Ry au,

        Potential amp.       -0.1740 Ry
        Total length         46.3494 bohr

     End of self-consistent calculation

          k = 0.0000 0.0000 0.0000 ( 18029 PWs)   bands (ev):

   -55.5817 -55.4980 -55.4639 -55.3630 -55.3419 -55.3261 -55.3119 -55.3054
   -55.2924 -55.2627 -55.2190 -55.0967 -55.0851 -55.0089 -54.4672 -54.4331
   -31.9825 -31.9181 -31.8767 -31.8297 -31.8279 -31.8090 -31.7985 -31.7887
   -31.7492 -31.7438 -31.7258 -31.6506 -31.6267 -31.6065 -31.6045 -31.6027
   -31.5967 -31.5849 -31.5824 -31.5556 -31.5494 -31.5241 -31.5236 -31.5119
   -31.4965 -31.4856 -31.4777 -31.4601 -31.4563 -31.4534 -31.4437 -31.4379
   -31.4339 -31.4147 -31.3728 -31.3709 -31.2997 -31.2933 -31.2785 -31.2586
   -31.2217 -31.2143 -30.8728 -30.7873 -30.7648 -30.6905 -30.6042 -30.4922
   -17.5991 -16.4000 -16.1389 -15.9763 -15.7606 -15.6750 -15.6467 -15.4541
   -15.3488 -15.2959 -15.1090 -15.0634 -15.0329 -15.0216 -15.0065 -14.9837
   -14.9639 -14.9258 -14.9173 -14.9070 -14.9014 -14.8628 -14.8405 -14.7898
   -14.7672 -14.7045 -14.6324 -14.5647 -14.5172 -14.2549 -14.2384 -12.9927
   -12.9655 -12.8493  -9.4700  -6.1649  -5.2175  -4.6415  -3.9616  -3.5037
    -3.4028  -3.3871  -3.3327  -3.2683  -3.1725  -2.9952  -2.8866  -2.8327
    -2.7321  -2.6247  -2.5698  -2.5067  -2.4818  -2.4301  -2.3968  -2.3851
    -2.3784  -2.2821  -2.2739  -2.2464  -2.2111  -2.1551  -2.1393  -2.0610
    -2.0251  -2.0165  -1.8920  -1.8794  -1.8138  -1.8094  -1.8032  -1.7698
    -1.7486  -1.7336  -1.7046  -1.6209  -1.5680  -1.4976  -1.4756  -1.4449
    -1.1867  -1.0937  -1.0560  -1.0280  -0.9305  -0.9173  -0.9026  -0.8973
    -0.8832  -0.8336  -0.7878  -0.7029  -0.5941  -0.5763  -0.5646  -0.5196
    -0.4540  -0.3723  -0.2992  -0.2696  -0.2323  -0.2191  -0.1528  -0.0753
    -0.0593  -0.0468   0.0616   0.0759   0.1583   0.2170   0.2309   0.2757
     0.3167   0.3498   0.4060   0.4424   0.4728   0.4787   0.5121   0.5565
     0.6122   0.6429   0.6706   0.7531   0.8084   0.8538   0.8815   1.0533
     1.0824   1.1370   1.1791   1.2663   1.5091   1.5594   1.5986   1.7537
     2.1257   2.1709   3.5866   3.7376   3.7527   3.8223   3.8474   3.9385
     4.0759   4.1436   4.2754   4.2846

[...]

          k = 0.0380-0.0419 0.0000 ( 17876 PWs)   bands (ev):

[...]

          k =-0.0760-0.0000 0.0000 ( 17886 PWs)   bands (ev):

[...]

          k =-0.0760-0.0839 0.0000 ( 17948 PWs)   bands (ev):

   -55.5810 -55.4810 -55.4807 -55.3617 -55.3288 -55.3185 -55.3125 -55.3092
   -55.3088 -55.2547 -55.2270 -55.0935 -55.0862 -55.0120 -54.4503 -54.4499
   -31.8654 -31.8076 -31.8023 -31.7979 -31.7978 -31.7833 -31.7744 -31.7740
   -31.7053 -31.6493 -31.6414 -31.6340 -31.6291 -31.6158 -31.6011 -31.6010
   -31.5989 -31.5981 -31.5843 -31.5738 -31.5662 -31.5575 -31.5367 -31.5184
   -31.5155 -31.5119 -31.5046 -31.5015 -31.4890 -31.4819 -31.4792 -31.4736
   -31.4685 -31.4499 -31.4441 -31.3669 -31.3542 -31.3409 -31.3016 -31.2974
   -31.2638 -31.2177 -30.7777 -30.7775 -30.6859 -30.6855 -30.6475 -30.6472
   -17.5932 -16.3858 -15.7468 -15.5690 -15.4729 -15.4664 -15.3356 -15.2697
   -15.2610 -15.2264 -15.2078 -15.1929 -15.1599 -15.1424 -15.1027 -15.0501
   -15.0168 -14.9941 -14.9825 -14.9455 -14.9329 -14.9110 -14.9037 -14.8951
   -14.8367 -14.8047 -14.7956 -14.7645 -14.5694 -14.5455 -14.3711 -12.9941
   -12.9512 -12.9511  -9.4676  -6.1503  -5.2192  -4.6513  -3.9578  -3.1763
    -2.9212  -2.7780  -2.7018  -2.5677  -2.5579  -2.5000  -2.4944  -2.4474
    -2.4390  -2.3976  -2.3437  -2.3277  -2.2846  -2.2797  -2.2489  -2.2364
    -2.2258  -2.2167  -2.1916  -2.1720  -2.1631  -2.1222  -2.1177  -2.1019
    -2.0823  -2.0658  -2.0383  -2.0273  -1.9871  -1.9471  -1.8826  -1.8084
    -1.7228  -1.6401  -1.6296  -1.6188  -1.5724  -1.5659  -1.5191  -1.5080
    -1.4605  -1.4096  -1.2945  -1.1736  -1.1325  -1.1058  -1.0736  -1.0419
    -0.9870  -0.9642  -0.9290  -0.8806  -0.8489  -0.7248  -0.7142  -0.6487
    -0.5667  -0.5314  -0.4551  -0.4419  -0.4277  -0.4112  -0.3893  -0.3726
    -0.3436  -0.3280  -0.2227  -0.1987  -0.1955  -0.1731  -0.1223  -0.0191
     0.0547   0.1381   0.2405   0.2902   0.3181   0.3519   0.4518   0.5697
     0.5950   0.6580   0.6900   0.7328   0.8000   0.8207   0.8686   0.9544
     1.0069   1.0395   1.0656   1.0706   1.1251   1.1526   1.9224   1.9309
     1.9911   1.9914   3.8004   4.0764   4.1023   4.1180   4.1553   4.1595
     4.1817   4.1961   4.2610   4.2772

     the Fermi energy is     3.6235 ev

!    total energy              =   -2976.49818261 Ry
     estimated scf accuracy    <       0.00000006 Ry
     smearing contrib. (-TS)   =      -0.01952664 Ry
     internal energy E=F+TS    =   -2976.47865597 Ry

     The total energy is F=E-TS. E is the sum of the following terms:
     one-electron contribution =  -23034.56857935 Ry
     hartree contribution      =   11613.64513565 Ry
     xc contribution           =    -495.71606909 Ry
     ewald contribution        =    8940.15898962 Ry
     electric field correction =       0.00186720 Ry

     convergence has been achieved in  80 iterations

     Forces acting on atoms (cartesian axes, Ry/au):

     atom    1 type  1   force =     0.00001076   -0.00021875    0.09403343
     atom    2 type  1   force =    -0.00015715    0.00025567   -0.17516457
     atom    3 type  2   force =     0.00007359   -0.00016064   -0.02116049
     atom    4 type  2   force =     0.00000383   -0.00104093    0.05353947
     atom    5 type  2   force =    -0.00454868   -0.00322808    0.00113878
     atom    6 type  2   force =     0.00660683   -0.00242676    0.00160251
     atom    7 type  1   force =     0.00037577    0.00456362    0.01036545
     atom    8 type  1   force =    -0.00055943    0.00198968    0.00312444
     atom    9 type  2   force =     0.00010384   -0.00050651   -0.00048508
     atom   10 type  2   force =    -0.00031041   -0.00004426   -0.01130624
     atom   11 type  2   force =    -0.00024801    0.00046125    0.00004990
     atom   12 type  2   force =    -0.00025546    0.00067723    0.00008717
     atom   13 type  1   force =     0.00061844   -0.00064414    0.00024689
     atom   14 type  1   force =    -0.00035736    0.00016210    0.00020318
     atom   15 type  2   force =    -0.00016948    0.00011995    0.00053575
     atom   16 type  2   force =     0.00004892   -0.00002120    0.00041947
     atom   17 type  2   force =    -0.00035930    0.00025328    0.00011785
     atom   18 type  2   force =     0.00001027    0.00011296    0.00025536
     atom   19 type  1   force =    -0.00009499    0.00054975   -0.00030514
     atom   20 type  1   force =    -0.00002980   -0.00034369   -0.00004323
     atom   21 type  2   force =     0.00003223   -0.00000749    0.10309445
     atom   22 type  2   force =    -0.00006209   -0.00013906   -0.00047628
     atom   23 type  2   force =    -0.07212482   -0.00021113   -0.02724751
     atom   24 type  2   force =     0.07203021    0.00023005   -0.02732462
     atom   25 type  1   force =     0.00007243   -0.00034629    0.09401854
     atom   26 type  1   force =    -0.00000311   -0.00128535   -0.17519357
     atom   27 type  2   force =     0.00015339   -0.00021181   -0.01993832
     atom   28 type  2   force =     0.00008699   -0.00111089    0.04906210
     atom   29 type  2   force =    -0.00668518    0.00152353    0.00211794
     atom   30 type  2   force =     0.00855407    0.00170331    0.00248782
     atom   31 type  1   force =     0.00049785   -0.00020260    0.00052490
     atom   32 type  1   force =    -0.00019894   -0.00145803    0.00351483
     atom   33 type  2   force =    -0.00007830    0.00000379   -0.00002742
     atom   34 type  2   force =    -0.00088817    0.00246456   -0.01151416
     atom   35 type  2   force =     0.00002299   -0.00043248    0.00049076
     atom   36 type  2   force =    -0.00051979   -0.00041085    0.00034487
     atom   37 type  1   force =     0.00037632    0.00029353    0.00004318
     atom   38 type  1   force =    -0.00038004    0.00021243    0.00030624
     atom   39 type  2   force =    -0.00050723    0.00041134    0.00050347
     atom   40 type  2   force =    -0.00001728   -0.00007596   -0.00005838
     atom   41 type  2   force =    -0.00038909   -0.00028816    0.00026643
     atom   42 type  2   force =    -0.00022183   -0.00026900   -0.00023080
     atom   43 type  1   force =    -0.00001587   -0.00038186    0.00075178
     atom   44 type  1   force =    -0.00019434    0.00031878    0.00018009
     atom   45 type  2   force =     0.00002418   -0.00001905    0.10294864
     atom   46 type  2   force =    -0.07213183   -0.00008292   -0.02724680
     atom   47 type  2   force =     0.07198573    0.00035545   -0.02728801
     atom   48 type  3   force =     0.00081125   -0.00039144   -0.00033776
     atom   49 type  3   force =     0.00270354    0.01095373   -0.00484256
     atom   50 type  4   force =     0.00028416   -0.00023491    0.00021043
     atom   51 type  5   force =    -0.00029055    0.00024703    0.00001925
     atom   52 type  5   force =    -0.00008675   -0.00079236    0.00002251
     atom   53 type  5   force =     0.00019732   -0.00053966    0.00002366
     atom   54 type  5   force =     0.00050817    0.00104933   -0.00110795
     atom   55 type  5   force =    -0.00410812   -0.01150723    0.00587370
     atom   56 type  5   force =     0.00030525    0.00020190   -0.00034555
     atom   57 type  2   force =    -0.00024534    0.00054685   -0.00067741
     atom   58 type  5   force =    -0.00025954   -0.00062760   -0.00020337

     Total force =     0.362147     Total SCF correction =     0.000484
  @ DRIVER MODE: Message from server: STATUS
  @ DRIVER MODE: Message from server: GETFORCE
  @ DRIVER MODE: Returning v,forces,stress,ensemble

     Writing output data file ./calc.save/
  @ DRIVER MODE: Message from server: EXIT
  @ DRIVE MODE: Exiting

     General routines

     Parallel routines

   This run was terminated on:   6: 3:48  24Sep2021

   JOB DONE.