     Program PWSCF v.6.7GPU starts on  8Sep2021 at 23:10:17

     R & G space division:  proc/nbgrp/npool/nimage =      10
     Reading input from /storage/home/hcoda1/3/ntian30/research/carbon/CxH_vib/CH2_calc/ads_slab/CH2_a/out_0005/pw.inp
Warning: card &CELL ignored
Warning: card   CELL_DYNAMICS='IPI', ignored
Warning: card / ignored

     Current dimensions of program PWSCF are:
     Max number of different atomic species (ntypx) = 10
     Max number of k-points (npk) =  40000
     Max angular momentum in pseudopotentials (lmaxx) =  3
     Presently no symmetry can be used with electric field

     Message from routine cell_base_init:
     DEPRECATED: use true lattice parameter, not A to a.u. conversion factor

     IMPORTANT: XC functional enforced from input :
     Exchange-correlation= BEEF-VDW
                           (   1   4  43  14   2   0   0)
     Any further DFT definition will be discarded
     Please, verify this is what you really want

  @ DRIVER MODE: Connecting to
 qe_1139763_2767395.sched-torque.pace.gatech.eduogfg_9eo_scratch
  using UNIX socket
  @ DRIVER MODE: Message from server: STATUS
  @ DRIVER MODE: Message from server: INIT
  @ DRIVER MODE: Receiving replica           0          -1
  @ DRIVER MODE: Receiving encoded integer          25
  @ DRIVER MODE:  SCF:  T  FORCE:  T  STRESS:  F  VC:  F  ENSEMBLE:  F
  @ DRIVER MODE:  SCF:  T  FORCE:  T  STRESS:  F  VC:  F  ENSEMBLE:  F

     Using Slab Decomposition

     bravais-lattice index     =            0
     lattice parameter (alat)  =       1.8897  a.u.
     unit-cell volume          =    6658.9804 (a.u.)^3
     number of atoms/cell      =           50
     number of atomic types    =            4
     number of electrons       =       384.00
     number of Kohn-Sham states=          202
     kinetic-energy cutoff     =      29.3995  Ry
     charge density cutoff     =     293.9946  Ry
     scf convergence threshold =      7.3E-08
     mixing beta               =       0.0500
     number of iterations used =            8  plain     mixing
     Exchange-correlation= BEEF-VDW
                           (   1   4  43  14   2   0   0)

     celldm(1)=   1.889726  celldm(2)=   0.000000  celldm(3)=   0.000000
     celldm(4)=   0.000000  celldm(5)=   0.000000  celldm(6)=   0.000000

     crystal axes: (cart. coord. in units of alat)
               a(1) = (   6.579727   0.000000   0.000000 )
               a(2) = (  -0.000775   5.961596   0.000000 )
               a(3) = (   0.000000   0.000000  25.155947 )

     reciprocal axes: (cart. coord. in units 2 pi/alat)
               b(1) = (  0.151982  0.000020  0.000000 )
               b(2) = (  0.000000  0.167740  0.000000 )
               b(3) = (  0.000000  0.000000  0.039752 )

     PseudoPot. # 1 for Ti read from file:
     /storage/coda1/p-amedford6/0/shared/rich_project_chbe-medford/medford-share/data/pseudos_module/espresso/nninc/pbe/van/Ti.UPF
     MD5 check sum: 8e4df49b7f0d34bbd5052bf3f5ea0213
     Pseudo is Ultrasoft, Zval = 12.0
     Generated by new atomic code, or converted to UPF format
     Using radial grid of  851 points,  6 beta functions with:
                l(1) =   0
                l(2) =   0
                l(3) =   1
                l(4) =   1
                l(5) =   2
                l(6) =   2
     Q(r) pseudized with  8 coefficients,  rinner =    1.000   1.000   1.000
                                                       1.000   1.000

     PseudoPot. # 2 for O  read from file:
     /storage/coda1/p-amedford6/0/shared/rich_project_chbe-medford/medford-share/data/pseudos_module/espresso/nninc/pbe/van/O.UPF
     MD5 check sum: 78c19812648e8988a0fe644b0f25305e
     Pseudo is Ultrasoft, Zval =  6.0
     Generated by new atomic code, or converted to UPF format
     Using radial grid of  737 points,  4 beta functions with:
                l(1) =   0
                l(2) =   0
                l(3) =   1
                l(4) =   1
     Q(r) pseudized with  8 coefficients,  rinner =    0.800   0.800   0.800

     PseudoPot. # 3 for C  read from file:
     /storage/coda1/p-amedford6/0/shared/rich_project_chbe-medford/medford-share/data/pseudos_module/espresso/nninc/pbe/van/C.UPF
     MD5 check sum: 1a69bf6b8db32088f5b2163dbdb77a27
     Pseudo is Ultrasoft, Zval =  4.0
     Generated by new atomic code, or converted to UPF format
     Using radial grid of  721 points,  4 beta functions with:
                l(1) =   0
                l(2) =   0
                l(3) =   1
                l(4) =   1
     Q(r) pseudized with  8 coefficients,  rinner =    0.800   0.800   0.800

     PseudoPot. # 4 for H  read from file:
     /storage/coda1/p-amedford6/0/shared/rich_project_chbe-medford/medford-share/data/pseudos_module/espresso/nninc/pbe/van/H.UPF
     MD5 check sum: b5ee9d7bfd3a09ee7748110bda690ff7
     Pseudo is Ultrasoft, Zval =  1.0
     Generated by new atomic code, or converted to UPF format
     Using radial grid of  615 points,  1 beta functions with:
                l(1) =   0
     Q(r) pseudized with  8 coefficients,  rinner =    0.800

     atomic species   valence    mass     pseudopotential
        Ti1           12.00    47.86700     Ti( 1.00)
        O1             6.00    15.99900     O ( 1.00)
        C1             4.00    12.01100     C ( 1.00)
        H1             1.00     1.00800     H ( 1.00)

     No symmetry found

   Cartesian axes

     site n.     atom                  positions (alat units)
         1           Ti1 tau(   1) = (   0.0004258   2.9801865   6.0000000  )
         2           Ti1 tau(   2) = (   3.2906075   1.4906267   6.0002472  )
         3           O1  tau(   3) = (   0.0006271   0.0005054   7.9858123  )
         4           O1  tau(   4) = (   3.2906025   0.0005020   7.3038282  )
         5           O1  tau(   5) = (   4.5942328   1.4918067   9.2879030  )
         6           O1  tau(   6) = (   1.9868534   1.4903216   9.2879459  )
         7           Ti1 tau(   7) = (   3.2756478   2.8760420   9.1630771  )
         8           Ti1 tau(   8) = (   6.5651030   1.4385007   9.3790407  )
         9           O1  tau(   9) = (   3.2651923   0.0045787  11.3553482  )
        10           O1  tau(  10) = (   6.5766178   5.9492394  10.5646413  )
        11           O1  tau(  11) = (   1.2591847   1.4977620  12.6679731  )
        12           O1  tau(  12) = (   5.2482661   1.4982983  12.6347741  )
        13           Ti1 tau(  13) = (   0.0651775   2.9654633  12.8696618  )
        14           Ti1 tau(  14) = (   3.3800656   1.4924449  12.4946823  )
        15           O1  tau(  15) = (   6.5296085   5.9207011  14.6097682  )
        16           O1  tau(  16) = (   3.2682314   0.0147111  13.9481481  )
        17           O1  tau(  17) = (   4.4912147   1.5408453  16.1034427  )
        18           O1  tau(  18) = (   2.0062121   1.5430191  16.1010343  )
        19           Ti1 tau(  19) = (   3.2584153   3.0188911  15.7272741  )
        20           Ti1 tau(  20) = (   6.5595668   1.6180917  16.2090303  )
        21           O1  tau(  21) = (   3.2904802   0.0005063   4.7018136  )
        22           O1  tau(  22) = (   6.5447935   0.0528136  17.2578995  )
        23           O1  tau(  23) = (   1.3043587   1.4918075   6.0039043  )
        24           O1  tau(  24) = (   5.2767064   1.4903225   6.0039473  )
        25           Ti1 tau(  25) = (   0.0000382   5.9609847   6.0000000  )
        26           Ti1 tau(  26) = (   3.2902200   4.4714249   6.0002472  )
        27           O1  tau(  27) = (   0.0002396   2.9813036   7.9858123  )
        28           O1  tau(  28) = (   3.2902150   2.9813002   7.3038282  )
        29           O1  tau(  29) = (   4.5938453   4.4726049   9.2879030  )
        30           O1  tau(  30) = (   1.9864658   4.4711199   9.2879459  )
        31           Ti1 tau(  31) = (   3.2806623   5.8565216   9.1617982  )
        32           Ti1 tau(  32) = (   6.5670484   4.4138833   9.3856844  )
        33           O1  tau(  33) = (   3.2704644   2.9808095  11.3502114  )
        34           O1  tau(  34) = (   6.5770050   2.9672111  10.5601139  )
        35           O1  tau(  35) = (   1.2614422   4.4490125  12.6594447  )
        36           O1  tau(  36) = (   5.2451530   4.4578719  12.6250501  )
        37           Ti1 tau(  37) = (   0.0436288   5.9429386  12.8080954  )
        38           Ti1 tau(  38) = (   3.3780510   4.4695497  12.4860242  )
        39           O1  tau(  39) = (   6.5513063   2.9765972  14.7162787  )
        40           O1  tau(  40) = (   3.2682626   2.9952000  13.9367060  )
        41           O1  tau(  41) = (   4.4851171   4.5114873  16.1027694  )
        42           O1  tau(  42) = (   2.0082088   4.5103763  16.0975713  )
        43           Ti1 tau(  43) = (   3.2690221   0.0357551  15.7449602  )
        44           Ti1 tau(  44) = (   6.5655258   4.6249605  16.1704562  )
        45           O1  tau(  45) = (   3.2900926   2.9813045   4.7018136  )
        46           O1  tau(  46) = (   1.3039711   4.4726057   6.0039043  )
        47           O1  tau(  47) = (   5.2763189   4.4711207   6.0039473  )
        48           C1  tau(  48) = (   6.5259393   3.0234738  17.6025649  )
        49           H1  tau(  49) = (   0.8472112   3.1395175  18.2203151  )
        50           H1  tau(  50) = (   5.6209537   3.1160310  18.2142257  )

     number of k points=    10  Fermi-Dirac smearing, width (Ry)=  0.0073
                       cart. coord. in units 2pi/alat
        k(    1) = (   0.0000000   0.0000000   0.0000000), wk =   0.1250000
        k(    2) = (   0.0000000   0.0419351   0.0000000), wk =   0.2500000
        k(    3) = (   0.0000000  -0.0838702   0.0000000), wk =   0.1250000
        k(    4) = (   0.0379955   0.0000049   0.0000000), wk =   0.2500000
        k(    5) = (   0.0379955   0.0419400   0.0000000), wk =   0.2500000
        k(    6) = (   0.0379955  -0.0838652   0.0000000), wk =   0.2500000
        k(    7) = (   0.0379955  -0.0419301   0.0000000), wk =   0.2500000
        k(    8) = (  -0.0759910  -0.0000099   0.0000000), wk =   0.1250000
        k(    9) = (  -0.0759910   0.0419252   0.0000000), wk =   0.2500000
        k(   10) = (  -0.0759910  -0.0838800   0.0000000), wk =   0.1250000

     Initial potential from superposition of free atoms

     starting charge  367.99919, renormalised to  384.00000

     negative rho (up, down):  2.117E-02 0.000E+00

     %%%%%%%%%%%%%%%%%%%%%%%%%%%%%%%%%%%%%%%%%%%%%%%%%%%%%%%%%%%%%%%%%%%%%%%%
     %                                                                      %
     % You are using vdW-DF, which was implemented by the Thonhauser group. %
     % Please cite the following two papers that made this development      %
     % possible and the two reviews that describe the various versions:     %
     %                                                                      %
     %   T. Thonhauser et al., PRL 115, 136402 (2015).                      %
     %   T. Thonhauser et al., PRB 76, 125112 (2007).                       %
     %   K. Berland et al., Rep. Prog. Phys. 78, 066501 (2015).             %
     %   D.C. Langreth et al., J. Phys.: Condens. Matter 21, 084203 (2009). %
     %                                                                      %
     %                                                                      %
     % If you are calculating the stress with vdW-DF, please also cite:     %
     %                                                                      %
     %   R. Sabatini et al., J. Phys.: Condens. Matter 24, 424209 (2012).   %
     %                                                                      %
     %%%%%%%%%%%%%%%%%%%%%%%%%%%%%%%%%%%%%%%%%%%%%%%%%%%%%%%%%%%%%%%%%%%%%%%%

     Adding external electric field

     Computed dipole along edir(3) :
        Dipole               -0.5161 Ry au,         -1.3117 Debye
        Dipole field         -0.0010 Ry au,

        Potential amp.        0.0903 Ry
        Total length         46.3494 bohr

     Starting wfcs are  290 atomic wfcs
  @ DRIVER MODE: Message from server: STATUS
  @ DRIVER MODE: Message from server: POSDATA
  @ DRIVER MODE: Reading and sharing cell
  @ DRIVER MODE: Reading and sharing positions
  @ DRIVER MODE: Received positions

     Self-consistent Calculation

     iteration #  1     ecut=    29.40 Ry     beta= 0.05
     Davidson diagonalization with overlap
     c_bands:  1 eigenvalues not converged
     c_bands:  2 eigenvalues not converged
     c_bands:  4 eigenvalues not converged
     c_bands:  3 eigenvalues not converged
     c_bands:  1 eigenvalues not converged
     c_bands:  2 eigenvalues not converged
     c_bands:  1 eigenvalues not converged
     c_bands:  1 eigenvalues not converged
     c_bands:  1 eigenvalues not converged
     c_bands:  2 eigenvalues not converged
     ethr =  1.00E-05,  avg # of iterations = 22.0

[...]

     total energy              =   -2899.22718777 Ry
     estimated scf accuracy    <      12.09430576 Ry

     iteration #  2     ecut=    29.40 Ry     beta= 0.05
     Davidson diagonalization with overlap
     ethr =  3.15E-03,  avg # of iterations =  1.0

[...]

     iteration # 53     ecut=    29.40 Ry     beta= 0.05
     Davidson diagonalization with overlap
     c_bands:  1 eigenvalues not converged
     ethr =  6.57E-08,  avg # of iterations =  7.2

[...]

     total energy              =   -2897.72454088 Ry
     estimated scf accuracy    <       0.00000009 Ry

     iteration # 75     ecut=    29.40 Ry     beta= 0.05
     Davidson diagonalization with overlap
     ethr =  2.28E-11,  avg # of iterations =  4.4

     negative rho (up, down):  2.039E-02 0.000E+00

     Adding external electric field

     Computed dipole along edir(3) :
        Dipole                0.2842 Ry au,          0.7224 Debye
        Dipole field          0.0005 Ry au,

        Potential amp.       -0.0497 Ry
        Total length         46.3494 bohr

     End of self-consistent calculation

          k = 0.0000 0.0000 0.0000 ( 18029 PWs)   bands (ev):

   -56.6550 -56.6210 -56.3951 -56.3584 -56.3189 -56.2662 -56.0861 -56.0856
   -56.0517 -55.9794 -55.9583 -55.9201 -55.5438 -55.4725 -55.4385 -55.4181
   -33.0844 -32.9413 -32.9037 -32.8749 -32.8456 -32.7696 -32.7541 -32.7177
   -32.7110 -32.6374 -32.6189 -32.5947 -32.5872 -32.5663 -32.5573 -32.5445
   -32.5438 -32.5265 -32.4586 -32.4470 -32.3804 -32.3488 -32.3372 -32.3208
   -32.3081 -32.3032 -32.2366 -32.2205 -32.2105 -32.1960 -32.1939 -32.1542
   -32.1498 -32.1364 -32.1124 -32.0572 -32.0115 -31.8739 -31.8520 -31.7966
   -31.7961 -31.7725 -31.7387 -31.6922 -31.6072 -31.5961 -31.4951 -31.4682
   -17.0460 -16.8388 -16.6212 -16.4760 -16.3922 -16.3393 -16.0497 -16.0351
   -16.0206 -15.9210 -15.9146 -15.8528 -15.8253 -15.8174 -15.8080 -15.8055
   -15.7656 -15.7243 -15.6963 -15.6605 -15.6302 -15.5941 -15.4975 -15.4601
   -15.4414 -15.3218 -15.2634 -15.2301 -15.0881 -13.9653 -13.8508  -8.3737
    -4.4320  -4.3822  -4.2265  -4.2150  -4.1020  -3.8837  -3.7054  -3.5168
    -3.4833  -3.4541  -3.4476  -3.3472  -3.2961  -3.1846  -3.1811  -3.1464
    -3.1326  -3.1034  -3.0836  -3.0763  -3.0372  -3.0116  -2.9523  -2.9099
    -2.9047  -2.8501  -2.7662  -2.6728  -2.6540  -2.6199  -2.5889  -2.5484
    -2.5339  -2.4343  -2.4285  -2.3612  -2.2194  -2.2074  -2.1575  -2.1295
    -2.1006  -2.0624  -1.9264  -1.7824  -1.7348  -1.7240  -1.6939  -1.6832
    -1.6508  -1.5312  -1.4839  -1.3858  -1.3540  -1.2456  -1.2323  -1.2156
    -1.1968  -1.1711  -1.1012  -1.0707  -1.0373  -0.9464  -0.8947  -0.7648
    -0.7278  -0.7097  -0.6854  -0.6772  -0.6197  -0.5774  -0.5189  -0.5059
    -0.4502  -0.4084  -0.3904  -0.3732  -0.3483  -0.2860  -0.2168  -0.1909
    -0.1325  -0.0904   0.1027   0.1378   0.1608   0.1891   0.2688   0.3026
     0.4815   0.4930   0.5565   0.7594   0.8015   1.1498   1.2292   1.7007
     2.6088   2.7896   2.9923   3.0476   3.0876   3.1663   3.2275   3.3039
     3.3370   3.4578

[...]

          k = 0.0380-0.0419 0.0000 ( 17876 PWs)   bands (ev):

[...]

          k =-0.0760-0.0000 0.0000 ( 17886 PWs)   bands (ev):

[...]

          k =-0.0760-0.0839 0.0000 ( 17948 PWs)   bands (ev):

   -56.6407 -56.6351 -56.3804 -56.3729 -56.3125 -56.2725 -56.0832 -56.0694
   -56.0677 -55.9822 -55.9468 -55.9315 -55.5414 -55.4555 -55.4554 -55.4204
   -32.9041 -32.8995 -32.8923 -32.8855 -32.8004 -32.7957 -32.7490 -32.7426
   -32.6807 -32.6679 -32.6103 -32.6049 -32.5800 -32.5742 -32.5670 -32.5565
   -32.5119 -32.4754 -32.4036 -32.3919 -32.3911 -32.3269 -32.3230 -32.3198
   -32.3032 -32.2901 -32.2868 -32.2830 -32.2616 -32.2526 -32.2292 -32.2132
   -32.1590 -32.1581 -32.1471 -32.1444 -31.9198 -31.8503 -31.8001 -31.7854
   -31.7853 -31.7222 -31.6908 -31.6880 -31.6879 -31.6498 -31.6498 -31.4881
   -16.5145 -16.4875 -16.2709 -16.2573 -16.1496 -16.1467 -16.1361 -16.1349
   -16.0419 -16.0377 -15.9881 -15.9676 -15.9115 -15.8996 -15.8625 -15.8609
   -15.8375 -15.8362 -15.7930 -15.7905 -15.6517 -15.6500 -15.5323 -15.5282
   -15.4914 -15.4482 -15.4098 -15.3950 -15.2283 -13.9530 -13.9527  -8.3755
    -3.8181  -3.7809  -3.4848  -3.4766  -3.2795  -3.2768  -3.2550  -3.2468
    -3.2251  -3.1974  -3.1836  -3.1815  -3.1443  -3.1032  -3.0807  -3.0629
    -3.0519  -3.0456  -3.0411  -3.0394  -3.0203  -2.9986  -2.9815  -2.9574
    -2.9024  -2.8914  -2.8663  -2.8569  -2.7688  -2.6255  -2.5651  -2.5599
    -2.5312  -2.5233  -2.4833  -2.3979  -2.3924  -2.3562  -2.3466  -2.3267
    -2.1282  -2.0717  -2.0674  -2.0042  -1.9754  -1.8700  -1.7252  -1.6905
    -1.6675  -1.6463  -1.5622  -1.5242  -1.5085  -1.4852  -1.4782  -1.4542
    -1.4449  -1.3524  -1.3474  -1.3153  -1.2668  -1.2072  -1.2041  -1.1806
    -1.1596  -1.0613  -0.9934  -0.9777  -0.9652  -0.9225  -0.8402  -0.7990
    -0.7589  -0.6748  -0.6590  -0.3910  -0.3892  -0.2493  -0.2406  -0.1118
    -0.0946  -0.0034   0.0259   0.0691   0.1830   0.1962   0.2011   0.2294
     0.3283   0.3297   0.3557   0.9403   0.9406   1.0057   1.0069   1.9730
     3.0393   3.0563   3.1352   3.1481   3.1533   3.1748   3.2155   3.2174
     3.5168   3.5296

     the Fermi energy is     2.3187 ev

!    total energy              =   -2897.72455072 Ry
     estimated scf accuracy    <       0.00000005 Ry
     smearing contrib. (-TS)   =      -0.00174659 Ry
     internal energy E=F+TS    =   -2897.72280413 Ry

     The total energy is F=E-TS. E is the sum of the following terms:
     one-electron contribution =  -24687.27966886 Ry
     hartree contribution      =   12421.63493919 Ry
     xc contribution           =    -473.85393780 Ry
     ewald contribution        =    9841.77571090 Ry
     electric field correction =       0.00015243 Ry

     convergence has been achieved in  75 iterations

     Forces acting on atoms (cartesian axes, Ry/au):

     atom    1 type  1   force =     0.00029732   -0.00003936    0.14830604
     atom    2 type  1   force =     0.00006053   -0.00032661   -0.17138513
     atom    3 type  2   force =    -0.00004548    0.00264376   -0.06005894
     atom    4 type  2   force =    -0.00032646   -0.00140615    0.04051406
     atom    5 type  2   force =    -0.02535529    0.00094276    0.00490496
     atom    6 type  2   force =     0.02286494    0.00011962    0.00295283
     atom    7 type  1   force =    -0.00051568   -0.00073293    0.00005611
     atom    8 type  1   force =     0.00074115   -0.00040720    0.00058101
     atom    9 type  2   force =     0.00089166   -0.00028233    0.00021443
     atom   10 type  2   force =    -0.00010830   -0.00000310   -0.00038188
     atom   11 type  2   force =    -0.00014318    0.00002385    0.00009478
     atom   12 type  2   force =     0.00014905    0.00011793    0.00004944
     atom   13 type  1   force =     0.00001971   -0.00099832    0.00065503
     atom   14 type  1   force =    -0.00003505   -0.00115695   -0.00014081
     atom   15 type  2   force =     0.00024310   -0.00038251   -0.00094804
     atom   16 type  2   force =     0.00002325    0.00015462    0.00021539
     atom   17 type  2   force =     0.00090134    0.00001043    0.00018308
     atom   18 type  2   force =    -0.00051751   -0.00027852    0.00026441
     atom   19 type  1   force =     0.00053205   -0.00027969    0.00020603
     atom   20 type  1   force =     0.00020813   -0.00233676   -0.00226554
     atom   21 type  2   force =     0.00014137   -0.00010212    0.10277089
     atom   22 type  2   force =     0.00008514    0.00009441    0.00002662
     atom   23 type  2   force =    -0.07358133    0.00029599   -0.03463733
     atom   24 type  2   force =     0.07362875    0.00074251   -0.03468783
     atom   25 type  1   force =     0.00008018   -0.00018447    0.14948883
     atom   26 type  1   force =     0.00000423   -0.00104907   -0.17154809
     atom   27 type  2   force =    -0.00006848    0.00191098   -0.05904554
     atom   28 type  2   force =    -0.00039669   -0.00136568    0.04048463
     atom   29 type  2   force =    -0.02527565    0.00191467    0.00519281
     atom   30 type  2   force =     0.02336593    0.00034793    0.00324169
     atom   31 type  1   force =    -0.00048294   -0.00021401    0.00009870
     atom   32 type  1   force =     0.00062460   -0.00025943    0.00017570
     atom   33 type  2   force =     0.00004971   -0.00037905    0.00029073
     atom   34 type  2   force =     0.00007153   -0.00014316   -0.00010140
     atom   35 type  2   force =    -0.00017634   -0.00034194   -0.00041306
     atom   36 type  2   force =     0.00049265   -0.00063017   -0.00020384
     atom   37 type  1   force =     0.00090759    0.00031741    0.00033219
     atom   38 type  1   force =    -0.00033517   -0.00014996    0.00039133
     atom   39 type  2   force =     0.00007471    0.00008642   -0.00174521
     atom   40 type  2   force =     0.00000053    0.00030245   -0.00098971
     atom   41 type  2   force =     0.00008144    0.00031179    0.00017954
     atom   42 type  2   force =     0.00045624    0.00061839    0.00024693
     atom   43 type  1   force =     0.00039451    0.00081034   -0.00074392
     atom   44 type  1   force =    -0.00045537    0.00096212   -0.00096970
     atom   45 type  2   force =     0.00013798   -0.00009377    0.10272937
     atom   46 type  2   force =    -0.07360788   -0.00012313   -0.03462831
     atom   47 type  2   force =     0.07366548    0.00033982   -0.03470267
     atom   48 type  3   force =     0.00125104    0.00273723    0.01398138
     atom   49 type  4   force =    -0.00546873   -0.00141962   -0.00466856
     atom   50 type  4   force =     0.00444972   -0.00071939   -0.00456343

     Total force =     0.404835     Total SCF correction =     0.000685
  @ DRIVER MODE: Message from server: STATUS
  @ DRIVER MODE: Message from server: GETFORCE
  @ DRIVER MODE: Returning v,forces,stress,ensemble

     Writing output data file ./calc.save/
  @ DRIVER MODE: Message from server: EXIT
  @ DRIVE MODE: Exiting

     General routines

     Parallel routines

   This run was terminated on:  23:27:20   8Sep2021

   JOB DONE.