     Program PWSCF v.6.7GPU starts on 23Sep2021 at 17:47: 6

     R & G space division:  proc/nbgrp/npool/nimage =       8
     Reading input from /storage/home/hcoda1/3/ntian30/research/carbon/CxH_vib/H2O_calc/ads_slab/CH3N2HO_c/out_0048/pw.inp
Warning: card &CELL ignored
Warning: card   CELL_DYNAMICS='IPI', ignored
Warning: card / ignored

     Current dimensions of program PWSCF are:
     Max number of different atomic species (ntypx) = 10
     Max number of k-points (npk) =  40000
     Max angular momentum in pseudopotentials (lmaxx) =  3
     Presently no symmetry can be used with electric field

     Message from routine cell_base_init:
     DEPRECATED: use true lattice parameter, not A to a.u. conversion factor

     IMPORTANT: XC functional enforced from input :
     Exchange-correlation= BEEF-VDW
                           (   1   4  43  14   2   0   0)
     Any further DFT definition will be discarded
     Please, verify this is what you really want

  @ DRIVER MODE: Connecting to
 qe_1139763_2941007.sched-torque.pace.gatech.edugo8ye_08_scratch
  using UNIX socket
  @ DRIVER MODE: Message from server: STATUS
  @ DRIVER MODE: Message from server: INIT
  @ DRIVER MODE: Receiving replica           0          -1
  @ DRIVER MODE: Receiving encoded integer          25
  @ DRIVER MODE:  SCF:  T  FORCE:  T  STRESS:  F  VC:  F  ENSEMBLE:  F
  @ DRIVER MODE:  SCF:  T  FORCE:  T  STRESS:  F  VC:  F  ENSEMBLE:  F

     Using Slab Decomposition

     bravais-lattice index     =            0
     lattice parameter (alat)  =       1.8897  a.u.
     unit-cell volume          =    6658.9804 (a.u.)^3
     number of atoms/cell      =           55
     number of atomic types    =            5
     number of electrons       =       402.00
     number of Kohn-Sham states=          211
     kinetic-energy cutoff     =      29.3995  Ry
     charge density cutoff     =     293.9946  Ry
     scf convergence threshold =      7.3E-08
     mixing beta               =       0.0500
     number of iterations used =            8  plain     mixing
     Exchange-correlation= BEEF-VDW
                           (   1   4  43  14   2   0   0)

     celldm(1)=   1.889726  celldm(2)=   0.000000  celldm(3)=   0.000000
     celldm(4)=   0.000000  celldm(5)=   0.000000  celldm(6)=   0.000000

     crystal axes: (cart. coord. in units of alat)
               a(1) = (   6.579727   0.000000   0.000000 )
               a(2) = (  -0.000775   5.961596   0.000000 )
               a(3) = (   0.000000   0.000000  25.155947 )

     reciprocal axes: (cart. coord. in units 2 pi/alat)
               b(1) = (  0.151982  0.000020  0.000000 )
               b(2) = (  0.000000  0.167740  0.000000 )
               b(3) = (  0.000000  0.000000  0.039752 )

     PseudoPot. # 1 for Ti read from file:
     /storage/coda1/p-amedford6/0/shared/rich_project_chbe-medford/medford-share/data/pseudos_module/espresso/nninc/pbe/van/Ti.UPF
     MD5 check sum: 8e4df49b7f0d34bbd5052bf3f5ea0213
     Pseudo is Ultrasoft, Zval = 12.0
     Generated by new atomic code, or converted to UPF format
     Using radial grid of  851 points,  6 beta functions with:
                l(1) =   0
                l(2) =   0
                l(3) =   1
                l(4) =   1
                l(5) =   2
                l(6) =   2
     Q(r) pseudized with  8 coefficients,  rinner =    1.000   1.000   1.000
                                                       1.000   1.000

     PseudoPot. # 2 for O  read from file:
     /storage/coda1/p-amedford6/0/shared/rich_project_chbe-medford/medford-share/data/pseudos_module/espresso/nninc/pbe/van/O.UPF
     MD5 check sum: 78c19812648e8988a0fe644b0f25305e
     Pseudo is Ultrasoft, Zval =  6.0
     Generated by new atomic code, or converted to UPF format
     Using radial grid of  737 points,  4 beta functions with:
                l(1) =   0
                l(2) =   0
                l(3) =   1
                l(4) =   1
     Q(r) pseudized with  8 coefficients,  rinner =    0.800   0.800   0.800

     PseudoPot. # 3 for N  read from file:
     /storage/coda1/p-amedford6/0/shared/rich_project_chbe-medford/medford-share/data/pseudos_module/espresso/nninc/pbe/van/N.UPF
     MD5 check sum: 90d10febe142ad51ac9d5be1deb811c4
     Pseudo is Ultrasoft, Zval =  5.0
     Generated by new atomic code, or converted to UPF format
     Using radial grid of  729 points,  4 beta functions with:
                l(1) =   0
                l(2) =   0
                l(3) =   1
                l(4) =   1
     Q(r) pseudized with  8 coefficients,  rinner =    0.800   0.800   0.800

     PseudoPot. # 4 for C  read from file:
     /storage/coda1/p-amedford6/0/shared/rich_project_chbe-medford/medford-share/data/pseudos_module/espresso/nninc/pbe/van/C.UPF
     MD5 check sum: 1a69bf6b8db32088f5b2163dbdb77a27
     Pseudo is Ultrasoft, Zval =  4.0
     Generated by new atomic code, or converted to UPF format
     Using radial grid of  721 points,  4 beta functions with:
                l(1) =   0
                l(2) =   0
                l(3) =   1
                l(4) =   1
     Q(r) pseudized with  8 coefficients,  rinner =    0.800   0.800   0.800

     PseudoPot. # 5 for H  read from file:
     /storage/coda1/p-amedford6/0/shared/rich_project_chbe-medford/medford-share/data/pseudos_module/espresso/nninc/pbe/van/H.UPF
     MD5 check sum: b5ee9d7bfd3a09ee7748110bda690ff7
     Pseudo is Ultrasoft, Zval =  1.0
     Generated by new atomic code, or converted to UPF format
     Using radial grid of  615 points,  1 beta functions with:
                l(1) =   0
     Q(r) pseudized with  8 coefficients,  rinner =    0.800

     atomic species   valence    mass     pseudopotential
        Ti1           12.00    47.86700     Ti( 1.00)
        O1             6.00    15.99900     O ( 1.00)
        N1             5.00    14.00700     N ( 1.00)
        C1             4.00    12.01100     C ( 1.00)
        H1             1.00     1.00800     H ( 1.00)

     No symmetry found

   Cartesian axes

     site n.     atom                  positions (alat units)
         1           Ti1 tau(   1) = (   0.0004258   2.9801865   6.0000000  )
         2           Ti1 tau(   2) = (   3.2906075   1.4906267   6.0002472  )
         3           O1  tau(   3) = (   0.0006271   0.0005054   7.9858123  )
         4           O1  tau(   4) = (   3.2906025   0.0005020   7.3038282  )
         5           O1  tau(   5) = (   4.5942328   1.4918067   9.2879030  )
         6           O1  tau(   6) = (   1.9868534   1.4903216   9.2879459  )
         7           Ti1 tau(   7) = (   3.2907910   2.8959150   9.1758416  )
         8           Ti1 tau(   8) = (   0.0015273   1.4827037   9.2680791  )
         9           O1  tau(   9) = (   3.2989311   0.0219330  11.3020621  )
        10           O1  tau(  10) = (   0.0116148   5.9584955  10.6183126  )
        11           O1  tau(  11) = (   1.3029919   1.4976758  12.6257209  )
        12           O1  tau(  12) = (   5.3026591   1.4951023  12.6306759  )
        13           Ti1 tau(  13) = (   0.0286689   2.8598525  12.6759356  )
        14           Ti1 tau(  14) = (   3.3054201   1.5706400  12.4108957  )
        15           O1  tau(  15) = (   0.0066217   5.9386728  14.6456674  )
        16           O1  tau(  16) = (   3.2936494   5.9217248  13.9190535  )
        17           O1  tau(  17) = (   4.5783085   1.5227378  16.0725395  )
        18           O1  tau(  18) = (   2.0661487   1.5008106  16.0935948  )
        19           Ti1 tau(  19) = (   3.3004316   2.9577776  15.6622982  )
        20           Ti1 tau(  20) = (   6.5114840   1.4532315  15.8500040  )
        21           O1  tau(  21) = (   3.2904802   0.0005063   4.7018136  )
        22           O1  tau(  22) = (   0.0101108   5.9483577  17.1703567  )
        23           O1  tau(  23) = (   1.3043587   1.4918075   6.0039043  )
        24           O1  tau(  24) = (   5.2767064   1.4903225   6.0039473  )
        25           Ti1 tau(  25) = (   0.0000382   5.9609847   6.0000000  )
        26           Ti1 tau(  26) = (   3.2902200   4.4714249   6.0002472  )
        27           O1  tau(  27) = (   0.0002396   2.9813036   7.9858123  )
        28           O1  tau(  28) = (   3.2902150   2.9813002   7.3038282  )
        29           O1  tau(  29) = (   4.5938453   4.4726049   9.2879030  )
        30           O1  tau(  30) = (   1.9864658   4.4711199   9.2879459  )
        31           Ti1 tau(  31) = (   3.2891106   5.8743827   9.1763621  )
        32           Ti1 tau(  32) = (   0.0006254   4.4649316   9.2693709  )
        33           O1  tau(  33) = (   3.2985377   2.9527140  11.2683515  )
        34           O1  tau(  34) = (   0.0092240   2.9805883  10.6323155  )
        35           O1  tau(  35) = (   1.2869011   4.4751273  12.6337776  )
        36           O1  tau(  36) = (   5.3033013   4.4751711  12.6363117  )
        37           Ti1 tau(  37) = (   6.5677423   5.8343599  12.5653580  )
        38           Ti1 tau(  38) = (   3.2861748   4.6640272  12.6826305  )
        39           O1  tau(  39) = (   0.0268303   2.9326313  14.6927244  )
        40           O1  tau(  40) = (   3.2973518   2.9805258  13.8830516  )
        41           O1  tau(  41) = (   4.5656241   4.3944478  16.1024780  )
        42           O1  tau(  42) = (   2.0389263   4.3990843  16.1000718  )
        43           Ti1 tau(  43) = (   3.2183859   5.9292641  16.3327267  )
        44           Ti1 tau(  44) = (   6.5399727   4.6159235  16.0325440  )
        45           O1  tau(  45) = (   3.2900926   2.9813045   4.7018136  )
        46           O1  tau(  46) = (   1.3039711   4.4726057   6.0039043  )
        47           O1  tau(  47) = (   5.2763189   4.4711207   6.0039473  )
        48           N1  tau(  48) = (   0.1383159   2.7169024  18.7005470  )
        49           N1  tau(  49) = (   0.0454196   2.8879789  17.5111406  )
        50           C1  tau(  50) = (   0.1807782   3.8735959  19.6428767  )
        51           H1  tau(  51) = (   6.4938760   4.8136915  19.1652781  )
        52           H1  tau(  52) = (   6.0945921   3.6282151  20.4682347  )
        53           H1  tau(  53) = (   1.2016282   3.9139503  20.0277151  )
        54           O1  tau(  54) = (   3.2907091   5.9158944  18.1602194  )
        55           H1  tau(  55) = (   3.1351319   0.7410148  18.7117648  )

     number of k points=    10  Fermi-Dirac smearing, width (Ry)=  0.0073
                       cart. coord. in units 2pi/alat
        k(    1) = (   0.0000000   0.0000000   0.0000000), wk =   0.1250000
        k(    2) = (   0.0000000   0.0419351   0.0000000), wk =   0.2500000
        k(    3) = (   0.0000000  -0.0838702   0.0000000), wk =   0.1250000
        k(    4) = (   0.0379955   0.0000049   0.0000000), wk =   0.2500000
        k(    5) = (   0.0379955   0.0419400   0.0000000), wk =   0.2500000
        k(    6) = (   0.0379955  -0.0838652   0.0000000), wk =   0.2500000
        k(    7) = (   0.0379955  -0.0419301   0.0000000), wk =   0.2500000
        k(    8) = (  -0.0759910  -0.0000099   0.0000000), wk =   0.1250000
        k(    9) = (  -0.0759910   0.0419252   0.0000000), wk =   0.2500000
        k(   10) = (  -0.0759910  -0.0838800   0.0000000), wk =   0.1250000

     Initial potential from superposition of free atoms

     starting charge  385.99915, renormalised to  402.00000

     negative rho (up, down):  1.430E-02 0.000E+00

     %%%%%%%%%%%%%%%%%%%%%%%%%%%%%%%%%%%%%%%%%%%%%%%%%%%%%%%%%%%%%%%%%%%%%%%%
     %                                                                      %
     % You are using vdW-DF, which was implemented by the Thonhauser group. %
     % Please cite the following two papers that made this development      %
     % possible and the two reviews that describe the various versions:     %
     %                                                                      %
     %   T. Thonhauser et al., PRL 115, 136402 (2015).                      %
     %   T. Thonhauser et al., PRB 76, 125112 (2007).                       %
     %   K. Berland et al., Rep. Prog. Phys. 78, 066501 (2015).             %
     %   D.C. Langreth et al., J. Phys.: Condens. Matter 21, 084203 (2009). %
     %                                                                      %
     %                                                                      %
     % If you are calculating the stress with vdW-DF, please also cite:     %
     %                                                                      %
     %   R. Sabatini et al., J. Phys.: Condens. Matter 24, 424209 (2012).   %
     %                                                                      %
     %%%%%%%%%%%%%%%%%%%%%%%%%%%%%%%%%%%%%%%%%%%%%%%%%%%%%%%%%%%%%%%%%%%%%%%%

     Adding external electric field

     Computed dipole along edir(3) :
        Dipole              -12.0470 Ry au,        -30.6204 Debye
        Dipole field         -0.0227 Ry au,

        Potential amp.        2.1074 Ry
        Total length         46.3494 bohr

     Starting wfcs are  304 atomic wfcs
  @ DRIVER MODE: Message from server: STATUS
  @ DRIVER MODE: Message from server: POSDATA
  @ DRIVER MODE: Reading and sharing cell
  @ DRIVER MODE: Reading and sharing positions
  @ DRIVER MODE: Received positions

     Self-consistent Calculation

     iteration #  1     ecut=    29.40 Ry     beta= 0.05
     Davidson diagonalization with overlap
     c_bands:  5 eigenvalues not converged
     c_bands:  3 eigenvalues not converged
     c_bands:  5 eigenvalues not converged
     c_bands:  3 eigenvalues not converged
     c_bands:  3 eigenvalues not converged
     c_bands:  2 eigenvalues not converged
     c_bands:  5 eigenvalues not converged
     c_bands:  5 eigenvalues not converged
     ethr =  1.00E-05,  avg # of iterations = 21.5

[...]

     total energy              =   -2397.71019560 Ry
     estimated scf accuracy    <    6480.75630281 Ry

     iteration #  2     ecut=    29.40 Ry     beta= 0.05
     Davidson diagonalization with overlap
     ethr =  1.00E-02,  avg # of iterations = 22.8

[...]

     iteration # 34     ecut=    29.40 Ry     beta= 0.05
     Davidson diagonalization with overlap
     c_bands:  2 eigenvalues not converged
     ethr =  3.17E-07,  avg # of iterations =  8.1

[...]

     total energy              =   -2972.75294305 Ry
     estimated scf accuracy    <       0.00000008 Ry

     iteration # 61     ecut=    29.40 Ry     beta= 0.05
     Davidson diagonalization with overlap
     ethr =  1.88E-11,  avg # of iterations =  3.0

     negative rho (up, down):  1.492E-02 0.000E+00

     Adding external electric field

     Computed dipole along edir(3) :
        Dipole                0.6557 Ry au,          1.6665 Debye
        Dipole field          0.0012 Ry au,

        Potential amp.       -0.1147 Ry
        Total length         46.3494 bohr

     End of self-consistent calculation

          k = 0.0000 0.0000 0.0000 ( 18029 PWs)   bands (ev):

   -56.2004 -56.1666 -55.7860 -55.7525 -55.5806 -55.5458 -55.4958 -55.3465
   -55.3113 -55.3108 -55.1669 -55.1525 -55.0261 -55.0023 -54.9718 -54.9378
   -32.6508 -32.4928 -32.4659 -32.3589 -32.2749 -32.2663 -32.2656 -32.0298
   -32.0048 -31.9852 -31.9332 -31.9279 -31.9233 -31.8931 -31.8440 -31.8176
   -31.7898 -31.7681 -31.7664 -31.7236 -31.7079 -31.6960 -31.6824 -31.6537
   -31.6356 -31.6227 -31.5523 -31.5302 -31.5216 -31.5188 -31.4966 -31.4631
   -31.4332 -31.3996 -31.3684 -31.3616 -31.3555 -31.3050 -31.2829 -31.2814
   -31.2554 -31.2381 -31.2380 -31.2343 -31.2134 -31.1871 -31.1025 -30.9906
   -18.8057 -16.4938 -16.4038 -16.1588 -15.9511 -15.7772 -15.6920 -15.6810
   -15.6319 -15.5109 -15.4983 -15.3869 -15.2992 -15.2240 -15.1963 -15.1930
   -15.0997 -15.0552 -15.0119 -14.9873 -14.9760 -14.9674 -14.9368 -14.8293
   -14.8218 -14.7933 -14.6952 -14.6826 -14.5799 -14.2837 -14.2681 -13.4696
   -13.3574 -11.4398  -6.8916  -4.3511  -4.1464  -4.0034  -3.9791  -3.9356
    -3.7070  -3.4946  -3.4088  -3.2453  -3.1928  -3.1132  -2.9160  -2.9063
    -2.8520  -2.7810  -2.7058  -2.6469  -2.6002  -2.5837  -2.4882  -2.4506
    -2.4297  -2.4270  -2.3929  -2.3774  -2.2529  -2.2501  -2.2191  -2.1693
    -2.1106  -2.0956  -2.0290  -2.0200  -2.0031  -1.9553  -1.9187  -1.8729
    -1.8015  -1.7863  -1.6522  -1.6273  -1.6197  -1.5396  -1.5140  -1.5055
    -1.4550  -1.2941  -1.2233  -1.1762  -1.1726  -1.0345  -1.0193  -0.9830
    -0.9024  -0.8669  -0.7782  -0.7665  -0.7567  -0.7471  -0.6649  -0.6292
    -0.6119  -0.5872  -0.4048  -0.3758  -0.3137  -0.2623  -0.1627  -0.1187
    -0.1118  -0.1031  -0.0640  -0.0078   0.0143   0.0286   0.1276   0.1543
     0.2082   0.2746   0.3104   0.3826   0.4029   0.4044   0.4164   0.4711
     0.5636   0.6558   0.6981   0.7136   0.7823   0.7970   0.9334   0.9471
     1.0525   1.0942   1.1032   1.1644   1.2835   1.5670   1.6008   1.6400
     2.7588   3.0260   3.1535   3.3104   3.4579   3.5544   3.8471   3.8918
     3.9305   3.9545   3.9983

[...]

          k = 0.0380-0.0419 0.0000 ( 17876 PWs)   bands (ev):

[...]

          k =-0.0760-0.0000 0.0000 ( 17886 PWs)   bands (ev):

[...]

          k =-0.0760-0.0839 0.0000 ( 17948 PWs)   bands (ev):

   -56.1836 -56.1833 -55.7699 -55.7684 -55.5799 -55.5391 -55.5024 -55.3338
   -55.3233 -55.3118 -55.1650 -55.1506 -55.0280 -55.0041 -54.9548 -54.9547
   -32.4784 -32.4782 -32.4669 -32.4667 -32.3111 -32.3106 -32.0902 -32.0866
   -31.9640 -31.9612 -31.9586 -31.9577 -31.8674 -31.8450 -31.8187 -31.8183
   -31.7804 -31.7612 -31.7606 -31.7272 -31.7190 -31.6880 -31.6676 -31.6559
   -31.6017 -31.5957 -31.5727 -31.5560 -31.5403 -31.5400 -31.5231 -31.5036
   -31.4254 -31.4042 -31.3709 -31.3673 -31.3535 -31.2986 -31.2944 -31.2943
   -31.2876 -31.2472 -31.2436 -31.2384 -31.1833 -31.1828 -31.1452 -31.1448
   -18.8029 -16.3937 -15.9025 -15.8934 -15.7670 -15.7620 -15.5876 -15.5738
   -15.5729 -15.4897 -15.4500 -15.4273 -15.2845 -15.2710 -15.2106 -15.1852
   -15.1674 -15.1451 -15.1362 -15.1031 -15.0926 -15.0397 -14.9831 -14.9765
   -14.9177 -14.9101 -14.7524 -14.6904 -14.6446 -14.4964 -14.4033 -13.4607
   -13.4601 -11.4377  -6.9054  -4.2917  -4.1678  -3.9663  -3.9306  -3.0676
    -3.0191  -2.9164  -2.8794  -2.7981  -2.7856  -2.6751  -2.6583  -2.6122
    -2.5958  -2.5872  -2.5418  -2.4956  -2.4856  -2.4633  -2.4370  -2.4214
    -2.4096  -2.3713  -2.3218  -2.3054  -2.2999  -2.2748  -2.1726  -2.1417
    -2.1310  -2.1223  -2.0942  -2.0705  -2.0271  -1.9568  -1.9239  -1.8856
    -1.8736  -1.8029  -1.7415  -1.6928  -1.6780  -1.6096  -1.5525  -1.5276
    -1.4499  -1.4033  -1.2894  -1.2765  -1.2586  -1.1960  -1.1730  -1.1184
    -1.0986  -1.0373  -0.9881  -0.9648  -0.9602  -0.9461  -0.8779  -0.8165
    -0.7080  -0.6603  -0.6445  -0.6116  -0.6064  -0.5780  -0.5432  -0.5061
    -0.4057  -0.3925  -0.3800  -0.3286  -0.3188  -0.2443  -0.1691  -0.0518
     0.0688   0.1441   0.1541   0.1743   0.2132   0.2966   0.3735   0.4142
     0.4600   0.5198   0.5627   0.6032   0.6682   0.8095   0.8619   0.8837
     0.9676   1.0048   1.0755   1.1627   1.4408   1.4516   1.4560   1.4569
     2.8108   3.5751   3.5776   3.6070   3.6179   3.7334   3.8128   3.8305
     3.9554   4.0132   4.0695

     the Fermi energy is     2.9622 ev

!    total energy              =   -2972.75298647 Ry
     estimated scf accuracy    <       0.00000004 Ry
     smearing contrib. (-TS)   =      -0.01283381 Ry
     internal energy E=F+TS    =   -2972.74015266 Ry

     The total energy is F=E-TS. E is the sum of the following terms:
     one-electron contribution =  -23538.08139250 Ry
     hartree contribution      =   11862.67434876 Ry
     xc contribution           =    -493.06474107 Ry
     ewald contribution        =    9195.73082087 Ry
     electric field correction =       0.00081128 Ry

     convergence has been achieved in  61 iterations

     Forces acting on atoms (cartesian axes, Ry/au):

     atom    1 type  1   force =     0.00007702   -0.00037711    0.10682950
     atom    2 type  1   force =    -0.00012723    0.00015925   -0.16544826
     atom    3 type  2   force =     0.00006881   -0.00044778   -0.03890255
     atom    4 type  2   force =     0.00000410    0.00016021    0.03536514
     atom    5 type  2   force =    -0.00262968   -0.00317508   -0.00913717
     atom    6 type  2   force =     0.00444936   -0.00251021   -0.00942252
     atom    7 type  1   force =    -0.00001338    0.00134022    0.03451390
     atom    8 type  1   force =     0.00023723    0.01555899    0.06082967
     atom    9 type  2   force =    -0.00018034   -0.00046195    0.00005522
     atom   10 type  2   force =    -0.00255751    0.00087995   -0.04257521
     atom   11 type  2   force =    -0.00100434    0.00035320    0.00037785
     atom   12 type  2   force =     0.00050067    0.00025211    0.00027140
     atom   13 type  1   force =     0.00045339    0.00067735   -0.00038849
     atom   14 type  1   force =     0.00025628   -0.00012159    0.00041885
     atom   15 type  2   force =     0.00022032    0.00064262    0.00007781
     atom   16 type  2   force =    -0.00009579   -0.00038125   -0.00071515
     atom   17 type  2   force =    -0.00008993    0.00022720    0.00000943
     atom   18 type  2   force =     0.00012880    0.00001285   -0.00025842
     atom   19 type  1   force =     0.00016850   -0.00102507    0.00019381
     atom   20 type  1   force =     0.00017782    0.00017860   -0.00038420
     atom   21 type  2   force =     0.00003348    0.00013488    0.10039750
     atom   22 type  2   force =     0.00014336    0.00066406    0.00000243
     atom   23 type  2   force =    -0.07681740   -0.00000533   -0.03010535
     atom   24 type  2   force =     0.07668850    0.00046534   -0.03015126
     atom   25 type  1   force =    -0.00008394   -0.00045061    0.10720394
     atom   26 type  1   force =    -0.00021006   -0.00131401   -0.16550208
     atom   27 type  2   force =     0.00010143   -0.00031811   -0.03719306
     atom   28 type  2   force =     0.00004711   -0.00000403    0.03052947
     atom   29 type  2   force =    -0.00566961    0.00366253   -0.00700357
     atom   30 type  2   force =     0.00730540    0.00401083   -0.00727834
     atom   31 type  1   force =    -0.00011833   -0.00227873    0.02270597
     atom   32 type  1   force =     0.00032399   -0.01776477    0.06129729
     atom   33 type  2   force =    -0.00016987    0.00020061   -0.00016841
     atom   34 type  2   force =    -0.00143708    0.00001596   -0.05429290
     atom   35 type  2   force =    -0.00002153   -0.00017151   -0.00022179
     atom   36 type  2   force =    -0.00029687    0.00005573   -0.00006754
     atom   37 type  1   force =     0.00013284   -0.00006683    0.00058195
     atom   38 type  1   force =     0.00033534   -0.00003794    0.00011268
     atom   39 type  2   force =    -0.00012578    0.00029855   -0.00036671
     atom   40 type  2   force =     0.00001243    0.00031451    0.00041202
     atom   41 type  2   force =    -0.00019634    0.00020301   -0.00013102
     atom   42 type  2   force =     0.00019071   -0.00001435   -0.00003868
     atom   43 type  1   force =     0.00017633    0.00084755    0.00093002
     atom   44 type  1   force =     0.00032299    0.00016445   -0.00041205
     atom   45 type  2   force =     0.00003674    0.00013503    0.10024203
     atom   46 type  2   force =    -0.07679196    0.00003472   -0.03008820
     atom   47 type  2   force =     0.07665224    0.00047158   -0.03010846
     atom   48 type  3   force =     0.00033587    0.00066096   -0.00118304
     atom   49 type  3   force =     0.00033156   -0.00042347   -0.00037320
     atom   50 type  4   force =     0.00011397   -0.00000247   -0.00021255
     atom   51 type  5   force =    -0.00019142   -0.00053287   -0.00061512
     atom   52 type  5   force =    -0.00020323   -0.00042983   -0.00018357
     atom   53 type  5   force =     0.00019722    0.00009269   -0.00049209
     atom   54 type  2   force =    -0.00149510    0.00830124    0.00800774
     atom   55 type  5   force =     0.00030292   -0.00886190   -0.00794469

     Total force =     0.381160     Total SCF correction =     0.000505
  @ DRIVER MODE: Message from server: STATUS
  @ DRIVER MODE: Message from server: GETFORCE
  @ DRIVER MODE: Returning v,forces,stress,ensemble

     Writing output data file ./calc.save/
  @ DRIVER MODE: Message from server: EXIT
  @ DRIVE MODE: Exiting

     General routines

     Parallel routines

   This run was terminated on:  18: 7:14  23Sep2021

   JOB DONE.