     Program PWSCF v.6.7GPU starts on 23Sep2021 at 12:40:46

     R & G space division:  proc/nbgrp/npool/nimage =       8
     Reading input from /storage/home/hcoda1/3/ntian30/research/carbon/CxH_vib/H2O_calc/ads_slab/CH3NNHHHHO_a/out_0005/pw.inp
Warning: card &CELL ignored
Warning: card   CELL_DYNAMICS='IPI', ignored
Warning: card / ignored

     Current dimensions of program PWSCF are:
     Max number of different atomic species (ntypx) = 10
     Max number of k-points (npk) =  40000
     Max angular momentum in pseudopotentials (lmaxx) =  3
     Presently no symmetry can be used with electric field

     Message from routine cell_base_init:
     DEPRECATED: use true lattice parameter, not A to a.u. conversion factor

     IMPORTANT: XC functional enforced from input :
     Exchange-correlation= BEEF-VDW
                           (   1   4  43  14   2   0   0)
     Any further DFT definition will be discarded
     Please, verify this is what you really want

  @ DRIVER MODE: Connecting to
 qe_1139763_2947308.sched-torque.pace.gatech.eduq1hcdncb_scratch
  using UNIX socket
  @ DRIVER MODE: Message from server: STATUS
  @ DRIVER MODE: Message from server: INIT
  @ DRIVER MODE: Receiving replica           0          -1
  @ DRIVER MODE: Receiving encoded integer          25
  @ DRIVER MODE:  SCF:  T  FORCE:  T  STRESS:  F  VC:  F  ENSEMBLE:  F
  @ DRIVER MODE:  SCF:  T  FORCE:  T  STRESS:  F  VC:  F  ENSEMBLE:  F

     Using Slab Decomposition

     bravais-lattice index     =            0
     lattice parameter (alat)  =       1.8897  a.u.
     unit-cell volume          =    6658.9804 (a.u.)^3
     number of atoms/cell      =           58
     number of atomic types    =            5
     number of electrons       =       405.00
     number of Kohn-Sham states=          212
     kinetic-energy cutoff     =      29.3995  Ry
     charge density cutoff     =     293.9946  Ry
     scf convergence threshold =      7.3E-08
     mixing beta               =       0.0500
     number of iterations used =            8  plain     mixing
     Exchange-correlation= BEEF-VDW
                           (   1   4  43  14   2   0   0)

     celldm(1)=   1.889726  celldm(2)=   0.000000  celldm(3)=   0.000000
     celldm(4)=   0.000000  celldm(5)=   0.000000  celldm(6)=   0.000000

     crystal axes: (cart. coord. in units of alat)
               a(1) = (   6.579727   0.000000   0.000000 )
               a(2) = (  -0.000775   5.961596   0.000000 )
               a(3) = (   0.000000   0.000000  25.155947 )

     reciprocal axes: (cart. coord. in units 2 pi/alat)
               b(1) = (  0.151982  0.000020  0.000000 )
               b(2) = (  0.000000  0.167740  0.000000 )
               b(3) = (  0.000000  0.000000  0.039752 )

     PseudoPot. # 1 for Ti read from file:
     /storage/coda1/p-amedford6/0/shared/rich_project_chbe-medford/medford-share/data/pseudos_module/espresso/nninc/pbe/van/Ti.UPF
     MD5 check sum: 8e4df49b7f0d34bbd5052bf3f5ea0213
     Pseudo is Ultrasoft, Zval = 12.0
     Generated by new atomic code, or converted to UPF format
     Using radial grid of  851 points,  6 beta functions with:
                l(1) =   0
                l(2) =   0
                l(3) =   1
                l(4) =   1
                l(5) =   2
                l(6) =   2
     Q(r) pseudized with  8 coefficients,  rinner =    1.000   1.000   1.000
                                                       1.000   1.000

     PseudoPot. # 2 for O  read from file:
     /storage/coda1/p-amedford6/0/shared/rich_project_chbe-medford/medford-share/data/pseudos_module/espresso/nninc/pbe/van/O.UPF
     MD5 check sum: 78c19812648e8988a0fe644b0f25305e
     Pseudo is Ultrasoft, Zval =  6.0
     Generated by new atomic code, or converted to UPF format
     Using radial grid of  737 points,  4 beta functions with:
                l(1) =   0
                l(2) =   0
                l(3) =   1
                l(4) =   1
     Q(r) pseudized with  8 coefficients,  rinner =    0.800   0.800   0.800

     PseudoPot. # 3 for N  read from file:
     /storage/coda1/p-amedford6/0/shared/rich_project_chbe-medford/medford-share/data/pseudos_module/espresso/nninc/pbe/van/N.UPF
     MD5 check sum: 90d10febe142ad51ac9d5be1deb811c4
     Pseudo is Ultrasoft, Zval =  5.0
     Generated by new atomic code, or converted to UPF format
     Using radial grid of  729 points,  4 beta functions with:
                l(1) =   0
                l(2) =   0
                l(3) =   1
                l(4) =   1
     Q(r) pseudized with  8 coefficients,  rinner =    0.800   0.800   0.800

     PseudoPot. # 4 for C  read from file:
     /storage/coda1/p-amedford6/0/shared/rich_project_chbe-medford/medford-share/data/pseudos_module/espresso/nninc/pbe/van/C.UPF
     MD5 check sum: 1a69bf6b8db32088f5b2163dbdb77a27
     Pseudo is Ultrasoft, Zval =  4.0
     Generated by new atomic code, or converted to UPF format
     Using radial grid of  721 points,  4 beta functions with:
                l(1) =   0
                l(2) =   0
                l(3) =   1
                l(4) =   1
     Q(r) pseudized with  8 coefficients,  rinner =    0.800   0.800   0.800

     PseudoPot. # 5 for H  read from file:
     /storage/coda1/p-amedford6/0/shared/rich_project_chbe-medford/medford-share/data/pseudos_module/espresso/nninc/pbe/van/H.UPF
     MD5 check sum: b5ee9d7bfd3a09ee7748110bda690ff7
     Pseudo is Ultrasoft, Zval =  1.0
     Generated by new atomic code, or converted to UPF format
     Using radial grid of  615 points,  1 beta functions with:
                l(1) =   0
     Q(r) pseudized with  8 coefficients,  rinner =    0.800

     atomic species   valence    mass     pseudopotential
        Ti1           12.00    47.86700     Ti( 1.00)
        O1             6.00    15.99900     O ( 1.00)
        N1             5.00    14.00700     N ( 1.00)
        C1             4.00    12.01100     C ( 1.00)
        H1             1.00     1.00800     H ( 1.00)

     No symmetry found

   Cartesian axes

     site n.     atom                  positions (alat units)
         1           Ti1 tau(   1) = (   0.0004258   2.9801865   6.0000000  )
         2           Ti1 tau(   2) = (   3.2906075   1.4906267   6.0002472  )
         3           O1  tau(   3) = (   0.0006271   0.0005054   7.9858123  )
         4           O1  tau(   4) = (   3.2906025   0.0005020   7.3038282  )
         5           O1  tau(   5) = (   4.5942328   1.4918067   9.2879030  )
         6           O1  tau(   6) = (   1.9868534   1.4903216   9.2879459  )
         7           Ti1 tau(   7) = (   3.2907910   2.8959150   9.1758416  )
         8           Ti1 tau(   8) = (   0.0015273   1.4827037   9.2680791  )
         9           O1  tau(   9) = (   3.3066316   0.0080679  11.3583267  )
        10           O1  tau(  10) = (   0.0116148   5.9584955  10.6183126  )
        11           O1  tau(  11) = (   1.3000076   1.5005770  12.6434233  )
        12           O1  tau(  12) = (   5.3281586   1.4930334  12.6431679  )
        13           Ti1 tau(  13) = (   0.0126194   3.0144704  12.5166071  )
        14           Ti1 tau(  14) = (   3.3185830   1.5708444  12.4374219  )
        15           O1  tau(  15) = (   0.0449490   0.0685618  14.6579901  )
        16           O1  tau(  16) = (   3.3164028   5.8986079  13.9921319  )
        17           O1  tau(  17) = (   4.5763498   1.4919541  16.1892649  )
        18           O1  tau(  18) = (   2.0390356   1.5007807  16.1677599  )
        19           Ti1 tau(  19) = (   3.3152479   2.9236451  15.6986563  )
        20           Ti1 tau(  20) = (   0.0808212   1.4292116  16.0039943  )
        21           O1  tau(  21) = (   3.2904802   0.0005063   4.7018136  )
        22           O1  tau(  22) = (   0.0303022   5.8046116  17.1736243  )
        23           O1  tau(  23) = (   1.3043587   1.4918075   6.0039043  )
        24           O1  tau(  24) = (   5.2767064   1.4903225   6.0039473  )
        25           Ti1 tau(  25) = (   0.0000382   5.9609847   6.0000000  )
        26           Ti1 tau(  26) = (   3.2902200   4.4714249   6.0002472  )
        27           O1  tau(  27) = (   0.0002396   2.9813036   7.9858123  )
        28           O1  tau(  28) = (   3.2902150   2.9813002   7.3038282  )
        29           O1  tau(  29) = (   4.5938453   4.4726049   9.2879030  )
        30           O1  tau(  30) = (   1.9864658   4.4711199   9.2879459  )
        31           Ti1 tau(  31) = (   3.2891106   5.8743827   9.1763621  )
        32           Ti1 tau(  32) = (   0.0006254   4.4649316   9.2693709  )
        33           O1  tau(  33) = (   3.3101163   2.9547251  11.3177968  )
        34           O1  tau(  34) = (   0.0092240   2.9805883  10.6323155  )
        35           O1  tau(  35) = (   1.2917786   4.4638488  12.6831265  )
        36           O1  tau(  36) = (   5.3332004   4.4701953  12.6833355  )
        37           Ti1 tau(  37) = (   0.0360484   0.0435164  12.5022323  )
        38           Ti1 tau(  38) = (   3.3166134   4.6596848  12.7231989  )
        39           O1  tau(  39) = (   6.5734590   2.9070644  14.8960501  )
        40           O1  tau(  40) = (   3.3256711   2.9499323  13.9293234  )
        41           O1  tau(  41) = (   4.5718193   4.3849529  16.1598725  )
        42           O1  tau(  42) = (   2.0293811   4.3548050  16.0908550  )
        43           Ti1 tau(  43) = (   3.3839698   5.9011270  16.3477160  )
        44           Ti1 tau(  44) = (   0.0762916   4.6312412  15.8077656  )
        45           O1  tau(  45) = (   3.2900926   2.9813045   4.7018136  )
        46           O1  tau(  46) = (   1.3039711   4.4726057   6.0039043  )
        47           O1  tau(  47) = (   5.2763189   4.4711207   6.0039473  )
        48           N1  tau(  48) = (   1.0338470   3.0145746  18.8449854  )
        49           N1  tau(  49) = (   6.4614719   2.5758313  18.0922931  )
        50           C1  tau(  50) = (   0.6385090   3.7489381  20.0602371  )
        51           H1  tau(  51) = (   6.5128770   4.5633600  19.8465500  )
        52           H1  tau(  52) = (   0.1876125   3.0656416  20.7809517  )
        53           H1  tau(  53) = (   1.5398112   4.1767214  20.4987412  )
        54           H1  tau(  54) = (   5.7034478   3.2665398  18.1448723  )
        55           H1  tau(  55) = (   6.1095767   1.7263867  18.5341855  )
        56           H1  tau(  56) = (   1.5400177   3.6533120  18.2466354  )
        57           O1  tau(  57) = (   3.2295176   5.8880611  18.1942677  )
        58           H1  tau(  58) = (   2.6769533   0.6239085  18.5854980  )

     number of k points=    10  Fermi-Dirac smearing, width (Ry)=  0.0073
                       cart. coord. in units 2pi/alat
        k(    1) = (   0.0000000   0.0000000   0.0000000), wk =   0.1250000
        k(    2) = (   0.0000000   0.0419351   0.0000000), wk =   0.2500000
        k(    3) = (   0.0000000  -0.0838702   0.0000000), wk =   0.1250000
        k(    4) = (   0.0379955   0.0000049   0.0000000), wk =   0.2500000
        k(    5) = (   0.0379955   0.0419400   0.0000000), wk =   0.2500000
        k(    6) = (   0.0379955  -0.0838652   0.0000000), wk =   0.2500000
        k(    7) = (   0.0379955  -0.0419301   0.0000000), wk =   0.2500000
        k(    8) = (  -0.0759910  -0.0000099   0.0000000), wk =   0.1250000
        k(    9) = (  -0.0759910   0.0419252   0.0000000), wk =   0.2500000
        k(   10) = (  -0.0759910  -0.0838800   0.0000000), wk =   0.1250000

     Initial potential from superposition of free atoms

     starting charge  388.99913, renormalised to  405.00000

     negative rho (up, down):  1.325E-02 0.000E+00

     %%%%%%%%%%%%%%%%%%%%%%%%%%%%%%%%%%%%%%%%%%%%%%%%%%%%%%%%%%%%%%%%%%%%%%%%
     %                                                                      %
     % You are using vdW-DF, which was implemented by the Thonhauser group. %
     % Please cite the following two papers that made this development      %
     % possible and the two reviews that describe the various versions:     %
     %                                                                      %
     %   T. Thonhauser et al., PRL 115, 136402 (2015).                      %
     %   T. Thonhauser et al., PRB 76, 125112 (2007).                       %
     %   K. Berland et al., Rep. Prog. Phys. 78, 066501 (2015).             %
     %   D.C. Langreth et al., J. Phys.: Condens. Matter 21, 084203 (2009). %
     %                                                                      %
     %                                                                      %
     % If you are calculating the stress with vdW-DF, please also cite:     %
     %                                                                      %
     %   R. Sabatini et al., J. Phys.: Condens. Matter 24, 424209 (2012).   %
     %                                                                      %
     %%%%%%%%%%%%%%%%%%%%%%%%%%%%%%%%%%%%%%%%%%%%%%%%%%%%%%%%%%%%%%%%%%%%%%%%

     Adding external electric field

     Computed dipole along edir(3) :
        Dipole              -14.7613 Ry au,        -37.5194 Debye
        Dipole field         -0.0279 Ry au,

        Potential amp.        2.5823 Ry
        Total length         46.3494 bohr

     Starting wfcs are  307 atomic wfcs
  @ DRIVER MODE: Message from server: STATUS
  @ DRIVER MODE: Message from server: POSDATA
  @ DRIVER MODE: Reading and sharing cell
  @ DRIVER MODE: Reading and sharing positions
  @ DRIVER MODE: Received positions

     Self-consistent Calculation

     iteration #  1     ecut=    29.40 Ry     beta= 0.05
     Davidson diagonalization with overlap
     c_bands:  3 eigenvalues not converged
     c_bands:  4 eigenvalues not converged
     c_bands:  2 eigenvalues not converged
     c_bands:  3 eigenvalues not converged
     c_bands:  3 eigenvalues not converged
     c_bands:  3 eigenvalues not converged
     ethr =  1.00E-05,  avg # of iterations = 23.2

[...]

     total energy              =   -2204.23342959 Ry
     estimated scf accuracy    <    8785.60891332 Ry

     iteration #  2     ecut=    29.40 Ry     beta= 0.05
     Davidson diagonalization with overlap
     ethr =  1.00E-02,  avg # of iterations = 31.1

[...]

     iteration # 42     ecut=    29.40 Ry     beta= 0.05
     Davidson diagonalization with overlap
     c_bands:  1 eigenvalues not converged
     ethr =  3.67E-07,  avg # of iterations = 13.2

[...]

     total energy              =   -2976.49806737 Ry
     estimated scf accuracy    <       0.00000008 Ry

     iteration # 63     ecut=    29.40 Ry     beta= 0.05
     Davidson diagonalization with overlap
     ethr =  1.92E-11,  avg # of iterations =  8.7

     negative rho (up, down):  1.443E-02 0.000E+00

     Adding external electric field

     Computed dipole along edir(3) :
        Dipole                0.9971 Ry au,          2.5343 Debye
        Dipole field          0.0019 Ry au,

        Potential amp.       -0.1744 Ry
        Total length         46.3494 bohr

     End of self-consistent calculation

          k = 0.0000 0.0000 0.0000 ( 18029 PWs)   bands (ev):

   -55.5801 -55.4962 -55.4622 -55.3615 -55.3401 -55.3242 -55.3104 -55.3036
   -55.2904 -55.2606 -55.2170 -55.0948 -55.0844 -55.0072 -54.4655 -54.4315
   -31.9807 -31.9164 -31.8753 -31.8277 -31.8261 -31.8074 -31.7970 -31.7872
   -31.7471 -31.7422 -31.7241 -31.6489 -31.6251 -31.6046 -31.6027 -31.6007
   -31.5950 -31.5831 -31.5807 -31.5538 -31.5476 -31.5225 -31.5216 -31.5100
   -31.4948 -31.4836 -31.4759 -31.4591 -31.4543 -31.4515 -31.4418 -31.4358
   -31.4320 -31.4126 -31.3707 -31.3689 -31.2988 -31.2914 -31.2776 -31.2568
   -31.2199 -31.2126 -30.8712 -30.7857 -30.7632 -30.6888 -30.6025 -30.4906
   -17.6112 -16.3998 -16.1372 -15.9747 -15.7589 -15.6733 -15.6449 -15.4523
   -15.3470 -15.2941 -15.1081 -15.0617 -15.0311 -15.0199 -15.0047 -14.9820
   -14.9620 -14.9238 -14.9155 -14.9052 -14.8996 -14.8610 -14.8385 -14.7880
   -14.7654 -14.7027 -14.6306 -14.5628 -14.5154 -14.2549 -14.2367 -12.9639
   -12.9371 -12.8476  -9.4888  -6.1695  -5.2341  -4.6198  -3.9614  -3.5015
    -3.4008  -3.3847  -3.3288  -3.2663  -3.1641  -2.9933  -2.8847  -2.8306
    -2.7302  -2.6229  -2.5683  -2.5124  -2.4939  -2.4289  -2.3950  -2.3849
    -2.3772  -2.2804  -2.2732  -2.2448  -2.2097  -2.1532  -2.1376  -2.0598
    -2.0233  -2.0149  -1.8904  -1.8778  -1.8120  -1.8077  -1.8013  -1.7678
    -1.7467  -1.7318  -1.7029  -1.6192  -1.5661  -1.4954  -1.4725  -1.4433
    -1.1836  -1.0919  -1.0542  -1.0266  -0.9285  -0.9103  -0.8972  -0.8954
    -0.8814  -0.8320  -0.7851  -0.7011  -0.5912  -0.5675  -0.5621  -0.5176
    -0.4525  -0.3705  -0.2974  -0.2678  -0.2305  -0.2172  -0.1516  -0.0738
    -0.0579  -0.0453   0.0632   0.0777   0.1600   0.2188   0.2327   0.2771
     0.3183   0.3515   0.4077   0.4442   0.4746   0.4805   0.5138   0.5583
     0.6141   0.6447   0.6724   0.7544   0.8102   0.8556   0.8833   1.0546
     1.0845   1.1400   1.1809   1.2680   1.5108   1.5611   1.6005   1.7554
     2.1274   2.1725   3.5884   3.7395   3.7546   3.8239   3.8493   3.9403
     4.0777   4.1453   4.2772   4.2861

[...]

          k = 0.0380-0.0419 0.0000 ( 17876 PWs)   bands (ev):

[...]

          k =-0.0760-0.0000 0.0000 ( 17886 PWs)   bands (ev):

[...]

          k =-0.0760-0.0839 0.0000 ( 17948 PWs)   bands (ev):

   -55.5793 -55.4793 -55.4790 -55.3602 -55.3270 -55.3167 -55.3110 -55.3073
   -55.3069 -55.2527 -55.2249 -55.0917 -55.0855 -55.0102 -54.4486 -54.4483
   -31.8637 -31.8061 -31.8008 -31.7962 -31.7960 -31.7817 -31.7728 -31.7724
   -31.7037 -31.6475 -31.6395 -31.6321 -31.6273 -31.6141 -31.5993 -31.5992
   -31.5969 -31.5967 -31.5823 -31.5719 -31.5644 -31.5558 -31.5348 -31.5166
   -31.5140 -31.5098 -31.5026 -31.4996 -31.4875 -31.4800 -31.4776 -31.4716
   -31.4665 -31.4478 -31.4421 -31.3650 -31.3535 -31.3390 -31.3007 -31.2955
   -31.2620 -31.2159 -30.7760 -30.7758 -30.6843 -30.6838 -30.6459 -30.6455
   -17.6053 -16.3857 -15.7453 -15.5672 -15.4710 -15.4646 -15.3338 -15.2681
   -15.2592 -15.2248 -15.2060 -15.1911 -15.1581 -15.1406 -15.1011 -15.0483
   -15.0149 -14.9923 -14.9807 -14.9437 -14.9311 -14.9092 -14.9018 -14.8932
   -14.8349 -14.8029 -14.7938 -14.7631 -14.5676 -14.5461 -14.3692 -12.9496
   -12.9494 -12.9386  -9.4862  -6.1547  -5.2356  -4.6299  -3.9575  -3.1638
    -2.9195  -2.7762  -2.7000  -2.5658  -2.5566  -2.5142  -2.4982  -2.4466
    -2.4375  -2.3959  -2.3419  -2.3266  -2.2830  -2.2786  -2.2474  -2.2344
    -2.2240  -2.2148  -2.1897  -2.1701  -2.1611  -2.1203  -2.1160  -2.1001
    -2.0814  -2.0640  -2.0364  -2.0258  -1.9853  -1.9460  -1.8808  -1.8069
    -1.7211  -1.6382  -1.6276  -1.6169  -1.5705  -1.5641  -1.5173  -1.5050
    -1.4581  -1.4056  -1.2931  -1.1701  -1.1299  -1.1039  -1.0718  -1.0396
    -0.9851  -0.9624  -0.9273  -0.8794  -0.8474  -0.7234  -0.7124  -0.6470
    -0.5595  -0.5281  -0.4532  -0.4400  -0.4251  -0.4091  -0.3876  -0.3709
    -0.3406  -0.3237  -0.2208  -0.1969  -0.1937  -0.1706  -0.1193  -0.0173
     0.0563   0.1392   0.2421   0.2920   0.3197   0.3532   0.4531   0.5716
     0.5965   0.6597   0.6917   0.7347   0.8017   0.8225   0.8703   0.9551
     1.0089   1.0413   1.0675   1.0725   1.1272   1.1560   1.9241   1.9326
     1.9928   1.9931   3.8020   4.0781   4.1038   4.1199   4.1571   4.1613
     4.1832   4.1977   4.2647   4.2791

     the Fermi energy is     3.6253 ev

!    total energy              =   -2976.49811987 Ry
     estimated scf accuracy    <       0.00000004 Ry
     smearing contrib. (-TS)   =      -0.01952995 Ry
     internal energy E=F+TS    =   -2976.47858991 Ry

     The total energy is F=E-TS. E is the sum of the following terms:
     one-electron contribution =  -23036.82482207 Ry
     hartree contribution      =   11614.79175882 Ry
     xc contribution           =    -495.71226501 Ry
     ewald contribution        =    8941.26486224 Ry
     electric field correction =       0.00187610 Ry

     convergence has been achieved in  63 iterations

     Forces acting on atoms (cartesian axes, Ry/au):

     atom    1 type  1   force =     0.00000776   -0.00023199    0.09407341
     atom    2 type  1   force =    -0.00016032    0.00025105   -0.17516079
     atom    3 type  2   force =     0.00007635   -0.00016837   -0.02115800
     atom    4 type  2   force =     0.00000464   -0.00104152    0.05354917
     atom    5 type  2   force =    -0.00455656   -0.00322362    0.00115412
     atom    6 type  2   force =     0.00661611   -0.00242328    0.00161794
     atom    7 type  1   force =     0.00037603    0.00457523    0.01038390
     atom    8 type  1   force =    -0.00055610    0.00198849    0.00313061
     atom    9 type  2   force =     0.00010292   -0.00049631   -0.00047197
     atom   10 type  2   force =    -0.00031117   -0.00004655   -0.01129335
     atom   11 type  2   force =    -0.00024389    0.00045736    0.00004403
     atom   12 type  2   force =    -0.00025919    0.00067655    0.00008084
     atom   13 type  1   force =     0.00061631   -0.00065371    0.00021837
     atom   14 type  1   force =    -0.00034859    0.00016485    0.00019314
     atom   15 type  2   force =    -0.00017393    0.00005192    0.00052510
     atom   16 type  2   force =     0.00004970   -0.00002297    0.00041629
     atom   17 type  2   force =    -0.00042793    0.00019650    0.00008694
     atom   18 type  2   force =    -0.00000810    0.00007114    0.00021734
     atom   19 type  1   force =    -0.00009741    0.00054111   -0.00026221
     atom   20 type  1   force =    -0.00013754   -0.00011495   -0.00019045
     atom   21 type  2   force =     0.00003028   -0.00001383    0.10310733
     atom   22 type  2   force =    -0.00008391   -0.00015098   -0.00028903
     atom   23 type  2   force =    -0.07215193   -0.00021292   -0.02726978
     atom   24 type  2   force =     0.07205435    0.00023025   -0.02734847
     atom   25 type  1   force =     0.00005875   -0.00034728    0.09403574
     atom   26 type  1   force =     0.00000248   -0.00129323   -0.17519565
     atom   27 type  2   force =     0.00015500   -0.00020930   -0.01993203
     atom   28 type  2   force =     0.00008793   -0.00111166    0.04906965
     atom   29 type  2   force =    -0.00668964    0.00152751    0.00213163
     atom   30 type  2   force =     0.00855937    0.00170619    0.00250051
     atom   31 type  1   force =     0.00049301   -0.00019099    0.00051812
     atom   32 type  1   force =    -0.00020763   -0.00145335    0.00351178
     atom   33 type  2   force =    -0.00007771   -0.00001497   -0.00001426
     atom   34 type  2   force =    -0.00088696    0.00246913   -0.01150578
     atom   35 type  2   force =     0.00002054   -0.00043426    0.00048258
     atom   36 type  2   force =    -0.00051953   -0.00041155    0.00033816
     atom   37 type  1   force =     0.00036027    0.00028386    0.00002086
     atom   38 type  1   force =    -0.00037608    0.00021069    0.00030483
     atom   39 type  2   force =    -0.00049889    0.00043178    0.00050566
     atom   40 type  2   force =    -0.00001809   -0.00007978   -0.00005230
     atom   41 type  2   force =    -0.00038068   -0.00025733    0.00027407
     atom   42 type  2   force =    -0.00019833   -0.00020516   -0.00033840
     atom   43 type  1   force =    -0.00005194   -0.00036783    0.00060525
     atom   44 type  1   force =    -0.00017106    0.00023254    0.00001270
     atom   45 type  2   force =     0.00002045   -0.00001585    0.10296274
     atom   46 type  2   force =    -0.07215802   -0.00008369   -0.02726524
     atom   47 type  2   force =     0.07201317    0.00035394   -0.02730657
     atom   48 type  3   force =    -0.00385409   -0.00234297    0.01792117
     atom   49 type  3   force =    -0.00267345   -0.00000282   -0.00361687
     atom   50 type  4   force =     0.00264829   -0.00270711   -0.00533659
     atom   51 type  5   force =    -0.00014774   -0.00012142   -0.00013654
     atom   52 type  5   force =     0.00019693   -0.00139016   -0.00091079
     atom   53 type  5   force =     0.00033451   -0.00076814   -0.00043688
     atom   54 type  5   force =     0.00000052    0.00016867   -0.00082216
     atom   55 type  5   force =     0.00035099    0.00037549    0.00059253
     atom   56 type  5   force =     0.00365670    0.00573604   -0.00745520
     atom   57 type  2   force =    -0.00022003    0.00050636   -0.00056804
     atom   58 type  5   force =    -0.00024694   -0.00059681   -0.00024916

     Total force =     0.362435     Total SCF correction =     0.000480
  @ DRIVER MODE: Message from server: STATUS
  @ DRIVER MODE: Message from server: GETFORCE
  @ DRIVER MODE: Returning v,forces,stress,ensemble

     Writing output data file ./calc.save/
  @ DRIVER MODE: Message from server: EXIT
  @ DRIVE MODE: Exiting

     General routines

     Parallel routines

   This run was terminated on:  13: 3:17  23Sep2021

   JOB DONE.