     Program PWSCF v.6.7GPU starts on 14Sep2021 at 21:47:47

     R & G space division:  proc/nbgrp/npool/nimage =      10
     Reading input from /storage/home/hcoda1/3/ntian30/research/carbon/CxH_vib/CH_calc/ads_slab/CHOHN2_a/out_0024/pw.inp
Warning: card &CELL ignored
Warning: card   CELL_DYNAMICS='IPI', ignored
Warning: card / ignored

     Current dimensions of program PWSCF are:
     Max number of different atomic species (ntypx) = 10
     Max number of k-points (npk) =  40000
     Max angular momentum in pseudopotentials (lmaxx) =  3
     Presently no symmetry can be used with electric field

     Message from routine cell_base_init:
     DEPRECATED: use true lattice parameter, not A to a.u. conversion factor

     IMPORTANT: XC functional enforced from input :
     Exchange-correlation= BEEF-VDW
                           (   1   4  43  14   2   0   0)
     Any further DFT definition will be discarded
     Please, verify this is what you really want

  @ DRIVER MODE: Connecting to
 qe_1139763_2840439.sched-torque.pace.gatech.eduzffp9gc5_scratch
  using UNIX socket
  @ DRIVER MODE: Message from server: STATUS
  @ DRIVER MODE: Message from server: INIT
  @ DRIVER MODE: Receiving replica           0          -1
  @ DRIVER MODE: Receiving encoded integer          25
  @ DRIVER MODE:  SCF:  T  FORCE:  T  STRESS:  F  VC:  F  ENSEMBLE:  F
  @ DRIVER MODE:  SCF:  T  FORCE:  T  STRESS:  F  VC:  F  ENSEMBLE:  F

     Using Slab Decomposition

     bravais-lattice index     =            0
     lattice parameter (alat)  =       1.8897  a.u.
     unit-cell volume          =    6658.9804 (a.u.)^3
     number of atoms/cell      =           53
     number of atomic types    =            5
     number of electrons       =       400.00
     number of Kohn-Sham states=          210
     kinetic-energy cutoff     =      29.3995  Ry
     charge density cutoff     =     293.9946  Ry
     scf convergence threshold =      7.3E-08
     mixing beta               =       0.0500
     number of iterations used =            8  plain     mixing
     Exchange-correlation= BEEF-VDW
                           (   1   4  43  14   2   0   0)

     celldm(1)=   1.889726  celldm(2)=   0.000000  celldm(3)=   0.000000
     celldm(4)=   0.000000  celldm(5)=   0.000000  celldm(6)=   0.000000

     crystal axes: (cart. coord. in units of alat)
               a(1) = (   6.579727   0.000000   0.000000 )
               a(2) = (  -0.000775   5.961596   0.000000 )
               a(3) = (   0.000000   0.000000  25.155947 )

     reciprocal axes: (cart. coord. in units 2 pi/alat)
               b(1) = (  0.151982  0.000020  0.000000 )
               b(2) = (  0.000000  0.167740  0.000000 )
               b(3) = (  0.000000  0.000000  0.039752 )

     PseudoPot. # 1 for C  read from file:
     /storage/coda1/p-amedford6/0/shared/rich_project_chbe-medford/medford-share/data/pseudos_module/espresso/nninc/pbe/van/C.UPF
     MD5 check sum: 1a69bf6b8db32088f5b2163dbdb77a27
     Pseudo is Ultrasoft, Zval =  4.0
     Generated by new atomic code, or converted to UPF format
     Using radial grid of  721 points,  4 beta functions with:
                l(1) =   0
                l(2) =   0
                l(3) =   1
                l(4) =   1
     Q(r) pseudized with  8 coefficients,  rinner =    0.800   0.800   0.800

     PseudoPot. # 2 for H  read from file:
     /storage/coda1/p-amedford6/0/shared/rich_project_chbe-medford/medford-share/data/pseudos_module/espresso/nninc/pbe/van/H.UPF
     MD5 check sum: b5ee9d7bfd3a09ee7748110bda690ff7
     Pseudo is Ultrasoft, Zval =  1.0
     Generated by new atomic code, or converted to UPF format
     Using radial grid of  615 points,  1 beta functions with:
                l(1) =   0
     Q(r) pseudized with  8 coefficients,  rinner =    0.800

     PseudoPot. # 3 for O  read from file:
     /storage/coda1/p-amedford6/0/shared/rich_project_chbe-medford/medford-share/data/pseudos_module/espresso/nninc/pbe/van/O.UPF
     MD5 check sum: 78c19812648e8988a0fe644b0f25305e
     Pseudo is Ultrasoft, Zval =  6.0
     Generated by new atomic code, or converted to UPF format
     Using radial grid of  737 points,  4 beta functions with:
                l(1) =   0
                l(2) =   0
                l(3) =   1
                l(4) =   1
     Q(r) pseudized with  8 coefficients,  rinner =    0.800   0.800   0.800

     PseudoPot. # 4 for Ti read from file:
     /storage/coda1/p-amedford6/0/shared/rich_project_chbe-medford/medford-share/data/pseudos_module/espresso/nninc/pbe/van/Ti.UPF
     MD5 check sum: 8e4df49b7f0d34bbd5052bf3f5ea0213
     Pseudo is Ultrasoft, Zval = 12.0
     Generated by new atomic code, or converted to UPF format
     Using radial grid of  851 points,  6 beta functions with:
                l(1) =   0
                l(2) =   0
                l(3) =   1
                l(4) =   1
                l(5) =   2
                l(6) =   2
     Q(r) pseudized with  8 coefficients,  rinner =    1.000   1.000   1.000
                                                       1.000   1.000

     PseudoPot. # 5 for N  read from file:
     /storage/coda1/p-amedford6/0/shared/rich_project_chbe-medford/medford-share/data/pseudos_module/espresso/nninc/pbe/van/N.UPF
     MD5 check sum: 90d10febe142ad51ac9d5be1deb811c4
     Pseudo is Ultrasoft, Zval =  5.0
     Generated by new atomic code, or converted to UPF format
     Using radial grid of  729 points,  4 beta functions with:
                l(1) =   0
                l(2) =   0
                l(3) =   1
                l(4) =   1
     Q(r) pseudized with  8 coefficients,  rinner =    0.800   0.800   0.800

     atomic species   valence    mass     pseudopotential
        C1             4.00    12.01100     C ( 1.00)
        H1             1.00     1.00800     H ( 1.00)
        O1             6.00    15.99900     O ( 1.00)
        Ti1           12.00    47.86700     Ti( 1.00)
        N1             5.00    14.00700     N ( 1.00)

     No symmetry found

   Cartesian axes

     site n.     atom                  positions (alat units)
         1           C1  tau(   1) = (   5.6818245   3.0934261  18.8613826  )
         2           H1  tau(   2) = (   0.9295697   3.0331078  18.1055300  )
         3           H1  tau(   3) = (   5.3049293   4.0639705  19.1352297  )
         4           O1  tau(   4) = (   3.2904802   0.0005063   4.7018136  )
         5           O1  tau(   5) = (   3.2900926   2.9813045   4.7018136  )
         6           O1  tau(   6) = (   1.3043587   1.4918075   6.0039043  )
         7           O1  tau(   7) = (   1.3039711   4.4726057   6.0039043  )
         8           O1  tau(   8) = (   5.2767064   1.4903225   6.0039473  )
         9           O1  tau(   9) = (   5.2763189   4.4711207   6.0039473  )
        10           O1  tau(  10) = (   3.2906025   0.0005020   7.3038282  )
        11           O1  tau(  11) = (   3.2902150   2.9813002   7.3038282  )
        12           O1  tau(  12) = (   0.0006271   0.0005054   7.9858123  )
        13           O1  tau(  13) = (   0.0002396   2.9813036   7.9858123  )
        14           O1  tau(  14) = (   4.5942328   1.4918067   9.2879030  )
        15           O1  tau(  15) = (   4.5938453   4.4726049   9.2879030  )
        16           O1  tau(  16) = (   1.9868534   1.4903216   9.2879459  )
        17           O1  tau(  17) = (   1.9864658   4.4711199   9.2879459  )
        18           O1  tau(  18) = (   6.5737290   0.0025997  10.6073112  )
        19           O1  tau(  19) = (   6.5745157   2.9846488  10.6292520  )
        20           O1  tau(  20) = (   3.2733922   2.9888808  11.3669225  )
        21           O1  tau(  21) = (   3.2734535   0.0083669  11.3733985  )
        22           O1  tau(  22) = (   1.2686495   4.4776606  12.6533150  )
        23           O1  tau(  23) = (   1.2691242   1.4995788  12.6525255  )
        24           O1  tau(  24) = (   5.2697113   4.4789153  12.6558726  )
        25           O1  tau(  25) = (   5.2698035   1.4991558  12.6558074  )
        26           O1  tau(  26) = (   3.2614338   2.9920807  13.9552461  )
        27           O1  tau(  27) = (   3.2541646   0.0113981  14.0020514  )
        28           O1  tau(  28) = (   6.5688946   0.0096870  14.6775192  )
        29           O1  tau(  29) = (   6.5667413   2.9928499  14.8718366  )
        30           O1  tau(  30) = (   4.5340645   4.4751187  16.1466513  )
        31           O1  tau(  31) = (   4.5349815   1.5188077  16.1513287  )
        32           O1  tau(  32) = (   2.0116004   1.5352794  16.1924295  )
        33           O1  tau(  33) = (   2.0125852   4.4566501  16.1924965  )
        34           O1  tau(  34) = (   6.5583959   0.0051910  17.1951124  )
        35           O1  tau(  35) = (   0.0128280   2.9917589  17.7791131  )
        36           Ti1 tau(  36) = (   0.0004258   2.9801865   6.0000000  )
        37           Ti1 tau(  37) = (   0.0000382   5.9609847   6.0000000  )
        38           Ti1 tau(  38) = (   3.2906075   1.4906267   6.0002472  )
        39           Ti1 tau(  39) = (   3.2902200   4.4714249   6.0002472  )
        40           Ti1 tau(  40) = (   3.3204229   0.0006979   9.1540291  )
        41           Ti1 tau(  41) = (   3.3226256   2.9815539   9.1563990  )
        42           Ti1 tau(  42) = (   0.0414996   4.4578595   9.2720048  )
        43           Ti1 tau(  43) = (   0.0419130   1.4910583   9.2667342  )
        44           Ti1 tau(  44) = (   6.5463313   0.0151476  12.4833176  )
        45           Ti1 tau(  45) = (   3.2510826   4.4792010  12.5152252  )
        46           Ti1 tau(  46) = (   3.2519543   1.5009035  12.5151888  )
        47           Ti1 tau(  47) = (   6.5510796   2.9946678  12.5453677  )
        48           Ti1 tau(  48) = (   3.2768179   2.9983465  15.7429562  )
        49           Ti1 tau(  49) = (   3.2517467   0.0179395  15.7976682  )
        50           Ti1 tau(  50) = (   6.5407926   4.5826425  15.9111250  )
        51           Ti1 tau(  51) = (   6.5448107   1.3670631  15.9696882  )
        52           N1  tau(  52) = (   4.6962475   1.0170953  19.6889386  )
        53           N1  tau(  53) = (   5.1479752   2.0001232  19.2934520  )

     number of k points=    10  Fermi-Dirac smearing, width (Ry)=  0.0073
                       cart. coord. in units 2pi/alat
        k(    1) = (   0.0000000   0.0000000   0.0000000), wk =   0.1250000
        k(    2) = (   0.0000000   0.0419351   0.0000000), wk =   0.2500000
        k(    3) = (   0.0000000  -0.0838702   0.0000000), wk =   0.1250000
        k(    4) = (   0.0379955   0.0000049   0.0000000), wk =   0.2500000
        k(    5) = (   0.0379955   0.0419400   0.0000000), wk =   0.2500000
        k(    6) = (   0.0379955  -0.0838652   0.0000000), wk =   0.2500000
        k(    7) = (   0.0379955  -0.0419301   0.0000000), wk =   0.2500000
        k(    8) = (  -0.0759910  -0.0000099   0.0000000), wk =   0.1250000
        k(    9) = (  -0.0759910   0.0419252   0.0000000), wk =   0.2500000
        k(   10) = (  -0.0759910  -0.0838800   0.0000000), wk =   0.1250000

     Initial potential from superposition of free atoms

     starting charge  383.99917, renormalised to  400.00000

     negative rho (up, down):  1.646E-02 0.000E+00

     %%%%%%%%%%%%%%%%%%%%%%%%%%%%%%%%%%%%%%%%%%%%%%%%%%%%%%%%%%%%%%%%%%%%%%%%
     %                                                                      %
     % You are using vdW-DF, which was implemented by the Thonhauser group. %
     % Please cite the following two papers that made this development      %
     % possible and the two reviews that describe the various versions:     %
     %                                                                      %
     %   T. Thonhauser et al., PRL 115, 136402 (2015).                      %
     %   T. Thonhauser et al., PRB 76, 125112 (2007).                       %
     %   K. Berland et al., Rep. Prog. Phys. 78, 066501 (2015).             %
     %   D.C. Langreth et al., J. Phys.: Condens. Matter 21, 084203 (2009). %
     %                                                                      %
     %                                                                      %
     % If you are calculating the stress with vdW-DF, please also cite:     %
     %                                                                      %
     %   R. Sabatini et al., J. Phys.: Condens. Matter 24, 424209 (2012).   %
     %                                                                      %
     %%%%%%%%%%%%%%%%%%%%%%%%%%%%%%%%%%%%%%%%%%%%%%%%%%%%%%%%%%%%%%%%%%%%%%%%

     Adding external electric field

     Computed dipole along edir(3) :
        Dipole              -12.4997 Ry au,        -31.7711 Debye
        Dipole field         -0.0236 Ry au,

        Potential amp.        2.1866 Ry
        Total length         46.3494 bohr

     Starting wfcs are  302 atomic wfcs
  @ DRIVER MODE: Message from server: STATUS
  @ DRIVER MODE: Message from server: POSDATA
  @ DRIVER MODE: Reading and sharing cell
  @ DRIVER MODE: Reading and sharing positions
  @ DRIVER MODE: Received positions

     Self-consistent Calculation

     iteration #  1     ecut=    29.40 Ry     beta= 0.05
     Davidson diagonalization with overlap
     c_bands:  3 eigenvalues not converged
     c_bands:  2 eigenvalues not converged
     c_bands:  4 eigenvalues not converged
     c_bands:  3 eigenvalues not converged
     c_bands:  5 eigenvalues not converged
     c_bands:  4 eigenvalues not converged
     c_bands:  1 eigenvalues not converged
     c_bands:  2 eigenvalues not converged
     c_bands:  1 eigenvalues not converged
     ethr =  1.00E-05,  avg # of iterations = 20.9

[...]

     total energy              =   -2397.08600425 Ry
     estimated scf accuracy    <    6493.20410779 Ry

     iteration #  2     ecut=    29.40 Ry     beta= 0.05
     Davidson diagonalization with overlap
     ethr =  1.00E-02,  avg # of iterations = 22.6

[...]

     iteration # 71     ecut=    29.40 Ry     beta= 0.05
     Davidson diagonalization with overlap
     ethr =  8.15E-11,  avg # of iterations =  2.6

[...]

     total energy              =   -2970.16554450 Ry
     estimated scf accuracy    <       0.00000015 Ry

     iteration # 72     ecut=    29.40 Ry     beta= 0.05
     Davidson diagonalization with overlap
     c_bands:  1 eigenvalues not converged
     ethr =  3.77E-11,  avg # of iterations = 12.3

     negative rho (up, down):  1.633E-02 0.000E+00

     Adding external electric field

     Computed dipole along edir(3) :
        Dipole                0.8256 Ry au,          2.0984 Debye
        Dipole field          0.0016 Ry au,

        Potential amp.       -0.1444 Ry
        Total length         46.3494 bohr

     End of self-consistent calculation

          k = 0.0000 0.0000 0.0000 ( 18029 PWs)   bands (ev):

   -55.5631 -55.5329 -55.5271 -55.4985 -55.4588 -55.4523 -55.4396 -55.4056
   -55.4011 -55.3866 -55.3669 -55.3591 -55.3464 -55.3126 -54.6256 -54.5915
   -32.1329 -32.0612 -32.0283 -31.9359 -31.8825 -31.8765 -31.8730 -31.8559
   -31.8212 -31.8115 -31.7756 -31.7740 -31.7675 -31.7485 -31.7389 -31.7165
   -31.7133 -31.6980 -31.6887 -31.6868 -31.6827 -31.6783 -31.6577 -31.6491
   -31.6468 -31.6296 -31.6281 -31.5993 -31.5933 -31.5900 -31.5737 -31.5524
   -31.5509 -31.5501 -31.5415 -31.5307 -31.5270 -31.5000 -31.4904 -31.4816
   -31.4712 -31.4571 -31.0379 -30.9349 -30.9133 -30.8542 -30.7679 -30.6567
   -21.1038 -20.3110 -16.3849 -16.1303 -15.9802 -15.8785 -15.7798 -15.6366
   -15.6065 -15.5004 -15.3714 -15.2884 -15.2351 -15.2250 -15.2107 -15.1999
   -15.1817 -15.1772 -15.1200 -15.0902 -15.0632 -15.0512 -15.0429 -15.0078
   -14.9525 -14.9458 -14.9324 -14.7896 -14.7240 -14.6645 -14.3665 -14.2570
   -13.1263 -13.0068  -8.5422  -6.8084  -5.6752  -4.5381  -4.0295  -3.7475
    -3.7154  -3.5694  -3.4958  -3.4760  -3.4303  -3.3062  -3.1541  -2.9908
    -2.8967  -2.8424  -2.8183  -2.7661  -2.7267  -2.7004  -2.5217  -2.5090
    -2.4798  -2.4545  -2.4354  -2.4309  -2.4041  -2.3339  -2.3130  -2.3046
    -2.2840  -2.1461  -2.1240  -2.0309  -1.9879  -1.9580  -1.9011  -1.8868
    -1.8817  -1.8513  -1.8302  -1.8168  -1.8122  -1.7756  -1.5895  -1.5834
    -1.4687  -1.4244  -1.3438  -1.2933  -1.1225  -1.1186  -1.0668  -1.0419
    -1.0081  -0.9681  -0.9602  -0.9208  -0.8065  -0.7210  -0.6720  -0.6000
    -0.5635  -0.4989  -0.4695  -0.3604  -0.3516  -0.3381  -0.3203  -0.1938
    -0.1335  -0.0954  -0.0611  -0.0159  -0.0031   0.0976   0.1147   0.1932
     0.2020   0.2586   0.2617   0.3650   0.3846   0.3871   0.4114   0.4317
     0.5165   0.5885   0.5932   0.6087   0.7809   0.9536   0.9951   1.0373
     1.2877   1.3915   1.4004   1.5310   1.5594   1.9873   2.0427   3.5328
     3.6015   3.6402   3.6575   3.6710   3.7396   3.9934   4.0223   4.0411
     4.0557   4.0646

[...]

          k = 0.0380-0.0419 0.0000 ( 17876 PWs)   bands (ev):

[...]

          k =-0.0760-0.0000 0.0000 ( 17886 PWs)   bands (ev):

[...]

          k =-0.0760-0.0839 0.0000 ( 17948 PWs)   bands (ev):

   -55.5455 -55.5445 -55.5176 -55.5137 -55.4553 -55.4448 -55.4331 -55.4130
   -55.3935 -55.3849 -55.3827 -55.3620 -55.3305 -55.3286 -54.6086 -54.6084
   -31.9817 -31.9367 -31.9352 -31.8555 -31.8450 -31.8414 -31.8225 -31.8104
   -31.8028 -31.7818 -31.7657 -31.7629 -31.7587 -31.7188 -31.7167 -31.7052
   -31.7016 -31.7005 -31.6910 -31.6852 -31.6847 -31.6838 -31.6715 -31.6486
   -31.6462 -31.6453 -31.6425 -31.6401 -31.6363 -31.6340 -31.6315 -31.6053
   -31.6035 -31.5940 -31.5833 -31.5828 -31.5724 -31.5556 -31.5541 -31.5432
   -31.5166 -31.5137 -30.9259 -30.9258 -30.8506 -30.8504 -30.8111 -30.8110
   -21.1016 -20.3107 -15.9195 -15.8027 -15.7427 -15.5665 -15.5576 -15.5508
   -15.5264 -15.3853 -15.3740 -15.3615 -15.3244 -15.3134 -15.2957 -15.2867
   -15.2728 -15.1548 -15.1514 -15.1427 -15.1405 -15.0802 -15.0770 -15.0621
   -15.0458 -15.0062 -15.0052 -14.9925 -14.9885 -14.8046 -14.7511 -14.2646
   -13.1081 -13.1074  -8.5322  -6.8124  -5.6826  -4.5187  -3.9992  -3.6518
    -3.0804  -3.0283  -3.0045  -2.7789  -2.7637  -2.7255  -2.6838  -2.6312
    -2.5582  -2.5484  -2.5430  -2.4817  -2.4694  -2.4603  -2.4550  -2.4412
    -2.3881  -2.3871  -2.3492  -2.3447  -2.2988  -2.2710  -2.2596  -2.2395
    -2.2250  -2.2249  -2.2041  -2.1871  -2.1718  -2.1661  -2.0596  -2.0028
    -1.9190  -1.8912  -1.8000  -1.7888  -1.7741  -1.6967  -1.6611  -1.6368
    -1.5750  -1.5711  -1.4898  -1.3818  -1.3605  -1.3531  -1.2775  -1.2505
    -1.1885  -1.1494  -1.1005  -1.0415  -1.0262  -0.9430  -0.8887  -0.8680
    -0.7663  -0.7515  -0.7035  -0.5923  -0.5596  -0.5573  -0.5530  -0.5407
    -0.4632  -0.4459  -0.3938  -0.3562  -0.3080  -0.2828  -0.2579  -0.0632
    -0.0463   0.0222   0.1253   0.1542   0.3272   0.3535   0.3922   0.4606
     0.5052   0.5164   0.6053   0.7028   0.7095   0.7415   0.8249   0.8635
     0.8717   0.9127   1.4836   1.7521   1.7528   1.8564   1.8595   3.6845
     3.7708   3.7877   3.8145   3.8656   3.9571   4.0413   4.0587   4.0856
     4.0939   4.1772

     the Fermi energy is     3.5885 ev

!    total energy              =   -2970.16556186 Ry
     estimated scf accuracy    <       0.00000006 Ry
     smearing contrib. (-TS)   =      -0.03781861 Ry
     internal energy E=F+TS    =   -2970.12774324 Ry

     The total energy is F=E-TS. E is the sum of the following terms:
     one-electron contribution =  -23541.74235696 Ry
     hartree contribution      =   11862.63920233 Ry
     xc contribution           =    -491.70340673 Ry
     ewald contribution        =    9200.67753187 Ry
     electric field correction =       0.00128625 Ry

     convergence has been achieved in  72 iterations

     Forces acting on atoms (cartesian axes, Ry/au):

     atom    1 type  1   force =    -0.00002984   -0.00008280    0.00137834
     atom    2 type  2   force =     0.00080292   -0.00005081    0.00025821
     atom    3 type  2   force =     0.00010409   -0.00029763   -0.00035308
     atom    4 type  3   force =     0.00006030   -0.00000393    0.10503592
     atom    5 type  3   force =     0.00004823    0.00002315    0.10503414
     atom    6 type  3   force =    -0.06776342   -0.00002933   -0.02682195
     atom    7 type  3   force =    -0.06780063   -0.00058481   -0.02685585
     atom    8 type  3   force =     0.06763742    0.00042016   -0.02687964
     atom    9 type  3   force =     0.06767748   -0.00014821   -0.02691973
     atom   10 type  3   force =     0.00072305    0.00002431    0.05051538
     atom   11 type  3   force =     0.00077481    0.00000562    0.05058564
     atom   12 type  3   force =     0.00061183   -0.00002551   -0.02310739
     atom   13 type  3   force =     0.00057454   -0.00017668   -0.02182552
     atom   14 type  3   force =    -0.01560043   -0.00018451    0.00499318
     atom   15 type  3   force =    -0.01566696    0.00008404    0.00496746
     atom   16 type  3   force =     0.01436001    0.00025472    0.00477097
     atom   17 type  3   force =     0.01444029    0.00059352    0.00478548
     atom   18 type  3   force =    -0.00006658    0.00000064   -0.00025093
     atom   19 type  3   force =    -0.00013206    0.00000577   -0.00036061
     atom   20 type  3   force =    -0.00012141    0.00007985   -0.00010071
     atom   21 type  3   force =     0.00004581   -0.00012395    0.00009866
     atom   22 type  3   force =     0.00034070    0.00024200   -0.00012609
     atom   23 type  3   force =     0.00008270    0.00006587   -0.00011601
     atom   24 type  3   force =    -0.00022858    0.00010812    0.00004780
     atom   25 type  3   force =     0.00003372   -0.00010325   -0.00009454
     atom   26 type  3   force =     0.00023451   -0.00013629    0.00007486
     atom   27 type  3   force =    -0.00008584    0.00018512   -0.00007111
     atom   28 type  3   force =    -0.00011108    0.00104328    0.00298798
     atom   29 type  3   force =     0.00027838    0.00065380    0.00146097
     atom   30 type  3   force =     0.00011774    0.00001722    0.00003417
     atom   31 type  3   force =     0.00012158    0.00005201    0.00065485
     atom   32 type  3   force =     0.00005215   -0.00010129    0.00071320
     atom   33 type  3   force =     0.00003684    0.00002538    0.00017268
     atom   34 type  3   force =     0.00004607   -0.00058481    0.00357481
     atom   35 type  3   force =    -0.00054687   -0.00013739   -0.00111438
     atom   36 type  4   force =    -0.00021946    0.00010177    0.09294811
     atom   37 type  4   force =    -0.00015230   -0.00011911    0.09681458
     atom   38 type  4   force =    -0.00010523    0.00036314   -0.18353554
     atom   39 type  4   force =    -0.00005381   -0.00057852   -0.18366327
     atom   40 type  4   force =     0.00001011    0.00003863    0.00017649
     atom   41 type  4   force =     0.00019044   -0.00001184    0.00010642
     atom   42 type  4   force =    -0.00037480    0.00012937   -0.00007462
     atom   43 type  4   force =    -0.00022007    0.00028708    0.00019053
     atom   44 type  4   force =     0.00017423    0.00031594    0.00124726
     atom   45 type  4   force =    -0.00008929    0.00002344    0.00030153
     atom   46 type  4   force =    -0.00011555    0.00008116    0.00028911
     atom   47 type  4   force =    -0.00010213   -0.00028825    0.00060428
     atom   48 type  4   force =    -0.00005816   -0.00018582   -0.00043023
     atom   49 type  4   force =    -0.00010225   -0.00014992   -0.00028572
     atom   50 type  4   force =    -0.00003287   -0.00204609   -0.00470917
     atom   51 type  4   force =     0.00016209    0.00011410   -0.00657874
     atom   52 type  5   force =    -0.00129976   -0.00113976   -0.00063980
     atom   53 type  5   force =     0.00133735    0.00195127    0.00009165

     Total force =     0.368732     Total SCF correction =     0.000603
  @ DRIVER MODE: Message from server: STATUS
  @ DRIVER MODE: Message from server: GETFORCE
  @ DRIVER MODE: Returning v,forces,stress,ensemble

     Writing output data file ./calc.save/
  @ DRIVER MODE: Message from server: EXIT
  @ DRIVE MODE: Exiting

     General routines

     Parallel routines

   This run was terminated on:  22: 6:36  14Sep2021

   JOB DONE.