     Program PWSCF v.6.7GPU starts on 22Sep2021 at  6:11:52

     R & G space division:  proc/nbgrp/npool/nimage =      10
     Reading input from /storage/home/hcoda1/3/ntian30/research/carbon/CxH_vib/CH_calc/ads_slab/CHNHNH2H2O_b/out_0023/pw.inp
Warning: card &CELL ignored
Warning: card   CELL_DYNAMICS='IPI', ignored
Warning: card / ignored

     Current dimensions of program PWSCF are:
     Max number of different atomic species (ntypx) = 10
     Max number of k-points (npk) =  40000
     Max angular momentum in pseudopotentials (lmaxx) =  3
     Presently no symmetry can be used with electric field

     Message from routine cell_base_init:
     DEPRECATED: use true lattice parameter, not A to a.u. conversion factor

     IMPORTANT: XC functional enforced from input :
     Exchange-correlation= BEEF-VDW
                           (   1   4  43  14   2   0   0)
     Any further DFT definition will be discarded
     Please, verify this is what you really want

  @ DRIVER MODE: Connecting to
 qe_1139763_2927425.sched-torque.pace.gatech.edu2q45o7zp_scratch
  using UNIX socket
  @ DRIVER MODE: Message from server: STATUS
  @ DRIVER MODE: Message from server: INIT
  @ DRIVER MODE: Receiving replica           0          -1
  @ DRIVER MODE: Receiving encoded integer          25
  @ DRIVER MODE:  SCF:  T  FORCE:  T  STRESS:  F  VC:  F  ENSEMBLE:  F
  @ DRIVER MODE:  SCF:  T  FORCE:  T  STRESS:  F  VC:  F  ENSEMBLE:  F

     Using Slab Decomposition

     bravais-lattice index     =            0
     lattice parameter (alat)  =       1.8897  a.u.
     unit-cell volume          =    6658.9804 (a.u.)^3
     number of atoms/cell      =           57
     number of atomic types    =            5
     number of electrons       =       404.00
     number of Kohn-Sham states=          212
     kinetic-energy cutoff     =      29.3995  Ry
     charge density cutoff     =     293.9946  Ry
     scf convergence threshold =      7.3E-08
     mixing beta               =       0.0500
     number of iterations used =            8  plain     mixing
     Exchange-correlation= BEEF-VDW
                           (   1   4  43  14   2   0   0)

     celldm(1)=   1.889726  celldm(2)=   0.000000  celldm(3)=   0.000000
     celldm(4)=   0.000000  celldm(5)=   0.000000  celldm(6)=   0.000000

     crystal axes: (cart. coord. in units of alat)
               a(1) = (   6.579727   0.000000   0.000000 )
               a(2) = (  -0.000775   5.961596   0.000000 )
               a(3) = (   0.000000   0.000000  25.155947 )

     reciprocal axes: (cart. coord. in units 2 pi/alat)
               b(1) = (  0.151982  0.000020  0.000000 )
               b(2) = (  0.000000  0.167740  0.000000 )
               b(3) = (  0.000000  0.000000  0.039752 )

     PseudoPot. # 1 for Ti read from file:
     /storage/coda1/p-amedford6/0/shared/rich_project_chbe-medford/medford-share/data/pseudos_module/espresso/nninc/pbe/van/Ti.UPF
     MD5 check sum: 8e4df49b7f0d34bbd5052bf3f5ea0213
     Pseudo is Ultrasoft, Zval = 12.0
     Generated by new atomic code, or converted to UPF format
     Using radial grid of  851 points,  6 beta functions with:
                l(1) =   0
                l(2) =   0
                l(3) =   1
                l(4) =   1
                l(5) =   2
                l(6) =   2
     Q(r) pseudized with  8 coefficients,  rinner =    1.000   1.000   1.000
                                                       1.000   1.000

     PseudoPot. # 2 for O  read from file:
     /storage/coda1/p-amedford6/0/shared/rich_project_chbe-medford/medford-share/data/pseudos_module/espresso/nninc/pbe/van/O.UPF
     MD5 check sum: 78c19812648e8988a0fe644b0f25305e
     Pseudo is Ultrasoft, Zval =  6.0
     Generated by new atomic code, or converted to UPF format
     Using radial grid of  737 points,  4 beta functions with:
                l(1) =   0
                l(2) =   0
                l(3) =   1
                l(4) =   1
     Q(r) pseudized with  8 coefficients,  rinner =    0.800   0.800   0.800

     PseudoPot. # 3 for N  read from file:
     /storage/coda1/p-amedford6/0/shared/rich_project_chbe-medford/medford-share/data/pseudos_module/espresso/nninc/pbe/van/N.UPF
     MD5 check sum: 90d10febe142ad51ac9d5be1deb811c4
     Pseudo is Ultrasoft, Zval =  5.0
     Generated by new atomic code, or converted to UPF format
     Using radial grid of  729 points,  4 beta functions with:
                l(1) =   0
                l(2) =   0
                l(3) =   1
                l(4) =   1
     Q(r) pseudized with  8 coefficients,  rinner =    0.800   0.800   0.800

     PseudoPot. # 4 for C  read from file:
     /storage/coda1/p-amedford6/0/shared/rich_project_chbe-medford/medford-share/data/pseudos_module/espresso/nninc/pbe/van/C.UPF
     MD5 check sum: 1a69bf6b8db32088f5b2163dbdb77a27
     Pseudo is Ultrasoft, Zval =  4.0
     Generated by new atomic code, or converted to UPF format
     Using radial grid of  721 points,  4 beta functions with:
                l(1) =   0
                l(2) =   0
                l(3) =   1
                l(4) =   1
     Q(r) pseudized with  8 coefficients,  rinner =    0.800   0.800   0.800

     PseudoPot. # 5 for H  read from file:
     /storage/coda1/p-amedford6/0/shared/rich_project_chbe-medford/medford-share/data/pseudos_module/espresso/nninc/pbe/van/H.UPF
     MD5 check sum: b5ee9d7bfd3a09ee7748110bda690ff7
     Pseudo is Ultrasoft, Zval =  1.0
     Generated by new atomic code, or converted to UPF format
     Using radial grid of  615 points,  1 beta functions with:
                l(1) =   0
     Q(r) pseudized with  8 coefficients,  rinner =    0.800

     atomic species   valence    mass     pseudopotential
        Ti1           12.00    47.86700     Ti( 1.00)
        O1             6.00    15.99900     O ( 1.00)
        N1             5.00    14.00700     N ( 1.00)
        C1             4.00    12.01100     C ( 1.00)
        H1             1.00     1.00800     H ( 1.00)

     No symmetry found

   Cartesian axes

     site n.     atom                  positions (alat units)
         1           Ti1 tau(   1) = (   0.0004258   2.9801865   6.0000000  )
         2           Ti1 tau(   2) = (   3.2906075   1.4906267   6.0002472  )
         3           O1  tau(   3) = (   0.0006271   0.0005054   7.9858123  )
         4           O1  tau(   4) = (   3.2906025   0.0005020   7.3038282  )
         5           O1  tau(   5) = (   4.5942328   1.4918067   9.2879030  )
         6           O1  tau(   6) = (   1.9868534   1.4903216   9.2879459  )
         7           Ti1 tau(   7) = (   3.2907910   2.8959150   9.1758416  )
         8           Ti1 tau(   8) = (   0.0015273   1.4827037   9.2680791  )
         9           O1  tau(   9) = (   3.3066417   5.9496923  11.3845403  )
        10           O1  tau(  10) = (   0.0116148   5.9584955  10.6183126  )
        11           O1  tau(  11) = (   1.3010148   1.4986442  12.6442229  )
        12           O1  tau(  12) = (   5.3085967   1.5001388  12.6592367  )
        13           Ti1 tau(  13) = (   0.0282779   2.9853959  12.5065338  )
        14           Ti1 tau(  14) = (   3.3279724   1.4707331  12.5413945  )
        15           O1  tau(  15) = (   0.0378505   0.0859181  14.6860672  )
        16           O1  tau(  16) = (   3.3018867   0.0259462  14.0338077  )
        17           O1  tau(  17) = (   4.5998927   1.5484098  16.1661054  )
        18           O1  tau(  18) = (   2.0454451   1.5021798  16.2221046  )
        19           Ti1 tau(  19) = (   3.3206312   2.9825829  15.7321521  )
        20           Ti1 tau(  20) = (   0.0140791   1.4435866  15.9983415  )
        21           O1  tau(  21) = (   3.2904802   0.0005063   4.7018136  )
        22           O1  tau(  22) = (   6.5273045   5.8164216  17.2577718  )
        23           O1  tau(  23) = (   1.3043587   1.4918075   6.0039043  )
        24           O1  tau(  24) = (   5.2767064   1.4903225   6.0039473  )
        25           Ti1 tau(  25) = (   0.0000382   5.9609847   6.0000000  )
        26           Ti1 tau(  26) = (   3.2902200   4.4714249   6.0002472  )
        27           O1  tau(  27) = (   0.0002396   2.9813036   7.9858123  )
        28           O1  tau(  28) = (   3.2902150   2.9813002   7.3038282  )
        29           O1  tau(  29) = (   4.5938453   4.4726049   9.2879030  )
        30           O1  tau(  30) = (   1.9864658   4.4711199   9.2879459  )
        31           Ti1 tau(  31) = (   3.2891106   5.8743827   9.1763621  )
        32           Ti1 tau(  32) = (   0.0006254   4.4649316   9.2693709  )
        33           O1  tau(  33) = (   3.3068470   2.9864458  11.3814114  )
        34           O1  tau(  34) = (   0.0092240   2.9805883  10.6323155  )
        35           O1  tau(  35) = (   1.2982948   4.4740332  12.6840172  )
        36           O1  tau(  36) = (   5.3097620   4.4704985  12.6972095  )
        37           Ti1 tau(  37) = (   0.0348817   0.0130325  12.4954113  )
        38           Ti1 tau(  38) = (   3.3270268   4.4633798  12.5435021  )
        39           O1  tau(  39) = (   0.0563025   2.9439880  14.9425960  )
        40           O1  tau(  40) = (   3.2900316   2.9661073  13.9503945  )
        41           O1  tau(  41) = (   4.5967999   4.4093095  16.0633277  )
        42           O1  tau(  42) = (   2.0412097   4.4536800  16.1303113  )
        43           Ti1 tau(  43) = (   3.2964201   5.9600488  15.8742613  )
        44           Ti1 tau(  44) = (   0.0241369   4.6516137  15.8518307  )
        45           O1  tau(  45) = (   3.2900926   2.9813045   4.7018136  )
        46           O1  tau(  46) = (   1.3039711   4.4726057   6.0039043  )
        47           O1  tau(  47) = (   5.2763189   4.4711207   6.0039473  )
        48           N1  tau(  48) = (   1.4509408   2.7109095  18.7602185  )
        49           N1  tau(  49) = (   0.0917387   2.5303350  18.2207845  )
        50           C1  tau(  50) = (   1.9503960   3.7723240  19.2784661  )
        51           H1  tau(  51) = (   1.1612915   4.5273475  19.4052495  )
        52           H1  tau(  52) = (   2.0208952   1.9183395  18.4664618  )
        53           H1  tau(  53) = (   6.1377449   3.3539424  18.4987646  )
        54           H1  tau(  54) = (   6.2616785   1.7135167  18.6767212  )
        55           O1  tau(  55) = (   3.7012217   5.9496235  18.2853534  )
        56           H1  tau(  56) = (   4.6684668   5.8470116  18.1670174  )
        57           H1  tau(  57) = (   3.3852657   5.1278045  18.7338684  )

     number of k points=    10  Fermi-Dirac smearing, width (Ry)=  0.0073
                       cart. coord. in units 2pi/alat
        k(    1) = (   0.0000000   0.0000000   0.0000000), wk =   0.1250000
        k(    2) = (   0.0000000   0.0419351   0.0000000), wk =   0.2500000
        k(    3) = (   0.0000000  -0.0838702   0.0000000), wk =   0.1250000
        k(    4) = (   0.0379955   0.0000049   0.0000000), wk =   0.2500000
        k(    5) = (   0.0379955   0.0419400   0.0000000), wk =   0.2500000
        k(    6) = (   0.0379955  -0.0838652   0.0000000), wk =   0.2500000
        k(    7) = (   0.0379955  -0.0419301   0.0000000), wk =   0.2500000
        k(    8) = (  -0.0759910  -0.0000099   0.0000000), wk =   0.1250000
        k(    9) = (  -0.0759910   0.0419252   0.0000000), wk =   0.2500000
        k(   10) = (  -0.0759910  -0.0838800   0.0000000), wk =   0.1250000

     Initial potential from superposition of free atoms

     starting charge  387.99913, renormalised to  404.00000

     negative rho (up, down):  1.598E-02 0.000E+00

     %%%%%%%%%%%%%%%%%%%%%%%%%%%%%%%%%%%%%%%%%%%%%%%%%%%%%%%%%%%%%%%%%%%%%%%%
     %                                                                      %
     % You are using vdW-DF, which was implemented by the Thonhauser group. %
     % Please cite the following two papers that made this development      %
     % possible and the two reviews that describe the various versions:     %
     %                                                                      %
     %   T. Thonhauser et al., PRL 115, 136402 (2015).                      %
     %   T. Thonhauser et al., PRB 76, 125112 (2007).                       %
     %   K. Berland et al., Rep. Prog. Phys. 78, 066501 (2015).             %
     %   D.C. Langreth et al., J. Phys.: Condens. Matter 21, 084203 (2009). %
     %                                                                      %
     %                                                                      %
     % If you are calculating the stress with vdW-DF, please also cite:     %
     %                                                                      %
     %   R. Sabatini et al., J. Phys.: Condens. Matter 24, 424209 (2012).   %
     %                                                                      %
     %%%%%%%%%%%%%%%%%%%%%%%%%%%%%%%%%%%%%%%%%%%%%%%%%%%%%%%%%%%%%%%%%%%%%%%%

     Adding external electric field

     Computed dipole along edir(3) :
        Dipole              -14.3577 Ry au,        -36.4937 Debye
        Dipole field         -0.0271 Ry au,

        Potential amp.        2.5117 Ry
        Total length         46.3494 bohr

     Starting wfcs are  306 atomic wfcs
  @ DRIVER MODE: Message from server: STATUS
  @ DRIVER MODE: Message from server: POSDATA
  @ DRIVER MODE: Reading and sharing cell
  @ DRIVER MODE: Reading and sharing positions
  @ DRIVER MODE: Received positions

     Self-consistent Calculation

     iteration #  1     ecut=    29.40 Ry     beta= 0.05
     Davidson diagonalization with overlap
     c_bands:  3 eigenvalues not converged
     c_bands:  4 eigenvalues not converged
     c_bands:  4 eigenvalues not converged
     c_bands:  4 eigenvalues not converged
     c_bands:  5 eigenvalues not converged
     c_bands:  3 eigenvalues not converged
     c_bands:  2 eigenvalues not converged
     c_bands:  4 eigenvalues not converged
     ethr =  1.00E-05,  avg # of iterations = 21.9

[...]

     total energy              =   -2220.87826464 Ry
     estimated scf accuracy    <    8587.95641530 Ry

     iteration #  2     ecut=    29.40 Ry     beta= 0.05
     Davidson diagonalization with overlap
     ethr =  1.00E-02,  avg # of iterations = 29.4

[...]

     iteration # 58     ecut=    29.40 Ry     beta= 0.05
     Davidson diagonalization with overlap
     c_bands:  1 eigenvalues not converged
     ethr =  1.27E-08,  avg # of iterations = 15.9

[...]

     total energy              =   -2975.10528256 Ry
     estimated scf accuracy    <       0.00000008 Ry

     iteration # 72     ecut=    29.40 Ry     beta= 0.05
     Davidson diagonalization with overlap
     ethr =  1.95E-11,  avg # of iterations =  9.6

     negative rho (up, down):  1.579E-02 0.000E+00

     Adding external electric field

     Computed dipole along edir(3) :
        Dipole                1.0222 Ry au,          2.5982 Debye
        Dipole field          0.0019 Ry au,

        Potential amp.       -0.1788 Ry
        Total length         46.3494 bohr

     End of self-consistent calculation

          k = 0.0000 0.0000 0.0000 ( 18029 PWs)   bands (ev):

   -55.3866 -55.3508 -55.3466 -55.3124 -55.3094 -55.3037 -55.2684 -55.2331
   -55.2181 -55.1833 -55.1765 -55.1612 -55.1428 -55.1137 -54.3781 -54.3441
   -31.9456 -31.8815 -31.8393 -31.7581 -31.7093 -31.7067 -31.6825 -31.6795
   -31.6353 -31.5996 -31.5925 -31.5912 -31.5842 -31.5808 -31.5626 -31.5606
   -31.5358 -31.5279 -31.5250 -31.5136 -31.4992 -31.4927 -31.4739 -31.4692
   -31.4606 -31.4477 -31.4470 -31.4183 -31.4038 -31.4001 -31.3971 -31.3749
   -31.3709 -31.3669 -31.3635 -31.3422 -31.3312 -31.3191 -31.3043 -31.3043
   -31.2940 -31.2876 -30.7876 -30.6931 -30.6711 -30.6040 -30.5172 -30.4063
   -18.8818 -18.4574 -16.2212 -15.9740 -15.8379 -15.7334 -15.5961 -15.4979
   -15.3887 -15.2754 -15.2525 -15.1586 -15.0842 -15.0804 -15.0433 -15.0175
   -14.9549 -14.9336 -14.9098 -14.9038 -14.8893 -14.8791 -14.8426 -14.8316
   -14.7987 -14.7877 -14.7704 -14.6500 -14.6278 -14.5531 -14.4826 -14.3456
   -12.8805 -12.7630  -9.8394  -7.0009  -6.3796  -6.0856  -4.4292  -3.7279
    -3.5447  -3.4115  -3.3331  -3.3038  -3.2869  -3.1553  -3.0623  -2.9032
    -2.8645  -2.8080  -2.6749  -2.5991  -2.5927  -2.5047  -2.4323  -2.4089
    -2.3760  -2.2669  -2.2605  -2.2108  -2.1934  -2.1703  -2.1610  -2.1143
    -2.0683  -2.0411  -1.9560  -1.8546  -1.8108  -1.7910  -1.7546  -1.7321
    -1.7272  -1.6836  -1.6774  -1.6537  -1.6149  -1.5906  -1.5451  -1.4332
    -1.3917  -1.2330  -1.1956  -1.0413  -1.0208  -0.9816  -0.9612  -0.9247
    -0.8948  -0.8785  -0.8628  -0.7734  -0.7150  -0.6490  -0.5848  -0.4940
    -0.4836  -0.4096  -0.3839  -0.3188  -0.2314  -0.1866  -0.1770  -0.1523
    -0.1489  -0.0351   0.0097   0.0700   0.0886   0.1460   0.1618   0.1841
     0.2541   0.3076   0.3772   0.4078   0.4869   0.5051   0.5403   0.5494
     0.5817   0.5922   0.6684   0.6832   0.7114   0.8142   0.9116   1.0042
     1.2145   1.2171   1.2487   1.5496   1.5518   1.6449   1.8283   2.2212
     2.2696   3.7033   3.7818   3.8313   3.8489   3.8533   3.9382   4.1928
     4.2071   4.2198   4.2260   4.2668

[...]

          k = 0.0380-0.0419 0.0000 ( 17876 PWs)   bands (ev):

[...]

          k =-0.0760-0.0000 0.0000 ( 17886 PWs)   bands (ev):

[...]

          k =-0.0760-0.0839 0.0000 ( 17948 PWs)   bands (ev):

   -55.3697 -55.3675 -55.3295 -55.3293 -55.3064 -55.3028 -55.2548 -55.2468
   -55.2038 -55.1972 -55.1631 -55.1606 -55.1589 -55.1154 -54.3611 -54.3610
   -31.7962 -31.7580 -31.7439 -31.6544 -31.6543 -31.6399 -31.6279 -31.6206
   -31.6205 -31.5997 -31.5947 -31.5915 -31.5686 -31.5608 -31.5490 -31.5351
   -31.5319 -31.5294 -31.5253 -31.5174 -31.5126 -31.5105 -31.5096 -31.5019
   -31.4700 -31.4686 -31.4493 -31.4491 -31.4488 -31.4439 -31.4411 -31.4366
   -31.4274 -31.4159 -31.4103 -31.3934 -31.3917 -31.3818 -31.3405 -31.3395
   -31.3389 -31.3201 -30.6837 -30.6837 -30.6001 -30.6000 -30.5606 -30.5605
   -18.8759 -18.4598 -15.8408 -15.6542 -15.5026 -15.4310 -15.4108 -15.3274
   -15.2722 -15.2688 -15.1958 -15.1778 -15.1654 -15.1438 -15.1341 -15.0867
   -15.0495 -15.0129 -14.9942 -14.9715 -14.9283 -14.9057 -14.9041 -14.8973
   -14.8895 -14.8492 -14.8442 -14.8409 -14.7491 -14.7472 -14.7093 -14.5611
   -12.8645 -12.8645  -9.8487  -6.9896  -6.3547  -6.0616  -4.4430  -3.6540
    -3.0243  -2.9123  -2.9017  -2.6726  -2.6545  -2.5933  -2.5808  -2.4928
    -2.4773  -2.4167  -2.3931  -2.3430  -2.3200  -2.2822  -2.2683  -2.2466
    -2.2255  -2.2118  -2.1853  -2.1692  -2.1523  -2.1326  -2.1215  -2.1102
    -2.0548  -2.0494  -2.0404  -2.0150  -1.9920  -1.9559  -1.9460  -1.9296
    -1.7742  -1.7584  -1.7371  -1.6016  -1.5973  -1.5631  -1.5231  -1.4955
    -1.4377  -1.4291  -1.4009  -1.3421  -1.1483  -1.1379  -1.1256  -1.1079
    -1.0368  -0.9811  -0.9673  -0.9494  -0.8957  -0.8176  -0.7837  -0.7312
    -0.6424  -0.5902  -0.5808  -0.5549  -0.4337  -0.4108  -0.3683  -0.3502
    -0.3340  -0.2996  -0.2981  -0.2407  -0.1880  -0.1524  -0.1295  -0.1153
    -0.0782   0.0765   0.1285   0.1449   0.2590   0.2885   0.4666   0.5093
     0.5311   0.6361   0.7194   0.7474   0.7618   0.8872   0.9094   0.9118
     0.9803   1.0025   1.0626   1.0683   1.2051   2.0010   2.0023   2.0894
     2.0897   3.8285   3.9512   3.9955   4.0313   4.1073   4.1600   4.2171
     4.2762   4.2878   4.2915   4.3589

     the Fermi energy is     3.7654 ev

!    total energy              =   -2975.10530719 Ry
     estimated scf accuracy    <       0.00000006 Ry
     smearing contrib. (-TS)   =      -0.03671931 Ry
     internal energy E=F+TS    =   -2975.06858789 Ry

     The total energy is F=E-TS. E is the sum of the following terms:
     one-electron contribution =  -23505.87755762 Ry
     hartree contribution      =   11848.94780531 Ry
     xc contribution           =    -494.91913338 Ry
     ewald contribution        =    9176.77832590 Ry
     electric field correction =       0.00197190 Ry

     convergence has been achieved in  72 iterations

     Forces acting on atoms (cartesian axes, Ry/au):

     atom    1 type  1   force =     0.00002921   -0.00025196    0.09308937
     atom    2 type  1   force =    -0.00018351   -0.00032366   -0.17837392
     atom    3 type  2   force =     0.00006114   -0.00016797   -0.02026337
     atom    4 type  2   force =     0.00001734   -0.00203708    0.05924329
     atom    5 type  2   force =    -0.01034374   -0.00110344    0.00810130
     atom    6 type  2   force =     0.01218690   -0.00054816    0.00817987
     atom    7 type  1   force =     0.00015032    0.00329474   -0.01110894
     atom    8 type  1   force =    -0.00030303    0.00051968   -0.00559981
     atom    9 type  2   force =     0.00004270    0.00017781   -0.00014333
     atom   10 type  2   force =    -0.00146469   -0.00003502   -0.00170616
     atom   11 type  2   force =     0.00036644   -0.00003952   -0.00006567
     atom   12 type  2   force =    -0.00008739    0.00010270   -0.00009459
     atom   13 type  1   force =    -0.00009434   -0.00017020   -0.00024301
     atom   14 type  1   force =    -0.00021351   -0.00036415    0.00033120
     atom   15 type  2   force =     0.00006981   -0.00049047    0.00007887
     atom   16 type  2   force =     0.00021901    0.00008843    0.00025818
     atom   17 type  2   force =     0.00035360   -0.00017037    0.00017877
     atom   18 type  2   force =    -0.00005770   -0.00012625   -0.00011681
     atom   19 type  1   force =    -0.00028231   -0.00045638    0.00000376
     atom   20 type  1   force =     0.00012271    0.00031632    0.00056697
     atom   21 type  2   force =    -0.00000338   -0.00007680    0.10402467
     atom   22 type  2   force =    -0.00011722   -0.00004582   -0.00010064
     atom   23 type  2   force =    -0.07035776   -0.00016671   -0.02684336
     atom   24 type  2   force =     0.07022613    0.00028029   -0.02692006
     atom   25 type  1   force =     0.00002088   -0.00015263    0.09275615
     atom   26 type  1   force =    -0.00015851   -0.00039023   -0.17831849
     atom   27 type  2   force =     0.00011084   -0.00031038   -0.01919502
     atom   28 type  2   force =     0.00004669   -0.00163405    0.05839467
     atom   29 type  2   force =    -0.01029595   -0.00064132    0.00730840
     atom   30 type  2   force =     0.01203193   -0.00030865    0.00744216
     atom   31 type  1   force =     0.00007345    0.00515467   -0.01464944
     atom   32 type  1   force =    -0.00013831   -0.00050668   -0.00594386
     atom   33 type  2   force =     0.00012764   -0.00039397   -0.00023147
     atom   34 type  2   force =    -0.00078810    0.00260518   -0.00103341
     atom   35 type  2   force =    -0.00008284   -0.00011416   -0.00013047
     atom   36 type  2   force =     0.00024547    0.00000464   -0.00015747
     atom   37 type  1   force =    -0.00044356    0.00007813    0.00002058
     atom   38 type  1   force =    -0.00002868   -0.00023816   -0.00024987
     atom   39 type  2   force =    -0.00030543   -0.00021157   -0.00017013
     atom   40 type  2   force =    -0.00013523   -0.00005649   -0.00003696
     atom   41 type  2   force =    -0.00014600   -0.00015626    0.00037162
     atom   42 type  2   force =    -0.00006639   -0.00025881    0.00014305
     atom   43 type  1   force =     0.00000974   -0.00029782    0.00009687
     atom   44 type  1   force =     0.00000211   -0.00002668    0.00015836
     atom   45 type  2   force =     0.00001045   -0.00011075    0.10399011
     atom   46 type  2   force =    -0.07038501   -0.00011334   -0.02686907
     atom   47 type  2   force =     0.07022997    0.00032181   -0.02692942
     atom   48 type  3   force =     0.00036669    0.00019625    0.00042073
     atom   49 type  3   force =    -0.00063473   -0.00060010   -0.00014311
     atom   50 type  4   force =     0.00077247    0.00068735   -0.00082034
     atom   51 type  5   force =    -0.00076815    0.00059106    0.00087800
     atom   52 type  5   force =    -0.00017933   -0.00131013    0.00014282
     atom   53 type  5   force =    -0.00008976    0.00003020   -0.00000417
     atom   54 type  5   force =     0.00030342    0.00056311   -0.00001766
     atom   55 type  2   force =     0.00011805   -0.00018475    0.00057317
     atom   56 type  5   force =     0.00023226   -0.00036944   -0.00042121
     atom   57 type  5   force =    -0.00039284   -0.00005205    0.00014826

     Total force =     0.366201     Total SCF correction =     0.000728
  @ DRIVER MODE: Message from server: STATUS
  @ DRIVER MODE: Message from server: GETFORCE
  @ DRIVER MODE: Returning v,forces,stress,ensemble

     Writing output data file ./calc.save/
  @ DRIVER MODE: Message from server: EXIT
  @ DRIVE MODE: Exiting

     General routines

     Parallel routines

   This run was terminated on:   6:32: 7  22Sep2021

   JOB DONE.