     Program PWSCF v.6.7GPU starts on 16Sep2021 at  4:45:52

     R & G space division:  proc/nbgrp/npool/nimage =      10
     Reading input from /storage/home/hcoda1/3/ntian30/research/carbon/CxH_vib/H2O_calc/ads_slab/CH3N2H2O_c/out_0041/pw.inp
Warning: card &CELL ignored
Warning: card   CELL_DYNAMICS='IPI', ignored
Warning: card / ignored

     Current dimensions of program PWSCF are:
     Max number of different atomic species (ntypx) = 10
     Max number of k-points (npk) =  40000
     Max angular momentum in pseudopotentials (lmaxx) =  3
     Presently no symmetry can be used with electric field

     Message from routine cell_base_init:
     DEPRECATED: use true lattice parameter, not A to a.u. conversion factor

     IMPORTANT: XC functional enforced from input :
     Exchange-correlation= BEEF-VDW
                           (   1   4  43  14   2   0   0)
     Any further DFT definition will be discarded
     Please, verify this is what you really want

  @ DRIVER MODE: Connecting to
 qe_1139763_2852616.sched-torque.pace.gatech.eduiul6db1r_scratch
  using UNIX socket
  @ DRIVER MODE: Message from server: STATUS
  @ DRIVER MODE: Message from server: INIT
  @ DRIVER MODE: Receiving replica           0          -1
  @ DRIVER MODE: Receiving encoded integer          25
  @ DRIVER MODE:  SCF:  T  FORCE:  T  STRESS:  F  VC:  F  ENSEMBLE:  F
  @ DRIVER MODE:  SCF:  T  FORCE:  T  STRESS:  F  VC:  F  ENSEMBLE:  F

     Using Slab Decomposition

     bravais-lattice index     =            0
     lattice parameter (alat)  =       1.8897  a.u.
     unit-cell volume          =    6658.9804 (a.u.)^3
     number of atoms/cell      =           56
     number of atomic types    =            5
     number of electrons       =       403.00
     number of Kohn-Sham states=          211
     kinetic-energy cutoff     =      29.3995  Ry
     charge density cutoff     =     293.9946  Ry
     scf convergence threshold =      7.3E-08
     mixing beta               =       0.0500
     number of iterations used =            8  plain     mixing
     Exchange-correlation= BEEF-VDW
                           (   1   4  43  14   2   0   0)

     celldm(1)=   1.889726  celldm(2)=   0.000000  celldm(3)=   0.000000
     celldm(4)=   0.000000  celldm(5)=   0.000000  celldm(6)=   0.000000

     crystal axes: (cart. coord. in units of alat)
               a(1) = (   6.579727   0.000000   0.000000 )
               a(2) = (  -0.000775   5.961596   0.000000 )
               a(3) = (   0.000000   0.000000  25.155947 )

     reciprocal axes: (cart. coord. in units 2 pi/alat)
               b(1) = (  0.151982  0.000020  0.000000 )
               b(2) = (  0.000000  0.167740  0.000000 )
               b(3) = (  0.000000  0.000000  0.039752 )

     PseudoPot. # 1 for Ti read from file:
     /storage/coda1/p-amedford6/0/shared/rich_project_chbe-medford/medford-share/data/pseudos_module/espresso/nninc/pbe/van/Ti.UPF
     MD5 check sum: 8e4df49b7f0d34bbd5052bf3f5ea0213
     Pseudo is Ultrasoft, Zval = 12.0
     Generated by new atomic code, or converted to UPF format
     Using radial grid of  851 points,  6 beta functions with:
                l(1) =   0
                l(2) =   0
                l(3) =   1
                l(4) =   1
                l(5) =   2
                l(6) =   2
     Q(r) pseudized with  8 coefficients,  rinner =    1.000   1.000   1.000
                                                       1.000   1.000

     PseudoPot. # 2 for O  read from file:
     /storage/coda1/p-amedford6/0/shared/rich_project_chbe-medford/medford-share/data/pseudos_module/espresso/nninc/pbe/van/O.UPF
     MD5 check sum: 78c19812648e8988a0fe644b0f25305e
     Pseudo is Ultrasoft, Zval =  6.0
     Generated by new atomic code, or converted to UPF format
     Using radial grid of  737 points,  4 beta functions with:
                l(1) =   0
                l(2) =   0
                l(3) =   1
                l(4) =   1
     Q(r) pseudized with  8 coefficients,  rinner =    0.800   0.800   0.800

     PseudoPot. # 3 for N  read from file:
     /storage/coda1/p-amedford6/0/shared/rich_project_chbe-medford/medford-share/data/pseudos_module/espresso/nninc/pbe/van/N.UPF
     MD5 check sum: 90d10febe142ad51ac9d5be1deb811c4
     Pseudo is Ultrasoft, Zval =  5.0
     Generated by new atomic code, or converted to UPF format
     Using radial grid of  729 points,  4 beta functions with:
                l(1) =   0
                l(2) =   0
                l(3) =   1
                l(4) =   1
     Q(r) pseudized with  8 coefficients,  rinner =    0.800   0.800   0.800

     PseudoPot. # 4 for C  read from file:
     /storage/coda1/p-amedford6/0/shared/rich_project_chbe-medford/medford-share/data/pseudos_module/espresso/nninc/pbe/van/C.UPF
     MD5 check sum: 1a69bf6b8db32088f5b2163dbdb77a27
     Pseudo is Ultrasoft, Zval =  4.0
     Generated by new atomic code, or converted to UPF format
     Using radial grid of  721 points,  4 beta functions with:
                l(1) =   0
                l(2) =   0
                l(3) =   1
                l(4) =   1
     Q(r) pseudized with  8 coefficients,  rinner =    0.800   0.800   0.800

     PseudoPot. # 5 for H  read from file:
     /storage/coda1/p-amedford6/0/shared/rich_project_chbe-medford/medford-share/data/pseudos_module/espresso/nninc/pbe/van/H.UPF
     MD5 check sum: b5ee9d7bfd3a09ee7748110bda690ff7
     Pseudo is Ultrasoft, Zval =  1.0
     Generated by new atomic code, or converted to UPF format
     Using radial grid of  615 points,  1 beta functions with:
                l(1) =   0
     Q(r) pseudized with  8 coefficients,  rinner =    0.800

     atomic species   valence    mass     pseudopotential
        Ti1           12.00    47.86700     Ti( 1.00)
        O1             6.00    15.99900     O ( 1.00)
        N1             5.00    14.00700     N ( 1.00)
        C1             4.00    12.01100     C ( 1.00)
        H1             1.00     1.00800     H ( 1.00)

     No symmetry found

   Cartesian axes

     site n.     atom                  positions (alat units)
         1           Ti1 tau(   1) = (   0.0004258   2.9801865   6.0000000  )
         2           Ti1 tau(   2) = (   3.2906075   1.4906267   6.0002472  )
         3           O1  tau(   3) = (   0.0006271   0.0005054   7.9858123  )
         4           O1  tau(   4) = (   3.2906025   0.0005020   7.3038282  )
         5           O1  tau(   5) = (   4.5942328   1.4918067   9.2879030  )
         6           O1  tau(   6) = (   1.9868534   1.4903216   9.2879459  )
         7           Ti1 tau(   7) = (   3.2907910   2.8959150   9.1758416  )
         8           Ti1 tau(   8) = (   0.0015273   1.4827037   9.2680791  )
         9           O1  tau(   9) = (   3.2828550   5.9398922  11.3444325  )
        10           O1  tau(  10) = (   0.0116148   5.9584955  10.6183126  )
        11           O1  tau(  11) = (   1.2785533   1.4626539  12.6279770  )
        12           O1  tau(  12) = (   5.2704455   1.4657548  12.6160130  )
        13           Ti1 tau(  13) = (   0.0600808   2.9393476  12.6134163  )
        14           Ti1 tau(  14) = (   3.3737088   1.4602624  12.5010433  )
        15           O1  tau(  15) = (   6.5684750   5.9323085  14.6353932  )
        16           O1  tau(  16) = (   3.2849856   5.9366180  13.9618146  )
        17           O1  tau(  17) = (   4.5362432   1.5114280  16.0576559  )
        18           O1  tau(  18) = (   2.0240554   1.5008084  16.0383298  )
        19           Ti1 tau(  19) = (   3.2703657   2.9522362  15.6888820  )
        20           Ti1 tau(  20) = (   6.5391562   1.4934284  15.8005638  )
        21           O1  tau(  21) = (   3.2904802   0.0005063   4.7018136  )
        22           O1  tau(  22) = (   6.5583345   5.9570231  17.1947061  )
        23           O1  tau(  23) = (   1.3043587   1.4918075   6.0039043  )
        24           O1  tau(  24) = (   5.2767064   1.4903225   6.0039473  )
        25           Ti1 tau(  25) = (   0.0000382   5.9609847   6.0000000  )
        26           Ti1 tau(  26) = (   3.2902200   4.4714249   6.0002472  )
        27           O1  tau(  27) = (   0.0002396   2.9813036   7.9858123  )
        28           O1  tau(  28) = (   3.2902150   2.9813002   7.3038282  )
        29           O1  tau(  29) = (   4.5938453   4.4726049   9.2879030  )
        30           O1  tau(  30) = (   1.9864658   4.4711199   9.2879459  )
        31           Ti1 tau(  31) = (   3.2891106   5.8743827   9.1763621  )
        32           Ti1 tau(  32) = (   0.0006254   4.4649316   9.2693709  )
        33           O1  tau(  33) = (   3.2888364   2.9620848  11.3424199  )
        34           O1  tau(  34) = (   0.0092240   2.9805883  10.6323155  )
        35           O1  tau(  35) = (   1.2785924   4.4508711  12.6313046  )
        36           O1  tau(  36) = (   5.2742027   4.4576360  12.6186982  )
        37           Ti1 tau(  37) = (   0.0560446   5.9134488  12.5469576  )
        38           Ti1 tau(  38) = (   3.3742563   4.4530221  12.5021653  )
        39           O1  tau(  39) = (   6.5655761   2.9369947  14.6516633  )
        40           O1  tau(  40) = (   3.2805149   2.9594171  13.8967751  )
        41           O1  tau(  41) = (   4.5308665   4.4203993  16.0704334  )
        42           O1  tau(  42) = (   2.0169005   4.4237906  16.0574931  )
        43           Ti1 tau(  43) = (   3.2493829   5.9208236  15.8028744  )
        44           Ti1 tau(  44) = (   6.5423592   4.6318136  16.0678394  )
        45           O1  tau(  45) = (   3.2900926   2.9813045   4.7018136  )
        46           O1  tau(  46) = (   1.3039711   4.4726057   6.0039043  )
        47           O1  tau(  47) = (   5.2763189   4.4711207   6.0039473  )
        48           N1  tau(  48) = (   0.1516996   2.6368831  18.6397825  )
        49           N1  tau(  49) = (   0.0343947   2.8734663  17.4441277  )
        50           C1  tau(  50) = (   0.1908864   3.7705318  19.5986308  )
        51           H1  tau(  51) = (   6.5333492   4.7333814  19.1494580  )
        52           H1  tau(  52) = (   6.0816938   3.5230213  20.4074400  )
        53           H1  tau(  53) = (   1.1988782   3.7880179  20.0220438  )
        54           O1  tau(  54) = (   3.2442500   5.9498283  18.1924067  )
        55           H1  tau(  55) = (   4.0366425   0.4867780  18.4672138  )
        56           H1  tau(  56) = (   2.4709518   0.5160301  18.4623371  )

     number of k points=    10  Fermi-Dirac smearing, width (Ry)=  0.0073
                       cart. coord. in units 2pi/alat
        k(    1) = (   0.0000000   0.0000000   0.0000000), wk =   0.1250000
        k(    2) = (   0.0000000   0.0419351   0.0000000), wk =   0.2500000
        k(    3) = (   0.0000000  -0.0838702   0.0000000), wk =   0.1250000
        k(    4) = (   0.0379955   0.0000049   0.0000000), wk =   0.2500000
        k(    5) = (   0.0379955   0.0419400   0.0000000), wk =   0.2500000
        k(    6) = (   0.0379955  -0.0838652   0.0000000), wk =   0.2500000
        k(    7) = (   0.0379955  -0.0419301   0.0000000), wk =   0.2500000
        k(    8) = (  -0.0759910  -0.0000099   0.0000000), wk =   0.1250000
        k(    9) = (  -0.0759910   0.0419252   0.0000000), wk =   0.2500000
        k(   10) = (  -0.0759910  -0.0838800   0.0000000), wk =   0.1250000

     Initial potential from superposition of free atoms

     starting charge  386.99914, renormalised to  403.00000

     negative rho (up, down):  1.444E-02 0.000E+00

     %%%%%%%%%%%%%%%%%%%%%%%%%%%%%%%%%%%%%%%%%%%%%%%%%%%%%%%%%%%%%%%%%%%%%%%%
     %                                                                      %
     % You are using vdW-DF, which was implemented by the Thonhauser group. %
     % Please cite the following two papers that made this development      %
     % possible and the two reviews that describe the various versions:     %
     %                                                                      %
     %   T. Thonhauser et al., PRL 115, 136402 (2015).                      %
     %   T. Thonhauser et al., PRB 76, 125112 (2007).                       %
     %   K. Berland et al., Rep. Prog. Phys. 78, 066501 (2015).             %
     %   D.C. Langreth et al., J. Phys.: Condens. Matter 21, 084203 (2009). %
     %                                                                      %
     %                                                                      %
     % If you are calculating the stress with vdW-DF, please also cite:     %
     %                                                                      %
     %   R. Sabatini et al., J. Phys.: Condens. Matter 24, 424209 (2012).   %
     %                                                                      %
     %%%%%%%%%%%%%%%%%%%%%%%%%%%%%%%%%%%%%%%%%%%%%%%%%%%%%%%%%%%%%%%%%%%%%%%%

     Adding external electric field

     Computed dipole along edir(3) :
        Dipole              -13.2239 Ry au,        -33.6117 Debye
        Dipole field         -0.0250 Ry au,

        Potential amp.        2.3133 Ry
        Total length         46.3494 bohr

     Starting wfcs are  305 atomic wfcs
  @ DRIVER MODE: Message from server: STATUS
  @ DRIVER MODE: Message from server: POSDATA
  @ DRIVER MODE: Reading and sharing cell
  @ DRIVER MODE: Reading and sharing positions
  @ DRIVER MODE: Received positions

     Self-consistent Calculation

     iteration #  1     ecut=    29.40 Ry     beta= 0.05
     Davidson diagonalization with overlap
     c_bands:  4 eigenvalues not converged
     c_bands:  2 eigenvalues not converged
     c_bands:  4 eigenvalues not converged
     c_bands:  1 eigenvalues not converged
     c_bands:  1 eigenvalues not converged
     c_bands:  1 eigenvalues not converged
     c_bands:  4 eigenvalues not converged
     c_bands:  1 eigenvalues not converged
     c_bands:  1 eigenvalues not converged
     ethr =  1.00E-05,  avg # of iterations = 29.8

[...]

     total energy              =   -2367.53884519 Ry
     estimated scf accuracy    <    6916.26417219 Ry

     iteration #  2     ecut=    29.40 Ry     beta= 0.05
     Davidson diagonalization with overlap
     ethr =  1.00E-02,  avg # of iterations = 23.1

[...]

     iteration # 59     ecut=    29.40 Ry     beta= 0.05
     Davidson diagonalization with overlap
     c_bands:  1 eigenvalues not converged
     c_bands:  1 eigenvalues not converged
     ethr =  1.09E-09,  avg # of iterations = 14.7

[...]

     total energy              =   -2974.00305309 Ry
     estimated scf accuracy    <       0.00000014 Ry

     iteration # 65     ecut=    29.40 Ry     beta= 0.05
     Davidson diagonalization with overlap
     ethr =  3.42E-11,  avg # of iterations = 10.1

     negative rho (up, down):  1.457E-02 0.000E+00

     Adding external electric field

     Computed dipole along edir(3) :
        Dipole                0.9295 Ry au,          2.3625 Debye
        Dipole field          0.0018 Ry au,

        Potential amp.       -0.1626 Ry
        Total length         46.3494 bohr

     End of self-consistent calculation

          k = 0.0000 0.0000 0.0000 ( 18029 PWs)   bands (ev):

   -55.5977 -55.5636 -55.5565 -55.5480 -55.5205 -55.4307 -55.4077 -55.3904
   -55.3737 -55.3729 -55.3442 -55.3391 -54.9977 -54.8691 -54.5767 -54.5426
   -32.0985 -32.0803 -31.9475 -31.9307 -31.9065 -31.8905 -31.8626 -31.8592
   -31.8406 -31.7923 -31.7857 -31.7707 -31.7499 -31.7351 -31.7188 -31.7134
   -31.7022 -31.6893 -31.6835 -31.6549 -31.6479 -31.6351 -31.6003 -31.5961
   -31.5853 -31.5832 -31.5796 -31.5718 -31.5479 -31.5437 -31.5424 -31.5375
   -31.5256 -31.5234 -31.5146 -31.5070 -31.4847 -31.2668 -31.1968 -31.1263
   -31.1059 -31.0756 -30.9838 -30.8953 -30.8729 -30.8005 -30.7140 -30.6030
   -18.8918 -18.3018 -16.2964 -16.0636 -15.8378 -15.7466 -15.7051 -15.4985
   -15.3980 -15.3227 -15.2042 -15.1405 -15.1325 -15.1136 -15.1021 -15.0968
   -15.0384 -15.0337 -15.0321 -15.0188 -14.9930 -14.9456 -14.9309 -14.9269
   -14.8319 -14.7588 -14.7350 -14.7175 -14.6754 -14.6501 -14.1997 -13.0787
   -12.9623 -11.3190  -6.8654  -6.6577  -4.2047  -3.8591  -3.8288  -3.6720
    -3.5420  -3.5024  -3.4367  -3.3602  -3.2543  -3.2070  -3.0390  -2.8314
    -2.7711  -2.7437  -2.6965  -2.6255  -2.5106  -2.4548  -2.4040  -2.4015
    -2.3816  -2.3758  -2.3520  -2.3332  -2.2367  -2.2153  -2.1458  -2.1306
    -2.0817  -1.9806  -1.9508  -1.9101  -1.9011  -1.8732  -1.8590  -1.8454
    -1.8227  -1.7985  -1.7576  -1.6906  -1.6161  -1.5778  -1.5009  -1.4471
    -1.4052  -1.3430  -1.2079  -1.1331  -1.0863  -1.0520  -1.0425  -1.0242
    -0.9902  -0.9727  -0.8616  -0.7496  -0.7341  -0.6689  -0.6064  -0.5231
    -0.4924  -0.4290  -0.3648  -0.3468  -0.3418  -0.3045  -0.2642  -0.2174
    -0.0795  -0.0243   0.0098   0.0170   0.0790   0.1205   0.1515   0.2340
     0.2484   0.2884   0.3315   0.3628   0.3740   0.3837   0.4050   0.4357
     0.4403   0.6303   0.6729   0.7174   0.7522   0.7902   0.9363   0.9550
     1.0619   1.1676   1.3726   1.4458   1.5454   1.6379   2.0172   2.0630
     2.7608   3.5366   3.6241   3.6689   3.7068   3.7826   3.7940   3.9917
     4.0066   4.0465   4.1217

[...]

          k = 0.0380-0.0419 0.0000 ( 17876 PWs)   bands (ev):

[...]

          k =-0.0760-0.0000 0.0000 ( 17886 PWs)   bands (ev):

[...]

          k =-0.0760-0.0839 0.0000 ( 17948 PWs)   bands (ev):

   -55.5811 -55.5801 -55.5469 -55.5395 -55.5367 -55.4210 -55.4003 -55.3913
   -55.3895 -55.3580 -55.3542 -55.3456 -54.9956 -54.8711 -54.5597 -54.5595
   -31.9123 -31.8959 -31.8958 -31.8952 -31.8763 -31.8754 -31.8341 -31.8256
   -31.7995 -31.7787 -31.7670 -31.7577 -31.7534 -31.7104 -31.7063 -31.7041
   -31.7017 -31.7006 -31.6997 -31.6951 -31.6926 -31.6919 -31.6512 -31.6395
   -31.6186 -31.6126 -31.6056 -31.5910 -31.5904 -31.5877 -31.5815 -31.5728
   -31.5688 -31.5593 -31.5588 -31.5491 -31.4178 -31.2688 -31.2154 -31.1597
   -31.1281 -31.1027 -30.8857 -30.8855 -30.7966 -30.7965 -30.7573 -30.7572
   -18.8907 -18.2980 -15.7504 -15.6459 -15.5499 -15.5144 -15.4575 -15.3983
   -15.3827 -15.3019 -15.2782 -15.2747 -15.2135 -15.1918 -15.1566 -15.1444
   -15.1232 -15.1096 -15.1061 -15.0498 -15.0432 -15.0345 -15.0277 -15.0242
   -14.9575 -14.9151 -14.9115 -14.9070 -14.7824 -14.6570 -14.3796 -13.0641
   -13.0640 -11.3164  -6.8900  -6.6398  -4.1309  -3.8840  -3.7978  -3.2994
    -3.0332  -2.8333  -2.8031  -2.7079  -2.6934  -2.6630  -2.5310  -2.4910
    -2.4512  -2.4369  -2.4139  -2.4127  -2.3996  -2.3934  -2.3765  -2.3529
    -2.3245  -2.2990  -2.2703  -2.2611  -2.2490  -2.2308  -2.2175  -2.2004
    -2.1971  -2.1535  -2.1330  -2.1233  -2.0407  -1.9857  -1.8227  -1.7803
    -1.7359  -1.7264  -1.7016  -1.6951  -1.6638  -1.6500  -1.5996  -1.5863
    -1.4774  -1.3569  -1.3179  -1.2952  -1.2849  -1.2664  -1.1948  -1.0942
    -1.0699  -0.9945  -0.9901  -0.8883  -0.8726  -0.7920  -0.7818  -0.7574
    -0.7012  -0.6648  -0.6454  -0.5622  -0.5565  -0.5349  -0.4930  -0.4621
    -0.4033  -0.3478  -0.3186  -0.3093  -0.2718  -0.2472  -0.2064  -0.1544
    -0.0932  -0.0546   0.0402   0.1430   0.2257   0.3629   0.4732   0.5008
     0.5758   0.6120   0.6864   0.7159   0.7228   0.7845   0.7977   0.8863
     0.9435   0.9563   0.9923   1.1111   1.8092   1.8106   1.8826   1.8828
     2.7859   3.7615   3.8715   3.9145   3.9351   4.0097   4.0511   4.0710
     4.0735   4.1091   4.2131

     the Fermi energy is     3.5360 ev

!    total energy              =   -2974.00309397 Ry
     estimated scf accuracy    <       0.00000007 Ry
     smearing contrib. (-TS)   =      -0.02180422 Ry
     internal energy E=F+TS    =   -2973.98128975 Ry

     The total energy is F=E-TS. E is the sum of the following terms:
     one-electron contribution =  -23854.85295816 Ry
     hartree contribution      =   12022.05927791 Ry
     xc contribution           =    -494.03429225 Ry
     ewald contribution        =    9352.84505238 Ry
     electric field correction =       0.00163037 Ry

     convergence has been achieved in  65 iterations

     Forces acting on atoms (cartesian axes, Ry/au):

     atom    1 type  1   force =     0.00016367   -0.00021536    0.09634973
     atom    2 type  1   force =    -0.00018866   -0.00044843   -0.17541436
     atom    3 type  2   force =     0.00001840   -0.00014458   -0.02471090
     atom    4 type  2   force =     0.00005411   -0.00161686    0.05341064
     atom    5 type  2   force =    -0.01198246   -0.00148043    0.00369281
     atom    6 type  2   force =     0.01343461   -0.00064087    0.00222993
     atom    7 type  1   force =    -0.00108384    0.00056170   -0.00695074
     atom    8 type  1   force =     0.00065010    0.00916583    0.02677795
     atom    9 type  2   force =     0.00017689    0.00019933   -0.00049496
     atom   10 type  2   force =    -0.00157603   -0.00030236   -0.01789378
     atom   11 type  2   force =     0.00088841    0.00089657    0.00000278
     atom   12 type  2   force =    -0.00059020    0.00060272   -0.00002909
     atom   13 type  1   force =    -0.00026628    0.00024150   -0.00034609
     atom   14 type  1   force =     0.00027144    0.00020482    0.00010560
     atom   15 type  2   force =     0.00007962    0.00019202   -0.00023794
     atom   16 type  2   force =     0.00002215    0.00022853    0.00051980
     atom   17 type  2   force =     0.00119493    0.00022950   -0.00005116
     atom   18 type  2   force =    -0.00151966    0.00015944   -0.00024785
     atom   19 type  1   force =    -0.00007053    0.00119321   -0.00012243
     atom   20 type  1   force =    -0.00027031   -0.00013148   -0.00023747
     atom   21 type  2   force =     0.00009993    0.00001536    0.10322584
     atom   22 type  2   force =    -0.00012964    0.00033210    0.00064240
     atom   23 type  2   force =    -0.07146904   -0.00008807   -0.02779658
     atom   24 type  2   force =     0.07145731    0.00035317   -0.02779357
     atom   25 type  1   force =     0.00001487   -0.00031922    0.09608711
     atom   26 type  1   force =    -0.00030614   -0.00045084   -0.17576041
     atom   27 type  2   force =     0.00008839   -0.00025333   -0.02370205
     atom   28 type  2   force =     0.00012042   -0.00130025    0.05281501
     atom   29 type  2   force =    -0.01225496    0.00021580    0.00357279
     atom   30 type  2   force =     0.01359307    0.00043002    0.00207107
     atom   31 type  1   force =    -0.00117996    0.00349632   -0.01014390
     atom   32 type  1   force =     0.00082678   -0.01098988    0.02705538
     atom   33 type  2   force =     0.00009866    0.00000424    0.00056145
     atom   34 type  2   force =    -0.00116144   -0.00123308   -0.02346453
     atom   35 type  2   force =     0.00080846   -0.00051729   -0.00010645
     atom   36 type  2   force =    -0.00057024   -0.00018191   -0.00013379
     atom   37 type  1   force =    -0.00056117    0.00020430   -0.00044490
     atom   38 type  1   force =     0.00028632   -0.00019293    0.00016239
     atom   39 type  2   force =     0.00011347    0.00046175    0.00013914
     atom   40 type  2   force =     0.00019829    0.00015443   -0.00055610
     atom   41 type  2   force =     0.00092921    0.00059771    0.00029076
     atom   42 type  2   force =    -0.00099887    0.00057207    0.00013434
     atom   43 type  1   force =    -0.00001808   -0.00077617   -0.00083976
     atom   44 type  1   force =    -0.00026865    0.00103794    0.00019451
     atom   45 type  2   force =     0.00008612   -0.00002605    0.10322096
     atom   46 type  2   force =    -0.07146954   -0.00001650   -0.02780244
     atom   47 type  2   force =     0.07145194    0.00039344   -0.02780004
     atom   48 type  3   force =     0.00021163   -0.00165147   -0.00042854
     atom   49 type  3   force =     0.00005558   -0.00012959    0.00027389
     atom   50 type  4   force =     0.00022623    0.00126781    0.00075402
     atom   51 type  5   force =     0.00009645   -0.00059985   -0.00098254
     atom   52 type  5   force =     0.00021209   -0.00005207   -0.00028504
     atom   53 type  5   force =     0.00005908   -0.00019611   -0.00044814
     atom   54 type  2   force =     0.00182954    0.00631266    0.00465091
     atom   55 type  5   force =    -0.00389505   -0.00326897   -0.00220492
     atom   56 type  5   force =     0.00201258   -0.00250038   -0.00151074

     Total force =     0.367905     Total SCF correction =     0.000565
  @ DRIVER MODE: Message from server: STATUS
  @ DRIVER MODE: Message from server: GETFORCE
  @ DRIVER MODE: Returning v,forces,stress,ensemble

     Writing output data file ./calc.save/
  @ DRIVER MODE: Message from server: EXIT
  @ DRIVE MODE: Exiting

     General routines

     Parallel routines

   This run was terminated on:   5: 4:30  16Sep2021

   JOB DONE.