     Program PWSCF v.6.7GPU starts on 30Sep2021 at 19:32:20

     R & G space division:  proc/nbgrp/npool/nimage =       8
     Reading input from /storage/home/hcoda1/3/ntian30/research/carbon/CxH_vib/pristine/ads_slab/CHHNN_a/out_0004/pw.inp
Warning: card &CELL ignored
Warning: card   CELL_DYNAMICS='IPI', ignored
Warning: card / ignored

     Current dimensions of program PWSCF are:
     Max number of different atomic species (ntypx) = 10
     Max number of k-points (npk) =  40000
     Max angular momentum in pseudopotentials (lmaxx) =  3
     Presently no symmetry can be used with electric field

     Message from routine cell_base_init:
     DEPRECATED: use true lattice parameter, not A to a.u. conversion factor

     IMPORTANT: XC functional enforced from input :
     Exchange-correlation= BEEF-VDW
                           (   1   4  43  14   2   0   0)
     Any further DFT definition will be discarded
     Please, verify this is what you really want

  @ DRIVER MODE: Connecting to
 qe_1139763_3035467.sched-torque.pace.gatech.edup6aogimk_scratch
  using UNIX socket
  @ DRIVER MODE: Message from server: STATUS
  @ DRIVER MODE: Message from server: INIT
  @ DRIVER MODE: Receiving replica           0          -1
  @ DRIVER MODE: Receiving encoded integer          25
  @ DRIVER MODE:  SCF:  T  FORCE:  T  STRESS:  F  VC:  F  ENSEMBLE:  F
  @ DRIVER MODE:  SCF:  T  FORCE:  T  STRESS:  F  VC:  F  ENSEMBLE:  F

     Using Slab Decomposition

     bravais-lattice index     =            0
     lattice parameter (alat)  =       1.8897  a.u.
     unit-cell volume          =    6658.9804 (a.u.)^3
     number of atoms/cell      =           53
     number of atomic types    =            5
     number of electrons       =       400.00
     number of Kohn-Sham states=          210
     kinetic-energy cutoff     =      29.3995  Ry
     charge density cutoff     =     293.9946  Ry
     scf convergence threshold =      7.3E-08
     mixing beta               =       0.0500
     number of iterations used =            8  plain     mixing
     Exchange-correlation= BEEF-VDW
                           (   1   4  43  14   2   0   0)

     celldm(1)=   1.889726  celldm(2)=   0.000000  celldm(3)=   0.000000
     celldm(4)=   0.000000  celldm(5)=   0.000000  celldm(6)=   0.000000

     crystal axes: (cart. coord. in units of alat)
               a(1) = (   6.579727   0.000000   0.000000 )
               a(2) = (  -0.000775   5.961596   0.000000 )
               a(3) = (   0.000000   0.000000  25.155947 )

     reciprocal axes: (cart. coord. in units 2 pi/alat)
               b(1) = (  0.151982  0.000020  0.000000 )
               b(2) = (  0.000000  0.167740  0.000000 )
               b(3) = (  0.000000  0.000000  0.039752 )

     PseudoPot. # 1 for Ti read from file:
     /storage/coda1/p-amedford6/0/shared/rich_project_chbe-medford/medford-share/data/pseudos_module/espresso/nninc/pbe/van/Ti.UPF
     MD5 check sum: 8e4df49b7f0d34bbd5052bf3f5ea0213
     Pseudo is Ultrasoft, Zval = 12.0
     Generated by new atomic code, or converted to UPF format
     Using radial grid of  851 points,  6 beta functions with:
                l(1) =   0
                l(2) =   0
                l(3) =   1
                l(4) =   1
                l(5) =   2
                l(6) =   2
     Q(r) pseudized with  8 coefficients,  rinner =    1.000   1.000   1.000
                                                       1.000   1.000

     PseudoPot. # 2 for O  read from file:
     /storage/coda1/p-amedford6/0/shared/rich_project_chbe-medford/medford-share/data/pseudos_module/espresso/nninc/pbe/van/O.UPF
     MD5 check sum: 78c19812648e8988a0fe644b0f25305e
     Pseudo is Ultrasoft, Zval =  6.0
     Generated by new atomic code, or converted to UPF format
     Using radial grid of  737 points,  4 beta functions with:
                l(1) =   0
                l(2) =   0
                l(3) =   1
                l(4) =   1
     Q(r) pseudized with  8 coefficients,  rinner =    0.800   0.800   0.800

     PseudoPot. # 3 for N  read from file:
     /storage/coda1/p-amedford6/0/shared/rich_project_chbe-medford/medford-share/data/pseudos_module/espresso/nninc/pbe/van/N.UPF
     MD5 check sum: 90d10febe142ad51ac9d5be1deb811c4
     Pseudo is Ultrasoft, Zval =  5.0
     Generated by new atomic code, or converted to UPF format
     Using radial grid of  729 points,  4 beta functions with:
                l(1) =   0
                l(2) =   0
                l(3) =   1
                l(4) =   1
     Q(r) pseudized with  8 coefficients,  rinner =    0.800   0.800   0.800

     PseudoPot. # 4 for C  read from file:
     /storage/coda1/p-amedford6/0/shared/rich_project_chbe-medford/medford-share/data/pseudos_module/espresso/nninc/pbe/van/C.UPF
     MD5 check sum: 1a69bf6b8db32088f5b2163dbdb77a27
     Pseudo is Ultrasoft, Zval =  4.0
     Generated by new atomic code, or converted to UPF format
     Using radial grid of  721 points,  4 beta functions with:
                l(1) =   0
                l(2) =   0
                l(3) =   1
                l(4) =   1
     Q(r) pseudized with  8 coefficients,  rinner =    0.800   0.800   0.800

     PseudoPot. # 5 for H  read from file:
     /storage/coda1/p-amedford6/0/shared/rich_project_chbe-medford/medford-share/data/pseudos_module/espresso/nninc/pbe/van/H.UPF
     MD5 check sum: b5ee9d7bfd3a09ee7748110bda690ff7
     Pseudo is Ultrasoft, Zval =  1.0
     Generated by new atomic code, or converted to UPF format
     Using radial grid of  615 points,  1 beta functions with:
                l(1) =   0
     Q(r) pseudized with  8 coefficients,  rinner =    0.800

     atomic species   valence    mass     pseudopotential
        Ti1           12.00    47.86700     Ti( 1.00)
        O1             6.00    15.99900     O ( 1.00)
        N1             5.00    14.00700     N ( 1.00)
        C1             4.00    12.01100     C ( 1.00)
        H1             1.00     1.00800     H ( 1.00)

     No symmetry found

   Cartesian axes

     site n.     atom                  positions (alat units)
         1           Ti1 tau(   1) = (   0.0004258   2.9801865   6.0000000  )
         2           Ti1 tau(   2) = (   3.2906075   1.4906267   6.0002472  )
         3           O1  tau(   3) = (   0.0006271   0.0005054   7.9858123  )
         4           O1  tau(   4) = (   3.2906025   0.0005020   7.3038282  )
         5           O1  tau(   5) = (   4.5942328   1.4918067   9.2879030  )
         6           O1  tau(   6) = (   1.9868534   1.4903216   9.2879459  )
         7           Ti1 tau(   7) = (   3.2961651   2.9340025   9.1571600  )
         8           Ti1 tau(   8) = (   0.0257383   1.5005952   9.3383585  )
         9           O1  tau(   9) = (   3.3091981   5.9584344  11.3361002  )
        10           O1  tau(  10) = (   6.5780281   5.9600862  10.6016087  )
        11           O1  tau(  11) = (   1.3203574   1.4925043  12.6130903  )
        12           O1  tau(  12) = (   5.3210186   1.4819496  12.6412376  )
        13           Ti1 tau(  13) = (   6.5659556   2.9650791  12.8176139  )
        14           Ti1 tau(  14) = (   3.2164003   1.4877187  12.4769567  )
        15           O1  tau(  15) = (   0.0404395   5.9536100  14.6624943  )
        16           O1  tau(  16) = (   3.3074673   5.9584959  13.9062718  )
        17           O1  tau(  17) = (   4.5856532   1.4904827  16.0465219  )
        18           O1  tau(  18) = (   2.1034043   1.4884928  16.0442595  )
        19           Ti1 tau(  19) = (   3.2939248   2.9785878  15.7144947  )
        20           Ti1 tau(  20) = (   6.5451327   1.4142704  16.0395912  )
        21           O1  tau(  21) = (   3.2904802   0.0005063   4.7018136  )
        22           O1  tau(  22) = (   0.0457580   0.0044623  17.2034710  )
        23           O1  tau(  23) = (   1.3043587   1.4918075   6.0039043  )
        24           O1  tau(  24) = (   5.2767064   1.4903225   6.0039473  )
        25           Ti1 tau(  25) = (   0.0000382   5.9609847   6.0000000  )
        26           Ti1 tau(  26) = (   3.2902200   4.4714249   6.0002472  )
        27           O1  tau(  27) = (   0.0002396   2.9813036   7.9858123  )
        28           O1  tau(  28) = (   3.2902150   2.9813002   7.3038282  )
        29           O1  tau(  29) = (   4.5938453   4.4726049   9.2879030  )
        30           O1  tau(  30) = (   1.9864658   4.4711199   9.2879459  )
        31           Ti1 tau(  31) = (   3.3296195   5.9152860   9.1560537  )
        32           Ti1 tau(  32) = (   0.0304643   4.4420822   9.3322224  )
        33           O1  tau(  33) = (   3.3127198   2.9780151  11.3348310  )
        34           O1  tau(  34) = (   0.0025308   2.9791118  10.5479895  )
        35           O1  tau(  35) = (   1.3183054   4.4635934  12.6126975  )
        36           O1  tau(  36) = (   5.3202651   4.4673696  12.6407401  )
        37           Ti1 tau(  37) = (   6.5108624   5.9459213  12.5946634  )
        38           Ti1 tau(  38) = (   3.2137380   4.4666137  12.4775098  )
        39           O1  tau(  39) = (   0.0464109   2.9731917  14.6594554  )
        40           O1  tau(  40) = (   3.3098714   2.9789900  13.9126757  )
        41           O1  tau(  41) = (   4.5859750   4.4686661  16.0488133  )
        42           O1  tau(  42) = (   2.1005049   4.4706468  16.0453856  )
        43           Ti1 tau(  43) = (   3.2853703   5.9589473  15.7052640  )
        44           Ti1 tau(  44) = (   6.5509595   4.5658457  16.0514827  )
        45           O1  tau(  45) = (   3.2900926   2.9813045   4.7018136  )
        46           O1  tau(  46) = (   0.0949885   2.9744829  17.2486893  )
        47           O1  tau(  47) = (   1.3039711   4.4726057   6.0039043  )
        48           O1  tau(  48) = (   5.2763189   4.4711207   6.0039473  )
        49           N1  tau(  49) = (   0.3730515   3.1715268  19.4484725  )
        50           N1  tau(  50) = (   6.0186590   2.9946300  18.5893579  )
        51           C1  tau(  51) = (   0.0316377   3.3059097  20.7092049  )
        52           H1  tau(  52) = (   5.5749133   3.3461147  21.0318256  )
        53           H1  tau(  53) = (   0.8315635   3.3875449  21.4270997  )

     number of k points=    10  Fermi-Dirac smearing, width (Ry)=  0.0073
                       cart. coord. in units 2pi/alat
        k(    1) = (   0.0000000   0.0000000   0.0000000), wk =   0.1250000
        k(    2) = (   0.0000000   0.0419351   0.0000000), wk =   0.2500000
        k(    3) = (   0.0000000  -0.0838702   0.0000000), wk =   0.1250000
        k(    4) = (   0.0379955   0.0000049   0.0000000), wk =   0.2500000
        k(    5) = (   0.0379955   0.0419400   0.0000000), wk =   0.2500000
        k(    6) = (   0.0379955  -0.0838652   0.0000000), wk =   0.2500000
        k(    7) = (   0.0379955  -0.0419301   0.0000000), wk =   0.2500000
        k(    8) = (  -0.0759910  -0.0000099   0.0000000), wk =   0.1250000
        k(    9) = (  -0.0759910   0.0419252   0.0000000), wk =   0.2500000
        k(   10) = (  -0.0759910  -0.0838800   0.0000000), wk =   0.1250000

     Initial potential from superposition of free atoms

     starting charge  383.99917, renormalised to  400.00000

     negative rho (up, down):  1.225E-02 0.000E+00

     %%%%%%%%%%%%%%%%%%%%%%%%%%%%%%%%%%%%%%%%%%%%%%%%%%%%%%%%%%%%%%%%%%%%%%%%
     %                                                                      %
     % You are using vdW-DF, which was implemented by the Thonhauser group. %
     % Please cite the following two papers that made this development      %
     % possible and the two reviews that describe the various versions:     %
     %                                                                      %
     %   T. Thonhauser et al., PRL 115, 136402 (2015).                      %
     %   T. Thonhauser et al., PRB 76, 125112 (2007).                       %
     %   K. Berland et al., Rep. Prog. Phys. 78, 066501 (2015).             %
     %   D.C. Langreth et al., J. Phys.: Condens. Matter 21, 084203 (2009). %
     %                                                                      %
     %                                                                      %
     % If you are calculating the stress with vdW-DF, please also cite:     %
     %                                                                      %
     %   R. Sabatini et al., J. Phys.: Condens. Matter 24, 424209 (2012).   %
     %                                                                      %
     %%%%%%%%%%%%%%%%%%%%%%%%%%%%%%%%%%%%%%%%%%%%%%%%%%%%%%%%%%%%%%%%%%%%%%%%

     Adding external electric field

     Computed dipole along edir(3) :
        Dipole              -11.7961 Ry au,        -29.9828 Debye
        Dipole field         -0.0223 Ry au,

        Potential amp.        2.0636 Ry
        Total length         46.3494 bohr

     Starting wfcs are  302 atomic wfcs
  @ DRIVER MODE: Message from server: STATUS
  @ DRIVER MODE: Message from server: POSDATA
  @ DRIVER MODE: Reading and sharing cell
  @ DRIVER MODE: Reading and sharing positions
  @ DRIVER MODE: Received positions

     Self-consistent Calculation

     iteration #  1     ecut=    29.40 Ry     beta= 0.05
     Davidson diagonalization with overlap
     c_bands:  3 eigenvalues not converged
     c_bands:  1 eigenvalues not converged
     c_bands:  2 eigenvalues not converged
     c_bands:  3 eigenvalues not converged
     c_bands:  3 eigenvalues not converged
     c_bands:  3 eigenvalues not converged
     c_bands:  1 eigenvalues not converged
     c_bands:  5 eigenvalues not converged
     c_bands:  2 eigenvalues not converged
     ethr =  1.00E-05,  avg # of iterations = 19.9

[...]

     total energy              =   -2452.83850055 Ry
     estimated scf accuracy    <    5806.14916277 Ry

     iteration #  2     ecut=    29.40 Ry     beta= 0.05
     Davidson diagonalization with overlap
     ethr =  1.00E-02,  avg # of iterations = 22.8

[...]

     iteration # 55     ecut=    29.40 Ry     beta= 0.05
     Davidson diagonalization with overlap
     c_bands:  1 eigenvalues not converged
     ethr =  1.44E-06,  avg # of iterations = 13.2

[...]

     total energy              =   -2970.15584358 Ry
     estimated scf accuracy    <       0.00000011 Ry

     iteration # 80     ecut=    29.40 Ry     beta= 0.05
     Davidson diagonalization with overlap
     ethr =  2.80E-11,  avg # of iterations =  7.4

     negative rho (up, down):  1.339E-02 0.000E+00

     Adding external electric field

     Computed dipole along edir(3) :
        Dipole                0.4178 Ry au,          1.0619 Debye
        Dipole field          0.0008 Ry au,

        Potential amp.       -0.0731 Ry
        Total length         46.3494 bohr

     End of self-consistent calculation

          k = 0.0000 0.0000 0.0000 ( 18029 PWs)   bands (ev):

   -56.1043 -56.0660 -56.0537 -56.0176 -55.9498 -55.9232 -55.8881 -55.8533
   -55.7993 -55.7885 -55.7624 -55.7620 -55.7536 -55.7170 -55.0697 -55.0356
   -32.6053 -32.5575 -32.4139 -32.3918 -32.3870 -32.3604 -32.3512 -32.3225
   -32.2843 -32.2817 -32.2750 -32.2712 -32.2541 -32.2442 -32.2349 -32.2089
   -32.1875 -32.1807 -32.1765 -32.1762 -32.1498 -32.1365 -32.0789 -32.0769
   -32.0689 -32.0554 -32.0503 -32.0242 -32.0230 -32.0192 -32.0074 -31.9954
   -31.9589 -31.9568 -31.9419 -31.9416 -31.9403 -31.9319 -31.9215 -31.9024
   -31.8880 -31.8419 -31.4779 -31.3842 -31.3615 -31.2949 -31.2090 -31.0976
   -19.0381 -16.7905 -16.4900 -16.3943 -16.2050 -16.1742 -16.0862 -16.0408
   -15.8102 -15.7150 -15.6556 -15.6261 -15.5984 -15.5908 -15.5850 -15.5589
   -15.5167 -15.5151 -15.4834 -15.4659 -15.4566 -15.4026 -15.3536 -15.3084
   -15.2474 -15.2143 -15.1825 -15.1797 -15.0727 -15.0258 -14.9781 -13.5689
   -13.4514 -10.9587  -6.4367  -4.8391  -4.1531  -3.9963  -3.9527  -3.9524
    -3.8384  -3.6891  -3.5906  -3.5518  -3.4390  -3.2227  -3.2107  -3.1934
    -3.1715  -3.1144  -2.9487  -2.8941  -2.8873  -2.8695  -2.8503  -2.8284
    -2.8052  -2.7907  -2.7612  -2.7340  -2.7177  -2.5773  -2.5690  -2.4717
    -2.4529  -2.4032  -2.3736  -2.3579  -2.3153  -2.2684  -2.2253  -2.2053
    -2.1826  -2.1567  -2.0776  -1.9090  -1.9031  -1.8701  -1.7926  -1.7390
    -1.7323  -1.4733  -1.4724  -1.4658  -1.4007  -1.3575  -1.3493  -1.2705
    -1.2186  -1.1960  -1.1810  -1.1548  -1.0802  -1.0034  -0.9589  -0.9061
    -0.8702  -0.8190  -0.7895  -0.7742  -0.7554  -0.5477  -0.5242  -0.4915
    -0.4544  -0.3384  -0.3286  -0.2831  -0.2693  -0.2267  -0.2182  -0.1051
    -0.0830  -0.0649  -0.0489  -0.0282  -0.0044   0.0133   0.0691   0.1201
     0.1527   0.1790   0.3692   0.3802   0.5443   0.5845   0.6133   0.7601
     0.8689   0.9554   1.0819   1.1309   1.5475   1.6172   1.7174   2.9814
     3.1123   3.1936   3.2437   3.2754   3.3358   3.4987   3.5484   3.5770
     3.6174   3.6250

[...]

          k = 0.0380-0.0419 0.0000 ( 17876 PWs)   bands (ev):

[...]

          k =-0.0760-0.0000 0.0000 ( 17886 PWs)   bands (ev):

[...]

          k =-0.0760-0.0839 0.0000 ( 17948 PWs)   bands (ev):

   -56.0940 -56.0761 -56.0364 -56.0348 -55.9468 -55.9076 -55.9035 -55.8562
   -55.7866 -55.7765 -55.7736 -55.7664 -55.7539 -55.7254 -55.0527 -55.0525
   -32.4080 -32.4062 -32.3813 -32.3799 -32.3654 -32.3521 -32.3101 -32.3089
   -32.2911 -32.2454 -32.2400 -32.2387 -32.2283 -32.2150 -32.2139 -32.2048
   -32.1960 -32.1935 -32.1766 -32.1556 -32.1302 -32.1251 -32.1138 -32.1123
   -32.1051 -32.0945 -32.0866 -32.0743 -32.0621 -32.0388 -32.0279 -31.9921
   -31.9875 -31.9846 -31.9780 -31.9672 -31.9663 -31.9628 -31.9614 -31.9550
   -31.9457 -31.9352 -31.3743 -31.3741 -31.2912 -31.2908 -31.2522 -31.2519
   -19.0296 -16.2111 -16.2024 -16.1820 -15.9493 -15.9458 -15.9118 -15.8581
   -15.7621 -15.7607 -15.7537 -15.7413 -15.6764 -15.6678 -15.6622 -15.5911
   -15.5801 -15.5770 -15.5704 -15.5459 -15.4918 -15.4909 -15.3795 -15.3577
   -15.3549 -15.3480 -15.3292 -15.3211 -15.2555 -15.2015 -15.1962 -13.5542
   -13.5513 -10.9602  -6.4240  -4.8027  -3.6876  -3.5038  -3.4950  -3.4127
    -3.1875  -3.1784  -3.0609  -3.0510  -3.0015  -2.9564  -2.9165  -2.9049
    -2.8943  -2.8742  -2.8673  -2.8505  -2.8300  -2.8130  -2.7955  -2.7689
    -2.7218  -2.6897  -2.6735  -2.6510  -2.6427  -2.6331  -2.6046  -2.5963
    -2.5746  -2.5719  -2.5521  -2.4525  -2.3163  -2.2901  -2.2289  -2.1831
    -2.1569  -2.1266  -2.1211  -2.0890  -2.0759  -2.0499  -1.9265  -1.8574
    -1.7808  -1.7485  -1.7243  -1.6613  -1.5812  -1.4970  -1.4284  -1.4063
    -1.3568  -1.3116  -1.2912  -1.2634  -1.2202  -1.2076  -1.1556  -1.0831
    -1.0760  -1.0362  -1.0265  -1.0056  -0.9326  -0.9244  -0.8683  -0.8107
    -0.7967  -0.7104  -0.6556  -0.6325  -0.6200  -0.5600  -0.5415  -0.4737
    -0.3965  -0.3178  -0.0430  -0.0261   0.0278   0.0393   0.0732   0.1728
     0.2347   0.2518   0.3258   0.3501   0.4270   0.4764   0.5091   0.5138
     0.5942   0.6122   1.3205   1.3241   1.4069   1.4163   1.7412   2.9417
     3.3909   3.4204   3.4266   3.4479   3.5833   3.5907   3.6077   3.6160
     3.7546   3.7921

     the Fermi energy is     3.0586 ev

!    total energy              =   -2970.15585597 Ry
     estimated scf accuracy    <       0.00000006 Ry
     smearing contrib. (-TS)   =      -0.02345250 Ry
     internal energy E=F+TS    =   -2970.13240347 Ry

     The total energy is F=E-TS. E is the sum of the following terms:
     one-electron contribution =  -23559.47485091 Ry
     hartree contribution      =   11867.95166604 Ry
     xc contribution           =    -491.49685705 Ry
     ewald contribution        =    9212.88730909 Ry
     electric field correction =       0.00032936 Ry

     convergence has been achieved in  80 iterations

     Forces acting on atoms (cartesian axes, Ry/au):

     atom    1 type  1   force =    -0.00000655   -0.00026720    0.11745192
     atom    2 type  1   force =    -0.00002477   -0.00047599   -0.17834721
     atom    3 type  2   force =     0.00020275    0.00070218   -0.03806590
     atom    4 type  2   force =     0.00087911   -0.00060825    0.04409795
     atom    5 type  2   force =    -0.02136089   -0.00159021    0.00209861
     atom    6 type  2   force =     0.02128316    0.00124803    0.00429894
     atom    7 type  1   force =     0.00092281   -0.00016925   -0.00003318
     atom    8 type  1   force =     0.00005818   -0.00015049    0.00093991
     atom    9 type  2   force =    -0.00048592    0.00006498   -0.00045079
     atom   10 type  2   force =     0.00025361    0.00008061   -0.00105963
     atom   11 type  2   force =     0.00062680    0.00009015   -0.00004628
     atom   12 type  2   force =    -0.00029776    0.00039109   -0.00025890
     atom   13 type  1   force =    -0.00137869    0.00032048    0.00004277
     atom   14 type  1   force =     0.00115712    0.00020250   -0.00034306
     atom   15 type  2   force =    -0.00034228    0.00015955    0.00098891
     atom   16 type  2   force =    -0.00027662    0.00003288    0.00152836
     atom   17 type  2   force =     0.00003068   -0.00027513    0.00044571
     atom   18 type  2   force =    -0.00042008   -0.00041607    0.00026315
     atom   19 type  1   force =    -0.00031008    0.00019449    0.00050016
     atom   20 type  1   force =     0.00022703    0.00008517    0.00020355
     atom   21 type  2   force =    -0.00000534    0.00004440    0.10376045
     atom   22 type  2   force =    -0.00037719    0.00031519   -0.00097776
     atom   23 type  2   force =    -0.06937014    0.00107771   -0.03120390
     atom   24 type  2   force =     0.06913141    0.00148174   -0.03120212
     atom   25 type  1   force =    -0.00023680   -0.00019635    0.12920323
     atom   26 type  1   force =    -0.00004351   -0.00005070   -0.17841635
     atom   27 type  2   force =     0.00040686    0.00016015   -0.03706919
     atom   28 type  2   force =     0.00033300   -0.00055879    0.04505944
     atom   29 type  2   force =    -0.02054241    0.00076935    0.00198616
     atom   30 type  2   force =     0.02219668    0.00158481    0.00424694
     atom   31 type  1   force =     0.00022339   -0.00044310   -0.00058756
     atom   32 type  1   force =    -0.00009722   -0.00106031    0.00111212
     atom   33 type  2   force =    -0.00049941   -0.00016576    0.00078831
     atom   34 type  2   force =     0.00011120   -0.00009575   -0.00025365
     atom   35 type  2   force =     0.00072827   -0.00022866   -0.00015329
     atom   36 type  2   force =    -0.00020327   -0.00014131   -0.00040968
     atom   37 type  1   force =    -0.00081045   -0.00050362    0.00043101
     atom   38 type  1   force =     0.00123318   -0.00042797   -0.00029391
     atom   39 type  2   force =    -0.00029570   -0.00017963   -0.00091047
     atom   40 type  2   force =    -0.00030163   -0.00010076   -0.00020692
     atom   41 type  2   force =    -0.00013598    0.00052192    0.00031582
     atom   42 type  2   force =    -0.00019473    0.00058312    0.00021112
     atom   43 type  1   force =    -0.00013108   -0.00008737   -0.00069513
     atom   44 type  1   force =     0.00006918   -0.00013234    0.00011541
     atom   45 type  2   force =     0.00001541    0.00005100    0.10387847
     atom   46 type  2   force =    -0.00023614    0.00032404    0.00025752
     atom   47 type  2   force =    -0.06933122   -0.00128837   -0.03116668
     atom   48 type  2   force =     0.06912174   -0.00082419   -0.03122146
     atom   49 type  3   force =     0.00024054   -0.00201526   -0.00280722
     atom   50 type  3   force =    -0.00018135    0.00050278    0.00094568
     atom   51 type  4   force =    -0.00115157    0.00196721    0.00099855
     atom   52 type  5   force =    -0.00034670   -0.00091320   -0.00016109
     atom   53 type  5   force =    -0.00005661    0.00041049    0.00017111

     Total force =     0.384034     Total SCF correction =     0.000608
  @ DRIVER MODE: Message from server: STATUS
  @ DRIVER MODE: Message from server: GETFORCE
  @ DRIVER MODE: Returning v,forces,stress,ensemble

     Writing output data file ./calc.save/
  @ DRIVER MODE: Message from server: EXIT
  @ DRIVE MODE: Exiting

     General routines

     Parallel routines

   This run was terminated on:  22: 5:25  30Sep2021

   JOB DONE.