     Program PWSCF v.6.7GPU starts on 26Sep2021 at  2:27:11

     R & G space division:  proc/nbgrp/npool/nimage =       8
     Reading input from /storage/home/hcoda1/3/ntian30/research/carbon/CxH_vib/H2O_calc/ads_slab/CH3N2OHHO_l/out_0024/pw.inp
Warning: card &CELL ignored
Warning: card   CELL_DYNAMICS='IPI', ignored
Warning: card / ignored

     Current dimensions of program PWSCF are:
     Max number of different atomic species (ntypx) = 10
     Max number of k-points (npk) =  40000
     Max angular momentum in pseudopotentials (lmaxx) =  3
     Presently no symmetry can be used with electric field

     Message from routine cell_base_init:
     DEPRECATED: use true lattice parameter, not A to a.u. conversion factor

     IMPORTANT: XC functional enforced from input :
     Exchange-correlation= BEEF-VDW
                           (   1   4  43  14   2   0   0)
     Any further DFT definition will be discarded
     Please, verify this is what you really want

  @ DRIVER MODE: Connecting to
 qe_1139763_2971669.sched-torque.pace.gatech.edupzi4ndkx_scratch
  using UNIX socket
  @ DRIVER MODE: Message from server: STATUS
  @ DRIVER MODE: Message from server: INIT
  @ DRIVER MODE: Receiving replica           0          -1
  @ DRIVER MODE: Receiving encoded integer          25
  @ DRIVER MODE:  SCF:  T  FORCE:  T  STRESS:  F  VC:  F  ENSEMBLE:  F
  @ DRIVER MODE:  SCF:  T  FORCE:  T  STRESS:  F  VC:  F  ENSEMBLE:  F

     Using Slab Decomposition

     bravais-lattice index     =            0
     lattice parameter (alat)  =       1.8897  a.u.
     unit-cell volume          =    6658.9804 (a.u.)^3
     number of atoms/cell      =           57
     number of atomic types    =            5
     number of electrons       =       409.00
     number of Kohn-Sham states=          214
     kinetic-energy cutoff     =      29.3995  Ry
     charge density cutoff     =     293.9946  Ry
     scf convergence threshold =      7.3E-08
     mixing beta               =       0.0500
     number of iterations used =            8  plain     mixing
     Exchange-correlation= BEEF-VDW
                           (   1   4  43  14   2   0   0)

     celldm(1)=   1.889726  celldm(2)=   0.000000  celldm(3)=   0.000000
     celldm(4)=   0.000000  celldm(5)=   0.000000  celldm(6)=   0.000000

     crystal axes: (cart. coord. in units of alat)
               a(1) = (   6.579727   0.000000   0.000000 )
               a(2) = (  -0.000775   5.961596   0.000000 )
               a(3) = (   0.000000   0.000000  25.155947 )

     reciprocal axes: (cart. coord. in units 2 pi/alat)
               b(1) = (  0.151982  0.000020  0.000000 )
               b(2) = (  0.000000  0.167740  0.000000 )
               b(3) = (  0.000000  0.000000  0.039752 )

     PseudoPot. # 1 for Ti read from file:
     /storage/coda1/p-amedford6/0/shared/rich_project_chbe-medford/medford-share/data/pseudos_module/espresso/nninc/pbe/van/Ti.UPF
     MD5 check sum: 8e4df49b7f0d34bbd5052bf3f5ea0213
     Pseudo is Ultrasoft, Zval = 12.0
     Generated by new atomic code, or converted to UPF format
     Using radial grid of  851 points,  6 beta functions with:
                l(1) =   0
                l(2) =   0
                l(3) =   1
                l(4) =   1
                l(5) =   2
                l(6) =   2
     Q(r) pseudized with  8 coefficients,  rinner =    1.000   1.000   1.000
                                                       1.000   1.000

     PseudoPot. # 2 for O  read from file:
     /storage/coda1/p-amedford6/0/shared/rich_project_chbe-medford/medford-share/data/pseudos_module/espresso/nninc/pbe/van/O.UPF
     MD5 check sum: 78c19812648e8988a0fe644b0f25305e
     Pseudo is Ultrasoft, Zval =  6.0
     Generated by new atomic code, or converted to UPF format
     Using radial grid of  737 points,  4 beta functions with:
                l(1) =   0
                l(2) =   0
                l(3) =   1
                l(4) =   1
     Q(r) pseudized with  8 coefficients,  rinner =    0.800   0.800   0.800

     PseudoPot. # 3 for N  read from file:
     /storage/coda1/p-amedford6/0/shared/rich_project_chbe-medford/medford-share/data/pseudos_module/espresso/nninc/pbe/van/N.UPF
     MD5 check sum: 90d10febe142ad51ac9d5be1deb811c4
     Pseudo is Ultrasoft, Zval =  5.0
     Generated by new atomic code, or converted to UPF format
     Using radial grid of  729 points,  4 beta functions with:
                l(1) =   0
                l(2) =   0
                l(3) =   1
                l(4) =   1
     Q(r) pseudized with  8 coefficients,  rinner =    0.800   0.800   0.800

     PseudoPot. # 4 for C  read from file:
     /storage/coda1/p-amedford6/0/shared/rich_project_chbe-medford/medford-share/data/pseudos_module/espresso/nninc/pbe/van/C.UPF
     MD5 check sum: 1a69bf6b8db32088f5b2163dbdb77a27
     Pseudo is Ultrasoft, Zval =  4.0
     Generated by new atomic code, or converted to UPF format
     Using radial grid of  721 points,  4 beta functions with:
                l(1) =   0
                l(2) =   0
                l(3) =   1
                l(4) =   1
     Q(r) pseudized with  8 coefficients,  rinner =    0.800   0.800   0.800

     PseudoPot. # 5 for H  read from file:
     /storage/coda1/p-amedford6/0/shared/rich_project_chbe-medford/medford-share/data/pseudos_module/espresso/nninc/pbe/van/H.UPF
     MD5 check sum: b5ee9d7bfd3a09ee7748110bda690ff7
     Pseudo is Ultrasoft, Zval =  1.0
     Generated by new atomic code, or converted to UPF format
     Using radial grid of  615 points,  1 beta functions with:
                l(1) =   0
     Q(r) pseudized with  8 coefficients,  rinner =    0.800

     atomic species   valence    mass     pseudopotential
        Ti1           12.00    47.86700     Ti( 1.00)
        O1             6.00    15.99900     O ( 1.00)
        N1             5.00    14.00700     N ( 1.00)
        C1             4.00    12.01100     C ( 1.00)
        H1             1.00     1.00800     H ( 1.00)

     No symmetry found

   Cartesian axes

     site n.     atom                  positions (alat units)
         1           Ti1 tau(   1) = (   0.0004258   2.9801865   6.0000000  )
         2           Ti1 tau(   2) = (   3.2906075   1.4906267   6.0002472  )
         3           O1  tau(   3) = (   0.0006271   0.0005054   7.9858123  )
         4           O1  tau(   4) = (   3.2906025   0.0005020   7.3038282  )
         5           O1  tau(   5) = (   4.5942328   1.4918067   9.2879030  )
         6           O1  tau(   6) = (   1.9868534   1.4903216   9.2879459  )
         7           Ti1 tau(   7) = (   3.2907910   2.8959150   9.1758416  )
         8           Ti1 tau(   8) = (   0.0015273   1.4827037   9.2680791  )
         9           O1  tau(   9) = (   3.2779673   5.9607700  11.3423085  )
        10           O1  tau(  10) = (   0.0116148   5.9584955  10.6183126  )
        11           O1  tau(  11) = (   1.2787083   1.4818767  12.6451794  )
        12           O1  tau(  12) = (   5.2707140   1.4872516  12.6060838  )
        13           Ti1 tau(  13) = (   0.0520196   2.9452147  12.6012095  )
        14           Ti1 tau(  14) = (   3.3669591   1.4706787  12.5087448  )
        15           O1  tau(  15) = (   6.5166736   5.9505275  14.6414754  )
        16           O1  tau(  16) = (   3.3002175   0.0041348  13.9548274  )
        17           O1  tau(  17) = (   4.5235890   1.5203341  16.0633414  )
        18           O1  tau(  18) = (   1.9992342   1.5602939  15.9747780  )
        19           Ti1 tau(  19) = (   3.2541499   3.0080313  15.6961896  )
        20           Ti1 tau(  20) = (   6.5591015   1.5323982  15.7823192  )
        21           O1  tau(  21) = (   3.2904802   0.0005063   4.7018136  )
        22           O1  tau(  22) = (   0.0960927   0.0099221  17.2178370  )
        23           O1  tau(  23) = (   1.3043587   1.4918075   6.0039043  )
        24           O1  tau(  24) = (   5.2767064   1.4903225   6.0039473  )
        25           Ti1 tau(  25) = (   0.0000382   5.9609847   6.0000000  )
        26           Ti1 tau(  26) = (   3.2902200   4.4714249   6.0002472  )
        27           O1  tau(  27) = (   0.0002396   2.9813036   7.9858123  )
        28           O1  tau(  28) = (   3.2902150   2.9813002   7.3038282  )
        29           O1  tau(  29) = (   4.5938453   4.4726049   9.2879030  )
        30           O1  tau(  30) = (   1.9864658   4.4711199   9.2879459  )
        31           Ti1 tau(  31) = (   3.2891106   5.8743827   9.1763621  )
        32           Ti1 tau(  32) = (   0.0006254   4.4649316   9.2693709  )
        33           O1  tau(  33) = (   3.2807211   2.9768430  11.3440791  )
        34           O1  tau(  34) = (   0.0092240   2.9805883  10.6323155  )
        35           O1  tau(  35) = (   1.2789702   4.4681595  12.6395138  )
        36           O1  tau(  36) = (   5.2737968   4.4775610  12.6008310  )
        37           Ti1 tau(  37) = (   0.0460201   5.9176504  12.5434570  )
        38           Ti1 tau(  38) = (   3.3658678   4.4646095  12.4976877  )
        39           O1  tau(  39) = (   6.5297297   2.9761478  14.6509524  )
        40           O1  tau(  40) = (   3.3085871   2.9961499  13.9017917  )
        41           O1  tau(  41) = (   4.5138497   4.4896837  16.1272785  )
        42           O1  tau(  42) = (   1.9961282   4.4344792  16.0060688  )
        43           Ti1 tau(  43) = (   3.3116018   0.0224549  15.7990204  )
        44           Ti1 tau(  44) = (   6.5775847   4.6577750  16.0638065  )
        45           O1  tau(  45) = (   3.2900926   2.9813045   4.7018136  )
        46           O1  tau(  46) = (   1.3039711   4.4726057   6.0039043  )
        47           O1  tau(  47) = (   5.2763189   4.4711207   6.0039473  )
        48           N1  tau(  48) = (   6.5065777   2.6139801  18.6303060  )
        49           N1  tau(  49) = (   6.5364102   2.8728423  17.4370429  )
        50           C1  tau(  50) = (   6.4341180   3.7235584  19.6105657  )
        51           H1  tau(  51) = (   6.3066687   4.7022679  19.1588110  )
        52           H1  tau(  52) = (   5.6164842   3.4805663  20.2913871  )
        53           H1  tau(  53) = (   0.7823074   3.6964598  20.1845303  )
        54           O1  tau(  54) = (   3.0314481   5.0835218  18.9911038  )
        55           H1  tau(  55) = (   1.7414717   0.2044793  18.0242669  )
        56           O1  tau(  56) = (   2.7372941   0.2572207  18.0778760  )
        57           H1  tau(  57) = (   3.9343361   5.3466317  19.2487757  )

     number of k points=    10  Fermi-Dirac smearing, width (Ry)=  0.0073
                       cart. coord. in units 2pi/alat
        k(    1) = (   0.0000000   0.0000000   0.0000000), wk =   0.1250000
        k(    2) = (   0.0000000   0.0419351   0.0000000), wk =   0.2500000
        k(    3) = (   0.0000000  -0.0838702   0.0000000), wk =   0.1250000
        k(    4) = (   0.0379955   0.0000049   0.0000000), wk =   0.2500000
        k(    5) = (   0.0379955   0.0419400   0.0000000), wk =   0.2500000
        k(    6) = (   0.0379955  -0.0838652   0.0000000), wk =   0.2500000
        k(    7) = (   0.0379955  -0.0419301   0.0000000), wk =   0.2500000
        k(    8) = (  -0.0759910  -0.0000099   0.0000000), wk =   0.1250000
        k(    9) = (  -0.0759910   0.0419252   0.0000000), wk =   0.2500000
        k(   10) = (  -0.0759910  -0.0838800   0.0000000), wk =   0.1250000

     Initial potential from superposition of free atoms

     starting charge  392.99914, renormalised to  409.00000

     negative rho (up, down):  1.422E-02 0.000E+00

     %%%%%%%%%%%%%%%%%%%%%%%%%%%%%%%%%%%%%%%%%%%%%%%%%%%%%%%%%%%%%%%%%%%%%%%%
     %                                                                      %
     % You are using vdW-DF, which was implemented by the Thonhauser group. %
     % Please cite the following two papers that made this development      %
     % possible and the two reviews that describe the various versions:     %
     %                                                                      %
     %   T. Thonhauser et al., PRL 115, 136402 (2015).                      %
     %   T. Thonhauser et al., PRB 76, 125112 (2007).                       %
     %   K. Berland et al., Rep. Prog. Phys. 78, 066501 (2015).             %
     %   D.C. Langreth et al., J. Phys.: Condens. Matter 21, 084203 (2009). %
     %                                                                      %
     %                                                                      %
     % If you are calculating the stress with vdW-DF, please also cite:     %
     %                                                                      %
     %   R. Sabatini et al., J. Phys.: Condens. Matter 24, 424209 (2012).   %
     %                                                                      %
     %%%%%%%%%%%%%%%%%%%%%%%%%%%%%%%%%%%%%%%%%%%%%%%%%%%%%%%%%%%%%%%%%%%%%%%%

     Adding external electric field

     Computed dipole along edir(3) :
        Dipole              -16.7512 Ry au,        -42.5774 Debye
        Dipole field         -0.0316 Ry au,

        Potential amp.        2.9304 Ry
        Total length         46.3494 bohr

     Starting wfcs are  309 atomic wfcs
  @ DRIVER MODE: Message from server: STATUS
  @ DRIVER MODE: Message from server: POSDATA
  @ DRIVER MODE: Reading and sharing cell
  @ DRIVER MODE: Reading and sharing positions
  @ DRIVER MODE: Received positions

     Self-consistent Calculation

     iteration #  1     ecut=    29.40 Ry     beta= 0.05
     Davidson diagonalization with overlap
     c_bands:  5 eigenvalues not converged
     c_bands:  5 eigenvalues not converged
     c_bands:  3 eigenvalues not converged
     c_bands:  1 eigenvalues not converged
     c_bands:  4 eigenvalues not converged
     c_bands:  2 eigenvalues not converged
     c_bands:  5 eigenvalues not converged
     ethr =  1.00E-05,  avg # of iterations = 26.6

[...]

     total energy              =   -2110.45610823 Ry
     estimated scf accuracy    <   10326.57219470 Ry

     iteration #  2     ecut=    29.40 Ry     beta= 0.05
     Davidson diagonalization with overlap
     ethr =  1.00E-02,  avg # of iterations = 31.7

[...]

     iteration # 63     ecut=    29.40 Ry     beta= 0.05
     Davidson diagonalization with overlap
     c_bands:  1 eigenvalues not converged
     ethr =  4.65E-10,  avg # of iterations = 11.7

[...]

     total energy              =   -3006.13723726 Ry
     estimated scf accuracy    <       0.00000008 Ry

     iteration # 79     ecut=    29.40 Ry     beta= 0.05
     Davidson diagonalization with overlap
     ethr =  1.98E-11,  avg # of iterations =  6.9

     negative rho (up, down):  1.470E-02 0.000E+00

     Adding external electric field

     Computed dipole along edir(3) :
        Dipole                0.8082 Ry au,          2.0543 Debye
        Dipole field          0.0015 Ry au,

        Potential amp.       -0.1414 Ry
        Total length         46.3494 bohr

     End of self-consistent calculation

          k = 0.0000 0.0000 0.0000 ( 18029 PWs)   bands (ev):

   -55.6053 -55.5712 -55.5632 -55.5348 -55.5270 -55.4413 -55.4198 -55.4044
   -55.3859 -55.3836 -55.3664 -55.3499 -54.9888 -54.9183 -54.5862 -54.5522
   -32.1040 -32.0884 -31.9493 -31.9411 -31.9182 -31.8980 -31.8735 -31.8605
   -31.8493 -31.7949 -31.7800 -31.7645 -31.7575 -31.7410 -31.7295 -31.7193
   -31.7103 -31.7017 -31.6901 -31.6632 -31.6624 -31.6425 -31.6106 -31.6094
   -31.6001 -31.5956 -31.5931 -31.5823 -31.5643 -31.5601 -31.5543 -31.5494
   -31.5387 -31.5369 -31.5276 -31.5156 -31.4957 -31.2668 -31.2099 -31.1787
   -31.1253 -31.1028 -30.9934 -30.9048 -30.8824 -30.8101 -30.7236 -30.6126
   -20.7384 -18.2982 -16.3055 -16.0794 -15.8957 -15.7660 -15.7110 -15.5548
   -15.4961 -15.4102 -15.3397 -15.2029 -15.1506 -15.1419 -15.1358 -15.1171
   -15.1113 -15.0510 -15.0400 -15.0384 -15.0274 -14.9997 -14.9605 -14.9473
   -14.9425 -14.8596 -14.7664 -14.7435 -14.7232 -14.7199 -14.6622 -14.2753
   -13.0881 -12.9716 -11.2843  -6.8258  -5.7533  -5.3646  -4.1932  -3.7980
    -3.7685  -3.6729  -3.5504  -3.5115  -3.4321  -3.3857  -3.2312  -3.0799
    -3.0271  -2.8520  -2.7833  -2.7559  -2.7123  -2.6289  -2.5215  -2.4682
    -2.4130  -2.4088  -2.3950  -2.3790  -2.3618  -2.3452  -2.2379  -2.2191
    -2.1670  -2.1463  -2.1201  -1.9850  -1.9572  -1.9292  -1.9188  -1.8915
    -1.8784  -1.8649  -1.8378  -1.8192  -1.7803  -1.7556  -1.6241  -1.5815
    -1.5411  -1.4490  -1.3892  -1.3299  -1.2335  -1.2013  -1.1326  -1.0623
    -1.0567  -1.0367  -1.0035  -0.9953  -0.8689  -0.7646  -0.7544  -0.6809
    -0.6197  -0.5697  -0.5284  -0.4630  -0.3795  -0.3622  -0.3543  -0.3337
    -0.2819  -0.2576  -0.0984  -0.0597  -0.0113   0.0138   0.0710   0.1042
     0.1471   0.1873   0.2271   0.2771   0.3112   0.3444   0.3628   0.3771
     0.3924   0.4237   0.4444   0.6104   0.6455   0.6687   0.7300   0.7595
     0.8452   0.9028   0.9660   1.0500   1.1583   1.3636   1.4364   1.5277
     1.6284   2.0078   2.0536   2.8281   3.5239   3.6159   3.6569   3.6872
     3.7687   3.7805   3.9818   4.0037   4.0333   4.1087

[...]

          k = 0.0380-0.0419 0.0000 ( 17876 PWs)   bands (ev):

[...]

          k =-0.0760-0.0000 0.0000 ( 17886 PWs)   bands (ev):

[...]

          k =-0.0760-0.0839 0.0000 ( 17948 PWs)   bands (ev):

   -55.5887 -55.5877 -55.5481 -55.5420 -55.5329 -55.4295 -55.4163 -55.4030
   -55.4021 -55.3682 -55.3681 -55.3655 -54.9849 -54.9221 -54.5692 -54.5691
   -31.9181 -31.9040 -31.9033 -31.9008 -31.8839 -31.8829 -31.8269 -31.8182
   -31.8057 -31.7860 -31.7775 -31.7539 -31.7492 -31.7230 -31.7173 -31.7166
   -31.7083 -31.7078 -31.7074 -31.7059 -31.7036 -31.7016 -31.6749 -31.6466
   -31.6329 -31.6290 -31.6201 -31.6039 -31.6028 -31.5978 -31.5925 -31.5836
   -31.5805 -31.5732 -31.5723 -31.5705 -31.4176 -31.2685 -31.2485 -31.1868
   -31.1641 -31.1266 -30.8951 -30.8950 -30.8062 -30.8061 -30.7669 -30.7668
   -20.7378 -18.2942 -15.7431 -15.6967 -15.6314 -15.5644 -15.5292 -15.4591
   -15.4156 -15.3737 -15.3217 -15.2837 -15.2747 -15.2151 -15.1948 -15.1621
   -15.1528 -15.1233 -15.1137 -15.1116 -15.0579 -15.0519 -15.0459 -15.0390
   -15.0327 -14.9739 -14.9341 -14.9260 -14.9210 -14.8227 -14.7003 -14.4436
   -13.0735 -13.0733 -11.2826  -6.8486  -5.7506  -5.3410  -4.1227  -3.8056
    -3.7480  -3.1147  -3.0215  -2.8279  -2.7977  -2.7148  -2.7107  -2.6679
    -2.5456  -2.5127  -2.4665  -2.4486  -2.4275  -2.4188  -2.4132  -2.3932
    -2.3870  -2.3685  -2.3395  -2.3190  -2.2863  -2.2740  -2.2610  -2.2527
    -2.2386  -2.2157  -2.2135  -2.1652  -2.1448  -2.1261  -2.0629  -2.0299
    -1.8433  -1.7943  -1.7493  -1.7424  -1.7214  -1.6905  -1.6752  -1.6582
    -1.6116  -1.5908  -1.5133  -1.4688  -1.3294  -1.3103  -1.2939  -1.2734
    -1.2066  -1.1487  -1.0988  -1.0129  -1.0077  -0.9587  -0.8658  -0.8066
    -0.7987  -0.7673  -0.7117  -0.7022  -0.6618  -0.5684  -0.5628  -0.5452
    -0.5389  -0.4640  -0.4188  -0.3565  -0.3484  -0.3285  -0.2977  -0.2696
    -0.2363  -0.1975  -0.1015  -0.0682   0.0253   0.1310   0.2087   0.3432
     0.4619   0.4745   0.5594   0.5837   0.6848   0.6964   0.7086   0.7499
     0.7857   0.8104   0.9299   0.9438   0.9666   0.9940   1.0813   1.7999
     1.8008   1.8733   1.8735   2.8172   3.7654   3.8795   3.9113   3.9219
     4.0069   4.0439   4.0627   4.0645   4.1295   4.2126

     the Fermi energy is     3.5267 ev

!    total energy              =   -3006.13724671 Ry
     estimated scf accuracy    <       0.00000006 Ry
     smearing contrib. (-TS)   =      -0.02166667 Ry
     internal energy E=F+TS    =   -3006.11558005 Ry

     The total energy is F=E-TS. E is the sum of the following terms:
     one-electron contribution =  -23513.49053485 Ry
     hartree contribution      =   11854.71882710 Ry
     xc contribution           =    -501.17087681 Ry
     ewald contribution        =    9153.82577184 Ry
     electric field correction =       0.00123267 Ry

     convergence has been achieved in  79 iterations

     Forces acting on atoms (cartesian axes, Ry/au):

     atom    1 type  1   force =     0.00020966   -0.00032101    0.09615217
     atom    2 type  1   force =    -0.00012878   -0.00050354   -0.17558762
     atom    3 type  2   force =    -0.00002943   -0.00015834   -0.02418928
     atom    4 type  2   force =     0.00000603   -0.00155296    0.05346470
     atom    5 type  2   force =    -0.01166008   -0.00075741    0.00386129
     atom    6 type  2   force =     0.01284858   -0.00002167    0.00197631
     atom    7 type  1   force =    -0.00132068    0.00026285   -0.00661879
     atom    8 type  1   force =     0.00073955    0.00795112    0.02423691
     atom    9 type  2   force =     0.00000827    0.00003173    0.00003729
     atom   10 type  2   force =    -0.00082551    0.00166304   -0.01688366
     atom   11 type  2   force =    -0.00002617    0.00003363    0.00000194
     atom   12 type  2   force =    -0.00001294    0.00001822   -0.00000175
     atom   13 type  1   force =     0.00000810   -0.00000706    0.00002841
     atom   14 type  1   force =     0.00000836    0.00003859    0.00000815
     atom   15 type  2   force =    -0.00000326    0.00001522    0.00000946
     atom   16 type  2   force =    -0.00000710   -0.00003057   -0.00003258
     atom   17 type  2   force =    -0.00002217   -0.00000274    0.00002668
     atom   18 type  2   force =    -0.00001263    0.00000367   -0.00002826
     atom   19 type  1   force =     0.00003864   -0.00006262   -0.00002529
     atom   20 type  1   force =     0.00004226   -0.00002385   -0.00000468
     atom   21 type  2   force =     0.00005919   -0.00004583    0.10321972
     atom   22 type  2   force =    -0.00002770   -0.00011578   -0.00008526
     atom   23 type  2   force =    -0.07147552   -0.00011476   -0.02772064
     atom   24 type  2   force =     0.07137861    0.00029287   -0.02772709
     atom   25 type  1   force =    -0.00003357   -0.00028396    0.09577447
     atom   26 type  1   force =    -0.00022905   -0.00034909   -0.17585112
     atom   27 type  2   force =     0.00004857   -0.00017017   -0.02324009
     atom   28 type  2   force =     0.00007112   -0.00126050    0.05306722
     atom   29 type  2   force =    -0.01200542    0.00042401    0.00403800
     atom   30 type  2   force =     0.01309149    0.00076879    0.00212575
     atom   31 type  1   force =    -0.00118363    0.00400474   -0.00991172
     atom   32 type  1   force =     0.00067546   -0.01006382    0.02471747
     atom   33 type  2   force =     0.00001568   -0.00001020    0.00001972
     atom   34 type  2   force =    -0.00025010    0.00013191   -0.02257991
     atom   35 type  2   force =    -0.00001694   -0.00000030   -0.00001379
     atom   36 type  2   force =    -0.00001504    0.00001946   -0.00001954
     atom   37 type  1   force =    -0.00000417   -0.00004433    0.00002564
     atom   38 type  1   force =     0.00002016    0.00007601    0.00005107
     atom   39 type  2   force =    -0.00005650   -0.00003240   -0.00003339
     atom   40 type  2   force =    -0.00000560   -0.00003798    0.00000076
     atom   41 type  2   force =    -0.00001837   -0.00000519   -0.00002790
     atom   42 type  2   force =     0.00001241   -0.00001717   -0.00001394
     atom   43 type  1   force =     0.00006077   -0.00002509   -0.00006385
     atom   44 type  1   force =     0.00002631    0.00003304    0.00009971
     atom   45 type  2   force =     0.00004445   -0.00009141    0.10323501
     atom   46 type  2   force =    -0.07149561   -0.00008646   -0.02773597
     atom   47 type  2   force =     0.07140918    0.00035402   -0.02772979
     atom   48 type  3   force =    -0.00004827    0.00090079   -0.00006330
     atom   49 type  3   force =     0.00000399    0.00004964   -0.00042092
     atom   50 type  4   force =     0.00048905   -0.00390134    0.00379392
     atom   51 type  5   force =    -0.00052940    0.00407149   -0.00389389
     atom   52 type  5   force =     0.00019471   -0.00054644    0.00028052
     atom   53 type  5   force =    -0.00009144   -0.00049301    0.00020065
     atom   54 type  2   force =     0.00102536   -0.00006507   -0.00129176
     atom   55 type  5   force =    -0.00013538   -0.00001657   -0.00004880
     atom   56 type  2   force =    -0.00111979   -0.00001354    0.00134014
     atom   57 type  5   force =     0.00025432    0.00008729    0.00005151

     Total force =     0.367192     Total SCF correction =     0.000581
  @ DRIVER MODE: Message from server: STATUS
  @ DRIVER MODE: Message from server: GETFORCE
  @ DRIVER MODE: Returning v,forces,stress,ensemble

     Writing output data file ./calc.save/
  @ DRIVER MODE: Message from server: EXIT
  @ DRIVE MODE: Exiting

     General routines

     Parallel routines

   This run was terminated on:   2:58:43  26Sep2021

   JOB DONE.