     Program PWSCF v.6.7GPU starts on 23Sep2021 at 10: 9:17

     R & G space division:  proc/nbgrp/npool/nimage =       8
     Reading input from /storage/home/hcoda1/3/ntian30/research/carbon/CxH_vib/H2O_calc/ads_slab/CH2NHHO_a/out_0030/pw.inp
Warning: card &CELL ignored
Warning: card   CELL_DYNAMICS='IPI', ignored
Warning: card / ignored

     Current dimensions of program PWSCF are:
     Max number of different atomic species (ntypx) = 10
     Max number of k-points (npk) =  40000
     Max angular momentum in pseudopotentials (lmaxx) =  3
     Presently no symmetry can be used with electric field

     Message from routine cell_base_init:
     DEPRECATED: use true lattice parameter, not A to a.u. conversion factor

     IMPORTANT: XC functional enforced from input :
     Exchange-correlation= BEEF-VDW
                           (   1   4  43  14   2   0   0)
     Any further DFT definition will be discarded
     Please, verify this is what you really want

  @ DRIVER MODE: Connecting to
 qe_1139763_2941012.sched-torque.pace.gatech.edu480ubfeq_scratch
  using UNIX socket
  @ DRIVER MODE: Message from server: STATUS
  @ DRIVER MODE: Message from server: INIT
  @ DRIVER MODE: Receiving replica           0          -1
  @ DRIVER MODE: Receiving encoded integer          25
  @ DRIVER MODE:  SCF:  T  FORCE:  T  STRESS:  F  VC:  F  ENSEMBLE:  F
  @ DRIVER MODE:  SCF:  T  FORCE:  T  STRESS:  F  VC:  F  ENSEMBLE:  F

     Using Slab Decomposition

     bravais-lattice index     =            0
     lattice parameter (alat)  =       1.8897  a.u.
     unit-cell volume          =    6658.9804 (a.u.)^3
     number of atoms/cell      =           54
     number of atomic types    =            5
     number of electrons       =       397.00
     number of Kohn-Sham states=          208
     kinetic-energy cutoff     =      29.3995  Ry
     charge density cutoff     =     293.9946  Ry
     scf convergence threshold =      7.3E-08
     mixing beta               =       0.0500
     number of iterations used =            8  plain     mixing
     Exchange-correlation= BEEF-VDW
                           (   1   4  43  14   2   0   0)

     celldm(1)=   1.889726  celldm(2)=   0.000000  celldm(3)=   0.000000
     celldm(4)=   0.000000  celldm(5)=   0.000000  celldm(6)=   0.000000

     crystal axes: (cart. coord. in units of alat)
               a(1) = (   6.579727   0.000000   0.000000 )
               a(2) = (  -0.000775   5.961596   0.000000 )
               a(3) = (   0.000000   0.000000  25.155947 )

     reciprocal axes: (cart. coord. in units 2 pi/alat)
               b(1) = (  0.151982  0.000020  0.000000 )
               b(2) = (  0.000000  0.167740  0.000000 )
               b(3) = (  0.000000  0.000000  0.039752 )

     PseudoPot. # 1 for Ti read from file:
     /storage/coda1/p-amedford6/0/shared/rich_project_chbe-medford/medford-share/data/pseudos_module/espresso/nninc/pbe/van/Ti.UPF
     MD5 check sum: 8e4df49b7f0d34bbd5052bf3f5ea0213
     Pseudo is Ultrasoft, Zval = 12.0
     Generated by new atomic code, or converted to UPF format
     Using radial grid of  851 points,  6 beta functions with:
                l(1) =   0
                l(2) =   0
                l(3) =   1
                l(4) =   1
                l(5) =   2
                l(6) =   2
     Q(r) pseudized with  8 coefficients,  rinner =    1.000   1.000   1.000
                                                       1.000   1.000

     PseudoPot. # 2 for O  read from file:
     /storage/coda1/p-amedford6/0/shared/rich_project_chbe-medford/medford-share/data/pseudos_module/espresso/nninc/pbe/van/O.UPF
     MD5 check sum: 78c19812648e8988a0fe644b0f25305e
     Pseudo is Ultrasoft, Zval =  6.0
     Generated by new atomic code, or converted to UPF format
     Using radial grid of  737 points,  4 beta functions with:
                l(1) =   0
                l(2) =   0
                l(3) =   1
                l(4) =   1
     Q(r) pseudized with  8 coefficients,  rinner =    0.800   0.800   0.800

     PseudoPot. # 3 for N  read from file:
     /storage/coda1/p-amedford6/0/shared/rich_project_chbe-medford/medford-share/data/pseudos_module/espresso/nninc/pbe/van/N.UPF
     MD5 check sum: 90d10febe142ad51ac9d5be1deb811c4
     Pseudo is Ultrasoft, Zval =  5.0
     Generated by new atomic code, or converted to UPF format
     Using radial grid of  729 points,  4 beta functions with:
                l(1) =   0
                l(2) =   0
                l(3) =   1
                l(4) =   1
     Q(r) pseudized with  8 coefficients,  rinner =    0.800   0.800   0.800

     PseudoPot. # 4 for C  read from file:
     /storage/coda1/p-amedford6/0/shared/rich_project_chbe-medford/medford-share/data/pseudos_module/espresso/nninc/pbe/van/C.UPF
     MD5 check sum: 1a69bf6b8db32088f5b2163dbdb77a27
     Pseudo is Ultrasoft, Zval =  4.0
     Generated by new atomic code, or converted to UPF format
     Using radial grid of  721 points,  4 beta functions with:
                l(1) =   0
                l(2) =   0
                l(3) =   1
                l(4) =   1
     Q(r) pseudized with  8 coefficients,  rinner =    0.800   0.800   0.800

     PseudoPot. # 5 for H  read from file:
     /storage/coda1/p-amedford6/0/shared/rich_project_chbe-medford/medford-share/data/pseudos_module/espresso/nninc/pbe/van/H.UPF
     MD5 check sum: b5ee9d7bfd3a09ee7748110bda690ff7
     Pseudo is Ultrasoft, Zval =  1.0
     Generated by new atomic code, or converted to UPF format
     Using radial grid of  615 points,  1 beta functions with:
                l(1) =   0
     Q(r) pseudized with  8 coefficients,  rinner =    0.800

     atomic species   valence    mass     pseudopotential
        Ti1           12.00    47.86700     Ti( 1.00)
        O1             6.00    15.99900     O ( 1.00)
        N1             5.00    14.00700     N ( 1.00)
        C1             4.00    12.01100     C ( 1.00)
        H1             1.00     1.00800     H ( 1.00)

     No symmetry found

   Cartesian axes

     site n.     atom                  positions (alat units)
         1           Ti1 tau(   1) = (   0.0004258   2.9801865   6.0000000  )
         2           Ti1 tau(   2) = (   3.2906075   1.4906267   6.0002472  )
         3           O1  tau(   3) = (   0.0006271   0.0005054   7.9858123  )
         4           O1  tau(   4) = (   3.2906025   0.0005020   7.3038282  )
         5           O1  tau(   5) = (   4.5942328   1.4918067   9.2879030  )
         6           O1  tau(   6) = (   1.9868534   1.4903216   9.2879459  )
         7           Ti1 tau(   7) = (   3.2907910   2.8959150   9.1758416  )
         8           Ti1 tau(   8) = (   0.0015273   1.4827037   9.2680791  )
         9           O1  tau(   9) = (   3.2872377   5.9372537  11.3619719  )
        10           O1  tau(  10) = (   0.0116148   5.9584955  10.6183126  )
        11           O1  tau(  11) = (   1.2678424   1.4880610  12.6451974  )
        12           O1  tau(  12) = (   5.2928823   1.5036634  12.6399001  )
        13           Ti1 tau(  13) = (   6.5521701   2.9315368  12.5404127  )
        14           Ti1 tau(  14) = (   3.2895327   1.2997526  12.7137971  )
        15           O1  tau(  15) = (   6.5477037   0.0845492  14.6505624  )
        16           O1  tau(  16) = (   3.2827468   0.0880329  14.0175491  )
        17           O1  tau(  17) = (   4.5427558   1.5765460  16.1196870  )
        18           O1  tau(  18) = (   1.9971221   1.5491956  16.2097298  )
        19           Ti1 tau(  19) = (   3.2670693   3.0250103  15.6873951  )
        20           Ti1 tau(  20) = (   6.4806419   1.4532933  16.0069425  )
        21           O1  tau(  21) = (   3.2904802   0.0005063   4.7018136  )
        22           O1  tau(  22) = (   6.5100566   5.8635464  17.1664964  )
        23           O1  tau(  23) = (   1.3043587   1.4918075   6.0039043  )
        24           O1  tau(  24) = (   5.2767064   1.4903225   6.0039473  )
        25           Ti1 tau(  25) = (   0.0000382   5.9609847   6.0000000  )
        26           Ti1 tau(  26) = (   3.2902200   4.4714249   6.0002472  )
        27           O1  tau(  27) = (   0.0002396   2.9813036   7.9858123  )
        28           O1  tau(  28) = (   3.2902150   2.9813002   7.3038282  )
        29           O1  tau(  29) = (   4.5938453   4.4726049   9.2879030  )
        30           O1  tau(  30) = (   1.9864658   4.4711199   9.2879459  )
        31           Ti1 tau(  31) = (   3.2891106   5.8743827   9.1763621  )
        32           Ti1 tau(  32) = (   0.0006254   4.4649316   9.2693709  )
        33           O1  tau(  33) = (   3.2826969   3.0075535  11.3127327  )
        34           O1  tau(  34) = (   0.0092240   2.9805883  10.6323155  )
        35           O1  tau(  35) = (   1.2713698   4.4757098  12.6731835  )
        36           O1  tau(  36) = (   5.2977781   4.4601507  12.6712348  )
        37           Ti1 tau(  37) = (   0.0330522   5.9225719  12.5042524  )
        38           Ti1 tau(  38) = (   3.2990360   4.3766664  12.4405836  )
        39           O1  tau(  39) = (   0.0150134   2.9421642  14.8567636  )
        40           O1  tau(  40) = (   3.2596324   2.9836344  13.9148061  )
        41           O1  tau(  41) = (   4.5490916   4.3969069  16.0525170  )
        42           O1  tau(  42) = (   1.9960638   4.4622821  16.0939853  )
        43           Ti1 tau(  43) = (   3.1777156   0.0378257  16.2738330  )
        44           Ti1 tau(  44) = (   6.5243348   4.6462111  15.7996153  )
        45           O1  tau(  45) = (   3.2900926   2.9813045   4.7018136  )
        46           O1  tau(  46) = (   1.3039711   4.4726057   6.0039043  )
        47           O1  tau(  47) = (   5.2763189   4.4711207   6.0039473  )
        48           N1  tau(  48) = (   6.4646383   2.7559932  17.9272311  )
        49           C1  tau(  49) = (   0.7552072   2.7164238  18.8602713  )
        50           H1  tau(  50) = (   0.5916026   3.1878006  19.8266510  )
        51           H1  tau(  51) = (   1.6887153   2.1901376  18.6919226  )
        52           H1  tau(  52) = (   5.6107037   3.2511282  18.1974541  )
        53           O1  tau(  53) = (   3.4589997   5.9358250  18.1144358  )
        54           H1  tau(  54) = (   4.3999295   5.9567086  18.3589960  )

     number of k points=    10  Fermi-Dirac smearing, width (Ry)=  0.0073
                       cart. coord. in units 2pi/alat
        k(    1) = (   0.0000000   0.0000000   0.0000000), wk =   0.1250000
        k(    2) = (   0.0000000   0.0419351   0.0000000), wk =   0.2500000
        k(    3) = (   0.0000000  -0.0838702   0.0000000), wk =   0.1250000
        k(    4) = (   0.0379955   0.0000049   0.0000000), wk =   0.2500000
        k(    5) = (   0.0379955   0.0419400   0.0000000), wk =   0.2500000
        k(    6) = (   0.0379955  -0.0838652   0.0000000), wk =   0.2500000
        k(    7) = (   0.0379955  -0.0419301   0.0000000), wk =   0.2500000
        k(    8) = (  -0.0759910  -0.0000099   0.0000000), wk =   0.1250000
        k(    9) = (  -0.0759910   0.0419252   0.0000000), wk =   0.2500000
        k(   10) = (  -0.0759910  -0.0838800   0.0000000), wk =   0.1250000

     Initial potential from superposition of free atoms

     starting charge  380.99916, renormalised to  397.00000

     negative rho (up, down):  1.654E-02 0.000E+00

     %%%%%%%%%%%%%%%%%%%%%%%%%%%%%%%%%%%%%%%%%%%%%%%%%%%%%%%%%%%%%%%%%%%%%%%%
     %                                                                      %
     % You are using vdW-DF, which was implemented by the Thonhauser group. %
     % Please cite the following two papers that made this development      %
     % possible and the two reviews that describe the various versions:     %
     %                                                                      %
     %   T. Thonhauser et al., PRL 115, 136402 (2015).                      %
     %   T. Thonhauser et al., PRB 76, 125112 (2007).                       %
     %   K. Berland et al., Rep. Prog. Phys. 78, 066501 (2015).             %
     %   D.C. Langreth et al., J. Phys.: Condens. Matter 21, 084203 (2009). %
     %                                                                      %
     %                                                                      %
     % If you are calculating the stress with vdW-DF, please also cite:     %
     %                                                                      %
     %   R. Sabatini et al., J. Phys.: Condens. Matter 24, 424209 (2012).   %
     %                                                                      %
     %%%%%%%%%%%%%%%%%%%%%%%%%%%%%%%%%%%%%%%%%%%%%%%%%%%%%%%%%%%%%%%%%%%%%%%%

     Adding external electric field

     Computed dipole along edir(3) :
        Dipole               -9.3006 Ry au,        -23.6398 Debye
        Dipole field         -0.0176 Ry au,

        Potential amp.        1.6270 Ry
        Total length         46.3494 bohr

     Starting wfcs are  300 atomic wfcs
  @ DRIVER MODE: Message from server: STATUS
  @ DRIVER MODE: Message from server: POSDATA
  @ DRIVER MODE: Reading and sharing cell
  @ DRIVER MODE: Reading and sharing positions
  @ DRIVER MODE: Received positions

     Self-consistent Calculation

     iteration #  1     ecut=    29.40 Ry     beta= 0.05
     Davidson diagonalization with overlap
     c_bands:  1 eigenvalues not converged
     c_bands:  1 eigenvalues not converged
     c_bands:  2 eigenvalues not converged
     c_bands:  1 eigenvalues not converged
     c_bands:  1 eigenvalues not converged
     c_bands:  2 eigenvalues not converged
     c_bands:  1 eigenvalues not converged
     c_bands:  1 eigenvalues not converged
     c_bands:  3 eigenvalues not converged
     ethr =  1.00E-05,  avg # of iterations = 19.6

[...]

     total energy              =   -2534.83686766 Ry
     estimated scf accuracy    <    4639.05256406 Ry

     iteration #  2     ecut=    29.40 Ry     beta= 0.05
     Davidson diagonalization with overlap
     ethr =  1.00E-02,  avg # of iterations = 25.0

[...]

     iteration # 61     ecut=    29.40 Ry     beta= 0.05
     Davidson diagonalization with overlap
     c_bands:  1 eigenvalues not converged
     ethr =  6.58E-10,  avg # of iterations = 13.2

[...]

     total energy              =   -2952.74693635 Ry
     estimated scf accuracy    <       0.00000012 Ry

     iteration # 68     ecut=    29.40 Ry     beta= 0.05
     Davidson diagonalization with overlap
     ethr =  3.10E-11,  avg # of iterations = 10.0

     negative rho (up, down):  1.671E-02 0.000E+00

     Adding external electric field

     Computed dipole along edir(3) :
        Dipole                1.0865 Ry au,          2.7617 Debye
        Dipole field          0.0021 Ry au,

        Potential amp.       -0.1901 Ry
        Total length         46.3494 bohr

     End of self-consistent calculation

          k = 0.0000 0.0000 0.0000 ( 18029 PWs)   bands (ev):

   -55.6616 -55.6391 -55.6050 -55.4683 -55.4608 -55.4345 -55.4331 -55.4273
   -55.4101 -55.3991 -55.3498 -55.2417 -55.2250 -55.1739 -54.6049 -54.5708
   -32.1227 -31.9898 -31.9640 -31.9568 -31.9524 -31.9307 -31.9302 -31.8843
   -31.8827 -31.8671 -31.8339 -31.7915 -31.7539 -31.7447 -31.7355 -31.7332
   -31.7150 -31.6965 -31.6777 -31.6663 -31.6632 -31.6561 -31.6354 -31.6243
   -31.6166 -31.6096 -31.5999 -31.5905 -31.5895 -31.5776 -31.5754 -31.5702
   -31.5657 -31.5459 -31.5206 -31.5054 -31.4381 -31.4297 -31.4165 -31.3866
   -31.3796 -31.3795 -31.0103 -30.9251 -30.9026 -30.8280 -30.7416 -30.6298
   -16.7185 -16.4368 -16.2554 -16.0816 -15.8678 -15.7935 -15.7563 -15.5595
   -15.4731 -15.4087 -15.1766 -15.1711 -15.1604 -15.1380 -15.1111 -15.1008
   -15.0908 -15.0562 -15.0541 -15.0320 -15.0061 -14.9729 -14.9643 -14.9166
   -14.8673 -14.8500 -14.7696 -14.6967 -14.6500 -14.4482 -14.3231 -13.1028
   -12.9866  -9.3104  -6.3411  -4.7228  -3.9548  -3.6243  -3.5383  -3.5041
    -3.4285  -3.3787  -3.1428  -3.0067  -2.9594  -2.8746  -2.7617  -2.7368
    -2.6752  -2.6195  -2.5517  -2.5288  -2.4857  -2.4302  -2.4075  -2.3771
    -2.3681  -2.3359  -2.2849  -2.2220  -2.1610  -2.1356  -2.0773  -2.0009
    -1.9525  -1.9483  -1.9413  -1.9205  -1.8963  -1.8740  -1.8512  -1.8399
    -1.7367  -1.6836  -1.6642  -1.6113  -1.5684  -1.3135  -1.2332  -1.2244
    -1.1524  -1.1021  -1.0702  -1.0519  -1.0232  -0.9784  -0.9255  -0.8928
    -0.8114  -0.7574  -0.6980  -0.6853  -0.6391  -0.5633  -0.4796  -0.4222
    -0.4053  -0.3476  -0.3391  -0.3136  -0.1913  -0.1531  -0.1436  -0.0883
    -0.0615   0.0413   0.0853   0.1242   0.1555   0.2441   0.2660   0.3073
     0.3123   0.3431   0.3497   0.4396   0.4489   0.4750   0.5373   0.5637
     0.6414   0.7129   0.7203   0.8757   0.9235   1.0139   1.0465   1.1360
     1.3728   1.4221   1.4798   1.6159   1.9883   2.0332   3.4543   3.5993
     3.6168   3.7083   3.7138   3.8195   3.9288   3.9836   4.0206   4.1310

[...]

          k = 0.0380-0.0419 0.0000 ( 17876 PWs)   bands (ev):

[...]

          k =-0.0760-0.0000 0.0000 ( 17886 PWs)   bands (ev):

[...]

          k =-0.0760-0.0839 0.0000 ( 17948 PWs)   bands (ev):

   -55.6608 -55.6224 -55.6216 -55.4522 -55.4491 -55.4442 -55.4435 -55.4329
   -55.4108 -55.3925 -55.3565 -55.2375 -55.2264 -55.1780 -54.5884 -54.5872
   -31.9382 -31.9377 -31.9254 -31.9169 -31.9160 -31.9153 -31.8756 -31.8678
   -31.8043 -31.7760 -31.7752 -31.7659 -31.7606 -31.7422 -31.7413 -31.7356
   -31.7176 -31.7146 -31.7014 -31.6810 -31.6686 -31.6572 -31.6537 -31.6461
   -31.6432 -31.6397 -31.6357 -31.6199 -31.6156 -31.6122 -31.6100 -31.6095
   -31.5967 -31.5792 -31.5766 -31.5207 -31.5047 -31.4598 -31.4415 -31.4333
   -31.4251 -31.3837 -30.9157 -30.9149 -30.8240 -30.8225 -30.7853 -30.7844
   -16.6981 -16.4176 -15.8221 -15.7131 -15.5925 -15.5838 -15.4711 -15.3984
   -15.3637 -15.3345 -15.3169 -15.3064 -15.2829 -15.2440 -15.1957 -15.1746
   -15.1428 -15.1248 -15.1126 -15.0716 -15.0563 -15.0468 -15.0279 -14.9835
   -14.9696 -14.9401 -14.9272 -14.7956 -14.7422 -14.6357 -14.5643 -13.0888
   -13.0882  -9.3154  -6.3374  -4.7076  -3.9367  -3.0262  -2.9301  -2.8000
    -2.7055  -2.6699  -2.6309  -2.6054  -2.5816  -2.5407  -2.5235  -2.4745
    -2.4303  -2.4131  -2.4017  -2.3721  -2.3678  -2.3589  -2.3271  -2.3062
    -2.2996  -2.2868  -2.2628  -2.2521  -2.2349  -2.2105  -2.1976  -2.1715
    -2.1508  -2.1047  -1.9942  -1.9417  -1.9130  -1.7842  -1.7708  -1.7499
    -1.7347  -1.7222  -1.6997  -1.6810  -1.6140  -1.5962  -1.5683  -1.3918
    -1.3729  -1.2848  -1.2511  -1.2057  -1.1413  -1.1276  -1.0776  -1.0499
    -0.9957  -0.9703  -0.8796  -0.8239  -0.7953  -0.7584  -0.6333  -0.5817
    -0.5759  -0.5664  -0.5364  -0.5161  -0.4718  -0.4510  -0.4211  -0.3556
    -0.3261  -0.3090  -0.2634  -0.2517  -0.1272  -0.0096   0.0749   0.1184
     0.1797   0.2004   0.2395   0.3438   0.4199   0.5008   0.5431   0.5614
     0.5926   0.6836   0.6992   0.8420   0.8717   0.8769   0.9129   0.9445
     0.9735   1.0184   1.7853   1.7934   1.8534   1.8538   3.7011   3.8312
     3.9615   3.9815   3.9939   4.0263   4.0301   4.0542   4.1035   4.1376

     the Fermi energy is     3.4856 ev

!    total energy              =   -2952.74697388 Ry
     estimated scf accuracy    <       0.00000005 Ry
     smearing contrib. (-TS)   =      -0.02004100 Ry
     internal energy E=F+TS    =   -2952.72693288 Ry

     The total energy is F=E-TS. E is the sum of the following terms:
     one-electron contribution =  -23991.03984945 Ry
     hartree contribution      =   12087.02539055 Ry
     xc contribution           =    -488.02743954 Ry
     ewald contribution        =    9439.31273772 Ry
     electric field correction =       0.00222784 Ry

     convergence has been achieved in  68 iterations

     Forces acting on atoms (cartesian axes, Ry/au):

     atom    1 type  1   force =     0.00016323   -0.00027012    0.09476009
     atom    2 type  1   force =    -0.00000279    0.00040930   -0.17489411
     atom    3 type  2   force =    -0.00001236   -0.00013483   -0.02195084
     atom    4 type  2   force =     0.00006447   -0.00192177    0.05341389
     atom    5 type  2   force =    -0.00734011   -0.00239945    0.00310194
     atom    6 type  2   force =     0.00860409   -0.00197682    0.00181998
     atom    7 type  1   force =    -0.00058821   -0.00347702    0.00958075
     atom    8 type  1   force =     0.00060619    0.00469269    0.00861986
     atom    9 type  2   force =     0.00009153    0.00016364   -0.00016304
     atom   10 type  2   force =    -0.00268858   -0.00030795   -0.01305152
     atom   11 type  2   force =    -0.00040314   -0.00035720   -0.00011687
     atom   12 type  2   force =     0.00018029   -0.00017372    0.00029848
     atom   13 type  1   force =     0.00040024    0.00019416   -0.00067745
     atom   14 type  1   force =    -0.00014720    0.00009267   -0.00001349
     atom   15 type  2   force =     0.00024822   -0.00018577   -0.00037923
     atom   16 type  2   force =     0.00038833    0.00012647   -0.00007369
     atom   17 type  2   force =    -0.00020114   -0.00007730    0.00026760
     atom   18 type  2   force =     0.00000734   -0.00089082   -0.00021251
     atom   19 type  1   force =     0.00043431    0.00053334    0.00023341
     atom   20 type  1   force =    -0.00016339   -0.00011354   -0.00006065
     atom   21 type  2   force =     0.00009900    0.00007239    0.10312294
     atom   22 type  2   force =     0.00009969   -0.00036485    0.00003806
     atom   23 type  2   force =    -0.07214559   -0.00013110   -0.02737900
     atom   24 type  2   force =     0.07209711    0.00027782   -0.02740303
     atom   25 type  1   force =     0.00003568   -0.00010579    0.09454001
     atom   26 type  1   force =    -0.00007503   -0.00133149   -0.17506542
     atom   27 type  2   force =     0.00014861   -0.00019855   -0.02072385
     atom   28 type  2   force =     0.00002335   -0.00017970    0.04900002
     atom   29 type  2   force =    -0.00616382    0.00259250    0.00154257
     atom   30 type  2   force =     0.00738560    0.00321626    0.00010456
     atom   31 type  1   force =    -0.00054805    0.00715857   -0.00092097
     atom   32 type  1   force =     0.00055441   -0.00651608    0.00786656
     atom   33 type  2   force =     0.00025524   -0.00024591   -0.00033489
     atom   34 type  2   force =    -0.00212726    0.00146840   -0.01186181
     atom   35 type  2   force =    -0.00009398    0.00000689    0.00017356
     atom   36 type  2   force =    -0.00022590    0.00011299    0.00029660
     atom   37 type  1   force =     0.00054423   -0.00011311   -0.00026392
     atom   38 type  1   force =    -0.00018996   -0.00015530    0.00032788
     atom   39 type  2   force =     0.00014124    0.00037147   -0.00038832
     atom   40 type  2   force =    -0.00015465    0.00027993   -0.00050438
     atom   41 type  2   force =     0.00006966    0.00044520   -0.00032608
     atom   42 type  2   force =    -0.00014166    0.00040285    0.00025900
     atom   43 type  1   force =     0.00000390   -0.00099205   -0.00038215
     atom   44 type  1   force =     0.00000153    0.00056671    0.00046064
     atom   45 type  2   force =     0.00010190   -0.00008633    0.10294026
     atom   46 type  2   force =    -0.07215905   -0.00005692   -0.02740326
     atom   47 type  2   force =     0.07215885    0.00039112   -0.02743369
     atom   48 type  3   force =    -0.00373811    0.00212022    0.00260346
     atom   49 type  4   force =     0.00192130   -0.00096613   -0.00044967
     atom   50 type  5   force =    -0.00027140   -0.00019184    0.00002637
     atom   51 type  5   force =     0.00048669    0.00020528   -0.00032786
     atom   52 type  5   force =     0.00262898   -0.00199976   -0.00295823
     atom   53 type  2   force =    -0.00001957    0.00006660    0.00163151
     atom   54 type  5   force =    -0.00034428   -0.00004622   -0.00131005

     Total force =     0.362469     Total SCF correction =     0.000505
  @ DRIVER MODE: Message from server: STATUS
  @ DRIVER MODE: Message from server: GETFORCE
  @ DRIVER MODE: Returning v,forces,stress,ensemble

     Writing output data file ./calc.save/
  @ DRIVER MODE: Message from server: EXIT
  @ DRIVE MODE: Exiting

     General routines

     Parallel routines

   This run was terminated on:  10:31:35  23Sep2021

   JOB DONE.