     Program PWSCF v.6.7GPU starts on 22Sep2021 at 17:48:47

     R & G space division:  proc/nbgrp/npool/nimage =      10
     Reading input from /storage/home/hcoda1/3/ntian30/research/carbon/CxH_vib/H2O_calc/ads_slab/CHNHNH2H2O_b/out_0005/pw.inp
Warning: card &CELL ignored
Warning: card   CELL_DYNAMICS='IPI', ignored
Warning: card / ignored

     Current dimensions of program PWSCF are:
     Max number of different atomic species (ntypx) = 10
     Max number of k-points (npk) =  40000
     Max angular momentum in pseudopotentials (lmaxx) =  3
     Presently no symmetry can be used with electric field

     Message from routine cell_base_init:
     DEPRECATED: use true lattice parameter, not A to a.u. conversion factor

     IMPORTANT: XC functional enforced from input :
     Exchange-correlation= BEEF-VDW
                           (   1   4  43  14   2   0   0)
     Any further DFT definition will be discarded
     Please, verify this is what you really want

  @ DRIVER MODE: Connecting to
 qe_1139763_2937312.sched-torque.pace.gatech.edu3hybawvz_scratch
  using UNIX socket
  @ DRIVER MODE: Message from server: STATUS
  @ DRIVER MODE: Message from server: INIT
  @ DRIVER MODE: Receiving replica           0          -1
  @ DRIVER MODE: Receiving encoded integer          25
  @ DRIVER MODE:  SCF:  T  FORCE:  T  STRESS:  F  VC:  F  ENSEMBLE:  F
  @ DRIVER MODE:  SCF:  T  FORCE:  T  STRESS:  F  VC:  F  ENSEMBLE:  F

     Using Slab Decomposition

     bravais-lattice index     =            0
     lattice parameter (alat)  =       1.8897  a.u.
     unit-cell volume          =    6658.9804 (a.u.)^3
     number of atoms/cell      =           57
     number of atomic types    =            5
     number of electrons       =       404.00
     number of Kohn-Sham states=          212
     kinetic-energy cutoff     =      29.3995  Ry
     charge density cutoff     =     293.9946  Ry
     scf convergence threshold =      7.3E-08
     mixing beta               =       0.0500
     number of iterations used =            8  plain     mixing
     Exchange-correlation= BEEF-VDW
                           (   1   4  43  14   2   0   0)

     celldm(1)=   1.889726  celldm(2)=   0.000000  celldm(3)=   0.000000
     celldm(4)=   0.000000  celldm(5)=   0.000000  celldm(6)=   0.000000

     crystal axes: (cart. coord. in units of alat)
               a(1) = (   6.579727   0.000000   0.000000 )
               a(2) = (  -0.000775   5.961596   0.000000 )
               a(3) = (   0.000000   0.000000  25.155947 )

     reciprocal axes: (cart. coord. in units 2 pi/alat)
               b(1) = (  0.151982  0.000020  0.000000 )
               b(2) = (  0.000000  0.167740  0.000000 )
               b(3) = (  0.000000  0.000000  0.039752 )

     PseudoPot. # 1 for Ti read from file:
     /storage/coda1/p-amedford6/0/shared/rich_project_chbe-medford/medford-share/data/pseudos_module/espresso/nninc/pbe/van/Ti.UPF
     MD5 check sum: 8e4df49b7f0d34bbd5052bf3f5ea0213
     Pseudo is Ultrasoft, Zval = 12.0
     Generated by new atomic code, or converted to UPF format
     Using radial grid of  851 points,  6 beta functions with:
                l(1) =   0
                l(2) =   0
                l(3) =   1
                l(4) =   1
                l(5) =   2
                l(6) =   2
     Q(r) pseudized with  8 coefficients,  rinner =    1.000   1.000   1.000
                                                       1.000   1.000

     PseudoPot. # 2 for O  read from file:
     /storage/coda1/p-amedford6/0/shared/rich_project_chbe-medford/medford-share/data/pseudos_module/espresso/nninc/pbe/van/O.UPF
     MD5 check sum: 78c19812648e8988a0fe644b0f25305e
     Pseudo is Ultrasoft, Zval =  6.0
     Generated by new atomic code, or converted to UPF format
     Using radial grid of  737 points,  4 beta functions with:
                l(1) =   0
                l(2) =   0
                l(3) =   1
                l(4) =   1
     Q(r) pseudized with  8 coefficients,  rinner =    0.800   0.800   0.800

     PseudoPot. # 3 for N  read from file:
     /storage/coda1/p-amedford6/0/shared/rich_project_chbe-medford/medford-share/data/pseudos_module/espresso/nninc/pbe/van/N.UPF
     MD5 check sum: 90d10febe142ad51ac9d5be1deb811c4
     Pseudo is Ultrasoft, Zval =  5.0
     Generated by new atomic code, or converted to UPF format
     Using radial grid of  729 points,  4 beta functions with:
                l(1) =   0
                l(2) =   0
                l(3) =   1
                l(4) =   1
     Q(r) pseudized with  8 coefficients,  rinner =    0.800   0.800   0.800

     PseudoPot. # 4 for C  read from file:
     /storage/coda1/p-amedford6/0/shared/rich_project_chbe-medford/medford-share/data/pseudos_module/espresso/nninc/pbe/van/C.UPF
     MD5 check sum: 1a69bf6b8db32088f5b2163dbdb77a27
     Pseudo is Ultrasoft, Zval =  4.0
     Generated by new atomic code, or converted to UPF format
     Using radial grid of  721 points,  4 beta functions with:
                l(1) =   0
                l(2) =   0
                l(3) =   1
                l(4) =   1
     Q(r) pseudized with  8 coefficients,  rinner =    0.800   0.800   0.800

     PseudoPot. # 5 for H  read from file:
     /storage/coda1/p-amedford6/0/shared/rich_project_chbe-medford/medford-share/data/pseudos_module/espresso/nninc/pbe/van/H.UPF
     MD5 check sum: b5ee9d7bfd3a09ee7748110bda690ff7
     Pseudo is Ultrasoft, Zval =  1.0
     Generated by new atomic code, or converted to UPF format
     Using radial grid of  615 points,  1 beta functions with:
                l(1) =   0
     Q(r) pseudized with  8 coefficients,  rinner =    0.800

     atomic species   valence    mass     pseudopotential
        Ti1           12.00    47.86700     Ti( 1.00)
        O1             6.00    15.99900     O ( 1.00)
        N1             5.00    14.00700     N ( 1.00)
        C1             4.00    12.01100     C ( 1.00)
        H1             1.00     1.00800     H ( 1.00)

     No symmetry found

   Cartesian axes

     site n.     atom                  positions (alat units)
         1           Ti1 tau(   1) = (   0.0004258   2.9801865   6.0000000  )
         2           Ti1 tau(   2) = (   3.2906075   1.4906267   6.0002472  )
         3           O1  tau(   3) = (   0.0006271   0.0005054   7.9858123  )
         4           O1  tau(   4) = (   3.2906025   0.0005020   7.3038282  )
         5           O1  tau(   5) = (   4.5942328   1.4918067   9.2879030  )
         6           O1  tau(   6) = (   1.9868534   1.4903216   9.2879459  )
         7           Ti1 tau(   7) = (   3.2907910   2.8959150   9.1758416  )
         8           Ti1 tau(   8) = (   0.0015273   1.4827037   9.2680791  )
         9           O1  tau(   9) = (   3.3066417   5.9496923  11.3845403  )
        10           O1  tau(  10) = (   0.0116148   5.9584955  10.6183126  )
        11           O1  tau(  11) = (   1.3010148   1.4986442  12.6442229  )
        12           O1  tau(  12) = (   5.3085967   1.5001388  12.6592367  )
        13           Ti1 tau(  13) = (   0.0282779   2.9853959  12.5065338  )
        14           Ti1 tau(  14) = (   3.3279724   1.4707331  12.5413945  )
        15           O1  tau(  15) = (   0.0378505   0.0859181  14.6860672  )
        16           O1  tau(  16) = (   3.3018867   0.0259462  14.0338077  )
        17           O1  tau(  17) = (   4.5998927   1.5484098  16.1661054  )
        18           O1  tau(  18) = (   2.0454451   1.5021798  16.2221046  )
        19           Ti1 tau(  19) = (   3.3206312   2.9825829  15.7321521  )
        20           Ti1 tau(  20) = (   0.0140791   1.4435866  15.9983415  )
        21           O1  tau(  21) = (   3.2904802   0.0005063   4.7018136  )
        22           O1  tau(  22) = (   6.5273045   5.8164216  17.2577718  )
        23           O1  tau(  23) = (   1.3043587   1.4918075   6.0039043  )
        24           O1  tau(  24) = (   5.2767064   1.4903225   6.0039473  )
        25           Ti1 tau(  25) = (   0.0000382   5.9609847   6.0000000  )
        26           Ti1 tau(  26) = (   3.2902200   4.4714249   6.0002472  )
        27           O1  tau(  27) = (   0.0002396   2.9813036   7.9858123  )
        28           O1  tau(  28) = (   3.2902150   2.9813002   7.3038282  )
        29           O1  tau(  29) = (   4.5938453   4.4726049   9.2879030  )
        30           O1  tau(  30) = (   1.9864658   4.4711199   9.2879459  )
        31           Ti1 tau(  31) = (   3.2891106   5.8743827   9.1763621  )
        32           Ti1 tau(  32) = (   0.0006254   4.4649316   9.2693709  )
        33           O1  tau(  33) = (   3.3068470   2.9864458  11.3814114  )
        34           O1  tau(  34) = (   0.0092240   2.9805883  10.6323155  )
        35           O1  tau(  35) = (   1.2982948   4.4740332  12.6840172  )
        36           O1  tau(  36) = (   5.3097620   4.4704985  12.6972095  )
        37           Ti1 tau(  37) = (   0.0348817   0.0130325  12.4954113  )
        38           Ti1 tau(  38) = (   3.3270268   4.4633798  12.5435021  )
        39           O1  tau(  39) = (   0.0563025   2.9439880  14.9425960  )
        40           O1  tau(  40) = (   3.2900316   2.9661073  13.9503945  )
        41           O1  tau(  41) = (   4.5967999   4.4093095  16.0633277  )
        42           O1  tau(  42) = (   2.0412097   4.4536800  16.1303113  )
        43           Ti1 tau(  43) = (   3.2964201   5.9600488  15.8742613  )
        44           Ti1 tau(  44) = (   0.0241369   4.6516137  15.8518307  )
        45           O1  tau(  45) = (   3.2900926   2.9813045   4.7018136  )
        46           O1  tau(  46) = (   1.3039711   4.4726057   6.0039043  )
        47           O1  tau(  47) = (   5.2763189   4.4711207   6.0039473  )
        48           N1  tau(  48) = (   1.4509408   2.7109095  18.7502185  )
        49           N1  tau(  49) = (   0.0917387   2.5303350  18.2207845  )
        50           C1  tau(  50) = (   1.9503960   3.7723240  19.2784661  )
        51           H1  tau(  51) = (   1.1612915   4.5273475  19.4152495  )
        52           H1  tau(  52) = (   2.0208952   1.9183395  18.4664618  )
        53           H1  tau(  53) = (   6.1377449   3.3539424  18.4987646  )
        54           H1  tau(  54) = (   6.2616785   1.7135167  18.6767212  )
        55           O1  tau(  55) = (   3.7012217   5.9496235  18.2853534  )
        56           H1  tau(  56) = (   4.6684668   5.8470116  18.1670174  )
        57           H1  tau(  57) = (   3.3852657   5.1278045  18.7338684  )

     number of k points=    10  Fermi-Dirac smearing, width (Ry)=  0.0073
                       cart. coord. in units 2pi/alat
        k(    1) = (   0.0000000   0.0000000   0.0000000), wk =   0.1250000
        k(    2) = (   0.0000000   0.0419351   0.0000000), wk =   0.2500000
        k(    3) = (   0.0000000  -0.0838702   0.0000000), wk =   0.1250000
        k(    4) = (   0.0379955   0.0000049   0.0000000), wk =   0.2500000
        k(    5) = (   0.0379955   0.0419400   0.0000000), wk =   0.2500000
        k(    6) = (   0.0379955  -0.0838652   0.0000000), wk =   0.2500000
        k(    7) = (   0.0379955  -0.0419301   0.0000000), wk =   0.2500000
        k(    8) = (  -0.0759910  -0.0000099   0.0000000), wk =   0.1250000
        k(    9) = (  -0.0759910   0.0419252   0.0000000), wk =   0.2500000
        k(   10) = (  -0.0759910  -0.0838800   0.0000000), wk =   0.1250000

     Initial potential from superposition of free atoms

     starting charge  387.99913, renormalised to  404.00000

     negative rho (up, down):  1.598E-02 0.000E+00

     %%%%%%%%%%%%%%%%%%%%%%%%%%%%%%%%%%%%%%%%%%%%%%%%%%%%%%%%%%%%%%%%%%%%%%%%
     %                                                                      %
     % You are using vdW-DF, which was implemented by the Thonhauser group. %
     % Please cite the following two papers that made this development      %
     % possible and the two reviews that describe the various versions:     %
     %                                                                      %
     %   T. Thonhauser et al., PRL 115, 136402 (2015).                      %
     %   T. Thonhauser et al., PRB 76, 125112 (2007).                       %
     %   K. Berland et al., Rep. Prog. Phys. 78, 066501 (2015).             %
     %   D.C. Langreth et al., J. Phys.: Condens. Matter 21, 084203 (2009). %
     %                                                                      %
     %                                                                      %
     % If you are calculating the stress with vdW-DF, please also cite:     %
     %                                                                      %
     %   R. Sabatini et al., J. Phys.: Condens. Matter 24, 424209 (2012).   %
     %                                                                      %
     %%%%%%%%%%%%%%%%%%%%%%%%%%%%%%%%%%%%%%%%%%%%%%%%%%%%%%%%%%%%%%%%%%%%%%%%

     Adding external electric field

     Computed dipole along edir(3) :
        Dipole              -14.3546 Ry au,        -36.4858 Debye
        Dipole field         -0.0271 Ry au,

        Potential amp.        2.5111 Ry
        Total length         46.3494 bohr

     Starting wfcs are  306 atomic wfcs
  @ DRIVER MODE: Message from server: STATUS
  @ DRIVER MODE: Message from server: POSDATA
  @ DRIVER MODE: Reading and sharing cell
  @ DRIVER MODE: Reading and sharing positions
  @ DRIVER MODE: Received positions

     Self-consistent Calculation

     iteration #  1     ecut=    29.40 Ry     beta= 0.05
     Davidson diagonalization with overlap
     c_bands:  3 eigenvalues not converged
     c_bands:  4 eigenvalues not converged
     c_bands:  4 eigenvalues not converged
     c_bands:  4 eigenvalues not converged
     c_bands:  3 eigenvalues not converged
     c_bands:  2 eigenvalues not converged
     c_bands:  4 eigenvalues not converged
     ethr =  1.00E-05,  avg # of iterations = 23.2

[...]

     total energy              =   -2220.94899642 Ry
     estimated scf accuracy    <    8587.10521875 Ry

     iteration #  2     ecut=    29.40 Ry     beta= 0.05
     Davidson diagonalization with overlap
     ethr =  1.00E-02,  avg # of iterations = 27.8

[...]

     iteration # 71     ecut=    29.40 Ry     beta= 0.05
     Davidson diagonalization with overlap
     c_bands:  1 eigenvalues not converged
     ethr =  1.01E-10,  avg # of iterations =  9.3

[...]

     total energy              =   -2975.10519439 Ry
     estimated scf accuracy    <       0.00000013 Ry

     iteration # 73     ecut=    29.40 Ry     beta= 0.05
     Davidson diagonalization with overlap
     ethr =  3.18E-11,  avg # of iterations =  8.8

     negative rho (up, down):  1.578E-02 0.000E+00

     Adding external electric field

     Computed dipole along edir(3) :
        Dipole                1.0252 Ry au,          2.6059 Debye
        Dipole field          0.0019 Ry au,

        Potential amp.       -0.1794 Ry
        Total length         46.3494 bohr

     End of self-consistent calculation

          k = 0.0000 0.0000 0.0000 ( 18029 PWs)   bands (ev):

   -55.3842 -55.3484 -55.3443 -55.3101 -55.3069 -55.3012 -55.2662 -55.2308
   -55.2157 -55.1808 -55.1742 -55.1588 -55.1405 -55.1112 -54.3757 -54.3417
   -31.9433 -31.8791 -31.8370 -31.7558 -31.7069 -31.7043 -31.6802 -31.6772
   -31.6330 -31.5973 -31.5901 -31.5888 -31.5818 -31.5783 -31.5602 -31.5582
   -31.5335 -31.5255 -31.5226 -31.5112 -31.4969 -31.4904 -31.4715 -31.4667
   -31.4584 -31.4453 -31.4447 -31.4159 -31.4015 -31.3978 -31.3948 -31.3726
   -31.3687 -31.3647 -31.3610 -31.3398 -31.3288 -31.3167 -31.3019 -31.3019
   -31.2916 -31.2853 -30.7852 -30.6907 -30.6686 -30.6016 -30.5148 -30.4039
   -18.8984 -18.4562 -16.2191 -15.9717 -15.8357 -15.7312 -15.5939 -15.4958
   -15.3866 -15.2734 -15.2503 -15.1566 -15.0822 -15.0779 -15.0408 -15.0154
   -14.9528 -14.9314 -14.9076 -14.9017 -14.8871 -14.8769 -14.8404 -14.8294
   -14.7954 -14.7855 -14.7683 -14.6369 -14.6240 -14.5509 -14.4804 -14.3431
   -12.8783 -12.7608  -9.8480  -7.0327  -6.3783  -6.0971  -4.4299  -3.7352
    -3.5429  -3.4093  -3.3309  -3.3016  -3.2847  -3.1531  -3.0604  -2.9012
    -2.8624  -2.8059  -2.6728  -2.5969  -2.5905  -2.5026  -2.4301  -2.4067
    -2.3739  -2.2646  -2.2583  -2.2077  -2.1911  -2.1680  -2.1588  -2.1120
    -2.0662  -2.0390  -1.9539  -1.8524  -1.8086  -1.7888  -1.7524  -1.7298
    -1.7249  -1.6814  -1.6752  -1.6513  -1.6127  -1.5884  -1.5428  -1.4310
    -1.3898  -1.2302  -1.1927  -1.0391  -1.0187  -0.9793  -0.9587  -0.9155
    -0.8915  -0.8757  -0.8569  -0.7712  -0.7130  -0.6455  -0.5826  -0.4922
    -0.4808  -0.4074  -0.3816  -0.3159  -0.2281  -0.1845  -0.1749  -0.1500
    -0.1466  -0.0325   0.0119   0.0721   0.0911   0.1483   0.1641   0.1862
     0.2563   0.3101   0.3793   0.4100   0.4892   0.5073   0.5424   0.5516
     0.5839   0.5944   0.6706   0.6854   0.7136   0.8163   0.9139   1.0067
     1.2170   1.2193   1.2523   1.5518   1.5540   1.6471   1.8305   2.2234
     2.2719   3.7056   3.7840   3.8336   3.8511   3.8557   3.9405   4.1951
     4.2094   4.2220   4.2283   4.2691

[...]

          k = 0.0380-0.0419 0.0000 ( 17876 PWs)   bands (ev):

[...]

          k =-0.0760-0.0000 0.0000 ( 17886 PWs)   bands (ev):

[...]

          k =-0.0760-0.0839 0.0000 ( 17948 PWs)   bands (ev):

   -55.3673 -55.3651 -55.3271 -55.3271 -55.3040 -55.3003 -55.2524 -55.2445
   -55.2014 -55.1947 -55.1607 -55.1587 -55.1562 -55.1130 -54.3587 -54.3586
   -31.7938 -31.7557 -31.7416 -31.6521 -31.6521 -31.6375 -31.6255 -31.6183
   -31.6182 -31.5974 -31.5923 -31.5892 -31.5663 -31.5585 -31.5466 -31.5328
   -31.5296 -31.5269 -31.5231 -31.5150 -31.5102 -31.5082 -31.5072 -31.4994
   -31.4680 -31.4660 -31.4469 -31.4469 -31.4465 -31.4415 -31.4388 -31.4343
   -31.4249 -31.4135 -31.4078 -31.3914 -31.3891 -31.3795 -31.3386 -31.3369
   -31.3364 -31.3176 -30.6813 -30.6813 -30.5978 -30.5976 -30.5582 -30.5582
   -18.8927 -18.4585 -15.8387 -15.6520 -15.5007 -15.4288 -15.4085 -15.3253
   -15.2699 -15.2665 -15.1935 -15.1754 -15.1630 -15.1414 -15.1318 -15.0846
   -15.0474 -15.0108 -14.9921 -14.9694 -14.9262 -14.9036 -14.9019 -14.8951
   -14.8874 -14.8472 -14.8419 -14.8386 -14.7469 -14.7449 -14.6984 -14.5536
   -12.8623 -12.8623  -9.8571  -7.0213  -6.3536  -6.0733  -4.4431  -3.6631
    -3.0237  -2.9101  -2.8996  -2.6708  -2.6522  -2.5911  -2.5786  -2.4907
    -2.4750  -2.4145  -2.3908  -2.3408  -2.3177  -2.2800  -2.2662  -2.2444
    -2.2233  -2.2096  -2.1829  -2.1669  -2.1499  -2.1303  -2.1193  -2.1079
    -2.0521  -2.0473  -2.0381  -2.0127  -1.9898  -1.9537  -1.9437  -1.9260
    -1.7720  -1.7563  -1.7349  -1.5994  -1.5951  -1.5598  -1.5209  -1.4933
    -1.4355  -1.4269  -1.3984  -1.3398  -1.1451  -1.1354  -1.1234  -1.1049
    -1.0342  -0.9789  -0.9652  -0.9465  -0.8934  -0.8156  -0.7800  -0.7291
    -0.6340  -0.5880  -0.5777  -0.5527  -0.4313  -0.4086  -0.3661  -0.3479
    -0.3318  -0.2974  -0.2958  -0.2360  -0.1853  -0.1502  -0.1273  -0.1130
    -0.0760   0.0790   0.1307   0.1470   0.2611   0.2907   0.4689   0.5117
     0.5332   0.6384   0.7216   0.7499   0.7640   0.8895   0.9116   0.9141
     0.9824   1.0046   1.0647   1.0705   1.2098   2.0032   2.0045   2.0917
     2.0919   3.8307   3.9533   3.9978   4.0336   4.1092   4.1624   4.2193
     4.2786   4.2901   4.2936   4.3609

     the Fermi energy is     3.7676 ev

!    total energy              =   -2975.10521871 Ry
     estimated scf accuracy    <       0.00000006 Ry
     smearing contrib. (-TS)   =      -0.03671769 Ry
     internal energy E=F+TS    =   -2975.06850102 Ry

     The total energy is F=E-TS. E is the sum of the following terms:
     one-electron contribution =  -23507.82344825 Ry
     hartree contribution      =   11849.93645905 Ry
     xc contribution           =    -494.91801909 Ry
     ewald contribution        =    9177.73452366 Ry
     electric field correction =       0.00198361 Ry

     convergence has been achieved in  73 iterations

     Forces acting on atoms (cartesian axes, Ry/au):

     atom    1 type  1   force =     0.00002896   -0.00025308    0.09309167
     atom    2 type  1   force =    -0.00018188   -0.00032472   -0.17835182
     atom    3 type  2   force =     0.00006095   -0.00017769   -0.02025873
     atom    4 type  2   force =     0.00001664   -0.00203922    0.05925142
     atom    5 type  2   force =    -0.01034360   -0.00110207    0.00808201
     atom    6 type  2   force =     0.01218889   -0.00054740    0.00816119
     atom    7 type  1   force =     0.00015477    0.00328472   -0.01110289
     atom    8 type  1   force =    -0.00030311    0.00051376   -0.00561788
     atom    9 type  2   force =     0.00004218    0.00017774   -0.00016740
     atom   10 type  2   force =    -0.00146537   -0.00005111   -0.00172326
     atom   11 type  2   force =     0.00038179   -0.00003351   -0.00006408
     atom   12 type  2   force =    -0.00010188    0.00010661   -0.00009254
     atom   13 type  1   force =    -0.00009315   -0.00016866   -0.00025396
     atom   14 type  1   force =    -0.00022501   -0.00036426    0.00034674
     atom   15 type  2   force =     0.00006720   -0.00050351    0.00007490
     atom   16 type  2   force =     0.00022800    0.00009054    0.00024450
     atom   17 type  2   force =     0.00034614   -0.00018640    0.00018427
     atom   18 type  2   force =    -0.00011179   -0.00024238   -0.00037112
     atom   19 type  1   force =    -0.00034304   -0.00044367    0.00005755
     atom   20 type  1   force =    -0.00002225    0.00021449    0.00035992
     atom   21 type  2   force =    -0.00000459   -0.00007663    0.10399659
     atom   22 type  2   force =    -0.00009507   -0.00000720    0.00001497
     atom   23 type  2   force =    -0.07034127   -0.00015867   -0.02683196
     atom   24 type  2   force =     0.07020892    0.00028822   -0.02690743
     atom   25 type  1   force =     0.00001820   -0.00014960    0.09276939
     atom   26 type  1   force =    -0.00015215   -0.00039051   -0.17832684
     atom   27 type  2   force =     0.00011060   -0.00029888   -0.01919572
     atom   28 type  2   force =     0.00004736   -0.00163096    0.05839625
     atom   29 type  2   force =    -0.01029088   -0.00063978    0.00728812
     atom   30 type  2   force =     0.01202788   -0.00030834    0.00742268
     atom   31 type  1   force =     0.00007782    0.00517060   -0.01466636
     atom   32 type  1   force =    -0.00013440   -0.00051873   -0.00595843
     atom   33 type  2   force =     0.00012845   -0.00039436   -0.00024863
     atom   34 type  2   force =    -0.00078840    0.00261799   -0.00104973
     atom   35 type  2   force =    -0.00006898   -0.00011759   -0.00012453
     atom   36 type  2   force =     0.00023679    0.00000047   -0.00015043
     atom   37 type  1   force =    -0.00044361    0.00007251    0.00003383
     atom   38 type  1   force =    -0.00002393   -0.00023926   -0.00022635
     atom   39 type  2   force =    -0.00029864   -0.00017590   -0.00015372
     atom   40 type  2   force =    -0.00013253   -0.00005825   -0.00004889
     atom   41 type  2   force =    -0.00012221   -0.00014417    0.00038568
     atom   42 type  2   force =    -0.00007856   -0.00018179    0.00002375
     atom   43 type  1   force =    -0.00005052   -0.00031765    0.00009898
     atom   44 type  1   force =     0.00001861   -0.00000672    0.00005972
     atom   45 type  2   force =     0.00000935   -0.00011006    0.10396579
     atom   46 type  2   force =    -0.07037032   -0.00012002   -0.02685675
     atom   47 type  2   force =     0.07021653    0.00031578   -0.02691503
     atom   48 type  3   force =     0.00052275    0.01121879    0.00939690
     atom   49 type  3   force =    -0.00144885   -0.00115993   -0.00173796
     atom   50 type  4   force =    -0.00136989   -0.00503363   -0.00375237
     atom   51 type  5   force =    -0.00048050   -0.00114872   -0.00037311
     atom   52 type  5   force =     0.00180195   -0.00409995   -0.00253968
     atom   53 type  5   force =     0.00037243    0.00009227   -0.00001124
     atom   54 type  5   force =     0.00067694    0.00041642    0.00006474
     atom   55 type  2   force =     0.00011069   -0.00005718    0.00059078
     atom   56 type  5   force =     0.00023876   -0.00037396   -0.00043537
     atom   57 type  5   force =    -0.00045319   -0.00022481    0.00015189

     Total force =     0.366557     Total SCF correction =     0.000632
  @ DRIVER MODE: Message from server: STATUS
  @ DRIVER MODE: Message from server: GETFORCE
  @ DRIVER MODE: Returning v,forces,stress,ensemble

     Writing output data file ./calc.save/
  @ DRIVER MODE: Message from server: EXIT
  @ DRIVE MODE: Exiting

     General routines

     Parallel routines

   This run was terminated on:  18: 9: 4  22Sep2021

   JOB DONE.