     Program PWSCF v.6.7GPU starts on 20Sep2021 at 20:51:12

     R & G space division:  proc/nbgrp/npool/nimage =      10
     Reading input from /storage/home/hcoda1/3/ntian30/research/carbon/CxH_vib/H2O_calc/ads_slab/CH3H2O_a/out_0012/pw.inp
Warning: card &CELL ignored
Warning: card   CELL_DYNAMICS='IPI', ignored
Warning: card / ignored

     Current dimensions of program PWSCF are:
     Max number of different atomic species (ntypx) = 10
     Max number of k-points (npk) =  40000
     Max angular momentum in pseudopotentials (lmaxx) =  3
     Presently no symmetry can be used with electric field

     Message from routine cell_base_init:
     DEPRECATED: use true lattice parameter, not A to a.u. conversion factor

     IMPORTANT: XC functional enforced from input :
     Exchange-correlation= BEEF-VDW
                           (   1   4  43  14   2   0   0)
     Any further DFT definition will be discarded
     Please, verify this is what you really want

  @ DRIVER MODE: Connecting to
 qe_1139763_2911776.sched-torque.pace.gatech.edu2gfw0hl6_scratch
  using UNIX socket
  @ DRIVER MODE: Message from server: STATUS
  @ DRIVER MODE: Message from server: INIT
  @ DRIVER MODE: Receiving replica           0          -1
  @ DRIVER MODE: Receiving encoded integer          25
  @ DRIVER MODE:  SCF:  T  FORCE:  T  STRESS:  F  VC:  F  ENSEMBLE:  F
  @ DRIVER MODE:  SCF:  T  FORCE:  T  STRESS:  F  VC:  F  ENSEMBLE:  F

     Using Slab Decomposition

     bravais-lattice index     =            0
     lattice parameter (alat)  =       1.8897  a.u.
     unit-cell volume          =    6658.9804 (a.u.)^3
     number of atoms/cell      =           54
     number of atomic types    =            4
     number of electrons       =       393.00
     number of Kohn-Sham states=          206
     kinetic-energy cutoff     =      29.3995  Ry
     charge density cutoff     =     293.9946  Ry
     scf convergence threshold =      7.3E-08
     mixing beta               =       0.0500
     number of iterations used =            8  plain     mixing
     Exchange-correlation= BEEF-VDW
                           (   1   4  43  14   2   0   0)

     celldm(1)=   1.889726  celldm(2)=   0.000000  celldm(3)=   0.000000
     celldm(4)=   0.000000  celldm(5)=   0.000000  celldm(6)=   0.000000

     crystal axes: (cart. coord. in units of alat)
               a(1) = (   6.579727   0.000000   0.000000 )
               a(2) = (  -0.000775   5.961596   0.000000 )
               a(3) = (   0.000000   0.000000  25.155947 )

     reciprocal axes: (cart. coord. in units 2 pi/alat)
               b(1) = (  0.151982  0.000020  0.000000 )
               b(2) = (  0.000000  0.167740  0.000000 )
               b(3) = (  0.000000  0.000000  0.039752 )

     PseudoPot. # 1 for Ti read from file:
     /storage/coda1/p-amedford6/0/shared/rich_project_chbe-medford/medford-share/data/pseudos_module/espresso/nninc/pbe/van/Ti.UPF
     MD5 check sum: 8e4df49b7f0d34bbd5052bf3f5ea0213
     Pseudo is Ultrasoft, Zval = 12.0
     Generated by new atomic code, or converted to UPF format
     Using radial grid of  851 points,  6 beta functions with:
                l(1) =   0
                l(2) =   0
                l(3) =   1
                l(4) =   1
                l(5) =   2
                l(6) =   2
     Q(r) pseudized with  8 coefficients,  rinner =    1.000   1.000   1.000
                                                       1.000   1.000

     PseudoPot. # 2 for O  read from file:
     /storage/coda1/p-amedford6/0/shared/rich_project_chbe-medford/medford-share/data/pseudos_module/espresso/nninc/pbe/van/O.UPF
     MD5 check sum: 78c19812648e8988a0fe644b0f25305e
     Pseudo is Ultrasoft, Zval =  6.0
     Generated by new atomic code, or converted to UPF format
     Using radial grid of  737 points,  4 beta functions with:
                l(1) =   0
                l(2) =   0
                l(3) =   1
                l(4) =   1
     Q(r) pseudized with  8 coefficients,  rinner =    0.800   0.800   0.800

     PseudoPot. # 3 for C  read from file:
     /storage/coda1/p-amedford6/0/shared/rich_project_chbe-medford/medford-share/data/pseudos_module/espresso/nninc/pbe/van/C.UPF
     MD5 check sum: 1a69bf6b8db32088f5b2163dbdb77a27
     Pseudo is Ultrasoft, Zval =  4.0
     Generated by new atomic code, or converted to UPF format
     Using radial grid of  721 points,  4 beta functions with:
                l(1) =   0
                l(2) =   0
                l(3) =   1
                l(4) =   1
     Q(r) pseudized with  8 coefficients,  rinner =    0.800   0.800   0.800

     PseudoPot. # 4 for H  read from file:
     /storage/coda1/p-amedford6/0/shared/rich_project_chbe-medford/medford-share/data/pseudos_module/espresso/nninc/pbe/van/H.UPF
     MD5 check sum: b5ee9d7bfd3a09ee7748110bda690ff7
     Pseudo is Ultrasoft, Zval =  1.0
     Generated by new atomic code, or converted to UPF format
     Using radial grid of  615 points,  1 beta functions with:
                l(1) =   0
     Q(r) pseudized with  8 coefficients,  rinner =    0.800

     atomic species   valence    mass     pseudopotential
        Ti1           12.00    47.86700     Ti( 1.00)
        O1             6.00    15.99900     O ( 1.00)
        C1             4.00    12.01100     C ( 1.00)
        H1             1.00     1.00800     H ( 1.00)

     No symmetry found

   Cartesian axes

     site n.     atom                  positions (alat units)
         1           Ti1 tau(   1) = (   0.0004258   2.9801865   6.0000000  )
         2           Ti1 tau(   2) = (   3.2906075   1.4906267   6.0002472  )
         3           O1  tau(   3) = (   0.0006271   0.0005054   7.9858123  )
         4           O1  tau(   4) = (   3.2906025   0.0005020   7.3038282  )
         5           O1  tau(   5) = (   4.5942328   1.4918067   9.2879030  )
         6           O1  tau(   6) = (   1.9868534   1.4903216   9.2879459  )
         7           Ti1 tau(   7) = (   3.3154911   2.9426235   9.1630835  )
         8           Ti1 tau(   8) = (   0.0285409   1.6075342   9.3657832  )
         9           O1  tau(   9) = (   3.2815087   0.0160907  11.3545821  )
        10           O1  tau(  10) = (   0.0024802   0.0106306  10.6007539  )
        11           O1  tau(  11) = (   1.2725489   1.5064038  12.6453836  )
        12           O1  tau(  12) = (   5.2753141   1.5150378  12.6350139  )
        13           Ti1 tau(  13) = (   0.0284581   2.9538459  12.7835337  )
        14           Ti1 tau(  14) = (   3.3388075   1.4895305  12.5082680  )
        15           O1  tau(  15) = (   6.5535251   0.0144872  14.6406477  )
        16           O1  tau(  16) = (   3.2781334   0.0285334  13.9682696  )
        17           O1  tau(  17) = (   4.5366274   1.5703088  16.0558364  )
        18           O1  tau(  18) = (   2.0012422   1.5648880  16.0484572  )
        19           Ti1 tau(  19) = (   3.2604835   3.0254881  15.6976271  )
        20           Ti1 tau(  20) = (   6.5333720   1.5229778  16.1593769  )
        21           O1  tau(  21) = (   3.2904802   0.0005063   4.7018136  )
        22           O1  tau(  22) = (   6.5574971   0.0350135  17.1872057  )
        23           O1  tau(  23) = (   1.3043587   1.4918075   6.0039043  )
        24           O1  tau(  24) = (   5.2767064   1.4903225   6.0039473  )
        25           Ti1 tau(  25) = (   0.0000382   5.9609847   6.0000000  )
        26           Ti1 tau(  26) = (   3.2902200   4.4714249   6.0002472  )
        27           O1  tau(  27) = (   0.0002396   2.9813036   7.9858123  )
        28           O1  tau(  28) = (   3.2902150   2.9813002   7.3038282  )
        29           O1  tau(  29) = (   4.5938453   4.4726049   9.2879030  )
        30           O1  tau(  30) = (   1.9864658   4.4711199   9.2879459  )
        31           Ti1 tau(  31) = (   3.3083403   5.9269411   9.1538128  )
        32           Ti1 tau(  32) = (   0.0303829   4.5362093   9.2612125  )
        33           O1  tau(  33) = (   3.2841341   2.9899418  11.3555480  )
        34           O1  tau(  34) = (   0.0038936   2.9924975  10.5838058  )
        35           O1  tau(  35) = (   1.2726398   4.4822405  12.6394144  )
        36           O1  tau(  36) = (   5.2736595   4.4864409  12.6303220  )
        37           Ti1 tau(  37) = (   0.0300145   5.9360250  12.5182071  )
        38           Ti1 tau(  38) = (   3.3377519   4.4811756  12.4937589  )
        39           O1  tau(  39) = (   6.5654514   3.0136449  14.7225067  )
        40           O1  tau(  40) = (   3.2707049   3.0114760  13.9116621  )
        41           O1  tau(  41) = (   4.5328936   4.4881537  16.0752462  )
        42           O1  tau(  42) = (   1.9999049   4.4921254  16.0707699  )
        43           Ti1 tau(  43) = (   3.2502456   0.0519323  15.7983500  )
        44           Ti1 tau(  44) = (   6.5407796   4.6451211  15.8442649  )
        45           O1  tau(  45) = (   3.2900926   2.9813045   4.7018136  )
        46           O1  tau(  46) = (   1.3039711   4.4726057   6.0039043  )
        47           O1  tau(  47) = (   5.2763189   4.4711207   6.0039473  )
        48           C1  tau(  48) = (   6.5619928   2.8946514  17.8930439  )
        49           H1  tau(  49) = (   6.5552299   3.9601472  18.1296503  )
        50           H1  tau(  50) = (   0.8760557   2.4850835  18.3732843  )
        51           H1  tau(  51) = (   5.6817198   2.4733575  18.3891814  )
        52           O1  tau(  52) = (   3.2572702   0.1178616  18.1992317  )
        53           H1  tau(  53) = (   4.0330629   5.5870706  18.5079137  )
        54           H1  tau(  54) = (   2.4710694   5.5989049  18.5058656  )

     number of k points=    10  Fermi-Dirac smearing, width (Ry)=  0.0073
                       cart. coord. in units 2pi/alat
        k(    1) = (   0.0000000   0.0000000   0.0000000), wk =   0.1250000
        k(    2) = (   0.0000000   0.0419351   0.0000000), wk =   0.2500000
        k(    3) = (   0.0000000  -0.0838702   0.0000000), wk =   0.1250000
        k(    4) = (   0.0379955   0.0000049   0.0000000), wk =   0.2500000
        k(    5) = (   0.0379955   0.0419400   0.0000000), wk =   0.2500000
        k(    6) = (   0.0379955  -0.0838652   0.0000000), wk =   0.2500000
        k(    7) = (   0.0379955  -0.0419301   0.0000000), wk =   0.2500000
        k(    8) = (  -0.0759910  -0.0000099   0.0000000), wk =   0.1250000
        k(    9) = (  -0.0759910   0.0419252   0.0000000), wk =   0.2500000
        k(   10) = (  -0.0759910  -0.0838800   0.0000000), wk =   0.1250000

     Initial potential from superposition of free atoms

     starting charge  376.99916, renormalised to  393.00000

     negative rho (up, down):  1.842E-02 0.000E+00

     %%%%%%%%%%%%%%%%%%%%%%%%%%%%%%%%%%%%%%%%%%%%%%%%%%%%%%%%%%%%%%%%%%%%%%%%
     %                                                                      %
     % You are using vdW-DF, which was implemented by the Thonhauser group. %
     % Please cite the following two papers that made this development      %
     % possible and the two reviews that describe the various versions:     %
     %                                                                      %
     %   T. Thonhauser et al., PRL 115, 136402 (2015).                      %
     %   T. Thonhauser et al., PRB 76, 125112 (2007).                       %
     %   K. Berland et al., Rep. Prog. Phys. 78, 066501 (2015).             %
     %   D.C. Langreth et al., J. Phys.: Condens. Matter 21, 084203 (2009). %
     %                                                                      %
     %                                                                      %
     % If you are calculating the stress with vdW-DF, please also cite:     %
     %                                                                      %
     %   R. Sabatini et al., J. Phys.: Condens. Matter 24, 424209 (2012).   %
     %                                                                      %
     %%%%%%%%%%%%%%%%%%%%%%%%%%%%%%%%%%%%%%%%%%%%%%%%%%%%%%%%%%%%%%%%%%%%%%%%

     Adding external electric field

     Computed dipole along edir(3) :
        Dipole               -6.6605 Ry au,        -16.9294 Debye
        Dipole field         -0.0126 Ry au,

        Potential amp.        1.1652 Ry
        Total length         46.3494 bohr

     Starting wfcs are  297 atomic wfcs
  @ DRIVER MODE: Message from server: STATUS
  @ DRIVER MODE: Message from server: POSDATA
  @ DRIVER MODE: Reading and sharing cell
  @ DRIVER MODE: Reading and sharing positions
  @ DRIVER MODE: Received positions

     Self-consistent Calculation

     iteration #  1     ecut=    29.40 Ry     beta= 0.05
     Davidson diagonalization with overlap
     c_bands:  2 eigenvalues not converged
     c_bands:  2 eigenvalues not converged
     c_bands:  2 eigenvalues not converged
     c_bands:  1 eigenvalues not converged
     c_bands:  1 eigenvalues not converged
     ethr =  1.00E-05,  avg # of iterations = 18.0

[...]

     total energy              =   -2713.81020122 Ry
     estimated scf accuracy    <    2414.43229663 Ry

[...]

     iteration #  3     ecut=    29.40 Ry     beta= 0.05
     Davidson diagonalization with overlap
     ethr =  1.00E-02,  avg # of iterations = 16.0

[...]

     iteration # 57     ecut=    29.40 Ry     beta= 0.05
     Davidson diagonalization with overlap
     c_bands:  1 eigenvalues not converged
     ethr =  1.00E-10,  avg # of iterations = 11.2

[...]

     total energy              =   -2933.86690011 Ry
     estimated scf accuracy    <       0.00000013 Ry

     iteration # 60     ecut=    29.40 Ry     beta= 0.05
     Davidson diagonalization with overlap
     ethr =  3.43E-11,  avg # of iterations =  2.4

     negative rho (up, down):  1.750E-02 0.000E+00

     Adding external electric field

     Computed dipole along edir(3) :
        Dipole                0.8210 Ry au,          2.0868 Debye
        Dipole field          0.0015 Ry au,

        Potential amp.       -0.1436 Ry
        Total length         46.3494 bohr

     End of self-consistent calculation

          k = 0.0000 0.0000 0.0000 ( 18029 PWs)   bands (ev):

   -55.8888 -55.8528 -55.8460 -55.8200 -55.8095 -55.7780 -55.7450 -55.6893
   -55.6590 -55.6498 -55.6167 -55.6092 -55.5519 -55.5507 -54.8982 -54.8641
   -32.4035 -32.3577 -32.2612 -32.2401 -32.1806 -32.1607 -32.1598 -32.1263
   -32.1160 -32.1067 -32.0872 -32.0824 -32.0638 -32.0487 -32.0470 -32.0295
   -31.9976 -31.9917 -31.9798 -31.9787 -31.9536 -31.9505 -31.9451 -31.9299
   -31.9268 -31.9039 -31.9005 -31.8872 -31.8818 -31.8737 -31.8711 -31.8455
   -31.8211 -31.8067 -31.7931 -31.7910 -31.7689 -31.7560 -31.7522 -31.7364
   -31.7355 -31.6596 -31.3078 -31.2114 -31.1890 -31.1243 -31.0382 -30.9272
   -19.3369 -16.6138 -16.3377 -16.1888 -16.0503 -16.0141 -15.8144 -15.7023
   -15.5820 -15.5454 -15.4860 -15.4654 -15.4337 -15.4137 -15.4108 -15.3969
   -15.3892 -15.3367 -15.3278 -15.2926 -15.2910 -15.2644 -15.2090 -15.1637
   -15.1090 -15.0558 -15.0074 -14.9411 -14.8844 -14.8737 -13.3990 -13.2810
    -9.2963  -7.1385  -3.9849  -3.8330  -3.8153  -3.7802  -3.7183  -3.6259
    -3.4762  -3.3644  -3.2220  -3.0746  -3.0241  -3.0100  -3.0051  -2.9813
    -2.8810  -2.7582  -2.7328  -2.7052  -2.7000  -2.6812  -2.6802  -2.6421
    -2.5981  -2.5873  -2.5520  -2.5389  -2.3869  -2.3184  -2.3016  -2.2607
    -2.1991  -2.1902  -2.1557  -2.1414  -2.1331  -2.0962  -2.0785  -2.0318
    -1.9807  -1.9103  -1.8271  -1.7712  -1.6714  -1.5811  -1.5204  -1.4648
    -1.4323  -1.3327  -1.3154  -1.2883  -1.2165  -1.1895  -1.1216  -1.0717
    -0.9802  -0.9048  -0.8865  -0.8357  -0.7867  -0.6717  -0.6482  -0.6206
    -0.6156  -0.6014  -0.5789  -0.4213  -0.3946  -0.3302  -0.3216  -0.2096
    -0.2055  -0.1753  -0.1577  -0.0992  -0.0701   0.0006   0.0377   0.0785
     0.0881   0.1117   0.1220   0.1347   0.2258   0.3166   0.3414   0.4125
     0.4493   0.5656   0.6433   0.7608   0.8526   1.0331   1.0685   1.1260
     1.2026   1.2981   1.7127   1.7716   3.2963   3.3427   3.3627   3.3838
     3.4116   3.5428   3.6639   3.7483   3.7735   3.8056

[...]

          k = 0.0380-0.0419 0.0000 ( 17876 PWs)   bands (ev):

[...]

          k =-0.0760-0.0000 0.0000 ( 17886 PWs)   bands (ev):

[...]

          k =-0.0760-0.0839 0.0000 ( 17948 PWs)   bands (ev):

   -55.8767 -55.8648 -55.8302 -55.8251 -55.8176 -55.7635 -55.7596 -55.6914
   -55.6554 -55.6346 -55.6325 -55.6048 -55.5563 -55.5534 -54.8816 -54.8806
   -32.2159 -32.1994 -32.1809 -32.1689 -32.1671 -32.1503 -32.1221 -32.1184
   -32.1000 -32.0976 -32.0959 -32.0440 -32.0350 -32.0339 -32.0142 -32.0025
   -31.9973 -31.9965 -31.9950 -31.9937 -31.9908 -31.9772 -31.9720 -31.9645
   -31.9548 -31.9534 -31.9492 -31.9094 -31.8893 -31.8888 -31.8811 -31.8800
   -31.8597 -31.8392 -31.8374 -31.8294 -31.8172 -31.7976 -31.7955 -31.7787
   -31.7463 -31.7063 -31.2023 -31.2010 -31.1212 -31.1203 -31.0817 -31.0808
   -19.3361 -16.0765 -15.9641 -15.8464 -15.7693 -15.7472 -15.7128 -15.6638
   -15.6581 -15.5966 -15.5909 -15.5429 -15.5325 -15.5052 -15.4797 -15.4358
   -15.4145 -15.3939 -15.3730 -15.3374 -15.3165 -15.3062 -15.2679 -15.2560
   -15.2437 -15.2159 -15.2042 -15.1418 -15.0979 -15.0540 -13.3831 -13.3815
    -9.3118  -7.1318  -3.7133  -3.3627  -3.1702  -3.1132  -3.0140  -2.9641
    -2.9545  -2.8843  -2.8303  -2.8172  -2.7802  -2.7637  -2.7624  -2.7221
    -2.7196  -2.7063  -2.6743  -2.6710  -2.6607  -2.6294  -2.5826  -2.5680
    -2.5527  -2.5152  -2.4987  -2.4954  -2.4556  -2.4389  -2.4323  -2.4252
    -2.3854  -2.3737  -2.2086  -2.1488  -2.1187  -2.0406  -2.0215  -1.9890
    -1.9795  -1.9510  -1.9281  -1.8902  -1.7512  -1.7128  -1.7095  -1.6282
    -1.6024  -1.5756  -1.4685  -1.4047  -1.3774  -1.3684  -1.3022  -1.2641
    -1.2296  -1.1253  -1.0936  -1.0436  -0.9876  -0.9738  -0.9301  -0.8498
    -0.8437  -0.8091  -0.7934  -0.7704  -0.6524  -0.6090  -0.5989  -0.5511
    -0.5264  -0.5074  -0.4421  -0.4028  -0.4000  -0.3386  -0.2779  -0.2224
     0.0231   0.1252   0.1401   0.1602   0.2292   0.2786   0.4203   0.4338
     0.4426   0.5028   0.5595   0.6377   0.6629   0.6663   0.7448   1.1707
     1.4866   1.4879   1.5759   1.5853   3.5221   3.5262   3.5918   3.6324
     3.7587   3.7639   3.7841   3.7879   3.9034   3.9390

     the Fermi energy is     3.2650 ev

!    total energy              =   -2933.86694477 Ry
     estimated scf accuracy    <       0.00000006 Ry
     smearing contrib. (-TS)   =      -0.02305464 Ry
     internal energy E=F+TS    =   -2933.84389012 Ry

     The total energy is F=E-TS. E is the sum of the following terms:
     one-electron contribution =  -24503.59217051 Ry
     hartree contribution      =   12338.72652075 Ry
     xc contribution           =    -483.57399244 Ry
     ewald contribution        =    9714.59447999 Ry
     electric field correction =       0.00127208 Ry

     convergence has been achieved in  60 iterations

     Forces acting on atoms (cartesian axes, Ry/au):

     atom    1 type  1   force =    -0.00010876   -0.00195408    0.10544919
     atom    2 type  1   force =    -0.00038635    0.00131747   -0.17934064
     atom    3 type  2   force =     0.00026148   -0.00510451   -0.03369035
     atom    4 type  2   force =     0.00051662   -0.00077815    0.04636378
     atom    5 type  2   force =    -0.01892858   -0.00017661    0.00449147
     atom    6 type  2   force =     0.01982428    0.00140094    0.00400307
     atom    7 type  1   force =    -0.00040910   -0.00013569   -0.00041743
     atom    8 type  1   force =     0.00015703    0.00075183    0.00129692
     atom    9 type  2   force =     0.00011985   -0.00045458   -0.00099498
     atom   10 type  2   force =     0.00008469    0.00006693   -0.00008429
     atom   11 type  2   force =    -0.00055293   -0.00010950    0.00015919
     atom   12 type  2   force =     0.00099352   -0.00002793    0.00020959
     atom   13 type  1   force =    -0.00047601   -0.00078257    0.00050453
     atom   14 type  1   force =    -0.00029204   -0.00002683    0.00074867
     atom   15 type  2   force =     0.00004008   -0.00020256    0.00117502
     atom   16 type  2   force =    -0.00011501   -0.00003242   -0.00008981
     atom   17 type  2   force =    -0.00034990   -0.00043486    0.00010052
     atom   18 type  2   force =     0.00051333   -0.00014683    0.00005792
     atom   19 type  1   force =    -0.00102977    0.00024978    0.00085708
     atom   20 type  1   force =     0.00063150   -0.00045314   -0.00023040
     atom   21 type  2   force =    -0.00001365   -0.00000360    0.10410524
     atom   22 type  2   force =    -0.00027081   -0.00009504   -0.00002597
     atom   23 type  2   force =    -0.06930720    0.00064586   -0.02952591
     atom   24 type  2   force =     0.06902244    0.00108261   -0.02958712
     atom   25 type  1   force =    -0.00014235    0.00132443    0.11500473
     atom   26 type  1   force =    -0.00023501   -0.00148562   -0.17963829
     atom   27 type  2   force =     0.00036281    0.00379392   -0.02634115
     atom   28 type  2   force =     0.00059802   -0.00051761    0.04863244
     atom   29 type  2   force =    -0.01842506    0.00190836    0.00401746
     atom   30 type  2   force =     0.01789281    0.00351963    0.00329044
     atom   31 type  1   force =    -0.00050680    0.00059284    0.00006598
     atom   32 type  1   force =     0.00013775   -0.00150825    0.00084450
     atom   33 type  2   force =    -0.00015635    0.00046896   -0.00158929
     atom   34 type  2   force =     0.00001790   -0.00083437   -0.00159887
     atom   35 type  2   force =     0.00011711    0.00020706   -0.00029917
     atom   36 type  2   force =     0.00031581    0.00018877   -0.00027636
     atom   37 type  1   force =     0.00009361    0.00044746   -0.00062466
     atom   38 type  1   force =    -0.00010912    0.00074794    0.00042343
     atom   39 type  2   force =    -0.00009805    0.00013242   -0.00005304
     atom   40 type  2   force =     0.00040498    0.00042221    0.00023459
     atom   41 type  2   force =    -0.00073169   -0.00055108   -0.00036200
     atom   42 type  2   force =     0.00096051   -0.00054141   -0.00049277
     atom   43 type  1   force =    -0.00068403    0.00003750    0.00053342
     atom   44 type  1   force =     0.00061210   -0.00044467   -0.00017145
     atom   45 type  2   force =    -0.00002681   -0.00001989    0.10408552
     atom   46 type  2   force =    -0.06885723   -0.00086057   -0.02955600
     atom   47 type  2   force =     0.06866107   -0.00047643   -0.02961825
     atom   48 type  3   force =    -0.00020988    0.00256669    0.00041023
     atom   49 type  4   force =    -0.00002166   -0.00157962   -0.00301498
     atom   50 type  4   force =     0.00062400   -0.00060876    0.00030385
     atom   51 type  4   force =    -0.00054018   -0.00064116    0.00031895
     atom   52 type  2   force =    -0.00053319    0.00071563   -0.00135084
     atom   53 type  4   force =     0.00089850   -0.00110082    0.00080487
     atom   54 type  4   force =    -0.00034427   -0.00050004    0.00048144

     Total force =     0.375386     Total SCF correction =     0.000609
  @ DRIVER MODE: Message from server: STATUS
  @ DRIVER MODE: Message from server: GETFORCE
  @ DRIVER MODE: Returning v,forces,stress,ensemble

     Writing output data file ./calc.save/
  @ DRIVER MODE: Message from server: EXIT
  @ DRIVE MODE: Exiting

     General routines

     Parallel routines

   This run was terminated on:  21:23:43  20Sep2021

   JOB DONE.