     Program PWSCF v.6.7GPU starts on 18Oct2021 at 18:34:19

     R & G space division:  proc/nbgrp/npool/nimage =       8
     Reading input from /storage/home/hcoda1/3/ntian30/research/carbon/CxH_vib/Thiel_calc/ads_slab/NH2NH3H_perslab/out_0015/pw.inp
Warning: card &CELL ignored
Warning: card   CELL_DYNAMICS='IPI', ignored
Warning: card / ignored

     Current dimensions of program PWSCF are:
     Max number of different atomic species (ntypx) = 10
     Max number of k-points (npk) =  40000
     Max angular momentum in pseudopotentials (lmaxx) =  3
     Presently no symmetry can be used with electric field

     Message from routine cell_base_init:
     DEPRECATED: use true lattice parameter, not A to a.u. conversion factor

     IMPORTANT: XC functional enforced from input :
     Exchange-correlation= BEEF-VDW
                           (   1   4  43  14   2   0   0)
     Any further DFT definition will be discarded
     Please, verify this is what you really want

  @ DRIVER MODE: Connecting to
 qe_1139763_3255138.sched-torque.pace.gatech.eduzdk_ubts_scratch
  using UNIX socket
  @ DRIVER MODE: Message from server: STATUS
  @ DRIVER MODE: Message from server: INIT
  @ DRIVER MODE: Receiving replica           0          -1
  @ DRIVER MODE: Receiving encoded integer          25
  @ DRIVER MODE:  SCF:  T  FORCE:  T  STRESS:  F  VC:  F  ENSEMBLE:  F
  @ DRIVER MODE:  SCF:  T  FORCE:  T  STRESS:  F  VC:  F  ENSEMBLE:  F

     Using Slab Decomposition

     bravais-lattice index     =            0
     lattice parameter (alat)  =       1.8897  a.u.
     unit-cell volume          =    9988.4706 (a.u.)^3
     number of atoms/cell      =           61
     number of atomic types    =            4
     number of electrons       =       442.00
     number of Kohn-Sham states=          231
     kinetic-energy cutoff     =      29.3995  Ry
     charge density cutoff     =     293.9946  Ry
     scf convergence threshold =      7.3E-08
     mixing beta               =       0.0500
     number of iterations used =            8  plain     mixing
     Exchange-correlation= BEEF-VDW
                           (   1   4  43  14   2   0   0)

     celldm(1)=   1.889726  celldm(2)=   0.000000  celldm(3)=   0.000000
     celldm(4)=   0.000000  celldm(5)=   0.000000  celldm(6)=   0.000000

     crystal axes: (cart. coord. in units of alat)
               a(1) = (   6.579727   0.000000   0.000000 )
               a(2) = (  -0.001163   8.942395   0.000000 )
               a(3) = (   0.000000   0.000000  25.155947 )

     reciprocal axes: (cart. coord. in units 2 pi/alat)
               b(1) = (  0.151982  0.000020  0.000000 )
               b(2) = (  0.000000  0.111827  0.000000 )
               b(3) = (  0.000000  0.000000  0.039752 )

     PseudoPot. # 1 for O  read from file:
     /storage/coda1/p-amedford6/0/shared/rich_project_chbe-medford/medford-share/data/pseudos_module/espresso/nninc/pbe/van/O.UPF
     MD5 check sum: 78c19812648e8988a0fe644b0f25305e
     Pseudo is Ultrasoft, Zval =  6.0
     Generated by new atomic code, or converted to UPF format
     Using radial grid of  737 points,  4 beta functions with:
                l(1) =   0
                l(2) =   0
                l(3) =   1
                l(4) =   1
     Q(r) pseudized with  8 coefficients,  rinner =    0.800   0.800   0.800

     PseudoPot. # 2 for Ti read from file:
     /storage/coda1/p-amedford6/0/shared/rich_project_chbe-medford/medford-share/data/pseudos_module/espresso/nninc/pbe/van/Ti.UPF
     MD5 check sum: 8e4df49b7f0d34bbd5052bf3f5ea0213
     Pseudo is Ultrasoft, Zval = 12.0
     Generated by new atomic code, or converted to UPF format
     Using radial grid of  851 points,  6 beta functions with:
                l(1) =   0
                l(2) =   0
                l(3) =   1
                l(4) =   1
                l(5) =   2
                l(6) =   2
     Q(r) pseudized with  8 coefficients,  rinner =    1.000   1.000   1.000
                                                       1.000   1.000

     PseudoPot. # 3 for N  read from file:
     /storage/coda1/p-amedford6/0/shared/rich_project_chbe-medford/medford-share/data/pseudos_module/espresso/nninc/pbe/van/N.UPF
     MD5 check sum: 90d10febe142ad51ac9d5be1deb811c4
     Pseudo is Ultrasoft, Zval =  5.0
     Generated by new atomic code, or converted to UPF format
     Using radial grid of  729 points,  4 beta functions with:
                l(1) =   0
                l(2) =   0
                l(3) =   1
                l(4) =   1
     Q(r) pseudized with  8 coefficients,  rinner =    0.800   0.800   0.800

     PseudoPot. # 4 for H  read from file:
     /storage/coda1/p-amedford6/0/shared/rich_project_chbe-medford/medford-share/data/pseudos_module/espresso/nninc/pbe/van/H.UPF
     MD5 check sum: b5ee9d7bfd3a09ee7748110bda690ff7
     Pseudo is Ultrasoft, Zval =  1.0
     Generated by new atomic code, or converted to UPF format
     Using radial grid of  615 points,  1 beta functions with:
                l(1) =   0
     Q(r) pseudized with  8 coefficients,  rinner =    0.800

     atomic species   valence    mass     pseudopotential
        O1             6.00    15.99900     O ( 1.00)
        Ti1           12.00    47.86700     Ti( 1.00)
        N1             5.00    14.00700     N ( 1.00)
        H1             1.00     1.00800     H ( 1.00)

     No symmetry found

   Cartesian axes

     site n.     atom                  positions (alat units)
         1           O1  tau(   1) = (   0.0007354   0.0005023  10.5931620  )
         2           O1  tau(   2) = (   3.2893251   8.9324977  13.8850595  )
         3           O1  tau(   3) = (   0.0000810   0.0519898  17.3357851  )
         4           O1  tau(   4) = (   0.0006271   0.0005054   7.9858123  )
         5           O1  tau(   5) = (   3.2891750   8.9291278  11.1853435  )
         6           O1  tau(   6) = (   0.0004222   0.0485762  14.6167438  )
         7           O1  tau(   7) = (   1.9868534   1.4903216   9.2879459  )
         8           O1  tau(   8) = (   5.2393499   1.5905449  12.5682489  )
         9           O1  tau(   9) = (   1.9991366   1.5492019  16.1124644  )
        10           Ti1 tau(  10) = (   0.0007404   1.4906270   9.2895810  )
        11           Ti1 tau(  11) = (   3.2902999   1.3249318  12.4520864  )
        12           Ti1 tau(  12) = (   0.0005939   1.3452645  15.7597600  )
        13           O1  tau(  13) = (   4.5942328   1.4918067   9.2879030  )
        14           O1  tau(  14) = (   1.3411764   1.5910169  12.5684512  )
        15           O1  tau(  15) = (   4.5798538   1.5480364  16.1129854  )
        16           Ti1 tau(  16) = (   3.2902859   2.9801868   9.2893338  )
        17           Ti1 tau(  17) = (   0.0006295   2.8174385  12.4372122  )
        18           Ti1 tau(  18) = (   3.2897038   2.9127836  15.6935398  )
        19           O1  tau(  19) = (   0.0003479   2.9813005  10.5931620  )
        20           O1  tau(  20) = (   3.2904107   2.9319293  13.8952334  )
        21           O1  tau(  21) = (   0.0002396   2.9813036   7.9858123  )
        22           O1  tau(  22) = (   3.2903884   2.9732875  11.2024877  )
        23           O1  tau(  23) = (   6.5791771   2.9400465  14.7470945  )
        24           O1  tau(  24) = (   1.9864658   4.4711199   9.2879459  )
        25           O1  tau(  25) = (   5.2507180   4.5586503  12.6053682  )
        26           O1  tau(  26) = (   1.9989508   4.4013585  16.0758979  )
        27           Ti1 tau(  27) = (   0.0003529   4.4714252   9.2895810  )
        28           Ti1 tau(  28) = (   3.2908498   4.3294621  12.5515864  )
        29           Ti1 tau(  29) = (   0.0012874   4.5361023  15.7587160  )
        30           O1  tau(  30) = (   4.5938453   4.4726049   9.2879030  )
        31           O1  tau(  31) = (   1.3295807   4.5581274  12.6051842  )
        32           O1  tau(  32) = (   4.5807093   4.4011557  16.0767203  )
        33           Ti1 tau(  33) = (   3.2898983   5.9609850   9.2893338  )
        34           Ti1 tau(  34) = (   0.0011720   5.8030845  12.4395124  )
        35           Ti1 tau(  35) = (   3.2913837   5.8399099  16.1904745  )
        36           O1  tau(  36) = (  -0.0000397   5.9620987  10.5931620  )
        37           O1  tau(  37) = (   3.2897076   5.9457256  13.9643012  )
        38           O1  tau(  38) = (   0.0001823   5.8979554  17.1998916  )
        39           O1  tau(  39) = (  -0.0001480   5.9621018   7.9858123  )
        40           O1  tau(  40) = (   3.2897623   5.9362706  11.2341171  )
        41           O1  tau(  41) = (   0.0004469   5.9800359  14.6665197  )
        42           O1  tau(  42) = (   1.9860782   7.4519181   9.2879459  )
        43           O1  tau(  43) = (   5.2507221   7.5245448  12.5933772  )
        44           O1  tau(  44) = (   1.9799843   7.5745874  16.0532815  )
        45           Ti1 tau(  45) = (  -0.0000347   7.4522234   9.2895810  )
        46           Ti1 tau(  46) = (   3.2894177   7.1911746  12.6495270  )
        47           Ti1 tau(  47) = (   0.0007314   7.2822180  16.1322395  )
        48           O1  tau(  48) = (   4.5934577   7.4534031   9.2879030  )
        49           O1  tau(  49) = (   1.3275845   7.5244469  12.5935105  )
        50           O1  tau(  50) = (   4.5990354   7.5728923  16.0522427  )
        51           Ti1 tau(  51) = (   3.2895107   8.9417832   9.2893338  )
        52           Ti1 tau(  52) = (  -0.0007012   8.7603021  12.4499776  )
        53           Ti1 tau(  53) = (   3.2901857   8.8509785  15.6953962  )
        54           N1  tau(  54) = (   3.2899770   5.9827455  18.1265562  )
        55           H1  tau(  55) = (   3.2886311   5.2071789  18.7771882  )
        56           H1  tau(  56) = (   3.2869209   6.8441504  18.6418389  )
        57           H1  tau(  57) = (   6.5771076   8.8877891  18.2917622  )
        58           N1  tau(  58) = (   6.5788838   3.2021548  17.9140464  )
        59           H1  tau(  59) = (   6.5785461   2.2502248  18.2648563  )
        60           H1  tau(  60) = (   5.7591345   3.6762813  18.2792932  )
        61           H1  tau(  61) = (   0.8178175   3.6764091  18.2810048  )

     number of k points=    10  Fermi-Dirac smearing, width (Ry)=  0.0073
                       cart. coord. in units 2pi/alat
        k(    1) = (   0.0000000   0.0000000   0.0000000), wk =   0.1250000
        k(    2) = (   0.0000000   0.0279567   0.0000000), wk =   0.2500000
        k(    3) = (   0.0000000  -0.0559134   0.0000000), wk =   0.1250000
        k(    4) = (   0.0379955   0.0000049   0.0000000), wk =   0.2500000
        k(    5) = (   0.0379955   0.0279617   0.0000000), wk =   0.2500000
        k(    6) = (   0.0379955  -0.0559085   0.0000000), wk =   0.2500000
        k(    7) = (   0.0379955  -0.0279518   0.0000000), wk =   0.2500000
        k(    8) = (  -0.0759910  -0.0000099   0.0000000), wk =   0.1250000
        k(    9) = (  -0.0759910   0.0279468   0.0000000), wk =   0.2500000
        k(   10) = (  -0.0759910  -0.0559233   0.0000000), wk =   0.1250000

     Initial potential from superposition of free atoms

     starting charge  423.99908, renormalised to  442.00000

     negative rho (up, down):  3.661E-02 0.000E+00

     %%%%%%%%%%%%%%%%%%%%%%%%%%%%%%%%%%%%%%%%%%%%%%%%%%%%%%%%%%%%%%%%%%%%%%%%
     %                                                                      %
     % You are using vdW-DF, which was implemented by the Thonhauser group. %
     % Please cite the following two papers that made this development      %
     % possible and the two reviews that describe the various versions:     %
     %                                                                      %
     %   T. Thonhauser et al., PRL 115, 136402 (2015).                      %
     %   T. Thonhauser et al., PRB 76, 125112 (2007).                       %
     %   K. Berland et al., Rep. Prog. Phys. 78, 066501 (2015).             %
     %   D.C. Langreth et al., J. Phys.: Condens. Matter 21, 084203 (2009). %
     %                                                                      %
     %                                                                      %
     % If you are calculating the stress with vdW-DF, please also cite:     %
     %                                                                      %
     %   R. Sabatini et al., J. Phys.: Condens. Matter 24, 424209 (2012).   %
     %                                                                      %
     %%%%%%%%%%%%%%%%%%%%%%%%%%%%%%%%%%%%%%%%%%%%%%%%%%%%%%%%%%%%%%%%%%%%%%%%

     Adding external electric field

     Computed dipole along edir(3) :
        Dipole               -6.2843 Ry au,        -15.9732 Debye
        Dipole field         -0.0079 Ry au,

        Potential amp.        0.7329 Ry
        Total length         46.3494 bohr

     Starting wfcs are  334 atomic wfcs
  @ DRIVER MODE: Message from server: STATUS
  @ DRIVER MODE: Message from server: POSDATA
  @ DRIVER MODE: Reading and sharing cell
  @ DRIVER MODE: Reading and sharing positions
  @ DRIVER MODE: Received positions

     Self-consistent Calculation

     iteration #  1     ecut=    29.40 Ry     beta= 0.05
     Davidson diagonalization with overlap
     c_bands:  1 eigenvalues not converged
     c_bands:  3 eigenvalues not converged
     c_bands:  3 eigenvalues not converged
     c_bands:  4 eigenvalues not converged
     c_bands:  5 eigenvalues not converged
     c_bands:  5 eigenvalues not converged
     c_bands:  5 eigenvalues not converged
     c_bands:  3 eigenvalues not converged
     c_bands:  2 eigenvalues not converged
     c_bands:  2 eigenvalues not converged
     ethr =  1.00E-05,  avg # of iterations = 20.0

[...]

     total energy              =   -3276.49706391 Ry
     estimated scf accuracy    <     256.19635829 Ry

     iteration #  2     ecut=    29.40 Ry     beta= 0.05
     Davidson diagonalization with overlap
     ethr =  1.00E-02,  avg # of iterations = 15.6

[...]

     iteration # 45     ecut=    29.40 Ry     beta= 0.05
     Davidson diagonalization with overlap
     c_bands:  3 eigenvalues not converged
     ethr =  6.27E-11,  avg # of iterations = 11.9

[...]

     total energy              =   -3295.82430715 Ry
     estimated scf accuracy    <       0.00000007 Ry

     iteration # 51     ecut=    29.40 Ry     beta= 0.05
     Davidson diagonalization with overlap
     ethr =  1.68E-11,  avg # of iterations = 10.6

     negative rho (up, down):  3.546E-02 0.000E+00

     Adding external electric field

     Computed dipole along edir(3) :
        Dipole                1.9336 Ry au,          4.9147 Debye
        Dipole field          0.0024 Ry au,

        Potential amp.       -0.2255 Ry
        Total length         46.3494 bohr

     End of self-consistent calculation

          k = 0.0000 0.0000 0.0000 ( 26871 PWs)   bands (ev):

   -57.4684 -57.4330 -57.4203 -57.3810 -57.3721 -57.3640 -57.3537 -57.3421
   -57.3214 -57.2829 -57.2764 -57.2397 -57.2183 -57.2017 -57.1822 -56.5419
   -56.5176 -56.5115 -33.9391 -33.8524 -33.8519 -33.8292 -33.8096 -33.7920
   -33.7741 -33.7703 -33.7666 -33.7532 -33.7282 -33.7071 -33.7020 -33.6873
   -33.6855 -33.6810 -33.6604 -33.6516 -33.6298 -33.6245 -33.5930 -33.5784
   -33.5606 -33.5564 -33.5490 -33.5478 -33.5441 -33.5368 -33.5252 -33.5221
   -33.5150 -33.5007 -33.4920 -33.4914 -33.4845 -33.4829 -33.4741 -33.4723
   -33.4642 -33.4533 -33.4415 -33.4246 -33.4090 -33.4026 -33.3878 -32.8606
   -32.8524 -32.8514 -32.8347 -32.8293 -32.7699 -32.7087 -32.7013 -32.5697
   -19.3429 -18.2727 -17.9732 -17.7757 -17.7258 -17.6924 -17.5766 -17.5483
   -17.4956 -17.4421 -17.4054 -17.3623 -17.2877 -17.2473 -17.2455 -17.2215
   -17.1674 -17.1435 -17.1355 -17.1253 -17.1235 -17.0989 -17.0494 -17.0456
   -16.9888 -16.9475 -16.9158 -16.9054 -16.8970 -16.8645 -16.8567 -16.8040
   -16.6050 -15.0623 -15.0079 -14.9490 -14.9455  -7.8646  -7.6268  -7.3898
    -6.4743  -5.5813  -5.4294  -5.3981  -5.2346  -4.9632  -4.9114  -4.8682
    -4.8218  -4.7843  -4.7458  -4.7230  -4.6939  -4.6624  -4.6106  -4.5799
    -4.5635  -4.5299  -4.5100  -4.4790  -4.4492  -4.4438  -4.4143  -4.3258
    -4.3163  -4.2925  -4.2747  -4.2393  -4.2210  -4.2182  -4.1693  -4.1577
    -4.0690  -3.9869  -3.8973  -3.8439  -3.8182  -3.7940  -3.7469  -3.7094
    -3.6816  -3.6358  -3.6166  -3.5474  -3.5204  -3.5087  -3.4329  -3.3982
    -3.3026  -3.2641  -3.2528  -3.2320  -3.1896  -3.1780  -3.0940  -3.0827
    -2.9743  -2.9545  -2.8643  -2.7911  -2.7415  -2.7137  -2.6757  -2.6140
    -2.5944  -2.5493  -2.5211  -2.4605  -2.4466  -2.3207  -2.2529  -2.2493
    -2.2296  -2.1909  -2.1615  -2.1476  -2.1250  -2.1221  -2.0436  -2.0348
    -1.9850  -1.9098  -1.8840  -1.8473  -1.8347  -1.7993  -1.7571  -1.6923
    -1.6868  -1.6513  -1.5635  -1.5025  -1.5014  -1.3552  -1.3491  -1.3157
    -1.2675  -1.2137  -1.1832  -0.7809  -0.6048  -0.4367  -0.3093  -0.2486
    -0.2472   0.0274   0.0324   0.1649   1.6138   1.7649   1.8251   1.9592
     1.9777   2.0367   2.1184   2.1406   2.2076   2.2349   2.2438

[...]

          k = 0.0380-0.0280 0.0000 ( 26873 PWs)   bands (ev):

[...]

          k =-0.0760-0.0000 0.0000 ( 26902 PWs)   bands (ev):

[...]

          k =-0.0760-0.0559 0.0000 ( 26868 PWs)   bands (ev):

   -57.4668 -57.4376 -57.4173 -57.3784 -57.3679 -57.3658 -57.3621 -57.3387
   -57.3210 -57.2826 -57.2767 -57.2359 -57.2249 -57.1988 -57.1822 -56.5367
   -56.5285 -56.5058 -33.9840 -33.9350 -33.8635 -33.8189 -33.8031 -33.7908
   -33.7839 -33.7760 -33.7655 -33.7442 -33.7152 -33.6968 -33.6593 -33.6574
   -33.6373 -33.6245 -33.6095 -33.5962 -33.5949 -33.5902 -33.5858 -33.5767
   -33.5725 -33.5656 -33.5634 -33.5508 -33.5427 -33.5278 -33.5222 -33.5203
   -33.5159 -33.5153 -33.5113 -33.5084 -33.5062 -33.4953 -33.4885 -33.4847
   -33.4817 -33.4748 -33.4471 -33.4411 -33.4356 -33.4238 -33.3997 -32.9480
   -32.8532 -32.8451 -32.8234 -32.7526 -32.7440 -32.6835 -32.6705 -32.6628
   -19.3363 -17.9700 -17.8313 -17.8255 -17.6482 -17.6031 -17.6001 -17.5304
   -17.4847 -17.4388 -17.4348 -17.4034 -17.3547 -17.3303 -17.3008 -17.2751
   -17.2593 -17.2242 -17.1830 -17.1820 -17.1483 -17.1150 -17.0884 -17.0462
   -17.0397 -16.9853 -16.9214 -16.8839 -16.8595 -16.8571 -16.8206 -16.7956
   -16.6382 -15.0628 -15.0058 -15.0015 -14.8857  -7.8726  -7.6449  -7.3789
    -6.4654  -5.2156  -5.1781  -5.1329  -5.0396  -5.0017  -4.9699  -4.8340
    -4.7736  -4.7320  -4.6865  -4.6443  -4.6366  -4.6223  -4.5666  -4.5492
    -4.5337  -4.4876  -4.4466  -4.4265  -4.4036  -4.4022  -4.3986  -4.3953
    -4.2641  -4.2513  -4.1988  -4.1787  -4.1562  -4.1334  -4.1305  -4.0766
    -4.0346  -3.9998  -3.9812  -3.9557  -3.8949  -3.8365  -3.7559  -3.6585
    -3.6471  -3.5902  -3.5809  -3.4873  -3.4820  -3.3890  -3.3264  -3.2811
    -3.2531  -3.2273  -3.1509  -3.1458  -3.1368  -3.0864  -3.0525  -3.0241
    -2.9758  -2.9655  -2.9208  -2.8179  -2.7829  -2.7243  -2.6983  -2.6936
    -2.6366  -2.6326  -2.5953  -2.5936  -2.5870  -2.5422  -2.4874  -2.4534
    -2.4368  -2.4049  -2.3161  -2.2922  -2.2391  -2.2312  -2.1657  -2.1493
    -2.1368  -2.0732  -2.0215  -1.9903  -1.9821  -1.9084  -1.8049  -1.7465
    -1.7246  -1.7033  -1.5975  -1.5488  -1.4930  -1.4504  -1.2681  -1.2558
    -1.1834  -1.1438  -1.0908  -1.0421  -0.8551  -0.4564  -0.4062  -0.1870
    -0.1717  -0.1343   0.0321   0.0378   1.7065   1.7180   1.8154   1.8568
     1.9186   1.9295   1.9738   1.9909   2.0007   2.0470   2.0525

     the Fermi energy is     1.6453 ev

!    total energy              =   -3295.82440429 Ry
     estimated scf accuracy    <       0.00000002 Ry
     smearing contrib. (-TS)   =      -0.03670577 Ry
     internal energy E=F+TS    =   -3295.78769853 Ry

     The total energy is F=E-TS. E is the sum of the following terms:
     one-electron contribution =  -34290.00024264 Ry
     hartree contribution      =   17213.99462496 Ry
     xc contribution           =    -543.78114615 Ry
     ewald contribution        =   14323.99436156 Ry
     electric field correction =       0.00470374 Ry

     convergence has been achieved in  51 iterations

     Forces acting on atoms (cartesian axes, Ry/au):

     atom    1 type  1   force =     0.00001335    0.00239659    0.05212613
     atom    2 type  1   force =    -0.00004674   -0.00060800   -0.00559022
     atom    3 type  1   force =     0.00003140   -0.00287579   -0.00287523
     atom    4 type  1   force =     0.00005372   -0.00037381    0.10761766
     atom    5 type  1   force =    -0.00001908    0.00172550    0.00530097
     atom    6 type  1   force =     0.00000936   -0.00049602    0.00056369
     atom    7 type  1   force =     0.06435114    0.00077541   -0.03002537
     atom    8 type  1   force =     0.00531719   -0.02658274    0.00244729
     atom    9 type  1   force =     0.00843587   -0.01288909   -0.00076122
     atom   10 type  2   force =    -0.00005893   -0.00537664   -0.18728178
     atom   11 type  2   force =     0.00012681    0.02016196   -0.00480776
     atom   12 type  2   force =    -0.00010337    0.01848209   -0.00055184
     atom   13 type  1   force =    -0.06445623    0.00029787   -0.02998348
     atom   14 type  1   force =    -0.00513773   -0.02679102    0.00247599
     atom   15 type  1   force =    -0.00838644   -0.01279436   -0.00074449
     atom   16 type  2   force =     0.00009170   -0.00106802    0.07211868
     atom   17 type  2   force =    -0.00026187    0.03303158    0.00614969
     atom   18 type  2   force =     0.00002494    0.00458476   -0.00755525
     atom   19 type  1   force =     0.00001417    0.00395053    0.05309892
     atom   20 type  1   force =    -0.00004004   -0.00054868   -0.00171563
     atom   21 type  1   force =     0.00005412    0.00130304    0.10846973
     atom   22 type  1   force =    -0.00002690   -0.00118822    0.00631073
     atom   23 type  1   force =     0.00002958   -0.00518049    0.00193890
     atom   24 type  1   force =     0.06587246    0.00139453   -0.02849077
     atom   25 type  1   force =     0.00546734   -0.02924504    0.00262957
     atom   26 type  1   force =     0.00976099   -0.00192182   -0.00022551
     atom   27 type  2   force =    -0.00007011   -0.00076077   -0.19124943
     atom   28 type  2   force =     0.00014943    0.02479116   -0.00471117
     atom   29 type  2   force =    -0.00009625   -0.00425038    0.00933351
     atom   30 type  1   force =    -0.06597644    0.00095644   -0.02846052
     atom   31 type  1   force =    -0.00531824   -0.02936685    0.00266744
     atom   32 type  1   force =    -0.00967517   -0.00192334   -0.00022267
     atom   33 type  2   force =     0.00013523    0.00069520    0.08050902
     atom   34 type  2   force =    -0.00029009    0.03538310    0.00620052
     atom   35 type  2   force =     0.00005179    0.01541070    0.00194868
     atom   36 type  1   force =     0.00006558    0.00026883    0.05321298
     atom   37 type  1   force =    -0.00003281    0.00177323   -0.00890015
     atom   38 type  1   force =     0.00001082    0.00136731   -0.00011548
     atom   39 type  1   force =     0.00005447   -0.00117354    0.10819190
     atom   40 type  1   force =    -0.00003285   -0.00137839    0.00604742
     atom   41 type  1   force =     0.00001885    0.00390137    0.00143059
     atom   42 type  1   force =     0.06612785   -0.00349658   -0.02908688
     atom   43 type  1   force =     0.00366190   -0.02409946    0.00085665
     atom   44 type  1   force =     0.01422856   -0.01863843    0.00311852
     atom   45 type  2   force =    -0.00009278    0.00310969   -0.18717972
     atom   46 type  2   force =     0.00013301    0.01624469    0.00220921
     atom   47 type  2   force =    -0.00007416    0.01860596   -0.00291667
     atom   48 type  1   force =    -0.06623002   -0.00393160   -0.02904335
     atom   49 type  1   force =    -0.00341235   -0.02429167    0.00087063
     atom   50 type  1   force =    -0.01422271   -0.01858358    0.00312216
     atom   51 type  2   force =     0.00013001   -0.00295541    0.07342829
     atom   52 type  2   force =    -0.00027792    0.03103482    0.00784616
     atom   53 type  2   force =     0.00000932    0.02029364    0.00054410
     atom   54 type  3   force =     0.00004105   -0.01336025   -0.00873959
     atom   55 type  4   force =     0.00000593   -0.00126482   -0.00008723
     atom   56 type  4   force =    -0.00007987    0.01385244    0.00639589
     atom   57 type  4   force =    -0.00005580   -0.00019317   -0.00005906
     atom   58 type  3   force =    -0.00026254    0.00027350    0.00008014
     atom   59 type  4   force =     0.00000801    0.00025196    0.00046483
     atom   60 type  4   force =     0.00009874    0.00057965    0.00075883
     atom   61 type  4   force =     0.00015270    0.00071041    0.00089509

     Total force =     0.459903     Total SCF correction =     0.000501
  @ DRIVER MODE: Message from server: STATUS
  @ DRIVER MODE: Message from server: GETFORCE
  @ DRIVER MODE: Returning v,forces,stress,ensemble

     Writing output data file ./calc.save/
  @ DRIVER MODE: Message from server: EXIT
  @ DRIVE MODE: Exiting

     General routines

     Parallel routines

   This run was terminated on:  19: 3:16  18Oct2021

   JOB DONE.