     Program PWSCF v.6.7GPU starts on 23Aug2021 at 18:24: 5

     R & G space division:  proc/nbgrp/npool/nimage =       6
     Reading input from /storage/home/hcoda1/3/ntian30/research/carbon/CH_vib/ads_slab/CHN2H_a/out_0011/pw.inp
Warning: card &CELL ignored
Warning: card   CELL_DYNAMICS='IPI', ignored
Warning: card / ignored

     Current dimensions of program PWSCF are:
     Max number of different atomic species (ntypx) = 10
     Max number of k-points (npk) =  40000
     Max angular momentum in pseudopotentials (lmaxx) =  3
     Presently no symmetry can be used with electric field

     Message from routine cell_base_init:
     DEPRECATED: use true lattice parameter, not A to a.u. conversion factor

     IMPORTANT: XC functional enforced from input :
     Exchange-correlation= BEEF-VDW
                           (   1   4  43  14   2   0   0)
     Any further DFT definition will be discarded
     Please, verify this is what you really want

  @ DRIVER MODE: Connecting to
 qe_1139763_2632792.sched-torque.pace.gatech.edu5cxsnkbv_scratch
  using UNIX socket
  @ DRIVER MODE: Message from server: STATUS
  @ DRIVER MODE: Message from server: INIT
  @ DRIVER MODE: Receiving replica           0          -1
  @ DRIVER MODE: Receiving encoded integer          25
  @ DRIVER MODE:  SCF:  T  FORCE:  T  STRESS:  F  VC:  F  ENSEMBLE:  F
  @ DRIVER MODE:  SCF:  T  FORCE:  T  STRESS:  F  VC:  F  ENSEMBLE:  F

     Using Slab Decomposition

     bravais-lattice index     =            0
     lattice parameter (alat)  =       1.8897  a.u.
     unit-cell volume          =    6658.9804 (a.u.)^3
     number of atoms/cell      =           52
     number of atomic types    =            5
     number of electrons       =       394.00
     number of Kohn-Sham states=          207
     kinetic-energy cutoff     =      29.3995  Ry
     charge density cutoff     =     293.9946  Ry
     scf convergence threshold =      7.3E-08
     mixing beta               =       0.0500
     number of iterations used =            8  plain     mixing
     Exchange-correlation= BEEF-VDW
                           (   1   4  43  14   2   0   0)

     celldm(1)=   1.889726  celldm(2)=   0.000000  celldm(3)=   0.000000
     celldm(4)=   0.000000  celldm(5)=   0.000000  celldm(6)=   0.000000

     crystal axes: (cart. coord. in units of alat)
               a(1) = (   6.579727   0.000000   0.000000 )
               a(2) = (  -0.000775   5.961596   0.000000 )
               a(3) = (   0.000000   0.000000  25.155947 )

     reciprocal axes: (cart. coord. in units 2 pi/alat)
               b(1) = (  0.151982  0.000020  0.000000 )
               b(2) = (  0.000000  0.167740  0.000000 )
               b(3) = (  0.000000  0.000000  0.039752 )

     PseudoPot. # 1 for Ti read from file:
     /storage/coda1/p-amedford6/0/shared/rich_project_chbe-medford/medford-share/data/pseudos_module/espresso/nninc/pbe/van/Ti.UPF
     MD5 check sum: 8e4df49b7f0d34bbd5052bf3f5ea0213
     Pseudo is Ultrasoft, Zval = 12.0
     Generated by new atomic code, or converted to UPF format
     Using radial grid of  851 points,  6 beta functions with:
                l(1) =   0
                l(2) =   0
                l(3) =   1
                l(4) =   1
                l(5) =   2
                l(6) =   2
     Q(r) pseudized with  8 coefficients,  rinner =    1.000   1.000   1.000
                                                       1.000   1.000

     PseudoPot. # 2 for O  read from file:
     /storage/coda1/p-amedford6/0/shared/rich_project_chbe-medford/medford-share/data/pseudos_module/espresso/nninc/pbe/van/O.UPF
     MD5 check sum: 78c19812648e8988a0fe644b0f25305e
     Pseudo is Ultrasoft, Zval =  6.0
     Generated by new atomic code, or converted to UPF format
     Using radial grid of  737 points,  4 beta functions with:
                l(1) =   0
                l(2) =   0
                l(3) =   1
                l(4) =   1
     Q(r) pseudized with  8 coefficients,  rinner =    0.800   0.800   0.800

     PseudoPot. # 3 for N  read from file:
     /storage/coda1/p-amedford6/0/shared/rich_project_chbe-medford/medford-share/data/pseudos_module/espresso/nninc/pbe/van/N.UPF
     MD5 check sum: 90d10febe142ad51ac9d5be1deb811c4
     Pseudo is Ultrasoft, Zval =  5.0
     Generated by new atomic code, or converted to UPF format
     Using radial grid of  729 points,  4 beta functions with:
                l(1) =   0
                l(2) =   0
                l(3) =   1
                l(4) =   1
     Q(r) pseudized with  8 coefficients,  rinner =    0.800   0.800   0.800

     PseudoPot. # 4 for C  read from file:
     /storage/coda1/p-amedford6/0/shared/rich_project_chbe-medford/medford-share/data/pseudos_module/espresso/nninc/pbe/van/C.UPF
     MD5 check sum: 1a69bf6b8db32088f5b2163dbdb77a27
     Pseudo is Ultrasoft, Zval =  4.0
     Generated by new atomic code, or converted to UPF format
     Using radial grid of  721 points,  4 beta functions with:
                l(1) =   0
                l(2) =   0
                l(3) =   1
                l(4) =   1
     Q(r) pseudized with  8 coefficients,  rinner =    0.800   0.800   0.800

     PseudoPot. # 5 for H  read from file:
     /storage/coda1/p-amedford6/0/shared/rich_project_chbe-medford/medford-share/data/pseudos_module/espresso/nninc/pbe/van/H.UPF
     MD5 check sum: b5ee9d7bfd3a09ee7748110bda690ff7
     Pseudo is Ultrasoft, Zval =  1.0
     Generated by new atomic code, or converted to UPF format
     Using radial grid of  615 points,  1 beta functions with:
                l(1) =   0
     Q(r) pseudized with  8 coefficients,  rinner =    0.800

     atomic species   valence    mass     pseudopotential
        Ti1           12.00    47.86700     Ti( 1.00)
        O1             6.00    15.99900     O ( 1.00)
        N1             5.00    14.00700     N ( 1.00)
        C1             4.00    12.01100     C ( 1.00)
        H1             1.00     1.00800     H ( 1.00)

     No symmetry found

   Cartesian axes

     site n.     atom                  positions (alat units)
         1           Ti1 tau(   1) = (   0.0004258   2.9801865   6.0000000  )
         2           Ti1 tau(   2) = (   3.2906075   1.4906267   6.0002472  )
         3           O1  tau(   3) = (   0.0006271   0.0005054   7.9858123  )
         4           O1  tau(   4) = (   3.2906025   0.0005020   7.3038282  )
         5           O1  tau(   5) = (   4.5942328   1.4918067   9.2879030  )
         6           O1  tau(   6) = (   1.9868534   1.4903216   9.2879459  )
         7           Ti1 tau(   7) = (   3.2907910   2.8959150   9.1758416  )
         8           Ti1 tau(   8) = (   0.0015273   1.4827037   9.2680791  )
         9           O1  tau(   9) = (   3.3079035   5.9465650  11.3667630  )
        10           O1  tau(  10) = (   0.0116148   5.9584955  10.6183126  )
        11           O1  tau(  11) = (   1.3159687   1.4802111  12.6598234  )
        12           O1  tau(  12) = (   5.3141237   1.4785834  12.6569702  )
        13           Ti1 tau(  13) = (   0.0356438   2.9569522  12.5500042  )
        14           Ti1 tau(  14) = (   3.3321116   1.4682926  12.5176941  )
        15           O1  tau(  15) = (   0.0287262   5.9365737  14.6848071  )
        16           O1  tau(  16) = (   3.3260766   5.9477468  13.9918032  )
        17           O1  tau(  17) = (   4.5788076   1.5006004  16.1778977  )
        18           O1  tau(  18) = (   2.0653823   1.4932191  16.1519216  )
        19           Ti1 tau(  19) = (   3.3252840   2.9629899  15.7366588  )
        20           Ti1 tau(  20) = (   0.0567170   1.3280226  15.9864722  )
        21           O1  tau(  21) = (   3.2904802   0.0005063   4.7018136  )
        22           O1  tau(  22) = (   0.0395201   5.9563027  17.2132275  )
        23           O1  tau(  23) = (   1.3043587   1.4918075   6.0039043  )
        24           O1  tau(  24) = (   5.2767064   1.4903225   6.0039473  )
        25           Ti1 tau(  25) = (   0.0000382   5.9609847   6.0000000  )
        26           Ti1 tau(  26) = (   3.2902200   4.4714249   6.0002472  )
        27           O1  tau(  27) = (   0.0002396   2.9813036   7.9858123  )
        28           O1  tau(  28) = (   3.2902150   2.9813002   7.3038282  )
        29           O1  tau(  29) = (   4.5938453   4.4726049   9.2879030  )
        30           O1  tau(  30) = (   1.9864658   4.4711199   9.2879459  )
        31           Ti1 tau(  31) = (   3.2891106   5.8743827   9.1763621  )
        32           Ti1 tau(  32) = (   0.0006254   4.4649316   9.2693709  )
        33           O1  tau(  33) = (   3.3109971   2.9638951  11.3609806  )
        34           O1  tau(  34) = (   0.0092240   2.9805883  10.6323155  )
        35           O1  tau(  35) = (   1.3172493   4.4579999  12.6547637  )
        36           O1  tau(  36) = (   5.3123203   4.4599931  12.6537913  )
        37           Ti1 tau(  37) = (   0.0349292   5.9384232  12.5038109  )
        38           Ti1 tau(  38) = (   3.3308216   4.4462378  12.5132791  )
        39           O1  tau(  39) = (   0.0262156   2.9786664  14.8481040  )
        40           O1  tau(  40) = (   3.3240488   2.9673873  13.9486158  )
        41           O1  tau(  41) = (   4.5778164   4.4375445  16.1741249  )
        42           O1  tau(  42) = (   2.0647505   4.4412733  16.1578575  )
        43           Ti1 tau(  43) = (   3.3314326   5.9455663  15.7867969  )
        44           Ti1 tau(  44) = (   0.0345939   4.5236910  15.9072353  )
        45           O1  tau(  45) = (   3.2900926   2.9813045   4.7018136  )
        46           O1  tau(  46) = (   1.3039711   4.4726057   6.0039043  )
        47           O1  tau(  47) = (   5.2763189   4.4711207   6.0039473  )
        48           N1  tau(  48) = (   0.8843530   3.1395628  18.6524426  )
        49           C1  tau(  49) = (   1.8908588   3.1194352  19.2734450  )
        50           H1  tau(  50) = (   2.4245030   3.8971110  19.8100181  )
        51           N1  tau(  51) = (   6.5588057   2.9807634  17.7841789  )
        52           H1  tau(  52) = (   5.6432114   2.8891999  18.2270943  )

     number of k points=    10  Fermi-Dirac smearing, width (Ry)=  0.0073
                       cart. coord. in units 2pi/alat
        k(    1) = (   0.0000000   0.0000000   0.0000000), wk =   0.1250000
        k(    2) = (   0.0000000   0.0419351   0.0000000), wk =   0.2500000
        k(    3) = (   0.0000000  -0.0838702   0.0000000), wk =   0.1250000
        k(    4) = (   0.0379955   0.0000049   0.0000000), wk =   0.2500000
        k(    5) = (   0.0379955   0.0419400   0.0000000), wk =   0.2500000
        k(    6) = (   0.0379955  -0.0838652   0.0000000), wk =   0.2500000
        k(    7) = (   0.0379955  -0.0419301   0.0000000), wk =   0.2500000
        k(    8) = (  -0.0759910  -0.0000099   0.0000000), wk =   0.1250000
        k(    9) = (  -0.0759910   0.0419252   0.0000000), wk =   0.2500000
        k(   10) = (  -0.0759910  -0.0838800   0.0000000), wk =   0.1250000

     Initial potential from superposition of free atoms

     starting charge  377.99917, renormalised to  394.00000

     negative rho (up, down):  1.654E-02 0.000E+00

     %%%%%%%%%%%%%%%%%%%%%%%%%%%%%%%%%%%%%%%%%%%%%%%%%%%%%%%%%%%%%%%%%%%%%%%%
     %                                                                      %
     % You are using vdW-DF, which was implemented by the Thonhauser group. %
     % Please cite the following two papers that made this development      %
     % possible and the two reviews that describe the various versions:     %
     %                                                                      %
     %   T. Thonhauser et al., PRL 115, 136402 (2015).                      %
     %   T. Thonhauser et al., PRB 76, 125112 (2007).                       %
     %   K. Berland et al., Rep. Prog. Phys. 78, 066501 (2015).             %
     %   D.C. Langreth et al., J. Phys.: Condens. Matter 21, 084203 (2009). %
     %                                                                      %
     %                                                                      %
     % If you are calculating the stress with vdW-DF, please also cite:     %
     %                                                                      %
     %   R. Sabatini et al., J. Phys.: Condens. Matter 24, 424209 (2012).   %
     %                                                                      %
     %%%%%%%%%%%%%%%%%%%%%%%%%%%%%%%%%%%%%%%%%%%%%%%%%%%%%%%%%%%%%%%%%%%%%%%%

     Adding external electric field

     Computed dipole along edir(3) :
        Dipole               -8.4963 Ry au,        -21.5954 Debye
        Dipole field         -0.0160 Ry au,

        Potential amp.        1.4863 Ry
        Total length         46.3494 bohr

     Starting wfcs are  298 atomic wfcs
  @ DRIVER MODE: Message from server: STATUS
  @ DRIVER MODE: Message from server: POSDATA
  @ DRIVER MODE: Reading and sharing cell
  @ DRIVER MODE: Reading and sharing positions
  @ DRIVER MODE: Received positions

     Self-consistent Calculation

     iteration #  1     ecut=    29.40 Ry     beta= 0.05
     Davidson diagonalization with overlap
     c_bands:  1 eigenvalues not converged
     c_bands:  1 eigenvalues not converged
     c_bands:  2 eigenvalues not converged
     c_bands:  2 eigenvalues not converged
     c_bands:  2 eigenvalues not converged
     c_bands:  1 eigenvalues not converged
     ethr =  1.00E-05,  avg # of iterations = 19.0

[...]

     total energy              =   -2624.26769493 Ry
     estimated scf accuracy    <    3488.29963331 Ry

[...]

     iteration #  3     ecut=    29.40 Ry     beta= 0.05
     Davidson diagonalization with overlap
     ethr =  1.00E-02,  avg # of iterations = 15.1

[...]

     iteration # 60     ecut=    29.40 Ry     beta= 0.05
     Davidson diagonalization with overlap
     ethr =  2.25E-11,  avg # of iterations =  3.4

[...]

     total energy              =   -2937.80842209 Ry
     estimated scf accuracy    <       0.00000007 Ry

     iteration # 61     ecut=    29.40 Ry     beta= 0.05
     Davidson diagonalization with overlap
     c_bands:  1 eigenvalues not converged
     ethr =  1.90E-11,  avg # of iterations = 11.8

     negative rho (up, down):  1.629E-02 0.000E+00

     Adding external electric field

     Computed dipole along edir(3) :
        Dipole                1.2987 Ry au,          3.3009 Debye
        Dipole field          0.0025 Ry au,

        Potential amp.       -0.2272 Ry
        Total length         46.3494 bohr

     End of self-consistent calculation

          k = 0.0000 0.0000 0.0000 ( 18029 PWs)   bands (ev):

   -55.4319 -55.3959 -55.3956 -55.3615 -55.3253 -55.3095 -55.2665 -55.2449
   -55.2416 -55.2300 -55.2222 -55.2104 -55.1889 -55.1629 -54.4140 -54.3799
   -32.0009 -31.8861 -31.8264 -31.7953 -31.7513 -31.7436 -31.7341 -31.7251
   -31.6851 -31.6786 -31.6410 -31.6400 -31.6330 -31.6056 -31.5863 -31.5681
   -31.5640 -31.5577 -31.5490 -31.5435 -31.5096 -31.5076 -31.4982 -31.4897
   -31.4752 -31.4527 -31.4471 -31.4460 -31.4410 -31.4362 -31.4332 -31.4189
   -31.4110 -31.4050 -31.3990 -31.3940 -31.3730 -31.3594 -31.3576 -31.3516
   -31.3309 -31.2702 -30.8229 -30.7299 -30.7078 -30.6393 -30.5526 -30.4416
   -20.2484 -16.2467 -15.9744 -15.8313 -15.7072 -15.6223 -15.4956 -15.4606
   -15.3761 -15.3378 -15.2242 -15.1486 -15.0818 -15.0797 -15.0619 -15.0347
   -14.9843 -14.9672 -14.9646 -14.9223 -14.9202 -14.8782 -14.8587 -14.8247
   -14.8068 -14.7879 -14.7710 -14.6481 -14.5786 -14.5198 -14.1595 -12.9165
   -12.7992  -8.7986  -7.1338  -5.4464  -4.7360  -3.5917  -3.4318  -3.3453
    -3.3283  -3.3270  -3.1600  -3.0321  -2.8047  -2.7696  -2.6932  -2.6388
    -2.6208  -2.5991  -2.4217  -2.3971  -2.3373  -2.3104  -2.2725  -2.2422
    -2.2173  -2.2000  -2.1899  -2.1714  -2.1579  -1.9969  -1.8982  -1.8678
    -1.8319  -1.8177  -1.7581  -1.7253  -1.7194  -1.7172  -1.7082  -1.6651
    -1.6459  -1.5976  -1.4968  -1.4729  -1.4461  -1.3174  -1.2978  -1.1501
    -1.0646  -0.9800  -0.9726  -0.9059  -0.9011  -0.8672  -0.8157  -0.7917
    -0.7673  -0.6339  -0.5639  -0.5081  -0.4913  -0.4465  -0.4011  -0.3653
    -0.2725  -0.2076  -0.1998  -0.1879  -0.0231  -0.0088   0.0382   0.0875
     0.1121   0.1609   0.1862   0.2554   0.2890   0.3350   0.3651   0.4619
     0.5021   0.5219   0.5361   0.5552   0.5677   0.6275   0.6947   0.7133
     0.7615   0.8187   0.9295   1.1264   1.1892   1.2019   1.5184   1.5524
     1.6088   1.7940   2.1837   2.2314   3.6681   3.7396   3.8034   3.8184
     3.8270   3.9036   4.0818   4.1513   4.1669   4.1736   4.1849

[...]

          k = 0.0380-0.0419 0.0000 ( 17876 PWs)   bands (ev):

[...]

          k =-0.0760-0.0000 0.0000 ( 17886 PWs)   bands (ev):

[...]

          k =-0.0760-0.0839 0.0000 ( 17948 PWs)   bands (ev):

   -55.4150 -55.4125 -55.3786 -55.3784 -55.3221 -55.3010 -55.2749 -55.2373
   -55.2332 -55.2284 -55.2262 -55.2061 -55.2055 -55.1671 -54.3970 -54.3968
   -31.8059 -31.8029 -31.7449 -31.7245 -31.7013 -31.7012 -31.6895 -31.6706
   -31.6704 -31.6425 -31.6331 -31.6276 -31.6246 -31.5842 -31.5623 -31.5592
   -31.5591 -31.5511 -31.5506 -31.5401 -31.5275 -31.5180 -31.5078 -31.5038
   -31.4996 -31.4981 -31.4979 -31.4937 -31.4692 -31.4616 -31.4615 -31.4590
   -31.4421 -31.4404 -31.4395 -31.4301 -31.4289 -31.4240 -31.3862 -31.3854
   -31.3808 -31.3616 -30.7205 -30.7204 -30.6355 -30.6353 -30.5960 -30.5959
   -20.2472 -15.7023 -15.6820 -15.6230 -15.4260 -15.4163 -15.4037 -15.3949
   -15.3874 -15.2299 -15.2129 -15.1946 -15.1767 -15.1343 -15.1312 -15.1164
   -15.1059 -15.0055 -15.0033 -15.0012 -14.9998 -14.9373 -14.9294 -14.9156
   -14.8811 -14.8779 -14.8489 -14.7790 -14.7761 -14.6437 -14.4803 -12.9009
   -12.9007  -8.7839  -7.1532  -5.4450  -4.7201  -2.9572  -2.8869  -2.8439
    -2.6342  -2.6114  -2.5967  -2.5143  -2.4647  -2.4026  -2.3953  -2.3891
    -2.3295  -2.2945  -2.2809  -2.2625  -2.2543  -2.2376  -2.2155  -2.2047
    -2.1591  -2.1471  -2.1375  -2.1030  -2.0896  -2.0709  -2.0497  -2.0331
    -2.0125  -2.0071  -1.9882  -1.8271  -1.7763  -1.7296  -1.6825  -1.6695
    -1.6238  -1.6163  -1.5222  -1.4876  -1.4589  -1.4315  -1.4231  -1.2326
    -1.2164  -1.1634  -1.1590  -1.1355  -0.9801  -0.9594  -0.9442  -0.9264
    -0.8808  -0.7994  -0.7924  -0.7544  -0.6477  -0.6173  -0.6116  -0.5603
    -0.4399  -0.4172  -0.3947  -0.3888  -0.3829  -0.2903  -0.2728  -0.2652
    -0.2319  -0.1981  -0.1475  -0.1410  -0.0884   0.0941   0.1385   0.2041
     0.2833   0.4530   0.4912   0.5183   0.5597   0.6208   0.6940   0.7105
     0.7747   0.8686   0.8834   0.9125   0.9855   1.0386   1.0465   1.0707
     1.9668   1.9676   2.0513   2.0515   3.8364   3.8500   3.9117   3.9483
     3.9981   4.0913   4.1870   4.2042   4.2469   4.2480   4.3281

     the Fermi energy is     3.7220 ev

!    total energy              =   -2937.80846662 Ry
     estimated scf accuracy    <       0.00000004 Ry
     smearing contrib. (-TS)   =      -0.03813270 Ry
     internal energy E=F+TS    =   -2937.77033392 Ry

     The total energy is F=E-TS. E is the sum of the following terms:
     one-electron contribution =  -24094.21519549 Ry
     hartree contribution      =   12137.20850909 Ry
     xc contribution           =    -484.39130861 Ry
     ewald contribution        =    9503.62447830 Ry
     electric field correction =       0.00318278 Ry

     convergence has been achieved in  61 iterations

     Forces acting on atoms (cartesian axes, Ry/au):

     atom    1 type  1   force =     0.00006384   -0.00011830    0.09408751
     atom    2 type  1   force =    -0.00015977   -0.00022439   -0.17764641
     atom    3 type  2   force =     0.00011057   -0.00020271   -0.02137035
     atom    4 type  2   force =     0.00002544   -0.00184214    0.05753936
     atom    5 type  2   force =    -0.01068088   -0.00139273    0.00633173
     atom    6 type  2   force =     0.01274979   -0.00074449    0.00661208
     atom    7 type  1   force =     0.00011491    0.00198183   -0.01405691
     atom    8 type  1   force =    -0.00046920    0.00581539    0.00396111
     atom    9 type  2   force =     0.00036198    0.00022923   -0.00008034
     atom   10 type  2   force =    -0.00024037    0.00022499   -0.00512112
     atom   11 type  2   force =     0.00004703   -0.00015081   -0.00044349
     atom   12 type  2   force =    -0.00028625    0.00000673    0.00009678
     atom   13 type  1   force =    -0.00026781    0.00001788   -0.00030422
     atom   14 type  1   force =    -0.00008128    0.00015882   -0.00016352
     atom   15 type  2   force =    -0.00048201   -0.00043925   -0.00016594
     atom   16 type  2   force =    -0.00018948    0.00018912    0.00006031
     atom   17 type  2   force =    -0.00001391   -0.00020011   -0.00014460
     atom   18 type  2   force =    -0.00048666   -0.00012096   -0.00043474
     atom   19 type  1   force =    -0.00011228    0.00009960   -0.00028047
     atom   20 type  1   force =    -0.00032450    0.00003379    0.00072680
     atom   21 type  2   force =     0.00001944    0.00001600    0.10378764
     atom   22 type  2   force =     0.00006730    0.00012023   -0.00007755
     atom   23 type  2   force =    -0.07064014   -0.00007817   -0.02705115
     atom   24 type  2   force =     0.07053298    0.00036527   -0.02710047
     atom   25 type  1   force =     0.00000982   -0.00007322    0.09372861
     atom   26 type  1   force =    -0.00014177   -0.00016068   -0.17769372
     atom   27 type  2   force =     0.00013781   -0.00024493   -0.02036137
     atom   28 type  2   force =     0.00006738   -0.00155017    0.05701412
     atom   29 type  2   force =    -0.01102800   -0.00053875    0.00635430
     atom   30 type  2   force =     0.01294917   -0.00027745    0.00664899
     atom   31 type  1   force =     0.00029627    0.00520991   -0.01482683
     atom   32 type  1   force =    -0.00040239   -0.00657011    0.00413047
     atom   33 type  2   force =     0.00015768    0.00008077   -0.00031413
     atom   34 type  2   force =     0.00036038   -0.00103095   -0.00204515
     atom   35 type  2   force =    -0.00031862    0.00015190   -0.00020510
     atom   36 type  2   force =    -0.00003453    0.00000011    0.00012145
     atom   37 type  1   force =    -0.00008554    0.00024093   -0.00016511
     atom   38 type  1   force =     0.00007092    0.00024786    0.00021103
     atom   39 type  2   force =    -0.00005644    0.00021616    0.00008205
     atom   40 type  2   force =    -0.00030610    0.00009564   -0.00019642
     atom   41 type  2   force =    -0.00021701   -0.00002347    0.00006229
     atom   42 type  2   force =    -0.00030894    0.00014412   -0.00012667
     atom   43 type  1   force =    -0.00007911    0.00015510   -0.00017831
     atom   44 type  1   force =    -0.00018117   -0.00057535    0.00010397
     atom   45 type  2   force =     0.00001330   -0.00000269    0.10380763
     atom   46 type  2   force =    -0.07065724   -0.00004564   -0.02706729
     atom   47 type  2   force =     0.07053879    0.00039264   -0.02709993
     atom   48 type  3   force =    -0.01457169   -0.00095033   -0.00997608
     atom   49 type  4   force =     0.01814566    0.00601824    0.01425856
     atom   50 type  5   force =    -0.00257961   -0.00505469   -0.00352378
     atom   51 type  3   force =    -0.00139726    0.00016832   -0.00152914
     atom   52 type  5   force =    -0.00004050    0.00023193    0.00002352

     Total force =     0.367268     Total SCF correction =     0.000508
  @ DRIVER MODE: Message from server: STATUS
  @ DRIVER MODE: Message from server: GETFORCE
  @ DRIVER MODE: Returning v,forces,stress,ensemble

     Writing output data file ./calc.save/
  @ DRIVER MODE: Message from server: EXIT
  @ DRIVE MODE: Exiting

     General routines

     Parallel routines

   This run was terminated on:  18:51:55  23Aug2021

   JOB DONE.