     Program PWSCF v.6.7GPU starts on 15Jul2021 at 17:53:21

     R & G space division:  proc/nbgrp/npool/nimage =      16
     Reading input from /storage/home/hcoda1/3/ntian30/research/carbon/15Jul_vib/ads_slab/CH3NH_a/out_0003/pw.inp
Warning: card &CELL ignored
Warning: card   CELL_DYNAMICS='IPI', ignored
Warning: card / ignored

     Current dimensions of program PWSCF are:
     Max number of different atomic species (ntypx) = 10
     Max number of k-points (npk) =  40000
     Max angular momentum in pseudopotentials (lmaxx) =  3
     Presently no symmetry can be used with electric field

     Message from routine cell_base_init:
     DEPRECATED: use true lattice parameter, not A to a.u. conversion factor

     IMPORTANT: XC functional enforced from input :
     Exchange-correlation= BEEF-VDW
                           (   1   4  43  14   2   0   0)
     Any further DFT definition will be discarded
     Please, verify this is what you really want

  @ DRIVER MODE: Connecting to
 qe_1139763_2351648.sched-torque.pace.gatech.edu7lrl4au8_scratch
  using UNIX socket
  @ DRIVER MODE: Message from server: STATUS
  @ DRIVER MODE: Message from server: INIT
  @ DRIVER MODE: Receiving replica           0          -1
  @ DRIVER MODE: Receiving encoded integer          25
  @ DRIVER MODE:  SCF:  T  FORCE:  T  STRESS:  F  VC:  F  ENSEMBLE:  F
  @ DRIVER MODE:  SCF:  T  FORCE:  T  STRESS:  F  VC:  F  ENSEMBLE:  F

     Using Slab Decomposition

     bravais-lattice index     =            0
     lattice parameter (alat)  =       1.8897  a.u.
     unit-cell volume          =    6658.9804 (a.u.)^3
     number of atoms/cell      =           53
     number of atomic types    =            5
     number of electrons       =       391.00
     number of Kohn-Sham states=          205
     kinetic-energy cutoff     =      29.3995  Ry
     charge density cutoff     =     293.9946  Ry
     scf convergence threshold =      7.3E-08
     mixing beta               =       0.0500
     number of iterations used =            8  plain     mixing
     Exchange-correlation= BEEF-VDW
                           (   1   4  43  14   2   0   0)

     celldm(1)=   1.889726  celldm(2)=   0.000000  celldm(3)=   0.000000
     celldm(4)=   0.000000  celldm(5)=   0.000000  celldm(6)=   0.000000

     crystal axes: (cart. coord. in units of alat)
               a(1) = (   6.579727   0.000000   0.000000 )
               a(2) = (  -0.000775   5.961596   0.000000 )
               a(3) = (   0.000000   0.000000  25.155947 )

     reciprocal axes: (cart. coord. in units 2 pi/alat)
               b(1) = (  0.151982  0.000020  0.000000 )
               b(2) = (  0.000000  0.167740  0.000000 )
               b(3) = (  0.000000  0.000000  0.039752 )

     PseudoPot. # 1 for Ti read from file:
     /storage/coda1/p-amedford6/0/shared/rich_project_chbe-medford/medford-share/data/pseudos_module/espresso/nninc/pbe/van/Ti.UPF
     MD5 check sum: 8e4df49b7f0d34bbd5052bf3f5ea0213
     Pseudo is Ultrasoft, Zval = 12.0
     Generated by new atomic code, or converted to UPF format
     Using radial grid of  851 points,  6 beta functions with:
                l(1) =   0
                l(2) =   0
                l(3) =   1
                l(4) =   1
                l(5) =   2
                l(6) =   2
     Q(r) pseudized with  8 coefficients,  rinner =    1.000   1.000   1.000
                                                       1.000   1.000

     PseudoPot. # 2 for O  read from file:
     /storage/coda1/p-amedford6/0/shared/rich_project_chbe-medford/medford-share/data/pseudos_module/espresso/nninc/pbe/van/O.UPF
     MD5 check sum: 78c19812648e8988a0fe644b0f25305e
     Pseudo is Ultrasoft, Zval =  6.0
     Generated by new atomic code, or converted to UPF format
     Using radial grid of  737 points,  4 beta functions with:
                l(1) =   0
                l(2) =   0
                l(3) =   1
                l(4) =   1
     Q(r) pseudized with  8 coefficients,  rinner =    0.800   0.800   0.800

     PseudoPot. # 3 for H  read from file:
     /storage/coda1/p-amedford6/0/shared/rich_project_chbe-medford/medford-share/data/pseudos_module/espresso/nninc/pbe/van/H.UPF
     MD5 check sum: b5ee9d7bfd3a09ee7748110bda690ff7
     Pseudo is Ultrasoft, Zval =  1.0
     Generated by new atomic code, or converted to UPF format
     Using radial grid of  615 points,  1 beta functions with:
                l(1) =   0
     Q(r) pseudized with  8 coefficients,  rinner =    0.800

     PseudoPot. # 4 for N  read from file:
     /storage/coda1/p-amedford6/0/shared/rich_project_chbe-medford/medford-share/data/pseudos_module/espresso/nninc/pbe/van/N.UPF
     MD5 check sum: 90d10febe142ad51ac9d5be1deb811c4
     Pseudo is Ultrasoft, Zval =  5.0
     Generated by new atomic code, or converted to UPF format
     Using radial grid of  729 points,  4 beta functions with:
                l(1) =   0
                l(2) =   0
                l(3) =   1
                l(4) =   1
     Q(r) pseudized with  8 coefficients,  rinner =    0.800   0.800   0.800

     PseudoPot. # 5 for C  read from file:
     /storage/coda1/p-amedford6/0/shared/rich_project_chbe-medford/medford-share/data/pseudos_module/espresso/nninc/pbe/van/C.UPF
     MD5 check sum: 1a69bf6b8db32088f5b2163dbdb77a27
     Pseudo is Ultrasoft, Zval =  4.0
     Generated by new atomic code, or converted to UPF format
     Using radial grid of  721 points,  4 beta functions with:
                l(1) =   0
                l(2) =   0
                l(3) =   1
                l(4) =   1
     Q(r) pseudized with  8 coefficients,  rinner =    0.800   0.800   0.800

     atomic species   valence    mass     pseudopotential
        Ti1           12.00    47.86700     Ti( 1.00)
        O1             6.00    15.99900     O ( 1.00)
        H1             1.00     1.00800     H ( 1.00)
        N1             5.00    14.00700     N ( 1.00)
        C1             4.00    12.01100     C ( 1.00)

     Starting magnetic structure
     atomic species   magnetization
        Ti1          0.000
        O1           0.000
        H1           0.000
        N1           0.000
        C1           0.025

     No symmetry found

   Cartesian axes

     site n.     atom                  positions (alat units)
         1           Ti1 tau(   1) = (   0.0004258   2.9801865   6.0000000  )
         2           Ti1 tau(   2) = (   3.2906075   1.4906267   6.0002472  )
         3           O1  tau(   3) = (   0.0006271   0.0005054   7.9858123  )
         4           O1  tau(   4) = (   3.2906025   0.0005020   7.3038282  )
         5           O1  tau(   5) = (   4.5942328   1.4918067   9.2879030  )
         6           O1  tau(   6) = (   1.9868534   1.4903216   9.2879459  )
         7           Ti1 tau(   7) = (   3.2907910   2.8959150   9.1758416  )
         8           Ti1 tau(   8) = (   0.0015273   1.4827037   9.2680791  )
         9           O1  tau(   9) = (   3.2884659   0.0075485  11.3235732  )
        10           O1  tau(  10) = (   0.0116148   5.9584955  10.6183126  )
        11           O1  tau(  11) = (   1.3171120   1.5008813  12.6157184  )
        12           O1  tau(  12) = (   5.2946386   1.4924346  12.6071097  )
        13           Ti1 tau(  13) = (   6.5241923   2.9548932  12.6217359  )
        14           Ti1 tau(  14) = (   3.2094326   1.4975571  12.4685497  )
        15           O1  tau(  15) = (   6.5712017   0.0435206  14.6415704  )
        16           O1  tau(  16) = (   3.3105969   0.0188825  13.9167609  )
        17           O1  tau(  17) = (   4.5276945   1.5520673  16.0775932  )
        18           O1  tau(  18) = (   2.0451199   1.5488911  16.0433559  )
        19           Ti1 tau(  19) = (   3.3056363   3.0248959  15.6834923  )
        20           Ti1 tau(  20) = (   0.0598299   1.5678558  15.8702049  )
        21           O1  tau(  21) = (   3.2904802   0.0005063   4.7018136  )
        22           O1  tau(  22) = (   0.0261329   0.0581799  17.1997403  )
        23           O1  tau(  23) = (   1.3043587   1.4918075   6.0039043  )
        24           O1  tau(  24) = (   5.2767064   1.4903225   6.0039473  )
        25           Ti1 tau(  25) = (   0.0000382   5.9609847   6.0000000  )
        26           Ti1 tau(  26) = (   3.2902200   4.4714249   6.0002472  )
        27           O1  tau(  27) = (   0.0002396   2.9813036   7.9858123  )
        28           O1  tau(  28) = (   3.2902150   2.9813002   7.3038282  )
        29           O1  tau(  29) = (   4.5938453   4.4726049   9.2879030  )
        30           O1  tau(  30) = (   1.9864658   4.4711199   9.2879459  )
        31           Ti1 tau(  31) = (   3.2891106   5.8743827   9.1763621  )
        32           Ti1 tau(  32) = (   0.0006254   4.4649316   9.2693709  )
        33           O1  tau(  33) = (   3.2900467   2.9919642  11.3219399  )
        34           O1  tau(  34) = (   0.0092240   2.9805883  10.6323155  )
        35           O1  tau(  35) = (   1.3109590   4.4888342  12.6262493  )
        36           O1  tau(  36) = (   5.2962169   4.4808628  12.6191006  )
        37           Ti1 tau(  37) = (   6.5213093   5.9327278  12.5667326  )
        38           Ti1 tau(  38) = (   3.2063601   4.4772876  12.4706241  )
        39           O1  tau(  39) = (   6.5765807   2.9606619  14.6437028  )
        40           O1  tau(  40) = (   3.3047873   3.0036736  13.8926904  )
        41           O1  tau(  41) = (   4.5386289   4.5058657  16.0833063  )
        42           O1  tau(  42) = (   2.0584685   4.5123608  16.0729366  )
        43           Ti1 tau(  43) = (   3.3398093   0.0384087  15.7085799  )
        44           Ti1 tau(  44) = (   0.0478225   4.6849499  16.0879628  )
        45           O1  tau(  45) = (   3.2900926   2.9813045   4.7018136  )
        46           O1  tau(  46) = (   1.3039711   4.4726057   6.0039043  )
        47           O1  tau(  47) = (   5.2763189   4.4711207   6.0039473  )
        48           H1  tau(  48) = (   5.6109407   2.9812845  17.7881963  )
        49           N1  tau(  49) = (   6.5652763   3.0051276  17.4431066  )
        50           C1  tau(  50) = (   0.8863280   2.9891452  18.6126320  )
        51           H1  tau(  51) = (   1.3596840   3.9617220  18.7724638  )
        52           H1  tau(  52) = (   0.3315535   2.7344040  19.5171108  )
        53           H1  tau(  53) = (   1.6705027   2.2407838  18.4910999  )

     number of k points=    10  Fermi-Dirac smearing, width (Ry)=  0.0073
                       cart. coord. in units 2pi/alat
        k(    1) = (   0.0000000   0.0000000   0.0000000), wk =   0.0625000
        k(    2) = (   0.0000000   0.0419351   0.0000000), wk =   0.1250000
        k(    3) = (   0.0000000  -0.0838702   0.0000000), wk =   0.0625000
        k(    4) = (   0.0379955   0.0000049   0.0000000), wk =   0.1250000
        k(    5) = (   0.0379955   0.0419400   0.0000000), wk =   0.1250000
        k(    6) = (   0.0379955  -0.0838652   0.0000000), wk =   0.1250000
        k(    7) = (   0.0379955  -0.0419301   0.0000000), wk =   0.1250000
        k(    8) = (  -0.0759910  -0.0000099   0.0000000), wk =   0.0625000
[...]

     Initial potential from superposition of free atoms

     starting charge  374.99916, renormalised to  391.00000

     negative rho (up, down):  8.890E-03 8.897E-03

     %%%%%%%%%%%%%%%%%%%%%%%%%%%%%%%%%%%%%%%%%%%%%%%%%%%%%%%%%%%%%%%%%%%%%%%%
     %                                                                      %
     % You are using vdW-DF, which was implemented by the Thonhauser group. %
     % Please cite the following two papers that made this development      %
     % possible and the two reviews that describe the various versions:     %
     %                                                                      %
     %   T. Thonhauser et al., PRL 115, 136402 (2015).                      %
     %   T. Thonhauser et al., PRB 76, 125112 (2007).                       %
     %   K. Berland et al., Rep. Prog. Phys. 78, 066501 (2015).             %
     %   D.C. Langreth et al., J. Phys.: Condens. Matter 21, 084203 (2009). %
     %                                                                      %
     %                                                                      %
     % If you are calculating the stress with vdW-DF, please also cite:     %
     %                                                                      %
     %   R. Sabatini et al., J. Phys.: Condens. Matter 24, 424209 (2012).   %
     %                                                                      %
     %%%%%%%%%%%%%%%%%%%%%%%%%%%%%%%%%%%%%%%%%%%%%%%%%%%%%%%%%%%%%%%%%%%%%%%%

     Adding external electric field

     Computed dipole along edir(3) :
        Dipole               -5.8084 Ry au,        -14.7635 Debye
        Dipole field         -0.0110 Ry au,

        Potential amp.        1.0161 Ry
        Total length         46.3494 bohr

[...]

     Starting wfcs are  296 atomic wfcs
  @ DRIVER MODE: Message from server: STATUS
  @ DRIVER MODE: Message from server: POSDATA
  @ DRIVER MODE: Reading and sharing cell
  @ DRIVER MODE: Reading and sharing positions
  @ DRIVER MODE: Received positions

     Self-consistent Calculation

     iteration #  1     ecut=    29.40 Ry     beta= 0.05
     Davidson diagonalization with overlap
     c_bands:  2 eigenvalues not converged
     c_bands:  1 eigenvalues not converged
     c_bands:  1 eigenvalues not converged
     c_bands:  2 eigenvalues not converged
     c_bands:  4 eigenvalues not converged
     c_bands:  2 eigenvalues not converged
     c_bands:  1 eigenvalues not converged
     c_bands:  1 eigenvalues not converged
     c_bands:  2 eigenvalues not converged
     c_bands:  3 eigenvalues not converged
     c_bands:  1 eigenvalues not converged
     c_bands:  1 eigenvalues not converged
     c_bands:  2 eigenvalues not converged
     c_bands:  4 eigenvalues not converged
     c_bands:  2 eigenvalues not converged
     c_bands:  1 eigenvalues not converged
     c_bands:  1 eigenvalues not converged
     c_bands:  2 eigenvalues not converged
     ethr =  1.00E-05,  avg # of iterations = 19.5

[...]

     total energy              =   -2770.92041134 Ry
     estimated scf accuracy    <    1638.58315486 Ry

     total magnetization       =     0.01 Bohr mag/cell
     absolute magnetization    =     0.02 Bohr mag/cell

[...]

     iteration #  3     ecut=    29.40 Ry     beta= 0.05
     Davidson diagonalization with overlap
     ethr =  1.00E-02,  avg # of iterations = 15.0

[...]

     iteration # 45     ecut=    29.40 Ry     beta= 0.05
     Davidson diagonalization with overlap
     c_bands:  1 eigenvalues not converged
     ethr =  1.56E-09,  avg # of iterations =  8.7

[...]

     total energy              =   -2920.42044999 Ry
     estimated scf accuracy    <       0.00000010 Ry

[...]

     iteration # 60     ecut=    29.40 Ry     beta= 0.05
     Davidson diagonalization with overlap
     ethr =  2.22E-11,  avg # of iterations =  6.9

     negative rho (up, down):  9.151E-03 9.151E-03

[...]

     Adding external electric field

     Computed dipole along edir(3) :
        Dipole                0.6948 Ry au,          1.7659 Debye
        Dipole field          0.0013 Ry au,

        Potential amp.       -0.1215 Ry
        Total length         46.3494 bohr

     Magnetic moment per site  (integrated on atomic sphere of radius R)
     atom   1 (R=0.717)  charge=  7.8575  magn= -0.0021
     atom   2 (R=0.717)  charge=  7.8411  magn= -0.0003
     atom   3 (R=0.717)  charge=  4.8648  magn=  0.0001
     atom   4 (R=0.717)  charge=  4.9003  magn=  0.0001
     atom   5 (R=0.717)  charge=  4.8705  magn=  0.0000
     atom   6 (R=0.717)  charge=  4.8712  magn=  0.0000
     atom   7 (R=0.717)  charge=  7.8399  magn= -0.0001
     atom   8 (R=0.717)  charge=  7.8316  magn= -0.0005
     atom   9 (R=0.717)  charge=  4.8873  magn= -0.0000
     atom  10 (R=0.717)  charge=  4.8598  magn=  0.0000
     atom  11 (R=0.717)  charge=  4.8722  magn= -0.0000
     atom  12 (R=0.717)  charge=  4.8711  magn= -0.0000
     atom  13 (R=0.717)  charge=  7.8297  magn= -0.0000
     atom  14 (R=0.717)  charge=  7.8427  magn=  0.0000
     atom  15 (R=0.717)  charge=  4.8599  magn= -0.0000
     atom  16 (R=0.717)  charge=  4.8822  magn= -0.0000
     atom  17 (R=0.717)  charge=  4.8580  magn= -0.0000
     atom  18 (R=0.717)  charge=  4.8644  magn= -0.0000
     atom  19 (R=0.717)  charge=  7.8685  magn=  0.0000
     atom  20 (R=0.717)  charge=  7.8399  magn=  0.0000
     atom  21 (R=0.717)  charge=  4.7571  magn=  0.0005
     atom  22 (R=0.717)  charge=  4.8381  magn=  0.0000
     atom  23 (R=0.717)  charge=  4.8628  magn=  0.0003
     atom  24 (R=0.717)  charge=  4.8628  magn=  0.0003
     atom  25 (R=0.717)  charge=  7.8575  magn= -0.0021
     atom  26 (R=0.717)  charge=  7.8411  magn= -0.0003
     atom  27 (R=0.717)  charge=  4.8641  magn=  0.0001
     atom  28 (R=0.717)  charge=  4.9005  magn=  0.0001
     atom  29 (R=0.717)  charge=  4.8713  magn=  0.0000
     atom  30 (R=0.717)  charge=  4.8719  magn=  0.0000
     atom  31 (R=0.717)  charge=  7.8400  magn= -0.0001
     atom  32 (R=0.717)  charge=  7.8317  magn= -0.0005
     atom  33 (R=0.717)  charge=  4.8864  magn= -0.0000
     atom  34 (R=0.717)  charge=  4.8464  magn=  0.0000
     atom  35 (R=0.717)  charge=  4.8726  magn= -0.0000
     atom  36 (R=0.717)  charge=  4.8718  magn= -0.0000
     atom  37 (R=0.717)  charge=  7.8314  magn= -0.0000
     atom  38 (R=0.717)  charge=  7.8429  magn=  0.0000
     atom  39 (R=0.717)  charge=  4.8524  magn= -0.0000
     atom  40 (R=0.717)  charge=  4.8881  magn= -0.0000
     atom  41 (R=0.717)  charge=  4.8601  magn= -0.0000
     atom  42 (R=0.717)  charge=  4.8621  magn= -0.0000
     atom  43 (R=0.717)  charge=  7.8658  magn=  0.0000
     atom  44 (R=0.717)  charge=  7.8695  magn= -0.0000
     atom  45 (R=0.717)  charge=  4.7571  magn=  0.0005
     atom  46 (R=0.717)  charge=  4.8628  magn=  0.0003
     atom  47 (R=0.717)  charge=  4.8628  magn=  0.0003
     atom  48 (R=0.419)  charge=  0.4541  magn=  0.0000
     atom  49 (R=0.419)  charge=  1.3232  magn= -0.0000
     atom  50 (R=0.450)  charge=  0.8489  magn=  0.0000
     atom  51 (R=0.419)  charge=  0.4421  magn= -0.0000
     atom  52 (R=0.419)  charge=  0.4441  magn= -0.0000
     atom  53 (R=0.419)  charge=  0.4434  magn= -0.0000

     End of self-consistent calculation

 ------ SPIN UP ------------

          k = 0.0000 0.0000 0.0000 ( 18029 PWs)   bands (ev):

   -55.9797 -55.9733 -55.9456 -55.9372 -55.8852 -55.8244 -55.8196 -55.7863
   -55.7850 -55.7524 -55.7459 -55.7123 -55.5553 -55.2756 -54.9538 -54.9198
   -32.5331 -32.4621 -32.3341 -32.3208 -32.3003 -32.2848 -32.2725 -32.2370
   -32.2213 -32.2204 -32.1961 -32.1891 -32.1564 -32.1312 -32.1249 -32.1179
   -32.1161 -32.0840 -32.0644 -32.0362 -32.0307 -32.0263 -32.0109 -31.9893
   -31.9795 -31.9775 -31.9726 -31.9625 -31.9492 -31.9426 -31.9403 -31.9349
   -31.9227 -31.9164 -31.8991 -31.8930 -31.8585 -31.8199 -31.7242 -31.5497
   -31.5430 -31.4720 -31.3605 -31.2727 -31.2503 -31.1772 -31.0907 -30.9797
   -16.7425 -16.4591 -16.2798 -16.1368 -16.1036 -16.0186 -15.8181 -15.6930
   -15.6800 -15.5768 -15.5390 -15.5161 -15.5083 -15.4812 -15.4784 -15.4194
   -15.4163 -15.4039 -15.3915 -15.3355 -15.3115 -15.2717 -15.1775 -15.1536
   -15.1379 -15.1115 -15.0305 -15.0232 -14.5834 -14.1009 -13.4574 -13.3411
    -8.9325  -4.3699  -4.1132  -3.9363  -3.8973  -3.8839  -3.8355  -3.5837
    -3.5677  -3.3118  -3.1930  -3.1767  -3.1673  -3.1517  -3.1374  -3.1179
    -2.8806  -2.8103  -2.7964  -2.7742  -2.7670  -2.7639  -2.7519  -2.7475
    -2.7054  -2.6453  -2.5278  -2.5145  -2.4087  -2.3613  -2.3386  -2.2909
    -2.2474  -2.2408  -2.2286  -2.2113  -2.1973  -2.1776  -2.1598  -2.0253
    -1.9618  -1.8338  -1.7861  -1.7801  -1.5822  -1.5366  -1.4479  -1.4243
    -1.4079  -1.4005  -1.3683  -1.2882  -1.1967  -1.1397  -1.1262  -1.0734
    -0.9967  -0.9852  -0.8747  -0.8700  -0.8062  -0.7503  -0.7412  -0.7316
    -0.6865  -0.6131  -0.5404  -0.4660  -0.4166  -0.3948  -0.3680  -0.2893
    -0.2591  -0.1621  -0.1443  -0.0981  -0.0942  -0.0451  -0.0033   0.0066
     0.0132   0.0279   0.0456   0.1942   0.3013   0.3582   0.3911   0.4020
     0.5576   0.5935   0.6816   0.7693   0.9945   1.0673   1.1616   1.2604
     1.3244   1.6378   1.6833   3.1628   3.2427   3.2943   3.3022   3.4037
     3.4063   3.6126   3.6240   3.6345   3.7025

[...]

          k =-0.0760-0.0000 0.0000 ( 17886 PWs)   bands (ev):

[...]

 ------ SPIN DOWN ----------

[...]

          k = 0.0380-0.0419 0.0000 ( 17876 PWs)   bands (ev):

[...]

          k =-0.0760-0.0839 0.0000 ( 17948 PWs)   bands (ev):

   -55.9670 -55.9662 -55.9560 -55.9539 -55.8798 -55.8296 -55.8044 -55.8001
   -55.7709 -55.7690 -55.7299 -55.7287 -55.5543 -55.2765 -54.9378 -54.9377
   -32.3374 -32.3345 -32.2794 -32.2788 -32.2657 -32.2626 -32.2617 -32.2453
   -32.1830 -32.1820 -32.1754 -32.1716 -32.1485 -32.1202 -32.1017 -32.0975
   -32.0875 -32.0866 -32.0858 -32.0836 -32.0820 -32.0698 -32.0673 -32.0356
   -32.0248 -32.0189 -31.9946 -31.9854 -31.9674 -31.9669 -31.9627 -31.9616
   -31.9448 -31.9441 -31.9421 -31.9403 -31.8881 -31.8226 -31.7193 -31.6130
   -31.5452 -31.4974 -31.2640 -31.2639 -31.1743 -31.1741 -31.1350 -31.1349
   -16.1944 -16.1610 -15.9255 -15.9158 -15.9070 -15.8908 -15.7462 -15.6942
   -15.6859 -15.6790 -15.6547 -15.6307 -15.5803 -15.5493 -15.5156 -15.5089
   -15.5023 -15.4971 -15.4407 -15.4343 -15.4119 -15.4045 -15.2910 -15.2868
   -15.2854 -15.2094 -15.1450 -15.0117 -14.7535 -14.1219 -13.4413 -13.4412
    -8.9362  -4.3809  -3.4889  -3.4508  -3.2770  -3.1925  -3.1653  -3.1522
    -3.1311  -3.0515  -2.8919  -2.8773  -2.8588  -2.8459  -2.8057  -2.8006
    -2.7889  -2.7749  -2.7679  -2.7501  -2.7163  -2.6756  -2.6472  -2.6402
    -2.6312  -2.6066  -2.5943  -2.5677  -2.5623  -2.5295  -2.5213  -2.5025
    -2.4788  -2.2171  -2.1980  -2.1810  -2.1119  -2.1051  -2.0703  -2.0621
    -2.0430  -2.0296  -1.9777  -1.8765  -1.7133  -1.6804  -1.6671  -1.6506
    -1.5853  -1.5656  -1.4163  -1.3879  -1.3711  -1.3313  -1.2824  -1.2526
    -1.2157  -1.1764  -1.1388  -1.0783  -1.0705  -0.9911  -0.9409  -0.9404
    -0.9133  -0.8435  -0.7647  -0.7475  -0.7358  -0.6944  -0.6807  -0.5994
    -0.5768  -0.4784  -0.4656  -0.3952  -0.3623  -0.2974  -0.0946   0.0038
     0.0627   0.0863   0.1392   0.2367   0.2905   0.3052   0.3382   0.3432
     0.4029   0.4436   0.5580   0.5656   0.6340   0.7376   1.2719   1.4328
     1.4334   1.5045   1.5046   3.4235   3.4292   3.4787   3.5095   3.6600
     3.6645   3.6875   3.6886   3.8120   3.8426

     the Fermi energy is     3.1547 ev

!    total energy              =   -2920.42049167 Ry
     estimated scf accuracy    <       0.00000004 Ry
     smearing contrib. (-TS)   =      -0.02203131 Ry
     internal energy E=F+TS    =   -2920.39846036 Ry

     The total energy is F=E-TS. E is the sum of the following terms:
     one-electron contribution =  -24727.71704494 Ry
     hartree contribution      =   12448.52935717 Ry
     xc contribution           =    -480.87623554 Ry
     ewald contribution        =    9839.66455202 Ry
     electric field correction =       0.00091093 Ry

     total magnetization       =    -0.01 Bohr mag/cell
     absolute magnetization    =     0.01 Bohr mag/cell

     convergence has been achieved in  60 iterations

     Forces acting on atoms (cartesian axes, Ry/au):

     atom    1 type  1   force =     0.00010155   -0.00018841    0.09687513
     atom    2 type  1   force =     0.00004796   -0.00050439   -0.17506088
     atom    3 type  2   force =     0.00012913    0.00000609   -0.02534907
     atom    4 type  2   force =    -0.00003389   -0.00128473    0.05235904
     atom    5 type  2   force =    -0.01223600   -0.00000840    0.00298877
     atom    6 type  2   force =     0.01366340    0.00058684    0.00232208
     atom    7 type  1   force =     0.00058690    0.00034248   -0.01304182
     atom    8 type  1   force =     0.00047749    0.00729553    0.03067349
     atom    9 type  2   force =     0.00055974    0.00003463   -0.00021232
     atom   10 type  2   force =    -0.00267943    0.00210652   -0.01739107
     atom   11 type  2   force =    -0.00014957    0.00007026   -0.00002666
     atom   12 type  2   force =     0.00047535    0.00034176    0.00017651
     atom   13 type  1   force =    -0.00012206   -0.00056154   -0.00016915
     atom   14 type  1   force =    -0.00042799    0.00004713    0.00082779
     atom   15 type  2   force =    -0.00000409   -0.00085334    0.00081592
     atom   16 type  2   force =     0.00025931    0.00063437   -0.00047600
     atom   17 type  2   force =     0.00070050    0.00009870    0.00071761
     atom   18 type  2   force =    -0.00006912   -0.00008508    0.00002979
     atom   19 type  1   force =     0.00000532    0.00058540   -0.00022657
     atom   20 type  1   force =    -0.00007681   -0.00058423   -0.00019011
     atom   21 type  2   force =     0.00005579   -0.00002665    0.10312233
     atom   22 type  2   force =     0.00014687   -0.00077026    0.00105636
     atom   23 type  2   force =    -0.07165615   -0.00015474   -0.02783358
     atom   24 type  2   force =     0.07155871    0.00034303   -0.02789035
     atom   25 type  1   force =     0.00008795   -0.00013734    0.09658499
     atom   26 type  1   force =     0.00009552   -0.00023034   -0.17518611
     atom   27 type  2   force =     0.00011806   -0.00011414   -0.02441358
     atom   28 type  2   force =     0.00004306   -0.00104168    0.05227570
     atom   29 type  2   force =    -0.01243329    0.00064058    0.00278086
     atom   30 type  2   force =     0.01373499    0.00098422    0.00212857
     atom   31 type  1   force =     0.00045277    0.00314611   -0.01359040
     atom   32 type  1   force =     0.00033499   -0.00951812    0.03106938
     atom   33 type  2   force =    -0.00007109    0.00031449   -0.00060524
     atom   34 type  2   force =    -0.00206528    0.00182071   -0.02538700
     atom   35 type  2   force =    -0.00018458   -0.00029278    0.00037261
     atom   36 type  2   force =     0.00027186   -0.00078032    0.00040331
     atom   37 type  1   force =     0.00002474    0.00023210    0.00101082
     atom   38 type  1   force =    -0.00021751    0.00041428    0.00079310
     atom   39 type  2   force =    -0.00004116   -0.00017694   -0.00058421
     atom   40 type  2   force =     0.00042379    0.00007162    0.00058244
     atom   41 type  2   force =     0.00021800   -0.00021029   -0.00011023
     atom   42 type  2   force =    -0.00054861   -0.00042098   -0.00032072
     atom   43 type  1   force =    -0.00075513   -0.00027324    0.00044969
     atom   44 type  1   force =    -0.00056827   -0.00082026    0.00071423
     atom   45 type  2   force =     0.00003793   -0.00004783    0.10313237
     atom   46 type  2   force =    -0.07164892   -0.00006672   -0.02782850
     atom   47 type  2   force =     0.07156812    0.00034908   -0.02789414
     atom   48 type  3   force =     0.00026881    0.00011180   -0.00021354
     atom   49 type  4   force =    -0.00056460   -0.00053668   -0.00027434
     atom   50 type  5   force =     0.00048680   -0.00052765    0.00056675
     atom   51 type  3   force =    -0.00090884    0.00023192    0.00021752
     atom   52 type  3   force =     0.00024610   -0.00054141   -0.00045725
     atom   53 type  3   force =     0.00028086   -0.00005116   -0.00031433

     Total force =     0.368457     Total SCF correction =     0.000449
  @ DRIVER MODE: Message from server: STATUS
  @ DRIVER MODE: Message from server: GETFORCE
  @ DRIVER MODE: Returning v,forces,stress,ensemble

     Writing output data file ./calc.save/
  @ DRIVER MODE: Message from server: EXIT
  @ DRIVE MODE: Exiting

     General routines

     Parallel routines

   This run was terminated on:  18:19:33  15Jul2021

   JOB DONE.