     Program PWSCF v.6.7GPU starts on 15Sep2021 at 18:52: 5

     R & G space division:  proc/nbgrp/npool/nimage =      10
     Reading input from /storage/home/hcoda1/3/ntian30/research/carbon/CxH_vib/H2O_calc/ads_slab/CH3NNH3H2O_a/out_0009/pw.inp
Warning: card &CELL ignored
Warning: card   CELL_DYNAMICS='IPI', ignored
Warning: card / ignored

     Current dimensions of program PWSCF are:
     Max number of different atomic species (ntypx) = 10
     Max number of k-points (npk) =  40000
     Max angular momentum in pseudopotentials (lmaxx) =  3
     Presently no symmetry can be used with electric field

     Message from routine cell_base_init:
     DEPRECATED: use true lattice parameter, not A to a.u. conversion factor

     IMPORTANT: XC functional enforced from input :
     Exchange-correlation= BEEF-VDW
                           (   1   4  43  14   2   0   0)
     Any further DFT definition will be discarded
     Please, verify this is what you really want

  @ DRIVER MODE: Connecting to
 qe_1139763_2852621.sched-torque.pace.gatech.eduzce8qnra_scratch
  using UNIX socket
  @ DRIVER MODE: Message from server: STATUS
  @ DRIVER MODE: Message from server: INIT
  @ DRIVER MODE: Receiving replica           0          -1
  @ DRIVER MODE: Receiving encoded integer          25
  @ DRIVER MODE:  SCF:  T  FORCE:  T  STRESS:  F  VC:  F  ENSEMBLE:  F
  @ DRIVER MODE:  SCF:  T  FORCE:  T  STRESS:  F  VC:  F  ENSEMBLE:  F

     Using Slab Decomposition

     bravais-lattice index     =            0
     lattice parameter (alat)  =       1.8897  a.u.
     unit-cell volume          =    6658.9804 (a.u.)^3
     number of atoms/cell      =           59
     number of atomic types    =            5
     number of electrons       =       406.00
     number of Kohn-Sham states=          213
     kinetic-energy cutoff     =      29.3995  Ry
     charge density cutoff     =     293.9946  Ry
     scf convergence threshold =      7.3E-08
     mixing beta               =       0.0500
     number of iterations used =            8  plain     mixing
     Exchange-correlation= BEEF-VDW
                           (   1   4  43  14   2   0   0)

     celldm(1)=   1.889726  celldm(2)=   0.000000  celldm(3)=   0.000000
     celldm(4)=   0.000000  celldm(5)=   0.000000  celldm(6)=   0.000000

     crystal axes: (cart. coord. in units of alat)
               a(1) = (   6.579727   0.000000   0.000000 )
               a(2) = (  -0.000775   5.961596   0.000000 )
               a(3) = (   0.000000   0.000000  25.155947 )

     reciprocal axes: (cart. coord. in units 2 pi/alat)
               b(1) = (  0.151982  0.000020  0.000000 )
               b(2) = (  0.000000  0.167740  0.000000 )
               b(3) = (  0.000000  0.000000  0.039752 )

     PseudoPot. # 1 for Ti read from file:
     /storage/coda1/p-amedford6/0/shared/rich_project_chbe-medford/medford-share/data/pseudos_module/espresso/nninc/pbe/van/Ti.UPF
     MD5 check sum: 8e4df49b7f0d34bbd5052bf3f5ea0213
     Pseudo is Ultrasoft, Zval = 12.0
     Generated by new atomic code, or converted to UPF format
     Using radial grid of  851 points,  6 beta functions with:
                l(1) =   0
                l(2) =   0
                l(3) =   1
                l(4) =   1
                l(5) =   2
                l(6) =   2
     Q(r) pseudized with  8 coefficients,  rinner =    1.000   1.000   1.000
                                                       1.000   1.000

     PseudoPot. # 2 for O  read from file:
     /storage/coda1/p-amedford6/0/shared/rich_project_chbe-medford/medford-share/data/pseudos_module/espresso/nninc/pbe/van/O.UPF
     MD5 check sum: 78c19812648e8988a0fe644b0f25305e
     Pseudo is Ultrasoft, Zval =  6.0
     Generated by new atomic code, or converted to UPF format
     Using radial grid of  737 points,  4 beta functions with:
                l(1) =   0
                l(2) =   0
                l(3) =   1
                l(4) =   1
     Q(r) pseudized with  8 coefficients,  rinner =    0.800   0.800   0.800

     PseudoPot. # 3 for N  read from file:
     /storage/coda1/p-amedford6/0/shared/rich_project_chbe-medford/medford-share/data/pseudos_module/espresso/nninc/pbe/van/N.UPF
     MD5 check sum: 90d10febe142ad51ac9d5be1deb811c4
     Pseudo is Ultrasoft, Zval =  5.0
     Generated by new atomic code, or converted to UPF format
     Using radial grid of  729 points,  4 beta functions with:
                l(1) =   0
                l(2) =   0
                l(3) =   1
                l(4) =   1
     Q(r) pseudized with  8 coefficients,  rinner =    0.800   0.800   0.800

     PseudoPot. # 4 for C  read from file:
     /storage/coda1/p-amedford6/0/shared/rich_project_chbe-medford/medford-share/data/pseudos_module/espresso/nninc/pbe/van/C.UPF
     MD5 check sum: 1a69bf6b8db32088f5b2163dbdb77a27
     Pseudo is Ultrasoft, Zval =  4.0
     Generated by new atomic code, or converted to UPF format
     Using radial grid of  721 points,  4 beta functions with:
                l(1) =   0
                l(2) =   0
                l(3) =   1
                l(4) =   1
     Q(r) pseudized with  8 coefficients,  rinner =    0.800   0.800   0.800

     PseudoPot. # 5 for H  read from file:
     /storage/coda1/p-amedford6/0/shared/rich_project_chbe-medford/medford-share/data/pseudos_module/espresso/nninc/pbe/van/H.UPF
     MD5 check sum: b5ee9d7bfd3a09ee7748110bda690ff7
     Pseudo is Ultrasoft, Zval =  1.0
     Generated by new atomic code, or converted to UPF format
     Using radial grid of  615 points,  1 beta functions with:
                l(1) =   0
     Q(r) pseudized with  8 coefficients,  rinner =    0.800

     atomic species   valence    mass     pseudopotential
        Ti1           12.00    47.86700     Ti( 1.00)
        O1             6.00    15.99900     O ( 1.00)
        N1             5.00    14.00700     N ( 1.00)
        C1             4.00    12.01100     C ( 1.00)
        H1             1.00     1.00800     H ( 1.00)

     No symmetry found

   Cartesian axes

     site n.     atom                  positions (alat units)
         1           Ti1 tau(   1) = (   0.0004258   2.9801865   6.0000000  )
         2           Ti1 tau(   2) = (   3.2906075   1.4906267   6.0002472  )
         3           O1  tau(   3) = (   0.0006271   0.0005054   7.9858123  )
         4           O1  tau(   4) = (   3.2906025   0.0005020   7.3038282  )
         5           O1  tau(   5) = (   4.5942328   1.4918067   9.2879030  )
         6           O1  tau(   6) = (   1.9868534   1.4903216   9.2879459  )
         7           Ti1 tau(   7) = (   3.2907910   2.8959150   9.1758416  )
         8           Ti1 tau(   8) = (   0.0015273   1.4827037   9.2680791  )
         9           O1  tau(   9) = (   3.2954490   0.0159868  11.2922163  )
        10           O1  tau(  10) = (   0.0116148   5.9584955  10.6183126  )
        11           O1  tau(  11) = (   1.3242731   1.5050266  12.6143764  )
        12           O1  tau(  12) = (   5.3073597   1.5103589  12.6267567  )
        13           Ti1 tau(  13) = (   6.4831477   3.0011104  12.7364612  )
        14           Ti1 tau(  14) = (   3.1751638   1.4975352  12.4748964  )
        15           O1  tau(  15) = (   0.0212859   5.9607631  14.5987152  )
        16           O1  tau(  16) = (   3.3058086   0.0238703  13.8910224  )
        17           O1  tau(  17) = (   4.5539421   1.5574750  15.9960573  )
        18           O1  tau(  18) = (   2.0731809   1.5597727  15.9888445  )
        19           Ti1 tau(  19) = (   3.3176354   3.0289328  15.6523405  )
        20           Ti1 tau(  20) = (   0.0198791   1.6227889  16.0606591  )
        21           O1  tau(  21) = (   3.2904802   0.0005063   4.7018136  )
        22           O1  tau(  22) = (   0.0290054   0.0533443  17.2129705  )
        23           O1  tau(  23) = (   1.3043587   1.4918075   6.0039043  )
        24           O1  tau(  24) = (   5.2767064   1.4903225   6.0039473  )
        25           Ti1 tau(  25) = (   0.0000382   5.9609847   6.0000000  )
        26           Ti1 tau(  26) = (   3.2902200   4.4714249   6.0002472  )
        27           O1  tau(  27) = (   0.0002396   2.9813036   7.9858123  )
        28           O1  tau(  28) = (   3.2902150   2.9813002   7.3038282  )
        29           O1  tau(  29) = (   4.5938453   4.4726049   9.2879030  )
        30           O1  tau(  30) = (   1.9864658   4.4711199   9.2879459  )
        31           Ti1 tau(  31) = (   3.2891106   5.8743827   9.1763621  )
        32           Ti1 tau(  32) = (   0.0006254   4.4649316   9.2693709  )
        33           O1  tau(  33) = (   3.2918316   2.9938763  11.2915017  )
        34           O1  tau(  34) = (   0.0092240   2.9805883  10.6323155  )
        35           O1  tau(  35) = (   1.3226278   4.4784642  12.6110361  )
        36           O1  tau(  36) = (   5.3078083   4.4770455  12.6250823  )
        37           Ti1 tau(  37) = (   6.5141033   0.0190828  12.7620745  )
        38           Ti1 tau(  38) = (   3.1722404   4.4939287  12.4712879  )
        39           O1  tau(  39) = (   0.0035410   2.9850241  14.6487316  )
        40           O1  tau(  40) = (   3.3118331   3.0109266  13.8519036  )
        41           O1  tau(  41) = (   4.5522870   4.5059159  16.0259181  )
        42           O1  tau(  42) = (   2.0778134   4.5048723  16.0185459  )
        43           Ti1 tau(  43) = (   3.3116469   0.0596163  15.7453941  )
        44           Ti1 tau(  44) = (   0.0183239   4.5967015  16.1059876  )
        45           O1  tau(  45) = (   3.2900926   2.9813045   4.7018136  )
        46           O1  tau(  46) = (   1.3039711   4.4726057   6.0039043  )
        47           O1  tau(  47) = (   5.2763189   4.4711207   6.0039473  )
        48           N1  tau(  48) = (   0.0600715   3.0265251  17.3188267  )
        49           N1  tau(  49) = (   6.2826239   2.5195367  22.6224490  )
        50           C1  tau(  50) = (   0.2859397   3.0149959  18.7399364  )
        51           H1  tau(  51) = (   0.1411154   4.0060466  19.1894648  )
        52           H1  tau(  52) = (   6.1913215   2.3105648  19.2421896  )
        53           H1  tau(  53) = (   1.3125146   2.6868920  18.9691123  )
        54           H1  tau(  54) = (   6.1000088   3.2491606  23.3142794  )
        55           H1  tau(  55) = (   0.1456284   1.7586669  23.1118534  )
        56           H1  tau(  56) = (   0.3974265   2.9048463  21.9856970  )
        57           O1  tau(  57) = (   3.2908421   0.1144680  18.1630233  )
        58           H1  tau(  58) = (   4.0679411   5.5688996  18.4486002  )
        59           H1  tau(  59) = (   2.5060966   5.5711546  18.4327789  )

     number of k points=    10  Fermi-Dirac smearing, width (Ry)=  0.0073
                       cart. coord. in units 2pi/alat
        k(    1) = (   0.0000000   0.0000000   0.0000000), wk =   0.1250000
        k(    2) = (   0.0000000   0.0419351   0.0000000), wk =   0.2500000
        k(    3) = (   0.0000000  -0.0838702   0.0000000), wk =   0.1250000
        k(    4) = (   0.0379955   0.0000049   0.0000000), wk =   0.2500000
        k(    5) = (   0.0379955   0.0419400   0.0000000), wk =   0.2500000
        k(    6) = (   0.0379955  -0.0838652   0.0000000), wk =   0.2500000
        k(    7) = (   0.0379955  -0.0419301   0.0000000), wk =   0.2500000
        k(    8) = (  -0.0759910  -0.0000099   0.0000000), wk =   0.1250000
        k(    9) = (  -0.0759910   0.0419252   0.0000000), wk =   0.2500000
        k(   10) = (  -0.0759910  -0.0838800   0.0000000), wk =   0.1250000

     Initial potential from superposition of free atoms

     starting charge  389.99912, renormalised to  406.00000

     negative rho (up, down):  6.916E-03 0.000E+00

     %%%%%%%%%%%%%%%%%%%%%%%%%%%%%%%%%%%%%%%%%%%%%%%%%%%%%%%%%%%%%%%%%%%%%%%%
     %                                                                      %
     % You are using vdW-DF, which was implemented by the Thonhauser group. %
     % Please cite the following two papers that made this development      %
     % possible and the two reviews that describe the various versions:     %
     %                                                                      %
     %   T. Thonhauser et al., PRL 115, 136402 (2015).                      %
     %   T. Thonhauser et al., PRB 76, 125112 (2007).                       %
     %   K. Berland et al., Rep. Prog. Phys. 78, 066501 (2015).             %
     %   D.C. Langreth et al., J. Phys.: Condens. Matter 21, 084203 (2009). %
     %                                                                      %
     %                                                                      %
     % If you are calculating the stress with vdW-DF, please also cite:     %
     %                                                                      %
     %   R. Sabatini et al., J. Phys.: Condens. Matter 24, 424209 (2012).   %
     %                                                                      %
     %%%%%%%%%%%%%%%%%%%%%%%%%%%%%%%%%%%%%%%%%%%%%%%%%%%%%%%%%%%%%%%%%%%%%%%%

     Adding external electric field

     Computed dipole along edir(3) :
        Dipole              -16.2336 Ry au,        -41.2616 Debye
        Dipole field         -0.0306 Ry au,

        Potential amp.        2.8398 Ry
        Total length         46.3494 bohr

     Starting wfcs are  308 atomic wfcs
  @ DRIVER MODE: Message from server: STATUS
  @ DRIVER MODE: Message from server: POSDATA
  @ DRIVER MODE: Reading and sharing cell
  @ DRIVER MODE: Reading and sharing positions
  @ DRIVER MODE: Received positions

     Self-consistent Calculation

     iteration #  1     ecut=    29.40 Ry     beta= 0.05
     Davidson diagonalization with overlap
     c_bands:  2 eigenvalues not converged
     c_bands:  3 eigenvalues not converged
     c_bands:  5 eigenvalues not converged
     c_bands:  3 eigenvalues not converged
     c_bands:  3 eigenvalues not converged
     c_bands:  3 eigenvalues not converged
     c_bands:  1 eigenvalues not converged
     c_bands:  5 eigenvalues not converged
     c_bands:  3 eigenvalues not converged
     ethr =  1.00E-05,  avg # of iterations = 20.6

[...]

     total energy              =   -2253.47848993 Ry
     estimated scf accuracy    <    8262.97075566 Ry

     iteration #  2     ecut=    29.40 Ry     beta= 0.05
     Davidson diagonalization with overlap
     ethr =  1.00E-02,  avg # of iterations = 26.4

[...]

     iteration # 51     ecut=    29.40 Ry     beta= 0.05
     Davidson diagonalization with overlap
     c_bands:  1 eigenvalues not converged
     ethr =  2.94E-06,  avg # of iterations = 10.3

[...]

     total energy              =   -2977.74419438 Ry
     estimated scf accuracy    <       0.00000007 Ry

     iteration # 77     ecut=    29.40 Ry     beta= 0.05
     Davidson diagonalization with overlap
     ethr =  1.83E-11,  avg # of iterations =  6.0

     negative rho (up, down):  8.778E-03 0.000E+00

     Adding external electric field

     Computed dipole along edir(3) :
        Dipole                0.7648 Ry au,          1.9439 Debye
        Dipole field          0.0014 Ry au,

        Potential amp.       -0.1338 Ry
        Total length         46.3494 bohr

     End of self-consistent calculation

          k = 0.0000 0.0000 0.0000 ( 18029 PWs)   bands (ev):

   -56.2614 -56.2278 -55.3787 -55.3447 -55.3363 -55.3014 -55.1534 -55.1181
   -55.0316 -54.9110 -54.8931 -54.8914 -54.8771 -54.8065 -54.3902 -54.3407
   -32.6881 -32.5357 -32.5076 -32.4378 -32.3468 -32.3143 -31.8464 -31.8186
   -31.6888 -31.6444 -31.5956 -31.5777 -31.5476 -31.5384 -31.5094 -31.5044
   -31.4858 -31.4795 -31.4572 -31.4428 -31.4294 -31.3804 -31.3699 -31.3311
   -31.3187 -31.3020 -31.2933 -31.2797 -31.2558 -31.2549 -31.2505 -31.2263
   -31.1319 -31.1210 -31.0812 -31.0710 -31.0433 -31.0378 -31.0293 -31.0107
   -30.9801 -30.9270 -30.9050 -30.6338 -30.6115 -30.5806 -30.5598 -30.4509
   -18.4457 -16.4172 -15.9510 -15.7077 -15.6181 -15.5349 -15.4961 -15.4521
   -15.3000 -15.2325 -15.2099 -15.2094 -15.1387 -14.9906 -14.9435 -14.8455
   -14.7518 -14.6169 -14.5999 -14.5667 -14.5489 -14.5159 -14.5088 -14.4572
   -14.2938 -14.2581 -14.2101 -14.1470 -14.0616 -14.0370 -13.8366 -13.4095
   -13.2998 -12.6434  -7.4494  -6.2360  -4.1418  -4.0245  -3.9845  -3.4507
    -3.1814  -3.1538  -3.0253  -3.0205  -2.9752  -2.8352  -2.8274  -2.7538
    -2.7300  -2.6928  -2.6165  -2.5836  -2.5345  -2.4450  -2.4323  -2.4125
    -2.3989  -2.3833  -2.2617  -2.2202  -2.1680  -2.0643  -1.9562  -1.9131
    -1.8861  -1.8422  -1.8042  -1.7571  -1.7450  -1.7300  -1.7235  -1.6123
    -1.4980  -1.4653  -1.4503  -1.4040  -1.3859  -1.3770  -1.3551  -1.2700
    -1.1604  -1.0669  -0.9996  -0.9874  -0.9198  -0.9119  -0.8528  -0.7369
    -0.6761  -0.6717  -0.6557  -0.5521  -0.5254  -0.4540  -0.3912  -0.3332
    -0.2785  -0.2158  -0.1656  -0.1430  -0.1302  -0.0311   0.0404   0.0638
     0.1150   0.1244   0.1333   0.1541   0.2505   0.2864   0.3602   0.4047
     0.4409   0.4851   0.5682   0.6184   0.6861   0.7359   0.7589   0.8204
     0.8739   0.9294   1.0247   1.0629   1.0788   1.0870   1.1105   1.1707
     1.1845   1.2607   1.3437   1.3591   1.4314   1.4998   1.6606   1.6997
     1.9496   2.0210   2.6474   3.0156   3.1769   3.4720   3.6620   3.7995
     3.9948   4.0053   4.0123   4.2387   4.2621

[...]

          k = 0.0380-0.0419 0.0000 ( 17876 PWs)   bands (ev):

[...]

          k =-0.0760-0.0000 0.0000 ( 17886 PWs)   bands (ev):

[...]

          k =-0.0760-0.0839 0.0000 ( 17948 PWs)   bands (ev):

   -56.2448 -56.2444 -55.3637 -55.3593 -55.3238 -55.3141 -55.1368 -55.1345
   -55.0294 -54.8941 -54.8939 -54.8935 -54.8895 -54.8101 -54.3830 -54.3478
   -32.5216 -32.5212 -32.5051 -32.5049 -32.3910 -32.3906 -31.6701 -31.6642
   -31.6544 -31.6469 -31.5706 -31.5555 -31.5537 -31.5494 -31.5431 -31.5415
   -31.5357 -31.5271 -31.4949 -31.4785 -31.3824 -31.3803 -31.3467 -31.3409
   -31.3219 -31.2856 -31.2473 -31.2394 -31.2393 -31.2388 -31.2146 -31.1923
   -31.1495 -31.1189 -31.1186 -31.1155 -31.0925 -31.0797 -31.0796 -31.0654
   -31.0482 -31.0128 -30.7656 -30.7030 -30.6094 -30.5851 -30.5677 -30.5215
   -18.4448 -15.7678 -15.7659 -15.7306 -15.7299 -15.4630 -15.4597 -15.3662
   -15.3609 -15.2264 -15.1095 -15.0080 -14.9952 -14.9596 -14.9325 -14.8206
   -14.7998 -14.7905 -14.7804 -14.6690 -14.6488 -14.6035 -14.5922 -14.5760
   -14.5657 -14.2719 -14.2588 -14.1558 -14.1320 -14.0362 -13.9898 -13.4035
   -13.4033 -12.6620  -7.4431  -6.2285  -4.1533  -4.0245  -2.8643  -2.8571
    -2.8210  -2.8027  -2.8018  -2.7433  -2.6374  -2.5978  -2.5959  -2.5946
    -2.5135  -2.4462  -2.4382  -2.3668  -2.3340  -2.3145  -2.2564  -2.2458
    -2.1805  -2.1542  -2.1459  -2.1294  -2.1058  -2.1045  -2.0085  -1.9458
    -1.8939  -1.8905  -1.8232  -1.8051  -1.7411  -1.7202  -1.7088  -1.6771
    -1.6354  -1.6126  -1.5808  -1.5470  -1.5061  -1.4464  -1.2797  -1.2707
    -1.2613  -1.2397  -1.1146  -1.1079  -1.0766  -1.0464  -1.0407  -0.9669
    -0.9171  -0.8820  -0.8246  -0.7410  -0.7185  -0.6167  -0.5656  -0.5195
    -0.4633  -0.3571  -0.3397  -0.3290  -0.3196  -0.2894  -0.2231  -0.1939
    -0.1783  -0.0577  -0.0382   0.0149   0.0360   0.0923   0.1186   0.1830
     0.2100   0.2817   0.2935   0.3325   0.4065   0.4877   0.5220   0.5701
     0.5748   0.8510   0.9248   1.0497   1.0580   1.1227   1.1813   1.2528
     1.3124   1.3448   1.3716   1.4948   1.4991   1.5084   1.5088   1.5803
     1.5853   1.9273   2.5247   3.5915   3.5918   3.6583   3.6590   3.9797
     3.9860   4.0929   4.1033   4.2641   4.2792

     the Fermi energy is     2.8435 ev

!    total energy              =   -2977.74421627 Ry
     estimated scf accuracy    <       0.00000006 Ry
     smearing contrib. (-TS)   =      -0.00445565 Ry
     internal energy E=F+TS    =   -2977.73976062 Ry

     The total energy is F=E-TS. E is the sum of the following terms:
     one-electron contribution =  -22875.92666915 Ry
     hartree contribution      =   11535.67600693 Ry
     xc contribution           =    -496.32442986 Ry
     ewald contribution        =    8858.83422765 Ry
     electric field correction =       0.00110381 Ry

     convergence has been achieved in  77 iterations

     Forces acting on atoms (cartesian axes, Ry/au):

     atom    1 type  1   force =    -0.00003727   -0.00046847    0.12452958
     atom    2 type  1   force =    -0.00008308   -0.00046863   -0.15980754
     atom    3 type  2   force =     0.00019335   -0.00024231   -0.06791246
     atom    4 type  2   force =    -0.00000663   -0.00011558    0.02621468
     atom    5 type  2   force =    -0.01448158    0.00181923   -0.00990103
     atom    6 type  2   force =     0.01626175    0.00224331   -0.01024753
     atom    7 type  1   force =     0.00071469   -0.00388223    0.02889577
     atom    8 type  1   force =    -0.00034753   -0.00438982    0.10953870
     atom    9 type  2   force =     0.00023878   -0.00029285   -0.00050760
     atom   10 type  2   force =    -0.00231618    0.00256600   -0.07334687
     atom   11 type  2   force =    -0.00000789   -0.00034316    0.00000400
     atom   12 type  2   force =    -0.00016548   -0.00083374    0.00002896
     atom   13 type  1   force =     0.00106273   -0.00040691    0.00013456
     atom   14 type  1   force =    -0.00065340    0.00065423   -0.00010673
     atom   15 type  2   force =    -0.00029029   -0.00039576   -0.00073717
     atom   16 type  2   force =    -0.00001515   -0.00011209    0.00068151
     atom   17 type  2   force =     0.00016745   -0.00091655   -0.00022405
     atom   18 type  2   force =     0.00049038   -0.00052807    0.00010678
     atom   19 type  1   force =    -0.00114484   -0.00007276   -0.00097133
     atom   20 type  1   force =     0.00082613   -0.00014479   -0.00046621
     atom   21 type  2   force =     0.00004662   -0.00003674    0.09942950
     atom   22 type  2   force =     0.00002809   -0.00022794   -0.00040192
     atom   23 type  2   force =    -0.07966809   -0.00005369   -0.03249087
     atom   24 type  2   force =     0.07951380    0.00038474   -0.03253841
     atom   25 type  1   force =    -0.00001479   -0.00057907    0.12417474
     atom   26 type  1   force =    -0.00009348   -0.00063336   -0.15994272
     atom   27 type  2   force =     0.00030012   -0.00036319   -0.06696696
     atom   28 type  2   force =    -0.00001951    0.00015104    0.02512791
     atom   29 type  2   force =    -0.01510485    0.00192931   -0.00983905
     atom   30 type  2   force =     0.01678156    0.00242822   -0.01015391
     atom   31 type  1   force =     0.00074005   -0.00075819    0.02405380
     atom   32 type  1   force =    -0.00027603    0.00204491    0.11017925
     atom   33 type  2   force =     0.00007648    0.00029547    0.00058864
     atom   34 type  2   force =    -0.00193678    0.00200023   -0.07166808
     atom   35 type  2   force =    -0.00000219    0.00035328   -0.00000611
     atom   36 type  2   force =    -0.00054459    0.00062069   -0.00004553
     atom   37 type  1   force =     0.00119715    0.00044198    0.00030470
     atom   38 type  1   force =    -0.00055001   -0.00087943   -0.00021518
     atom   39 type  2   force =    -0.00027528   -0.00014402    0.00090873
     atom   40 type  2   force =     0.00017853   -0.00012621    0.00024329
     atom   41 type  2   force =     0.00104093    0.00015992    0.00015112
     atom   42 type  2   force =    -0.00050034   -0.00022767    0.00052408
     atom   43 type  1   force =    -0.00161188    0.00001394   -0.00032446
     atom   44 type  1   force =     0.00092341   -0.00012579   -0.00039611
     atom   45 type  2   force =     0.00002067   -0.00004812    0.09941524
     atom   46 type  2   force =    -0.07968223    0.00000316   -0.03250260
     atom   47 type  2   force =     0.07953727    0.00043697   -0.03253135
     atom   48 type  3   force =    -0.00087318   -0.00076045   -0.00042754
     atom   49 type  3   force =    -0.00418693    0.02169733   -0.00124988
     atom   50 type  4   force =    -0.00025438   -0.00012172    0.00003588
     atom   51 type  5   force =    -0.00020585    0.00039955    0.00027621
     atom   52 type  5   force =    -0.00005115   -0.00054039    0.00072894
     atom   53 type  5   force =     0.00050489   -0.00014621    0.00020816
     atom   54 type  5   force =     0.00102649   -0.00904080   -0.00703081
     atom   55 type  5   force =     0.00630193   -0.00911697    0.00572716
     atom   56 type  5   force =    -0.00308957   -0.00365928    0.00111466
     atom   57 type  2   force =     0.00159289   -0.00048634   -0.00036370
     atom   58 type  5   force =    -0.00047307    0.00090967    0.00002795
     atom   59 type  5   force =    -0.00080265    0.00013611   -0.00003076

     Total force =     0.424465     Total SCF correction =     0.000876
  @ DRIVER MODE: Message from server: STATUS
  @ DRIVER MODE: Message from server: GETFORCE
  @ DRIVER MODE: Returning v,forces,stress,ensemble

     Writing output data file ./calc.save/
  @ DRIVER MODE: Message from server: EXIT
  @ DRIVE MODE: Exiting

     General routines

     Parallel routines

   This run was terminated on:  19:12:34  15Sep2021

   JOB DONE.