     Program PWSCF v.6.7GPU starts on 16Sep2021 at  3:23:54

     R & G space division:  proc/nbgrp/npool/nimage =      10
     Reading input from /storage/home/hcoda1/3/ntian30/research/carbon/CxH_vib/H2O_calc/ads_slab/CHNNHHH2O_a/out_0037/pw.inp
Warning: card &CELL ignored
Warning: card   CELL_DYNAMICS='IPI', ignored
Warning: card / ignored

     Current dimensions of program PWSCF are:
     Max number of different atomic species (ntypx) = 10
     Max number of k-points (npk) =  40000
     Max angular momentum in pseudopotentials (lmaxx) =  3
     Presently no symmetry can be used with electric field

     Message from routine cell_base_init:
     DEPRECATED: use true lattice parameter, not A to a.u. conversion factor

     IMPORTANT: XC functional enforced from input :
     Exchange-correlation= BEEF-VDW
                           (   1   4  43  14   2   0   0)
     Any further DFT definition will be discarded
     Please, verify this is what you really want

  @ DRIVER MODE: Connecting to
 qe_1139763_2852630.sched-torque.pace.gatech.eduo_9u5tih_scratch
  using UNIX socket
  @ DRIVER MODE: Message from server: STATUS
  @ DRIVER MODE: Message from server: INIT
  @ DRIVER MODE: Receiving replica           0          -1
  @ DRIVER MODE: Receiving encoded integer          25
  @ DRIVER MODE:  SCF:  T  FORCE:  T  STRESS:  F  VC:  F  ENSEMBLE:  F
  @ DRIVER MODE:  SCF:  T  FORCE:  T  STRESS:  F  VC:  F  ENSEMBLE:  F

     Using Slab Decomposition

     bravais-lattice index     =            0
     lattice parameter (alat)  =       1.8897  a.u.
     unit-cell volume          =    6658.9804 (a.u.)^3
     number of atoms/cell      =           56
     number of atomic types    =            5
     number of electrons       =       403.00
     number of Kohn-Sham states=          211
     kinetic-energy cutoff     =      29.3995  Ry
     charge density cutoff     =     293.9946  Ry
     scf convergence threshold =      7.3E-08
     mixing beta               =       0.0500
     number of iterations used =            8  plain     mixing
     Exchange-correlation= BEEF-VDW
                           (   1   4  43  14   2   0   0)

     celldm(1)=   1.889726  celldm(2)=   0.000000  celldm(3)=   0.000000
     celldm(4)=   0.000000  celldm(5)=   0.000000  celldm(6)=   0.000000

     crystal axes: (cart. coord. in units of alat)
               a(1) = (   6.579727   0.000000   0.000000 )
               a(2) = (  -0.000775   5.961596   0.000000 )
               a(3) = (   0.000000   0.000000  25.155947 )

     reciprocal axes: (cart. coord. in units 2 pi/alat)
               b(1) = (  0.151982  0.000020  0.000000 )
               b(2) = (  0.000000  0.167740  0.000000 )
               b(3) = (  0.000000  0.000000  0.039752 )

     PseudoPot. # 1 for Ti read from file:
     /storage/coda1/p-amedford6/0/shared/rich_project_chbe-medford/medford-share/data/pseudos_module/espresso/nninc/pbe/van/Ti.UPF
     MD5 check sum: 8e4df49b7f0d34bbd5052bf3f5ea0213
     Pseudo is Ultrasoft, Zval = 12.0
     Generated by new atomic code, or converted to UPF format
     Using radial grid of  851 points,  6 beta functions with:
                l(1) =   0
                l(2) =   0
                l(3) =   1
                l(4) =   1
                l(5) =   2
                l(6) =   2
     Q(r) pseudized with  8 coefficients,  rinner =    1.000   1.000   1.000
                                                       1.000   1.000

     PseudoPot. # 2 for O  read from file:
     /storage/coda1/p-amedford6/0/shared/rich_project_chbe-medford/medford-share/data/pseudos_module/espresso/nninc/pbe/van/O.UPF
     MD5 check sum: 78c19812648e8988a0fe644b0f25305e
     Pseudo is Ultrasoft, Zval =  6.0
     Generated by new atomic code, or converted to UPF format
     Using radial grid of  737 points,  4 beta functions with:
                l(1) =   0
                l(2) =   0
                l(3) =   1
                l(4) =   1
     Q(r) pseudized with  8 coefficients,  rinner =    0.800   0.800   0.800

     PseudoPot. # 3 for N  read from file:
     /storage/coda1/p-amedford6/0/shared/rich_project_chbe-medford/medford-share/data/pseudos_module/espresso/nninc/pbe/van/N.UPF
     MD5 check sum: 90d10febe142ad51ac9d5be1deb811c4
     Pseudo is Ultrasoft, Zval =  5.0
     Generated by new atomic code, or converted to UPF format
     Using radial grid of  729 points,  4 beta functions with:
                l(1) =   0
                l(2) =   0
                l(3) =   1
                l(4) =   1
     Q(r) pseudized with  8 coefficients,  rinner =    0.800   0.800   0.800

     PseudoPot. # 4 for C  read from file:
     /storage/coda1/p-amedford6/0/shared/rich_project_chbe-medford/medford-share/data/pseudos_module/espresso/nninc/pbe/van/C.UPF
     MD5 check sum: 1a69bf6b8db32088f5b2163dbdb77a27
     Pseudo is Ultrasoft, Zval =  4.0
     Generated by new atomic code, or converted to UPF format
     Using radial grid of  721 points,  4 beta functions with:
                l(1) =   0
                l(2) =   0
                l(3) =   1
                l(4) =   1
     Q(r) pseudized with  8 coefficients,  rinner =    0.800   0.800   0.800

     PseudoPot. # 5 for H  read from file:
     /storage/coda1/p-amedford6/0/shared/rich_project_chbe-medford/medford-share/data/pseudos_module/espresso/nninc/pbe/van/H.UPF
     MD5 check sum: b5ee9d7bfd3a09ee7748110bda690ff7
     Pseudo is Ultrasoft, Zval =  1.0
     Generated by new atomic code, or converted to UPF format
     Using radial grid of  615 points,  1 beta functions with:
                l(1) =   0
     Q(r) pseudized with  8 coefficients,  rinner =    0.800

     atomic species   valence    mass     pseudopotential
        Ti1           12.00    47.86700     Ti( 1.00)
        O1             6.00    15.99900     O ( 1.00)
        N1             5.00    14.00700     N ( 1.00)
        C1             4.00    12.01100     C ( 1.00)
        H1             1.00     1.00800     H ( 1.00)

     No symmetry found

   Cartesian axes

     site n.     atom                  positions (alat units)
         1           Ti1 tau(   1) = (   0.0004258   2.9801865   6.0000000  )
         2           Ti1 tau(   2) = (   3.2906075   1.4906267   6.0002472  )
         3           O1  tau(   3) = (   0.0006271   0.0005054   7.9858123  )
         4           O1  tau(   4) = (   3.2906025   0.0005020   7.3038282  )
         5           O1  tau(   5) = (   4.5942328   1.4918067   9.2879030  )
         6           O1  tau(   6) = (   1.9868534   1.4903216   9.2879459  )
         7           Ti1 tau(   7) = (   3.2907910   2.8959150   9.1758416  )
         8           Ti1 tau(   8) = (   0.0015273   1.4827037   9.2680791  )
         9           O1  tau(   9) = (   3.3295752   5.9394884  11.3365386  )
        10           O1  tau(  10) = (   0.0116148   5.9584955  10.6183126  )
        11           O1  tau(  11) = (   1.3416459   1.4853116  12.6004455  )
        12           O1  tau(  12) = (   5.3426426   1.4786053  12.6369034  )
        13           Ti1 tau(  13) = (   0.0116414   2.9353973  12.6160321  )
        14           Ti1 tau(  14) = (   3.2634613   1.4579052  12.5012998  )
        15           O1  tau(  15) = (   0.1064876   0.0498873  14.6156690  )
        16           O1  tau(  16) = (   3.3207907   0.0021492  13.9347054  )
        17           O1  tau(  17) = (   4.6463059   1.4619937  15.9920056  )
        18           O1  tau(  18) = (   2.1466462   1.4989335  16.1123926  )
        19           Ti1 tau(  19) = (   3.4306617   2.9592634  15.6863987  )
        20           Ti1 tau(  20) = (   0.1411245   1.4409179  16.1562347  )
        21           O1  tau(  21) = (   3.2904802   0.0005063   4.7018136  )
        22           O1  tau(  22) = (   0.1093408   5.8617090  17.1288626  )
        23           O1  tau(  23) = (   1.3043587   1.4918075   6.0039043  )
        24           O1  tau(  24) = (   5.2767064   1.4903225   6.0039473  )
        25           Ti1 tau(  25) = (   0.0000382   5.9609847   6.0000000  )
        26           Ti1 tau(  26) = (   3.2902200   4.4714249   6.0002472  )
        27           O1  tau(  27) = (   0.0002396   2.9813036   7.9858123  )
        28           O1  tau(  28) = (   3.2902150   2.9813002   7.3038282  )
        29           O1  tau(  29) = (   4.5938453   4.4726049   9.2879030  )
        30           O1  tau(  30) = (   1.9864658   4.4711199   9.2879459  )
        31           Ti1 tau(  31) = (   3.2891106   5.8743827   9.1763621  )
        32           Ti1 tau(  32) = (   0.0006254   4.4649316   9.2693709  )
        33           O1  tau(  33) = (   3.3252478   2.9725824  11.3426849  )
        34           O1  tau(  34) = (   0.0092240   2.9805883  10.6323155  )
        35           O1  tau(  35) = (   1.3395427   4.4601989  12.6346899  )
        36           O1  tau(  36) = (   5.3460148   4.4586474  12.6692756  )
        37           Ti1 tau(  37) = (   6.5637397   5.9322234  12.5160321  )
        38           Ti1 tau(  38) = (   3.2635149   4.4558096  12.5102435  )
        39           O1  tau(  39) = (   0.1109093   2.9345503  14.7784033  )
        40           O1  tau(  40) = (   3.3425673   2.9461413  13.8942005  )
        41           O1  tau(  41) = (   4.6672108   4.4449251  15.9191901  )
        42           O1  tau(  42) = (   2.1284166   4.4082335  15.9970045  )
        43           Ti1 tau(  43) = (   3.3925976   5.9399099  15.7906296  )
        44           Ti1 tau(  44) = (   0.1175887   4.6074924  15.7225956  )
        45           O1  tau(  45) = (   3.2900926   2.9813045   4.7018136  )
        46           O1  tau(  46) = (   1.3039711   4.4726057   6.0039043  )
        47           O1  tau(  47) = (   5.2763189   4.4711207   6.0039473  )
        48           N1  tau(  48) = (   6.3322197   2.6896666  17.8857888  )
        49           C1  tau(  49) = (   0.7408832   3.1023054  18.6049742  )
        50           H1  tau(  50) = (   1.6825283   2.9574642  18.0630083  )
        51           N1  tau(  51) = (   5.0062801   2.8267163  18.4728511  )
        52           H1  tau(  52) = (   5.1803530   3.0494745  19.4549233  )
        53           H1  tau(  53) = (   4.5789568   1.9025856  18.4370215  )
        54           O1  tau(  54) = (   3.4703961   5.7297960  18.1507158  )
        55           H1  tau(  55) = (   4.0125945   4.9267423  18.3304466  )
        56           H1  tau(  56) = (   2.5980622   5.5532332  18.5227279  )

     number of k points=    10  Fermi-Dirac smearing, width (Ry)=  0.0073
                       cart. coord. in units 2pi/alat
        k(    1) = (   0.0000000   0.0000000   0.0000000), wk =   0.1250000
        k(    2) = (   0.0000000   0.0419351   0.0000000), wk =   0.2500000
        k(    3) = (   0.0000000  -0.0838702   0.0000000), wk =   0.1250000
        k(    4) = (   0.0379955   0.0000049   0.0000000), wk =   0.2500000
        k(    5) = (   0.0379955   0.0419400   0.0000000), wk =   0.2500000
        k(    6) = (   0.0379955  -0.0838652   0.0000000), wk =   0.2500000
        k(    7) = (   0.0379955  -0.0419301   0.0000000), wk =   0.2500000
        k(    8) = (  -0.0759910  -0.0000099   0.0000000), wk =   0.1250000
        k(    9) = (  -0.0759910   0.0419252   0.0000000), wk =   0.2500000
        k(   10) = (  -0.0759910  -0.0838800   0.0000000), wk =   0.1250000

     Initial potential from superposition of free atoms

     starting charge  386.99914, renormalised to  403.00000

     negative rho (up, down):  1.683E-02 0.000E+00

     %%%%%%%%%%%%%%%%%%%%%%%%%%%%%%%%%%%%%%%%%%%%%%%%%%%%%%%%%%%%%%%%%%%%%%%%
     %                                                                      %
     % You are using vdW-DF, which was implemented by the Thonhauser group. %
     % Please cite the following two papers that made this development      %
     % possible and the two reviews that describe the various versions:     %
     %                                                                      %
     %   T. Thonhauser et al., PRL 115, 136402 (2015).                      %
     %   T. Thonhauser et al., PRB 76, 125112 (2007).                       %
     %   K. Berland et al., Rep. Prog. Phys. 78, 066501 (2015).             %
     %   D.C. Langreth et al., J. Phys.: Condens. Matter 21, 084203 (2009). %
     %                                                                      %
     %                                                                      %
     % If you are calculating the stress with vdW-DF, please also cite:     %
     %                                                                      %
     %   R. Sabatini et al., J. Phys.: Condens. Matter 24, 424209 (2012).   %
     %                                                                      %
     %%%%%%%%%%%%%%%%%%%%%%%%%%%%%%%%%%%%%%%%%%%%%%%%%%%%%%%%%%%%%%%%%%%%%%%%

     Adding external electric field

     Computed dipole along edir(3) :
        Dipole              -12.6658 Ry au,        -32.1932 Debye
        Dipole field         -0.0239 Ry au,

        Potential amp.        2.2157 Ry
        Total length         46.3494 bohr

     Starting wfcs are  305 atomic wfcs
  @ DRIVER MODE: Message from server: STATUS
  @ DRIVER MODE: Message from server: POSDATA
  @ DRIVER MODE: Reading and sharing cell
  @ DRIVER MODE: Reading and sharing positions
  @ DRIVER MODE: Received positions

     Self-consistent Calculation

     iteration #  1     ecut=    29.40 Ry     beta= 0.05
     Davidson diagonalization with overlap
     c_bands:  3 eigenvalues not converged
     c_bands:  2 eigenvalues not converged
     c_bands:  5 eigenvalues not converged
     c_bands:  1 eigenvalues not converged
     c_bands:  4 eigenvalues not converged
     c_bands:  1 eigenvalues not converged
     c_bands:  2 eigenvalues not converged
     ethr =  1.00E-05,  avg # of iterations = 26.8

[...]

     total energy              =   -2339.26742204 Ry
     estimated scf accuracy    <    7193.06550899 Ry

     iteration #  2     ecut=    29.40 Ry     beta= 0.05
     Davidson diagonalization with overlap
     ethr =  1.00E-02,  avg # of iterations = 23.1

[...]

     iteration # 46     ecut=    29.40 Ry     beta= 0.05
     Davidson diagonalization with overlap
     c_bands:  1 eigenvalues not converged
     c_bands:  1 eigenvalues not converged
     ethr =  1.17E-06,  avg # of iterations = 12.4

[...]

     total energy              =   -2973.87549321 Ry
     estimated scf accuracy    <       0.00000012 Ry

     iteration # 70     ecut=    29.40 Ry     beta= 0.05
     Davidson diagonalization with overlap
     ethr =  3.09E-11,  avg # of iterations =  8.2

     negative rho (up, down):  1.574E-02 0.000E+00

     Adding external electric field

     Computed dipole along edir(3) :
        Dipole                0.4437 Ry au,          1.1277 Debye
        Dipole field          0.0008 Ry au,

        Potential amp.       -0.0776 Ry
        Total length         46.3494 bohr

     End of self-consistent calculation

          k = 0.0000 0.0000 0.0000 ( 18029 PWs)   bands (ev):

   -55.9071 -55.8730 -55.8710 -55.8335 -55.7919 -55.7906 -55.7349 -55.7241
   -55.6971 -55.6901 -55.6897 -55.6563 -55.4669 -55.3788 -54.8898 -54.8558
   -32.4119 -32.3913 -32.2783 -32.2338 -32.2241 -32.1991 -32.1805 -32.1612
   -32.1516 -32.1092 -32.0609 -32.0594 -32.0453 -32.0354 -32.0247 -32.0238
   -32.0131 -32.0087 -32.0050 -31.9942 -31.9871 -31.9728 -31.9643 -31.9308
   -31.9216 -31.9183 -31.9164 -31.9112 -31.8880 -31.8873 -31.8795 -31.8669
   -31.8571 -31.8439 -31.8362 -31.8297 -31.8025 -31.7588 -31.6966 -31.6349
   -31.5925 -31.5208 -31.2969 -31.2084 -31.1860 -31.1138 -31.0273 -30.9161
   -18.8627 -17.1831 -16.6213 -16.3850 -16.1482 -16.0693 -16.0440 -15.8146
   -15.7194 -15.6638 -15.5671 -15.5054 -15.4766 -15.4470 -15.4238 -15.4025
   -15.3618 -15.3494 -15.3298 -15.3288 -15.3020 -15.2927 -15.2558 -15.2500
   -15.2024 -15.0793 -15.0458 -15.0400 -15.0100 -14.9725 -14.5299 -13.3915
   -13.2750 -12.8313  -7.1229  -6.5921  -5.4984  -4.0016  -3.8676  -3.8590
    -3.8160  -3.7505  -3.6004  -3.5733  -3.3745  -3.2413  -3.1753  -3.0949
    -3.0777  -3.0398  -3.0139  -2.9091  -2.8241  -2.7893  -2.7209  -2.7055
    -2.6802  -2.6722  -2.6431  -2.6184  -2.5337  -2.5149  -2.4757  -2.4422
    -2.3259  -2.3072  -2.2505  -2.2225  -2.2151  -2.1963  -2.1724  -2.1629
    -2.1484  -2.1369  -2.0776  -2.0508  -1.9672  -1.9016  -1.8381  -1.7022
    -1.5604  -1.5207  -1.5090  -1.4087  -1.3823  -1.3474  -1.3281  -1.3041
    -1.2875  -1.1653  -1.0866  -1.0232  -1.0164  -0.9457  -0.8531  -0.7929
    -0.7355  -0.6781  -0.6720  -0.6510  -0.6464  -0.6117  -0.5392  -0.4026
    -0.3646  -0.3243  -0.2910  -0.2031  -0.1944  -0.1490  -0.1180  -0.0965
    -0.0639   0.0144   0.0262   0.0571   0.0786   0.0998   0.1226   0.1808
     0.3095   0.3312   0.3498   0.4071   0.4438   0.6031   0.7434   0.7867
     0.8892   1.0619   1.1331   1.1551   1.2238   1.3247   1.7041   1.7500
     2.7629   3.2089   3.3127   3.3465   3.3539   3.4548   3.4800   3.6704
     3.7149   3.7517   3.7824

[...]

          k = 0.0380-0.0419 0.0000 ( 17876 PWs)   bands (ev):

[...]

          k =-0.0760-0.0000 0.0000 ( 17886 PWs)   bands (ev):

[...]

          k =-0.0760-0.0839 0.0000 ( 17948 PWs)   bands (ev):

   -55.8905 -55.8895 -55.8578 -55.8465 -55.7886 -55.7847 -55.7408 -55.7088
   -55.7047 -55.7002 -55.6734 -55.6729 -55.4641 -55.3814 -54.8728 -54.8726
   -32.2284 -32.2068 -32.2064 -32.2063 -32.1849 -32.1843 -32.1268 -32.1190
   -32.0986 -32.0914 -32.0884 -32.0364 -32.0354 -32.0276 -32.0236 -32.0227
   -32.0172 -32.0134 -32.0113 -32.0098 -32.0086 -32.0059 -31.9939 -31.9909
   -31.9741 -31.9523 -31.9511 -31.9114 -31.9094 -31.9022 -31.9016 -31.8990
   -31.8924 -31.8893 -31.8887 -31.8829 -31.8799 -31.7750 -31.6947 -31.6413
   -31.5963 -31.5874 -31.1987 -31.1986 -31.1098 -31.1096 -31.0706 -31.0705
   -18.8604 -17.1744 -16.0482 -15.9629 -15.9248 -15.8356 -15.7898 -15.7561
   -15.6966 -15.6236 -15.5853 -15.5801 -15.5542 -15.4957 -15.4816 -15.4531
   -15.4354 -15.4237 -15.4193 -15.3673 -15.3611 -15.3520 -15.3473 -15.3339
   -15.3317 -15.3061 -15.2313 -15.2285 -15.1058 -14.8953 -14.8708 -13.3769
   -13.3767 -12.8472  -7.0828  -6.5836  -5.4353  -3.6716  -3.3919  -3.3281
    -3.2248  -3.1136  -3.0133  -3.0058  -2.9698  -2.9258  -2.8552  -2.8302
    -2.7745  -2.7546  -2.7401  -2.7236  -2.7192  -2.7082  -2.6752  -2.6522
    -2.5962  -2.5913  -2.5841  -2.5758  -2.5636  -2.5559  -2.5339  -2.5278
    -2.5010  -2.4754  -2.4368  -2.4046  -2.3222  -2.2468  -2.1697  -2.1218
    -2.0907  -2.0580  -2.0514  -2.0077  -1.9873  -1.9761  -1.9592  -1.8946
    -1.7942  -1.6755  -1.6184  -1.5953  -1.5462  -1.5107  -1.4875  -1.3797
    -1.3306  -1.3161  -1.2154  -1.1926  -1.1671  -1.1146  -1.0496  -1.0350
    -0.9921  -0.9488  -0.9058  -0.8658  -0.8605  -0.8099  -0.7661  -0.7367
    -0.6563  -0.6464  -0.6024  -0.5923  -0.5800  -0.5419  -0.4937  -0.4144
    -0.3179  -0.2727  -0.2216  -0.0684   0.0051   0.1411   0.1935   0.2590
     0.2754   0.3750   0.4032   0.4054   0.4871   0.5309   0.5875   0.6194
     0.6242   0.6367   0.8019   1.1029   1.4967   1.4977   1.5697   1.5701
     2.7200   3.5420   3.5995   3.6132   3.6392   3.7253   3.7489   3.7591
     3.7607   3.8799   3.8970

     the Fermi energy is     3.2216 ev

!    total energy              =   -2973.87551499 Ry
     estimated scf accuracy    <       0.00000005 Ry
     smearing contrib. (-TS)   =      -0.02178679 Ry
     internal energy E=F+TS    =   -2973.85372820 Ry

     The total energy is F=E-TS. E is the sum of the following terms:
     one-electron contribution =  -24185.15413225 Ry
     hartree contribution      =   12184.12487116 Ry
     xc contribution           =    -494.00322532 Ry
     ewald contribution        =    9521.17838676 Ry
     electric field correction =       0.00037146 Ry

     convergence has been achieved in  70 iterations

     Forces acting on atoms (cartesian axes, Ry/au):

     atom    1 type  1   force =     0.00016142   -0.00030194    0.09558234
     atom    2 type  1   force =     0.00005223   -0.00045170   -0.17579503
     atom    3 type  2   force =     0.00023292    0.00002196   -0.02351673
     atom    4 type  2   force =     0.00008628   -0.00152644    0.05313564
     atom    5 type  2   force =    -0.01025560   -0.00136993    0.00262470
     atom    6 type  2   force =     0.01292450   -0.00101816    0.00440667
     atom    7 type  1   force =     0.00139697    0.00129102   -0.00564482
     atom    8 type  1   force =    -0.00059740    0.01375723    0.01967003
     atom    9 type  2   force =     0.00024337   -0.00056226    0.00102221
     atom   10 type  2   force =    -0.00153542   -0.00072088   -0.01580645
     atom   11 type  2   force =    -0.00106185    0.00026615   -0.00022200
     atom   12 type  2   force =     0.00041315    0.00000426    0.00013644
     atom   13 type  1   force =     0.00056576    0.00084029    0.00028790
     atom   14 type  1   force =    -0.00022735   -0.00006991    0.00045315
     atom   15 type  2   force =    -0.00036631   -0.00002084   -0.00037312
     atom   16 type  2   force =     0.00000176   -0.00085721   -0.00040094
     atom   17 type  2   force =    -0.00062117   -0.00031089   -0.00012693
     atom   18 type  2   force =     0.00012158   -0.00015309   -0.00061669
     atom   19 type  1   force =     0.00049459   -0.00061651   -0.00099876
     atom   20 type  1   force =    -0.00056350   -0.00077408   -0.00047071
     atom   21 type  2   force =     0.00007289    0.00001705    0.10319040
     atom   22 type  2   force =    -0.00018457    0.00121677    0.00045303
     atom   23 type  2   force =    -0.07148392   -0.00007758   -0.02757528
     atom   24 type  2   force =     0.07145126    0.00038138   -0.02762975
     atom   25 type  1   force =     0.00009322   -0.00026725    0.09539559
     atom   26 type  1   force =     0.00004108   -0.00022615   -0.17585755
     atom   27 type  2   force =     0.00024880   -0.00036632   -0.02227225
     atom   28 type  2   force =     0.00008162   -0.00121732    0.05318696
     atom   29 type  2   force =    -0.01029816    0.00029624    0.00173683
     atom   30 type  2   force =     0.01288955    0.00085619    0.00359627
     atom   31 type  1   force =     0.00161560    0.00306187   -0.01049425
     atom   32 type  1   force =    -0.00067463   -0.01566001    0.01965048
     atom   33 type  2   force =     0.00053508    0.00064783    0.00017126
     atom   34 type  2   force =    -0.00085191    0.00099510   -0.01348853
     atom   35 type  2   force =     0.00109458    0.00004829   -0.00044842
     atom   36 type  2   force =    -0.00119379    0.00013419   -0.00020941
     atom   37 type  1   force =    -0.00030312   -0.00044905    0.00007425
     atom   38 type  1   force =    -0.00091563    0.00037411   -0.00039702
     atom   39 type  2   force =    -0.00049770   -0.00051549    0.00017213
     atom   40 type  2   force =     0.00011681    0.00096555    0.00014446
     atom   41 type  2   force =    -0.00121275    0.00060080    0.00079943
     atom   42 type  2   force =     0.00098992   -0.00042842    0.00023923
     atom   43 type  1   force =    -0.00059498    0.00095575   -0.00030766
     atom   44 type  1   force =    -0.00030876    0.00055630   -0.00163716
     atom   45 type  2   force =     0.00007342    0.00001222    0.10319462
     atom   46 type  2   force =    -0.07147834   -0.00004077   -0.02757325
     atom   47 type  2   force =     0.07144610    0.00038525   -0.02761056
     atom   48 type  3   force =     0.00017806    0.00038662    0.00027348
     atom   49 type  4   force =    -0.00005654   -0.00017398   -0.00056889
     atom   50 type  5   force =    -0.00110316   -0.00044086    0.00043810
     atom   51 type  3   force =     0.00043598    0.00040621   -0.00146854
     atom   52 type  5   force =    -0.00020052   -0.00018763    0.00094380
     atom   53 type  5   force =    -0.00078766   -0.00101860    0.00136647
     atom   54 type  2   force =     0.02149963   -0.00451834   -0.00414121
     atom   55 type  5   force =    -0.00679420    0.00909246   -0.00219172
     atom   56 type  5   force =    -0.01538922   -0.00322947    0.00549775

     Total force =     0.367265     Total SCF correction =     0.000581
  @ DRIVER MODE: Message from server: STATUS
  @ DRIVER MODE: Message from server: GETFORCE
  @ DRIVER MODE: Returning v,forces,stress,ensemble

     Writing output data file ./calc.save/
  @ DRIVER MODE: Message from server: EXIT
  @ DRIVE MODE: Exiting

     General routines

     Parallel routines

   This run was terminated on:   3:43:15  16Sep2021

   JOB DONE.