     Program PWSCF v.6.7GPU starts on 26Sep2021 at 21:13:36

     R & G space division:  proc/nbgrp/npool/nimage =       8
     Reading input from /storage/home/hcoda1/3/ntian30/research/carbon/CxH_vib/H2O_calc/ads_slab/CH2OHN2HO_a/out_0052/pw.inp
Warning: card &CELL ignored
Warning: card   CELL_DYNAMICS='IPI', ignored
Warning: card / ignored

     Current dimensions of program PWSCF are:
     Max number of different atomic species (ntypx) = 10
     Max number of k-points (npk) =  40000
     Max angular momentum in pseudopotentials (lmaxx) =  3
     Presently no symmetry can be used with electric field

     Message from routine cell_base_init:
     DEPRECATED: use true lattice parameter, not A to a.u. conversion factor

     IMPORTANT: XC functional enforced from input :
     Exchange-correlation= BEEF-VDW
                           (   1   4  43  14   2   0   0)
     Any further DFT definition will be discarded
     Please, verify this is what you really want

  @ DRIVER MODE: Connecting to
 qe_1139763_2971670.sched-torque.pace.gatech.edupcbguptf_scratch
  using UNIX socket
  @ DRIVER MODE: Message from server: STATUS
  @ DRIVER MODE: Message from server: INIT
  @ DRIVER MODE: Receiving replica           0          -1
  @ DRIVER MODE: Receiving encoded integer          25
  @ DRIVER MODE:  SCF:  T  FORCE:  T  STRESS:  F  VC:  F  ENSEMBLE:  F
  @ DRIVER MODE:  SCF:  T  FORCE:  T  STRESS:  F  VC:  F  ENSEMBLE:  F

     Using Slab Decomposition

     bravais-lattice index     =            0
     lattice parameter (alat)  =       1.8897  a.u.
     unit-cell volume          =    6658.9804 (a.u.)^3
     number of atoms/cell      =           56
     number of atomic types    =            5
     number of electrons       =       408.00
     number of Kohn-Sham states=          214
     kinetic-energy cutoff     =      29.3995  Ry
     charge density cutoff     =     293.9946  Ry
     scf convergence threshold =      7.3E-08
     mixing beta               =       0.0500
     number of iterations used =            8  plain     mixing
     Exchange-correlation= BEEF-VDW
                           (   1   4  43  14   2   0   0)

     celldm(1)=   1.889726  celldm(2)=   0.000000  celldm(3)=   0.000000
     celldm(4)=   0.000000  celldm(5)=   0.000000  celldm(6)=   0.000000

     crystal axes: (cart. coord. in units of alat)
               a(1) = (   6.579727   0.000000   0.000000 )
               a(2) = (  -0.000775   5.961596   0.000000 )
               a(3) = (   0.000000   0.000000  25.155947 )

     reciprocal axes: (cart. coord. in units 2 pi/alat)
               b(1) = (  0.151982  0.000020  0.000000 )
               b(2) = (  0.000000  0.167740  0.000000 )
               b(3) = (  0.000000  0.000000  0.039752 )

     PseudoPot. # 1 for C  read from file:
     /storage/coda1/p-amedford6/0/shared/rich_project_chbe-medford/medford-share/data/pseudos_module/espresso/nninc/pbe/van/C.UPF
     MD5 check sum: 1a69bf6b8db32088f5b2163dbdb77a27
     Pseudo is Ultrasoft, Zval =  4.0
     Generated by new atomic code, or converted to UPF format
     Using radial grid of  721 points,  4 beta functions with:
                l(1) =   0
                l(2) =   0
                l(3) =   1
                l(4) =   1
     Q(r) pseudized with  8 coefficients,  rinner =    0.800   0.800   0.800

     PseudoPot. # 2 for H  read from file:
     /storage/coda1/p-amedford6/0/shared/rich_project_chbe-medford/medford-share/data/pseudos_module/espresso/nninc/pbe/van/H.UPF
     MD5 check sum: b5ee9d7bfd3a09ee7748110bda690ff7
     Pseudo is Ultrasoft, Zval =  1.0
     Generated by new atomic code, or converted to UPF format
     Using radial grid of  615 points,  1 beta functions with:
                l(1) =   0
     Q(r) pseudized with  8 coefficients,  rinner =    0.800

     PseudoPot. # 3 for O  read from file:
     /storage/coda1/p-amedford6/0/shared/rich_project_chbe-medford/medford-share/data/pseudos_module/espresso/nninc/pbe/van/O.UPF
     MD5 check sum: 78c19812648e8988a0fe644b0f25305e
     Pseudo is Ultrasoft, Zval =  6.0
     Generated by new atomic code, or converted to UPF format
     Using radial grid of  737 points,  4 beta functions with:
                l(1) =   0
                l(2) =   0
                l(3) =   1
                l(4) =   1
     Q(r) pseudized with  8 coefficients,  rinner =    0.800   0.800   0.800

     PseudoPot. # 4 for Ti read from file:
     /storage/coda1/p-amedford6/0/shared/rich_project_chbe-medford/medford-share/data/pseudos_module/espresso/nninc/pbe/van/Ti.UPF
     MD5 check sum: 8e4df49b7f0d34bbd5052bf3f5ea0213
     Pseudo is Ultrasoft, Zval = 12.0
     Generated by new atomic code, or converted to UPF format
     Using radial grid of  851 points,  6 beta functions with:
                l(1) =   0
                l(2) =   0
                l(3) =   1
                l(4) =   1
                l(5) =   2
                l(6) =   2
     Q(r) pseudized with  8 coefficients,  rinner =    1.000   1.000   1.000
                                                       1.000   1.000

     PseudoPot. # 5 for N  read from file:
     /storage/coda1/p-amedford6/0/shared/rich_project_chbe-medford/medford-share/data/pseudos_module/espresso/nninc/pbe/van/N.UPF
     MD5 check sum: 90d10febe142ad51ac9d5be1deb811c4
     Pseudo is Ultrasoft, Zval =  5.0
     Generated by new atomic code, or converted to UPF format
     Using radial grid of  729 points,  4 beta functions with:
                l(1) =   0
                l(2) =   0
                l(3) =   1
                l(4) =   1
     Q(r) pseudized with  8 coefficients,  rinner =    0.800   0.800   0.800

     atomic species   valence    mass     pseudopotential
        C1             4.00    12.01100     C ( 1.00)
        H1             1.00     1.00800     H ( 1.00)
        O1             6.00    15.99900     O ( 1.00)
        Ti1           12.00    47.86700     Ti( 1.00)
        N1             5.00    14.00700     N ( 1.00)

     No symmetry found

   Cartesian axes

     site n.     atom                  positions (alat units)
         1           C1  tau(   1) = (   4.4694424   3.1333252  19.5683752  )
         2           H1  tau(   2) = (   3.5225350   3.1610456  19.0510688  )
         3           H1  tau(   3) = (   5.8501665   2.9975095  17.9951248  )
         4           H1  tau(   4) = (   4.8161173   2.2403860  20.0673745  )
         5           O1  tau(   5) = (   0.0006271   0.0005054   7.9858123  )
         6           O1  tau(   6) = (   3.2906025   0.0005020   7.3038282  )
         7           O1  tau(   7) = (   4.5942328   1.4918067   9.2879030  )
         8           O1  tau(   8) = (   1.9868534   1.4903216   9.2879459  )
         9           O1  tau(   9) = (   3.2658522   0.0207364  11.3165592  )
        10           O1  tau(  10) = (   0.0022773   0.0111808  10.5833539  )
        11           O1  tau(  11) = (   1.2584498   1.5025451  12.6333345  )
        12           O1  tau(  12) = (   5.2827793   1.4879884  12.6049259  )
        13           O1  tau(  13) = (   6.5229081   0.0016576  14.6697044  )
        14           O1  tau(  14) = (   3.2671471   5.9223268  13.9212949  )
        15           O1  tau(  15) = (   4.5038562   1.5078053  16.0770842  )
        16           O1  tau(  16) = (   1.9713840   1.5400684  15.9915579  )
        17           O1  tau(  17) = (   3.2904802   0.0005063   4.7018136  )
        18           O1  tau(  18) = (   0.0083768   5.9574009  17.1899481  )
        19           O1  tau(  19) = (   1.3043587   1.4918075   6.0039043  )
        20           O1  tau(  20) = (   5.2767064   1.4903225   6.0039473  )
        21           O1  tau(  21) = (   0.0002396   2.9813036   7.9858123  )
        22           O1  tau(  22) = (   3.2902150   2.9813002   7.3038282  )
        23           O1  tau(  23) = (   4.5938453   4.4726049   9.2879030  )
        24           O1  tau(  24) = (   1.9864658   4.4711199   9.2879459  )
        25           O1  tau(  25) = (   3.2699439   2.9592623  11.2883102  )
        26           O1  tau(  26) = (   0.0014687   2.9942081  10.5424492  )
        27           O1  tau(  27) = (   1.2624719   4.4656417  12.6394791  )
        28           O1  tau(  28) = (   5.2897987   4.4902883  12.6063686  )
        29           O1  tau(  29) = (   6.5205774   2.9949485  14.6561412  )
        30           O1  tau(  30) = (   3.3050662   2.9767913  13.8748461  )
        31           O1  tau(  31) = (   4.4950179   4.4323158  16.0974573  )
        32           O1  tau(  32) = (   1.9671975   4.4064719  15.9829847  )
        33           O1  tau(  33) = (   3.2900926   2.9813045   4.7018136  )
        34           O1  tau(  34) = (   1.3039711   4.4726057   6.0039043  )
        35           O1  tau(  35) = (   5.2763189   4.4711207   6.0039473  )
        36           O1  tau(  36) = (   6.5424668   2.9800173  17.2949776  )
        37           Ti1 tau(  37) = (   0.0004258   2.9801865   6.0000000  )
        38           Ti1 tau(  38) = (   3.2906075   1.4906267   6.0002472  )
        39           Ti1 tau(  39) = (   3.3167600   3.1006338   9.2159236  )
        40           Ti1 tau(  40) = (   0.0391818   1.5627686   9.3440282  )
        41           Ti1 tau(  41) = (   6.5783755   3.0458713  12.7937554  )
        42           Ti1 tau(  42) = (   3.2318486   1.5634082  12.4209175  )
        43           Ti1 tau(  43) = (   3.2670811   2.9501284  15.6494465  )
        44           Ti1 tau(  44) = (   0.0280251   1.4030395  16.0254105  )
        45           Ti1 tau(  45) = (   0.0000382   5.9609847   6.0000000  )
        46           Ti1 tau(  46) = (   3.2902200   4.4714249   6.0002472  )
        47           Ti1 tau(  47) = (   3.3194908   0.1157174   9.1781592  )
        48           Ti1 tau(  48) = (   0.0398790   4.5135925   9.3581580  )
        49           Ti1 tau(  49) = (   6.5007586   0.0629955  12.6074658  )
        50           Ti1 tau(  50) = (   3.2510718   4.6571100  12.6672192  )
        51           Ti1 tau(  51) = (   3.3282601   5.9350673  16.2366838  )
        52           Ti1 tau(  52) = (   0.0495319   4.5308688  15.9870001  )
        53           N1  tau(  53) = (   5.2748021   5.2735043  20.4272172  )
        54           N1  tau(  54) = (   4.8779203   4.2732533  20.0576380  )
        55           O1  tau(  55) = (   3.0402417   5.9484128  18.0530970  )
        56           H1  tau(  56) = (   2.1234608   0.1114992  18.3542784  )

     number of k points=    10  Fermi-Dirac smearing, width (Ry)=  0.0073
                       cart. coord. in units 2pi/alat
        k(    1) = (   0.0000000   0.0000000   0.0000000), wk =   0.1250000
        k(    2) = (   0.0000000   0.0419351   0.0000000), wk =   0.2500000
        k(    3) = (   0.0000000  -0.0838702   0.0000000), wk =   0.1250000
        k(    4) = (   0.0379955   0.0000049   0.0000000), wk =   0.2500000
        k(    5) = (   0.0379955   0.0419400   0.0000000), wk =   0.2500000
        k(    6) = (   0.0379955  -0.0838652   0.0000000), wk =   0.2500000
        k(    7) = (   0.0379955  -0.0419301   0.0000000), wk =   0.2500000
        k(    8) = (  -0.0759910  -0.0000099   0.0000000), wk =   0.1250000
        k(    9) = (  -0.0759910   0.0419252   0.0000000), wk =   0.2500000
        k(   10) = (  -0.0759910  -0.0838800   0.0000000), wk =   0.1250000

     Initial potential from superposition of free atoms

     starting charge  391.99915, renormalised to  408.00000

     negative rho (up, down):  1.415E-02 0.000E+00

     %%%%%%%%%%%%%%%%%%%%%%%%%%%%%%%%%%%%%%%%%%%%%%%%%%%%%%%%%%%%%%%%%%%%%%%%
     %                                                                      %
     % You are using vdW-DF, which was implemented by the Thonhauser group. %
     % Please cite the following two papers that made this development      %
     % possible and the two reviews that describe the various versions:     %
     %                                                                      %
     %   T. Thonhauser et al., PRL 115, 136402 (2015).                      %
     %   T. Thonhauser et al., PRB 76, 125112 (2007).                       %
     %   K. Berland et al., Rep. Prog. Phys. 78, 066501 (2015).             %
     %   D.C. Langreth et al., J. Phys.: Condens. Matter 21, 084203 (2009). %
     %                                                                      %
     %                                                                      %
     % If you are calculating the stress with vdW-DF, please also cite:     %
     %                                                                      %
     %   R. Sabatini et al., J. Phys.: Condens. Matter 24, 424209 (2012).   %
     %                                                                      %
     %%%%%%%%%%%%%%%%%%%%%%%%%%%%%%%%%%%%%%%%%%%%%%%%%%%%%%%%%%%%%%%%%%%%%%%%

     Adding external electric field

     Computed dipole along edir(3) :
        Dipole              -15.5929 Ry au,        -39.6331 Debye
        Dipole field         -0.0294 Ry au,

        Potential amp.        2.7277 Ry
        Total length         46.3494 bohr

     Starting wfcs are  308 atomic wfcs
  @ DRIVER MODE: Message from server: STATUS
  @ DRIVER MODE: Message from server: POSDATA
  @ DRIVER MODE: Reading and sharing cell
  @ DRIVER MODE: Reading and sharing positions
  @ DRIVER MODE: Received positions

     Self-consistent Calculation

     iteration #  1     ecut=    29.40 Ry     beta= 0.05
     Davidson diagonalization with overlap
     c_bands:  3 eigenvalues not converged
     c_bands:  1 eigenvalues not converged
     c_bands:  1 eigenvalues not converged
     c_bands:  2 eigenvalues not converged
     c_bands:  4 eigenvalues not converged
     c_bands:  2 eigenvalues not converged
     ethr =  1.00E-05,  avg # of iterations = 30.3

[...]

     total energy              =   -2234.28569512 Ry
     estimated scf accuracy    <    8817.38761185 Ry

     iteration #  2     ecut=    29.40 Ry     beta= 0.05
     Davidson diagonalization with overlap
     ethr =  1.00E-02,  avg # of iterations = 31.9

[...]

     iteration # 45     ecut=    29.40 Ry     beta= 0.05
     Davidson diagonalization with overlap
     c_bands:  2 eigenvalues not converged
     c_bands:  1 eigenvalues not converged
     c_bands:  1 eigenvalues not converged
     ethr =  9.45E-07,  avg # of iterations = 14.0

[...]

     total energy              =   -3005.15892151 Ry
     estimated scf accuracy    <       0.00000008 Ry

     iteration # 68     ecut=    29.40 Ry     beta= 0.05
     Davidson diagonalization with overlap
     ethr =  1.84E-11,  avg # of iterations =  4.4

     negative rho (up, down):  1.447E-02 0.000E+00

     Adding external electric field

     Computed dipole along edir(3) :
        Dipole                0.4969 Ry au,          1.2630 Debye
        Dipole field          0.0009 Ry au,

        Potential amp.       -0.0869 Ry
        Total length         46.3494 bohr

     End of self-consistent calculation

          k = 0.0000 0.0000 0.0000 ( 18029 PWs)   bands (ev):

   -56.1949 -56.1486 -55.6507 -55.6458 -55.6274 -55.5810 -55.5692 -55.5289
   -55.5172 -55.4888 -55.4448 -55.4023 -55.3982 -55.2747 -54.8194 -54.7855
   -32.6092 -32.4583 -32.4096 -32.3752 -32.2809 -32.2356 -32.1454 -32.0862
   -32.0767 -32.0217 -31.9542 -31.9430 -31.9408 -31.8855 -31.8850 -31.8773
   -31.8620 -31.8437 -31.8284 -31.8106 -31.8012 -31.7928 -31.7564 -31.7328
   -31.7293 -31.7117 -31.7065 -31.7025 -31.7020 -31.6939 -31.6875 -31.6796
   -31.6683 -31.6506 -31.6475 -31.6060 -31.5972 -31.5901 -31.5642 -31.5284
   -31.4882 -31.4764 -31.2143 -31.1587 -31.1344 -31.0312 -30.9463 -30.8353
   -20.6081 -16.8433 -16.4110 -16.3574 -16.2147 -15.9845 -15.8474 -15.7635
   -15.5326 -15.5161 -15.4026 -15.3944 -15.3512 -15.2392 -15.2247 -15.1880
   -15.1824 -15.1683 -15.1556 -15.1207 -15.1160 -15.1090 -15.0415 -15.0137
   -14.9861 -14.9424 -14.8875 -14.8467 -14.7773 -14.7714 -14.7275 -14.5236
   -13.7529 -13.3201 -13.2111  -6.3504  -5.3679  -4.8359  -4.2691  -4.0072
    -3.8834  -3.6674  -3.5725  -3.5636  -3.3971  -3.3713  -3.2751  -3.0555
    -2.9226  -2.8400  -2.8096  -2.7496  -2.7266  -2.6566  -2.6222  -2.6132
    -2.5728  -2.5229  -2.4713  -2.4565  -2.4436  -2.3992  -2.3870  -2.3548
    -2.3390  -2.3352  -2.2942  -2.1485  -2.1356  -2.0779  -2.0689  -2.0222
    -2.0160  -1.9875  -1.9769  -1.9311  -1.8936  -1.7545  -1.7366  -1.7229
    -1.6552  -1.4367  -1.4024  -1.3055  -1.2454  -1.2110  -1.1153  -1.1139
    -1.0821  -1.0518  -1.0030  -0.9227  -0.8893  -0.8330  -0.7874  -0.7796
    -0.7313  -0.6644  -0.6140  -0.5559  -0.5197  -0.4789  -0.4019  -0.3502
    -0.2842  -0.2652  -0.2150  -0.1766  -0.0846  -0.0511  -0.0226   0.0298
     0.0544   0.1194   0.1229   0.1636   0.1821   0.2612   0.2901   0.3080
     0.3578   0.3835   0.3990   0.4610   0.5236   0.5675   0.6125   0.7143
     0.7593   0.7844   0.8548   0.9310   1.0997   1.1991   1.2280   1.4236
     1.4557   1.7528   1.8008   1.8563   3.1031   3.2679   3.5557   3.6446
     3.6823   3.7134   3.8104   3.8405   3.9982   4.0397

[...]

          k = 0.0380-0.0419 0.0000 ( 17876 PWs)   bands (ev):

[...]

          k =-0.0760-0.0000 0.0000 ( 17886 PWs)   bands (ev):

[...]

          k =-0.0760-0.0839 0.0000 ( 17948 PWs)   bands (ev):

   -56.1877 -56.1556 -55.6489 -55.6438 -55.6220 -55.5748 -55.5742 -55.5355
   -55.5187 -55.4905 -55.4363 -55.4107 -55.3960 -55.2769 -54.8026 -54.8022
   -32.4536 -32.4397 -32.4139 -32.4122 -32.3402 -32.3130 -32.0348 -31.9527
   -31.9520 -31.9234 -31.9199 -31.8855 -31.8842 -31.8727 -31.8641 -31.8526
   -31.8428 -31.8309 -31.8167 -31.8088 -31.8023 -31.7995 -31.7908 -31.7886
   -31.7823 -31.7818 -31.7697 -31.7527 -31.7234 -31.7200 -31.7107 -31.7013
   -31.7000 -31.6757 -31.6588 -31.6487 -31.6438 -31.6248 -31.5950 -31.5888
   -31.5282 -31.4799 -31.1475 -31.1473 -31.0298 -31.0281 -30.9885 -30.9877
   -20.6073 -16.7670 -16.3850 -15.7994 -15.6694 -15.6615 -15.6608 -15.6255
   -15.5845 -15.5318 -15.5047 -15.4503 -15.3818 -15.3549 -15.3378 -15.3128
   -15.2690 -15.2371 -15.2228 -15.1496 -15.1122 -15.1003 -15.0851 -15.0743
   -15.0310 -15.0280 -15.0089 -15.0014 -14.9936 -14.9381 -14.8405 -14.6644
   -13.7601 -13.3152 -13.3142  -6.2824  -5.4110  -4.7848  -4.2397  -3.9802
    -3.4908  -3.0270  -2.9252  -2.8469  -2.8392  -2.7513  -2.7103  -2.6796
    -2.6599  -2.6415  -2.6145  -2.5653  -2.5415  -2.5059  -2.4963  -2.4950
    -2.4759  -2.4690  -2.4478  -2.4237  -2.4108  -2.3956  -2.3836  -2.3597
    -2.3478  -2.3380  -2.3201  -2.2898  -2.2471  -2.2268  -2.0487  -2.0184
    -2.0109  -2.0105  -1.9428  -1.9388  -1.8805  -1.8074  -1.7913  -1.7702
    -1.7516  -1.6381  -1.5008  -1.4534  -1.3965  -1.3754  -1.3071  -1.2549
    -1.1589  -1.1403  -1.1294  -1.1113  -1.0674  -1.0635  -0.9775  -0.9233
    -0.8802  -0.8760  -0.8549  -0.8109  -0.6921  -0.6832  -0.6455  -0.6218
    -0.6078  -0.5058  -0.4738  -0.4535  -0.4390  -0.4270  -0.3230  -0.2735
    -0.2271  -0.1799  -0.1183  -0.0602   0.0625   0.0887   0.1817   0.2123
     0.2528   0.3872   0.4126   0.4604   0.4983   0.5503   0.5884   0.6040
     0.7298   0.7857   0.8044   0.8702   0.8908   0.9300   0.9534   1.5915
     1.5976   1.6049   1.6073   1.7943   3.6455   3.6719   3.6781   3.7126
     3.8957   3.9252   4.0040   4.0281   4.0429   4.0528

     the Fermi energy is     2.5629 ev

!    total energy              =   -3005.15895995 Ry
     estimated scf accuracy    <       0.00000004 Ry
     smearing contrib. (-TS)   =      -0.00024022 Ry
     internal energy E=F+TS    =   -3005.15871973 Ry

     The total energy is F=E-TS. E is the sum of the following terms:
     one-electron contribution =  -22952.18199790 Ry
     hartree contribution      =   11572.01125863 Ry
     xc contribution           =    -500.30459489 Ry
     ewald contribution        =    8875.31614845 Ry
     electric field correction =       0.00046598 Ry

     convergence has been achieved in  68 iterations

     Forces acting on atoms (cartesian axes, Ry/au):

     atom    1 type  1   force =     0.00060395   -0.00031484    0.00017374
     atom    2 type  2   force =    -0.00020955    0.00024046   -0.00006977
     atom    3 type  2   force =    -0.00001707    0.00001407   -0.00027479
     atom    4 type  2   force =    -0.00039259   -0.00011083    0.00010986
     atom    5 type  3   force =     0.00027592   -0.00316410   -0.05387065
     atom    6 type  3   force =     0.00044414    0.00119936    0.04056220
     atom    7 type  3   force =    -0.00981448   -0.00221809    0.00042972
     atom    8 type  3   force =     0.00889223   -0.00512168   -0.00067193
     atom    9 type  3   force =     0.00010285    0.00003418    0.00000166
     atom   10 type  3   force =    -0.00010333    0.00004575    0.00001029
     atom   11 type  3   force =     0.00013858   -0.00000817   -0.00010186
     atom   12 type  3   force =     0.00002017    0.00013810    0.00001374
     atom   13 type  3   force =     0.00000704    0.00003084   -0.00003113
     atom   14 type  3   force =     0.00006670   -0.00008352    0.00033427
     atom   15 type  3   force =    -0.00000342    0.00019141    0.00005139
     atom   16 type  3   force =     0.00005366   -0.00014974    0.00008180
     atom   17 type  3   force =    -0.00006969    0.00016401    0.09943789
     atom   18 type  3   force =     0.00007190    0.00002367    0.00004677
     atom   19 type  3   force =    -0.08023008    0.00059179   -0.03416225
     atom   20 type  3   force =     0.08000008    0.00110675   -0.03418804
     atom   21 type  3   force =     0.00051744    0.00002055   -0.05294783
     atom   22 type  3   force =     0.00038248    0.00049033    0.04231588
     atom   23 type  3   force =    -0.01094624    0.00575719    0.00234393
     atom   24 type  3   force =     0.01007186    0.00213008    0.00119977
     atom   25 type  3   force =     0.00007900    0.00000996    0.00008526
     atom   26 type  3   force =     0.00000678    0.00006654    0.00000410
     atom   27 type  3   force =     0.00008232    0.00008587   -0.00000915
     atom   28 type  3   force =     0.00004996   -0.00002015    0.00007143
     atom   29 type  3   force =     0.00013364   -0.00014066    0.00008126
     atom   30 type  3   force =    -0.00001954   -0.00005844    0.00002747
     atom   31 type  3   force =     0.00002959    0.00003444    0.00003398
     atom   32 type  3   force =    -0.00007152   -0.00026006    0.00005707
     atom   33 type  3   force =    -0.00008054    0.00025395    0.09900978
     atom   34 type  3   force =    -0.08022843   -0.00145037   -0.03416289
     atom   35 type  3   force =     0.08000804   -0.00092637   -0.03421294
     atom   36 type  3   force =     0.00005158   -0.00017219    0.00004358
     atom   37 type  4   force =     0.00019848    0.00016678    0.13340012
     atom   38 type  4   force =     0.00002230    0.00799484   -0.15913333
     atom   39 type  4   force =    -0.00006049   -0.00006337   -0.00002362
     atom   40 type  4   force =    -0.00008173    0.00016039    0.00003416
     atom   41 type  4   force =    -0.00029274   -0.00001472   -0.00005979
     atom   42 type  4   force =    -0.00007200    0.00012743   -0.00009202
     atom   43 type  4   force =     0.00012587   -0.00001871   -0.00000211
     atom   44 type  4   force =     0.00005948   -0.00005417   -0.00010613
     atom   45 type  4   force =    -0.00023816   -0.00008780    0.14215181
     atom   46 type  4   force =    -0.00018807   -0.00647009   -0.15859456
     atom   47 type  4   force =     0.00010897   -0.00008061    0.00001590
     atom   48 type  4   force =    -0.00014998    0.00015961    0.00012323
     atom   49 type  4   force =    -0.00012539   -0.00001051    0.00008951
     atom   50 type  4   force =    -0.00010756   -0.00007427   -0.00004269
     atom   51 type  4   force =     0.00017684   -0.00006751    0.00024212
     atom   52 type  4   force =     0.00024008   -0.00005781    0.00015579
     atom   53 type  5   force =     0.00020629   -0.00006920   -0.00043618
     atom   54 type  5   force =    -0.00000630    0.00015405    0.00054958
     atom   55 type  3   force =    -0.00228823    0.00077187    0.00029795
     atom   56 type  2   force =     0.00256892   -0.00089629   -0.00039334

     Total force =     0.385060     Total SCF correction =     0.000438
  @ DRIVER MODE: Message from server: STATUS
  @ DRIVER MODE: Message from server: GETFORCE
  @ DRIVER MODE: Returning v,forces,stress,ensemble

     Writing output data file ./calc.save/
  @ DRIVER MODE: Message from server: EXIT
  @ DRIVE MODE: Exiting

     General routines

     Parallel routines

   This run was terminated on:  21:48:48  26Sep2021

   JOB DONE.