     Program PWSCF v.6.7GPU starts on 26Sep2021 at 17: 7:40

     R & G space division:  proc/nbgrp/npool/nimage =       8
     Reading input from /storage/home/hcoda1/3/ntian30/research/carbon/CxH_vib/CH_calc/ads_slab/CHONHNH_a/out_0012/pw.inp
Warning: card &CELL ignored
Warning: card   CELL_DYNAMICS='IPI', ignored
Warning: card / ignored

     Current dimensions of program PWSCF are:
     Max number of different atomic species (ntypx) = 10
     Max number of k-points (npk) =  40000
     Max angular momentum in pseudopotentials (lmaxx) =  3
     Presently no symmetry can be used with electric field

     Message from routine cell_base_init:
     DEPRECATED: use true lattice parameter, not A to a.u. conversion factor

     IMPORTANT: XC functional enforced from input :
     Exchange-correlation= BEEF-VDW
                           (   1   4  43  14   2   0   0)
     Any further DFT definition will be discarded
     Please, verify this is what you really want

  @ DRIVER MODE: Connecting to
 qe_1139763_2982671.sched-torque.pace.gatech.eduwvksgv1h_scratch
  using UNIX socket
  @ DRIVER MODE: Message from server: STATUS
  @ DRIVER MODE: Message from server: INIT
  @ DRIVER MODE: Receiving replica           0          -1
  @ DRIVER MODE: Receiving encoded integer          25
  @ DRIVER MODE:  SCF:  T  FORCE:  T  STRESS:  F  VC:  F  ENSEMBLE:  F
  @ DRIVER MODE:  SCF:  T  FORCE:  T  STRESS:  F  VC:  F  ENSEMBLE:  F

     Using Slab Decomposition

     bravais-lattice index     =            0
     lattice parameter (alat)  =       1.8897  a.u.
     unit-cell volume          =    6658.9804 (a.u.)^3
     number of atoms/cell      =           54
     number of atomic types    =            5
     number of electrons       =       401.00
     number of Kohn-Sham states=          210
     kinetic-energy cutoff     =      29.3995  Ry
     charge density cutoff     =     293.9946  Ry
     scf convergence threshold =      7.3E-08
     mixing beta               =       0.0500
     number of iterations used =            8  plain     mixing
     Exchange-correlation= BEEF-VDW
                           (   1   4  43  14   2   0   0)

     celldm(1)=   1.889726  celldm(2)=   0.000000  celldm(3)=   0.000000
     celldm(4)=   0.000000  celldm(5)=   0.000000  celldm(6)=   0.000000

     crystal axes: (cart. coord. in units of alat)
               a(1) = (   6.579727   0.000000   0.000000 )
               a(2) = (  -0.000775   5.961596   0.000000 )
               a(3) = (   0.000000   0.000000  25.155947 )

     reciprocal axes: (cart. coord. in units 2 pi/alat)
               b(1) = (  0.151982  0.000020  0.000000 )
               b(2) = (  0.000000  0.167740  0.000000 )
               b(3) = (  0.000000  0.000000  0.039752 )

     PseudoPot. # 1 for O  read from file:
     /storage/coda1/p-amedford6/0/shared/rich_project_chbe-medford/medford-share/data/pseudos_module/espresso/nninc/pbe/van/O.UPF
     MD5 check sum: 78c19812648e8988a0fe644b0f25305e
     Pseudo is Ultrasoft, Zval =  6.0
     Generated by new atomic code, or converted to UPF format
     Using radial grid of  737 points,  4 beta functions with:
                l(1) =   0
                l(2) =   0
                l(3) =   1
                l(4) =   1
     Q(r) pseudized with  8 coefficients,  rinner =    0.800   0.800   0.800

     PseudoPot. # 2 for Ti read from file:
     /storage/coda1/p-amedford6/0/shared/rich_project_chbe-medford/medford-share/data/pseudos_module/espresso/nninc/pbe/van/Ti.UPF
     MD5 check sum: 8e4df49b7f0d34bbd5052bf3f5ea0213
     Pseudo is Ultrasoft, Zval = 12.0
     Generated by new atomic code, or converted to UPF format
     Using radial grid of  851 points,  6 beta functions with:
                l(1) =   0
                l(2) =   0
                l(3) =   1
                l(4) =   1
                l(5) =   2
                l(6) =   2
     Q(r) pseudized with  8 coefficients,  rinner =    1.000   1.000   1.000
                                                       1.000   1.000

     PseudoPot. # 3 for N  read from file:
     /storage/coda1/p-amedford6/0/shared/rich_project_chbe-medford/medford-share/data/pseudos_module/espresso/nninc/pbe/van/N.UPF
     MD5 check sum: 90d10febe142ad51ac9d5be1deb811c4
     Pseudo is Ultrasoft, Zval =  5.0
     Generated by new atomic code, or converted to UPF format
     Using radial grid of  729 points,  4 beta functions with:
                l(1) =   0
                l(2) =   0
                l(3) =   1
                l(4) =   1
     Q(r) pseudized with  8 coefficients,  rinner =    0.800   0.800   0.800

     PseudoPot. # 4 for C  read from file:
     /storage/coda1/p-amedford6/0/shared/rich_project_chbe-medford/medford-share/data/pseudos_module/espresso/nninc/pbe/van/C.UPF
     MD5 check sum: 1a69bf6b8db32088f5b2163dbdb77a27
     Pseudo is Ultrasoft, Zval =  4.0
     Generated by new atomic code, or converted to UPF format
     Using radial grid of  721 points,  4 beta functions with:
                l(1) =   0
                l(2) =   0
                l(3) =   1
                l(4) =   1
     Q(r) pseudized with  8 coefficients,  rinner =    0.800   0.800   0.800

     PseudoPot. # 5 for H  read from file:
     /storage/coda1/p-amedford6/0/shared/rich_project_chbe-medford/medford-share/data/pseudos_module/espresso/nninc/pbe/van/H.UPF
     MD5 check sum: b5ee9d7bfd3a09ee7748110bda690ff7
     Pseudo is Ultrasoft, Zval =  1.0
     Generated by new atomic code, or converted to UPF format
     Using radial grid of  615 points,  1 beta functions with:
                l(1) =   0
     Q(r) pseudized with  8 coefficients,  rinner =    0.800

     atomic species   valence    mass     pseudopotential
        O1             6.00    15.99900     O ( 1.00)
        Ti1           12.00    47.86700     Ti( 1.00)
        N1             5.00    14.00700     N ( 1.00)
        C1             4.00    12.01100     C ( 1.00)
        H1             1.00     1.00800     H ( 1.00)

     No symmetry found

   Cartesian axes

     site n.     atom                  positions (alat units)
         1           O1  tau(   1) = (   3.2904802   0.0005063   4.7018136  )
         2           O1  tau(   2) = (   3.2900926   2.9813045   4.7018136  )
         3           Ti1 tau(   3) = (   0.0004258   2.9801865   6.0000000  )
         4           Ti1 tau(   4) = (   0.0000382   5.9609847   6.0000000  )
         5           Ti1 tau(   5) = (   3.2906075   1.4906267   6.0002472  )
         6           Ti1 tau(   6) = (   3.2902200   4.4714249   6.0002472  )
         7           O1  tau(   7) = (   1.3043587   1.4918075   6.0039043  )
         8           O1  tau(   8) = (   1.3039711   4.4726057   6.0039043  )
         9           O1  tau(   9) = (   5.2767064   1.4903225   6.0039473  )
        10           O1  tau(  10) = (   5.2763189   4.4711207   6.0039473  )
        11           O1  tau(  11) = (   3.2906025   0.0005020   7.3038282  )
        12           O1  tau(  12) = (   3.2902150   2.9813002   7.3038282  )
        13           O1  tau(  13) = (   0.0006271   0.0005054   7.9858123  )
        14           O1  tau(  14) = (   0.0002396   2.9813036   7.9858123  )
        15           Ti1 tau(  15) = (   3.2907910   2.8959150   9.1758416  )
        16           Ti1 tau(  16) = (   3.2891106   5.8743827   9.1763621  )
        17           Ti1 tau(  17) = (   0.0015273   1.4827037   9.2680791  )
        18           Ti1 tau(  18) = (   0.0006254   4.4649316   9.2693709  )
        19           O1  tau(  19) = (   4.5942328   1.4918067   9.2879030  )
        20           O1  tau(  20) = (   4.5938453   4.4726049   9.2879030  )
        21           O1  tau(  21) = (   1.9868534   1.4903216   9.2879459  )
        22           O1  tau(  22) = (   1.9864658   4.4711199   9.2879459  )
        23           O1  tau(  23) = (   0.0116148   5.9584955  10.6183126  )
        24           O1  tau(  24) = (   0.0092240   2.9805883  10.6323155  )
        25           O1  tau(  25) = (   3.2531556   2.9620241  11.3322950  )
        26           O1  tau(  26) = (   3.2474763   5.9435521  11.3438280  )
        27           Ti1 tau(  27) = (   3.3237694   4.3814390  12.5572636  )
        28           Ti1 tau(  28) = (   0.0094504   0.0092305  12.5172013  )
        29           Ti1 tau(  29) = (   3.3224445   1.4452456  12.4745429  )
        30           Ti1 tau(  30) = (   0.0090234   2.9988230  12.5821063  )
        31           O1  tau(  31) = (   5.2496676   1.4726344  12.6006421  )
        32           O1  tau(  32) = (   5.2531746   4.4496067  12.6010712  )
        33           O1  tau(  33) = (   1.2410339   1.4659728  12.6671891  )
        34           O1  tau(  34) = (   1.2387123   4.4686174  12.6665250  )
        35           O1  tau(  35) = (   3.3067986   5.9564546  13.9007842  )
        36           O1  tau(  36) = (   3.2420318   3.0005841  13.9279729  )
        37           O1  tau(  37) = (   6.4209026   5.9439257  14.7021623  )
        38           O1  tau(  38) = (   6.4587925   2.9577525  14.6988961  )
        39           Ti1 tau(  39) = (   3.2423495   0.0283394  15.6829305  )
        40           Ti1 tau(  40) = (   6.4236859   1.5154006  15.7784978  )
        41           Ti1 tau(  41) = (   3.0799157   3.0146384  15.8599260  )
        42           O1  tau(  42) = (   1.9357555   1.4358950  15.9107064  )
        43           O1  tau(  43) = (   1.9271111   4.5447382  15.9660097  )
        44           Ti1 tau(  44) = (   6.4519450   4.6669281  16.1370820  )
        45           O1  tau(  45) = (   4.4443926   1.5071054  16.1134243  )
        46           O1  tau(  46) = (   4.4397279   4.4733020  16.1527106  )
        47           O1  tau(  47) = (   6.5167551   0.0277669  17.2715591  )
        48           N1  tau(  48) = (   0.3759035   2.6095042  18.6336219  )
        49           C1  tau(  49) = (   2.8136782   2.9081565  18.1616972  )
        50           H1  tau(  50) = (   0.1656462   1.5987175  18.7006542  )
        51           N1  tau(  51) = (   1.8163940   2.6652851  18.9293397  )
        52           H1  tau(  52) = (   3.7261332   2.9868749  18.7514029  )
        53           H1  tau(  53) = (   1.8928842   2.5952305  19.9427491  )
        54           O1  tau(  54) = (   0.0982553   2.9165792  17.3165359  )

     number of k points=    10  Fermi-Dirac smearing, width (Ry)=  0.0073
                       cart. coord. in units 2pi/alat
        k(    1) = (   0.0000000   0.0000000   0.0000000), wk =   0.1250000
        k(    2) = (   0.0000000   0.0419351   0.0000000), wk =   0.2500000
        k(    3) = (   0.0000000  -0.0838702   0.0000000), wk =   0.1250000
        k(    4) = (   0.0379955   0.0000049   0.0000000), wk =   0.2500000
        k(    5) = (   0.0379955   0.0419400   0.0000000), wk =   0.2500000
        k(    6) = (   0.0379955  -0.0838652   0.0000000), wk =   0.2500000
        k(    7) = (   0.0379955  -0.0419301   0.0000000), wk =   0.2500000
        k(    8) = (  -0.0759910  -0.0000099   0.0000000), wk =   0.1250000
        k(    9) = (  -0.0759910   0.0419252   0.0000000), wk =   0.2500000
        k(   10) = (  -0.0759910  -0.0838800   0.0000000), wk =   0.1250000

     Initial potential from superposition of free atoms

     starting charge  384.99916, renormalised to  401.00000

     negative rho (up, down):  1.631E-02 0.000E+00

     %%%%%%%%%%%%%%%%%%%%%%%%%%%%%%%%%%%%%%%%%%%%%%%%%%%%%%%%%%%%%%%%%%%%%%%%
     %                                                                      %
     % You are using vdW-DF, which was implemented by the Thonhauser group. %
     % Please cite the following two papers that made this development      %
     % possible and the two reviews that describe the various versions:     %
     %                                                                      %
     %   T. Thonhauser et al., PRL 115, 136402 (2015).                      %
     %   T. Thonhauser et al., PRB 76, 125112 (2007).                       %
     %   K. Berland et al., Rep. Prog. Phys. 78, 066501 (2015).             %
     %   D.C. Langreth et al., J. Phys.: Condens. Matter 21, 084203 (2009). %
     %                                                                      %
     %                                                                      %
     % If you are calculating the stress with vdW-DF, please also cite:     %
     %                                                                      %
     %   R. Sabatini et al., J. Phys.: Condens. Matter 24, 424209 (2012).   %
     %                                                                      %
     %%%%%%%%%%%%%%%%%%%%%%%%%%%%%%%%%%%%%%%%%%%%%%%%%%%%%%%%%%%%%%%%%%%%%%%%

     Adding external electric field

     Computed dipole along edir(3) :
        Dipole              -11.6346 Ry au,        -29.5722 Debye
        Dipole field         -0.0220 Ry au,

        Potential amp.        2.0353 Ry
        Total length         46.3494 bohr

     Starting wfcs are  303 atomic wfcs
  @ DRIVER MODE: Message from server: STATUS
  @ DRIVER MODE: Message from server: POSDATA
  @ DRIVER MODE: Reading and sharing cell
  @ DRIVER MODE: Reading and sharing positions
  @ DRIVER MODE: Received positions

     Self-consistent Calculation

     iteration #  1     ecut=    29.40 Ry     beta= 0.05
     Davidson diagonalization with overlap
     c_bands:  3 eigenvalues not converged
     c_bands:  3 eigenvalues not converged
     c_bands:  5 eigenvalues not converged
     c_bands:  4 eigenvalues not converged
     c_bands:  4 eigenvalues not converged
     c_bands:  3 eigenvalues not converged
     c_bands:  1 eigenvalues not converged
     c_bands:  3 eigenvalues not converged
     ethr =  1.00E-05,  avg # of iterations = 22.1

[...]

     total energy              =   -2394.61542581 Ry
     estimated scf accuracy    <    6491.72295436 Ry

     iteration #  2     ecut=    29.40 Ry     beta= 0.05
     Davidson diagonalization with overlap
     ethr =  1.00E-02,  avg # of iterations = 23.6

[...]

     iteration # 63     ecut=    29.40 Ry     beta= 0.05
     Davidson diagonalization with overlap
     c_bands:  2 eigenvalues not converged
     ethr =  3.86E-11,  avg # of iterations = 12.0

[...]

     total energy              =   -2971.36018965 Ry
     estimated scf accuracy    <       0.00000008 Ry

     iteration # 64     ecut=    29.40 Ry     beta= 0.05
     Davidson diagonalization with overlap
     ethr =  1.87E-11,  avg # of iterations =  5.1

     negative rho (up, down):  1.694E-02 0.000E+00

     Adding external electric field

     Computed dipole along edir(3) :
        Dipole                1.3753 Ry au,          3.4957 Debye
        Dipole field          0.0026 Ry au,

        Potential amp.       -0.2406 Ry
        Total length         46.3494 bohr

     End of self-consistent calculation

          k = 0.0000 0.0000 0.0000 ( 18029 PWs)   bands (ev):

   -55.3627 -55.3287 -55.2840 -55.2389 -55.2372 -55.2237 -55.1956 -55.1837
   -55.1498 -55.1417 -55.1300 -55.1064 -55.0347 -54.9950 -54.3425 -54.3085
   -31.8472 -31.8085 -31.7316 -31.6841 -31.6817 -31.6545 -31.6320 -31.6081
   -31.5998 -31.5690 -31.5403 -31.5151 -31.5047 -31.4959 -31.4691 -31.4658
   -31.4621 -31.4488 -31.4369 -31.4200 -31.4017 -31.3986 -31.3949 -31.3836
   -31.3772 -31.3766 -31.3727 -31.3635 -31.3421 -31.3401 -31.3331 -31.3235
   -31.3228 -31.3142 -31.2960 -31.2928 -31.2876 -31.2545 -31.2357 -31.2240
   -31.2095 -31.1794 -30.7493 -30.6616 -30.6392 -30.5665 -30.4800 -30.3685
   -20.2050 -17.3825 -16.0542 -15.8419 -15.6377 -15.5287 -15.4806 -15.2479
   -15.1303 -15.1016 -15.0145 -14.9435 -14.9274 -14.9028 -14.8920 -14.8729
   -14.8140 -14.8022 -14.7909 -14.7872 -14.7591 -14.7384 -14.7150 -14.7021
   -14.5814 -14.5694 -14.5395 -14.5069 -14.4848 -14.4236 -14.1669 -12.8432
   -12.7612 -12.7267  -9.0586  -7.2542  -5.7178  -5.0046  -3.4274  -3.3135
    -3.2933  -3.2694  -3.1966  -3.1451  -3.0220  -2.8057  -2.6584  -2.5587
    -2.5329  -2.4526  -2.3832  -2.3624  -2.3164  -2.2606  -2.2054  -2.1586
    -2.1345  -2.1109  -2.1020  -2.0963  -2.0069  -1.9840  -1.9433  -1.8936
    -1.8567  -1.7596  -1.7425  -1.6859  -1.6777  -1.6366  -1.6263  -1.6169
    -1.6087  -1.5893  -1.5062  -1.4916  -1.4435  -1.3660  -1.1779  -1.1234
    -1.0195  -0.9702  -0.8681  -0.8437  -0.8008  -0.7707  -0.7643  -0.7559
    -0.7088  -0.6157  -0.5734  -0.5214  -0.4603  -0.3819  -0.3127  -0.2730
    -0.1623  -0.1487  -0.1218  -0.1141  -0.0825   0.0588   0.1179   0.1687
     0.1930   0.2303   0.2954   0.3572   0.3713   0.4168   0.4413   0.5066
     0.5435   0.5628   0.5824   0.6107   0.6243   0.6542   0.6683   0.7202
     0.8429   0.8530   0.9028   0.9443   1.0160   1.1223   1.1309   1.2906
     1.3745   1.5572   1.6196   1.6816   1.7431   1.8732   2.2513   2.2970
     3.7429   3.8577   3.8900   3.9178   4.0016   4.0396   4.2113   4.2760
     4.2984   4.3369

[...]

          k = 0.0380-0.0419 0.0000 ( 17876 PWs)   bands (ev):

[...]

          k =-0.0760-0.0000 0.0000 ( 17886 PWs)   bands (ev):

[...]

          k =-0.0760-0.0839 0.0000 ( 17948 PWs)   bands (ev):

   -55.3458 -55.3454 -55.2780 -55.2345 -55.2303 -55.2293 -55.2042 -55.1668
   -55.1663 -55.1325 -55.1293 -55.1189 -55.0269 -55.0027 -54.3255 -54.3254
   -31.6626 -31.6623 -31.6499 -31.6401 -31.6398 -31.5910 -31.5674 -31.5512
   -31.5412 -31.5266 -31.5054 -31.4955 -31.4916 -31.4848 -31.4824 -31.4713
   -31.4653 -31.4652 -31.4625 -31.4593 -31.4558 -31.4389 -31.4377 -31.4299
   -31.4209 -31.4154 -31.4036 -31.3872 -31.3705 -31.3684 -31.3563 -31.3457
   -31.3454 -31.3426 -31.3414 -31.3398 -31.3366 -31.3313 -31.2632 -31.2496
   -31.2312 -31.2111 -30.6519 -30.6519 -30.5622 -30.5620 -30.5233 -30.5232
   -20.2000 -17.3800 -15.4862 -15.3737 -15.3696 -15.3027 -15.2490 -15.1773
   -15.1283 -15.0976 -15.0582 -15.0402 -15.0136 -14.9721 -14.9323 -14.9207
   -14.8959 -14.8873 -14.8655 -14.8216 -14.8127 -14.8050 -14.7986 -14.7717
   -14.7321 -14.7064 -14.6829 -14.6783 -14.6489 -14.5122 -14.3672 -12.8285
   -12.8285 -12.7659  -9.0516  -7.1968  -5.7290  -5.0292  -3.3403  -2.7511
    -2.6606  -2.5740  -2.5027  -2.4317  -2.3971  -2.3698  -2.3113  -2.3072
    -2.2812  -2.2176  -2.1982  -2.1824  -2.1669  -2.1368  -2.1283  -2.1060
    -2.0975  -2.0902  -2.0483  -2.0445  -2.0196  -2.0179  -1.9940  -1.9844
    -1.9553  -1.9264  -1.9052  -1.8672  -1.8245  -1.7223  -1.6368  -1.5653
    -1.5113  -1.5000  -1.4910  -1.4361  -1.4188  -1.3876  -1.3604  -1.3253
    -1.1906  -1.0512  -1.0406  -1.0064  -0.9395  -0.9099  -0.8713  -0.8498
    -0.7724  -0.7582  -0.7244  -0.6986  -0.6260  -0.5366  -0.4902  -0.4480
    -0.4206  -0.3652  -0.3369  -0.3171  -0.3005  -0.2867  -0.2521  -0.1826
    -0.1407  -0.1172  -0.0849  -0.0584  -0.0367  -0.0124   0.1604   0.1780
     0.2761   0.3443   0.4021   0.5385   0.6411   0.6784   0.7203   0.7799
     0.8495   0.8997   0.9331   0.9514   0.9691   1.0380   1.0895   1.1553
     1.1709   1.2036   1.2819   1.4474   2.0452   2.0476   2.1171   2.1172
     4.1149   4.1626   4.1858   4.1982   4.2658   4.2886   4.3060   4.3097
     4.4164   4.4316

     the Fermi energy is     3.7632 ev

!    total energy              =   -2971.36024884 Ry
     estimated scf accuracy    <       0.00000004 Ry
     smearing contrib. (-TS)   =      -0.02056948 Ry
     internal energy E=F+TS    =   -2971.33967937 Ry

     The total energy is F=E-TS. E is the sum of the following terms:
     one-electron contribution =  -24166.89818105 Ry
     hartree contribution      =   12179.09598529 Ry
     xc contribution           =    -492.43798027 Ry
     ewald contribution        =    9508.89692708 Ry
     electric field correction =       0.00356958 Ry

     convergence has been achieved in  64 iterations

     Forces acting on atoms (cartesian axes, Ry/au):

     atom    1 type  1   force =     0.00007355   -0.00012042    0.10312616
     atom    2 type  1   force =     0.00007493   -0.00010227    0.10316141
     atom    3 type  2   force =     0.00002279   -0.00019124    0.09529448
     atom    4 type  2   force =     0.00007769   -0.00049205    0.09490288
     atom    5 type  2   force =    -0.00020829   -0.00071220   -0.17563603
     atom    6 type  2   force =    -0.00005460   -0.00023830   -0.17576402
     atom    7 type  1   force =    -0.07171680   -0.00019080   -0.02758945
     atom    8 type  1   force =    -0.07170069   -0.00020609   -0.02751970
     atom    9 type  1   force =     0.07158561    0.00025404   -0.02759307
     atom   10 type  1   force =     0.07155486    0.00026855   -0.02756786
     atom   11 type  1   force =    -0.00007922   -0.00143758    0.05243083
     atom   12 type  1   force =    -0.00000282   -0.00150195    0.05289278
     atom   13 type  1   force =    -0.00013067   -0.00017905   -0.02268558
     atom   14 type  1   force =    -0.00005712   -0.00028846   -0.02180882
     atom   15 type  2   force =    -0.00221802    0.00206237   -0.00876119
     atom   16 type  2   force =    -0.00226863    0.00207571   -0.00154080
     atom   17 type  2   force =     0.00139962    0.00931932    0.01491731
     atom   18 type  2   force =     0.00154101   -0.01042815    0.01568565
     atom   19 type  1   force =    -0.01011931   -0.00094452    0.00485439
     atom   20 type  1   force =    -0.01049601   -0.00075359    0.00460161
     atom   21 type  1   force =     0.01029111   -0.00001061    0.00094941
     atom   22 type  1   force =     0.01056754   -0.00053472    0.00076776
     atom   23 type  1   force =    -0.00214279    0.00037145   -0.01184414
     atom   24 type  1   force =    -0.00061272   -0.00078108   -0.01484337
     atom   25 type  1   force =     0.00002532    0.00041280    0.00005599
     atom   26 type  1   force =     0.00011173   -0.00026444   -0.00040203
     atom   27 type  2   force =     0.00053730    0.00000584   -0.00083817
     atom   28 type  2   force =    -0.00022202   -0.00020341   -0.00007416
     atom   29 type  2   force =     0.00020876    0.00067635    0.00004700
     atom   30 type  2   force =    -0.00032187   -0.00028689   -0.00004184
     atom   31 type  1   force =     0.00021993    0.00057739    0.00025849
     atom   32 type  1   force =    -0.00066879    0.00046733    0.00004852
     atom   33 type  1   force =     0.00046411    0.00053227    0.00011836
     atom   34 type  1   force =     0.00074128    0.00022955   -0.00015095
     atom   35 type  1   force =    -0.00009964   -0.00034696   -0.00000851
     atom   36 type  1   force =     0.00079272    0.00056023   -0.00022871
     atom   37 type  1   force =     0.00038820    0.00021793    0.00030102
     atom   38 type  1   force =     0.00056790    0.00067641    0.00071626
     atom   39 type  2   force =     0.00042126   -0.00023669   -0.00025192
     atom   40 type  2   force =    -0.00023518   -0.00027314   -0.00011719
     atom   41 type  2   force =     0.00048139    0.00011805    0.00140183
     atom   42 type  1   force =     0.00042730    0.00035620    0.00022676
     atom   43 type  1   force =     0.00042715   -0.00000683    0.00024756
     atom   44 type  2   force =    -0.00027158    0.00067700   -0.00048299
     atom   45 type  1   force =     0.00005745   -0.00002824   -0.00050399
     atom   46 type  1   force =     0.00012076    0.00065414    0.00020709
     atom   47 type  1   force =    -0.00032466    0.00042595    0.00008077
     atom   48 type  3   force =    -0.00146200   -0.00057620   -0.00027805
     atom   49 type  4   force =     0.00265313    0.00137881   -0.01628906
     atom   50 type  5   force =     0.00072536    0.00080911   -0.00046257
     atom   51 type  3   force =    -0.00490606   -0.00160377    0.00869779
     atom   52 type  5   force =     0.00550016    0.00017455    0.00548869
     atom   53 type  5   force =    -0.00173626   -0.00054521    0.00201255
     atom   54 type  1   force =    -0.00000419    0.00018348   -0.00020921

     Total force =     0.365087     Total SCF correction =     0.000625
  @ DRIVER MODE: Message from server: STATUS
  @ DRIVER MODE: Message from server: GETFORCE
  @ DRIVER MODE: Returning v,forces,stress,ensemble

     Writing output data file ./calc.save/
  @ DRIVER MODE: Message from server: EXIT
  @ DRIVE MODE: Exiting

     General routines

     Parallel routines

   This run was terminated on:  17:53:31  26Sep2021

   JOB DONE.