     Program PWSCF v.6.7GPU starts on 10Sep2021 at  6: 1:41

     R & G space division:  proc/nbgrp/npool/nimage =      10
     Reading input from /storage/home/hcoda1/3/ntian30/research/carbon/CxH_vib/CH3_calc/ads_slab/CH3N2OH_l/out_0028/pw.inp
Warning: card &CELL ignored
Warning: card   CELL_DYNAMICS='IPI', ignored
Warning: card / ignored

     Current dimensions of program PWSCF are:
     Max number of different atomic species (ntypx) = 10
     Max number of k-points (npk) =  40000
     Max angular momentum in pseudopotentials (lmaxx) =  3
     Presently no symmetry can be used with electric field

     Message from routine cell_base_init:
     DEPRECATED: use true lattice parameter, not A to a.u. conversion factor

     IMPORTANT: XC functional enforced from input :
     Exchange-correlation= BEEF-VDW
                           (   1   4  43  14   2   0   0)
     Any further DFT definition will be discarded
     Please, verify this is what you really want

  @ DRIVER MODE: Connecting to
 qe_1139763_2779712.sched-torque.pace.gatech.edu0xg2h99__scratch
  using UNIX socket
  @ DRIVER MODE: Message from server: STATUS
  @ DRIVER MODE: Message from server: INIT
  @ DRIVER MODE: Receiving replica           0          -1
  @ DRIVER MODE: Receiving encoded integer          25
  @ DRIVER MODE:  SCF:  T  FORCE:  T  STRESS:  F  VC:  F  ENSEMBLE:  F
  @ DRIVER MODE:  SCF:  T  FORCE:  T  STRESS:  F  VC:  F  ENSEMBLE:  F

     Using Slab Decomposition

     bravais-lattice index     =            0
     lattice parameter (alat)  =       1.8897  a.u.
     unit-cell volume          =    6658.9804 (a.u.)^3
     number of atoms/cell      =           55
     number of atomic types    =            5
     number of electrons       =       402.00
     number of Kohn-Sham states=          211
     kinetic-energy cutoff     =      29.3995  Ry
     charge density cutoff     =     293.9946  Ry
     scf convergence threshold =      7.3E-08
     mixing beta               =       0.0500
     number of iterations used =            8  plain     mixing
     Exchange-correlation= BEEF-VDW
                           (   1   4  43  14   2   0   0)

     celldm(1)=   1.889726  celldm(2)=   0.000000  celldm(3)=   0.000000
     celldm(4)=   0.000000  celldm(5)=   0.000000  celldm(6)=   0.000000

     crystal axes: (cart. coord. in units of alat)
               a(1) = (   6.579727   0.000000   0.000000 )
               a(2) = (  -0.000775   5.961596   0.000000 )
               a(3) = (   0.000000   0.000000  25.155947 )

     reciprocal axes: (cart. coord. in units 2 pi/alat)
               b(1) = (  0.151982  0.000020  0.000000 )
               b(2) = (  0.000000  0.167740  0.000000 )
               b(3) = (  0.000000  0.000000  0.039752 )

     PseudoPot. # 1 for Ti read from file:
     /storage/coda1/p-amedford6/0/shared/rich_project_chbe-medford/medford-share/data/pseudos_module/espresso/nninc/pbe/van/Ti.UPF
     MD5 check sum: 8e4df49b7f0d34bbd5052bf3f5ea0213
     Pseudo is Ultrasoft, Zval = 12.0
     Generated by new atomic code, or converted to UPF format
     Using radial grid of  851 points,  6 beta functions with:
                l(1) =   0
                l(2) =   0
                l(3) =   1
                l(4) =   1
                l(5) =   2
                l(6) =   2
     Q(r) pseudized with  8 coefficients,  rinner =    1.000   1.000   1.000
                                                       1.000   1.000

     PseudoPot. # 2 for O  read from file:
     /storage/coda1/p-amedford6/0/shared/rich_project_chbe-medford/medford-share/data/pseudos_module/espresso/nninc/pbe/van/O.UPF
     MD5 check sum: 78c19812648e8988a0fe644b0f25305e
     Pseudo is Ultrasoft, Zval =  6.0
     Generated by new atomic code, or converted to UPF format
     Using radial grid of  737 points,  4 beta functions with:
                l(1) =   0
                l(2) =   0
                l(3) =   1
                l(4) =   1
     Q(r) pseudized with  8 coefficients,  rinner =    0.800   0.800   0.800

     PseudoPot. # 3 for N  read from file:
     /storage/coda1/p-amedford6/0/shared/rich_project_chbe-medford/medford-share/data/pseudos_module/espresso/nninc/pbe/van/N.UPF
     MD5 check sum: 90d10febe142ad51ac9d5be1deb811c4
     Pseudo is Ultrasoft, Zval =  5.0
     Generated by new atomic code, or converted to UPF format
     Using radial grid of  729 points,  4 beta functions with:
                l(1) =   0
                l(2) =   0
                l(3) =   1
                l(4) =   1
     Q(r) pseudized with  8 coefficients,  rinner =    0.800   0.800   0.800

     PseudoPot. # 4 for C  read from file:
     /storage/coda1/p-amedford6/0/shared/rich_project_chbe-medford/medford-share/data/pseudos_module/espresso/nninc/pbe/van/C.UPF
     MD5 check sum: 1a69bf6b8db32088f5b2163dbdb77a27
     Pseudo is Ultrasoft, Zval =  4.0
     Generated by new atomic code, or converted to UPF format
     Using radial grid of  721 points,  4 beta functions with:
                l(1) =   0
                l(2) =   0
                l(3) =   1
                l(4) =   1
     Q(r) pseudized with  8 coefficients,  rinner =    0.800   0.800   0.800

     PseudoPot. # 5 for H  read from file:
     /storage/coda1/p-amedford6/0/shared/rich_project_chbe-medford/medford-share/data/pseudos_module/espresso/nninc/pbe/van/H.UPF
     MD5 check sum: b5ee9d7bfd3a09ee7748110bda690ff7
     Pseudo is Ultrasoft, Zval =  1.0
     Generated by new atomic code, or converted to UPF format
     Using radial grid of  615 points,  1 beta functions with:
                l(1) =   0
     Q(r) pseudized with  8 coefficients,  rinner =    0.800

     atomic species   valence    mass     pseudopotential
        Ti1           12.00    47.86700     Ti( 1.00)
        O1             6.00    15.99900     O ( 1.00)
        N1             5.00    14.00700     N ( 1.00)
        C1             4.00    12.01100     C ( 1.00)
        H1             1.00     1.00800     H ( 1.00)

     No symmetry found

   Cartesian axes

     site n.     atom                  positions (alat units)
         1           Ti1 tau(   1) = (   0.0004258   2.9801865   6.0000000  )
         2           Ti1 tau(   2) = (   3.2906075   1.4906267   6.0002472  )
         3           O1  tau(   3) = (   0.0006271   0.0005054   7.9858123  )
         4           O1  tau(   4) = (   3.2906025   0.0005020   7.3038282  )
         5           O1  tau(   5) = (   4.5942328   1.4918067   9.2879030  )
         6           O1  tau(   6) = (   1.9868534   1.4903216   9.2879459  )
         7           Ti1 tau(   7) = (   3.2907910   2.8959150   9.1758416  )
         8           Ti1 tau(   8) = (   0.0015273   1.4827037   9.2680791  )
         9           O1  tau(   9) = (   3.3074573   5.9346435  11.2963613  )
        10           O1  tau(  10) = (   0.0116148   5.9584955  10.6183126  )
        11           O1  tau(  11) = (   1.3055178   1.4819292  12.6272398  )
        12           O1  tau(  12) = (   5.3158762   1.4804127  12.6185516  )
        13           Ti1 tau(  13) = (   0.0186029   2.8424156  12.6464711  )
        14           Ti1 tau(  14) = (   3.3167612   1.2924093  12.6669032  )
        15           O1  tau(  15) = (   0.0012442   5.9356390  14.6370070  )
        16           O1  tau(  16) = (   3.3127944   0.0275565  13.9018093  )
        17           O1  tau(  17) = (   4.5765900   1.5157235  16.0894388  )
        18           O1  tau(  18) = (   2.0422450   1.5317946  16.0210879  )
        19           Ti1 tau(  19) = (   3.3088329   2.9810726  15.6636066  )
        20           Ti1 tau(  20) = (   0.0236821   1.4688588  15.8133175  )
        21           O1  tau(  21) = (   3.2904802   0.0005063   4.7018136  )
        22           O1  tau(  22) = (   0.0676014   5.9495730  17.1734943  )
        23           O1  tau(  23) = (   1.3043587   1.4918075   6.0039043  )
        24           O1  tau(  24) = (   5.2767064   1.4903225   6.0039473  )
        25           Ti1 tau(  25) = (   0.0000382   5.9609847   6.0000000  )
        26           Ti1 tau(  26) = (   3.2902200   4.4714249   6.0002472  )
        27           O1  tau(  27) = (   0.0002396   2.9813036   7.9858123  )
        28           O1  tau(  28) = (   3.2902150   2.9813002   7.3038282  )
        29           O1  tau(  29) = (   4.5938453   4.4726049   9.2879030  )
        30           O1  tau(  30) = (   1.9864658   4.4711199   9.2879459  )
        31           Ti1 tau(  31) = (   3.2891106   5.8743827   9.1763621  )
        32           Ti1 tau(  32) = (   0.0006254   4.4649316   9.2693709  )
        33           O1  tau(  33) = (   3.3041982   3.0170362  11.2630756  )
        34           O1  tau(  34) = (   0.0092240   2.9805883  10.6323155  )
        35           O1  tau(  35) = (   1.3098214   4.4601496  12.6289764  )
        36           O1  tau(  36) = (   5.3139316   4.4642116  12.6209765  )
        37           Ti1 tau(  37) = (   0.0286784   5.8202107  12.5681754  )
        38           Ti1 tau(  38) = (   3.3194384   4.3879401  12.4232525  )
        39           O1  tau(  39) = (   6.5763552   2.9401740  14.6754030  )
        40           O1  tau(  40) = (   3.3328261   2.9762691  13.8808942  )
        41           O1  tau(  41) = (   4.5658580   4.4380642  16.1332302  )
        42           O1  tau(  42) = (   2.0359873   4.4031365  16.0422930  )
        43           Ti1 tau(  43) = (   3.3255947   5.9578944  16.3175027  )
        44           Ti1 tau(  44) = (   0.0374668   4.6230282  16.0307208  )
        45           O1  tau(  45) = (   3.2900926   2.9813045   4.7018136  )
        46           O1  tau(  46) = (   1.3039711   4.4726057   6.0039043  )
        47           O1  tau(  47) = (   5.2763189   4.4711207   6.0039473  )
        48           N1  tau(  48) = (   0.1245995   2.6662279  18.6673576  )
        49           N1  tau(  49) = (   0.0476076   2.8693738  17.4835824  )
        50           C1  tau(  50) = (   0.1295945   3.7926219  19.6405614  )
        51           H1  tau(  51) = (   6.3015398   4.7065717  19.2118634  )
        52           H1  tau(  52) = (   6.1525190   3.4726129  20.5140504  )
        53           H1  tau(  53) = (   1.1733748   3.9370966  19.9287387  )
        54           O1  tau(  54) = (   3.0981659   0.0197753  18.1302257  )
        55           H1  tau(  55) = (   2.1972620   0.2293568  18.4309947  )

     number of k points=    10  Fermi-Dirac smearing, width (Ry)=  0.0073
                       cart. coord. in units 2pi/alat
        k(    1) = (   0.0000000   0.0000000   0.0000000), wk =   0.1250000
        k(    2) = (   0.0000000   0.0419351   0.0000000), wk =   0.2500000
        k(    3) = (   0.0000000  -0.0838702   0.0000000), wk =   0.1250000
        k(    4) = (   0.0379955   0.0000049   0.0000000), wk =   0.2500000
        k(    5) = (   0.0379955   0.0419400   0.0000000), wk =   0.2500000
        k(    6) = (   0.0379955  -0.0838652   0.0000000), wk =   0.2500000
        k(    7) = (   0.0379955  -0.0419301   0.0000000), wk =   0.2500000
        k(    8) = (  -0.0759910  -0.0000099   0.0000000), wk =   0.1250000
        k(    9) = (  -0.0759910   0.0419252   0.0000000), wk =   0.2500000
        k(   10) = (  -0.0759910  -0.0838800   0.0000000), wk =   0.1250000

     Initial potential from superposition of free atoms

     starting charge  385.99915, renormalised to  402.00000

     negative rho (up, down):  1.432E-02 0.000E+00

     %%%%%%%%%%%%%%%%%%%%%%%%%%%%%%%%%%%%%%%%%%%%%%%%%%%%%%%%%%%%%%%%%%%%%%%%
     %                                                                      %
     % You are using vdW-DF, which was implemented by the Thonhauser group. %
     % Please cite the following two papers that made this development      %
     % possible and the two reviews that describe the various versions:     %
     %                                                                      %
     %   T. Thonhauser et al., PRL 115, 136402 (2015).                      %
     %   T. Thonhauser et al., PRB 76, 125112 (2007).                       %
     %   K. Berland et al., Rep. Prog. Phys. 78, 066501 (2015).             %
     %   D.C. Langreth et al., J. Phys.: Condens. Matter 21, 084203 (2009). %
     %                                                                      %
     %                                                                      %
     % If you are calculating the stress with vdW-DF, please also cite:     %
     %                                                                      %
     %   R. Sabatini et al., J. Phys.: Condens. Matter 24, 424209 (2012).   %
     %                                                                      %
     %%%%%%%%%%%%%%%%%%%%%%%%%%%%%%%%%%%%%%%%%%%%%%%%%%%%%%%%%%%%%%%%%%%%%%%%

     Adding external electric field

     Computed dipole along edir(3) :
        Dipole              -11.9923 Ry au,        -30.4815 Debye
        Dipole field         -0.0226 Ry au,

        Potential amp.        2.0979 Ry
        Total length         46.3494 bohr

     Starting wfcs are  304 atomic wfcs
  @ DRIVER MODE: Message from server: STATUS
  @ DRIVER MODE: Message from server: POSDATA
  @ DRIVER MODE: Reading and sharing cell
  @ DRIVER MODE: Reading and sharing positions
  @ DRIVER MODE: Received positions

     Self-consistent Calculation

     iteration #  1     ecut=    29.40 Ry     beta= 0.05
     Davidson diagonalization with overlap
     c_bands:  3 eigenvalues not converged
     c_bands:  5 eigenvalues not converged
     c_bands:  5 eigenvalues not converged
     c_bands:  4 eigenvalues not converged
     c_bands:  1 eigenvalues not converged
     c_bands:  4 eigenvalues not converged
     c_bands:  2 eigenvalues not converged
     c_bands:  5 eigenvalues not converged
     c_bands:  4 eigenvalues not converged
     ethr =  1.00E-05,  avg # of iterations = 23.8

[...]

     total energy              =   -2400.48850570 Ry
     estimated scf accuracy    <    6448.57416307 Ry

     iteration #  2     ecut=    29.40 Ry     beta= 0.05
     Davidson diagonalization with overlap
     ethr =  1.00E-02,  avg # of iterations = 22.3

[...]

     iteration # 55     ecut=    29.40 Ry     beta= 0.05
     Davidson diagonalization with overlap
     c_bands:  1 eigenvalues not converged
     c_bands:  1 eigenvalues not converged
     ethr =  1.19E-07,  avg # of iterations = 13.0

[...]

     total energy              =   -2972.75613724 Ry
     estimated scf accuracy    <       0.00000020 Ry

     iteration # 78     ecut=    29.40 Ry     beta= 0.05
     Davidson diagonalization with overlap
     ethr =  4.99E-11,  avg # of iterations =  4.1

     negative rho (up, down):  1.508E-02 0.000E+00

     Adding external electric field

     Computed dipole along edir(3) :
        Dipole                0.5634 Ry au,          1.4321 Debye
        Dipole field          0.0011 Ry au,

        Potential amp.       -0.0986 Ry
        Total length         46.3494 bohr

     End of self-consistent calculation

          k = 0.0000 0.0000 0.0000 ( 18029 PWs)   bands (ev):

   -56.2724 -56.2386 -55.8660 -55.8311 -55.6100 -55.5953 -55.5523 -55.4025
   -55.3548 -55.3456 -55.2317 -55.1820 -55.0704 -55.0428 -55.0391 -55.0051
   -32.7226 -32.5649 -32.5381 -32.4306 -32.3468 -32.3455 -32.3380 -32.0918
   -32.0853 -32.0613 -32.0106 -32.0050 -31.9758 -31.9032 -31.8956 -31.8580
   -31.8328 -31.8308 -31.8195 -31.7748 -31.7557 -31.7486 -31.7160 -31.7148
   -31.6857 -31.6732 -31.6150 -31.5622 -31.5570 -31.5440 -31.5412 -31.5121
   -31.4909 -31.4353 -31.4306 -31.4162 -31.3913 -31.3727 -31.3490 -31.3286
   -31.3037 -31.2809 -31.2806 -31.2733 -31.2586 -31.2541 -31.1696 -31.0576
   -18.9028 -16.5646 -16.3780 -16.2252 -15.9914 -15.8433 -15.7586 -15.7022
   -15.7017 -15.5811 -15.5457 -15.4521 -15.3633 -15.2942 -15.2625 -15.2592
   -15.1655 -15.1039 -15.0548 -15.0321 -15.0016 -14.9810 -14.9678 -14.8877
   -14.8794 -14.8552 -14.8107 -14.6910 -14.6275 -14.3285 -14.3096 -13.5361
   -13.4240 -11.5276  -6.9692  -4.4320  -4.1127  -4.0736  -4.0261  -3.8859
    -3.7765  -3.5690  -3.4523  -3.2666  -3.2499  -3.1501  -2.9842  -2.9759
    -2.9225  -2.8520  -2.7735  -2.7044  -2.6606  -2.6494  -2.5558  -2.4983
    -2.4967  -2.4843  -2.4447  -2.4077  -2.3196  -2.2776  -2.2638  -2.2260
    -2.1817  -2.1327  -2.1291  -2.0832  -2.0578  -1.9979  -1.9336  -1.8967
    -1.8718  -1.8086  -1.7463  -1.7063  -1.6399  -1.5927  -1.5814  -1.5756
    -1.5228  -1.3279  -1.2876  -1.2613  -1.2410  -1.0986  -1.0553  -1.0202
    -0.9562  -0.9392  -0.8494  -0.8243  -0.8073  -0.7816  -0.7107  -0.6971
    -0.6622  -0.6336  -0.4467  -0.4118  -0.3401  -0.3315  -0.2632  -0.2310
    -0.1979  -0.1576  -0.1258  -0.0726  -0.0601  -0.0068   0.0396   0.0679
     0.2093   0.2402   0.3234   0.3311   0.3341   0.3564   0.4340   0.4680
     0.5405   0.5930   0.5989   0.6507   0.7386   0.7780   0.8927   0.9620
     0.9861   1.0073   1.0430   1.0958   1.2164   1.5074   1.5330   1.5718
     2.7054   2.9534   3.0838   3.2304   3.3851   3.4886   3.7965   3.8159
     3.8517   3.8968   3.9960

[...]

          k = 0.0380-0.0419 0.0000 ( 17876 PWs)   bands (ev):

[...]

          k =-0.0760-0.0000 0.0000 ( 17886 PWs)   bands (ev):

[...]

          k =-0.0760-0.0839 0.0000 ( 17948 PWs)   bands (ev):

   -56.2555 -56.2553 -55.8534 -55.8435 -55.6045 -55.5945 -55.5577 -55.3951
   -55.3620 -55.3461 -55.2300 -55.1799 -55.0721 -55.0448 -55.0227 -55.0215
   -32.5505 -32.5503 -32.5387 -32.5385 -32.3827 -32.3824 -32.1726 -32.1636
   -32.0470 -32.0388 -32.0369 -32.0326 -31.9131 -31.8760 -31.8611 -31.8302
   -31.8268 -31.8253 -31.8178 -31.7849 -31.7718 -31.7255 -31.7132 -31.6979
   -31.6358 -31.6330 -31.6279 -31.6013 -31.5971 -31.5940 -31.5546 -31.5486
   -31.4828 -31.4365 -31.4202 -31.4175 -31.3911 -31.3624 -31.3615 -31.3434
   -31.3322 -31.2901 -31.2843 -31.2772 -31.2508 -31.2494 -31.2125 -31.2116
   -18.8999 -16.3627 -15.9753 -15.9671 -15.8362 -15.8307 -15.6579 -15.6459
   -15.6010 -15.5528 -15.5219 -15.4875 -15.3600 -15.3346 -15.2645 -15.2395
   -15.2047 -15.1800 -15.1561 -15.1512 -15.1148 -15.0726 -15.0225 -15.0179
   -14.9685 -14.9670 -14.8419 -14.7661 -14.6881 -14.5102 -14.4636 -13.5273
   -13.5268 -11.5256  -6.9836  -4.3792  -4.0858  -4.0585  -3.8544  -3.1393
    -3.0975  -2.9721  -2.9464  -2.8712  -2.8339  -2.7637  -2.7055  -2.6830
    -2.6701  -2.6592  -2.5945  -2.5655  -2.5601  -2.5182  -2.5030  -2.4961
    -2.4599  -2.4114  -2.3846  -2.3625  -2.3574  -2.3510  -2.2721  -2.2014
    -2.1991  -2.1804  -2.1474  -2.1152  -2.0348  -2.0272  -1.9861  -1.9521
    -1.9213  -1.8306  -1.7899  -1.7417  -1.6961  -1.6619  -1.5847  -1.5816
    -1.5138  -1.4669  -1.3544  -1.3313  -1.3122  -1.2698  -1.2326  -1.1946
    -1.1267  -1.1049  -1.0500  -1.0461  -1.0326  -1.0095  -0.8982  -0.8579
    -0.7648  -0.7240  -0.7014  -0.6772  -0.6345  -0.6277  -0.5569  -0.5340
    -0.4953  -0.4702  -0.4044  -0.3989  -0.3645  -0.2997  -0.1930  -0.0346
     0.0604   0.1031   0.1251   0.1437   0.1891   0.2985   0.3043   0.3787
     0.4508   0.4638   0.4815   0.5104   0.6560   0.7340   0.8410   0.8630
     0.9121   0.9602   1.0198   1.0880   1.3772   1.3846   1.3881   1.3887
     2.7183   3.5043   3.5067   3.5349   3.5461   3.7302   3.7343   3.7521
     3.8974   3.9267   3.9998

     the Fermi energy is     2.8894 ev

!    total energy              =   -2972.75614772 Ry
     estimated scf accuracy    <       0.00000006 Ry
     smearing contrib. (-TS)   =      -0.01287287 Ry
     internal energy E=F+TS    =   -2972.74327484 Ry

     The total energy is F=E-TS. E is the sum of the following terms:
     one-electron contribution =  -23636.62267178 Ry
     hartree contribution      =   11911.34681795 Ry
     xc contribution           =    -493.08390470 Ry
     ewald contribution        =    9245.61588462 Ry
     electric field correction =       0.00059907 Ry

     convergence has been achieved in  78 iterations

     Forces acting on atoms (cartesian axes, Ry/au):

     atom    1 type  1   force =    -0.00001304   -0.00036596    0.10682641
     atom    2 type  1   force =    -0.00005075    0.00020289   -0.16492061
     atom    3 type  2   force =     0.00005528    0.00002147   -0.03813123
     atom    4 type  2   force =     0.00006465   -0.00063947    0.03455480
     atom    5 type  2   force =    -0.00367055   -0.00218698   -0.00717692
     atom    6 type  2   force =     0.00569460   -0.00177159   -0.00685097
     atom    7 type  1   force =     0.00025256   -0.00517309    0.03712747
     atom    8 type  1   force =    -0.00002165    0.01089558    0.05883505
     atom    9 type  2   force =    -0.00043759    0.00030878   -0.00083001
     atom   10 type  2   force =    -0.00076475   -0.00040299   -0.04428707
     atom   11 type  2   force =     0.00030292   -0.00021180    0.00032099
     atom   12 type  2   force =    -0.00064993   -0.00054789   -0.00003272
     atom   13 type  1   force =     0.00005027    0.00033608    0.00053533
     atom   14 type  1   force =    -0.00025066   -0.00007078    0.00052523
     atom   15 type  2   force =    -0.00019001   -0.00034180   -0.00114470
     atom   16 type  2   force =     0.00032678    0.00007258    0.00052328
     atom   17 type  2   force =     0.00004659    0.00039865    0.00016095
     atom   18 type  2   force =     0.00031714    0.00050118   -0.00048062
     atom   19 type  1   force =    -0.00047046   -0.00052040   -0.00042228
     atom   20 type  1   force =     0.00012103   -0.00027149    0.00062903
     atom   21 type  2   force =     0.00004295    0.00021230    0.10038147
     atom   22 type  2   force =     0.00000699   -0.00077820   -0.00003287
     atom   23 type  2   force =    -0.07696063   -0.00000661   -0.03002036
     atom   24 type  2   force =     0.07682736    0.00042021   -0.03007767
     atom   25 type  1   force =     0.00005426   -0.00041750    0.10687158
     atom   26 type  1   force =    -0.00017382   -0.00138035   -0.16528425
     atom   27 type  2   force =     0.00012517   -0.00063718   -0.03657719
     atom   28 type  2   force =     0.00003782    0.00111483    0.03013511
     atom   29 type  2   force =    -0.00205477    0.00418312   -0.01014910
     atom   30 type  2   force =     0.00411997    0.00463087   -0.00972601
     atom   31 type  1   force =     0.00023529    0.00322643    0.02267327
     atom   32 type  1   force =    -0.00015651   -0.01396828    0.05888001
     atom   33 type  2   force =    -0.00014071   -0.00120453   -0.00030286
     atom   34 type  2   force =    -0.00070574   -0.00007515   -0.05475333
     atom   35 type  2   force =    -0.00106401    0.00021169    0.00021062
     atom   36 type  2   force =     0.00051644   -0.00000889   -0.00021309
     atom   37 type  1   force =    -0.00013342   -0.00078279    0.00001671
     atom   38 type  1   force =    -0.00057524    0.00001707    0.00005944
     atom   39 type  2   force =    -0.00031553    0.00054501   -0.00005934
     atom   40 type  2   force =    -0.00024515   -0.00047158    0.00018006
     atom   41 type  2   force =    -0.00091579    0.00004671   -0.00010528
     atom   42 type  2   force =    -0.00018361    0.00010943    0.00060340
     atom   43 type  1   force =     0.00078576    0.00100767   -0.00010300
     atom   44 type  1   force =    -0.00016950    0.00167039    0.00073844
     atom   45 type  2   force =     0.00003590    0.00000179    0.10018552
     atom   46 type  2   force =    -0.07699982    0.00003315   -0.03005084
     atom   47 type  2   force =     0.07688910    0.00045854   -0.03011656
     atom   48 type  3   force =    -0.00044841   -0.00105545    0.00220424
     atom   49 type  3   force =     0.00010160    0.00091905   -0.00054444
     atom   50 type  4   force =     0.00195524    0.00438441   -0.00317243
     atom   51 type  5   force =     0.00018990   -0.00024091   -0.00026616
     atom   52 type  5   force =    -0.00214003   -0.00310729    0.00233156
     atom   53 type  5   force =     0.00001743    0.00023227    0.00032321
     atom   54 type  2   force =     0.00110793   -0.00041389   -0.00118391
     atom   55 type  5   force =    -0.00037884    0.00089071    0.00118265

     Total force =     0.379832     Total SCF correction =     0.000845
  @ DRIVER MODE: Message from server: STATUS
  @ DRIVER MODE: Message from server: GETFORCE
  @ DRIVER MODE: Returning v,forces,stress,ensemble

     Writing output data file ./calc.save/
  @ DRIVER MODE: Message from server: EXIT
  @ DRIVE MODE: Exiting

     General routines

     Parallel routines

   This run was terminated on:   6:23:40  10Sep2021

   JOB DONE.