     Program PWSCF v.6.7GPU starts on 23Sep2021 at  1:34:22

     R & G space division:  proc/nbgrp/npool/nimage =      10
     Reading input from /storage/home/hcoda1/3/ntian30/research/carbon/CxH_vib/H2O_calc/ads_slab/CH3NHO_a/out_0030/pw.inp
Warning: card &CELL ignored
Warning: card   CELL_DYNAMICS='IPI', ignored
Warning: card / ignored

     Current dimensions of program PWSCF are:
     Max number of different atomic species (ntypx) = 10
     Max number of k-points (npk) =  40000
     Max angular momentum in pseudopotentials (lmaxx) =  3
     Presently no symmetry can be used with electric field

     Message from routine cell_base_init:
     DEPRECATED: use true lattice parameter, not A to a.u. conversion factor

     IMPORTANT: XC functional enforced from input :
     Exchange-correlation= BEEF-VDW
                           (   1   4  43  14   2   0   0)
     Any further DFT definition will be discarded
     Please, verify this is what you really want

  @ DRIVER MODE: Connecting to
 qe_1139763_2937319.sched-torque.pace.gatech.eduzk1qg4k0_scratch
  using UNIX socket
  @ DRIVER MODE: Message from server: STATUS
  @ DRIVER MODE: Message from server: INIT
  @ DRIVER MODE: Receiving replica           0          -1
  @ DRIVER MODE: Receiving encoded integer          25
  @ DRIVER MODE:  SCF:  T  FORCE:  T  STRESS:  F  VC:  F  ENSEMBLE:  F
  @ DRIVER MODE:  SCF:  T  FORCE:  T  STRESS:  F  VC:  F  ENSEMBLE:  F

     Using Slab Decomposition

     bravais-lattice index     =            0
     lattice parameter (alat)  =       1.8897  a.u.
     unit-cell volume          =    6658.9804 (a.u.)^3
     number of atoms/cell      =           54
     number of atomic types    =            5
     number of electrons       =       397.00
     number of Kohn-Sham states=          208
     kinetic-energy cutoff     =      29.3995  Ry
     charge density cutoff     =     293.9946  Ry
     scf convergence threshold =      7.3E-08
     mixing beta               =       0.0500
     number of iterations used =            8  plain     mixing
     Exchange-correlation= BEEF-VDW
                           (   1   4  43  14   2   0   0)

     celldm(1)=   1.889726  celldm(2)=   0.000000  celldm(3)=   0.000000
     celldm(4)=   0.000000  celldm(5)=   0.000000  celldm(6)=   0.000000

     crystal axes: (cart. coord. in units of alat)
               a(1) = (   6.579727   0.000000   0.000000 )
               a(2) = (  -0.000775   5.961596   0.000000 )
               a(3) = (   0.000000   0.000000  25.155947 )

     reciprocal axes: (cart. coord. in units 2 pi/alat)
               b(1) = (  0.151982  0.000020  0.000000 )
               b(2) = (  0.000000  0.167740  0.000000 )
               b(3) = (  0.000000  0.000000  0.039752 )

     PseudoPot. # 1 for Ti read from file:
     /storage/coda1/p-amedford6/0/shared/rich_project_chbe-medford/medford-share/data/pseudos_module/espresso/nninc/pbe/van/Ti.UPF
     MD5 check sum: 8e4df49b7f0d34bbd5052bf3f5ea0213
     Pseudo is Ultrasoft, Zval = 12.0
     Generated by new atomic code, or converted to UPF format
     Using radial grid of  851 points,  6 beta functions with:
                l(1) =   0
                l(2) =   0
                l(3) =   1
                l(4) =   1
                l(5) =   2
                l(6) =   2
     Q(r) pseudized with  8 coefficients,  rinner =    1.000   1.000   1.000
                                                       1.000   1.000

     PseudoPot. # 2 for O  read from file:
     /storage/coda1/p-amedford6/0/shared/rich_project_chbe-medford/medford-share/data/pseudos_module/espresso/nninc/pbe/van/O.UPF
     MD5 check sum: 78c19812648e8988a0fe644b0f25305e
     Pseudo is Ultrasoft, Zval =  6.0
     Generated by new atomic code, or converted to UPF format
     Using radial grid of  737 points,  4 beta functions with:
                l(1) =   0
                l(2) =   0
                l(3) =   1
                l(4) =   1
     Q(r) pseudized with  8 coefficients,  rinner =    0.800   0.800   0.800

     PseudoPot. # 3 for N  read from file:
     /storage/coda1/p-amedford6/0/shared/rich_project_chbe-medford/medford-share/data/pseudos_module/espresso/nninc/pbe/van/N.UPF
     MD5 check sum: 90d10febe142ad51ac9d5be1deb811c4
     Pseudo is Ultrasoft, Zval =  5.0
     Generated by new atomic code, or converted to UPF format
     Using radial grid of  729 points,  4 beta functions with:
                l(1) =   0
                l(2) =   0
                l(3) =   1
                l(4) =   1
     Q(r) pseudized with  8 coefficients,  rinner =    0.800   0.800   0.800

     PseudoPot. # 4 for C  read from file:
     /storage/coda1/p-amedford6/0/shared/rich_project_chbe-medford/medford-share/data/pseudos_module/espresso/nninc/pbe/van/C.UPF
     MD5 check sum: 1a69bf6b8db32088f5b2163dbdb77a27
     Pseudo is Ultrasoft, Zval =  4.0
     Generated by new atomic code, or converted to UPF format
     Using radial grid of  721 points,  4 beta functions with:
                l(1) =   0
                l(2) =   0
                l(3) =   1
                l(4) =   1
     Q(r) pseudized with  8 coefficients,  rinner =    0.800   0.800   0.800

     PseudoPot. # 5 for H  read from file:
     /storage/coda1/p-amedford6/0/shared/rich_project_chbe-medford/medford-share/data/pseudos_module/espresso/nninc/pbe/van/H.UPF
     MD5 check sum: b5ee9d7bfd3a09ee7748110bda690ff7
     Pseudo is Ultrasoft, Zval =  1.0
     Generated by new atomic code, or converted to UPF format
     Using radial grid of  615 points,  1 beta functions with:
                l(1) =   0
     Q(r) pseudized with  8 coefficients,  rinner =    0.800

     atomic species   valence    mass     pseudopotential
        Ti1           12.00    47.86700     Ti( 1.00)
        O1             6.00    15.99900     O ( 1.00)
        N1             5.00    14.00700     N ( 1.00)
        C1             4.00    12.01100     C ( 1.00)
        H1             1.00     1.00800     H ( 1.00)

     No symmetry found

   Cartesian axes

     site n.     atom                  positions (alat units)
         1           Ti1 tau(   1) = (   0.0004258   2.9801865   6.0000000  )
         2           Ti1 tau(   2) = (   3.2906075   1.4906267   6.0002472  )
         3           O1  tau(   3) = (   0.0006271   0.0005054   7.9858123  )
         4           O1  tau(   4) = (   3.2906025   0.0005020   7.3038282  )
         5           O1  tau(   5) = (   4.5942328   1.4918067   9.2879030  )
         6           O1  tau(   6) = (   1.9868534   1.4903216   9.2879459  )
         7           Ti1 tau(   7) = (   3.2907910   2.8959150   9.1758416  )
         8           Ti1 tau(   8) = (   0.0015273   1.4827037   9.2680791  )
         9           O1  tau(   9) = (   3.2880966   5.9442215  11.2779904  )
        10           O1  tau(  10) = (   0.0116148   5.9584955  10.6183126  )
        11           O1  tau(  11) = (   1.2901275   1.4920942  12.6240107  )
        12           O1  tau(  12) = (   5.2966278   1.4852543  12.6143030  )
        13           Ti1 tau(  13) = (   0.0031916   3.1007002  12.7073671  )
        14           Ti1 tau(  14) = (   3.2978183   1.3116672  12.6600973  )
        15           O1  tau(  15) = (   6.5743189   0.0224225  14.6379036  )
        16           O1  tau(  16) = (   3.2931419   0.0435670  13.8892854  )
        17           O1  tau(  17) = (   4.5409235   1.5821231  16.0748620  )
        18           O1  tau(  18) = (   2.0417342   1.5698890  16.0900686  )
        19           Ti1 tau(  19) = (   3.2746960   3.0378214  15.6558348  )
        20           Ti1 tau(  20) = (   6.4705883   1.5381531  15.9030332  )
        21           O1  tau(  21) = (   3.2904802   0.0005063   4.7018136  )
        22           O1  tau(  22) = (   6.5584422   0.0457650  17.1906971  )
        23           O1  tau(  23) = (   1.3043587   1.4918075   6.0039043  )
        24           O1  tau(  24) = (   5.2767064   1.4903225   6.0039473  )
        25           Ti1 tau(  25) = (   0.0000382   5.9609847   6.0000000  )
        26           Ti1 tau(  26) = (   3.2902200   4.4714249   6.0002472  )
        27           O1  tau(  27) = (   0.0002396   2.9813036   7.9858123  )
        28           O1  tau(  28) = (   3.2902150   2.9813002   7.3038282  )
        29           O1  tau(  29) = (   4.5938453   4.4726049   9.2879030  )
        30           O1  tau(  30) = (   1.9864658   4.4711199   9.2879459  )
        31           Ti1 tau(  31) = (   3.2891106   5.8743827   9.1763621  )
        32           Ti1 tau(  32) = (   0.0006254   4.4649316   9.2693709  )
        33           O1  tau(  33) = (   3.2918970   3.0256722  11.2465752  )
        34           O1  tau(  34) = (   0.0092240   2.9805883  10.6323155  )
        35           O1  tau(  35) = (   1.2932338   4.4650182  12.6342030  )
        36           O1  tau(  36) = (   5.2897350   4.4662865  12.6224893  )
        37           Ti1 tau(  37) = (   0.0112454   0.1207271  12.6557084  )
        38           Ti1 tau(  38) = (   3.2993242   4.4067673  12.4119285  )
        39           O1  tau(  39) = (   6.5542949   2.9732608  14.6543823  )
        40           O1  tau(  40) = (   3.2957262   2.9928748  13.8751945  )
        41           O1  tau(  41) = (   4.5169628   4.4726675  16.1294972  )
        42           O1  tau(  42) = (   2.0179035   4.4711894  16.0655614  )
        43           Ti1 tau(  43) = (   3.1791666   0.0518155  16.3463265  )
        44           Ti1 tau(  44) = (   6.5235282   4.6410908  16.0777984  )
        45           O1  tau(  45) = (   3.2900926   2.9813045   4.7018136  )
        46           O1  tau(  46) = (   1.3039711   4.4726057   6.0039043  )
        47           O1  tau(  47) = (   5.2763189   4.4711207   6.0039473  )
        48           N1  tau(  48) = (   0.0679940   2.9882472  17.3287890  )
        49           C1  tau(  49) = (   0.3445104   2.8919884  18.7043053  )
        50           H1  tau(  50) = (   0.5935414   3.8503421  19.1719745  )
        51           H1  tau(  51) = (   6.0379261   2.4644003  19.2136804  )
        52           H1  tau(  52) = (   1.1315070   2.1426081  18.9055932  )
        53           O1  tau(  53) = (   3.2362511   0.0690349  18.1809703  )
        54           H1  tau(  54) = (   3.8186072   5.4079590  18.6400750  )

     number of k points=    10  Fermi-Dirac smearing, width (Ry)=  0.0073
                       cart. coord. in units 2pi/alat
        k(    1) = (   0.0000000   0.0000000   0.0000000), wk =   0.1250000
        k(    2) = (   0.0000000   0.0419351   0.0000000), wk =   0.2500000
        k(    3) = (   0.0000000  -0.0838702   0.0000000), wk =   0.1250000
        k(    4) = (   0.0379955   0.0000049   0.0000000), wk =   0.2500000
        k(    5) = (   0.0379955   0.0419400   0.0000000), wk =   0.2500000
        k(    6) = (   0.0379955  -0.0838652   0.0000000), wk =   0.2500000
        k(    7) = (   0.0379955  -0.0419301   0.0000000), wk =   0.2500000
        k(    8) = (  -0.0759910  -0.0000099   0.0000000), wk =   0.1250000
        k(    9) = (  -0.0759910   0.0419252   0.0000000), wk =   0.2500000
        k(   10) = (  -0.0759910  -0.0838800   0.0000000), wk =   0.1250000

     Initial potential from superposition of free atoms

     starting charge  380.99916, renormalised to  397.00000

     negative rho (up, down):  1.676E-02 0.000E+00

     %%%%%%%%%%%%%%%%%%%%%%%%%%%%%%%%%%%%%%%%%%%%%%%%%%%%%%%%%%%%%%%%%%%%%%%%
     %                                                                      %
     % You are using vdW-DF, which was implemented by the Thonhauser group. %
     % Please cite the following two papers that made this development      %
     % possible and the two reviews that describe the various versions:     %
     %                                                                      %
     %   T. Thonhauser et al., PRL 115, 136402 (2015).                      %
     %   T. Thonhauser et al., PRB 76, 125112 (2007).                       %
     %   K. Berland et al., Rep. Prog. Phys. 78, 066501 (2015).             %
     %   D.C. Langreth et al., J. Phys.: Condens. Matter 21, 084203 (2009). %
     %                                                                      %
     %                                                                      %
     % If you are calculating the stress with vdW-DF, please also cite:     %
     %                                                                      %
     %   R. Sabatini et al., J. Phys.: Condens. Matter 24, 424209 (2012).   %
     %                                                                      %
     %%%%%%%%%%%%%%%%%%%%%%%%%%%%%%%%%%%%%%%%%%%%%%%%%%%%%%%%%%%%%%%%%%%%%%%%

     Adding external electric field

     Computed dipole along edir(3) :
        Dipole               -8.2929 Ry au,        -21.0784 Debye
        Dipole field         -0.0156 Ry au,

        Potential amp.        1.4507 Ry
        Total length         46.3494 bohr

     Starting wfcs are  300 atomic wfcs
  @ DRIVER MODE: Message from server: STATUS
  @ DRIVER MODE: Message from server: POSDATA
  @ DRIVER MODE: Reading and sharing cell
  @ DRIVER MODE: Reading and sharing positions
  @ DRIVER MODE: Received positions

     Self-consistent Calculation

     iteration #  1     ecut=    29.40 Ry     beta= 0.05
     Davidson diagonalization with overlap
     c_bands:  1 eigenvalues not converged
     c_bands:  1 eigenvalues not converged
     c_bands:  1 eigenvalues not converged
     c_bands:  3 eigenvalues not converged
     c_bands:  2 eigenvalues not converged
     c_bands:  1 eigenvalues not converged
     c_bands:  1 eigenvalues not converged
     ethr =  1.00E-05,  avg # of iterations = 19.2

[...]

     total energy              =   -2606.40665477 Ry
     estimated scf accuracy    <    3821.29111468 Ry

     iteration #  2     ecut=    29.40 Ry     beta= 0.05
     Davidson diagonalization with overlap
     ethr =  1.00E-02,  avg # of iterations = 23.2

[...]

     iteration # 45     ecut=    29.40 Ry     beta= 0.05
     Davidson diagonalization with overlap
     c_bands:  1 eigenvalues not converged
     ethr =  3.15E-07,  avg # of iterations =  7.5

[...]

     total energy              =   -2952.64745755 Ry
     estimated scf accuracy    <       0.00000008 Ry

     iteration # 69     ecut=    29.40 Ry     beta= 0.05
     Davidson diagonalization with overlap
     ethr =  2.07E-11,  avg # of iterations =  4.8

     negative rho (up, down):  1.695E-02 0.000E+00

     Adding external electric field

     Computed dipole along edir(3) :
        Dipole                0.3614 Ry au,          0.9186 Debye
        Dipole field          0.0007 Ry au,

        Potential amp.       -0.0632 Ry
        Total length         46.3494 bohr

     End of self-consistent calculation

          k = 0.0000 0.0000 0.0000 ( 18029 PWs)   bands (ev):

   -56.8758 -56.8423 -55.9461 -55.9106 -55.7356 -55.6709 -55.5488 -55.4272
   -55.3933 -55.3132 -55.3111 -55.2407 -55.2189 -55.1160 -55.0466 -54.9202
   -33.2946 -33.1460 -33.1180 -33.0556 -32.9654 -32.9217 -32.4273 -32.2109
   -32.1663 -32.1461 -32.0906 -32.0822 -32.0566 -31.9694 -31.9480 -31.9057
   -31.8902 -31.8734 -31.8330 -31.8051 -31.7947 -31.7934 -31.7800 -31.7741
   -31.7496 -31.7299 -31.6651 -31.6312 -31.5915 -31.5821 -31.5509 -31.5282
   -31.5156 -31.5080 -31.4746 -31.4658 -31.4395 -31.4305 -31.4083 -31.3939
   -31.3565 -31.3054 -31.2992 -31.2823 -31.2503 -31.1919 -31.1566 -31.1035
   -16.9787 -16.4628 -16.4167 -16.1922 -16.0697 -16.0639 -16.0184 -15.9563
   -15.7833 -15.7290 -15.6893 -15.6258 -15.4746 -15.3643 -15.2674 -15.0716
   -15.0359 -15.0047 -15.0025 -14.9893 -14.9585 -14.9461 -14.8707 -14.8197
   -14.7889 -14.7069 -14.6996 -14.5389 -14.3100 -14.2866 -13.9248 -13.8178
   -13.7923  -8.0380  -4.5545  -4.0894  -3.8852  -3.7101  -3.5605  -3.4883
    -3.4639  -3.3945  -3.3808  -3.2361  -3.2354  -3.2235  -3.2193  -3.1382
    -3.0765  -3.0156  -2.9263  -2.9108  -2.8201  -2.7696  -2.6106  -2.5758
    -2.4883  -2.4097  -2.4042  -2.3379  -2.3186  -2.2770  -2.2416  -2.2099
    -2.1809  -2.1379  -2.0834  -2.0736  -1.9783  -1.9718  -1.8900  -1.8745
    -1.8693  -1.7473  -1.7079  -1.6484  -1.5088  -1.4872  -1.4701  -1.4388
    -1.4004  -1.3403  -1.2358  -1.1775  -1.1488  -1.0951  -1.0252  -0.9683
    -0.9482  -0.8740  -0.8479  -0.7736  -0.7292  -0.7145  -0.6945  -0.6691
    -0.5314  -0.4492  -0.4144  -0.3620  -0.3470  -0.3080  -0.2830  -0.2281
    -0.1697  -0.1478  -0.0495  -0.0469   0.0898   0.1577   0.1600   0.2585
     0.3029   0.3093   0.3661   0.4348   0.4465   0.5102   0.5304   0.5885
     0.5940   0.6367   0.7203   0.7973   0.8406   0.8705   0.9108   0.9313
     1.0432   1.0682   1.1314   1.1877   1.4977   1.5702   2.1777   2.4187
     2.5904   2.8679   3.0634   3.3630   3.4046   3.4227   3.4229   3.7329

[...]

          k = 0.0380-0.0419 0.0000 ( 17876 PWs)   bands (ev):

[...]

          k =-0.0760-0.0000 0.0000 ( 17886 PWs)   bands (ev):

[...]

          k =-0.0760-0.0839 0.0000 ( 17948 PWs)   bands (ev):

   -56.8597 -56.8583 -55.9341 -55.9223 -55.7308 -55.6756 -55.5480 -55.4108
   -55.4095 -55.3138 -55.3066 -55.2449 -55.2174 -55.1145 -55.0481 -54.9216
   -33.1325 -33.1310 -33.1126 -33.1111 -33.0097 -33.0085 -32.2523 -32.2421
   -32.1287 -32.1245 -32.1166 -32.1156 -32.0290 -31.9884 -31.9626 -31.9488
   -31.9012 -31.8996 -31.8337 -31.7913 -31.7712 -31.7631 -31.7622 -31.6860
   -31.6361 -31.6310 -31.6295 -31.6047 -31.5943 -31.5908 -31.5899 -31.5841
   -31.5353 -31.5274 -31.5109 -31.4855 -31.4803 -31.4646 -31.4350 -31.4103
   -31.3933 -31.3593 -31.3075 -31.2934 -31.2605 -31.2562 -31.1590 -31.1412
   -16.4521 -16.3365 -16.3347 -16.2921 -16.2906 -16.0270 -16.0226 -15.7744
   -15.7453 -15.5694 -15.4578 -15.4356 -15.3939 -15.3534 -15.2760 -15.2249
   -15.2116 -15.1837 -15.1572 -15.0848 -15.0509 -14.9499 -14.9144 -14.8526
   -14.8180 -14.7446 -14.7044 -14.6758 -14.4807 -14.4196 -13.9223 -13.9217
   -13.8156  -8.0368  -4.0930  -3.4711  -3.4135  -3.4092  -3.3737  -3.3667
    -3.2775  -3.1623  -3.1589  -3.0447  -2.9580  -2.9311  -2.9015  -2.8474
    -2.8341  -2.7377  -2.6880  -2.6831  -2.6677  -2.6333  -2.6022  -2.5952
    -2.5373  -2.4107  -2.3665  -2.3290  -2.2882  -2.2192  -2.1899  -2.1823
    -2.1493  -2.1099  -2.0913  -2.0628  -2.0501  -2.0434  -2.0327  -1.9468
    -1.7988  -1.7718  -1.6788  -1.6759  -1.6658  -1.6261  -1.5964  -1.5824
    -1.5622  -1.5285  -1.4518  -1.4260  -1.3618  -1.2256  -1.2129  -1.1784
    -1.1250  -1.0221  -1.0072  -0.9114  -0.8935  -0.8836  -0.8192  -0.7970
    -0.7803  -0.7181  -0.6805  -0.5604  -0.4890  -0.4803  -0.4626  -0.4536
    -0.4032  -0.3556  -0.2831  -0.2791  -0.2625  -0.1544  -0.0585   0.0360
     0.0419   0.1103   0.1257   0.1808   0.3382   0.3487   0.3906   0.4521
     0.5684   0.6601   0.7138   0.8134   0.8465   0.9521   0.9709   0.9759
     0.9953   1.0041   1.0477   1.1035   1.1669   1.4794   1.9772   3.0113
     3.0145   3.0728   3.0784   3.3897   3.3919   3.5040   3.5089   3.8316

     the Fermi energy is     2.0750 ev

!    total energy              =   -2952.64747937 Ry
     estimated scf accuracy    <       0.00000004 Ry
     smearing contrib. (-TS)   =      -0.01068416 Ry
     internal energy E=F+TS    =   -2952.63679521 Ry

     The total energy is F=E-TS. E is the sum of the following terms:
     one-electron contribution =  -24060.71026191 Ry
     hartree contribution      =   12120.80984482 Ry
     xc contribution           =    -487.77561980 Ry
     ewald contribution        =    9475.03899519 Ry
     electric field correction =       0.00024650 Ry

     convergence has been achieved in  69 iterations

     Forces acting on atoms (cartesian axes, Ry/au):

     atom    1 type  1   force =     0.00005347   -0.00036590    0.12635799
     atom    2 type  1   force =    -0.00006329    0.00038898   -0.15472452
     atom    3 type  2   force =     0.00003718    0.00023006   -0.06867108
     atom    4 type  2   force =     0.00004322    0.00001245    0.01721201
     atom    5 type  2   force =    -0.00542240   -0.00183099   -0.01283915
     atom    6 type  2   force =     0.00700473   -0.00107065   -0.01373947
     atom    7 type  1   force =    -0.00029653   -0.00640556    0.05892521
     atom    8 type  1   force =     0.00058326    0.00674831    0.10095322
     atom    9 type  2   force =     0.00031903    0.00037119    0.00012820
     atom   10 type  2   force =    -0.00198539    0.00132349   -0.06337201
     atom   11 type  2   force =    -0.00016944   -0.00066633    0.00024177
     atom   12 type  2   force =    -0.00036621   -0.00041070    0.00006280
     atom   13 type  1   force =     0.00057888   -0.00074291    0.00025381
     atom   14 type  1   force =    -0.00003171   -0.00054785    0.00121088
     atom   15 type  2   force =     0.00000127   -0.00002031    0.00028323
     atom   16 type  2   force =     0.00005844   -0.00019955   -0.00086218
     atom   17 type  2   force =    -0.00038299   -0.00054835   -0.00043495
     atom   18 type  2   force =    -0.00037932   -0.00061586   -0.00065415
     atom   19 type  1   force =     0.00123158    0.00036651   -0.00078777
     atom   20 type  1   force =    -0.00075831    0.00080992   -0.00067150
     atom   21 type  2   force =     0.00009601    0.00015085    0.09787124
     atom   22 type  2   force =    -0.00012473   -0.00008590   -0.00036957
     atom   23 type  2   force =    -0.08272821    0.00003334   -0.03314083
     atom   24 type  2   force =     0.08269709    0.00046343   -0.03320371
     atom   25 type  1   force =     0.00005455   -0.00040181    0.12673654
     atom   26 type  1   force =    -0.00004798   -0.00139431   -0.15487708
     atom   27 type  2   force =     0.00011953   -0.00036862   -0.06707467
     atom   28 type  2   force =     0.00007137    0.00177142    0.01243106
     atom   29 type  2   force =    -0.00384388    0.00476875   -0.01598483
     atom   30 type  2   force =     0.00537315    0.00500841   -0.01691326
     atom   31 type  1   force =    -0.00028962    0.00187799    0.04201863
     atom   32 type  1   force =     0.00074601   -0.00886797    0.10187699
     atom   33 type  2   force =    -0.00004824   -0.00034861   -0.00059186
     atom   34 type  2   force =    -0.00187848    0.00205933   -0.07569491
     atom   35 type  2   force =     0.00013207   -0.00013036   -0.00047148
     atom   36 type  2   force =    -0.00030360    0.00006609   -0.00019186
     atom   37 type  1   force =     0.00047073    0.00055638    0.00036570
     atom   38 type  1   force =    -0.00034949   -0.00073992   -0.00036248
     atom   39 type  2   force =     0.00001686   -0.00050394    0.00064087
     atom   40 type  2   force =    -0.00008817   -0.00057243   -0.00045917
     atom   41 type  2   force =     0.00046677   -0.00034843   -0.00066126
     atom   42 type  2   force =    -0.00137289    0.00019887   -0.00006222
     atom   43 type  1   force =     0.00079209   -0.00064383   -0.00067542
     atom   44 type  1   force =    -0.00116346   -0.00055850   -0.00012428
     atom   45 type  2   force =     0.00008280   -0.00002734    0.09772591
     atom   46 type  2   force =    -0.08276345    0.00001723   -0.03315431
     atom   47 type  2   force =     0.08272644    0.00043108   -0.03320039
     atom   48 type  3   force =     0.00121952   -0.00157934    0.00018679
     atom   49 type  4   force =     0.00051435   -0.00109111    0.00095112
     atom   50 type  5   force =    -0.00047594    0.00016593    0.00061397
     atom   51 type  5   force =     0.00008868    0.00040187   -0.00032316
     atom   52 type  5   force =    -0.00182386    0.00167293   -0.00198190
     atom   53 type  2   force =     0.00035160    0.00026955   -0.00084720
     atom   54 type  5   force =     0.00122686    0.00092301    0.00007464

     Total force =     0.421167     Total SCF correction =     0.000715
  @ DRIVER MODE: Message from server: STATUS
  @ DRIVER MODE: Message from server: GETFORCE
  @ DRIVER MODE: Returning v,forces,stress,ensemble

     Writing output data file ./calc.save/
  @ DRIVER MODE: Message from server: EXIT
  @ DRIVE MODE: Exiting

     General routines

     Parallel routines

   This run was terminated on:   1:51:40  23Sep2021

   JOB DONE.