     Program PWSCF v.6.7GPU starts on 23Sep2021 at 20:52:22

     R & G space division:  proc/nbgrp/npool/nimage =       8
     Reading input from /storage/home/hcoda1/3/ntian30/research/carbon/CxH_vib/H2O_calc/ads_slab/CH3NHHO_a/out_0027/pw.inp
Warning: card &CELL ignored
Warning: card   CELL_DYNAMICS='IPI', ignored
Warning: card / ignored

     Current dimensions of program PWSCF are:
     Max number of different atomic species (ntypx) = 10
     Max number of k-points (npk) =  40000
     Max angular momentum in pseudopotentials (lmaxx) =  3
     Presently no symmetry can be used with electric field

     Message from routine cell_base_init:
     DEPRECATED: use true lattice parameter, not A to a.u. conversion factor

     IMPORTANT: XC functional enforced from input :
     Exchange-correlation= BEEF-VDW
                           (   1   4  43  14   2   0   0)
     Any further DFT definition will be discarded
     Please, verify this is what you really want

  @ DRIVER MODE: Connecting to
 qe_1139763_2947309.sched-torque.pace.gatech.eduvg6waz_l_scratch
  using UNIX socket
  @ DRIVER MODE: Message from server: STATUS
  @ DRIVER MODE: Message from server: INIT
  @ DRIVER MODE: Receiving replica           0          -1
  @ DRIVER MODE: Receiving encoded integer          25
  @ DRIVER MODE:  SCF:  T  FORCE:  T  STRESS:  F  VC:  F  ENSEMBLE:  F
  @ DRIVER MODE:  SCF:  T  FORCE:  T  STRESS:  F  VC:  F  ENSEMBLE:  F

     Using Slab Decomposition

     bravais-lattice index     =            0
     lattice parameter (alat)  =       1.8897  a.u.
     unit-cell volume          =    6658.9804 (a.u.)^3
     number of atoms/cell      =           55
     number of atomic types    =            5
     number of electrons       =       398.00
     number of Kohn-Sham states=          209
     kinetic-energy cutoff     =      29.3995  Ry
     charge density cutoff     =     293.9946  Ry
     scf convergence threshold =      7.3E-08
     mixing beta               =       0.0500
     number of iterations used =            8  plain     mixing
     Exchange-correlation= BEEF-VDW
                           (   1   4  43  14   2   0   0)

     celldm(1)=   1.889726  celldm(2)=   0.000000  celldm(3)=   0.000000
     celldm(4)=   0.000000  celldm(5)=   0.000000  celldm(6)=   0.000000

     crystal axes: (cart. coord. in units of alat)
               a(1) = (   6.579727   0.000000   0.000000 )
               a(2) = (  -0.000775   5.961596   0.000000 )
               a(3) = (   0.000000   0.000000  25.155947 )

     reciprocal axes: (cart. coord. in units 2 pi/alat)
               b(1) = (  0.151982  0.000020  0.000000 )
               b(2) = (  0.000000  0.167740  0.000000 )
               b(3) = (  0.000000  0.000000  0.039752 )

     PseudoPot. # 1 for Ti read from file:
     /storage/coda1/p-amedford6/0/shared/rich_project_chbe-medford/medford-share/data/pseudos_module/espresso/nninc/pbe/van/Ti.UPF
     MD5 check sum: 8e4df49b7f0d34bbd5052bf3f5ea0213
     Pseudo is Ultrasoft, Zval = 12.0
     Generated by new atomic code, or converted to UPF format
     Using radial grid of  851 points,  6 beta functions with:
                l(1) =   0
                l(2) =   0
                l(3) =   1
                l(4) =   1
                l(5) =   2
                l(6) =   2
     Q(r) pseudized with  8 coefficients,  rinner =    1.000   1.000   1.000
                                                       1.000   1.000

     PseudoPot. # 2 for O  read from file:
     /storage/coda1/p-amedford6/0/shared/rich_project_chbe-medford/medford-share/data/pseudos_module/espresso/nninc/pbe/van/O.UPF
     MD5 check sum: 78c19812648e8988a0fe644b0f25305e
     Pseudo is Ultrasoft, Zval =  6.0
     Generated by new atomic code, or converted to UPF format
     Using radial grid of  737 points,  4 beta functions with:
                l(1) =   0
                l(2) =   0
                l(3) =   1
                l(4) =   1
     Q(r) pseudized with  8 coefficients,  rinner =    0.800   0.800   0.800

     PseudoPot. # 3 for H  read from file:
     /storage/coda1/p-amedford6/0/shared/rich_project_chbe-medford/medford-share/data/pseudos_module/espresso/nninc/pbe/van/H.UPF
     MD5 check sum: b5ee9d7bfd3a09ee7748110bda690ff7
     Pseudo is Ultrasoft, Zval =  1.0
     Generated by new atomic code, or converted to UPF format
     Using radial grid of  615 points,  1 beta functions with:
                l(1) =   0
     Q(r) pseudized with  8 coefficients,  rinner =    0.800

     PseudoPot. # 4 for N  read from file:
     /storage/coda1/p-amedford6/0/shared/rich_project_chbe-medford/medford-share/data/pseudos_module/espresso/nninc/pbe/van/N.UPF
     MD5 check sum: 90d10febe142ad51ac9d5be1deb811c4
     Pseudo is Ultrasoft, Zval =  5.0
     Generated by new atomic code, or converted to UPF format
     Using radial grid of  729 points,  4 beta functions with:
                l(1) =   0
                l(2) =   0
                l(3) =   1
                l(4) =   1
     Q(r) pseudized with  8 coefficients,  rinner =    0.800   0.800   0.800

     PseudoPot. # 5 for C  read from file:
     /storage/coda1/p-amedford6/0/shared/rich_project_chbe-medford/medford-share/data/pseudos_module/espresso/nninc/pbe/van/C.UPF
     MD5 check sum: 1a69bf6b8db32088f5b2163dbdb77a27
     Pseudo is Ultrasoft, Zval =  4.0
     Generated by new atomic code, or converted to UPF format
     Using radial grid of  721 points,  4 beta functions with:
                l(1) =   0
                l(2) =   0
                l(3) =   1
                l(4) =   1
     Q(r) pseudized with  8 coefficients,  rinner =    0.800   0.800   0.800

     atomic species   valence    mass     pseudopotential
        Ti1           12.00    47.86700     Ti( 1.00)
        O1             6.00    15.99900     O ( 1.00)
        H1             1.00     1.00800     H ( 1.00)
        N1             5.00    14.00700     N ( 1.00)
        C1             4.00    12.01100     C ( 1.00)

     No symmetry found

   Cartesian axes

     site n.     atom                  positions (alat units)
         1           Ti1 tau(   1) = (   0.0004258   2.9801865   6.0000000  )
         2           Ti1 tau(   2) = (   3.2906075   1.4906267   6.0002472  )
         3           O1  tau(   3) = (   0.0006271   0.0005054   7.9858123  )
         4           O1  tau(   4) = (   3.2906025   0.0005020   7.3038282  )
         5           O1  tau(   5) = (   4.5942328   1.4918067   9.2879030  )
         6           O1  tau(   6) = (   1.9868534   1.4903216   9.2879459  )
         7           Ti1 tau(   7) = (   3.2907910   2.8959150   9.1758416  )
         8           Ti1 tau(   8) = (   0.0015273   1.4827037   9.2680791  )
         9           O1  tau(   9) = (   3.2831040   5.9360571  11.2641146  )
        10           O1  tau(  10) = (   0.0116148   5.9584955  10.6183126  )
        11           O1  tau(  11) = (   1.2851963   1.4867209  12.6255510  )
        12           O1  tau(  12) = (   5.2924406   1.4772461  12.6192171  )
        13           Ti1 tau(  13) = (   0.0036382   2.8404764  12.7021481  )
        14           Ti1 tau(  14) = (   3.2814461   1.2926050  12.6442039  )
        15           O1  tau(  15) = (   6.5789252   5.9354829  14.6389027  )
        16           O1  tau(  16) = (   3.2852549   0.0163589  13.8648689  )
        17           O1  tau(  17) = (   4.5445832   1.5164849  16.0197972  )
        18           O1  tau(  18) = (   2.0258823   1.4930055  16.0750729  )
        19           Ti1 tau(  19) = (   3.3156224   2.9699746  15.6194889  )
        20           Ti1 tau(  20) = (   0.0515760   1.3234122  16.0730098  )
        21           O1  tau(  21) = (   3.2904802   0.0005063   4.7018136  )
        22           O1  tau(  22) = (   6.5454194   5.9222349  17.1870725  )
        23           O1  tau(  23) = (   1.3043587   1.4918075   6.0039043  )
        24           O1  tau(  24) = (   5.2767064   1.4903225   6.0039473  )
        25           Ti1 tau(  25) = (   0.0000382   5.9609847   6.0000000  )
        26           Ti1 tau(  26) = (   3.2902200   4.4714249   6.0002472  )
        27           O1  tau(  27) = (   0.0002396   2.9813036   7.9858123  )
        28           O1  tau(  28) = (   3.2902150   2.9813002   7.3038282  )
        29           O1  tau(  29) = (   4.5938453   4.4726049   9.2879030  )
        30           O1  tau(  30) = (   1.9864658   4.4711199   9.2879459  )
        31           Ti1 tau(  31) = (   3.2891106   5.8743827   9.1763621  )
        32           Ti1 tau(  32) = (   0.0006254   4.4649316   9.2693709  )
        33           O1  tau(  33) = (   3.2861177   3.0127509  11.2320142  )
        34           O1  tau(  34) = (   0.0092240   2.9805883  10.6323155  )
        35           O1  tau(  35) = (   1.2872320   4.4646868  12.6147789  )
        36           O1  tau(  36) = (   5.2799320   4.4658550  12.6114028  )
        37           Ti1 tau(  37) = (   6.5510365   5.8261734  12.6423015  )
        38           Ti1 tau(  38) = (   3.2652589   4.3917841  12.4002916  )
        39           O1  tau(  39) = (   0.0003569   2.9920414  14.6539809  )
        40           O1  tau(  40) = (   3.2835110   2.9651371  13.8409569  )
        41           O1  tau(  41) = (   4.5245492   4.4030193  16.0142317  )
        42           O1  tau(  42) = (   2.0132503   4.4096711  16.0494848  )
        43           Ti1 tau(  43) = (   3.3389516   5.9588577  16.2858146  )
        44           Ti1 tau(  44) = (   0.0865397   4.4271626  15.8895714  )
        45           O1  tau(  45) = (   3.2900926   2.9813045   4.7018136  )
        46           O1  tau(  46) = (   1.3039711   4.4726057   6.0039043  )
        47           O1  tau(  47) = (   5.2763189   4.4711207   6.0039473  )
        48           H1  tau(  48) = (   5.5649379   3.0085428  17.7754687  )
        49           N1  tau(  49) = (   6.5266086   2.9804045  17.4451690  )
        50           C1  tau(  50) = (   0.8252436   3.0135910  18.6253707  )
        51           H1  tau(  51) = (   0.7415300   3.9712607  19.1474969  )
        52           H1  tau(  52) = (   0.5789590   2.1914881  19.3161603  )
        53           H1  tau(  53) = (   1.8636945   2.8847911  18.3311598  )
        54           O1  tau(  54) = (   3.4430348   5.9447220  18.1074838  )
        55           H1  tau(  55) = (   4.3135669   5.8364121  18.5244127  )

     number of k points=    10  Fermi-Dirac smearing, width (Ry)=  0.0073
                       cart. coord. in units 2pi/alat
        k(    1) = (   0.0000000   0.0000000   0.0000000), wk =   0.1250000
        k(    2) = (   0.0000000   0.0419351   0.0000000), wk =   0.2500000
        k(    3) = (   0.0000000  -0.0838702   0.0000000), wk =   0.1250000
        k(    4) = (   0.0379955   0.0000049   0.0000000), wk =   0.2500000
        k(    5) = (   0.0379955   0.0419400   0.0000000), wk =   0.2500000
        k(    6) = (   0.0379955  -0.0838652   0.0000000), wk =   0.2500000
        k(    7) = (   0.0379955  -0.0419301   0.0000000), wk =   0.2500000
        k(    8) = (  -0.0759910  -0.0000099   0.0000000), wk =   0.1250000
        k(    9) = (  -0.0759910   0.0419252   0.0000000), wk =   0.2500000
        k(   10) = (  -0.0759910  -0.0838800   0.0000000), wk =   0.1250000

     Initial potential from superposition of free atoms

     starting charge  381.99915, renormalised to  398.00000

     negative rho (up, down):  1.687E-02 0.000E+00

     %%%%%%%%%%%%%%%%%%%%%%%%%%%%%%%%%%%%%%%%%%%%%%%%%%%%%%%%%%%%%%%%%%%%%%%%
     %                                                                      %
     % You are using vdW-DF, which was implemented by the Thonhauser group. %
     % Please cite the following two papers that made this development      %
     % possible and the two reviews that describe the various versions:     %
     %                                                                      %
     %   T. Thonhauser et al., PRL 115, 136402 (2015).                      %
     %   T. Thonhauser et al., PRB 76, 125112 (2007).                       %
     %   K. Berland et al., Rep. Prog. Phys. 78, 066501 (2015).             %
     %   D.C. Langreth et al., J. Phys.: Condens. Matter 21, 084203 (2009). %
     %                                                                      %
     %                                                                      %
     % If you are calculating the stress with vdW-DF, please also cite:     %
     %                                                                      %
     %   R. Sabatini et al., J. Phys.: Condens. Matter 24, 424209 (2012).   %
     %                                                                      %
     %%%%%%%%%%%%%%%%%%%%%%%%%%%%%%%%%%%%%%%%%%%%%%%%%%%%%%%%%%%%%%%%%%%%%%%%

     Adding external electric field

     Computed dipole along edir(3) :
        Dipole               -8.7629 Ry au,        -22.2732 Debye
        Dipole field         -0.0165 Ry au,

        Potential amp.        1.5329 Ry
        Total length         46.3494 bohr

     Starting wfcs are  301 atomic wfcs
  @ DRIVER MODE: Message from server: STATUS
  @ DRIVER MODE: Message from server: POSDATA
  @ DRIVER MODE: Reading and sharing cell
  @ DRIVER MODE: Reading and sharing positions
  @ DRIVER MODE: Received positions

     Self-consistent Calculation

     iteration #  1     ecut=    29.40 Ry     beta= 0.05
     Davidson diagonalization with overlap
     c_bands:  2 eigenvalues not converged
     c_bands:  1 eigenvalues not converged
     c_bands:  1 eigenvalues not converged
     c_bands:  2 eigenvalues not converged
     ethr =  1.00E-05,  avg # of iterations = 18.0

[...]

     total energy              =   -2565.23386693 Ry
     estimated scf accuracy    <    4294.87511887 Ry

     iteration #  2     ecut=    29.40 Ry     beta= 0.05
     Davidson diagonalization with overlap
     ethr =  1.00E-02,  avg # of iterations = 22.7

[...]

     iteration # 47     ecut=    29.40 Ry     beta= 0.05
     Davidson diagonalization with overlap
     c_bands:  1 eigenvalues not converged
     ethr =  1.57E-07,  avg # of iterations = 11.4

[...]

     total energy              =   -2954.01282333 Ry
     estimated scf accuracy    <       0.00000036 Ry

     iteration # 76     ecut=    29.40 Ry     beta= 0.05
     Davidson diagonalization with overlap
     ethr =  8.04E-11,  avg # of iterations =  5.1

     negative rho (up, down):  1.730E-02 0.000E+00

     Adding external electric field

     Computed dipole along edir(3) :
        Dipole                0.2138 Ry au,          0.5435 Debye
        Dipole field          0.0004 Ry au,

        Potential amp.       -0.0374 Ry
        Total length         46.3494 bohr

     End of self-consistent calculation

          k = 0.0000 0.0000 0.0000 ( 18029 PWs)   bands (ev):

   -56.9302 -56.8967 -56.0295 -55.9947 -55.7941 -55.7262 -55.6390 -55.4819
   -55.4480 -55.4078 -55.3956 -55.3297 -55.3242 -55.2792 -55.1331 -55.0564
   -33.3494 -33.2021 -33.1740 -33.1087 -33.0185 -32.9764 -32.5123 -32.2698
   -32.2503 -32.2243 -32.1719 -32.1669 -32.1413 -32.0298 -32.0099 -31.9629
   -31.9459 -31.9308 -31.9140 -31.8914 -31.8889 -31.8677 -31.8610 -31.8292
   -31.8291 -31.8046 -31.7594 -31.7187 -31.6862 -31.6779 -31.6193 -31.6084
   -31.6057 -31.5891 -31.5769 -31.5477 -31.5274 -31.5216 -31.5082 -31.5014
   -31.4941 -31.4427 -31.3988 -31.3754 -31.3368 -31.3119 -31.3056 -31.2390
   -17.0366 -16.4912 -16.4464 -16.2480 -16.1454 -16.1255 -16.0883 -16.0387
   -15.8391 -15.7892 -15.7516 -15.6856 -15.5881 -15.4319 -15.3350 -15.1615
   -15.1120 -15.0807 -15.0629 -15.0570 -15.0508 -15.0381 -14.9832 -14.9273
   -14.8868 -14.8040 -14.7495 -14.6388 -14.4129 -14.3832 -13.9791 -13.8721
   -13.8079  -8.4772  -4.6103  -4.1040  -3.9672  -3.9332  -3.7808  -3.6278
    -3.5028  -3.4499  -3.4245  -3.3157  -3.2991  -3.2894  -3.1999  -3.0707
    -3.0000  -2.9889  -2.9196  -2.9028  -2.8757  -2.8614  -2.6973  -2.6648
    -2.5708  -2.5183  -2.4972  -2.4165  -2.4071  -2.3465  -2.2967  -2.2854
    -2.2629  -2.2039  -2.2003  -2.1290  -2.1009  -2.0263  -2.0014  -1.9695
    -1.9461  -1.8753  -1.7992  -1.7645  -1.6097  -1.5730  -1.5408  -1.5052
    -1.4887  -1.4081  -1.3368  -1.2553  -1.2212  -1.1541  -1.1056  -1.0654
    -1.0529  -0.9380  -0.9128  -0.8555  -0.7920  -0.7756  -0.7689  -0.7224
    -0.6089  -0.5284  -0.5176  -0.4951  -0.4361  -0.4159  -0.3785  -0.3535
    -0.2775  -0.2603  -0.1529  -0.0799  -0.0487  -0.0235   0.0774   0.1560
     0.1776   0.2200   0.2625   0.3055   0.3342   0.3782   0.4461   0.4941
     0.5172   0.5398   0.5692   0.6650   0.7155   0.7522   0.8081   0.8236
     0.8882   0.9590   0.9860   1.0748   1.1191   1.4850   1.6364   2.3630
     2.5336   2.8097   2.9829   3.2988   3.3488   3.3646   3.3664   3.6522
     3.7759

[...]

          k = 0.0380-0.0419 0.0000 ( 17876 PWs)   bands (ev):

[...]

          k =-0.0760-0.0000 0.0000 ( 17886 PWs)   bands (ev):

[...]

          k =-0.0760-0.0839 0.0000 ( 17948 PWs)   bands (ev):

   -56.9140 -56.9127 -56.0167 -56.0073 -55.7895 -55.7307 -55.6382 -55.4655
   -55.4643 -55.4037 -55.3962 -55.3333 -55.3229 -55.2779 -55.1345 -55.0576
   -33.1885 -33.1872 -33.1673 -33.1660 -33.0628 -33.0617 -32.3364 -32.3283
   -32.2117 -32.2020 -32.2011 -32.1953 -32.0931 -32.0474 -32.0230 -32.0087
   -31.9577 -31.9568 -31.9107 -31.8785 -31.8671 -31.8181 -31.8172 -31.7744
   -31.7356 -31.7033 -31.6855 -31.6839 -31.6795 -31.6753 -31.6467 -31.6456
   -31.6345 -31.6301 -31.6091 -31.5982 -31.5754 -31.5666 -31.5357 -31.5251
   -31.5164 -31.4842 -31.4382 -31.4003 -31.3751 -31.3412 -31.3139 -31.2666
   -16.4331 -16.3973 -16.3953 -16.3481 -16.3465 -16.0919 -16.0872 -15.8413
   -15.8094 -15.6880 -15.5351 -15.5058 -15.4684 -15.4189 -15.3726 -15.3025
   -15.2841 -15.2433 -15.2100 -15.1543 -15.1287 -15.0505 -15.0165 -14.9576
   -14.9215 -14.8327 -14.7858 -14.7797 -14.5596 -14.5430 -13.9766 -13.9760
   -13.8247  -8.4822  -4.0721  -3.9798  -3.4703  -3.4652  -3.4445  -3.4352
    -3.2206  -3.2150  -3.0473  -3.0043  -2.9850  -2.9438  -2.9277  -2.8386
    -2.8217  -2.7923  -2.7514  -2.7463  -2.7377  -2.7198  -2.6726  -2.6641
    -2.6236  -2.4867  -2.4721  -2.4522  -2.3933  -2.3296  -2.2987  -2.2472
    -2.2198  -2.2063  -2.1792  -2.1718  -2.1663  -2.1374  -2.1098  -1.9535
    -1.9119  -1.8101  -1.7777  -1.7524  -1.7312  -1.6765  -1.6730  -1.6429
    -1.6202  -1.5882  -1.5279  -1.4945  -1.4530  -1.3243  -1.3069  -1.2665
    -1.2495  -1.1908  -1.0940  -1.0047  -0.9912  -0.9492  -0.9299  -0.8839
    -0.8699  -0.8406  -0.7613  -0.7034  -0.5969  -0.5668  -0.5545  -0.5320
    -0.5018  -0.4596  -0.4114  -0.3437  -0.3283  -0.2092  -0.1396  -0.0915
    -0.0285   0.0375   0.0779   0.1185   0.1698   0.2657   0.2851   0.3594
     0.3734   0.4937   0.6024   0.6203   0.7733   0.8057   0.8745   0.9149
     0.9197   0.9303   0.9479   0.9594   1.0120   1.0882   1.5852   2.9546
     2.9576   3.0147   3.0206   3.3305   3.3314   3.4413   3.4432   3.7586
     3.7684

     the Fermi energy is     2.0634 ev

!    total energy              =   -2954.01284547 Ry
     estimated scf accuracy    <       0.00000007 Ry
     smearing contrib. (-TS)   =      -0.00173541 Ry
     internal energy E=F+TS    =   -2954.01111006 Ry

     The total energy is F=E-TS. E is the sum of the following terms:
     one-electron contribution =  -24213.95484410 Ry
     hartree contribution      =   12197.05326502 Ry
     xc contribution           =    -488.74364303 Ry
     ewald contribution        =    9551.63402578 Ry
     electric field correction =       0.00008628 Ry

     convergence has been achieved in  76 iterations

     Forces acting on atoms (cartesian axes, Ry/au):

     atom    1 type  1   force =     0.00017460   -0.00052574    0.12564521
     atom    2 type  1   force =     0.00000299    0.00026683   -0.15443011
     atom    3 type  2   force =     0.00002274   -0.00022343   -0.06671626
     atom    4 type  2   force =    -0.00001973    0.00008451    0.01673554
     atom    5 type  2   force =    -0.00391475   -0.00229612   -0.01290363
     atom    6 type  2   force =     0.00531137   -0.00149949   -0.01431210
     atom    7 type  1   force =    -0.00049187   -0.00698480    0.05722629
     atom    8 type  1   force =     0.00071827    0.00723229    0.09830226
     atom    9 type  2   force =     0.00002747    0.00008749   -0.00007210
     atom   10 type  2   force =    -0.00289961    0.00059372   -0.06190068
     atom   11 type  2   force =    -0.00001686   -0.00005921   -0.00000778
     atom   12 type  2   force =    -0.00006874    0.00015838    0.00016440
     atom   13 type  1   force =     0.00010682    0.00016279   -0.00009220
     atom   14 type  1   force =     0.00001043   -0.00005641    0.00011268
     atom   15 type  2   force =    -0.00002961    0.00005076   -0.00003396
     atom   16 type  2   force =     0.00005803    0.00014895   -0.00018442
     atom   17 type  2   force =     0.00001783    0.00012444    0.00018123
     atom   18 type  2   force =    -0.00003240    0.00027483   -0.00004033
     atom   19 type  1   force =    -0.00011974   -0.00000356    0.00010811
     atom   20 type  1   force =     0.00023302    0.00023309    0.00011961
     atom   21 type  2   force =     0.00007173    0.00021612    0.09780365
     atom   22 type  2   force =     0.00038953   -0.00001092    0.00007499
     atom   23 type  2   force =    -0.08272569    0.00009261   -0.03302686
     atom   24 type  2   force =     0.08268513    0.00050850   -0.03307419
     atom   25 type  1   force =     0.00010148   -0.00059643    0.12549597
     atom   26 type  1   force =     0.00000688   -0.00169691   -0.15484828
     atom   27 type  2   force =     0.00008815   -0.00076933   -0.06515302
     atom   28 type  2   force =     0.00004999    0.00188597    0.01158441
     atom   29 type  2   force =    -0.00251656    0.00468051   -0.01584845
     atom   30 type  2   force =     0.00368615    0.00501689   -0.01727595
     atom   31 type  1   force =    -0.00029088    0.00180640    0.04010735
     atom   32 type  1   force =     0.00091358   -0.01042052    0.09796099
     atom   33 type  2   force =    -0.00004430   -0.00003439    0.00013234
     atom   34 type  2   force =    -0.00230000    0.00078004   -0.07399255
     atom   35 type  2   force =     0.00011306    0.00002362    0.00002853
     atom   36 type  2   force =    -0.00009530   -0.00008170   -0.00002542
     atom   37 type  1   force =     0.00035579    0.00006659    0.00010267
     atom   38 type  1   force =     0.00011732   -0.00006632   -0.00027187
     atom   39 type  2   force =     0.00016501   -0.00010839   -0.00008808
     atom   40 type  2   force =     0.00001603    0.00003678   -0.00015113
     atom   41 type  2   force =     0.00001323    0.00015628    0.00010002
     atom   42 type  2   force =    -0.00002934    0.00003073    0.00010583
     atom   43 type  1   force =     0.00019480   -0.00016870   -0.00007845
     atom   44 type  1   force =     0.00029906    0.00011408    0.00018539
     atom   45 type  2   force =     0.00004549    0.00004787    0.09759167
     atom   46 type  2   force =    -0.08278584    0.00004936   -0.03304297
     atom   47 type  2   force =     0.08271468    0.00048213   -0.03306061
     atom   48 type  3   force =    -0.00016089    0.00005999    0.00009906
     atom   49 type  4   force =     0.00021872    0.00028291    0.00002405
     atom   50 type  5   force =    -0.00189422   -0.00752154    0.00428640
     atom   51 type  3   force =    -0.00040646   -0.00065929    0.00083336
     atom   52 type  3   force =     0.00168645    0.00783387   -0.00450806
     atom   53 type  3   force =     0.00025996    0.00039371   -0.00000071
     atom   54 type  2   force =     0.00034570   -0.00063162    0.00090267
     atom   55 type  3   force =    -0.00037865    0.00043177   -0.00087450

     Total force =     0.417376     Total SCF correction =     0.000674
  @ DRIVER MODE: Message from server: STATUS
  @ DRIVER MODE: Message from server: GETFORCE
  @ DRIVER MODE: Returning v,forces,stress,ensemble

     Writing output data file ./calc.save/
  @ DRIVER MODE: Message from server: EXIT
  @ DRIVE MODE: Exiting

     General routines

     Parallel routines

   This run was terminated on:  21:16:25  23Sep2021

   JOB DONE.