     Program PWSCF v.6.7GPU starts on 27Sep2021 at 18:48:17

     R & G space division:  proc/nbgrp/npool/nimage =       8
     Reading input from /storage/home/hcoda1/3/ntian30/research/carbon/CxH_vib/H2O_calc/ads_slab/CH3OHN2H2O_a/out_0006/pw.inp
Warning: card &CELL ignored
Warning: card   CELL_DYNAMICS='IPI', ignored
Warning: card / ignored

     Current dimensions of program PWSCF are:
     Max number of different atomic species (ntypx) = 10
     Max number of k-points (npk) =  40000
     Max angular momentum in pseudopotentials (lmaxx) =  3
     Presently no symmetry can be used with electric field

     Message from routine cell_base_init:
     DEPRECATED: use true lattice parameter, not A to a.u. conversion factor

     IMPORTANT: XC functional enforced from input :
     Exchange-correlation= BEEF-VDW
                           (   1   4  43  14   2   0   0)
     Any further DFT definition will be discarded
     Please, verify this is what you really want

  @ DRIVER MODE: Connecting to
 qe_1139763_3000313.sched-torque.pace.gatech.eduss90s1es_scratch
  using UNIX socket
  @ DRIVER MODE: Message from server: STATUS
  @ DRIVER MODE: Message from server: INIT
  @ DRIVER MODE: Receiving replica           0          -1
  @ DRIVER MODE: Receiving encoded integer          25
  @ DRIVER MODE:  SCF:  T  FORCE:  T  STRESS:  F  VC:  F  ENSEMBLE:  F
  @ DRIVER MODE:  SCF:  T  FORCE:  T  STRESS:  F  VC:  F  ENSEMBLE:  F

     Using Slab Decomposition

     bravais-lattice index     =            0
     lattice parameter (alat)  =       1.8897  a.u.
     unit-cell volume          =    6658.9804 (a.u.)^3
     number of atoms/cell      =           58
     number of atomic types    =            5
     number of electrons       =       410.00
     number of Kohn-Sham states=          215
     kinetic-energy cutoff     =      29.3995  Ry
     charge density cutoff     =     293.9946  Ry
     scf convergence threshold =      7.3E-08
     mixing beta               =       0.0500
     number of iterations used =            8  plain     mixing
     Exchange-correlation= BEEF-VDW
                           (   1   4  43  14   2   0   0)

     celldm(1)=   1.889726  celldm(2)=   0.000000  celldm(3)=   0.000000
     celldm(4)=   0.000000  celldm(5)=   0.000000  celldm(6)=   0.000000

     crystal axes: (cart. coord. in units of alat)
               a(1) = (   6.579727   0.000000   0.000000 )
               a(2) = (  -0.000775   5.961596   0.000000 )
               a(3) = (   0.000000   0.000000  25.155947 )

     reciprocal axes: (cart. coord. in units 2 pi/alat)
               b(1) = (  0.151982  0.000020  0.000000 )
               b(2) = (  0.000000  0.167740  0.000000 )
               b(3) = (  0.000000  0.000000  0.039752 )

     PseudoPot. # 1 for Ti read from file:
     /storage/coda1/p-amedford6/0/shared/rich_project_chbe-medford/medford-share/data/pseudos_module/espresso/nninc/pbe/van/Ti.UPF
     MD5 check sum: 8e4df49b7f0d34bbd5052bf3f5ea0213
     Pseudo is Ultrasoft, Zval = 12.0
     Generated by new atomic code, or converted to UPF format
     Using radial grid of  851 points,  6 beta functions with:
                l(1) =   0
                l(2) =   0
                l(3) =   1
                l(4) =   1
                l(5) =   2
                l(6) =   2
     Q(r) pseudized with  8 coefficients,  rinner =    1.000   1.000   1.000
                                                       1.000   1.000

     PseudoPot. # 2 for O  read from file:
     /storage/coda1/p-amedford6/0/shared/rich_project_chbe-medford/medford-share/data/pseudos_module/espresso/nninc/pbe/van/O.UPF
     MD5 check sum: 78c19812648e8988a0fe644b0f25305e
     Pseudo is Ultrasoft, Zval =  6.0
     Generated by new atomic code, or converted to UPF format
     Using radial grid of  737 points,  4 beta functions with:
                l(1) =   0
                l(2) =   0
                l(3) =   1
                l(4) =   1
     Q(r) pseudized with  8 coefficients,  rinner =    0.800   0.800   0.800

     PseudoPot. # 3 for C  read from file:
     /storage/coda1/p-amedford6/0/shared/rich_project_chbe-medford/medford-share/data/pseudos_module/espresso/nninc/pbe/van/C.UPF
     MD5 check sum: 1a69bf6b8db32088f5b2163dbdb77a27
     Pseudo is Ultrasoft, Zval =  4.0
     Generated by new atomic code, or converted to UPF format
     Using radial grid of  721 points,  4 beta functions with:
                l(1) =   0
                l(2) =   0
                l(3) =   1
                l(4) =   1
     Q(r) pseudized with  8 coefficients,  rinner =    0.800   0.800   0.800

     PseudoPot. # 4 for H  read from file:
     /storage/coda1/p-amedford6/0/shared/rich_project_chbe-medford/medford-share/data/pseudos_module/espresso/nninc/pbe/van/H.UPF
     MD5 check sum: b5ee9d7bfd3a09ee7748110bda690ff7
     Pseudo is Ultrasoft, Zval =  1.0
     Generated by new atomic code, or converted to UPF format
     Using radial grid of  615 points,  1 beta functions with:
                l(1) =   0
     Q(r) pseudized with  8 coefficients,  rinner =    0.800

     PseudoPot. # 5 for N  read from file:
     /storage/coda1/p-amedford6/0/shared/rich_project_chbe-medford/medford-share/data/pseudos_module/espresso/nninc/pbe/van/N.UPF
     MD5 check sum: 90d10febe142ad51ac9d5be1deb811c4
     Pseudo is Ultrasoft, Zval =  5.0
     Generated by new atomic code, or converted to UPF format
     Using radial grid of  729 points,  4 beta functions with:
                l(1) =   0
                l(2) =   0
                l(3) =   1
                l(4) =   1
     Q(r) pseudized with  8 coefficients,  rinner =    0.800   0.800   0.800

     atomic species   valence    mass     pseudopotential
        Ti1           12.00    47.86700     Ti( 1.00)
        O1             6.00    15.99900     O ( 1.00)
        C1             4.00    12.01100     C ( 1.00)
        H1             1.00     1.00800     H ( 1.00)
        N1             5.00    14.00700     N ( 1.00)

     No symmetry found

   Cartesian axes

     site n.     atom                  positions (alat units)
         1           Ti1 tau(   1) = (   0.0004258   2.9801865   6.0000000  )
         2           Ti1 tau(   2) = (   3.2906075   1.4906267   6.0002472  )
         3           O1  tau(   3) = (   0.0006271   0.0005054   7.9858123  )
         4           O1  tau(   4) = (   3.2906025   0.0005020   7.3038282  )
         5           O1  tau(   5) = (   4.5942328   1.4918067   9.2879030  )
         6           O1  tau(   6) = (   1.9868534   1.4903216   9.2879459  )
         7           Ti1 tau(   7) = (   3.3250738   2.9918783   9.1599549  )
         8           Ti1 tau(   8) = (   0.0412716   1.4903975   9.2658274  )
         9           O1  tau(   9) = (   3.2852344   0.0116916  11.3753809  )
        10           O1  tau(  10) = (   6.5701620   0.0027176  10.6052010  )
        11           O1  tau(  11) = (   1.2758103   1.4969824  12.6410148  )
        12           O1  tau(  12) = (   5.2796941   1.4985041  12.6691897  )
        13           Ti1 tau(  13) = (   6.5531116   2.9870417  12.5348353  )
        14           Ti1 tau(  14) = (   3.2504356   1.4995581  12.5215122  )
        15           O1  tau(  15) = (   0.0383206   0.0046779  14.6787597  )
        16           O1  tau(  16) = (   3.2537876   0.0095675  14.0320577  )
        17           O1  tau(  17) = (   4.5855444   1.5609978  16.0639115  )
        18           O1  tau(  18) = (   2.0343745   1.5440679  16.2001998  )
        19           Ti1 tau(  19) = (   3.3058624   3.0043567  15.7064231  )
        20           Ti1 tau(  20) = (   6.5549511   1.4266458  15.8675638  )
        21           O1  tau(  21) = (   3.2904802   0.0005063   4.7018136  )
        22           O1  tau(  22) = (   6.4974171   0.0126247  17.2237355  )
        23           O1  tau(  23) = (   1.3043587   1.4918075   6.0039043  )
        24           O1  tau(  24) = (   5.2767064   1.4903225   6.0039473  )
        25           Ti1 tau(  25) = (   0.0000382   5.9609847   6.0000000  )
        26           Ti1 tau(  26) = (   3.2902200   4.4714249   6.0002472  )
        27           O1  tau(  27) = (   0.0002396   2.9813036   7.9858123  )
        28           O1  tau(  28) = (   3.2902150   2.9813002   7.3038282  )
        29           O1  tau(  29) = (   4.5938453   4.4726049   9.2879030  )
        30           O1  tau(  30) = (   1.9864658   4.4711199   9.2879459  )
        31           Ti1 tau(  31) = (   3.3194574   0.0113313   9.1541029  )
        32           Ti1 tau(  32) = (   0.0414074   4.4589881   9.2683624  )
        33           O1  tau(  33) = (   3.2821265   2.9896323  11.3676027  )
        34           O1  tau(  34) = (   6.5712111   2.9825298  10.6251173  )
        35           O1  tau(  35) = (   1.2751242   4.4805681  12.6359318  )
        36           O1  tau(  36) = (   5.2791817   4.4782367  12.6627471  )
        37           Ti1 tau(  37) = (   6.5506445   0.0032150  12.4806913  )
        38           Ti1 tau(  38) = (   3.2507345   4.4881811  12.5195668  )
        39           O1  tau(  39) = (   0.0469291   2.9928743  14.8464778  )
        40           O1  tau(  40) = (   3.2514374   2.9975957  13.9281162  )
        41           O1  tau(  41) = (   4.5866068   4.4203933  16.0984022  )
        42           O1  tau(  42) = (   2.0418857   4.4579080  16.2200674  )
        43           Ti1 tau(  43) = (   3.2648600   0.0292614  15.8571223  )
        44           Ti1 tau(  44) = (   6.5763064   4.6169283  15.9626260  )
        45           O1  tau(  45) = (   3.2900926   2.9813045   4.7018136  )
        46           O1  tau(  46) = (   1.3039711   4.4726057   6.0039043  )
        47           O1  tau(  47) = (   5.2763189   4.4711207   6.0039473  )
        48           C1  tau(  48) = (   6.0301898   2.9050411  18.9451799  )
        49           O1  tau(  49) = (   0.1575529   2.9516393  17.6723866  )
        50           H1  tau(  50) = (   4.9714676   2.8818909  18.6991823  )
        51           H1  tau(  51) = (   1.1132637   2.8218831  17.8130049  )
        52           H1  tau(  52) = (   6.2985093   1.9952365  19.4696065  )
        53           H1  tau(  53) = (   6.2732381   3.7939772  19.5169533  )
        54           N1  tau(  54) = (   4.8840950   3.1052494  22.6850861  )
        55           N1  tau(  55) = (   4.2680757   3.3403818  21.7970487  )
        56           O1  tau(  56) = (   3.8772584   0.1141246  18.3039653  )
        57           H1  tau(  57) = (   4.8407149   0.0692883  18.0716375  )
        58           H1  tau(  58) = (   3.6680196   5.2122673  18.6877519  )

     number of k points=    10  Fermi-Dirac smearing, width (Ry)=  0.0073
                       cart. coord. in units 2pi/alat
        k(    1) = (   0.0000000   0.0000000   0.0000000), wk =   0.1250000
        k(    2) = (   0.0000000   0.0419351   0.0000000), wk =   0.2500000
        k(    3) = (   0.0000000  -0.0838702   0.0000000), wk =   0.1250000
        k(    4) = (   0.0379955   0.0000049   0.0000000), wk =   0.2500000
        k(    5) = (   0.0379955   0.0419400   0.0000000), wk =   0.2500000
        k(    6) = (   0.0379955  -0.0838652   0.0000000), wk =   0.2500000
        k(    7) = (   0.0379955  -0.0419301   0.0000000), wk =   0.2500000
        k(    8) = (  -0.0759910  -0.0000099   0.0000000), wk =   0.1250000
        k(    9) = (  -0.0759910   0.0419252   0.0000000), wk =   0.2500000
        k(   10) = (  -0.0759910  -0.0838800   0.0000000), wk =   0.1250000

     Initial potential from superposition of free atoms

     starting charge  393.99913, renormalised to  410.00000

     negative rho (up, down):  9.552E-03 0.000E+00

     %%%%%%%%%%%%%%%%%%%%%%%%%%%%%%%%%%%%%%%%%%%%%%%%%%%%%%%%%%%%%%%%%%%%%%%%
     %                                                                      %
     % You are using vdW-DF, which was implemented by the Thonhauser group. %
     % Please cite the following two papers that made this development      %
     % possible and the two reviews that describe the various versions:     %
     %                                                                      %
     %   T. Thonhauser et al., PRL 115, 136402 (2015).                      %
     %   T. Thonhauser et al., PRB 76, 125112 (2007).                       %
     %   K. Berland et al., Rep. Prog. Phys. 78, 066501 (2015).             %
     %   D.C. Langreth et al., J. Phys.: Condens. Matter 21, 084203 (2009). %
     %                                                                      %
     %                                                                      %
     % If you are calculating the stress with vdW-DF, please also cite:     %
     %                                                                      %
     %   R. Sabatini et al., J. Phys.: Condens. Matter 24, 424209 (2012).   %
     %                                                                      %
     %%%%%%%%%%%%%%%%%%%%%%%%%%%%%%%%%%%%%%%%%%%%%%%%%%%%%%%%%%%%%%%%%%%%%%%%

     Adding external electric field

     Computed dipole along edir(3) :
        Dipole              -20.0815 Ry au,        -51.0420 Debye
        Dipole field         -0.0379 Ry au,

        Potential amp.        3.5129 Ry
        Total length         46.3494 bohr

     Starting wfcs are  310 atomic wfcs
  @ DRIVER MODE: Message from server: STATUS
  @ DRIVER MODE: Message from server: POSDATA
  @ DRIVER MODE: Reading and sharing cell
  @ DRIVER MODE: Reading and sharing positions
  @ DRIVER MODE: Received positions

     Self-consistent Calculation

     iteration #  1     ecut=    29.40 Ry     beta= 0.05
     Davidson diagonalization with overlap
     c_bands:  1 eigenvalues not converged
     c_bands:  1 eigenvalues not converged
     c_bands:  5 eigenvalues not converged
     c_bands:  1 eigenvalues not converged
     c_bands:  4 eigenvalues not converged
     c_bands:  4 eigenvalues not converged
     c_bands:  3 eigenvalues not converged
     ethr =  1.00E-05,  avg # of iterations = 30.8

[...]

     total energy              =   -2098.62178160 Ry
     estimated scf accuracy    <   10668.49355510 Ry

     iteration #  2     ecut=    29.40 Ry     beta= 0.05
     Davidson diagonalization with overlap
     ethr =  1.00E-02,  avg # of iterations = 30.4

[...]

     iteration # 66     ecut=    29.40 Ry     beta= 0.05
     Davidson diagonalization with overlap
     c_bands:  1 eigenvalues not converged
     c_bands:  2 eigenvalues not converged
     ethr =  9.55E-11,  avg # of iterations = 15.5

[...]

     total energy              =   -3007.66302460 Ry
     estimated scf accuracy    <       0.00000018 Ry

     iteration # 68     ecut=    29.40 Ry     beta= 0.05
     Davidson diagonalization with overlap
     ethr =  4.48E-11,  avg # of iterations =  9.7

     negative rho (up, down):  1.050E-02 0.000E+00

     Adding external electric field

     Computed dipole along edir(3) :
        Dipole                1.2324 Ry au,          3.1326 Debye
        Dipole field          0.0023 Ry au,

        Potential amp.       -0.2156 Ry
        Total length         46.3494 bohr

     End of self-consistent calculation

          k = 0.0000 0.0000 0.0000 ( 18029 PWs)   bands (ev):

   -54.9338 -54.9098 -54.8978 -54.8754 -54.8606 -54.8551 -54.8279 -54.8087
   -54.7805 -54.7781 -54.7436 -54.7228 -54.6913 -54.6889 -53.9979 -53.9638
   -31.4996 -31.4733 -31.4055 -31.3125 -31.2537 -31.2477 -31.2358 -31.2339
   -31.1985 -31.1639 -31.1547 -31.1526 -31.1481 -31.1249 -31.1183 -31.1125
   -31.0958 -31.0775 -31.0715 -31.0697 -31.0631 -31.0554 -31.0327 -31.0264
   -31.0258 -31.0202 -31.0053 -31.0030 -31.0023 -30.9662 -30.9490 -30.9291
   -30.9276 -30.9265 -30.9186 -30.9172 -30.9074 -30.8772 -30.8626 -30.8584
   -30.8537 -30.8344 -30.4099 -30.3075 -30.2859 -30.2261 -30.1397 -30.0287
   -21.6232 -19.7425 -18.2776 -15.7666 -15.5205 -15.3811 -15.2838 -15.1605
   -15.0302 -14.9564 -14.8360 -14.7641 -14.6700 -14.6564 -14.6385 -14.6161
   -14.5841 -14.5579 -14.5010 -14.4960 -14.4413 -14.4378 -14.4273 -14.4164
   -14.3836 -14.3667 -14.3372 -14.3280 -14.1654 -14.0999 -14.0403 -13.8958
   -12.4987 -12.3794 -10.8343  -6.8732  -6.5173  -6.0353  -4.8354  -4.7820
    -4.7017  -4.6470  -3.5459  -3.1006  -2.9492  -2.9149  -2.8934  -2.8699
    -2.7503  -2.6567  -2.6299  -2.4664  -2.3719  -2.2367  -2.2094  -2.1765
    -2.1387  -2.0699  -2.0174  -1.9273  -1.8978  -1.8578  -1.8375  -1.8138
    -1.7990  -1.7715  -1.7430  -1.6693  -1.6320  -1.5500  -1.5321  -1.4519
    -1.3908  -1.3826  -1.3391  -1.2764  -1.2731  -1.2626  -1.2223  -1.2096
    -1.2004  -1.1905  -1.1843  -1.0236  -0.9773  -0.9450  -0.8197  -0.7099
    -0.6178  -0.6105  -0.5042  -0.4906  -0.4279  -0.4231  -0.3838  -0.3443
    -0.2821  -0.1852  -0.1274  -0.0813  -0.0680   0.0426   0.1088   0.1230
     0.1842   0.2598   0.2747   0.2962   0.3264   0.4127   0.4805   0.5227
     0.5575   0.6216   0.6314   0.6785   0.7078   0.7490   0.8343   0.8880
     0.8923   0.9787   0.9959   1.0091   1.0344   1.0402   1.1382   1.1726
     1.2163   1.2444   1.3957   1.4313   1.6218   1.6576   1.9174   2.0161
     2.0278   2.1890   2.6137   2.6682   4.1562   4.2242   4.2607   4.2679
     4.2826   4.3622   4.6445   4.6517   4.6647   4.6764   4.6841

[...]

          k = 0.0380-0.0419 0.0000 ( 17876 PWs)   bands (ev):

[...]

          k =-0.0760-0.0000 0.0000 ( 17886 PWs)   bands (ev):

[...]

          k =-0.0760-0.0839 0.0000 ( 17948 PWs)   bands (ev):

   -54.9167 -54.9146 -54.8944 -54.8907 -54.8556 -54.8506 -54.8207 -54.8162
   -54.7878 -54.7631 -54.7583 -54.7073 -54.7045 -54.6929 -53.9808 -53.9808
   -31.3859 -31.3085 -31.2982 -31.2222 -31.2187 -31.1962 -31.1889 -31.1873
   -31.1804 -31.1574 -31.1428 -31.1409 -31.1332 -31.1274 -31.1083 -31.0942
   -31.0790 -31.0771 -31.0679 -31.0667 -31.0649 -31.0639 -31.0583 -31.0527
   -31.0280 -31.0230 -31.0184 -31.0134 -31.0132 -31.0105 -31.0096 -31.0093
   -31.0092 -30.9802 -30.9716 -30.9611 -30.9599 -30.9325 -30.9301 -30.8941
   -30.8909 -30.8762 -30.2985 -30.2985 -30.2227 -30.2223 -30.1830 -30.1828
   -21.6231 -19.7388 -18.2765 -15.3416 -15.2283 -15.0626 -14.9542 -14.9444
   -14.9158 -14.8564 -14.8133 -14.7817 -14.7421 -14.7316 -14.7023 -14.6846
   -14.6795 -14.6216 -14.5379 -14.5322 -14.5184 -14.4831 -14.4562 -14.4422
   -14.4402 -14.4258 -14.3888 -14.3870 -14.3678 -14.3567 -14.2996 -14.2076
   -12.4807 -12.4801 -10.8369  -6.8724  -6.5198  -6.0375  -4.8346  -4.7889
    -4.6911  -4.6384  -3.5375  -2.7774  -2.5466  -2.4959  -2.4234  -2.2573
    -2.1774  -2.1565  -2.0810  -2.0570  -2.0219  -1.9431  -1.9394  -1.9052
    -1.8652  -1.8409  -1.8351  -1.8168  -1.7981  -1.7653  -1.7447  -1.7246
    -1.7102  -1.6951  -1.6484  -1.6395  -1.6036  -1.6001  -1.5855  -1.5737
    -1.5542  -1.5435  -1.4659  -1.4343  -1.3937  -1.3127  -1.2916  -1.1619
    -1.1569  -1.1174  -1.0739  -1.0364  -1.0164  -0.9956  -0.9700  -0.9415
    -0.9078  -0.7361  -0.7150  -0.6718  -0.6204  -0.6143  -0.5418  -0.5259
    -0.4712  -0.4394  -0.3499  -0.3084  -0.2690  -0.1604  -0.1335  -0.1211
     0.0168   0.0226   0.0680   0.0696   0.1119   0.1503   0.1625   0.1698
     0.2445   0.2771   0.3134   0.3394   0.3632   0.5417   0.5774   0.6364
     0.7265   0.7438   0.9227   0.9526   0.9964   1.0774   1.1387   1.1931
     1.2149   1.3232   1.3307   1.3541   1.4456   1.4940   1.4952   1.5253
     2.3790   2.3819   2.4827   2.4855   4.2809   4.4115   4.4177   4.4975
     4.5717   4.6640   4.6671   4.6790   4.7090   4.7189   4.7213

     the Fermi energy is     4.2123 ev

!    total energy              =   -3007.66306020 Ry
     estimated scf accuracy    <       0.00000006 Ry
     smearing contrib. (-TS)   =      -0.03685236 Ry
     internal energy E=F+TS    =   -3007.62620784 Ry

     The total energy is F=E-TS. E is the sum of the following terms:
     one-electron contribution =  -22337.22750385 Ry
     hartree contribution      =   11270.42241911 Ry
     xc contribution           =    -502.07936605 Ry
     ewald contribution        =    8561.25537657 Ry
     electric field correction =       0.00286638 Ry

     convergence has been achieved in  68 iterations

     Forces acting on atoms (cartesian axes, Ry/au):

     atom    1 type  1   force =    -0.00027669   -0.00000671    0.09253539
     atom    2 type  1   force =    -0.00013992    0.00113411   -0.18322981
     atom    3 type  2   force =     0.00055108   -0.00039863   -0.02388890
     atom    4 type  2   force =     0.00079662    0.00021209    0.05087577
     atom    5 type  2   force =    -0.01550402   -0.00013937    0.00436342
     atom    6 type  2   force =     0.01421300   -0.00032643    0.00504559
     atom    7 type  1   force =    -0.00011486    0.00020085    0.00005033
     atom    8 type  1   force =    -0.00006522    0.00016975    0.00000186
     atom    9 type  2   force =     0.00006986    0.00004031    0.00012983
     atom   10 type  2   force =     0.00000030    0.00002141   -0.00006761
     atom   11 type  2   force =     0.00016945    0.00001499   -0.00014263
     atom   12 type  2   force =     0.00004052    0.00003598   -0.00006828
     atom   13 type  1   force =     0.00019063    0.00011093   -0.00002995
     atom   14 type  1   force =     0.00026748    0.00016383   -0.00009406
     atom   15 type  2   force =     0.00028295    0.00038742   -0.00000522
     atom   16 type  2   force =     0.00015622   -0.00001880    0.00018240
     atom   17 type  2   force =    -0.00004396    0.00011049    0.00011402
     atom   18 type  2   force =     0.00028709   -0.00006118    0.00018118
     atom   19 type  1   force =     0.00002145   -0.00016176    0.00014378
     atom   20 type  1   force =     0.00018133    0.00016574    0.00016076
     atom   21 type  2   force =     0.00002764    0.00001488    0.10487902
     atom   22 type  2   force =    -0.00028279   -0.00004086    0.00021602
     atom   23 type  2   force =    -0.06803757   -0.00011468   -0.02684186
     atom   24 type  2   force =     0.06789648    0.00034150   -0.02688211
     atom   25 type  1   force =    -0.00012418   -0.00003004    0.09598779
     atom   26 type  1   force =    -0.00011471   -0.00144181   -0.18313963
     atom   27 type  2   force =     0.00050053   -0.00019785   -0.02268875
     atom   28 type  2   force =     0.00086516    0.00018130    0.05127171
     atom   29 type  2   force =    -0.01542108    0.00050329    0.00453419
     atom   30 type  2   force =     0.01416858    0.00078224    0.00523553
     atom   31 type  1   force =    -0.00009739    0.00005245   -0.00000668
     atom   32 type  1   force =    -0.00006726    0.00016114   -0.00004454
     atom   33 type  2   force =     0.00012413   -0.00002720    0.00017409
     atom   34 type  2   force =    -0.00000033    0.00007173    0.00001168
     atom   35 type  2   force =     0.00012789   -0.00000262   -0.00003869
     atom   36 type  2   force =     0.00008378   -0.00000473    0.00008430
     atom   37 type  1   force =     0.00016915    0.00005528   -0.00011205
     atom   38 type  1   force =     0.00015572   -0.00004134    0.00004902
     atom   39 type  2   force =     0.00015884   -0.00008793   -0.00019601
     atom   40 type  2   force =     0.00002713   -0.00018005    0.00002528
     atom   41 type  2   force =     0.00015708    0.00002896    0.00003966
     atom   42 type  2   force =     0.00002938    0.00008076    0.00005277
     atom   43 type  1   force =    -0.00008564   -0.00018081    0.00107648
     atom   44 type  1   force =     0.00007018   -0.00010082    0.00064443
     atom   45 type  2   force =     0.00003285    0.00002276    0.10481091
     atom   46 type  2   force =    -0.06804725   -0.00050553   -0.02682878
     atom   47 type  2   force =     0.06790451   -0.00008602   -0.02691021
     atom   48 type  3   force =    -0.00330730   -0.00022481   -0.01691807
     atom   49 type  2   force =    -0.00227196   -0.00020934    0.00591979
     atom   50 type  4   force =     0.00225354   -0.00035386    0.00249762
     atom   51 type  4   force =     0.00010732   -0.00010117    0.00005754
     atom   52 type  4   force =     0.00174076   -0.00429986    0.00384244
     atom   53 type  4   force =     0.00152711    0.00428510    0.00392199
     atom   54 type  5   force =    -0.00053243   -0.00011480   -0.00051230
     atom   55 type  5   force =    -0.00003375    0.00007790   -0.00032487
     atom   56 type  2   force =     0.00132281    0.00061634   -0.00069682
     atom   57 type  4   force =    -0.00097368   -0.00045142    0.00013844
     atom   58 type  4   force =    -0.00113656   -0.00013312    0.00041285

     Total force =     0.368722     Total SCF correction =     0.000640
  @ DRIVER MODE: Message from server: STATUS
  @ DRIVER MODE: Message from server: GETFORCE
  @ DRIVER MODE: Returning v,forces,stress,ensemble

     Writing output data file ./calc.save/
  @ DRIVER MODE: Message from server: EXIT
  @ DRIVE MODE: Exiting

     General routines

     Parallel routines

   This run was terminated on:  19:14: 9  27Sep2021

   JOB DONE.