     Program PWSCF v.6.7GPU starts on 16Jul2021 at  4: 1: 7

     R & G space division:  proc/nbgrp/npool/nimage =      16
     Reading input from /storage/home/hcoda1/3/ntian30/research/carbon/15Jul_vib/ads_slab/CH3NNHH_a/out_0017/pw.inp
Warning: card &CELL ignored
Warning: card   CELL_DYNAMICS='IPI', ignored
Warning: card / ignored

     Current dimensions of program PWSCF are:
     Max number of different atomic species (ntypx) = 10
     Max number of k-points (npk) =  40000
     Max angular momentum in pseudopotentials (lmaxx) =  3
     Presently no symmetry can be used with electric field

     Message from routine cell_base_init:
     DEPRECATED: use true lattice parameter, not A to a.u. conversion factor

     IMPORTANT: XC functional enforced from input :
     Exchange-correlation= BEEF-VDW
                           (   1   4  43  14   2   0   0)
     Any further DFT definition will be discarded
     Please, verify this is what you really want

  @ DRIVER MODE: Connecting to
 qe_1139763_2351651.sched-torque.pace.gatech.edu9x710vdz_scratch
  using UNIX socket
  @ DRIVER MODE: Message from server: STATUS
  @ DRIVER MODE: Message from server: INIT
  @ DRIVER MODE: Receiving replica           0          -1
  @ DRIVER MODE: Receiving encoded integer          25
  @ DRIVER MODE:  SCF:  T  FORCE:  T  STRESS:  F  VC:  F  ENSEMBLE:  F
  @ DRIVER MODE:  SCF:  T  FORCE:  T  STRESS:  F  VC:  F  ENSEMBLE:  F

     Using Slab Decomposition

     bravais-lattice index     =            0
     lattice parameter (alat)  =       1.8897  a.u.
     unit-cell volume          =    6658.9804 (a.u.)^3
     number of atoms/cell      =           55
     number of atomic types    =            5
     number of electrons       =       397.00
     number of Kohn-Sham states=          208
     kinetic-energy cutoff     =      29.3995  Ry
     charge density cutoff     =     293.9946  Ry
     scf convergence threshold =      7.3E-08
     mixing beta               =       0.0500
     number of iterations used =            8  plain     mixing
     Exchange-correlation= BEEF-VDW
                           (   1   4  43  14   2   0   0)

     celldm(1)=   1.889726  celldm(2)=   0.000000  celldm(3)=   0.000000
     celldm(4)=   0.000000  celldm(5)=   0.000000  celldm(6)=   0.000000

     crystal axes: (cart. coord. in units of alat)
               a(1) = (   6.579727   0.000000   0.000000 )
               a(2) = (  -0.000775   5.961596   0.000000 )
               a(3) = (   0.000000   0.000000  25.155947 )

     reciprocal axes: (cart. coord. in units 2 pi/alat)
               b(1) = (  0.151982  0.000020  0.000000 )
               b(2) = (  0.000000  0.167740  0.000000 )
               b(3) = (  0.000000  0.000000  0.039752 )

     PseudoPot. # 1 for Ti read from file:
     /storage/coda1/p-amedford6/0/shared/rich_project_chbe-medford/medford-share/data/pseudos_module/espresso/nninc/pbe/van/Ti.UPF
     MD5 check sum: 8e4df49b7f0d34bbd5052bf3f5ea0213
     Pseudo is Ultrasoft, Zval = 12.0
     Generated by new atomic code, or converted to UPF format
     Using radial grid of  851 points,  6 beta functions with:
                l(1) =   0
                l(2) =   0
                l(3) =   1
                l(4) =   1
                l(5) =   2
                l(6) =   2
     Q(r) pseudized with  8 coefficients,  rinner =    1.000   1.000   1.000
                                                       1.000   1.000

     PseudoPot. # 2 for O  read from file:
     /storage/coda1/p-amedford6/0/shared/rich_project_chbe-medford/medford-share/data/pseudos_module/espresso/nninc/pbe/van/O.UPF
     MD5 check sum: 78c19812648e8988a0fe644b0f25305e
     Pseudo is Ultrasoft, Zval =  6.0
     Generated by new atomic code, or converted to UPF format
     Using radial grid of  737 points,  4 beta functions with:
                l(1) =   0
                l(2) =   0
                l(3) =   1
                l(4) =   1
     Q(r) pseudized with  8 coefficients,  rinner =    0.800   0.800   0.800

     PseudoPot. # 3 for N  read from file:
     /storage/coda1/p-amedford6/0/shared/rich_project_chbe-medford/medford-share/data/pseudos_module/espresso/nninc/pbe/van/N.UPF
     MD5 check sum: 90d10febe142ad51ac9d5be1deb811c4
     Pseudo is Ultrasoft, Zval =  5.0
     Generated by new atomic code, or converted to UPF format
     Using radial grid of  729 points,  4 beta functions with:
                l(1) =   0
                l(2) =   0
                l(3) =   1
                l(4) =   1
     Q(r) pseudized with  8 coefficients,  rinner =    0.800   0.800   0.800

     PseudoPot. # 4 for C  read from file:
     /storage/coda1/p-amedford6/0/shared/rich_project_chbe-medford/medford-share/data/pseudos_module/espresso/nninc/pbe/van/C.UPF
     MD5 check sum: 1a69bf6b8db32088f5b2163dbdb77a27
     Pseudo is Ultrasoft, Zval =  4.0
     Generated by new atomic code, or converted to UPF format
     Using radial grid of  721 points,  4 beta functions with:
                l(1) =   0
                l(2) =   0
                l(3) =   1
                l(4) =   1
     Q(r) pseudized with  8 coefficients,  rinner =    0.800   0.800   0.800

     PseudoPot. # 5 for H  read from file:
     /storage/coda1/p-amedford6/0/shared/rich_project_chbe-medford/medford-share/data/pseudos_module/espresso/nninc/pbe/van/H.UPF
     MD5 check sum: b5ee9d7bfd3a09ee7748110bda690ff7
     Pseudo is Ultrasoft, Zval =  1.0
     Generated by new atomic code, or converted to UPF format
     Using radial grid of  615 points,  1 beta functions with:
                l(1) =   0
     Q(r) pseudized with  8 coefficients,  rinner =    0.800

     atomic species   valence    mass     pseudopotential
        Ti1           12.00    47.86700     Ti( 1.00)
        O1             6.00    15.99900     O ( 1.00)
        N1             5.00    14.00700     N ( 1.00)
        C1             4.00    12.01100     C ( 1.00)
        H1             1.00     1.00800     H ( 1.00)

     Starting magnetic structure
     atomic species   magnetization
        Ti1          0.000
        O1           0.000
        N1           0.000
        C1           0.025
        H1           0.000

     No symmetry found

   Cartesian axes

     site n.     atom                  positions (alat units)
         1           Ti1 tau(   1) = (   0.0004258   2.9801865   6.0000000  )
         2           Ti1 tau(   2) = (   3.2906075   1.4906267   6.0002472  )
         3           O1  tau(   3) = (   0.0006271   0.0005054   7.9858123  )
         4           O1  tau(   4) = (   3.2906025   0.0005020   7.3038282  )
         5           O1  tau(   5) = (   4.5942328   1.4918067   9.2879030  )
         6           O1  tau(   6) = (   1.9868534   1.4903216   9.2879459  )
         7           Ti1 tau(   7) = (   3.2907910   2.8959150   9.1758416  )
         8           Ti1 tau(   8) = (   0.0015273   1.4827037   9.2680791  )
         9           O1  tau(   9) = (   3.3020592   5.9599881  11.3075072  )
        10           O1  tau(  10) = (   0.0116148   5.9584955  10.6183126  )
        11           O1  tau(  11) = (   1.3218652   1.4872367  12.6142461  )
        12           O1  tau(  12) = (   5.3149618   1.4866655  12.6283206  )
        13           Ti1 tau(  13) = (   6.5343381   3.0098038  12.6530281  )
        14           Ti1 tau(  14) = (   3.2132235   1.4912063  12.4551521  )
        15           O1  tau(  15) = (   0.0515422   5.9562953  14.6829507  )
        16           O1  tau(  16) = (   3.3088797   0.0214154  13.8770011  )
        17           O1  tau(  17) = (   4.5726725   1.5412406  16.1224456  )
        18           O1  tau(  18) = (   2.0900022   1.5114086  15.9969863  )
        19           Ti1 tau(  19) = (   3.3311046   3.0200058  15.6476981  )
        20           Ti1 tau(  20) = (   0.0790784   1.4105808  15.8036947  )
        21           O1  tau(  21) = (   3.2904802   0.0005063   4.7018136  )
        22           O1  tau(  22) = (   0.0613336   0.0214447  17.2555488  )
        23           O1  tau(  23) = (   1.3043587   1.4918075   6.0039043  )
        24           O1  tau(  24) = (   5.2767064   1.4903225   6.0039473  )
        25           Ti1 tau(  25) = (   0.0000382   5.9609847   6.0000000  )
        26           Ti1 tau(  26) = (   3.2902200   4.4714249   6.0002472  )
        27           O1  tau(  27) = (   0.0002396   2.9813036   7.9858123  )
        28           O1  tau(  28) = (   3.2902150   2.9813002   7.3038282  )
        29           O1  tau(  29) = (   4.5938453   4.4726049   9.2879030  )
        30           O1  tau(  30) = (   1.9864658   4.4711199   9.2879459  )
        31           Ti1 tau(  31) = (   3.2891106   5.8743827   9.1763621  )
        32           Ti1 tau(  32) = (   0.0006254   4.4649316   9.2693709  )
        33           O1  tau(  33) = (   3.3026341   2.9893090  11.3092672  )
        34           O1  tau(  34) = (   0.0092240   2.9805883  10.6323155  )
        35           O1  tau(  35) = (   1.3182942   4.4670451  12.6271195  )
        36           O1  tau(  36) = (   5.3124783   4.4780259  12.6376329  )
        37           Ti1 tau(  37) = (   6.5365500   0.0194685  12.5464133  )
        38           Ti1 tau(  38) = (   3.2155898   4.4753301  12.4613306  )
        39           O1  tau(  39) = (   0.0167368   2.9407051  14.7244952  )
        40           O1  tau(  40) = (   3.3149560   2.9822459  13.8616979  )
        41           O1  tau(  41) = (   4.5706274   4.5128733  15.9228735  )
        42           O1  tau(  42) = (   2.1262058   4.4922812  16.0793225  )
        43           Ti1 tau(  43) = (   3.3222298   0.0210159  15.6751784  )
        44           Ti1 tau(  44) = (   6.5499002   4.5104744  16.2959303  )
        45           O1  tau(  45) = (   3.2900926   2.9813045   4.7018136  )
        46           O1  tau(  46) = (   1.3039711   4.4726057   6.0039043  )
        47           O1  tau(  47) = (   5.2763189   4.4711207   6.0039473  )
        48           N1  tau(  48) = (   0.3735289   2.9861087  17.6038306  )
        49           C1  tau(  49) = (   1.3580301   2.7301661  18.6431808  )
        50           H1  tau(  50) = (   1.5128655   3.6233449  19.2541712  )
        51           H1  tau(  51) = (   1.0354786   1.8978442  19.2795547  )
        52           H1  tau(  52) = (   2.3065860   2.4473273  18.1987077  )
        53           N1  tau(  53) = (   5.7326324   3.4596218  18.1373629  )
        54           H1  tau(  54) = (   5.8436824   4.0267099  18.9748678  )
        55           H1  tau(  55) = (   5.0375616   2.7244768  18.2555579  )

     number of k points=    10  Fermi-Dirac smearing, width (Ry)=  0.0073
                       cart. coord. in units 2pi/alat
        k(    1) = (   0.0000000   0.0000000   0.0000000), wk =   0.0625000
        k(    2) = (   0.0000000   0.0419351   0.0000000), wk =   0.1250000
        k(    3) = (   0.0000000  -0.0838702   0.0000000), wk =   0.0625000
        k(    4) = (   0.0379955   0.0000049   0.0000000), wk =   0.1250000
        k(    5) = (   0.0379955   0.0419400   0.0000000), wk =   0.1250000
        k(    6) = (   0.0379955  -0.0838652   0.0000000), wk =   0.1250000
[...]
     %                                                                      %
     % You are using vdW-DF, which was implemented by the Thonhauser group. %
     % Please cite the following two papers that made this development      %
     % possible and the two reviews that describe the various versions:     %
     %                                                                      %
     %   T. Thonhauser et al., PRL 115, 136402 (2015).                      %
     %   T. Thonhauser et al., PRB 76, 125112 (2007).                       %
     %   K. Berland et al., Rep. Prog. Phys. 78, 066501 (2015).             %
     %   D.C. Langreth et al., J. Phys.: Condens. Matter 21, 084203 (2009). %
     %                                                                      %
     %                                                                      %
     % If you are calculating the stress with vdW-DF, please also cite:     %
     %                                                                      %
     %   R. Sabatini et al., J. Phys.: Condens. Matter 24, 424209 (2012).   %
     %                                                                      %
     %%%%%%%%%%%%%%%%%%%%%%%%%%%%%%%%%%%%%%%%%%%%%%%%%%%%%%%%%%%%%%%%%%%%%%%%

     Adding external electric field

     Computed dipole along edir(3) :
        Dipole               -9.2574 Ry au,        -23.5299 Debye
        Dipole field         -0.0175 Ry au,

        Potential amp.        1.6194 Ry
        Total length         46.3494 bohr

[...]

     Starting wfcs are  301 atomic wfcs
  @ DRIVER MODE: Message from server: STATUS
  @ DRIVER MODE: Message from server: POSDATA
  @ DRIVER MODE: Reading and sharing cell
  @ DRIVER MODE: Reading and sharing positions
  @ DRIVER MODE: Received positions

     Self-consistent Calculation

     iteration #  1     ecut=    29.40 Ry     beta= 0.05
     Davidson diagonalization with overlap
     c_bands:  1 eigenvalues not converged
     c_bands:  2 eigenvalues not converged
     c_bands:  1 eigenvalues not converged
     c_bands:  2 eigenvalues not converged
     c_bands:  2 eigenvalues not converged
     c_bands:  2 eigenvalues not converged
     c_bands:  2 eigenvalues not converged
     c_bands:  1 eigenvalues not converged
     c_bands:  4 eigenvalues not converged
     c_bands:  1 eigenvalues not converged
     c_bands:  2 eigenvalues not converged
     c_bands:  1 eigenvalues not converged
     c_bands:  2 eigenvalues not converged
     c_bands:  2 eigenvalues not converged
     c_bands:  2 eigenvalues not converged
     c_bands:  2 eigenvalues not converged
     c_bands:  1 eigenvalues not converged
     c_bands:  4 eigenvalues not converged
     ethr =  1.00E-05,  avg # of iterations = 19.8

[...]

     total energy              =   -2525.29996597 Ry
     estimated scf accuracy    <    4616.05217902 Ry

     total magnetization       =     0.00 Bohr mag/cell
     absolute magnetization    =     0.03 Bohr mag/cell

     iteration #  2     ecut=    29.40 Ry     beta= 0.05
     Davidson diagonalization with overlap
     ethr =  1.00E-02,  avg # of iterations = 23.4

[...]

     iteration # 75     ecut=    29.40 Ry     beta= 0.05
     Davidson diagonalization with overlap
     c_bands:  1 eigenvalues not converged
     ethr =  3.03E-10,  avg # of iterations = 11.7

[...]

     total energy              =   -2941.63805097 Ry
     estimated scf accuracy    <       0.00000008 Ry

[...]

     iteration # 84     ecut=    29.40 Ry     beta= 0.05
     Davidson diagonalization with overlap
     ethr =  2.11E-11,  avg # of iterations =  8.1

     negative rho (up, down):  8.398E-03 8.397E-03

[...]

     Adding external electric field

     Computed dipole along edir(3) :
        Dipole                1.1489 Ry au,          2.9202 Debye
        Dipole field          0.0022 Ry au,

        Potential amp.       -0.2010 Ry
        Total length         46.3494 bohr

     Magnetic moment per site  (integrated on atomic sphere of radius R)
     atom   1 (R=0.726)  charge=  7.9409  magn= -0.0090
     atom   2 (R=0.726)  charge=  7.9243  magn= -0.0007
     atom   3 (R=0.726)  charge=  4.9319  magn=  0.0007
     atom   4 (R=0.726)  charge=  4.9681  magn=  0.0002
     atom   5 (R=0.726)  charge=  4.9368  magn=  0.0001
     atom   6 (R=0.726)  charge=  4.9376  magn=  0.0001
     atom   7 (R=0.726)  charge=  7.9229  magn= -0.0004
     atom   8 (R=0.726)  charge=  7.9151  magn= -0.0024
     atom   9 (R=0.726)  charge=  4.9562  magn=  0.0001
     atom  10 (R=0.726)  charge=  4.9310  magn=  0.0002
     atom  11 (R=0.726)  charge=  4.9388  magn=  0.0001
     atom  12 (R=0.726)  charge=  4.9369  magn=  0.0001
     atom  13 (R=0.726)  charge=  7.9088  magn= -0.0005
     atom  14 (R=0.726)  charge=  7.9273  magn= -0.0002
     atom  15 (R=0.726)  charge=  4.9165  magn=  0.0000
     atom  16 (R=0.726)  charge=  4.9542  magn=  0.0000
     atom  17 (R=0.726)  charge=  4.9068  magn=  0.0000
     atom  18 (R=0.726)  charge=  4.9387  magn=  0.0000
     atom  19 (R=0.726)  charge=  7.9528  magn= -0.0000
     atom  20 (R=0.726)  charge=  7.9410  magn= -0.0001
     atom  21 (R=0.726)  charge=  4.8212  magn=  0.0009
     atom  22 (R=0.726)  charge=  4.9008  magn=  0.0000
     atom  23 (R=0.726)  charge=  4.9281  magn=  0.0011
     atom  24 (R=0.726)  charge=  4.9282  magn=  0.0011
     atom  25 (R=0.726)  charge=  7.9408  magn= -0.0089
     atom  26 (R=0.726)  charge=  7.9244  magn= -0.0007
     atom  27 (R=0.726)  charge=  4.9306  magn=  0.0007
     atom  28 (R=0.726)  charge=  4.9683  magn=  0.0002
     atom  29 (R=0.726)  charge=  4.9375  magn=  0.0001
     atom  30 (R=0.726)  charge=  4.9383  magn=  0.0001
     atom  31 (R=0.726)  charge=  7.9236  magn= -0.0004
     atom  32 (R=0.726)  charge=  7.9153  magn= -0.0024
     atom  33 (R=0.726)  charge=  4.9540  magn=  0.0001
     atom  34 (R=0.726)  charge=  4.9049  magn=  0.0002
     atom  35 (R=0.726)  charge=  4.9379  magn=  0.0001
     atom  36 (R=0.726)  charge=  4.9369  magn=  0.0001
     atom  37 (R=0.726)  charge=  7.9159  magn= -0.0006
     atom  38 (R=0.726)  charge=  7.9271  magn= -0.0003
     atom  39 (R=0.726)  charge=  4.9089  magn=  0.0000
     atom  40 (R=0.726)  charge=  4.9620  magn=  0.0000
     atom  41 (R=0.726)  charge=  4.9464  magn=  0.0000
     atom  42 (R=0.726)  charge=  4.9157  magn=  0.0000
     atom  43 (R=0.726)  charge=  7.9491  magn= -0.0000
     atom  44 (R=0.726)  charge=  7.9599  magn= -0.0000
     atom  45 (R=0.726)  charge=  4.8212  magn=  0.0008
     atom  46 (R=0.726)  charge=  4.9281  magn=  0.0011
     atom  47 (R=0.726)  charge=  4.9282  magn=  0.0011
     atom  48 (R=0.420)  charge=  1.3152  magn= -0.0000
     atom  49 (R=0.448)  charge=  0.8416  magn=  0.0000
     atom  50 (R=0.420)  charge=  0.4449  magn= -0.0000
     atom  51 (R=0.420)  charge=  0.4405  magn= -0.0000
     atom  52 (R=0.420)  charge=  0.4486  magn= -0.0000
     atom  53 (R=0.420)  charge=  1.3378  magn=  0.0000
     atom  54 (R=0.420)  charge=  0.4533  magn= -0.0000
     atom  55 (R=0.420)  charge=  0.4498  magn=  0.0000

     End of self-consistent calculation

 ------ SPIN UP ------------

          k = 0.0000 0.0000 0.0000 ( 18029 PWs)   bands (ev):

   -55.5733 -55.5614 -55.5355 -55.5273 -55.4595 -55.4225 -55.4222 -55.3870
   -55.3678 -55.3337 -55.3260 -55.2921 -55.0301 -54.8742 -54.5360 -54.5020
   -32.1353 -32.0472 -31.9575 -31.8911 -31.8870 -31.8675 -31.8528 -31.8183
   -31.8044 -31.8025 -31.7834 -31.7581 -31.7536 -31.7251 -31.7145 -31.7119
   -31.6691 -31.6591 -31.6571 -31.6470 -31.6462 -31.6167 -31.6119 -31.5947
   -31.5692 -31.5667 -31.5643 -31.5557 -31.5556 -31.5295 -31.5046 -31.5018
   -31.4938 -31.4911 -31.4801 -31.4710 -31.4393 -31.3043 -31.2551 -31.1539
   -31.1267 -31.0351 -30.9424 -30.8554 -30.8329 -30.7592 -30.6727 -30.5616
   -17.5820 -16.3609 -16.0483 -15.8341 -15.7254 -15.7219 -15.6375 -15.4163
   -15.2947 -15.2805 -15.1652 -15.1613 -15.1021 -15.0603 -15.0529 -15.0460
   -15.0131 -15.0018 -14.9841 -14.9478 -14.9153 -14.8970 -14.8737 -14.7718
   -14.7050 -14.6993 -14.6813 -14.6165 -14.5686 -14.2089 -13.0399 -12.9237
   -12.5415  -9.2076  -6.3477  -5.0883  -4.1929  -3.7391  -3.5495  -3.4727
    -3.4376  -3.3781  -3.3683  -3.1808  -3.1722  -2.7933  -2.7739  -2.7559
    -2.7347  -2.7313  -2.4623  -2.4095  -2.3943  -2.3909  -2.3730  -2.3564
    -2.3353  -2.3248  -2.2975  -2.2862  -2.1532  -2.1096  -2.0306  -2.0043
    -1.9888  -1.8774  -1.8523  -1.8323  -1.8207  -1.8071  -1.7779  -1.7712
    -1.7492  -1.6411  -1.5318  -1.4525  -1.4121  -1.3595  -1.3379  -1.1627
    -1.1095  -1.0503  -1.0265  -1.0019  -0.9873  -0.9536  -0.8792  -0.8543
    -0.7125  -0.6738  -0.6196  -0.5937  -0.5650  -0.5088  -0.4754  -0.4454
    -0.3506  -0.3373  -0.3264  -0.3138  -0.2579  -0.0658  -0.0175   0.0015
     0.0165   0.1158   0.1553   0.1799   0.2140   0.2706   0.2993   0.3637
     0.3924   0.4125   0.4230   0.4520   0.4686   0.6007   0.6260   0.6565
     0.7180   0.7715   0.8472   0.9595   1.0421   1.0985   1.2003   1.4178
     1.4850   1.5700   1.6788   1.7098   2.0542   2.0997   3.5705   3.6659
     3.6961   3.7105   3.8164   3.8679   4.0182   4.0274   4.0666   4.0959

[...]

          k =-0.0760-0.0000 0.0000 ( 17886 PWs)   bands (ev):

[...]

 ------ SPIN DOWN ----------

[...]

          k = 0.0380-0.0419 0.0000 ( 17876 PWs)   bands (ev):

[...]

          k =-0.0760-0.0839 0.0000 ( 17948 PWs)   bands (ev):

   -55.5617 -55.5607 -55.5602 -55.5494 -55.4493 -55.4345 -55.4085 -55.4011
   -55.3565 -55.3531 -55.3117 -55.3081 -55.0290 -54.8754 -54.5207 -54.5206
   -31.9414 -31.9310 -31.8702 -31.8696 -31.8575 -31.8566 -31.8433 -31.8268
   -31.8018 -31.7878 -31.7675 -31.7479 -31.7224 -31.7118 -31.7063 -31.6828
   -31.6817 -31.6810 -31.6805 -31.6690 -31.6657 -31.6526 -31.6492 -31.6466
   -31.6262 -31.6126 -31.6023 -31.6015 -31.5533 -31.5512 -31.5445 -31.5422
   -31.5353 -31.5318 -31.5266 -31.5248 -31.4103 -31.3157 -31.2571 -31.2153
   -31.1323 -31.0464 -30.8475 -30.8474 -30.7567 -30.7565 -30.7177 -30.7177
   -17.5701 -15.8207 -15.7807 -15.5257 -15.5167 -15.5141 -15.4740 -15.3503
   -15.3017 -15.2758 -15.2645 -15.2460 -15.2375 -15.1364 -15.1221 -15.1061
   -15.0954 -15.0692 -15.0258 -15.0206 -15.0123 -15.0021 -14.9906 -14.9242
   -14.8719 -14.8680 -14.7540 -14.6624 -14.5220 -14.4340 -13.0233 -13.0231
   -12.5607  -9.1687  -6.3065  -5.1178  -4.1247  -3.4481  -3.1213  -3.0738
    -2.7859  -2.7663  -2.7512  -2.6377  -2.5183  -2.5090  -2.4831  -2.4612
    -2.4271  -2.4141  -2.4039  -2.3959  -2.3780  -2.3600  -2.3491  -2.3096
    -2.2408  -2.2327  -2.2241  -2.2164  -2.1996  -2.1761  -2.1651  -2.1382
    -2.1137  -2.0786  -2.0193  -1.9888  -1.8389  -1.7953  -1.7327  -1.6953
    -1.6867  -1.6577  -1.6241  -1.6167  -1.5053  -1.4911  -1.4578  -1.3278
    -1.2671  -1.2591  -1.2265  -1.1389  -1.1005  -0.9712  -0.9581  -0.9209
    -0.8652  -0.8575  -0.8207  -0.7826  -0.7315  -0.6794  -0.6359  -0.6130
    -0.5953  -0.5230  -0.5225  -0.4753  -0.4194  -0.3490  -0.3263  -0.3187
    -0.2858  -0.2426  -0.1954  -0.1321  -0.0566  -0.0376  -0.0225   0.0766
     0.1499   0.3689   0.4161   0.5128   0.5350   0.5626   0.6223   0.6721
     0.7411   0.7566   0.7843   0.8580   0.8800   0.9718   0.9833   1.0004
     1.1780   1.6457   1.8519   1.8528   1.9211   1.9215   3.8579   3.8739
     3.8982   3.9218   4.0789   4.0825   4.0969   4.0996   4.2205   4.2516

     the Fermi energy is     3.5644 ev

!    total energy              =   -2941.63806035 Ry
     estimated scf accuracy    <       0.00000007 Ry
     smearing contrib. (-TS)   =      -0.02170978 Ry
     internal energy E=F+TS    =   -2941.61635056 Ry

     The total energy is F=E-TS. E is the sum of the following terms:
     one-electron contribution =  -24388.59715138 Ry
     hartree contribution      =   12286.26525348 Ry
     xc contribution           =    -486.94544166 Ry
     ewald contribution        =    9647.65849809 Ry
     electric field correction =       0.00249091 Ry

     total magnetization       =    -0.03 Bohr mag/cell
     absolute magnetization    =     0.05 Bohr mag/cell

     convergence has been achieved in  84 iterations

     Forces acting on atoms (cartesian axes, Ry/au):

     atom    1 type  1   force =    -0.00001191   -0.00019842    0.09683505
     atom    2 type  1   force =     0.00009197   -0.00069045   -0.17461601
     atom    3 type  2   force =     0.00018352   -0.00006007   -0.02511142
     atom    4 type  2   force =     0.00000869   -0.00124890    0.05117649
     atom    5 type  2   force =    -0.01126706   -0.00079879    0.00227575
     atom    6 type  2   force =     0.01310716   -0.00035078    0.00272199
     atom    7 type  1   force =     0.00100321    0.00021314   -0.01338768
     atom    8 type  1   force =    -0.00010090    0.01533122    0.02827434
     atom    9 type  2   force =    -0.00007270   -0.00000926    0.00009640
     atom   10 type  2   force =    -0.00234116    0.00080708   -0.01059069
     atom   11 type  2   force =     0.00035897    0.00005535   -0.00002061
     atom   12 type  2   force =    -0.00043508   -0.00006557    0.00025030
     atom   13 type  1   force =     0.00014846   -0.00018373   -0.00005566
     atom   14 type  1   force =     0.00010728   -0.00022274    0.00001985
     atom   15 type  2   force =    -0.00004832    0.00016878   -0.00012606
     atom   16 type  2   force =    -0.00019874    0.00003540   -0.00018251
     atom   17 type  2   force =    -0.00013225    0.00006433   -0.00004553
     atom   18 type  2   force =    -0.00016589    0.00000531   -0.00016970
     atom   19 type  1   force =    -0.00031098    0.00018133    0.00004034
     atom   20 type  1   force =     0.00002328   -0.00037939    0.00020512
     atom   21 type  2   force =     0.00003766   -0.00009175    0.10300871
     atom   22 type  2   force =    -0.00005137    0.00037863    0.00059331
     atom   23 type  2   force =    -0.07178333   -0.00021555   -0.02780713
     atom   24 type  2   force =     0.07174323    0.00024257   -0.02787118
     atom   25 type  1   force =     0.00003302   -0.00025760    0.09644298
     atom   26 type  1   force =    -0.00000612   -0.00029893   -0.17488213
     atom   27 type  2   force =     0.00019304   -0.00025595   -0.02396847
     atom   28 type  2   force =     0.00005272   -0.00100619    0.05144755
     atom   29 type  2   force =    -0.01129739    0.00078891    0.00169055
     atom   30 type  2   force =     0.01298618    0.00111535    0.00208913
     atom   31 type  1   force =     0.00103715    0.00256736   -0.01541224
     atom   32 type  1   force =     0.00005520   -0.01663332    0.02915296
     atom   33 type  2   force =     0.00011633    0.00002602   -0.00011607
     atom   34 type  2   force =    -0.00271095    0.00093400   -0.01869290
     atom   35 type  2   force =     0.00017935   -0.00007436   -0.00009434
     atom   36 type  2   force =    -0.00038088   -0.00007302    0.00012791
     atom   37 type  1   force =    -0.00011068   -0.00019648    0.00015404
     atom   38 type  1   force =     0.00007920    0.00008471   -0.00007083
     atom   39 type  2   force =    -0.00003126    0.00044490   -0.00002860
     atom   40 type  2   force =    -0.00037922    0.00014880   -0.00013009
     atom   41 type  2   force =     0.00010882   -0.00001566   -0.00009543
     atom   42 type  2   force =     0.00000557    0.00021649    0.00004991
     atom   43 type  1   force =     0.00016632    0.00003224   -0.00014925
     atom   44 type  1   force =    -0.00026926   -0.00060501   -0.00036784
     atom   45 type  2   force =     0.00005514   -0.00010940    0.10301874
     atom   46 type  2   force =    -0.07180943   -0.00015771   -0.02782976
     atom   47 type  2   force =     0.07175046    0.00023018   -0.02787167
     atom   48 type  3   force =    -0.00146238   -0.00073346   -0.00047159
     atom   49 type  4   force =    -0.00022296   -0.00419872   -0.00411023
     atom   50 type  5   force =     0.00055915    0.00458121    0.00501810
     atom   51 type  5   force =    -0.00037569    0.00045714    0.00015077
     atom   52 type  5   force =     0.00071364   -0.00064589   -0.00010779
     atom   53 type  3   force =     0.00098016    0.00047364   -0.00005931
     atom   54 type  5   force =     0.00031967   -0.00009781    0.00113522
     atom   55 type  5   force =    -0.00022863    0.00029083   -0.00153282

     Total force =     0.367329     Total SCF correction =     0.000425
  @ DRIVER MODE: Message from server: STATUS
  @ DRIVER MODE: Message from server: GETFORCE
  @ DRIVER MODE: Returning v,forces,stress,ensemble

     Writing output data file ./calc.save/
  @ DRIVER MODE: Message from server: EXIT
  @ DRIVE MODE: Exiting

     General routines

     Parallel routines

   This run was terminated on:   4:40:41  16Jul2021

   JOB DONE.