     Program PWSCF v.6.7GPU starts on 16Sep2021 at  3:30:41

     R & G space division:  proc/nbgrp/npool/nimage =      10
     Reading input from /storage/home/hcoda1/3/ntian30/research/carbon/CxH_vib/H2O_calc/ads_slab/CH3NH2O_a/out_0039/pw.inp
Warning: card &CELL ignored
Warning: card   CELL_DYNAMICS='IPI', ignored
Warning: card / ignored

     Current dimensions of program PWSCF are:
     Max number of different atomic species (ntypx) = 10
     Max number of k-points (npk) =  40000
     Max angular momentum in pseudopotentials (lmaxx) =  3
     Presently no symmetry can be used with electric field

     Message from routine cell_base_init:
     DEPRECATED: use true lattice parameter, not A to a.u. conversion factor

     IMPORTANT: XC functional enforced from input :
     Exchange-correlation= BEEF-VDW
                           (   1   4  43  14   2   0   0)
     Any further DFT definition will be discarded
     Please, verify this is what you really want

  @ DRIVER MODE: Connecting to
 qe_1139763_2852618.sched-torque.pace.gatech.eduj5xn_48u_scratch
  using UNIX socket
  @ DRIVER MODE: Message from server: STATUS
  @ DRIVER MODE: Message from server: INIT
  @ DRIVER MODE: Receiving replica           0          -1
  @ DRIVER MODE: Receiving encoded integer          25
  @ DRIVER MODE:  SCF:  T  FORCE:  T  STRESS:  F  VC:  F  ENSEMBLE:  F
  @ DRIVER MODE:  SCF:  T  FORCE:  T  STRESS:  F  VC:  F  ENSEMBLE:  F

     Using Slab Decomposition

     bravais-lattice index     =            0
     lattice parameter (alat)  =       1.8897  a.u.
     unit-cell volume          =    6658.9804 (a.u.)^3
     number of atoms/cell      =           55
     number of atomic types    =            5
     number of electrons       =       398.00
     number of Kohn-Sham states=          209
     kinetic-energy cutoff     =      29.3995  Ry
     charge density cutoff     =     293.9946  Ry
     scf convergence threshold =      7.3E-08
     mixing beta               =       0.0500
     number of iterations used =            8  plain     mixing
     Exchange-correlation= BEEF-VDW
                           (   1   4  43  14   2   0   0)

     celldm(1)=   1.889726  celldm(2)=   0.000000  celldm(3)=   0.000000
     celldm(4)=   0.000000  celldm(5)=   0.000000  celldm(6)=   0.000000

     crystal axes: (cart. coord. in units of alat)
               a(1) = (   6.579727   0.000000   0.000000 )
               a(2) = (  -0.000775   5.961596   0.000000 )
               a(3) = (   0.000000   0.000000  25.155947 )

     reciprocal axes: (cart. coord. in units 2 pi/alat)
               b(1) = (  0.151982  0.000020  0.000000 )
               b(2) = (  0.000000  0.167740  0.000000 )
               b(3) = (  0.000000  0.000000  0.039752 )

     PseudoPot. # 1 for Ti read from file:
     /storage/coda1/p-amedford6/0/shared/rich_project_chbe-medford/medford-share/data/pseudos_module/espresso/nninc/pbe/van/Ti.UPF
     MD5 check sum: 8e4df49b7f0d34bbd5052bf3f5ea0213
     Pseudo is Ultrasoft, Zval = 12.0
     Generated by new atomic code, or converted to UPF format
     Using radial grid of  851 points,  6 beta functions with:
                l(1) =   0
                l(2) =   0
                l(3) =   1
                l(4) =   1
                l(5) =   2
                l(6) =   2
     Q(r) pseudized with  8 coefficients,  rinner =    1.000   1.000   1.000
                                                       1.000   1.000

     PseudoPot. # 2 for O  read from file:
     /storage/coda1/p-amedford6/0/shared/rich_project_chbe-medford/medford-share/data/pseudos_module/espresso/nninc/pbe/van/O.UPF
     MD5 check sum: 78c19812648e8988a0fe644b0f25305e
     Pseudo is Ultrasoft, Zval =  6.0
     Generated by new atomic code, or converted to UPF format
     Using radial grid of  737 points,  4 beta functions with:
                l(1) =   0
                l(2) =   0
                l(3) =   1
                l(4) =   1
     Q(r) pseudized with  8 coefficients,  rinner =    0.800   0.800   0.800

     PseudoPot. # 3 for N  read from file:
     /storage/coda1/p-amedford6/0/shared/rich_project_chbe-medford/medford-share/data/pseudos_module/espresso/nninc/pbe/van/N.UPF
     MD5 check sum: 90d10febe142ad51ac9d5be1deb811c4
     Pseudo is Ultrasoft, Zval =  5.0
     Generated by new atomic code, or converted to UPF format
     Using radial grid of  729 points,  4 beta functions with:
                l(1) =   0
                l(2) =   0
                l(3) =   1
                l(4) =   1
     Q(r) pseudized with  8 coefficients,  rinner =    0.800   0.800   0.800

     PseudoPot. # 4 for C  read from file:
     /storage/coda1/p-amedford6/0/shared/rich_project_chbe-medford/medford-share/data/pseudos_module/espresso/nninc/pbe/van/C.UPF
     MD5 check sum: 1a69bf6b8db32088f5b2163dbdb77a27
     Pseudo is Ultrasoft, Zval =  4.0
     Generated by new atomic code, or converted to UPF format
     Using radial grid of  721 points,  4 beta functions with:
                l(1) =   0
                l(2) =   0
                l(3) =   1
                l(4) =   1
     Q(r) pseudized with  8 coefficients,  rinner =    0.800   0.800   0.800

     PseudoPot. # 5 for H  read from file:
     /storage/coda1/p-amedford6/0/shared/rich_project_chbe-medford/medford-share/data/pseudos_module/espresso/nninc/pbe/van/H.UPF
     MD5 check sum: b5ee9d7bfd3a09ee7748110bda690ff7
     Pseudo is Ultrasoft, Zval =  1.0
     Generated by new atomic code, or converted to UPF format
     Using radial grid of  615 points,  1 beta functions with:
                l(1) =   0
     Q(r) pseudized with  8 coefficients,  rinner =    0.800

     atomic species   valence    mass     pseudopotential
        Ti1           12.00    47.86700     Ti( 1.00)
        O1             6.00    15.99900     O ( 1.00)
        N1             5.00    14.00700     N ( 1.00)
        C1             4.00    12.01100     C ( 1.00)
        H1             1.00     1.00800     H ( 1.00)

     No symmetry found

   Cartesian axes

     site n.     atom                  positions (alat units)
         1           Ti1 tau(   1) = (   0.0004258   2.9801865   6.0000000  )
         2           Ti1 tau(   2) = (   3.2906075   1.4906267   6.0002472  )
         3           O1  tau(   3) = (   0.0006271   0.0005054   7.9858123  )
         4           O1  tau(   4) = (   3.2906025   0.0005020   7.3038282  )
         5           O1  tau(   5) = (   4.5942328   1.4918067   9.2879030  )
         6           O1  tau(   6) = (   1.9868534   1.4903216   9.2879459  )
         7           Ti1 tau(   7) = (   3.2907910   2.8959150   9.1758416  )
         8           Ti1 tau(   8) = (   0.0015273   1.4827037   9.2680791  )
         9           O1  tau(   9) = (   3.2951577   0.0167633  11.2896499  )
        10           O1  tau(  10) = (   0.0116148   5.9584955  10.6183126  )
        11           O1  tau(  11) = (   1.3222759   1.5071707  12.6129440  )
        12           O1  tau(  12) = (   5.3060066   1.5095485  12.6267335  )
        13           Ti1 tau(  13) = (   6.4824898   3.0013615  12.7357613  )
        14           Ti1 tau(  14) = (   3.1735365   1.4973312  12.4739500  )
        15           O1  tau(  15) = (   0.0245190   0.0017265  14.5963640  )
        16           O1  tau(  16) = (   3.2983568   0.0259644  13.8884976  )
        17           O1  tau(  17) = (   4.5535709   1.5599051  15.9919625  )
        18           O1  tau(  18) = (   2.0723989   1.5598234  15.9883263  )
        19           Ti1 tau(  19) = (   3.3263631   3.0313633  15.6478355  )
        20           Ti1 tau(  20) = (   0.0083359   1.6222165  16.0589653  )
        21           O1  tau(  21) = (   3.2904802   0.0005063   4.7018136  )
        22           O1  tau(  22) = (   0.0206953   0.0548308  17.2083480  )
        23           O1  tau(  23) = (   1.3043587   1.4918075   6.0039043  )
        24           O1  tau(  24) = (   5.2767064   1.4903225   6.0039473  )
        25           Ti1 tau(  25) = (   0.0000382   5.9609847   6.0000000  )
        26           Ti1 tau(  26) = (   3.2902200   4.4714249   6.0002472  )
        27           O1  tau(  27) = (   0.0002396   2.9813036   7.9858123  )
        28           O1  tau(  28) = (   3.2902150   2.9813002   7.3038282  )
        29           O1  tau(  29) = (   4.5938453   4.4726049   9.2879030  )
        30           O1  tau(  30) = (   1.9864658   4.4711199   9.2879459  )
        31           Ti1 tau(  31) = (   3.2891106   5.8743827   9.1763621  )
        32           Ti1 tau(  32) = (   0.0006254   4.4649316   9.2693709  )
        33           O1  tau(  33) = (   3.2909539   2.9954008  11.2901670  )
        34           O1  tau(  34) = (   0.0092240   2.9805883  10.6323155  )
        35           O1  tau(  35) = (   1.3211080   4.4795309  12.6092917  )
        36           O1  tau(  36) = (   5.3058445   4.4798052  12.6251394  )
        37           Ti1 tau(  37) = (   6.5140999   0.0198189  12.7603067  )
        38           Ti1 tau(  38) = (   3.1705570   4.4938763  12.4677136  )
        39           O1  tau(  39) = (   0.0016069   2.9863809  14.6467327  )
        40           O1  tau(  40) = (   3.3112668   3.0122049  13.8485686  )
        41           O1  tau(  41) = (   4.5534170   4.5051619  16.0179686  )
        42           O1  tau(  42) = (   2.0797414   4.5084034  16.0201905  )
        43           Ti1 tau(  43) = (   3.2815144   0.0627375  15.7417980  )
        44           Ti1 tau(  44) = (   0.0076503   4.5954094  16.1032789  )
        45           O1  tau(  45) = (   3.2900926   2.9813045   4.7018136  )
        46           O1  tau(  46) = (   1.3039711   4.4726057   6.0039043  )
        47           O1  tau(  47) = (   5.2763189   4.4711207   6.0039473  )
        48           N1  tau(  48) = (   0.0651939   3.0276870  17.3150544  )
        49           C1  tau(  49) = (   0.3375872   3.0185870  18.7284822  )
        50           H1  tau(  50) = (   0.4544735   4.0311245  19.1352477  )
        51           H1  tau(  51) = (   6.1015407   2.5302758  19.2785169  )
        52           H1  tau(  52) = (   1.2508204   2.4494767  18.9518403  )
        53           O1  tau(  53) = (   3.3357083   0.1159715  18.1615364  )
        54           H1  tau(  54) = (   4.1514219   5.5951498  18.3929375  )
        55           H1  tau(  55) = (   2.5926282   5.5337384  18.4710493  )

     number of k points=    10  Fermi-Dirac smearing, width (Ry)=  0.0073
                       cart. coord. in units 2pi/alat
        k(    1) = (   0.0000000   0.0000000   0.0000000), wk =   0.1250000
        k(    2) = (   0.0000000   0.0419351   0.0000000), wk =   0.2500000
        k(    3) = (   0.0000000  -0.0838702   0.0000000), wk =   0.1250000
        k(    4) = (   0.0379955   0.0000049   0.0000000), wk =   0.2500000
        k(    5) = (   0.0379955   0.0419400   0.0000000), wk =   0.2500000
        k(    6) = (   0.0379955  -0.0838652   0.0000000), wk =   0.2500000
        k(    7) = (   0.0379955  -0.0419301   0.0000000), wk =   0.2500000
        k(    8) = (  -0.0759910  -0.0000099   0.0000000), wk =   0.1250000
        k(    9) = (  -0.0759910   0.0419252   0.0000000), wk =   0.2500000
        k(   10) = (  -0.0759910  -0.0838800   0.0000000), wk =   0.1250000

     Initial potential from superposition of free atoms

     starting charge  381.99915, renormalised to  398.00000

     negative rho (up, down):  1.656E-02 0.000E+00

     %%%%%%%%%%%%%%%%%%%%%%%%%%%%%%%%%%%%%%%%%%%%%%%%%%%%%%%%%%%%%%%%%%%%%%%%
     %                                                                      %
     % You are using vdW-DF, which was implemented by the Thonhauser group. %
     % Please cite the following two papers that made this development      %
     % possible and the two reviews that describe the various versions:     %
     %                                                                      %
     %   T. Thonhauser et al., PRL 115, 136402 (2015).                      %
     %   T. Thonhauser et al., PRB 76, 125112 (2007).                       %
     %   K. Berland et al., Rep. Prog. Phys. 78, 066501 (2015).             %
     %   D.C. Langreth et al., J. Phys.: Condens. Matter 21, 084203 (2009). %
     %                                                                      %
     %                                                                      %
     % If you are calculating the stress with vdW-DF, please also cite:     %
     %                                                                      %
     %   R. Sabatini et al., J. Phys.: Condens. Matter 24, 424209 (2012).   %
     %                                                                      %
     %%%%%%%%%%%%%%%%%%%%%%%%%%%%%%%%%%%%%%%%%%%%%%%%%%%%%%%%%%%%%%%%%%%%%%%%

     Adding external electric field

     Computed dipole along edir(3) :
        Dipole               -9.1079 Ry au,        -23.1500 Debye
        Dipole field         -0.0172 Ry au,

        Potential amp.        1.5933 Ry
        Total length         46.3494 bohr

     Starting wfcs are  301 atomic wfcs
  @ DRIVER MODE: Message from server: STATUS
  @ DRIVER MODE: Message from server: POSDATA
  @ DRIVER MODE: Reading and sharing cell
  @ DRIVER MODE: Reading and sharing positions
  @ DRIVER MODE: Received positions

     Self-consistent Calculation

     iteration #  1     ecut=    29.40 Ry     beta= 0.05
     Davidson diagonalization with overlap
     c_bands:  1 eigenvalues not converged
     c_bands:  1 eigenvalues not converged
     c_bands:  1 eigenvalues not converged
     c_bands:  1 eigenvalues not converged
     c_bands:  1 eigenvalues not converged
     c_bands:  1 eigenvalues not converged
     c_bands:  1 eigenvalues not converged
     c_bands:  2 eigenvalues not converged
     ethr =  1.00E-05,  avg # of iterations = 19.6

[...]

     total energy              =   -2564.53349924 Ry
     estimated scf accuracy    <    4317.19831815 Ry

     iteration #  2     ecut=    29.40 Ry     beta= 0.05
     Davidson diagonalization with overlap
     ethr =  1.00E-02,  avg # of iterations = 24.2

[...]

     iteration # 47     ecut=    29.40 Ry     beta= 0.05
     Davidson diagonalization with overlap
     c_bands:  1 eigenvalues not converged
     c_bands:  2 eigenvalues not converged
     ethr =  3.10E-06,  avg # of iterations = 12.9

[...]

     total energy              =   -2953.97103899 Ry
     estimated scf accuracy    <       0.00000010 Ry

     iteration # 75     ecut=    29.40 Ry     beta= 0.05
     Davidson diagonalization with overlap
     ethr =  2.46E-11,  avg # of iterations =  5.5

     negative rho (up, down):  1.668E-02 0.000E+00

     Adding external electric field

     Computed dipole along edir(3) :
        Dipole                0.5299 Ry au,          1.3469 Debye
        Dipole field          0.0010 Ry au,

        Potential amp.       -0.0927 Ry
        Total length         46.3494 bohr

     End of self-consistent calculation

          k = 0.0000 0.0000 0.0000 ( 18029 PWs)   bands (ev):

   -56.5947 -56.5611 -55.7127 -55.6787 -55.6685 -55.6337 -55.4920 -55.4558
   -55.3617 -55.2431 -55.2302 -55.2277 -55.2092 -55.1323 -54.7253 -54.6759
   -33.0214 -32.8691 -32.8409 -32.7711 -32.6801 -32.6476 -32.1806 -32.1511
   -32.0276 -31.9775 -31.9297 -31.9105 -31.8814 -31.8711 -31.8435 -31.8375
   -31.8183 -31.8136 -31.7912 -31.7753 -31.7679 -31.7116 -31.7071 -31.6696
   -31.6560 -31.6341 -31.6266 -31.6182 -31.5954 -31.5867 -31.5828 -31.5586
   -31.4657 -31.4532 -31.4197 -31.4061 -31.3797 -31.3700 -31.3565 -31.3375
   -31.3096 -31.2591 -31.2401 -30.9689 -30.9474 -30.9182 -30.8942 -30.7850
   -18.7650 -16.7500 -16.2865 -16.0454 -15.9507 -15.8687 -15.8287 -15.7855
   -15.6383 -15.5652 -15.5451 -15.5425 -15.4750 -15.3308 -15.2767 -15.1788
   -15.0927 -14.9515 -14.9400 -14.8999 -14.8865 -14.8501 -14.8460 -14.7956
   -14.6269 -14.5911 -14.5452 -14.4868 -14.3946 -14.1734 -13.7414 -13.6317
   -12.9718  -7.7739  -6.5351  -4.3172  -3.7850  -3.5201  -3.4877  -3.3595
    -3.3553  -3.3123  -3.1776  -3.1644  -3.0890  -3.0638  -3.0231  -2.9498
    -2.9043  -2.8704  -2.7793  -2.7652  -2.7459  -2.7367  -2.7168  -2.5997
    -2.5555  -2.5056  -2.4020  -2.2918  -2.2494  -2.2223  -2.1764  -2.1430
    -2.0919  -2.0809  -2.0685  -2.0566  -1.9525  -1.8307  -1.8053  -1.7824
    -1.7364  -1.7219  -1.7133  -1.6901  -1.6049  -1.4970  -1.4037  -1.3358
    -1.3289  -1.2532  -1.2451  -1.1870  -1.0754  -1.0131  -1.0105  -0.9889
    -0.8848  -0.8599  -0.7887  -0.7263  -0.6669  -0.6139  -0.5511  -0.4990
    -0.4758  -0.4665  -0.3686  -0.2992  -0.2743  -0.2188  -0.2101  -0.2051
    -0.1787  -0.0834  -0.0482   0.0284   0.0638   0.1117   0.1467   0.2263
     0.2858   0.3517   0.3985   0.4205   0.4857   0.5415   0.5970   0.6878
     0.7452   0.7512   0.7786   0.8373   0.8507   0.9249   1.0072   1.0270
     1.0937   1.1647   1.3284   1.3674   1.6137   1.6868   2.3115   2.6827
     2.8438   3.1390   3.3286   3.4667   3.6619   3.6722   3.6795   3.9011
     3.9291

[...]

          k = 0.0380-0.0419 0.0000 ( 17876 PWs)   bands (ev):

[...]

          k =-0.0760-0.0000 0.0000 ( 17886 PWs)   bands (ev):

[...]

          k =-0.0760-0.0839 0.0000 ( 17948 PWs)   bands (ev):

   -56.5780 -56.5776 -55.6977 -55.6933 -55.6557 -55.6467 -55.4780 -55.4697
   -55.3593 -55.2324 -55.2261 -55.2260 -55.2245 -55.1355 -54.7181 -54.6830
   -32.8550 -32.8546 -32.8384 -32.8381 -32.7243 -32.7239 -32.0042 -31.9984
   -31.9868 -31.9799 -31.9036 -31.8889 -31.8878 -31.8835 -31.8768 -31.8753
   -31.8678 -31.8598 -31.8333 -31.8164 -31.7231 -31.7166 -31.6850 -31.6772
   -31.6542 -31.6186 -31.5867 -31.5716 -31.5715 -31.5701 -31.5485 -31.5312
   -31.4797 -31.4510 -31.4508 -31.4468 -31.4315 -31.4119 -31.4118 -31.4009
   -31.3745 -31.3391 -31.1010 -31.0386 -30.9450 -30.9193 -30.9039 -30.8569
   -18.7641 -16.1008 -16.0988 -16.0633 -16.0626 -15.7962 -15.7928 -15.7032
   -15.6977 -15.5661 -15.4456 -15.3413 -15.3286 -15.2947 -15.2682 -15.1580
   -15.1370 -15.1257 -15.1154 -15.0080 -14.9887 -14.9405 -14.9264 -14.9110
   -14.9033 -14.6085 -14.5921 -14.4920 -14.4660 -14.3257 -13.7354 -13.7353
   -12.9903  -7.7674  -6.5281  -3.1985  -3.1906  -3.1574  -3.1361  -3.1353
    -3.0762  -2.9778  -2.9303  -2.9284  -2.9274  -2.8472  -2.7827  -2.7748
    -2.7007  -2.6677  -2.6506  -2.5941  -2.5786  -2.5150  -2.4884  -2.4804
    -2.4625  -2.4388  -2.4375  -2.3439  -2.2778  -2.2319  -2.2267  -2.1673
    -2.1380  -2.0780  -2.0555  -2.0443  -2.0119  -1.9703  -1.9585  -1.9202
    -1.8779  -1.8434  -1.7800  -1.6137  -1.6045  -1.5956  -1.5753  -1.4541
    -1.4457  -1.4110  -1.3795  -1.3741  -1.3033  -1.2536  -1.2159  -1.1645
    -1.0770  -1.0555  -0.9509  -0.8988  -0.8557  -0.7993  -0.6946  -0.6741
    -0.6664  -0.6555  -0.6249  -0.5553  -0.5202  -0.5172  -0.3943  -0.3700
    -0.3315  -0.3024  -0.2441  -0.2153  -0.1566  -0.1243  -0.0545  -0.0402
    -0.0005   0.0763   0.1515   0.1861   0.2366   0.2430   0.5173   0.5910
     0.7202   0.7833   0.8461   0.9139   0.9792   1.0078   1.0369   1.1625
     1.1667   1.1763   1.1767   1.2469   1.2522   1.5924   2.1896   3.2587
     3.2590   3.3252   3.3259   3.6468   3.6531   3.7601   3.7703   3.9304
     3.9448

     the Fermi energy is     2.5097 ev

!    total energy              =   -2953.97105480 Ry
     estimated scf accuracy    <       0.00000004 Ry
     smearing contrib. (-TS)   =      -0.00443204 Ry
     internal energy E=F+TS    =   -2953.96662276 Ry

     The total energy is F=E-TS. E is the sum of the following terms:
     one-electron contribution =  -24343.89734276 Ry
     hartree contribution      =   12263.84581980 Ry
     xc contribution           =    -488.76697370 Ry
     ewald contribution        =    9614.85134400 Ry
     electric field correction =       0.00052990 Ry

     convergence has been achieved in  75 iterations

     Forces acting on atoms (cartesian axes, Ry/au):

     atom    1 type  1   force =    -0.00002528   -0.00048472    0.12440303
     atom    2 type  1   force =    -0.00003506   -0.00048320   -0.15980230
     atom    3 type  2   force =     0.00020080   -0.00023713   -0.06783102
     atom    4 type  2   force =     0.00000293   -0.00009032    0.02613030
     atom    5 type  2   force =    -0.01436325    0.00191190   -0.00990104
     atom    6 type  2   force =     0.01614835    0.00232242   -0.01027610
     atom    7 type  1   force =     0.00072264   -0.00389497    0.02848657
     atom    8 type  1   force =    -0.00033622   -0.00435898    0.10935518
     atom    9 type  2   force =     0.00002583    0.00001712    0.00006587
     atom   10 type  2   force =    -0.00225561    0.00266743   -0.07360326
     atom   11 type  2   force =     0.00080233   -0.00002863   -0.00023854
     atom   12 type  2   force =    -0.00044946    0.00004789   -0.00020456
     atom   13 type  1   force =    -0.00000754    0.00013644   -0.00010662
     atom   14 type  1   force =    -0.00034294    0.00048486   -0.00041210
     atom   15 type  2   force =     0.00002420   -0.00066199   -0.00023850
     atom   16 type  2   force =    -0.00018208   -0.00000939    0.00040723
     atom   17 type  2   force =    -0.00065969   -0.00030014   -0.00034576
     atom   18 type  2   force =     0.00030440   -0.00020248    0.00014618
     atom   19 type  1   force =     0.00043138   -0.00005880   -0.00029215
     atom   20 type  1   force =    -0.00025170   -0.00069645   -0.00077044
     atom   21 type  2   force =     0.00006866   -0.00003882    0.09950462
     atom   22 type  2   force =     0.00008550   -0.00052553    0.00018903
     atom   23 type  2   force =    -0.07969557   -0.00006328   -0.03246765
     atom   24 type  2   force =     0.07957002    0.00037590   -0.03252521
     atom   25 type  1   force =    -0.00000481   -0.00057556    0.12403928
     atom   26 type  1   force =    -0.00010651   -0.00063223   -0.15993149
     atom   27 type  2   force =     0.00033288   -0.00035895   -0.06690241
     atom   28 type  2   force =    -0.00002335    0.00017838    0.02514941
     atom   29 type  2   force =    -0.01495324    0.00189309   -0.00987704
     atom   30 type  2   force =     0.01664148    0.00242065   -0.01020958
     atom   31 type  1   force =     0.00078610   -0.00077275    0.02375607
     atom   32 type  1   force =    -0.00022960    0.00200856    0.10998277
     atom   33 type  2   force =     0.00004676   -0.00027047    0.00033193
     atom   34 type  2   force =    -0.00212216    0.00207049   -0.07172184
     atom   35 type  2   force =     0.00022690   -0.00012248   -0.00009026
     atom   36 type  2   force =    -0.00018034   -0.00024563   -0.00016432
     atom   37 type  1   force =     0.00042775   -0.00002352    0.00037835
     atom   38 type  1   force =     0.00001334   -0.00056624   -0.00019265
     atom   39 type  2   force =     0.00006927    0.00020191    0.00061263
     atom   40 type  2   force =    -0.00008518   -0.00023696    0.00027351
     atom   41 type  2   force =     0.00071059   -0.00035068    0.00017459
     atom   42 type  2   force =    -0.00096653   -0.00042610    0.00059720
     atom   43 type  1   force =     0.00002735   -0.00029829    0.00008614
     atom   44 type  1   force =    -0.00023722    0.00006570   -0.00091392
     atom   45 type  2   force =     0.00005688   -0.00004674    0.09947766
     atom   46 type  2   force =    -0.07970530    0.00000203   -0.03248868
     atom   47 type  2   force =     0.07958508    0.00042947   -0.03251444
     atom   48 type  3   force =    -0.00049698   -0.00010975   -0.00039822
     atom   49 type  4   force =    -0.00034366    0.00013786    0.00020780
     atom   50 type  5   force =    -0.00046842    0.00000754    0.00016276
     atom   51 type  5   force =    -0.00012839   -0.00066111    0.00054886
     atom   52 type  5   force =     0.00056116    0.00011205    0.00020681
     atom   53 type  2   force =     0.00728939   -0.00554537    0.00204394
     atom   54 type  5   force =    -0.00615868    0.00552821   -0.00185947
     atom   55 type  5   force =    -0.00034721    0.00035776   -0.00043815

     Total force =     0.423531     Total SCF correction =     0.000453
  @ DRIVER MODE: Message from server: STATUS
  @ DRIVER MODE: Message from server: GETFORCE
  @ DRIVER MODE: Returning v,forces,stress,ensemble

     Writing output data file ./calc.save/
  @ DRIVER MODE: Message from server: EXIT
  @ DRIVE MODE: Exiting

     General routines

     Parallel routines

   This run was terminated on:   3:50:13  16Sep2021

   JOB DONE.