     Program PWSCF v.6.7GPU starts on 15Sep2021 at 20: 7:41

     R & G space division:  proc/nbgrp/npool/nimage =      10
     Reading input from /storage/home/hcoda1/3/ntian30/research/carbon/CxH_vib/H2O_calc/ads_slab/CH2H2O_a/out_0015/pw.inp
Warning: card &CELL ignored
Warning: card   CELL_DYNAMICS='IPI', ignored
Warning: card / ignored

     Current dimensions of program PWSCF are:
     Max number of different atomic species (ntypx) = 10
     Max number of k-points (npk) =  40000
     Max angular momentum in pseudopotentials (lmaxx) =  3
     Presently no symmetry can be used with electric field

     Message from routine cell_base_init:
     DEPRECATED: use true lattice parameter, not A to a.u. conversion factor

     IMPORTANT: XC functional enforced from input :
     Exchange-correlation= BEEF-VDW
                           (   1   4  43  14   2   0   0)
     Any further DFT definition will be discarded
     Please, verify this is what you really want

  @ DRIVER MODE: Connecting to
 qe_1139763_2852604.sched-torque.pace.gatech.eduydwvh2fh_scratch
  using UNIX socket
  @ DRIVER MODE: Message from server: STATUS
  @ DRIVER MODE: Message from server: INIT
  @ DRIVER MODE: Receiving replica           0          -1
  @ DRIVER MODE: Receiving encoded integer          25
  @ DRIVER MODE:  SCF:  T  FORCE:  T  STRESS:  F  VC:  F  ENSEMBLE:  F
  @ DRIVER MODE:  SCF:  T  FORCE:  T  STRESS:  F  VC:  F  ENSEMBLE:  F

     Using Slab Decomposition

     bravais-lattice index     =            0
     lattice parameter (alat)  =       1.8897  a.u.
     unit-cell volume          =    6658.9804 (a.u.)^3
     number of atoms/cell      =           53
     number of atomic types    =            4
     number of electrons       =       392.00
     number of Kohn-Sham states=          206
     kinetic-energy cutoff     =      29.3995  Ry
     charge density cutoff     =     293.9946  Ry
     scf convergence threshold =      7.3E-08
     mixing beta               =       0.0500
     number of iterations used =            8  plain     mixing
     Exchange-correlation= BEEF-VDW
                           (   1   4  43  14   2   0   0)

     celldm(1)=   1.889726  celldm(2)=   0.000000  celldm(3)=   0.000000
     celldm(4)=   0.000000  celldm(5)=   0.000000  celldm(6)=   0.000000

     crystal axes: (cart. coord. in units of alat)
               a(1) = (   6.579727   0.000000   0.000000 )
               a(2) = (  -0.000775   5.961596   0.000000 )
               a(3) = (   0.000000   0.000000  25.155947 )

     reciprocal axes: (cart. coord. in units 2 pi/alat)
               b(1) = (  0.151982  0.000020  0.000000 )
               b(2) = (  0.000000  0.167740  0.000000 )
               b(3) = (  0.000000  0.000000  0.039752 )

     PseudoPot. # 1 for Ti read from file:
     /storage/coda1/p-amedford6/0/shared/rich_project_chbe-medford/medford-share/data/pseudos_module/espresso/nninc/pbe/van/Ti.UPF
     MD5 check sum: 8e4df49b7f0d34bbd5052bf3f5ea0213
     Pseudo is Ultrasoft, Zval = 12.0
     Generated by new atomic code, or converted to UPF format
     Using radial grid of  851 points,  6 beta functions with:
                l(1) =   0
                l(2) =   0
                l(3) =   1
                l(4) =   1
                l(5) =   2
                l(6) =   2
     Q(r) pseudized with  8 coefficients,  rinner =    1.000   1.000   1.000
                                                       1.000   1.000

     PseudoPot. # 2 for O  read from file:
     /storage/coda1/p-amedford6/0/shared/rich_project_chbe-medford/medford-share/data/pseudos_module/espresso/nninc/pbe/van/O.UPF
     MD5 check sum: 78c19812648e8988a0fe644b0f25305e
     Pseudo is Ultrasoft, Zval =  6.0
     Generated by new atomic code, or converted to UPF format
     Using radial grid of  737 points,  4 beta functions with:
                l(1) =   0
                l(2) =   0
                l(3) =   1
                l(4) =   1
     Q(r) pseudized with  8 coefficients,  rinner =    0.800   0.800   0.800

     PseudoPot. # 3 for C  read from file:
     /storage/coda1/p-amedford6/0/shared/rich_project_chbe-medford/medford-share/data/pseudos_module/espresso/nninc/pbe/van/C.UPF
     MD5 check sum: 1a69bf6b8db32088f5b2163dbdb77a27
     Pseudo is Ultrasoft, Zval =  4.0
     Generated by new atomic code, or converted to UPF format
     Using radial grid of  721 points,  4 beta functions with:
                l(1) =   0
                l(2) =   0
                l(3) =   1
                l(4) =   1
     Q(r) pseudized with  8 coefficients,  rinner =    0.800   0.800   0.800

     PseudoPot. # 4 for H  read from file:
     /storage/coda1/p-amedford6/0/shared/rich_project_chbe-medford/medford-share/data/pseudos_module/espresso/nninc/pbe/van/H.UPF
     MD5 check sum: b5ee9d7bfd3a09ee7748110bda690ff7
     Pseudo is Ultrasoft, Zval =  1.0
     Generated by new atomic code, or converted to UPF format
     Using radial grid of  615 points,  1 beta functions with:
                l(1) =   0
     Q(r) pseudized with  8 coefficients,  rinner =    0.800

     atomic species   valence    mass     pseudopotential
        Ti1           12.00    47.86700     Ti( 1.00)
        O1             6.00    15.99900     O ( 1.00)
        C1             4.00    12.01100     C ( 1.00)
        H1             1.00     1.00800     H ( 1.00)

     No symmetry found

   Cartesian axes

     site n.     atom                  positions (alat units)
         1           Ti1 tau(   1) = (   0.0004258   2.9801865   6.0000000  )
         2           Ti1 tau(   2) = (   3.2906075   1.4906267   6.0002472  )
         3           O1  tau(   3) = (   0.0006271   0.0005054   7.9858123  )
         4           O1  tau(   4) = (   3.2906025   0.0005020   7.3038282  )
         5           O1  tau(   5) = (   4.5942328   1.4918067   9.2879030  )
         6           O1  tau(   6) = (   1.9868534   1.4903216   9.2879459  )
         7           Ti1 tau(   7) = (   3.2791254   2.8632543   9.1696858  )
         8           Ti1 tau(   8) = (   6.5716288   1.4291880   9.3745659  )
         9           O1  tau(   9) = (   3.2719631   5.9564768  11.3413791  )
        10           O1  tau(  10) = (   6.5766582   5.9454684  10.5603319  )
        11           O1  tau(  11) = (   1.2606928   1.4857163  12.6338655  )
        12           O1  tau(  12) = (   5.2561023   1.4877827  12.6114660  )
        13           Ti1 tau(  13) = (   0.0646731   2.9540699  12.8218634  )
        14           Ti1 tau(  14) = (   3.3836270   1.4660460  12.4955168  )
        15           O1  tau(  15) = (   6.5457659   5.9184216  14.5915085  )
        16           O1  tau(  16) = (   3.2744135   0.0171945  13.9516778  )
        17           O1  tau(  17) = (   4.5159629   1.5536209  16.0418326  )
        18           O1  tau(  18) = (   1.9981799   1.5541948  16.0447984  )
        19           Ti1 tau(  19) = (   3.2528476   3.0136947  15.6822407  )
        20           Ti1 tau(  20) = (   6.5571992   1.6159626  16.1493948  )
        21           O1  tau(  21) = (   3.2904802   0.0005063   4.7018136  )
        22           O1  tau(  22) = (   6.5499432   0.0285508  17.2403840  )
        23           O1  tau(  23) = (   1.3043587   1.4918075   6.0039043  )
        24           O1  tau(  24) = (   5.2767064   1.4903225   6.0039473  )
        25           Ti1 tau(  25) = (   0.0000382   5.9609847   6.0000000  )
        26           Ti1 tau(  26) = (   3.2902200   4.4714249   6.0002472  )
        27           O1  tau(  27) = (   0.0002396   2.9813036   7.9858123  )
        28           O1  tau(  28) = (   3.2902150   2.9813002   7.3038282  )
        29           O1  tau(  29) = (   4.5938453   4.4726049   9.2879030  )
        30           O1  tau(  30) = (   1.9864658   4.4711199   9.2879459  )
        31           Ti1 tau(  31) = (   3.2865685   5.8444178   9.1628351  )
        32           Ti1 tau(  32) = (   6.5743218   4.4049426   9.3738558  )
        33           O1  tau(  33) = (   3.2769956   2.9705820  11.3381082  )
        34           O1  tau(  34) = (   6.5775985   2.9640992  10.5572898  )
        35           O1  tau(  35) = (   1.2629977   4.4457513  12.6272354  )
        36           O1  tau(  36) = (   5.2537740   4.4534837  12.6036699  )
        37           Ti1 tau(  37) = (   0.0534783   5.9329931  12.7718795  )
        38           Ti1 tau(  38) = (   3.3808541   4.4548706  12.4760825  )
        39           O1  tau(  39) = (   6.5578179   2.9671967  14.6759119  )
        40           O1  tau(  40) = (   3.2646438   2.9894133  13.8927730  )
        41           O1  tau(  41) = (   4.5094683   4.4833613  16.0328582  )
        42           O1  tau(  42) = (   2.0033084   4.4836886  16.0339364  )
        43           Ti1 tau(  43) = (   3.2772676   0.0291193  15.7865657  )
        44           Ti1 tau(  44) = (   6.5620481   4.6241259  16.1080240  )
        45           O1  tau(  45) = (   3.2900926   2.9813045   4.7018136  )
        46           O1  tau(  46) = (   1.3039711   4.4726057   6.0039043  )
        47           O1  tau(  47) = (   5.2763189   4.4711207   6.0039473  )
        48           C1  tau(  48) = (   6.5362552   2.9989010  17.5868729  )
        49           H1  tau(  49) = (   0.8535040   3.1223538  18.1993289  )
        50           H1  tau(  50) = (   5.6240823   3.1049880  18.1772116  )
        51           O1  tau(  51) = (   3.2614802   0.0224742  18.1496266  )
        52           H1  tau(  52) = (   4.0528939   5.9570843  18.7024920  )
        53           H1  tau(  53) = (   2.4635753   0.0005096  18.6943540  )

     number of k points=    10  Fermi-Dirac smearing, width (Ry)=  0.0073
                       cart. coord. in units 2pi/alat
        k(    1) = (   0.0000000   0.0000000   0.0000000), wk =   0.1250000
        k(    2) = (   0.0000000   0.0419351   0.0000000), wk =   0.2500000
        k(    3) = (   0.0000000  -0.0838702   0.0000000), wk =   0.1250000
        k(    4) = (   0.0379955   0.0000049   0.0000000), wk =   0.2500000
        k(    5) = (   0.0379955   0.0419400   0.0000000), wk =   0.2500000
        k(    6) = (   0.0379955  -0.0838652   0.0000000), wk =   0.2500000
        k(    7) = (   0.0379955  -0.0419301   0.0000000), wk =   0.2500000
        k(    8) = (  -0.0759910  -0.0000099   0.0000000), wk =   0.1250000
        k(    9) = (  -0.0759910   0.0419252   0.0000000), wk =   0.2500000
        k(   10) = (  -0.0759910  -0.0838800   0.0000000), wk =   0.1250000

     Initial potential from superposition of free atoms

     starting charge  375.99917, renormalised to  392.00000

     negative rho (up, down):  1.851E-02 0.000E+00

     %%%%%%%%%%%%%%%%%%%%%%%%%%%%%%%%%%%%%%%%%%%%%%%%%%%%%%%%%%%%%%%%%%%%%%%%
     %                                                                      %
     % You are using vdW-DF, which was implemented by the Thonhauser group. %
     % Please cite the following two papers that made this development      %
     % possible and the two reviews that describe the various versions:     %
     %                                                                      %
     %   T. Thonhauser et al., PRL 115, 136402 (2015).                      %
     %   T. Thonhauser et al., PRB 76, 125112 (2007).                       %
     %   K. Berland et al., Rep. Prog. Phys. 78, 066501 (2015).             %
     %   D.C. Langreth et al., J. Phys.: Condens. Matter 21, 084203 (2009). %
     %                                                                      %
     %                                                                      %
     % If you are calculating the stress with vdW-DF, please also cite:     %
     %                                                                      %
     %   R. Sabatini et al., J. Phys.: Condens. Matter 24, 424209 (2012).   %
     %                                                                      %
     %%%%%%%%%%%%%%%%%%%%%%%%%%%%%%%%%%%%%%%%%%%%%%%%%%%%%%%%%%%%%%%%%%%%%%%%

     Adding external electric field

     Computed dipole along edir(3) :
        Dipole               -5.1805 Ry au,        -13.1674 Debye
        Dipole field         -0.0098 Ry au,

        Potential amp.        0.9062 Ry
        Total length         46.3494 bohr

     Starting wfcs are  296 atomic wfcs
  @ DRIVER MODE: Message from server: STATUS
  @ DRIVER MODE: Message from server: POSDATA
  @ DRIVER MODE: Reading and sharing cell
  @ DRIVER MODE: Reading and sharing positions
  @ DRIVER MODE: Received positions

     Self-consistent Calculation

     iteration #  1     ecut=    29.40 Ry     beta= 0.05
     Davidson diagonalization with overlap
     c_bands:  5 eigenvalues not converged
     c_bands:  3 eigenvalues not converged
     c_bands:  4 eigenvalues not converged
     c_bands:  1 eigenvalues not converged
     c_bands:  2 eigenvalues not converged
     c_bands:  1 eigenvalues not converged
     c_bands:  3 eigenvalues not converged
     c_bands:  1 eigenvalues not converged
     ethr =  1.00E-05,  avg # of iterations = 19.5

[...]

     total energy              =   -2834.22231108 Ry
     estimated scf accuracy    <    1088.04464888 Ry

     iteration #  2     ecut=    29.40 Ry     beta= 0.05
     Davidson diagonalization with overlap
     ethr =  1.00E-02,  avg # of iterations = 16.2

[...]

     iteration # 43     ecut=    29.40 Ry     beta= 0.05
     Davidson diagonalization with overlap
     c_bands:  2 eigenvalues not converged
     c_bands:  1 eigenvalues not converged
     c_bands:  1 eigenvalues not converged
     ethr =  4.47E-07,  avg # of iterations = 13.4

[...]

     total energy              =   -2932.56453505 Ry
     estimated scf accuracy    <       0.00000008 Ry

     iteration # 64     ecut=    29.40 Ry     beta= 0.05
     Davidson diagonalization with overlap
     ethr =  1.96E-11,  avg # of iterations =  5.5

     negative rho (up, down):  1.822E-02 0.000E+00

     Adding external electric field

     Computed dipole along edir(3) :
        Dipole                0.9009 Ry au,          2.2898 Debye
        Dipole field          0.0017 Ry au,

        Potential amp.       -0.1576 Ry
        Total length         46.3494 bohr

     End of self-consistent calculation

          k = 0.0000 0.0000 0.0000 ( 18029 PWs)   bands (ev):

   -56.1844 -56.1503 -55.8906 -55.8408 -55.8028 -55.6986 -55.5895 -55.5616
   -55.5275 -55.5080 -55.4915 -55.4558 -55.1253 -54.9924 -54.9689 -54.9349
   -32.6122 -32.4355 -32.4066 -32.3812 -32.3735 -32.2903 -32.2821 -32.2389
   -32.1766 -32.1098 -32.1036 -32.0680 -32.0570 -32.0538 -32.0474 -32.0222
   -31.9977 -31.9963 -31.9655 -31.8945 -31.8708 -31.8387 -31.8216 -31.8088
   -31.8068 -31.7779 -31.7482 -31.7315 -31.7240 -31.7205 -31.6785 -31.6710
   -31.6703 -31.6638 -31.6494 -31.5952 -31.5737 -31.4213 -31.3717 -31.3687
   -31.3228 -31.2953 -31.2715 -31.1871 -31.1683 -31.1022 -31.0372 -30.9902
   -19.2295 -16.5186 -16.3489 -16.1131 -15.9785 -15.8969 -15.7367 -15.5558
   -15.5471 -15.4584 -15.4350 -15.3591 -15.3502 -15.3159 -15.3035 -15.2958
   -15.2808 -15.2571 -15.2111 -15.1997 -15.1992 -15.1504 -15.0958 -15.0026
   -14.9908 -14.9429 -14.8249 -14.8176 -14.7831 -14.6381 -13.4629 -13.3491
    -8.0696  -7.2715  -3.9969  -3.9287  -3.8113  -3.7192  -3.6942  -3.5791
    -3.3395  -3.2695  -3.0122  -2.9807  -2.9379  -2.8921  -2.8776  -2.7972
    -2.7062  -2.6897  -2.6619  -2.6365  -2.6013  -2.5939  -2.5306  -2.5219
    -2.4985  -2.4930  -2.4290  -2.4142  -2.3717  -2.2356  -2.1859  -2.1608
    -2.1485  -2.1089  -2.0746  -2.0116  -1.9885  -1.9615  -1.9029  -1.7540
    -1.7298  -1.6494  -1.6209  -1.5493  -1.4598  -1.4459  -1.2996  -1.2814
    -1.2456  -1.2342  -1.2067  -1.1544  -1.1344  -1.0276  -0.8972  -0.8180
    -0.7856  -0.7639  -0.7504  -0.7037  -0.6674  -0.6137  -0.6059  -0.5624
    -0.4871  -0.4791  -0.4026  -0.2177  -0.2036  -0.1929  -0.1757  -0.1334
    -0.1042  -0.0820  -0.0384   0.0067   0.0312   0.0899   0.0998   0.1313
     0.1489   0.2259   0.2746   0.3304   0.3365   0.4493   0.5604   0.6230
     0.6404   0.6711   0.7720   0.7836   0.9898   1.0082   1.0587   1.2703
     1.3158   1.6442   1.7159   2.1725   3.0843   3.2597   3.4626   3.5612
     3.5813   3.6765   3.6890   3.8210   3.8786   3.9260

[...]

          k = 0.0380-0.0419 0.0000 ( 17876 PWs)   bands (ev):

[...]

          k =-0.0760-0.0000 0.0000 ( 17886 PWs)   bands (ev):

[...]

          k =-0.0760-0.0839 0.0000 ( 17948 PWs)   bands (ev):

   -56.1704 -56.1642 -55.8890 -55.8282 -55.8153 -55.7000 -55.5856 -55.5454
   -55.5434 -55.5118 -55.4774 -55.4699 -55.1231 -54.9945 -54.9519 -54.9518
   -32.4322 -32.4271 -32.4243 -32.4168 -32.3287 -32.3235 -32.1956 -32.1832
   -32.1690 -32.1579 -32.1058 -32.0915 -32.0519 -32.0319 -32.0281 -32.0161
   -31.9984 -31.9021 -31.9019 -31.8757 -31.8751 -31.8391 -31.8168 -31.8070
   -31.8040 -31.7967 -31.7901 -31.7869 -31.7580 -31.7562 -31.7542 -31.7386
   -31.6927 -31.6856 -31.6825 -31.6756 -31.4837 -31.4200 -31.3756 -31.2953
   -31.2844 -31.2844 -31.2790 -31.1831 -31.1828 -31.1448 -31.1447 -31.0502
   -19.2288 -16.0082 -15.8981 -15.7452 -15.7052 -15.6617 -15.6612 -15.6310
   -15.5975 -15.5619 -15.5556 -15.4658 -15.4343 -15.4207 -15.4085 -15.3435
   -15.3377 -15.3328 -15.3293 -15.2684 -15.2617 -15.1476 -15.1398 -15.0598
   -15.0496 -15.0200 -14.9977 -14.9544 -14.9478 -14.7889 -13.4515 -13.4514
    -8.0741  -7.2646  -3.9178  -3.3087  -3.0903  -2.9691  -2.9303  -2.8045
    -2.7933  -2.7876  -2.7795  -2.7686  -2.7278  -2.6728  -2.6527  -2.6410
    -2.6156  -2.6025  -2.5748  -2.5666  -2.5396  -2.5377  -2.5322  -2.5280
    -2.5099  -2.4921  -2.4356  -2.4271  -2.4110  -2.3815  -2.3024  -2.2874
    -2.1967  -2.1117  -2.0776  -2.0762  -2.0158  -1.9808  -1.8987  -1.8902
    -1.8737  -1.8684  -1.8049  -1.6117  -1.5561  -1.5512  -1.5138  -1.4790
    -1.3182  -1.2801  -1.2190  -1.1772  -1.1465  -1.1330  -1.0583  -1.0470
    -1.0213  -0.9673  -0.9628  -0.9557  -0.9398  -0.8592  -0.8417  -0.8159
    -0.7412  -0.7001  -0.6837  -0.6580  -0.6275  -0.5744  -0.4900  -0.4669
    -0.4546  -0.4399  -0.3112  -0.2735  -0.2448  -0.2059  -0.1576   0.1077
     0.1174   0.1997   0.3001   0.3933   0.4339   0.5360   0.5540   0.5607
     0.6869   0.7000   0.7056   0.7146   0.8152   0.8219   0.8588   1.4438
     1.4461   1.4987   1.4999   2.4421   3.6075   3.6148   3.6262   3.6315
     3.6543   3.6843   3.7039   3.7353   4.0348   4.0444

     the Fermi energy is     2.7919 ev

!    total energy              =   -2932.56458530 Ry
     estimated scf accuracy    <       0.00000004 Ry
     smearing contrib. (-TS)   =      -0.00167583 Ry
     internal energy E=F+TS    =   -2932.56290947 Ry

     The total energy is F=E-TS. E is the sum of the following terms:
     one-electron contribution =  -24523.10580547 Ry
     hartree contribution      =   12349.14644174 Ry
     xc contribution           =    -482.74531222 Ry
     ewald contribution        =    9724.14023489 Ry
     electric field correction =       0.00153160 Ry

     convergence has been achieved in  64 iterations

     Forces acting on atoms (cartesian axes, Ry/au):

     atom    1 type  1   force =     0.00030109   -0.00015733    0.14555339
     atom    2 type  1   force =     0.00004796    0.00071665   -0.16924998
     atom    3 type  2   force =     0.00003861    0.00235301   -0.06021421
     atom    4 type  2   force =    -0.00017165   -0.00141901    0.03906473
     atom    5 type  2   force =    -0.02196780   -0.00032247    0.00361610
     atom    6 type  2   force =     0.01965986   -0.00081248    0.00222834
     atom    7 type  1   force =     0.00012694   -0.00000824    0.00041941
     atom    8 type  1   force =     0.00007073    0.00007456    0.00108432
     atom    9 type  2   force =    -0.00007469   -0.00028634    0.00034107
     atom   10 type  2   force =     0.00010613    0.00015123   -0.00060851
     atom   11 type  2   force =     0.00007161    0.00003430    0.00101195
     atom   12 type  2   force =     0.00071185    0.00011007    0.00105793
     atom   13 type  1   force =    -0.00071920   -0.00015708   -0.00051646
     atom   14 type  1   force =     0.00037842   -0.00104670   -0.00001006
     atom   15 type  2   force =     0.00017777   -0.00019356    0.00091319
     atom   16 type  2   force =    -0.00005453   -0.00028095    0.00145403
     atom   17 type  2   force =     0.00011417   -0.00056630    0.00024674
     atom   18 type  2   force =    -0.00007480   -0.00069469    0.00018615
     atom   19 type  1   force =     0.00080278   -0.00065570   -0.00028904
     atom   20 type  1   force =    -0.00021797    0.00027438   -0.00045649
     atom   21 type  2   force =     0.00012854   -0.00007833    0.10215321
     atom   22 type  2   force =     0.00012355    0.00014103   -0.00003051
     atom   23 type  2   force =    -0.07475599    0.00031825   -0.03449872
     atom   24 type  2   force =     0.07483032    0.00076525   -0.03456725
     atom   25 type  1   force =     0.00009398   -0.00006929    0.14713044
     atom   26 type  1   force =     0.00001445   -0.00209100   -0.16943017
     atom   27 type  2   force =     0.00001662    0.00193296   -0.05936905
     atom   28 type  2   force =    -0.00028615   -0.00139751    0.03994742
     atom   29 type  2   force =    -0.02161040    0.00107709    0.00383621
     atom   30 type  2   force =     0.02036077   -0.00010827    0.00245216
     atom   31 type  1   force =     0.00013242    0.00017013    0.00130786
     atom   32 type  1   force =     0.00006671   -0.00024291    0.00117847
     atom   33 type  2   force =    -0.00010322   -0.00006447   -0.00055569
     atom   34 type  2   force =     0.00011021    0.00010519   -0.00066792
     atom   35 type  2   force =     0.00027084   -0.00040025    0.00076731
     atom   36 type  2   force =     0.00034617   -0.00045904    0.00083947
     atom   37 type  1   force =    -0.00059665   -0.00014541   -0.00055136
     atom   38 type  1   force =     0.00048429    0.00060096   -0.00035606
     atom   39 type  2   force =     0.00031770   -0.00004083   -0.00013567
     atom   40 type  2   force =    -0.00009601   -0.00013906    0.00178081
     atom   41 type  2   force =     0.00008871    0.00048573    0.00031886
     atom   42 type  2   force =    -0.00020124    0.00051327    0.00041833
     atom   43 type  1   force =     0.00042876    0.00056606   -0.00024350
     atom   44 type  1   force =    -0.00039844    0.00010867   -0.00000585
     atom   45 type  2   force =     0.00012041   -0.00010727    0.10207684
     atom   46 type  2   force =    -0.07474345   -0.00001798   -0.03446529
     atom   47 type  2   force =     0.07483457    0.00043932   -0.03456434
     atom   48 type  3   force =     0.00105852   -0.00065615   -0.00043092
     atom   49 type  4   force =    -0.00003494   -0.00010780   -0.00037694
     atom   50 type  4   force =    -0.00054043    0.00041774    0.00035701
     atom   51 type  2   force =     0.00023012    0.00103015   -0.00092976
     atom   52 type  4   force =     0.00057395    0.00014143    0.00036341
     atom   53 type  4   force =    -0.00059200    0.00019894    0.00041858

     Total force =     0.400369     Total SCF correction =     0.000689
  @ DRIVER MODE: Message from server: STATUS
  @ DRIVER MODE: Message from server: GETFORCE
  @ DRIVER MODE: Returning v,forces,stress,ensemble

     Writing output data file ./calc.save/
  @ DRIVER MODE: Message from server: EXIT
  @ DRIVE MODE: Exiting

     General routines

     Parallel routines

   This run was terminated on:  20:23:14  15Sep2021

   JOB DONE.