     Program PWSCF v.6.7GPU starts on 16Sep2021 at  3:46:45

     R & G space division:  proc/nbgrp/npool/nimage =      10
     Reading input from /storage/home/hcoda1/3/ntian30/research/carbon/CxH_vib/H2O_calc/ads_slab/CHOHH2O_a/out_0036/pw.inp
Warning: card &CELL ignored
Warning: card   CELL_DYNAMICS='IPI', ignored
Warning: card / ignored

     Current dimensions of program PWSCF are:
     Max number of different atomic species (ntypx) = 10
     Max number of k-points (npk) =  40000
     Max angular momentum in pseudopotentials (lmaxx) =  3
     Presently no symmetry can be used with electric field

     Message from routine cell_base_init:
     DEPRECATED: use true lattice parameter, not A to a.u. conversion factor

     IMPORTANT: XC functional enforced from input :
     Exchange-correlation= BEEF-VDW
                           (   1   4  43  14   2   0   0)
     Any further DFT definition will be discarded
     Please, verify this is what you really want

  @ DRIVER MODE: Connecting to
 qe_1139763_2852632.sched-torque.pace.gatech.edum_5lk5vv_scratch
  using UNIX socket
  @ DRIVER MODE: Message from server: STATUS
  @ DRIVER MODE: Message from server: INIT
  @ DRIVER MODE: Receiving replica           0          -1
  @ DRIVER MODE: Receiving encoded integer          25
  @ DRIVER MODE:  SCF:  T  FORCE:  T  STRESS:  F  VC:  F  ENSEMBLE:  F
  @ DRIVER MODE:  SCF:  T  FORCE:  T  STRESS:  F  VC:  F  ENSEMBLE:  F

     Using Slab Decomposition

     bravais-lattice index     =            0
     lattice parameter (alat)  =       1.8897  a.u.
     unit-cell volume          =    6658.9804 (a.u.)^3
     number of atoms/cell      =           54
     number of atomic types    =            4
     number of electrons       =       398.00
     number of Kohn-Sham states=          209
     kinetic-energy cutoff     =      29.3995  Ry
     charge density cutoff     =     293.9946  Ry
     scf convergence threshold =      7.3E-08
     mixing beta               =       0.0500
     number of iterations used =            8  plain     mixing
     Exchange-correlation= BEEF-VDW
                           (   1   4  43  14   2   0   0)

     celldm(1)=   1.889726  celldm(2)=   0.000000  celldm(3)=   0.000000
     celldm(4)=   0.000000  celldm(5)=   0.000000  celldm(6)=   0.000000

     crystal axes: (cart. coord. in units of alat)
               a(1) = (   6.579727   0.000000   0.000000 )
               a(2) = (  -0.000775   5.961596   0.000000 )
               a(3) = (   0.000000   0.000000  25.155947 )

     reciprocal axes: (cart. coord. in units 2 pi/alat)
               b(1) = (  0.151982  0.000020  0.000000 )
               b(2) = (  0.000000  0.167740  0.000000 )
               b(3) = (  0.000000  0.000000  0.039752 )

     PseudoPot. # 1 for Ti read from file:
     /storage/coda1/p-amedford6/0/shared/rich_project_chbe-medford/medford-share/data/pseudos_module/espresso/nninc/pbe/van/Ti.UPF
     MD5 check sum: 8e4df49b7f0d34bbd5052bf3f5ea0213
     Pseudo is Ultrasoft, Zval = 12.0
     Generated by new atomic code, or converted to UPF format
     Using radial grid of  851 points,  6 beta functions with:
                l(1) =   0
                l(2) =   0
                l(3) =   1
                l(4) =   1
                l(5) =   2
                l(6) =   2
     Q(r) pseudized with  8 coefficients,  rinner =    1.000   1.000   1.000
                                                       1.000   1.000

     PseudoPot. # 2 for O  read from file:
     /storage/coda1/p-amedford6/0/shared/rich_project_chbe-medford/medford-share/data/pseudos_module/espresso/nninc/pbe/van/O.UPF
     MD5 check sum: 78c19812648e8988a0fe644b0f25305e
     Pseudo is Ultrasoft, Zval =  6.0
     Generated by new atomic code, or converted to UPF format
     Using radial grid of  737 points,  4 beta functions with:
                l(1) =   0
                l(2) =   0
                l(3) =   1
                l(4) =   1
     Q(r) pseudized with  8 coefficients,  rinner =    0.800   0.800   0.800

     PseudoPot. # 3 for C  read from file:
     /storage/coda1/p-amedford6/0/shared/rich_project_chbe-medford/medford-share/data/pseudos_module/espresso/nninc/pbe/van/C.UPF
     MD5 check sum: 1a69bf6b8db32088f5b2163dbdb77a27
     Pseudo is Ultrasoft, Zval =  4.0
     Generated by new atomic code, or converted to UPF format
     Using radial grid of  721 points,  4 beta functions with:
                l(1) =   0
                l(2) =   0
                l(3) =   1
                l(4) =   1
     Q(r) pseudized with  8 coefficients,  rinner =    0.800   0.800   0.800

     PseudoPot. # 4 for H  read from file:
     /storage/coda1/p-amedford6/0/shared/rich_project_chbe-medford/medford-share/data/pseudos_module/espresso/nninc/pbe/van/H.UPF
     MD5 check sum: b5ee9d7bfd3a09ee7748110bda690ff7
     Pseudo is Ultrasoft, Zval =  1.0
     Generated by new atomic code, or converted to UPF format
     Using radial grid of  615 points,  1 beta functions with:
                l(1) =   0
     Q(r) pseudized with  8 coefficients,  rinner =    0.800

     atomic species   valence    mass     pseudopotential
        Ti1           12.00    47.86700     Ti( 1.00)
        O1             6.00    15.99900     O ( 1.00)
        C1             4.00    12.01100     C ( 1.00)
        H1             1.00     1.00800     H ( 1.00)

     No symmetry found

   Cartesian axes

     site n.     atom                  positions (alat units)
         1           Ti1 tau(   1) = (   0.0004258   2.9801865   6.0000000  )
         2           Ti1 tau(   2) = (   3.2906075   1.4906267   6.0002472  )
         3           O1  tau(   3) = (   0.0006271   0.0005054   7.9858123  )
         4           O1  tau(   4) = (   3.2906025   0.0005020   7.3038282  )
         5           O1  tau(   5) = (   4.5942328   1.4918067   9.2879030  )
         6           O1  tau(   6) = (   1.9868534   1.4903216   9.2879459  )
         7           Ti1 tau(   7) = (   3.3203992   3.0065636   9.1614972  )
         8           Ti1 tau(   8) = (   0.0364112   1.5055733   9.2692997  )
         9           O1  tau(   9) = (   3.3037507   0.0048223  11.3846665  )
        10           O1  tau(  10) = (   0.0023770   0.0017864  10.5989407  )
        11           O1  tau(  11) = (   1.2986710   1.4943985  12.6419360  )
        12           O1  tau(  12) = (   5.3019195   1.4930987  12.6558330  )
        13           Ti1 tau(  13) = (   0.0201679   2.9954199  12.5459836  )
        14           Ti1 tau(  14) = (   3.3085843   1.4996073  12.5278567  )
        15           O1  tau(  15) = (   0.0306707   0.0063333  14.6434371  )
        16           O1  tau(  16) = (   3.2901280   5.9588824  14.0411263  )
        17           O1  tau(  17) = (   4.5937705   1.5245028  16.1210063  )
        18           O1  tau(  18) = (   2.0412355   1.5396885  16.1535958  )
        19           Ti1 tau(  19) = (   3.3250740   2.9785215  15.7238461  )
        20           Ti1 tau(  20) = (   0.0142243   1.3716099  15.9029131  )
        21           O1  tau(  21) = (   3.2904802   0.0005063   4.7018136  )
        22           O1  tau(  22) = (   0.0234726   5.9563001  17.1693433  )
        23           O1  tau(  23) = (   1.3043587   1.4918075   6.0039043  )
        24           O1  tau(  24) = (   5.2767064   1.4903225   6.0039473  )
        25           Ti1 tau(  25) = (   0.0000382   5.9609847   6.0000000  )
        26           Ti1 tau(  26) = (   3.2902200   4.4714249   6.0002472  )
        27           O1  tau(  27) = (   0.0002396   2.9813036   7.9858123  )
        28           O1  tau(  28) = (   3.2902150   2.9813002   7.3038282  )
        29           O1  tau(  29) = (   4.5938453   4.4726049   9.2879030  )
        30           O1  tau(  30) = (   1.9864658   4.4711199   9.2879459  )
        31           Ti1 tau(  31) = (   3.3166040   0.0254347   9.1556988  )
        32           Ti1 tau(  32) = (   0.0362352   4.4699824   9.2670842  )
        33           O1  tau(  33) = (   3.3035804   2.9865095  11.3763011  )
        34           O1  tau(  34) = (   0.0042610   2.9829788  10.6236548  )
        35           O1  tau(  35) = (   1.2977823   4.4749822  12.6434080  )
        36           O1  tau(  36) = (   5.3021498   4.4756442  12.6578133  )
        37           Ti1 tau(  37) = (   0.0128731   0.0155586  12.4748574  )
        38           Ti1 tau(  38) = (   3.3087006   4.4877506  12.5360639  )
        39           O1  tau(  39) = (   0.0289868   2.9802581  14.8446641  )
        40           O1  tau(  40) = (   3.2975897   2.9808645  13.9396156  )
        41           O1  tau(  41) = (   4.5936103   4.4348319  16.1149158  )
        42           O1  tau(  42) = (   2.0365336   4.4144103  16.1518429  )
        43           Ti1 tau(  43) = (   3.2980932   5.9591119  15.8729608  )
        44           Ti1 tau(  44) = (   0.0070259   4.5936845  15.8821292  )
        45           O1  tau(  45) = (   3.2900926   2.9813045   4.7018136  )
        46           O1  tau(  46) = (   1.3039711   4.4726057   6.0039043  )
        47           O1  tau(  47) = (   5.2763189   4.4711207   6.0039473  )
        48           C1  tau(  48) = (   6.0563806   2.9601134  19.0478501  )
        49           O1  tau(  49) = (   0.1703025   2.9720528  17.8813388  )
        50           H1  tau(  50) = (   5.0099104   2.8626262  18.6876999  )
        51           H1  tau(  51) = (   1.1251272   3.0566160  18.0647747  )
        52           O1  tau(  52) = (   3.2803433   5.9178330  18.2983259  )
        53           H1  tau(  53) = (   4.0549949   5.9397654  18.8887675  )
        54           H1  tau(  54) = (   2.4787048   0.0262026  18.8357284  )

     number of k points=    10  Fermi-Dirac smearing, width (Ry)=  0.0073
                       cart. coord. in units 2pi/alat
        k(    1) = (   0.0000000   0.0000000   0.0000000), wk =   0.1250000
        k(    2) = (   0.0000000   0.0419351   0.0000000), wk =   0.2500000
        k(    3) = (   0.0000000  -0.0838702   0.0000000), wk =   0.1250000
        k(    4) = (   0.0379955   0.0000049   0.0000000), wk =   0.2500000
        k(    5) = (   0.0379955   0.0419400   0.0000000), wk =   0.2500000
        k(    6) = (   0.0379955  -0.0838652   0.0000000), wk =   0.2500000
        k(    7) = (   0.0379955  -0.0419301   0.0000000), wk =   0.2500000
        k(    8) = (  -0.0759910  -0.0000099   0.0000000), wk =   0.1250000
        k(    9) = (  -0.0759910   0.0419252   0.0000000), wk =   0.2500000
        k(   10) = (  -0.0759910  -0.0838800   0.0000000), wk =   0.1250000

     Initial potential from superposition of free atoms

     starting charge  381.99917, renormalised to  398.00000

     negative rho (up, down):  1.669E-02 0.000E+00

     %%%%%%%%%%%%%%%%%%%%%%%%%%%%%%%%%%%%%%%%%%%%%%%%%%%%%%%%%%%%%%%%%%%%%%%%
     %                                                                      %
     % You are using vdW-DF, which was implemented by the Thonhauser group. %
     % Please cite the following two papers that made this development      %
     % possible and the two reviews that describe the various versions:     %
     %                                                                      %
     %   T. Thonhauser et al., PRL 115, 136402 (2015).                      %
     %   T. Thonhauser et al., PRB 76, 125112 (2007).                       %
     %   K. Berland et al., Rep. Prog. Phys. 78, 066501 (2015).             %
     %   D.C. Langreth et al., J. Phys.: Condens. Matter 21, 084203 (2009). %
     %                                                                      %
     %                                                                      %
     % If you are calculating the stress with vdW-DF, please also cite:     %
     %                                                                      %
     %   R. Sabatini et al., J. Phys.: Condens. Matter 24, 424209 (2012).   %
     %                                                                      %
     %%%%%%%%%%%%%%%%%%%%%%%%%%%%%%%%%%%%%%%%%%%%%%%%%%%%%%%%%%%%%%%%%%%%%%%%

     Adding external electric field

     Computed dipole along edir(3) :
        Dipole              -10.5139 Ry au,        -26.7236 Debye
        Dipole field         -0.0198 Ry au,

        Potential amp.        1.8392 Ry
        Total length         46.3494 bohr

     Starting wfcs are  300 atomic wfcs
  @ DRIVER MODE: Message from server: STATUS
  @ DRIVER MODE: Message from server: POSDATA
  @ DRIVER MODE: Reading and sharing cell
  @ DRIVER MODE: Reading and sharing positions
  @ DRIVER MODE: Received positions

     Self-consistent Calculation

     iteration #  1     ecut=    29.40 Ry     beta= 0.05
     Davidson diagonalization with overlap
     c_bands:  2 eigenvalues not converged
     c_bands:  3 eigenvalues not converged
     c_bands:  1 eigenvalues not converged
     c_bands:  4 eigenvalues not converged
     c_bands:  4 eigenvalues not converged
     c_bands:  4 eigenvalues not converged
     c_bands:  1 eigenvalues not converged
     c_bands:  3 eigenvalues not converged
     c_bands:  4 eigenvalues not converged
     ethr =  1.00E-05,  avg # of iterations = 19.9

[...]

     total energy              =   -2479.44463252 Ry
     estimated scf accuracy    <    5441.09753669 Ry

     iteration #  2     ecut=    29.40 Ry     beta= 0.05
     Davidson diagonalization with overlap
     ethr =  1.00E-02,  avg # of iterations = 25.6

[...]

     iteration # 59     ecut=    29.40 Ry     beta= 0.05
     Davidson diagonalization with overlap
     c_bands:  1 eigenvalues not converged
     ethr =  1.20E-10,  avg # of iterations = 14.1

[...]

     total energy              =   -2964.77939043 Ry
     estimated scf accuracy    <       0.00000039 Ry

     iteration # 61     ecut=    29.40 Ry     beta= 0.05
     Davidson diagonalization with overlap
     ethr =  9.83E-11,  avg # of iterations = 10.8

     negative rho (up, down):  1.518E-02 0.000E+00

     Adding external electric field

     Computed dipole along edir(3) :
        Dipole                0.7126 Ry au,          1.8112 Debye
        Dipole field          0.0013 Ry au,

        Potential amp.       -0.1247 Ry
        Total length         46.3494 bohr

     End of self-consistent calculation

          k = 0.0000 0.0000 0.0000 ( 18029 PWs)   bands (ev):

   -55.7037 -55.6908 -55.6674 -55.6655 -55.6563 -55.6055 -55.5541 -55.5524
   -55.5399 -55.5197 -55.5068 -55.4853 -55.4844 -55.4729 -54.7714 -54.7374
   -32.2642 -32.1848 -32.1814 -32.0866 -32.0494 -32.0298 -32.0185 -32.0083
   -31.9798 -31.9446 -31.9344 -31.9195 -31.8950 -31.8881 -31.8808 -31.8617
   -31.8444 -31.8437 -31.8405 -31.8332 -31.8170 -31.8061 -31.8057 -31.7964
   -31.7942 -31.7790 -31.7761 -31.7478 -31.7357 -31.7221 -31.7108 -31.7098
   -31.7047 -31.7007 -31.6946 -31.6864 -31.6543 -31.6527 -31.6477 -31.6440
   -31.6176 -31.5611 -31.1832 -31.0817 -31.0601 -30.9994 -30.9130 -30.8020
   -21.1356 -19.2317 -16.5224 -16.2804 -16.1376 -16.0343 -15.9297 -15.7972
   -15.7104 -15.5869 -15.5238 -15.3967 -15.3573 -15.3514 -15.3451 -15.3168
   -15.2956 -15.2728 -15.2488 -15.2081 -15.2036 -15.1999 -15.1710 -15.1589
   -15.1013 -15.0885 -15.0441 -14.9265 -14.8751 -14.8140 -14.4951 -13.2725
   -13.1534 -10.3397  -7.1667  -5.7000  -4.7251  -4.0143  -3.9498  -3.8157
    -3.7163  -3.6478  -3.6104  -3.5432  -3.4631  -3.2598  -3.1293  -3.1215
    -2.9888  -2.9521  -2.9074  -2.8063  -2.7403  -2.6782  -2.6680  -2.5920
    -2.5880  -2.5801  -2.5668  -2.4741  -2.4679  -2.4193  -2.3780  -2.2989
    -2.2631  -2.1461  -2.1155  -2.1064  -2.0629  -2.0471  -2.0404  -2.0278
    -1.9782  -1.9524  -1.9342  -1.9330  -1.7912  -1.7495  -1.6031  -1.4786
    -1.4453  -1.4316  -1.2979  -1.2655  -1.2489  -1.1911  -1.1707  -1.1611
    -1.1221  -1.0411  -0.9579  -0.9342  -0.8615  -0.8187  -0.7146  -0.6203
    -0.5755  -0.5265  -0.5046  -0.4953  -0.4759  -0.4107  -0.3633  -0.2768
    -0.2226  -0.1594  -0.1327  -0.1260  -0.0711  -0.0411   0.0389   0.0855
     0.1198   0.1342   0.2198   0.2342   0.2469   0.2783   0.2806   0.3936
     0.4474   0.5049   0.5112   0.6595   0.8271   0.8516   0.9313   1.1455
     1.2539   1.2565   1.4172   1.4740   1.8390   1.8932   3.3837   3.4538
     3.4883   3.5025   3.5118   3.5895   3.8195   3.8716   3.9032   3.9221
     3.9315

[...]

          k = 0.0380-0.0419 0.0000 ( 17876 PWs)   bands (ev):

[...]

          k =-0.0760-0.0000 0.0000 ( 17886 PWs)   bands (ev):

[...]

          k =-0.0760-0.0839 0.0000 ( 17948 PWs)   bands (ev):

   -55.6882 -55.6828 -55.6759 -55.6710 -55.6639 -55.5992 -55.5586 -55.5388
   -55.5347 -55.5331 -55.4911 -55.4909 -55.4888 -55.4868 -54.7543 -54.7543
   -32.1064 -32.0745 -32.0634 -32.0020 -31.9974 -31.9789 -31.9699 -31.9605
   -31.9585 -31.9341 -31.9329 -31.9081 -31.8988 -31.8704 -31.8570 -31.8553
   -31.8538 -31.8454 -31.8405 -31.8365 -31.8286 -31.8210 -31.8040 -31.8010
   -31.7983 -31.7962 -31.7959 -31.7949 -31.7914 -31.7835 -31.7811 -31.7517
   -31.7373 -31.7369 -31.7212 -31.7123 -31.7104 -31.7049 -31.6797 -31.6749
   -31.6736 -31.6504 -31.0726 -31.0726 -30.9960 -30.9957 -30.9563 -30.9561
   -21.1343 -19.2312 -16.1533 -15.9582 -15.8079 -15.7236 -15.7169 -15.6578
   -15.5776 -15.5363 -15.4904 -15.4785 -15.4685 -15.4337 -15.4248 -15.4130
   -15.3508 -15.3008 -15.2973 -15.2818 -15.2326 -15.2251 -15.2147 -15.2091
   -15.2004 -15.1574 -15.1530 -15.1385 -15.1277 -14.9838 -14.8266 -13.2548
   -13.2540 -10.3430  -7.1642  -5.7031  -4.7039  -3.9437  -3.8818  -3.2335
    -3.2308  -2.9698  -2.9472  -2.8886  -2.8770  -2.8129  -2.7817  -2.7058
    -2.6995  -2.6541  -2.6139  -2.6056  -2.5926  -2.5683  -2.5351  -2.5214
    -2.4798  -2.4695  -2.4440  -2.4395  -2.4206  -2.4046  -2.3797  -2.3737
    -2.3415  -2.3213  -2.3134  -2.3094  -2.2326  -2.1705  -2.0476  -2.0259
    -1.9848  -1.9359  -1.9203  -1.8497  -1.8140  -1.7992  -1.7415  -1.7069
    -1.6801  -1.5074  -1.4955  -1.4751  -1.3838  -1.3513  -1.3367  -1.3093
    -1.2524  -1.2254  -1.2211  -1.1436  -1.0323  -1.0088  -0.9112  -0.8653
    -0.8641  -0.7758  -0.7422  -0.7038  -0.7018  -0.6645  -0.6082  -0.5865
    -0.5293  -0.5231  -0.4757  -0.4555  -0.4320  -0.4009  -0.2281  -0.1731
    -0.1174  -0.0203   0.0088   0.2363   0.2674   0.2740   0.3398   0.3702
     0.4764   0.4979   0.5607   0.5756   0.6769   0.7091   0.7252   0.7301
     0.7765   1.4808   1.6057   1.6084   1.7073   1.7109   3.5331   3.5474
     3.6488   3.7008   3.7382   3.8418   3.8906   3.9229   3.9304   3.9456
     4.0203

     the Fermi energy is     3.4317 ev

!    total energy              =   -2964.77943095 Ry
     estimated scf accuracy    <       0.00000006 Ry
     smearing contrib. (-TS)   =      -0.03745473 Ry
     internal energy E=F+TS    =   -2964.74197623 Ry

     The total energy is F=E-TS. E is the sum of the following terms:
     one-electron contribution =  -24111.88911486 Ry
     hartree contribution      =   12146.17517583 Ry
     xc contribution           =    -490.01482017 Ry
     ewald contribution        =    9490.98582471 Ry
     electric field correction =       0.00095826 Ry

     convergence has been achieved in  61 iterations

     Forces acting on atoms (cartesian axes, Ry/au):

     atom    1 type  1   force =    -0.00035114   -0.00001906    0.09252794
     atom    2 type  1   force =    -0.00033212    0.00121612   -0.18262596
     atom    3 type  2   force =     0.00043735    0.00023356   -0.02456175
     atom    4 type  2   force =     0.00073575    0.00044841    0.05162119
     atom    5 type  2   force =    -0.01466103   -0.00007451    0.00466909
     atom    6 type  2   force =     0.01553420   -0.00056627    0.00542030
     atom    7 type  1   force =    -0.00050624   -0.00016958    0.00011533
     atom    8 type  1   force =     0.00022456    0.00005755    0.00021601
     atom    9 type  2   force =    -0.00016927   -0.00017701   -0.00031510
     atom   10 type  2   force =     0.00006302   -0.00003977    0.00031242
     atom   11 type  2   force =    -0.00031463    0.00020652    0.00002332
     atom   12 type  2   force =     0.00038474    0.00007773   -0.00022324
     atom   13 type  1   force =    -0.00021011   -0.00025790    0.00022372
     atom   14 type  1   force =     0.00013845   -0.00020758   -0.00046919
     atom   15 type  2   force =    -0.00031875    0.00033267   -0.00016208
     atom   16 type  2   force =     0.00007936    0.00001642   -0.00024581
     atom   17 type  2   force =    -0.00013385   -0.00011020    0.00011957
     atom   18 type  2   force =     0.00016922   -0.00010885   -0.00025093
     atom   19 type  1   force =    -0.00090186    0.00006501   -0.00029999
     atom   20 type  1   force =     0.00032768    0.00003321    0.00007642
     atom   21 type  2   force =    -0.00009722    0.00006133    0.10488660
     atom   22 type  2   force =    -0.00028740   -0.00001219    0.00036665
     atom   23 type  2   force =    -0.06835083    0.00002999   -0.02693578
     atom   24 type  2   force =     0.06804439    0.00046524   -0.02700978
     atom   25 type  1   force =    -0.00030583   -0.00002369    0.09720106
     atom   26 type  1   force =    -0.00030526   -0.00120024   -0.18267318
     atom   27 type  2   force =     0.00035191    0.00023619   -0.02298200
     atom   28 type  2   force =     0.00081347    0.00042577    0.05200718
     atom   29 type  2   force =    -0.01464286    0.00064802    0.00459372
     atom   30 type  2   force =     0.01565822    0.00039921    0.00532485
     atom   31 type  1   force =    -0.00046761   -0.00000781    0.00013850
     atom   32 type  1   force =     0.00022721    0.00006223    0.00019804
     atom   33 type  2   force =    -0.00008734    0.00013117    0.00015505
     atom   34 type  2   force =     0.00001390    0.00001326    0.00016317
     atom   35 type  2   force =    -0.00015009   -0.00030256    0.00011304
     atom   36 type  2   force =     0.00021809   -0.00019665   -0.00011979
     atom   37 type  1   force =    -0.00030010    0.00016591   -0.00046637
     atom   38 type  1   force =     0.00013051    0.00036592   -0.00036238
     atom   39 type  2   force =    -0.00034538   -0.00027821   -0.00023231
     atom   40 type  2   force =     0.00017964   -0.00008293   -0.00003588
     atom   41 type  2   force =    -0.00037402   -0.00013717   -0.00024221
     atom   42 type  2   force =     0.00039286   -0.00012922   -0.00059332
     atom   43 type  1   force =    -0.00074209   -0.00025570   -0.00002027
     atom   44 type  1   force =     0.00031373   -0.00060394    0.00012850
     atom   45 type  2   force =    -0.00007170    0.00005265    0.10478802
     atom   46 type  2   force =    -0.06832940   -0.00060566   -0.02692147
     atom   47 type  2   force =     0.06802784   -0.00013850   -0.02699668
     atom   48 type  3   force =    -0.00010564   -0.00009268   -0.00024243
     atom   49 type  2   force =    -0.00013010   -0.00000487   -0.00002633
     atom   50 type  4   force =     0.00018305    0.00018919   -0.00015994
     atom   51 type  4   force =     0.00018113   -0.00008232   -0.00014201
     atom   52 type  2   force =     0.00922588   -0.00079803    0.00920156
     atom   53 type  4   force =    -0.00860644    0.00026039   -0.00823389
     atom   54 type  4   force =    -0.00045787    0.00048944   -0.00104118

     Total force =     0.368870     Total SCF correction =     0.000496
  @ DRIVER MODE: Message from server: STATUS
  @ DRIVER MODE: Message from server: GETFORCE
  @ DRIVER MODE: Returning v,forces,stress,ensemble

     Writing output data file ./calc.save/
  @ DRIVER MODE: Message from server: EXIT
  @ DRIVE MODE: Exiting

     General routines

     Parallel routines

   This run was terminated on:   4: 3:42  16Sep2021

   JOB DONE.