     Program PWSCF v.6.7GPU starts on 17Jul2021 at  8: 3:59

     R & G space division:  proc/nbgrp/npool/nimage =      16
     Reading input from /storage/home/hcoda1/3/ntian30/research/carbon/15Jul_vib/ads_slab/CH3NNHHH_a/out_0048/pw.inp
Warning: card &CELL ignored
Warning: card   CELL_DYNAMICS='IPI', ignored
Warning: card / ignored

     Current dimensions of program PWSCF are:
     Max number of different atomic species (ntypx) = 10
     Max number of k-points (npk) =  40000
     Max angular momentum in pseudopotentials (lmaxx) =  3
     Presently no symmetry can be used with electric field

     Message from routine cell_base_init:
     DEPRECATED: use true lattice parameter, not A to a.u. conversion factor

     IMPORTANT: XC functional enforced from input :
     Exchange-correlation= BEEF-VDW
                           (   1   4  43  14   2   0   0)
     Any further DFT definition will be discarded
     Please, verify this is what you really want

  @ DRIVER MODE: Connecting to
 qe_1139763_2351652.sched-torque.pace.gatech.eduhbjdyybv_scratch
  using UNIX socket
  @ DRIVER MODE: Message from server: STATUS
  @ DRIVER MODE: Message from server: INIT
  @ DRIVER MODE: Receiving replica           0          -1
  @ DRIVER MODE: Receiving encoded integer          25
  @ DRIVER MODE:  SCF:  T  FORCE:  T  STRESS:  F  VC:  F  ENSEMBLE:  F
  @ DRIVER MODE:  SCF:  T  FORCE:  T  STRESS:  F  VC:  F  ENSEMBLE:  F

     Using Slab Decomposition

     bravais-lattice index     =            0
     lattice parameter (alat)  =       1.8897  a.u.
     unit-cell volume          =    6658.9804 (a.u.)^3
     number of atoms/cell      =           56
     number of atomic types    =            5
     number of electrons       =       398.00
     number of Kohn-Sham states=          209
     kinetic-energy cutoff     =      29.3995  Ry
     charge density cutoff     =     293.9946  Ry
     scf convergence threshold =      7.3E-08
     mixing beta               =       0.0500
     number of iterations used =            8  plain     mixing
     Exchange-correlation= BEEF-VDW
                           (   1   4  43  14   2   0   0)

     celldm(1)=   1.889726  celldm(2)=   0.000000  celldm(3)=   0.000000
     celldm(4)=   0.000000  celldm(5)=   0.000000  celldm(6)=   0.000000

     crystal axes: (cart. coord. in units of alat)
               a(1) = (   6.579727   0.000000   0.000000 )
               a(2) = (  -0.000775   5.961596   0.000000 )
               a(3) = (   0.000000   0.000000  25.155947 )

     reciprocal axes: (cart. coord. in units 2 pi/alat)
               b(1) = (  0.151982  0.000020  0.000000 )
               b(2) = (  0.000000  0.167740  0.000000 )
               b(3) = (  0.000000  0.000000  0.039752 )

     PseudoPot. # 1 for Ti read from file:
     /storage/coda1/p-amedford6/0/shared/rich_project_chbe-medford/medford-share/data/pseudos_module/espresso/nninc/pbe/van/Ti.UPF
     MD5 check sum: 8e4df49b7f0d34bbd5052bf3f5ea0213
     Pseudo is Ultrasoft, Zval = 12.0
     Generated by new atomic code, or converted to UPF format
     Using radial grid of  851 points,  6 beta functions with:
                l(1) =   0
                l(2) =   0
                l(3) =   1
                l(4) =   1
                l(5) =   2
                l(6) =   2
     Q(r) pseudized with  8 coefficients,  rinner =    1.000   1.000   1.000
                                                       1.000   1.000

     PseudoPot. # 2 for O  read from file:
     /storage/coda1/p-amedford6/0/shared/rich_project_chbe-medford/medford-share/data/pseudos_module/espresso/nninc/pbe/van/O.UPF
     MD5 check sum: 78c19812648e8988a0fe644b0f25305e
     Pseudo is Ultrasoft, Zval =  6.0
     Generated by new atomic code, or converted to UPF format
     Using radial grid of  737 points,  4 beta functions with:
                l(1) =   0
                l(2) =   0
                l(3) =   1
                l(4) =   1
     Q(r) pseudized with  8 coefficients,  rinner =    0.800   0.800   0.800

     PseudoPot. # 3 for N  read from file:
     /storage/coda1/p-amedford6/0/shared/rich_project_chbe-medford/medford-share/data/pseudos_module/espresso/nninc/pbe/van/N.UPF
     MD5 check sum: 90d10febe142ad51ac9d5be1deb811c4
     Pseudo is Ultrasoft, Zval =  5.0
     Generated by new atomic code, or converted to UPF format
     Using radial grid of  729 points,  4 beta functions with:
                l(1) =   0
                l(2) =   0
                l(3) =   1
                l(4) =   1
     Q(r) pseudized with  8 coefficients,  rinner =    0.800   0.800   0.800

     PseudoPot. # 4 for C  read from file:
     /storage/coda1/p-amedford6/0/shared/rich_project_chbe-medford/medford-share/data/pseudos_module/espresso/nninc/pbe/van/C.UPF
     MD5 check sum: 1a69bf6b8db32088f5b2163dbdb77a27
     Pseudo is Ultrasoft, Zval =  4.0
     Generated by new atomic code, or converted to UPF format
     Using radial grid of  721 points,  4 beta functions with:
                l(1) =   0
                l(2) =   0
                l(3) =   1
                l(4) =   1
     Q(r) pseudized with  8 coefficients,  rinner =    0.800   0.800   0.800

     PseudoPot. # 5 for H  read from file:
     /storage/coda1/p-amedford6/0/shared/rich_project_chbe-medford/medford-share/data/pseudos_module/espresso/nninc/pbe/van/H.UPF
     MD5 check sum: b5ee9d7bfd3a09ee7748110bda690ff7
     Pseudo is Ultrasoft, Zval =  1.0
     Generated by new atomic code, or converted to UPF format
     Using radial grid of  615 points,  1 beta functions with:
                l(1) =   0
     Q(r) pseudized with  8 coefficients,  rinner =    0.800

     atomic species   valence    mass     pseudopotential
        Ti1           12.00    47.86700     Ti( 1.00)
        O1             6.00    15.99900     O ( 1.00)
        N1             5.00    14.00700     N ( 1.00)
        C1             4.00    12.01100     C ( 1.00)
        H1             1.00     1.00800     H ( 1.00)

     Starting magnetic structure
     atomic species   magnetization
        Ti1          0.000
        O1           0.000
        N1           0.000
        C1           0.025
        H1           0.000

     No symmetry found

   Cartesian axes

     site n.     atom                  positions (alat units)
         1           Ti1 tau(   1) = (   0.0004258   2.9801865   6.0000000  )
         2           Ti1 tau(   2) = (   3.2906075   1.4906267   6.0002472  )
         3           O1  tau(   3) = (   0.0006271   0.0005054   7.9858123  )
         4           O1  tau(   4) = (   3.2906025   0.0005020   7.3038282  )
         5           O1  tau(   5) = (   4.5942328   1.4918067   9.2879030  )
         6           O1  tau(   6) = (   1.9868534   1.4903216   9.2879459  )
         7           Ti1 tau(   7) = (   3.2907910   2.8959150   9.1758416  )
         8           Ti1 tau(   8) = (   0.0015273   1.4827037   9.2680791  )
         9           O1  tau(   9) = (   3.2969863   5.9453513  11.3493076  )
        10           O1  tau(  10) = (   0.0116148   5.9584955  10.6183126  )
        11           O1  tau(  11) = (   1.3059050   1.4736943  12.6642453  )
        12           O1  tau(  12) = (   5.3003793   1.4775083  12.6459419  )
        13           Ti1 tau(  13) = (   0.0167275   2.9625105  12.5508078  )
        14           Ti1 tau(  14) = (   3.3131340   1.4712512  12.4909780  )
        15           O1  tau(  15) = (   6.5517612   5.9325698  14.7566896  )
        16           O1  tau(  16) = (   3.3302114   5.9429442  13.9823395  )
        17           O1  tau(  17) = (   4.5243935   1.5056208  16.2316672  )
        18           O1  tau(  18) = (   2.0170937   1.4633510  16.1378485  )
        19           Ti1 tau(  19) = (   3.2500237   2.9242626  15.6920970  )
        20           Ti1 tau(  20) = (   6.5441017   1.2779805  16.1516014  )
        21           O1  tau(  21) = (   3.2904802   0.0005063   4.7018136  )
        22           O1  tau(  22) = (   6.5540411   5.9581837  17.3465722  )
        23           O1  tau(  23) = (   1.3043587   1.4918075   6.0039043  )
        24           O1  tau(  24) = (   5.2767064   1.4903225   6.0039473  )
        25           Ti1 tau(  25) = (   0.0000382   5.9609847   6.0000000  )
        26           Ti1 tau(  26) = (   3.2902200   4.4714249   6.0002472  )
        27           O1  tau(  27) = (   0.0002396   2.9813036   7.9858123  )
        28           O1  tau(  28) = (   3.2902150   2.9813002   7.3038282  )
        29           O1  tau(  29) = (   4.5938453   4.4726049   9.2879030  )
        30           O1  tau(  30) = (   1.9864658   4.4711199   9.2879459  )
        31           Ti1 tau(  31) = (   3.2891106   5.8743827   9.1763621  )
        32           Ti1 tau(  32) = (   0.0006254   4.4649316   9.2693709  )
        33           O1  tau(  33) = (   3.2962403   2.9651072  11.3429128  )
        34           O1  tau(  34) = (   0.0092240   2.9805883  10.6323155  )
        35           O1  tau(  35) = (   1.3076126   4.4641214  12.6643835  )
        36           O1  tau(  36) = (   5.2981430   4.4591552  12.6429889  )
        37           Ti1 tau(  37) = (   0.0194730   5.9489450  12.5196332  )
        38           Ti1 tau(  38) = (   3.3150505   4.4522436  12.4946186  )
        39           O1  tau(  39) = (   6.5702761   2.9869041  14.8038460  )
        40           O1  tau(  40) = (   3.3119818   2.9576719  13.9204832  )
        41           O1  tau(  41) = (   4.5223198   4.3950437  16.2490866  )
        42           O1  tau(  42) = (   2.0356696   4.4339808  16.1311045  )
        43           Ti1 tau(  43) = (   3.3057863   5.9493229  15.7677403  )
        44           Ti1 tau(  44) = (   0.0958844   4.4293496  15.8701971  )
        45           O1  tau(  45) = (   3.2900926   2.9813045   4.7018136  )
        46           O1  tau(  46) = (   1.3039711   4.4726057   6.0039043  )
        47           O1  tau(  47) = (   5.2763189   4.4711207   6.0039473  )
        48           N1  tau(  48) = (   0.0620580   3.0375546  17.6897758  )
        49           C1  tau(  49) = (   1.1116374   2.9693208  18.6984743  )
        50           H1  tau(  50) = (   1.2951007   3.9532040  19.1583453  )
        51           H1  tau(  51) = (   0.8627774   2.2426413  19.4871689  )
        52           H1  tau(  52) = (   2.0263963   2.6228967  18.2308865  )
        53           N1  tau(  53) = (   5.4279256   3.3744730  18.4033390  )
        54           H1  tau(  54) = (   5.6103604   4.1199394  19.0852601  )
        55           H1  tau(  55) = (   4.7934260   3.8076565  17.6495878  )
        56           H1  tau(  56) = (   5.0090149   2.5598412  18.8678436  )

     number of k points=    10  Fermi-Dirac smearing, width (Ry)=  0.0073
                       cart. coord. in units 2pi/alat
        k(    1) = (   0.0000000   0.0000000   0.0000000), wk =   0.0625000
        k(    2) = (   0.0000000   0.0419351   0.0000000), wk =   0.1250000
        k(    3) = (   0.0000000  -0.0838702   0.0000000), wk =   0.0625000
        k(    4) = (   0.0379955   0.0000049   0.0000000), wk =   0.1250000
        k(    5) = (   0.0379955   0.0419400   0.0000000), wk =   0.1250000
[...]
     % Please cite the following two papers that made this development      %
     % possible and the two reviews that describe the various versions:     %
     %                                                                      %
     %   T. Thonhauser et al., PRL 115, 136402 (2015).                      %
     %   T. Thonhauser et al., PRB 76, 125112 (2007).                       %
     %   K. Berland et al., Rep. Prog. Phys. 78, 066501 (2015).             %
     %   D.C. Langreth et al., J. Phys.: Condens. Matter 21, 084203 (2009). %
     %                                                                      %
     %                                                                      %
     % If you are calculating the stress with vdW-DF, please also cite:     %
     %                                                                      %
     %   R. Sabatini et al., J. Phys.: Condens. Matter 24, 424209 (2012).   %
     %                                                                      %
     %%%%%%%%%%%%%%%%%%%%%%%%%%%%%%%%%%%%%%%%%%%%%%%%%%%%%%%%%%%%%%%%%%%%%%%%

     Adding external electric field

     Computed dipole along edir(3) :
        Dipole              -10.5737 Ry au,        -26.8756 Debye
        Dipole field         -0.0200 Ry au,

        Potential amp.        1.8497 Ry
        Total length         46.3494 bohr

[...]

     Starting wfcs are  302 atomic wfcs
  @ DRIVER MODE: Message from server: STATUS
  @ DRIVER MODE: Message from server: POSDATA
  @ DRIVER MODE: Reading and sharing cell
  @ DRIVER MODE: Reading and sharing positions
  @ DRIVER MODE: Received positions

     Self-consistent Calculation

     iteration #  1     ecut=    29.40 Ry     beta= 0.05
     Davidson diagonalization with overlap
     c_bands:  4 eigenvalues not converged
     c_bands:  2 eigenvalues not converged
     c_bands:  1 eigenvalues not converged
     c_bands:  4 eigenvalues not converged
     c_bands:  5 eigenvalues not converged
     c_bands:  5 eigenvalues not converged
     c_bands:  1 eigenvalues not converged
     c_bands:  5 eigenvalues not converged
     c_bands:  3 eigenvalues not converged
     c_bands:  3 eigenvalues not converged
     c_bands:  3 eigenvalues not converged
     c_bands:  1 eigenvalues not converged
     c_bands:  4 eigenvalues not converged
     c_bands:  5 eigenvalues not converged
     c_bands:  5 eigenvalues not converged
     c_bands:  5 eigenvalues not converged
     c_bands:  3 eigenvalues not converged
     ethr =  1.00E-05,  avg # of iterations = 20.0

[...]

     total energy              =   -2443.26672051 Ry
     estimated scf accuracy    <    5586.13279498 Ry

     total magnetization       =     0.00 Bohr mag/cell
     absolute magnetization    =     0.01 Bohr mag/cell

     iteration #  2     ecut=    29.40 Ry     beta= 0.05
     Davidson diagonalization with overlap
     ethr =  1.00E-02,  avg # of iterations = 24.6

[...]

     iteration #100     ecut=    29.40 Ry     beta= 0.05
     Davidson diagonalization with overlap
     ethr =  3.17E-11,  avg # of iterations = 11.2

[...]

     total energy              =   -2942.82550216 Ry
     estimated scf accuracy    <       0.00000008 Ry

[...]

     iteration #103     ecut=    29.40 Ry     beta= 0.05
     Davidson diagonalization with overlap
     c_bands:  1 eigenvalues not converged
     c_bands:  1 eigenvalues not converged
     ethr =  1.98E-11,  avg # of iterations = 14.6

     negative rho (up, down):  7.193E-03 7.189E-03

[...]

     Adding external electric field

     Computed dipole along edir(3) :
        Dipole                1.6162 Ry au,          4.1079 Debye
        Dipole field          0.0030 Ry au,

        Potential amp.       -0.2827 Ry
        Total length         46.3494 bohr

     Magnetic moment per site  (integrated on atomic sphere of radius R)
     atom   1 (R=0.723)  charge=  7.9140  magn=  0.0012
     atom   2 (R=0.723)  charge=  7.8963  magn= -0.0000
     atom   3 (R=0.636)  charge=  4.2398  magn= -0.0002
     atom   4 (R=0.636)  charge=  4.2689  magn= -0.0000
     atom   5 (R=0.636)  charge=  4.2452  magn= -0.0001
     atom   6 (R=0.636)  charge=  4.2453  magn= -0.0001
     atom   7 (R=0.723)  charge=  7.8964  magn=  0.0002
     atom   8 (R=0.723)  charge=  7.8945  magn=  0.0016
     atom   9 (R=0.636)  charge=  4.2559  magn= -0.0003
     atom  10 (R=0.636)  charge=  4.2439  magn= -0.0002
     atom  11 (R=0.636)  charge=  4.2407  magn= -0.0003
     atom  12 (R=0.636)  charge=  4.2430  magn= -0.0003
     atom  13 (R=0.723)  charge=  7.8926  magn=  0.0013
     atom  14 (R=0.723)  charge=  7.9039  magn=  0.0019
     atom  15 (R=0.636)  charge=  4.2412  magn=  0.0000
     atom  16 (R=0.636)  charge=  4.2472  magn= -0.0002
     atom  17 (R=0.636)  charge=  4.2348  magn=  0.0000
     atom  18 (R=0.636)  charge=  4.2351  magn=  0.0000
     atom  19 (R=0.723)  charge=  7.9503  magn= -0.0007
     atom  20 (R=0.723)  charge=  7.9298  magn= -0.0003
     atom  21 (R=0.636)  charge=  4.1589  magn=  0.0001
     atom  22 (R=0.636)  charge=  4.2073  magn=  0.0001
     atom  23 (R=0.636)  charge=  4.2389  magn= -0.0001
     atom  24 (R=0.636)  charge=  4.2390  magn= -0.0001
     atom  25 (R=0.723)  charge=  7.9141  magn=  0.0012
     atom  26 (R=0.723)  charge=  7.8963  magn= -0.0000
     atom  27 (R=0.636)  charge=  4.2394  magn= -0.0002
     atom  28 (R=0.636)  charge=  4.2691  magn= -0.0000
     atom  29 (R=0.636)  charge=  4.2457  magn= -0.0001
     atom  30 (R=0.636)  charge=  4.2458  magn= -0.0001
     atom  31 (R=0.723)  charge=  7.8969  magn=  0.0002
     atom  32 (R=0.723)  charge=  7.8947  magn=  0.0016
     atom  33 (R=0.636)  charge=  4.2542  magn= -0.0003
     atom  34 (R=0.636)  charge=  4.2369  magn= -0.0002
     atom  35 (R=0.636)  charge=  4.2404  magn= -0.0003
     atom  36 (R=0.636)  charge=  4.2431  magn= -0.0003
     atom  37 (R=0.723)  charge=  7.8964  magn=  0.0013
     atom  38 (R=0.723)  charge=  7.9034  magn=  0.0019
     atom  39 (R=0.636)  charge=  4.2241  magn=  0.0000
     atom  40 (R=0.636)  charge=  4.2661  magn= -0.0001
     atom  41 (R=0.636)  charge=  4.2334  magn=  0.0000
     atom  42 (R=0.636)  charge=  4.2450  magn=  0.0000
     atom  43 (R=0.723)  charge=  7.9398  magn= -0.0006
     atom  44 (R=0.723)  charge=  7.9261  magn= -0.0002
     atom  45 (R=0.636)  charge=  4.1589  magn=  0.0001
     atom  46 (R=0.636)  charge=  4.2389  magn= -0.0001
     atom  47 (R=0.636)  charge=  4.2390  magn= -0.0001
     atom  48 (R=0.423)  charge=  1.3356  magn=  0.0000
     atom  49 (R=0.447)  charge=  0.8385  magn=  0.0000
     atom  50 (R=0.423)  charge=  0.4486  magn= -0.0000
     atom  51 (R=0.423)  charge=  0.4499  magn= -0.0000
     atom  52 (R=0.423)  charge=  0.4551  magn= -0.0000
     atom  53 (R=0.423)  charge=  1.3757  magn= -0.0000
     atom  54 (R=0.423)  charge=  0.4520  magn=  0.0000
     atom  55 (R=0.423)  charge=  0.4035  magn=  0.0000
     atom  56 (R=0.423)  charge=  0.4520  magn= -0.0000

     End of self-consistent calculation

 ------ SPIN UP ------------

          k = 0.0000 0.0000 0.0000 ( 18029 PWs)   bands (ev):

   -55.1375 -55.1009 -55.0976 -55.0635 -55.0190 -55.0019 -54.9809 -54.9372
   -54.9256 -54.9148 -54.9019 -54.8927 -54.8570 -54.7866 -54.1086 -54.0745
   -31.7163 -31.5865 -31.5051 -31.4727 -31.4287 -31.4269 -31.4235 -31.3951
   -31.3914 -31.3877 -31.3601 -31.3469 -31.3427 -31.3150 -31.2965 -31.2723
   -31.2545 -31.2503 -31.2396 -31.2332 -31.2081 -31.2030 -31.1964 -31.1684
   -31.1545 -31.1482 -31.1400 -31.1340 -31.1328 -31.1221 -31.1202 -31.1124
   -31.0962 -31.0871 -31.0805 -31.0562 -31.0526 -31.0386 -31.0342 -31.0290
   -31.0175 -30.9760 -30.5169 -30.4249 -30.4028 -30.3335 -30.2467 -30.1357
   -18.9680 -15.9982 -15.7417 -15.6078 -15.3742 -15.3222 -15.2653 -15.0568
   -15.0501 -14.9847 -14.9708 -14.9217 -14.9018 -14.8345 -14.7500 -14.7298
   -14.6616 -14.6600 -14.6302 -14.6203 -14.6180 -14.5554 -14.5459 -14.5161
   -14.5031 -14.4780 -14.3596 -14.2753 -14.2169 -13.9688 -13.6198 -12.6115
   -12.4944  -9.7599  -7.7497  -7.2530  -5.4742  -3.8249  -3.3367  -3.2892
    -3.1608  -3.1330  -3.0562  -3.0264  -2.8418  -2.8209  -2.4793  -2.4453
    -2.3932  -2.3746  -2.3546  -2.3361  -2.1680  -2.1418  -2.0695  -2.0363
    -2.0170  -1.9778  -1.9606  -1.9504  -1.9166  -1.9114  -1.9019  -1.6948
    -1.6381  -1.5434  -1.5210  -1.5004  -1.4620  -1.4258  -1.4173  -1.4141
    -1.4083  -1.3943  -1.3813  -1.3020  -1.2464  -1.1629  -1.1534  -1.1185
    -1.0143  -0.9676  -0.7653  -0.7519  -0.7066  -0.6645  -0.6017  -0.5813
    -0.5139  -0.4830  -0.4643  -0.3425  -0.3136  -0.2741  -0.2450  -0.1784
    -0.1479  -0.1025  -0.0197   0.0533   0.0882   0.1065   0.1676   0.2974
     0.3074   0.3368   0.3975   0.4613   0.5025   0.5216   0.5403   0.5765
     0.6273   0.7528   0.7976   0.8173   0.8215   0.8554   0.8778   0.9291
     0.9546   1.0142   1.0198   1.1380   1.2070   1.4307   1.4668   1.4939
     1.8262   1.8501   1.9137   2.0998   2.4878   2.5350   3.9677   4.0287
     4.0880   4.1025   4.1218   4.2106   4.2343   4.4310   4.4577   4.4625
     4.4652

[...]

          k =-0.0760-0.0000 0.0000 ( 17886 PWs)   bands (ev):

[...]

 ------ SPIN DOWN ----------

[...]

          k = 0.0380-0.0419 0.0000 ( 17876 PWs)   bands (ev):

[...]

          k =-0.0760-0.0839 0.0000 ( 17948 PWs)   bands (ev):

   -55.1175 -55.1117 -55.0785 -55.0784 -55.0056 -54.9990 -54.9888 -54.9206
   -54.9193 -54.9165 -54.9073 -54.9058 -54.8538 -54.7912 -54.0919 -54.0915
   -31.5174 -31.5146 -31.4381 -31.4158 -31.4009 -31.4008 -31.3707 -31.3704
   -31.3445 -31.3383 -31.3358 -31.3354 -31.3045 -31.2681 -31.2594 -31.2556
   -31.2551 -31.2516 -31.2484 -31.2421 -31.2127 -31.2072 -31.2048 -31.2021
   -31.1975 -31.1974 -31.1851 -31.1815 -31.1552 -31.1504 -31.1350 -31.1309
   -31.1284 -31.1278 -31.1272 -31.1188 -31.0946 -31.0879 -31.0856 -31.0662
   -31.0417 -31.0241 -30.4158 -30.4154 -30.3299 -30.3295 -30.2904 -30.2902
   -18.9633 -15.5046 -15.3949 -15.2813 -15.2219 -15.1808 -15.1255 -15.1115
   -15.1009 -15.0556 -15.0248 -14.9572 -14.8927 -14.8397 -14.8387 -14.8041
   -14.7259 -14.7120 -14.7048 -14.6943 -14.6376 -14.6309 -14.5994 -14.5784
   -14.5754 -14.5457 -14.4717 -14.4693 -14.3831 -14.1775 -13.6565 -12.5956
   -12.5954  -9.7290  -7.7469  -7.1990  -5.4783  -3.8464  -3.4429  -2.7547
    -2.6435  -2.4332  -2.4072  -2.3473  -2.3284  -2.2471  -2.1812  -2.1596
    -2.1357  -2.1019  -2.0990  -2.0754  -2.0533  -2.0008  -1.9713  -1.9595
    -1.9539  -1.9390  -1.9262  -1.9065  -1.8498  -1.8394  -1.8321  -1.7895
    -1.7788  -1.7468  -1.7406  -1.7017  -1.6848  -1.6095  -1.5163  -1.4911
    -1.4306  -1.3320  -1.3175  -1.3118  -1.2181  -1.2101  -1.1808  -1.1498
    -1.0950  -0.9952  -0.9408  -0.8648  -0.8615  -0.8318  -0.7437  -0.6811
    -0.6476  -0.6363  -0.5992  -0.5418  -0.5186  -0.4843  -0.4011  -0.3600
    -0.3332  -0.2998  -0.2044  -0.1426  -0.1192  -0.0880  -0.0845   0.0052
     0.0378   0.0747   0.0954   0.1334   0.1602   0.2271   0.2469   0.3577
     0.4244   0.4586   0.5784   0.6007   0.6640   0.7965   0.8678   0.9080
     0.9610   1.0191   1.0467   1.1771   1.1842   1.1995   1.3028   1.3433
     1.3502   1.3630   2.2729   2.2740   2.3555   2.3557   4.1007   4.1886
     4.2335   4.2711   4.3758   4.4867   4.5052   4.5478   4.5484   4.6244
     4.6304

     the Fermi energy is     4.0217 ev

!    total energy              =   -2942.82550356 Ry
     estimated scf accuracy    <       0.00000007 Ry
     smearing contrib. (-TS)   =      -0.03687075 Ry
     internal energy E=F+TS    =   -2942.78863281 Ry

     The total energy is F=E-TS. E is the sum of the following terms:
     one-electron contribution =  -23971.74907517 Ry
     hartree contribution      =   12081.43967989 Ry
     xc contribution           =    -487.77437410 Ry
     ewald contribution        =    9435.29020724 Ry
     electric field correction =       0.00492933 Ry

     total magnetization       =     0.01 Bohr mag/cell
     absolute magnetization    =     0.03 Bohr mag/cell

     convergence has been achieved in 103 iterations

     Forces acting on atoms (cartesian axes, Ry/au):

     atom    1 type  1   force =     0.00015008   -0.00021899    0.09434321
     atom    2 type  1   force =    -0.00009511   -0.00033092   -0.17738595
     atom    3 type  2   force =     0.00005638   -0.00016684   -0.02136900
     atom    4 type  2   force =    -0.00001518   -0.00173111    0.05658221
     atom    5 type  2   force =    -0.01054661   -0.00127442    0.00623550
     atom    6 type  2   force =     0.01221494   -0.00073860    0.00570776
     atom    7 type  1   force =    -0.00032744    0.00171947   -0.01619048
     atom    8 type  1   force =    -0.00011256    0.00438726    0.00560289
     atom    9 type  2   force =     0.00000843   -0.00004049   -0.00005244
     atom   10 type  2   force =    -0.00074234   -0.00022167   -0.00045365
     atom   11 type  2   force =     0.00035022    0.00012861   -0.00019629
     atom   12 type  2   force =    -0.00052377    0.00000627   -0.00012908
     atom   13 type  1   force =     0.00003679   -0.00034921    0.00013985
     atom   14 type  1   force =     0.00055396    0.00011931   -0.00028162
     atom   15 type  2   force =    -0.00034723    0.00028705   -0.00014537
     atom   16 type  2   force =    -0.00036016    0.00023714   -0.00011649
     atom   17 type  2   force =    -0.00020224    0.00008216    0.00048242
     atom   18 type  2   force =     0.00001975    0.00038365    0.00000780
     atom   19 type  1   force =     0.00066932    0.00063474    0.00024208
     atom   20 type  1   force =     0.00007916    0.00042803   -0.00070386
     atom   21 type  2   force =     0.00003700    0.00004001    0.10361946
     atom   22 type  2   force =    -0.00002942   -0.00080545   -0.00018136
     atom   23 type  2   force =    -0.07080099   -0.00010136   -0.02717918
     atom   24 type  2   force =     0.07066580    0.00034482   -0.02720783
     atom   25 type  1   force =    -0.00009711   -0.00019948    0.09375970
     atom   26 type  1   force =    -0.00015230   -0.00032100   -0.17730911
     atom   27 type  2   force =     0.00008694   -0.00035051   -0.02046873
     atom   28 type  2   force =     0.00003099   -0.00143505    0.05589109
     atom   29 type  2   force =    -0.01091073   -0.00073546    0.00608382
     atom   30 type  2   force =     0.01246281   -0.00028921    0.00556204
     atom   31 type  1   force =    -0.00017481    0.00461911   -0.01722007
     atom   32 type  1   force =    -0.00004084   -0.00480394    0.00558139
     atom   33 type  2   force =     0.00005598    0.00012040    0.00026363
     atom   34 type  2   force =     0.00005781   -0.00085279   -0.00298310
     atom   35 type  2   force =     0.00024039    0.00002873    0.00007666
     atom   36 type  2   force =    -0.00042879    0.00015268   -0.00007744
     atom   37 type  1   force =    -0.00013474   -0.00011098   -0.00017806
     atom   38 type  1   force =     0.00044988   -0.00028704    0.00043270
     atom   39 type  2   force =    -0.00041156    0.00006932    0.00075910
     atom   40 type  2   force =    -0.00013205    0.00015677   -0.00029641
     atom   41 type  2   force =    -0.00051968    0.00089192   -0.00068018
     atom   42 type  2   force =    -0.00015551    0.00020235   -0.00001749
     atom   43 type  1   force =    -0.00000062    0.00000270   -0.00000587
     atom   44 type  1   force =    -0.00073448    0.00035617   -0.00025227
     atom   45 type  2   force =     0.00002545    0.00001227    0.10362318
     atom   46 type  2   force =    -0.07080058   -0.00004231   -0.02717957
     atom   47 type  2   force =     0.07066749    0.00038108   -0.02718756
     atom   48 type  3   force =    -0.00000524   -0.00067058   -0.00029260
     atom   49 type  4   force =    -0.00051817    0.00022951   -0.00033631
     atom   50 type  5   force =     0.00005251    0.00001542    0.00005533
     atom   51 type  5   force =    -0.00021619   -0.00031012    0.00003639
     atom   52 type  5   force =    -0.00044239   -0.00003036    0.00006967
     atom   53 type  3   force =     0.00309181   -0.00043488    0.00551628
     atom   54 type  5   force =     0.00054756   -0.00005388    0.00034432
     atom   55 type  5   force =    -0.00224956    0.00083236   -0.00488392
     atom   56 type  5   force =    -0.00038307    0.00003734   -0.00005721

     Total force =     0.365654     Total SCF correction =     0.000617
  @ DRIVER MODE: Message from server: STATUS
  @ DRIVER MODE: Message from server: GETFORCE
  @ DRIVER MODE: Returning v,forces,stress,ensemble

     Writing output data file ./calc.save/
  @ DRIVER MODE: Message from server: EXIT
  @ DRIVE MODE: Exiting

     General routines

     Parallel routines

   This run was terminated on:   8:51: 6  17Jul2021

   JOB DONE.