     Program PWSCF v.6.7GPU starts on 26Sep2021 at 21:41:51

     R & G space division:  proc/nbgrp/npool/nimage =       8
     Reading input from /storage/home/hcoda1/3/ntian30/research/carbon/CxH_vib/H2O_calc/ads_slab/CH3OHN2HO_a/out_0052/pw.inp
Warning: card &CELL ignored
Warning: card   CELL_DYNAMICS='IPI', ignored
Warning: card / ignored

     Current dimensions of program PWSCF are:
     Max number of different atomic species (ntypx) = 10
     Max number of k-points (npk) =  40000
     Max angular momentum in pseudopotentials (lmaxx) =  3
     Presently no symmetry can be used with electric field

     Message from routine cell_base_init:
     DEPRECATED: use true lattice parameter, not A to a.u. conversion factor

     IMPORTANT: XC functional enforced from input :
     Exchange-correlation= BEEF-VDW
                           (   1   4  43  14   2   0   0)
     Any further DFT definition will be discarded
     Please, verify this is what you really want

  @ DRIVER MODE: Connecting to
 qe_1139763_2971668.sched-torque.pace.gatech.edue8p0bit3_scratch
  using UNIX socket
  @ DRIVER MODE: Message from server: STATUS
  @ DRIVER MODE: Message from server: INIT
  @ DRIVER MODE: Receiving replica           0          -1
  @ DRIVER MODE: Receiving encoded integer          25
  @ DRIVER MODE:  SCF:  T  FORCE:  T  STRESS:  F  VC:  F  ENSEMBLE:  F
  @ DRIVER MODE:  SCF:  T  FORCE:  T  STRESS:  F  VC:  F  ENSEMBLE:  F

     Using Slab Decomposition

     bravais-lattice index     =            0
     lattice parameter (alat)  =       1.8897  a.u.
     unit-cell volume          =    6658.9804 (a.u.)^3
     number of atoms/cell      =           57
     number of atomic types    =            5
     number of electrons       =       409.00
     number of Kohn-Sham states=          214
     kinetic-energy cutoff     =      29.3995  Ry
     charge density cutoff     =     293.9946  Ry
     scf convergence threshold =      7.3E-08
     mixing beta               =       0.0500
     number of iterations used =            8  plain     mixing
     Exchange-correlation= BEEF-VDW
                           (   1   4  43  14   2   0   0)

     celldm(1)=   1.889726  celldm(2)=   0.000000  celldm(3)=   0.000000
     celldm(4)=   0.000000  celldm(5)=   0.000000  celldm(6)=   0.000000

     crystal axes: (cart. coord. in units of alat)
               a(1) = (   6.579727   0.000000   0.000000 )
               a(2) = (  -0.000775   5.961596   0.000000 )
               a(3) = (   0.000000   0.000000  25.155947 )

     reciprocal axes: (cart. coord. in units 2 pi/alat)
               b(1) = (  0.151982  0.000020  0.000000 )
               b(2) = (  0.000000  0.167740  0.000000 )
               b(3) = (  0.000000  0.000000  0.039752 )

     PseudoPot. # 1 for Ti read from file:
     /storage/coda1/p-amedford6/0/shared/rich_project_chbe-medford/medford-share/data/pseudos_module/espresso/nninc/pbe/van/Ti.UPF
     MD5 check sum: 8e4df49b7f0d34bbd5052bf3f5ea0213
     Pseudo is Ultrasoft, Zval = 12.0
     Generated by new atomic code, or converted to UPF format
     Using radial grid of  851 points,  6 beta functions with:
                l(1) =   0
                l(2) =   0
                l(3) =   1
                l(4) =   1
                l(5) =   2
                l(6) =   2
     Q(r) pseudized with  8 coefficients,  rinner =    1.000   1.000   1.000
                                                       1.000   1.000

     PseudoPot. # 2 for O  read from file:
     /storage/coda1/p-amedford6/0/shared/rich_project_chbe-medford/medford-share/data/pseudos_module/espresso/nninc/pbe/van/O.UPF
     MD5 check sum: 78c19812648e8988a0fe644b0f25305e
     Pseudo is Ultrasoft, Zval =  6.0
     Generated by new atomic code, or converted to UPF format
     Using radial grid of  737 points,  4 beta functions with:
                l(1) =   0
                l(2) =   0
                l(3) =   1
                l(4) =   1
     Q(r) pseudized with  8 coefficients,  rinner =    0.800   0.800   0.800

     PseudoPot. # 3 for C  read from file:
     /storage/coda1/p-amedford6/0/shared/rich_project_chbe-medford/medford-share/data/pseudos_module/espresso/nninc/pbe/van/C.UPF
     MD5 check sum: 1a69bf6b8db32088f5b2163dbdb77a27
     Pseudo is Ultrasoft, Zval =  4.0
     Generated by new atomic code, or converted to UPF format
     Using radial grid of  721 points,  4 beta functions with:
                l(1) =   0
                l(2) =   0
                l(3) =   1
                l(4) =   1
     Q(r) pseudized with  8 coefficients,  rinner =    0.800   0.800   0.800

     PseudoPot. # 4 for H  read from file:
     /storage/coda1/p-amedford6/0/shared/rich_project_chbe-medford/medford-share/data/pseudos_module/espresso/nninc/pbe/van/H.UPF
     MD5 check sum: b5ee9d7bfd3a09ee7748110bda690ff7
     Pseudo is Ultrasoft, Zval =  1.0
     Generated by new atomic code, or converted to UPF format
     Using radial grid of  615 points,  1 beta functions with:
                l(1) =   0
     Q(r) pseudized with  8 coefficients,  rinner =    0.800

     PseudoPot. # 5 for N  read from file:
     /storage/coda1/p-amedford6/0/shared/rich_project_chbe-medford/medford-share/data/pseudos_module/espresso/nninc/pbe/van/N.UPF
     MD5 check sum: 90d10febe142ad51ac9d5be1deb811c4
     Pseudo is Ultrasoft, Zval =  5.0
     Generated by new atomic code, or converted to UPF format
     Using radial grid of  729 points,  4 beta functions with:
                l(1) =   0
                l(2) =   0
                l(3) =   1
                l(4) =   1
     Q(r) pseudized with  8 coefficients,  rinner =    0.800   0.800   0.800

     atomic species   valence    mass     pseudopotential
        Ti1           12.00    47.86700     Ti( 1.00)
        O1             6.00    15.99900     O ( 1.00)
        C1             4.00    12.01100     C ( 1.00)
        H1             1.00     1.00800     H ( 1.00)
        N1             5.00    14.00700     N ( 1.00)

     No symmetry found

   Cartesian axes

     site n.     atom                  positions (alat units)
         1           Ti1 tau(   1) = (   0.0004258   2.9801865   6.0000000  )
         2           Ti1 tau(   2) = (   3.2906075   1.4906267   6.0002472  )
         3           O1  tau(   3) = (   0.0006271   0.0005054   7.9858123  )
         4           O1  tau(   4) = (   3.2906025   0.0005020   7.3038282  )
         5           O1  tau(   5) = (   4.5942328   1.4918067   9.2879030  )
         6           O1  tau(   6) = (   1.9868534   1.4903216   9.2879459  )
         7           Ti1 tau(   7) = (   3.3371032   3.0268772   9.1887580  )
         8           Ti1 tau(   8) = (   0.0611061   1.5258697   9.2809523  )
         9           O1  tau(   9) = (   3.3143856   0.0188946  11.3581724  )
        10           O1  tau(  10) = (   0.0164151   0.0031400  10.5895864  )
        11           O1  tau(  11) = (   1.3088961   1.4994640  12.6347600  )
        12           O1  tau(  12) = (   5.3347766   1.4946156  12.6347356  )
        13           Ti1 tau(  13) = (   0.0202478   3.0292801  12.5720800  )
        14           Ti1 tau(  14) = (   3.3188568   1.5851219  12.4260843  )
        15           O1  tau(  15) = (   0.0445434   5.9450813  14.6510506  )
        16           O1  tau(  16) = (   3.3207065   5.8849141  14.0104376  )
        17           O1  tau(  17) = (   4.6249962   1.5116716  16.1313945  )
        18           O1  tau(  18) = (   2.0639035   1.5439872  16.0680944  )
        19           Ti1 tau(  19) = (   3.3360141   2.9454253  15.6763505  )
        20           Ti1 tau(  20) = (   0.0686920   1.3314864  15.9334539  )
        21           O1  tau(  21) = (   3.2904802   0.0005063   4.7018136  )
        22           O1  tau(  22) = (   0.0979609   0.0039778  17.1657837  )
        23           O1  tau(  23) = (   1.3043587   1.4918075   6.0039043  )
        24           O1  tau(  24) = (   5.2767064   1.4903225   6.0039473  )
        25           Ti1 tau(  25) = (   0.0000382   5.9609847   6.0000000  )
        26           Ti1 tau(  26) = (   3.2902200   4.4714249   6.0002472  )
        27           O1  tau(  27) = (   0.0002396   2.9813036   7.9858123  )
        28           O1  tau(  28) = (   3.2902150   2.9813002   7.3038282  )
        29           O1  tau(  29) = (   4.5938453   4.4726049   9.2879030  )
        30           O1  tau(  30) = (   1.9864658   4.4711199   9.2879459  )
        31           Ti1 tau(  31) = (   3.3368545   0.0404040   9.1664313  )
        32           Ti1 tau(  32) = (   0.0604674   4.4799263   9.2696248  )
        33           O1  tau(  33) = (   3.3137611   2.9662427  11.3084074  )
        34           O1  tau(  34) = (   0.0134136   2.9850836  10.6046154  )
        35           O1  tau(  35) = (   1.3054726   4.4719986  12.6384794  )
        36           O1  tau(  36) = (   5.3362180   4.4781181  12.6390536  )
        37           Ti1 tau(  37) = (   0.0365240   0.0487139  12.4702884  )
        38           Ti1 tau(  38) = (   3.3180881   4.6653017  12.7087268  )
        39           O1  tau(  39) = (   0.0228105   2.9918545  14.7761892  )
        40           O1  tau(  40) = (   3.3431522   2.9700269  13.9040455  )
        41           O1  tau(  41) = (   4.6265974   4.4152401  16.1544535  )
        42           O1  tau(  42) = (   2.0571238   4.3592187  16.1146037  )
        43           Ti1 tau(  43) = (   3.3848590   5.9294639  16.2700006  )
        44           Ti1 tau(  44) = (   0.0517009   4.5268197  15.8466567  )
        45           O1  tau(  45) = (   3.2900926   2.9813045   4.7018136  )
        46           O1  tau(  46) = (   1.3039711   4.4726057   6.0039043  )
        47           O1  tau(  47) = (   5.2763189   4.4711207   6.0039473  )
        48           C1  tau(  48) = (   5.9450987   3.0517216  18.8599509  )
        49           O1  tau(  49) = (   0.1802289   3.0084098  17.6484507  )
        50           H1  tau(  50) = (   4.9625852   2.6832861  18.5889656  )
        51           H1  tau(  51) = (   1.1163247   3.1442434  17.8758057  )
        52           H1  tau(  52) = (   6.3899442   2.3914015  19.6026461  )
        53           H1  tau(  53) = (   5.8846647   4.0795385  19.2151274  )
        54           N1  tau(  54) = (   5.7598779   3.1323611  22.9045362  )
        55           N1  tau(  55) = (   4.9845974   3.1850264  22.1203839  )
        56           O1  tau(  56) = (   3.1467188   0.0218795  18.1166202  )
        57           H1  tau(  57) = (   2.2164505   0.0865285  18.3868412  )

     number of k points=    10  Fermi-Dirac smearing, width (Ry)=  0.0073
                       cart. coord. in units 2pi/alat
        k(    1) = (   0.0000000   0.0000000   0.0000000), wk =   0.1250000
        k(    2) = (   0.0000000   0.0419351   0.0000000), wk =   0.2500000
        k(    3) = (   0.0000000  -0.0838702   0.0000000), wk =   0.1250000
        k(    4) = (   0.0379955   0.0000049   0.0000000), wk =   0.2500000
        k(    5) = (   0.0379955   0.0419400   0.0000000), wk =   0.2500000
        k(    6) = (   0.0379955  -0.0838652   0.0000000), wk =   0.2500000
        k(    7) = (   0.0379955  -0.0419301   0.0000000), wk =   0.2500000
        k(    8) = (  -0.0759910  -0.0000099   0.0000000), wk =   0.1250000
        k(    9) = (  -0.0759910   0.0419252   0.0000000), wk =   0.2500000
        k(   10) = (  -0.0759910  -0.0838800   0.0000000), wk =   0.1250000

     Initial potential from superposition of free atoms

     starting charge  392.99914, renormalised to  409.00000

     negative rho (up, down):  9.135E-03 0.000E+00

     %%%%%%%%%%%%%%%%%%%%%%%%%%%%%%%%%%%%%%%%%%%%%%%%%%%%%%%%%%%%%%%%%%%%%%%%
     %                                                                      %
     % You are using vdW-DF, which was implemented by the Thonhauser group. %
     % Please cite the following two papers that made this development      %
     % possible and the two reviews that describe the various versions:     %
     %                                                                      %
     %   T. Thonhauser et al., PRL 115, 136402 (2015).                      %
     %   T. Thonhauser et al., PRB 76, 125112 (2007).                       %
     %   K. Berland et al., Rep. Prog. Phys. 78, 066501 (2015).             %
     %   D.C. Langreth et al., J. Phys.: Condens. Matter 21, 084203 (2009). %
     %                                                                      %
     %                                                                      %
     % If you are calculating the stress with vdW-DF, please also cite:     %
     %                                                                      %
     %   R. Sabatini et al., J. Phys.: Condens. Matter 24, 424209 (2012).   %
     %                                                                      %
     %%%%%%%%%%%%%%%%%%%%%%%%%%%%%%%%%%%%%%%%%%%%%%%%%%%%%%%%%%%%%%%%%%%%%%%%

     Adding external electric field

     Computed dipole along edir(3) :
        Dipole              -18.8687 Ry au,        -47.9594 Debye
        Dipole field         -0.0356 Ry au,

        Potential amp.        3.3008 Ry
        Total length         46.3494 bohr

     Starting wfcs are  309 atomic wfcs
  @ DRIVER MODE: Message from server: STATUS
  @ DRIVER MODE: Message from server: POSDATA
  @ DRIVER MODE: Reading and sharing cell
  @ DRIVER MODE: Reading and sharing positions
  @ DRIVER MODE: Received positions

     Self-consistent Calculation

     iteration #  1     ecut=    29.40 Ry     beta= 0.05
     Davidson diagonalization with overlap
     c_bands:  5 eigenvalues not converged
     c_bands:  5 eigenvalues not converged
     c_bands:  1 eigenvalues not converged
     c_bands:  4 eigenvalues not converged
     c_bands:  1 eigenvalues not converged
     c_bands:  4 eigenvalues not converged
     ethr =  1.00E-05,  avg # of iterations = 27.3

[...]

     total energy              =   -2113.19525089 Ry
     estimated scf accuracy    <   10331.03223829 Ry

     iteration #  2     ecut=    29.40 Ry     beta= 0.05
     Davidson diagonalization with overlap
     ethr =  1.00E-02,  avg # of iterations = 30.1

[...]

     iteration # 82     ecut=    29.40 Ry     beta= 0.05
     Davidson diagonalization with overlap
     ethr =  4.56E-11,  avg # of iterations =  6.6

[...]

     total energy              =   -3006.45831727 Ry
     estimated scf accuracy    <       0.00000009 Ry

     iteration # 83     ecut=    29.40 Ry     beta= 0.05
     Davidson diagonalization with overlap
     c_bands:  1 eigenvalues not converged
     ethr =  2.25E-11,  avg # of iterations = 12.5

     negative rho (up, down):  1.064E-02 0.000E+00

     Adding external electric field

     Computed dipole along edir(3) :
        Dipole                1.0494 Ry au,          2.6674 Debye
        Dipole field          0.0020 Ry au,

        Potential amp.       -0.1836 Ry
        Total length         46.3494 bohr

     End of self-consistent calculation

          k = 0.0000 0.0000 0.0000 ( 18029 PWs)   bands (ev):

   -55.3296 -55.2540 -55.2188 -55.1445 -55.1228 -55.0878 -55.0519 -55.0467
   -55.0452 -55.0265 -55.0164 -54.9865 -54.8994 -54.8236 -54.2132 -54.1792
   -31.7320 -31.7230 -31.6356 -31.6241 -31.5833 -31.5696 -31.5448 -31.5431
   -31.5085 -31.4968 -31.4854 -31.4206 -31.4076 -31.4075 -31.3808 -31.3625
   -31.3541 -31.3371 -31.3354 -31.3248 -31.3174 -31.3127 -31.2667 -31.2642
   -31.2628 -31.2561 -31.2530 -31.2403 -31.2338 -31.2149 -31.2086 -31.1980
   -31.1963 -31.1765 -31.1717 -31.1638 -31.1621 -31.1287 -31.0882 -31.0689
   -31.0377 -31.0274 -30.6194 -30.5331 -30.5106 -30.4364 -30.3501 -30.2384
   -21.5059 -19.7117 -16.1387 -15.9061 -15.7267 -15.5247 -15.4679 -15.4015
   -15.2142 -15.1408 -14.9850 -14.8596 -14.8450 -14.7883 -14.7872 -14.7771
   -14.7482 -14.7233 -14.6780 -14.6667 -14.6613 -14.6576 -14.5962 -14.5537
   -14.5512 -14.5239 -14.5033 -14.3760 -14.3291 -14.2747 -14.1046 -14.0824
   -12.7131 -12.5969 -10.5721  -6.6856  -6.4094  -4.6673  -4.6295  -4.5908
    -4.4083  -3.6530  -3.3699  -3.2552  -3.1547  -3.1361  -3.0712  -3.0206
    -2.8057  -2.6990  -2.6364  -2.5237  -2.3966  -2.3602  -2.3079  -2.2782
    -2.1864  -2.1682  -2.1364  -2.1066  -2.0511  -2.0232  -2.0156  -2.0027
    -1.9273  -1.9205  -1.7906  -1.7858  -1.7294  -1.6375  -1.6198  -1.5968
    -1.5896  -1.5553  -1.5529  -1.5105  -1.4868  -1.4629  -1.4349  -1.3592
    -1.3397  -1.2771  -1.2396  -1.0070  -0.8526  -0.8281  -0.7478  -0.7316
    -0.7001  -0.6715  -0.6515  -0.6403  -0.6031  -0.5880  -0.4843  -0.3812
    -0.3719  -0.3130  -0.2751  -0.2704  -0.1346  -0.0896  -0.0154   0.0073
     0.0396   0.0606   0.1449   0.1937   0.2153   0.2817   0.3138   0.4188
     0.4565   0.4755   0.5167   0.5722   0.6325   0.6669   0.7058   0.7092
     0.7421   0.7912   0.8213   0.8552   0.8770   0.9246   1.0274   1.0648
     1.0754   1.2173   1.2272   1.3084   1.4340   1.4857   1.7590   1.8115
     1.8581   2.0038   2.3803   2.4272   3.8700   3.9725   3.9935   4.0148
     4.0825   4.1645   4.3298   4.3528   4.4171   4.5180

[...]

          k = 0.0380-0.0419 0.0000 ( 17876 PWs)   bands (ev):

[...]

          k =-0.0760-0.0000 0.0000 ( 17886 PWs)   bands (ev):

[...]

          k =-0.0760-0.0839 0.0000 ( 17948 PWs)   bands (ev):

   -55.3289 -55.2409 -55.2318 -55.1385 -55.1184 -55.0935 -55.0503 -55.0463
   -55.0380 -55.0297 -55.0176 -54.9958 -54.8957 -54.8272 -54.1964 -54.1959
   -31.6426 -31.5785 -31.5702 -31.5519 -31.5430 -31.5426 -31.5370 -31.5212
   -31.4588 -31.4541 -31.4152 -31.3939 -31.3824 -31.3771 -31.3608 -31.3586
   -31.3551 -31.3527 -31.3465 -31.3405 -31.3354 -31.3336 -31.3181 -31.3160
   -31.2974 -31.2864 -31.2567 -31.2497 -31.2480 -31.2437 -31.2358 -31.2342
   -31.2278 -31.2232 -31.2193 -31.2149 -31.2125 -31.1739 -31.1553 -31.0922
   -31.0749 -31.0313 -30.5234 -30.5231 -30.4332 -30.4316 -30.3934 -30.3925
   -21.5058 -19.7079 -16.1153 -15.5358 -15.3794 -15.2084 -15.1947 -15.1153
   -15.0236 -15.0059 -14.9758 -14.9611 -14.9447 -14.9205 -14.9117 -14.8783
   -14.8142 -14.7723 -14.7492 -14.7410 -14.6940 -14.6888 -14.6853 -14.6225
   -14.6152 -14.5971 -14.5724 -14.5125 -14.5036 -14.4031 -14.3878 -14.2158
   -12.6992 -12.6984 -10.5741  -6.6859  -6.4113  -4.6627  -4.6364  -4.5784
    -4.4006  -3.6182  -3.3603  -2.6843  -2.5998  -2.5361  -2.4322  -2.3539
    -2.3002  -2.2504  -2.2294  -2.1845  -2.1634  -2.0939  -2.0593  -2.0504
    -2.0308  -2.0288  -1.9982  -1.9832  -1.9699  -1.9490  -1.9207  -1.9034
    -1.8927  -1.8718  -1.8519  -1.8260  -1.8140  -1.8040  -1.7892  -1.7732
    -1.6628  -1.6456  -1.6127  -1.4504  -1.4389  -1.3698  -1.3382  -1.3116
    -1.3079  -1.2775  -1.2624  -1.2206  -1.1153  -1.0872  -1.0384  -0.9969
    -0.9034  -0.8876  -0.8365  -0.7858  -0.7400  -0.7114  -0.6809  -0.6656
    -0.6115  -0.4733  -0.4528  -0.4077  -0.2886  -0.2152  -0.1996  -0.1870
    -0.1653  -0.1419  -0.0952  -0.0874  -0.0257  -0.0133   0.0581   0.0619
     0.0908   0.1124   0.2149   0.3359   0.4159   0.4593   0.5043   0.5532
     0.5897   0.6689   0.7466   0.8324   0.9084   0.9381   0.9516   1.0695
     1.1022   1.1545   1.2010   1.2200   1.2790   1.3145   1.3546   1.3878
     2.1726   2.1862   2.2425   2.2481   4.0510   4.3007   4.3607   4.3777
     4.3874   4.4198   4.4409   4.4925   4.5090   4.5327

     the Fermi energy is     3.8801 ev

!    total energy              =   -3006.45832860 Ry
     estimated scf accuracy    <       0.00000005 Ry
     smearing contrib. (-TS)   =      -0.02082659 Ry
     internal energy E=F+TS    =   -3006.43750201 Ry

     The total energy is F=E-TS. E is the sum of the following terms:
     one-electron contribution =  -22317.79104734 Ry
     hartree contribution      =   11258.41509173 Ry
     xc contribution           =    -501.14651013 Ry
     ewald contribution        =    8554.08288539 Ry
     electric field correction =       0.00207834 Ry

     convergence has been achieved in  83 iterations

     Forces acting on atoms (cartesian axes, Ry/au):

     atom    1 type  1   force =    -0.00037677   -0.00016707    0.09497376
     atom    2 type  1   force =    -0.00035299    0.00512724   -0.17480903
     atom    3 type  2   force =     0.00070773    0.00012992   -0.02673169
     atom    4 type  2   force =     0.00129025    0.00083230    0.05206013
     atom    5 type  2   force =    -0.01096637   -0.00256163    0.00076911
     atom    6 type  2   force =     0.01193983   -0.00381162    0.00177829
     atom    7 type  1   force =    -0.00022036    0.00038833    0.00065917
     atom    8 type  1   force =     0.00013843    0.00023028    0.00015856
     atom    9 type  2   force =     0.00024875    0.00075966   -0.00066337
     atom   10 type  2   force =    -0.00039022    0.00016205    0.00013887
     atom   11 type  2   force =     0.00043905   -0.00015434    0.00009919
     atom   12 type  2   force =    -0.00085067   -0.00015433    0.00035764
     atom   13 type  1   force =     0.00043549    0.00034539   -0.00021887
     atom   14 type  1   force =    -0.00035025   -0.00071198    0.00095717
     atom   15 type  2   force =    -0.00014163   -0.00059972   -0.00100964
     atom   16 type  2   force =    -0.00027640    0.00002753   -0.00020098
     atom   17 type  2   force =    -0.00090470    0.00028342   -0.00018077
     atom   18 type  2   force =     0.00023011    0.00099520   -0.00054532
     atom   19 type  1   force =     0.00025384   -0.00119299    0.00021157
     atom   20 type  1   force =    -0.00011792    0.00012953    0.00043894
     atom   21 type  2   force =    -0.00000456    0.00007352    0.10304130
     atom   22 type  2   force =    -0.00001845   -0.00022754    0.00098398
     atom   23 type  2   force =    -0.07194550    0.00013893   -0.02802919
     atom   24 type  2   force =     0.07178033    0.00063603   -0.02813117
     atom   25 type  1   force =    -0.00036201    0.00025876    0.10242401
     atom   26 type  1   force =    -0.00011069   -0.00475343   -0.17505741
     atom   27 type  2   force =     0.00084916    0.00116941   -0.02485117
     atom   28 type  2   force =     0.00119716    0.00025469    0.05169030
     atom   29 type  2   force =    -0.01192557    0.00381528    0.00171057
     atom   30 type  2   force =     0.01376809    0.00146525    0.00244223
     atom   31 type  1   force =    -0.00029257   -0.00016597    0.00079358
     atom   32 type  1   force =     0.00028647    0.00028570    0.00059746
     atom   33 type  2   force =     0.00000583    0.00020845    0.00008239
     atom   34 type  2   force =    -0.00027260   -0.00032430   -0.00056775
     atom   35 type  2   force =    -0.00022836    0.00004922   -0.00047242
     atom   36 type  2   force =    -0.00037884    0.00009564   -0.00009623
     atom   37 type  1   force =    -0.00006148   -0.00034122    0.00005018
     atom   38 type  1   force =    -0.00055992    0.00027038    0.00000871
     atom   39 type  2   force =    -0.00024837   -0.00018707    0.00077790
     atom   40 type  2   force =    -0.00019863    0.00012683    0.00027558
     atom   41 type  2   force =    -0.00144251   -0.00028648    0.00009693
     atom   42 type  2   force =     0.00132507    0.00020585   -0.00001965
     atom   43 type  1   force =    -0.00023605    0.00117122    0.00033297
     atom   44 type  1   force =    -0.00022616    0.00016922    0.00008664
     atom   45 type  2   force =     0.00000133    0.00014013    0.10262246
     atom   46 type  2   force =    -0.07183910   -0.00062683   -0.02797498
     atom   47 type  2   force =     0.07169692   -0.00013671   -0.02804895
     atom   48 type  3   force =    -0.00034802   -0.00015182    0.00002739
     atom   49 type  2   force =    -0.00119397   -0.00075509    0.00018303
     atom   50 type  4   force =    -0.00006925   -0.00047394   -0.00019902
     atom   51 type  4   force =     0.00034378    0.00031775   -0.00067429
     atom   52 type  4   force =    -0.00020668    0.00009073   -0.00046877
     atom   53 type  4   force =    -0.00000456   -0.00039433   -0.00105522
     atom   54 type  5   force =     0.00013963   -0.00008144    0.00034851
     atom   55 type  5   force =    -0.00047655    0.00005869   -0.00031309
     atom   56 type  2   force =     0.00211590   -0.00158369   -0.00003770
     atom   57 type  4   force =    -0.00159447   -0.00056900   -0.00082184

     Total force =     0.364817     Total SCF correction =     0.000713
  @ DRIVER MODE: Message from server: STATUS
  @ DRIVER MODE: Message from server: GETFORCE
  @ DRIVER MODE: Returning v,forces,stress,ensemble

     Writing output data file ./calc.save/
  @ DRIVER MODE: Message from server: EXIT
  @ DRIVE MODE: Exiting

     General routines

     Parallel routines

   This run was terminated on:  22:15:21  26Sep2021

   JOB DONE.