     Program PWSCF v.6.7GPU starts on 15Sep2021 at 15:54:43

     R & G space division:  proc/nbgrp/npool/nimage =      10
     Reading input from /storage/home/hcoda1/3/ntian30/research/carbon/CxH_vib/H2O_calc/ads_slab/CH2NNHHH2O_a/out_0001/pw.inp
Warning: card &CELL ignored
Warning: card   CELL_DYNAMICS='IPI', ignored
Warning: card / ignored

     Current dimensions of program PWSCF are:
     Max number of different atomic species (ntypx) = 10
     Max number of k-points (npk) =  40000
     Max angular momentum in pseudopotentials (lmaxx) =  3
     Presently no symmetry can be used with electric field

     Message from routine cell_base_init:
     DEPRECATED: use true lattice parameter, not A to a.u. conversion factor

     IMPORTANT: XC functional enforced from input :
     Exchange-correlation= BEEF-VDW
                           (   1   4  43  14   2   0   0)
     Any further DFT definition will be discarded
     Please, verify this is what you really want

  @ DRIVER MODE: Connecting to
 qe_1139763_2852611.sched-torque.pace.gatech.edu35dsii_d_scratch
  using UNIX socket
  @ DRIVER MODE: Message from server: STATUS
  @ DRIVER MODE: Message from server: INIT
  @ DRIVER MODE: Receiving replica           0          -1
  @ DRIVER MODE: Receiving encoded integer          25
  @ DRIVER MODE:  SCF:  T  FORCE:  T  STRESS:  F  VC:  F  ENSEMBLE:  F
  @ DRIVER MODE:  SCF:  T  FORCE:  T  STRESS:  F  VC:  F  ENSEMBLE:  F

     Using Slab Decomposition

     bravais-lattice index     =            0
     lattice parameter (alat)  =       1.8897  a.u.
     unit-cell volume          =    6658.9804 (a.u.)^3
     number of atoms/cell      =           57
     number of atomic types    =            5
     number of electrons       =       404.00
     number of Kohn-Sham states=          212
     kinetic-energy cutoff     =      29.3995  Ry
     charge density cutoff     =     293.9946  Ry
     scf convergence threshold =      7.3E-08
     mixing beta               =       0.0500
     number of iterations used =            8  plain     mixing
     Exchange-correlation= BEEF-VDW
                           (   1   4  43  14   2   0   0)

     celldm(1)=   1.889726  celldm(2)=   0.000000  celldm(3)=   0.000000
     celldm(4)=   0.000000  celldm(5)=   0.000000  celldm(6)=   0.000000

     crystal axes: (cart. coord. in units of alat)
               a(1) = (   6.579727   0.000000   0.000000 )
               a(2) = (  -0.000775   5.961596   0.000000 )
               a(3) = (   0.000000   0.000000  25.155947 )

     reciprocal axes: (cart. coord. in units 2 pi/alat)
               b(1) = (  0.151982  0.000020  0.000000 )
               b(2) = (  0.000000  0.167740  0.000000 )
               b(3) = (  0.000000  0.000000  0.039752 )

     PseudoPot. # 1 for Ti read from file:
     /storage/coda1/p-amedford6/0/shared/rich_project_chbe-medford/medford-share/data/pseudos_module/espresso/nninc/pbe/van/Ti.UPF
     MD5 check sum: 8e4df49b7f0d34bbd5052bf3f5ea0213
     Pseudo is Ultrasoft, Zval = 12.0
     Generated by new atomic code, or converted to UPF format
     Using radial grid of  851 points,  6 beta functions with:
                l(1) =   0
                l(2) =   0
                l(3) =   1
                l(4) =   1
                l(5) =   2
                l(6) =   2
     Q(r) pseudized with  8 coefficients,  rinner =    1.000   1.000   1.000
                                                       1.000   1.000

     PseudoPot. # 2 for O  read from file:
     /storage/coda1/p-amedford6/0/shared/rich_project_chbe-medford/medford-share/data/pseudos_module/espresso/nninc/pbe/van/O.UPF
     MD5 check sum: 78c19812648e8988a0fe644b0f25305e
     Pseudo is Ultrasoft, Zval =  6.0
     Generated by new atomic code, or converted to UPF format
     Using radial grid of  737 points,  4 beta functions with:
                l(1) =   0
                l(2) =   0
                l(3) =   1
                l(4) =   1
     Q(r) pseudized with  8 coefficients,  rinner =    0.800   0.800   0.800

     PseudoPot. # 3 for N  read from file:
     /storage/coda1/p-amedford6/0/shared/rich_project_chbe-medford/medford-share/data/pseudos_module/espresso/nninc/pbe/van/N.UPF
     MD5 check sum: 90d10febe142ad51ac9d5be1deb811c4
     Pseudo is Ultrasoft, Zval =  5.0
     Generated by new atomic code, or converted to UPF format
     Using radial grid of  729 points,  4 beta functions with:
                l(1) =   0
                l(2) =   0
                l(3) =   1
                l(4) =   1
     Q(r) pseudized with  8 coefficients,  rinner =    0.800   0.800   0.800

     PseudoPot. # 4 for C  read from file:
     /storage/coda1/p-amedford6/0/shared/rich_project_chbe-medford/medford-share/data/pseudos_module/espresso/nninc/pbe/van/C.UPF
     MD5 check sum: 1a69bf6b8db32088f5b2163dbdb77a27
     Pseudo is Ultrasoft, Zval =  4.0
     Generated by new atomic code, or converted to UPF format
     Using radial grid of  721 points,  4 beta functions with:
                l(1) =   0
                l(2) =   0
                l(3) =   1
                l(4) =   1
     Q(r) pseudized with  8 coefficients,  rinner =    0.800   0.800   0.800

     PseudoPot. # 5 for H  read from file:
     /storage/coda1/p-amedford6/0/shared/rich_project_chbe-medford/medford-share/data/pseudos_module/espresso/nninc/pbe/van/H.UPF
     MD5 check sum: b5ee9d7bfd3a09ee7748110bda690ff7
     Pseudo is Ultrasoft, Zval =  1.0
     Generated by new atomic code, or converted to UPF format
     Using radial grid of  615 points,  1 beta functions with:
                l(1) =   0
     Q(r) pseudized with  8 coefficients,  rinner =    0.800

     atomic species   valence    mass     pseudopotential
        Ti1           12.00    47.86700     Ti( 1.00)
        O1             6.00    15.99900     O ( 1.00)
        N1             5.00    14.00700     N ( 1.00)
        C1             4.00    12.01100     C ( 1.00)
        H1             1.00     1.00800     H ( 1.00)

     No symmetry found

   Cartesian axes

     site n.     atom                  positions (alat units)
         1           Ti1 tau(   1) = (   0.0004258   2.9801865   6.0000000  )
         2           Ti1 tau(   2) = (   3.2906075   1.4906267   6.0002472  )
         3           O1  tau(   3) = (   0.0006271   0.0005054   7.9858123  )
         4           O1  tau(   4) = (   3.2906025   0.0005020   7.3038282  )
         5           O1  tau(   5) = (   4.5942328   1.4918067   9.2879030  )
         6           O1  tau(   6) = (   1.9868534   1.4903216   9.2879459  )
         7           Ti1 tau(   7) = (   3.2907910   2.8959150   9.1758416  )
         8           Ti1 tau(   8) = (   0.0015273   1.4827037   9.2680791  )
         9           O1  tau(   9) = (   3.3121314   5.9338840  11.3691909  )
        10           O1  tau(  10) = (   0.0116148   5.9584955  10.6183126  )
        11           O1  tau(  11) = (   1.3134021   1.4784130  12.6451072  )
        12           O1  tau(  12) = (   5.3172625   1.4801399  12.6491864  )
        13           Ti1 tau(  13) = (   0.0380378   2.9573341  12.5222382  )
        14           Ti1 tau(  14) = (   3.3404755   1.4532591  12.5245293  )
        15           O1  tau(  15) = (   0.0239237   0.0366503  14.6894071  )
        16           O1  tau(  16) = (   3.3255740   5.9570089  14.0129324  )
        17           O1  tau(  17) = (   4.5846449   1.4795273  16.1858442  )
        18           O1  tau(  18) = (   2.0539891   1.4908220  16.1938258  )
        19           Ti1 tau(  19) = (   3.3028508   2.9322526  15.7076921  )
        20           Ti1 tau(  20) = (   0.0088316   1.3655950  16.0522487  )
        21           O1  tau(  21) = (   3.2904802   0.0005063   4.7018136  )
        22           O1  tau(  22) = (   0.0586005   5.8320325  17.2288864  )
        23           O1  tau(  23) = (   1.3043587   1.4918075   6.0039043  )
        24           O1  tau(  24) = (   5.2767064   1.4903225   6.0039473  )
        25           Ti1 tau(  25) = (   0.0000382   5.9609847   6.0000000  )
        26           Ti1 tau(  26) = (   3.2902200   4.4714249   6.0002472  )
        27           O1  tau(  27) = (   0.0002396   2.9813036   7.9858123  )
        28           O1  tau(  28) = (   3.2902150   2.9813002   7.3038282  )
        29           O1  tau(  29) = (   4.5938453   4.4726049   9.2879030  )
        30           O1  tau(  30) = (   1.9864658   4.4711199   9.2879459  )
        31           Ti1 tau(  31) = (   3.2891106   5.8743827   9.1763621  )
        32           Ti1 tau(  32) = (   0.0006254   4.4649316   9.2693709  )
        33           O1  tau(  33) = (   3.3142679   2.9660735  11.3641874  )
        34           O1  tau(  34) = (   0.0092240   2.9805883  10.6323155  )
        35           O1  tau(  35) = (   1.3108675   4.4558178  12.6782323  )
        36           O1  tau(  36) = (   5.3175068   4.4537340  12.6790822  )
        37           Ti1 tau(  37) = (   0.0418451   5.9490355  12.4996082  )
        38           Ti1 tau(  38) = (   3.3402151   4.4429940  12.5219265  )
        39           O1  tau(  39) = (   0.0332256   2.9148708  14.9327709  )
        40           O1  tau(  40) = (   3.3156017   2.9437717  13.9283311  )
        41           O1  tau(  41) = (   4.5915719   4.3868214  16.1197993  )
        42           O1  tau(  42) = (   2.0539401   4.4017640  16.0846163  )
        43           Ti1 tau(  43) = (   3.3369130   5.9116756  15.8392261  )
        44           Ti1 tau(  44) = (   0.0533093   4.5818758  15.8415549  )
        45           O1  tau(  45) = (   3.2900926   2.9813045   4.7018136  )
        46           O1  tau(  46) = (   1.3039711   4.4726057   6.0039043  )
        47           O1  tau(  47) = (   5.2763189   4.4711207   6.0039473  )
        48           N1  tau(  48) = (   6.5187229   2.7802708  18.1865785  )
        49           C1  tau(  49) = (   0.9724842   2.7744648  18.9576868  )
        50           H1  tau(  50) = (   0.9153086   3.0669255  20.0057840  )
        51           H1  tau(  51) = (   1.9225290   2.4867234  18.5393133  )
        52           N1  tau(  52) = (   5.2958906   3.1014149  18.7352402  )
        53           H1  tau(  53) = (   5.3913054   3.6367428  19.5974321  )
        54           H1  tau(  54) = (   4.7863746   3.6605970  18.0522289  )
        55           O1  tau(  55) = (   3.2511457   5.8152340  18.3397965  )
        56           H1  tau(  56) = (   3.7467739   0.6636339  18.5518981  )
        57           H1  tau(  57) = (   2.3053106   0.0674530  18.4201010  )

     number of k points=    10  Fermi-Dirac smearing, width (Ry)=  0.0073
                       cart. coord. in units 2pi/alat
        k(    1) = (   0.0000000   0.0000000   0.0000000), wk =   0.1250000
        k(    2) = (   0.0000000   0.0419351   0.0000000), wk =   0.2500000
        k(    3) = (   0.0000000  -0.0838702   0.0000000), wk =   0.1250000
        k(    4) = (   0.0379955   0.0000049   0.0000000), wk =   0.2500000
        k(    5) = (   0.0379955   0.0419400   0.0000000), wk =   0.2500000
        k(    6) = (   0.0379955  -0.0838652   0.0000000), wk =   0.2500000
        k(    7) = (   0.0379955  -0.0419301   0.0000000), wk =   0.2500000
        k(    8) = (  -0.0759910  -0.0000099   0.0000000), wk =   0.1250000
        k(    9) = (  -0.0759910   0.0419252   0.0000000), wk =   0.2500000
        k(   10) = (  -0.0759910  -0.0838800   0.0000000), wk =   0.1250000

     Initial potential from superposition of free atoms

     starting charge  387.99913, renormalised to  404.00000

     negative rho (up, down):  1.527E-02 0.000E+00

     %%%%%%%%%%%%%%%%%%%%%%%%%%%%%%%%%%%%%%%%%%%%%%%%%%%%%%%%%%%%%%%%%%%%%%%%
     %                                                                      %
     % You are using vdW-DF, which was implemented by the Thonhauser group. %
     % Please cite the following two papers that made this development      %
     % possible and the two reviews that describe the various versions:     %
     %                                                                      %
     %   T. Thonhauser et al., PRL 115, 136402 (2015).                      %
     %   T. Thonhauser et al., PRB 76, 125112 (2007).                       %
     %   K. Berland et al., Rep. Prog. Phys. 78, 066501 (2015).             %
     %   D.C. Langreth et al., J. Phys.: Condens. Matter 21, 084203 (2009). %
     %                                                                      %
     %                                                                      %
     % If you are calculating the stress with vdW-DF, please also cite:     %
     %                                                                      %
     %   R. Sabatini et al., J. Phys.: Condens. Matter 24, 424209 (2012).   %
     %                                                                      %
     %%%%%%%%%%%%%%%%%%%%%%%%%%%%%%%%%%%%%%%%%%%%%%%%%%%%%%%%%%%%%%%%%%%%%%%%

     Adding external electric field

     Computed dipole along edir(3) :
        Dipole              -14.3244 Ry au,        -36.4090 Debye
        Dipole field         -0.0270 Ry au,

        Potential amp.        2.5058 Ry
        Total length         46.3494 bohr

     Starting wfcs are  306 atomic wfcs
  @ DRIVER MODE: Message from server: STATUS
  @ DRIVER MODE: Message from server: POSDATA
  @ DRIVER MODE: Reading and sharing cell
  @ DRIVER MODE: Reading and sharing positions
  @ DRIVER MODE: Received positions

     Self-consistent Calculation

     iteration #  1     ecut=    29.40 Ry     beta= 0.05
     Davidson diagonalization with overlap
     c_bands:  4 eigenvalues not converged
     c_bands:  3 eigenvalues not converged
     c_bands:  5 eigenvalues not converged
     c_bands:  1 eigenvalues not converged
     c_bands:  2 eigenvalues not converged
     c_bands:  1 eigenvalues not converged
     c_bands:  2 eigenvalues not converged
     c_bands:  5 eigenvalues not converged
     c_bands:  5 eigenvalues not converged
     ethr =  1.00E-05,  avg # of iterations = 24.6

[...]

     total energy              =   -2233.94412438 Ry
     estimated scf accuracy    <    8445.35109330 Ry

     iteration #  2     ecut=    29.40 Ry     beta= 0.05
     Davidson diagonalization with overlap
     ethr =  1.00E-02,  avg # of iterations = 24.4

[...]

     iteration # 76     ecut=    29.40 Ry     beta= 0.05
     Davidson diagonalization with overlap
     c_bands:  1 eigenvalues not converged
     ethr =  8.63E-10,  avg # of iterations = 14.5

[...]

     total energy              =   -2975.20577076 Ry
     estimated scf accuracy    <       0.00000012 Ry

     iteration # 83     ecut=    29.40 Ry     beta= 0.05
     Davidson diagonalization with overlap
     ethr =  3.01E-11,  avg # of iterations = 13.7

     negative rho (up, down):  1.520E-02 0.000E+00

     Adding external electric field

     Computed dipole along edir(3) :
        Dipole                1.3969 Ry au,          3.5506 Debye
        Dipole field          0.0026 Ry au,

        Potential amp.       -0.2444 Ry
        Total length         46.3494 bohr

     End of self-consistent calculation

          k = 0.0000 0.0000 0.0000 ( 18029 PWs)   bands (ev):

   -55.1917 -55.1558 -55.1519 -55.1178 -55.1044 -55.0724 -55.0376 -55.0343
   -55.0106 -54.9812 -54.9756 -54.9726 -54.9476 -54.8761 -54.1753 -54.1412
   -31.7570 -31.6435 -31.6012 -31.5610 -31.5106 -31.5000 -31.4931 -31.4858
   -31.4409 -31.4068 -31.4032 -31.3965 -31.3947 -31.3683 -31.3456 -31.3366
   -31.3356 -31.3294 -31.3099 -31.3038 -31.2839 -31.2797 -31.2650 -31.2514
   -31.2404 -31.2377 -31.2163 -31.2110 -31.2090 -31.2026 -31.1966 -31.1789
   -31.1742 -31.1637 -31.1588 -31.1461 -31.1247 -31.1211 -31.1093 -31.0919
   -31.0916 -31.0056 -30.5842 -30.4909 -30.4688 -30.4008 -30.3140 -30.2030
   -18.9147 -18.5934 -16.0174 -15.7521 -15.6159 -15.5059 -15.3905 -15.2604
   -15.2131 -15.0819 -15.0223 -14.9090 -14.8807 -14.8379 -14.8186 -14.8142
   -14.7562 -14.7290 -14.7221 -14.6968 -14.6866 -14.6652 -14.6259 -14.6196
   -14.5837 -14.5711 -14.5689 -14.4239 -14.3463 -14.2820 -13.9686 -13.6119
   -12.6777 -12.5604  -8.8242  -6.7028  -6.4817  -6.0494  -4.1375  -3.3605
    -3.2049  -3.1878  -3.1278  -3.0886  -3.0682  -3.0083  -2.9425  -2.7387
    -2.6044  -2.5769  -2.4582  -2.3921  -2.3876  -2.3346  -2.1916  -2.1871
    -2.1313  -2.0915  -2.0419  -2.0220  -1.9988  -1.9751  -1.9410  -1.9214
    -1.8950  -1.7600  -1.7396  -1.6661  -1.6037  -1.5935  -1.5352  -1.5115
    -1.4921  -1.4865  -1.4786  -1.4655  -1.4272  -1.4133  -1.3704  -1.3116
    -1.2105  -1.1205  -1.0299  -0.9471  -0.8874  -0.8263  -0.7645  -0.7554
    -0.6782  -0.6656  -0.5750  -0.5505  -0.5211  -0.4079  -0.3449  -0.3409
    -0.2780  -0.1765  -0.1476  -0.1312  -0.0592   0.0179   0.0369   0.0444
     0.0527   0.1772   0.2294   0.2650   0.2956   0.3658   0.3874   0.4410
     0.4851   0.4923   0.5693   0.6295   0.6859   0.7370   0.7502   0.7769
     0.7940   0.8060   0.8210   0.9002   0.9235   0.9606   1.0093   1.1649
     1.3255   1.4233   1.4399   1.7573   1.7708   1.8476   2.0321   2.4229
     2.4709   3.9044   3.9813   4.0404   4.0464   4.0556   4.1415   4.3861
     4.4018   4.4144   4.4266   4.4699

[...]

          k = 0.0380-0.0419 0.0000 ( 17876 PWs)   bands (ev):

[...]

          k =-0.0760-0.0000 0.0000 ( 17886 PWs)   bands (ev):

[...]

          k =-0.0760-0.0839 0.0000 ( 17948 PWs)   bands (ev):

   -55.1745 -55.1727 -55.1348 -55.1347 -55.1021 -55.0614 -55.0453 -55.0355
   -54.9961 -54.9895 -54.9748 -54.9647 -54.9643 -54.8780 -54.1582 -54.1582
   -31.5664 -31.5562 -31.5261 -31.4587 -31.4586 -31.4525 -31.4435 -31.4263
   -31.4262 -31.4052 -31.3947 -31.3918 -31.3794 -31.3535 -31.3291 -31.3236
   -31.3234 -31.3231 -31.3207 -31.3114 -31.3060 -31.2873 -31.2739 -31.2713
   -31.2574 -31.2543 -31.2543 -31.2528 -31.2430 -31.2396 -31.2295 -31.2276
   -31.2202 -31.2093 -31.2034 -31.1934 -31.1922 -31.1559 -31.1448 -31.1444
   -31.0999 -31.0920 -30.4815 -30.4814 -30.3969 -30.3967 -30.3574 -30.3574
   -18.9121 -18.5930 -15.5337 -15.4879 -15.3326 -15.1981 -15.1949 -15.1546
   -15.0989 -15.0271 -15.0059 -14.9632 -14.9523 -14.9339 -14.8968 -14.8899
   -14.8635 -14.7930 -14.7835 -14.7750 -14.7412 -14.7022 -14.6915 -14.6901
   -14.6733 -14.6435 -14.6403 -14.5428 -14.5407 -14.4474 -14.3077 -13.6268
   -12.6620 -12.6618  -8.7885  -6.7024  -6.4322  -6.0776  -4.1767  -3.2112
    -2.9276  -2.7520  -2.6464  -2.5442  -2.4176  -2.4119  -2.3265  -2.3179
    -2.2369  -2.2029  -2.1906  -2.1745  -2.0836  -2.0702  -2.0595  -2.0383
    -2.0218  -2.0038  -1.9720  -1.9658  -1.9423  -1.9156  -1.9052  -1.9034
    -1.8846  -1.8511  -1.8203  -1.8007  -1.7806  -1.7501  -1.7379  -1.6700
    -1.6303  -1.5429  -1.5075  -1.3932  -1.3912  -1.3669  -1.3125  -1.2942
    -1.2725  -1.2241  -1.2145  -1.1686  -1.0242  -0.9400  -0.9292  -0.8905
    -0.8413  -0.7928  -0.7464  -0.7303  -0.6644  -0.6439  -0.5500  -0.5354
    -0.4315  -0.3921  -0.3802  -0.3644  -0.2791  -0.2175  -0.1709  -0.1511
    -0.1465  -0.0956  -0.0816  -0.0683   0.0039   0.0505   0.0743   0.0888
     0.1309   0.2998   0.3590   0.3730   0.4933   0.5414   0.6556   0.7120
     0.7899   0.8031   0.8378   0.9276   0.9341   1.0109   1.1054   1.1193
     1.1573   1.2000   1.2490   1.2717   1.2766   2.2050   2.2063   2.2908
     2.2910   4.0487   4.1242   4.1827   4.2303   4.2381   4.3600   4.4216
     4.4644   4.4864   4.4887   4.5628

     the Fermi energy is     3.9624 ev

!    total energy              =   -2975.20577941 Ry
     estimated scf accuracy    <       0.00000005 Ry
     smearing contrib. (-TS)   =      -0.03732995 Ry
     internal energy E=F+TS    =   -2975.16844945 Ry

     The total energy is F=E-TS. E is the sum of the following terms:
     one-electron contribution =  -23538.17258686 Ry
     hartree contribution      =   11867.07667738 Ry
     xc contribution           =    -494.96960030 Ry
     ewald contribution        =    9190.89337793 Ry
     electric field correction =       0.00368240 Ry

     convergence has been achieved in  83 iterations

     Forces acting on atoms (cartesian axes, Ry/au):

     atom    1 type  1   force =     0.00006755   -0.00019261    0.09355158
     atom    2 type  1   force =    -0.00021006   -0.00021752   -0.17802043
     atom    3 type  2   force =     0.00010949   -0.00020720   -0.02067384
     atom    4 type  2   force =     0.00004700   -0.00197655    0.05805145
     atom    5 type  2   force =    -0.01001728   -0.00166821    0.00693068
     atom    6 type  2   force =     0.01216147   -0.00103582    0.00744095
     atom    7 type  1   force =     0.00021770    0.00248006   -0.01209471
     atom    8 type  1   force =    -0.00050137    0.00204560   -0.00194136
     atom    9 type  2   force =     0.00006624    0.00006146   -0.00004650
     atom   10 type  2   force =    -0.00044345   -0.00135361   -0.00318030
     atom   11 type  2   force =     0.00017552   -0.00008359   -0.00007667
     atom   12 type  2   force =    -0.00068905   -0.00012147    0.00008411
     atom   13 type  1   force =     0.00053675    0.00097993    0.00029086
     atom   14 type  1   force =    -0.00140524    0.00027702    0.00016855
     atom   15 type  2   force =    -0.00021339    0.00095416    0.00016676
     atom   16 type  2   force =    -0.00000797   -0.00043579    0.00013907
     atom   17 type  2   force =     0.00052480   -0.00000144   -0.00029789
     atom   18 type  2   force =     0.00054584    0.00015384   -0.00042104
     atom   19 type  1   force =    -0.00125854    0.00092012    0.00057086
     atom   20 type  1   force =     0.00045894    0.00002315   -0.00052567
     atom   21 type  2   force =     0.00001420   -0.00001978    0.10385520
     atom   22 type  2   force =    -0.00001000    0.00081861   -0.00029148
     atom   23 type  2   force =    -0.07055009   -0.00011771   -0.02696210
     atom   24 type  2   force =     0.07048355    0.00031114   -0.02702613
     atom   25 type  1   force =     0.00001576   -0.00020045    0.09300965
     atom   26 type  1   force =    -0.00009902   -0.00048812   -0.17793960
     atom   27 type  2   force =     0.00017001   -0.00036564   -0.01956411
     atom   28 type  2   force =     0.00010942   -0.00160250    0.05713102
     atom   29 type  2   force =    -0.01006436   -0.00086051    0.00630910
     atom   30 type  2   force =     0.01212364   -0.00061584    0.00686794
     atom   31 type  1   force =     0.00032305    0.00503546   -0.01527314
     atom   32 type  1   force =    -0.00039249   -0.00268535   -0.00236247
     atom   33 type  2   force =    -0.00003179   -0.00026001   -0.00004893
     atom   34 type  2   force =     0.00046128    0.00031440   -0.00055657
     atom   35 type  2   force =    -0.00010070   -0.00036934   -0.00007166
     atom   36 type  2   force =    -0.00046612   -0.00036354    0.00024821
     atom   37 type  1   force =     0.00027495   -0.00104192    0.00055199
     atom   38 type  1   force =    -0.00123933    0.00025461    0.00129051
     atom   39 type  2   force =    -0.00010912   -0.00048297    0.00016303
     atom   40 type  2   force =     0.00003350   -0.00042067    0.00044159
     atom   41 type  2   force =    -0.00018803   -0.00004891    0.00018620
     atom   42 type  2   force =     0.00134810   -0.00023868   -0.00003260
     atom   43 type  1   force =    -0.00130020   -0.00067338    0.00003036
     atom   44 type  1   force =     0.00100846    0.00056360    0.00020717
     atom   45 type  2   force =     0.00004129   -0.00002109    0.10379253
     atom   46 type  2   force =    -0.07057667   -0.00007672   -0.02697197
     atom   47 type  2   force =     0.07048041    0.00038641   -0.02700348
     atom   48 type  3   force =     0.02312352   -0.00292556    0.00693915
     atom   49 type  4   force =    -0.01249291    0.00062971   -0.00841875
     atom   50 type  5   force =    -0.00051482    0.00012787   -0.00080857
     atom   51 type  5   force =    -0.00153121   -0.00008126   -0.00077510
     atom   52 type  3   force =    -0.00718037    0.00388920    0.00199734
     atom   53 type  5   force =    -0.00022508    0.00030506    0.00019060
     atom   54 type  5   force =    -0.00213635    0.00060545    0.00057132
     atom   55 type  2   force =    -0.00045696    0.00078664   -0.00020794
     atom   56 type  5   force =    -0.00046345   -0.00043214    0.00081807
     atom   57 type  5   force =    -0.00004702   -0.00023762   -0.00040285

     Total force =     0.366925     Total SCF correction =     0.000409
  @ DRIVER MODE: Message from server: STATUS
  @ DRIVER MODE: Message from server: GETFORCE
  @ DRIVER MODE: Returning v,forces,stress,ensemble

     Writing output data file ./calc.save/
  @ DRIVER MODE: Message from server: EXIT
  @ DRIVE MODE: Exiting

     General routines

     Parallel routines

   This run was terminated on:  16:17:13  15Sep2021

   JOB DONE.