     Program PWSCF v.6.7GPU starts on 15Sep2021 at 15:50: 7

     R & G space division:  proc/nbgrp/npool/nimage =      10
     Reading input from /storage/home/hcoda1/3/ntian30/research/carbon/CxH_vib/CH_calc/ads_slab/CHNHNH2_b/out_0020/pw.inp
Warning: card &CELL ignored
Warning: card   CELL_DYNAMICS='IPI', ignored
Warning: card / ignored

     Current dimensions of program PWSCF are:
     Max number of different atomic species (ntypx) = 10
     Max number of k-points (npk) =  40000
     Max angular momentum in pseudopotentials (lmaxx) =  3
     Presently no symmetry can be used with electric field

     Message from routine cell_base_init:
     DEPRECATED: use true lattice parameter, not A to a.u. conversion factor

     IMPORTANT: XC functional enforced from input :
     Exchange-correlation= BEEF-VDW
                           (   1   4  43  14   2   0   0)
     Any further DFT definition will be discarded
     Please, verify this is what you really want

  @ DRIVER MODE: Connecting to
 qe_1139763_2850203.sched-torque.pace.gatech.eduxtztgv5l_scratch
  using UNIX socket
  @ DRIVER MODE: Message from server: STATUS
  @ DRIVER MODE: Message from server: INIT
  @ DRIVER MODE: Receiving replica           0          -1
  @ DRIVER MODE: Receiving encoded integer          25
  @ DRIVER MODE:  SCF:  T  FORCE:  T  STRESS:  F  VC:  F  ENSEMBLE:  F
  @ DRIVER MODE:  SCF:  T  FORCE:  T  STRESS:  F  VC:  F  ENSEMBLE:  F

     Using Slab Decomposition

     bravais-lattice index     =            0
     lattice parameter (alat)  =       1.8897  a.u.
     unit-cell volume          =    6658.9804 (a.u.)^3
     number of atoms/cell      =           54
     number of atomic types    =            5
     number of electrons       =       396.00
     number of Kohn-Sham states=          208
     kinetic-energy cutoff     =      29.3995  Ry
     charge density cutoff     =     293.9946  Ry
     scf convergence threshold =      7.3E-08
     mixing beta               =       0.0500
     number of iterations used =            8  plain     mixing
     Exchange-correlation= BEEF-VDW
                           (   1   4  43  14   2   0   0)

     celldm(1)=   1.889726  celldm(2)=   0.000000  celldm(3)=   0.000000
     celldm(4)=   0.000000  celldm(5)=   0.000000  celldm(6)=   0.000000

     crystal axes: (cart. coord. in units of alat)
               a(1) = (   6.579727   0.000000   0.000000 )
               a(2) = (  -0.000775   5.961596   0.000000 )
               a(3) = (   0.000000   0.000000  25.155947 )

     reciprocal axes: (cart. coord. in units 2 pi/alat)
               b(1) = (  0.151982  0.000020  0.000000 )
               b(2) = (  0.000000  0.167740  0.000000 )
               b(3) = (  0.000000  0.000000  0.039752 )

     PseudoPot. # 1 for Ti read from file:
     /storage/coda1/p-amedford6/0/shared/rich_project_chbe-medford/medford-share/data/pseudos_module/espresso/nninc/pbe/van/Ti.UPF
     MD5 check sum: 8e4df49b7f0d34bbd5052bf3f5ea0213
     Pseudo is Ultrasoft, Zval = 12.0
     Generated by new atomic code, or converted to UPF format
     Using radial grid of  851 points,  6 beta functions with:
                l(1) =   0
                l(2) =   0
                l(3) =   1
                l(4) =   1
                l(5) =   2
                l(6) =   2
     Q(r) pseudized with  8 coefficients,  rinner =    1.000   1.000   1.000
                                                       1.000   1.000

     PseudoPot. # 2 for O  read from file:
     /storage/coda1/p-amedford6/0/shared/rich_project_chbe-medford/medford-share/data/pseudos_module/espresso/nninc/pbe/van/O.UPF
     MD5 check sum: 78c19812648e8988a0fe644b0f25305e
     Pseudo is Ultrasoft, Zval =  6.0
     Generated by new atomic code, or converted to UPF format
     Using radial grid of  737 points,  4 beta functions with:
                l(1) =   0
                l(2) =   0
                l(3) =   1
                l(4) =   1
     Q(r) pseudized with  8 coefficients,  rinner =    0.800   0.800   0.800

     PseudoPot. # 3 for N  read from file:
     /storage/coda1/p-amedford6/0/shared/rich_project_chbe-medford/medford-share/data/pseudos_module/espresso/nninc/pbe/van/N.UPF
     MD5 check sum: 90d10febe142ad51ac9d5be1deb811c4
     Pseudo is Ultrasoft, Zval =  5.0
     Generated by new atomic code, or converted to UPF format
     Using radial grid of  729 points,  4 beta functions with:
                l(1) =   0
                l(2) =   0
                l(3) =   1
                l(4) =   1
     Q(r) pseudized with  8 coefficients,  rinner =    0.800   0.800   0.800

     PseudoPot. # 4 for C  read from file:
     /storage/coda1/p-amedford6/0/shared/rich_project_chbe-medford/medford-share/data/pseudos_module/espresso/nninc/pbe/van/C.UPF
     MD5 check sum: 1a69bf6b8db32088f5b2163dbdb77a27
     Pseudo is Ultrasoft, Zval =  4.0
     Generated by new atomic code, or converted to UPF format
     Using radial grid of  721 points,  4 beta functions with:
                l(1) =   0
                l(2) =   0
                l(3) =   1
                l(4) =   1
     Q(r) pseudized with  8 coefficients,  rinner =    0.800   0.800   0.800

     PseudoPot. # 5 for H  read from file:
     /storage/coda1/p-amedford6/0/shared/rich_project_chbe-medford/medford-share/data/pseudos_module/espresso/nninc/pbe/van/H.UPF
     MD5 check sum: b5ee9d7bfd3a09ee7748110bda690ff7
     Pseudo is Ultrasoft, Zval =  1.0
     Generated by new atomic code, or converted to UPF format
     Using radial grid of  615 points,  1 beta functions with:
                l(1) =   0
     Q(r) pseudized with  8 coefficients,  rinner =    0.800

     atomic species   valence    mass     pseudopotential
        Ti1           12.00    47.86700     Ti( 1.00)
        O1             6.00    15.99900     O ( 1.00)
        N1             5.00    14.00700     N ( 1.00)
        C1             4.00    12.01100     C ( 1.00)
        H1             1.00     1.00800     H ( 1.00)

     No symmetry found

   Cartesian axes

     site n.     atom                  positions (alat units)
         1           Ti1 tau(   1) = (   0.0004258   2.9801865   6.0000000  )
         2           Ti1 tau(   2) = (   3.2906075   1.4906267   6.0002472  )
         3           O1  tau(   3) = (   0.0006271   0.0005054   7.9858123  )
         4           O1  tau(   4) = (   3.2906025   0.0005020   7.3038282  )
         5           O1  tau(   5) = (   4.5942328   1.4918067   9.2879030  )
         6           O1  tau(   6) = (   1.9868534   1.4903216   9.2879459  )
         7           Ti1 tau(   7) = (   3.2907910   2.8959150   9.1758416  )
         8           Ti1 tau(   8) = (   0.0015273   1.4827037   9.2680791  )
         9           O1  tau(   9) = (   3.2793096   0.0109766  11.3808719  )
        10           O1  tau(  10) = (   0.0116148   5.9584955  10.6183126  )
        11           O1  tau(  11) = (   1.2765542   1.4933007  12.7034215  )
        12           O1  tau(  12) = (   5.2857700   1.4936877  12.6893616  )
        13           Ti1 tau(  13) = (   6.5704964   2.9736084  12.5041408  )
        14           Ti1 tau(  14) = (   3.2751742   1.4933391  12.5393049  )
        15           O1  tau(  15) = (   6.5372820   5.8718772  14.6936981  )
        16           O1  tau(  16) = (   3.2837545   5.9462538  13.9991140  )
        17           O1  tau(  17) = (   4.5218413   1.5222141  16.1415557  )
        18           O1  tau(  18) = (   2.0028246   1.5144184  16.0917912  )
        19           Ti1 tau(  19) = (   3.2608137   3.0032599  15.7731319  )
        20           Ti1 tau(  20) = (   6.5347537   1.3176600  15.8357148  )
        21           O1  tau(  21) = (   3.2904802   0.0005063   4.7018136  )
        22           O1  tau(  22) = (   0.0001116   0.1817366  17.2468837  )
        23           O1  tau(  23) = (   1.3043587   1.4918075   6.0039043  )
        24           O1  tau(  24) = (   5.2767064   1.4903225   6.0039473  )
        25           Ti1 tau(  25) = (   0.0000382   5.9609847   6.0000000  )
        26           Ti1 tau(  26) = (   3.2902200   4.4714249   6.0002472  )
        27           O1  tau(  27) = (   0.0002396   2.9813036   7.9858123  )
        28           O1  tau(  28) = (   3.2902150   2.9813002   7.3038282  )
        29           O1  tau(  29) = (   4.5938453   4.4726049   9.2879030  )
        30           O1  tau(  30) = (   1.9864658   4.4711199   9.2879459  )
        31           Ti1 tau(  31) = (   3.2891106   5.8743827   9.1763621  )
        32           Ti1 tau(  32) = (   0.0006254   4.4649316   9.2693709  )
        33           O1  tau(  33) = (   3.2784652   2.9723947  11.3763700  )
        34           O1  tau(  34) = (   0.0092240   2.9805883  10.6323155  )
        35           O1  tau(  35) = (   1.2785823   4.4627939  12.6603399  )
        36           O1  tau(  36) = (   5.2819334   4.4612839  12.6411408  )
        37           Ti1 tau(  37) = (   6.5651122   5.9414744  12.5010122  )
        38           Ti1 tau(  38) = (   3.2748416   4.4711967  12.5285960  )
        39           O1  tau(  39) = (   6.5535135   3.0442902  14.9788272  )
        40           O1  tau(  40) = (   3.2854610   3.0101546  13.9792171  )
        41           O1  tau(  41) = (   4.5276217   4.4805847  16.2446860  )
        42           O1  tau(  42) = (   2.0020726   4.4828838  16.2214318  )
        43           Ti1 tau(  43) = (   3.2599196   0.0196740  15.7976440  )
        44           Ti1 tau(  44) = (   6.5457193   4.5363361  16.0654255  )
        45           O1  tau(  45) = (   3.2900926   2.9813045   4.7018136  )
        46           O1  tau(  46) = (   1.3039711   4.4726057   6.0039043  )
        47           O1  tau(  47) = (   5.2763189   4.4711207   6.0039473  )
        48           N1  tau(  48) = (   1.1367570   2.6896871  18.7516802  )
        49           N1  tau(  49) = (   6.5001796   3.3781512  18.2049158  )
        50           C1  tau(  50) = (   2.1807708   3.2122984  19.2750733  )
        51           H1  tau(  51) = (   2.0427863   4.2879755  19.4033283  )
        52           H1  tau(  52) = (   1.0785778   1.7047639  18.4906217  )
        53           H1  tau(  53) = (   6.4055442   4.2515232  18.7250902  )
        54           H1  tau(  54) = (   5.6874363   2.7987760  18.4315970  )

     number of k points=    10  Fermi-Dirac smearing, width (Ry)=  0.0073
                       cart. coord. in units 2pi/alat
        k(    1) = (   0.0000000   0.0000000   0.0000000), wk =   0.1250000
        k(    2) = (   0.0000000   0.0419351   0.0000000), wk =   0.2500000
        k(    3) = (   0.0000000  -0.0838702   0.0000000), wk =   0.1250000
        k(    4) = (   0.0379955   0.0000049   0.0000000), wk =   0.2500000
        k(    5) = (   0.0379955   0.0419400   0.0000000), wk =   0.2500000
        k(    6) = (   0.0379955  -0.0838652   0.0000000), wk =   0.2500000
        k(    7) = (   0.0379955  -0.0419301   0.0000000), wk =   0.2500000
        k(    8) = (  -0.0759910  -0.0000099   0.0000000), wk =   0.1250000
        k(    9) = (  -0.0759910   0.0419252   0.0000000), wk =   0.2500000
        k(   10) = (  -0.0759910  -0.0838800   0.0000000), wk =   0.1250000

     Initial potential from superposition of free atoms

     starting charge  379.99915, renormalised to  396.00000

     negative rho (up, down):  1.651E-02 0.000E+00

     %%%%%%%%%%%%%%%%%%%%%%%%%%%%%%%%%%%%%%%%%%%%%%%%%%%%%%%%%%%%%%%%%%%%%%%%
     %                                                                      %
     % You are using vdW-DF, which was implemented by the Thonhauser group. %
     % Please cite the following two papers that made this development      %
     % possible and the two reviews that describe the various versions:     %
     %                                                                      %
     %   T. Thonhauser et al., PRL 115, 136402 (2015).                      %
     %   T. Thonhauser et al., PRB 76, 125112 (2007).                       %
     %   K. Berland et al., Rep. Prog. Phys. 78, 066501 (2015).             %
     %   D.C. Langreth et al., J. Phys.: Condens. Matter 21, 084203 (2009). %
     %                                                                      %
     %                                                                      %
     % If you are calculating the stress with vdW-DF, please also cite:     %
     %                                                                      %
     %   R. Sabatini et al., J. Phys.: Condens. Matter 24, 424209 (2012).   %
     %                                                                      %
     %%%%%%%%%%%%%%%%%%%%%%%%%%%%%%%%%%%%%%%%%%%%%%%%%%%%%%%%%%%%%%%%%%%%%%%%

     Adding external electric field

     Computed dipole along edir(3) :
        Dipole               -9.9915 Ry au,        -25.3958 Debye
        Dipole field         -0.0189 Ry au,

        Potential amp.        1.7479 Ry
        Total length         46.3494 bohr

     Starting wfcs are  300 atomic wfcs
  @ DRIVER MODE: Message from server: STATUS
  @ DRIVER MODE: Message from server: POSDATA
  @ DRIVER MODE: Reading and sharing cell
  @ DRIVER MODE: Reading and sharing positions
  @ DRIVER MODE: Received positions

     Self-consistent Calculation

     iteration #  1     ecut=    29.40 Ry     beta= 0.05
     Davidson diagonalization with overlap
     c_bands:  2 eigenvalues not converged
     c_bands:  2 eigenvalues not converged
     c_bands:  3 eigenvalues not converged
     c_bands:  2 eigenvalues not converged
     c_bands:  3 eigenvalues not converged
     c_bands:  1 eigenvalues not converged
     c_bands:  3 eigenvalues not converged
     c_bands:  2 eigenvalues not converged
     c_bands:  1 eigenvalues not converged
     c_bands:  1 eigenvalues not converged
     ethr =  1.00E-05,  avg # of iterations = 20.0

[...]

     total energy              =   -2520.16644845 Ry
     estimated scf accuracy    <    4698.36382454 Ry

     iteration #  2     ecut=    29.40 Ry     beta= 0.05
     Davidson diagonalization with overlap
     ethr =  1.00E-02,  avg # of iterations = 24.7

[...]

     iteration # 65     ecut=    29.40 Ry     beta= 0.05
     Davidson diagonalization with overlap
     c_bands:  2 eigenvalues not converged
     ethr =  1.50E-10,  avg # of iterations = 14.6

[...]

     total energy              =   -2940.25621615 Ry
     estimated scf accuracy    <       0.00000009 Ry

     iteration # 71     ecut=    29.40 Ry     beta= 0.05
     Davidson diagonalization with overlap
     ethr =  2.37E-11,  avg # of iterations = 11.3

     negative rho (up, down):  1.612E-02 0.000E+00

     Adding external electric field

     Computed dipole along edir(3) :
        Dipole                0.8151 Ry au,          2.0718 Debye
        Dipole field          0.0015 Ry au,

        Potential amp.       -0.1426 Ry
        Total length         46.3494 bohr

     End of self-consistent calculation

          k = 0.0000 0.0000 0.0000 ( 18029 PWs)   bands (ev):

   -55.6650 -55.6279 -55.6158 -55.5844 -55.5817 -55.5468 -55.5420 -55.5075
   -55.4882 -55.4777 -55.4538 -55.4474 -55.4137 -55.3297 -54.6479 -54.6138
   -32.2301 -32.1225 -32.1087 -32.0302 -31.9777 -31.9765 -31.9737 -31.9536
   -31.9048 -31.8988 -31.8740 -31.8701 -31.8608 -31.8491 -31.8320 -31.8205
   -31.8184 -31.8098 -31.8018 -31.7841 -31.7685 -31.7658 -31.7306 -31.7301
   -31.7200 -31.7186 -31.7065 -31.6905 -31.6731 -31.6728 -31.6677 -31.6476
   -31.6463 -31.6439 -31.6370 -31.6345 -31.6016 -31.5935 -31.5755 -31.5588
   -31.5378 -31.5254 -31.0574 -30.9628 -30.9407 -30.8737 -30.7869 -30.6760
   -18.4960 -16.4953 -16.2339 -16.0888 -15.9770 -15.8654 -15.7530 -15.7101
   -15.5959 -15.5217 -15.3934 -15.3590 -15.3219 -15.3067 -15.2939 -15.2931
   -15.2121 -15.2063 -15.1878 -15.1633 -15.1602 -15.1169 -15.1057 -15.0651
   -15.0409 -15.0101 -14.9123 -14.8267 -14.7529 -14.5878 -14.5069 -13.1502
   -13.0326  -9.6077  -6.7352  -5.8211  -4.1546  -3.9094  -3.8206  -3.6862
    -3.5810  -3.5578  -3.5026  -3.4209  -3.2472  -3.1112  -3.0595  -2.9538
    -2.8746  -2.8632  -2.8324  -2.7079  -2.6634  -2.6205  -2.5482  -2.5300
    -2.4721  -2.4506  -2.4337  -2.4173  -2.3965  -2.3857  -2.2966  -2.2352
    -2.1364  -2.0867  -2.0684  -2.0192  -2.0045  -1.9781  -1.9550  -1.9456
    -1.8931  -1.8887  -1.8604  -1.8115  -1.6932  -1.5594  -1.5273  -1.4272
    -1.3051  -1.2673  -1.2484  -1.1589  -1.1483  -1.1227  -1.0731  -1.0431
    -1.0071  -0.9297  -0.8769  -0.7864  -0.7447  -0.7389  -0.6755  -0.6544
    -0.5654  -0.4796  -0.4467  -0.4321  -0.4074  -0.2949  -0.2727  -0.2081
    -0.1488  -0.1382  -0.1302  -0.0503  -0.0056   0.0683   0.1007   0.1218
     0.2136   0.2350   0.2650   0.2667   0.2984   0.3194   0.3642   0.4065
     0.4330   0.5201   0.6366   0.8597   0.9450   0.9491   1.2715   1.2795
     1.3751   1.5585   1.6396   1.9516   2.0000   3.4321   3.5034   3.5782
     3.5821   3.5960   3.6681   3.9109   3.9316   3.9389   3.9417   3.9673

[...]

          k = 0.0380-0.0419 0.0000 ( 17876 PWs)   bands (ev):

[...]

          k =-0.0760-0.0000 0.0000 ( 17886 PWs)   bands (ev):

[...]

          k =-0.0760-0.0839 0.0000 ( 17948 PWs)   bands (ev):

   -55.6511 -55.6415 -55.5990 -55.5984 -55.5829 -55.5424 -55.5263 -55.5232
   -55.4821 -55.4723 -55.4693 -55.4308 -55.4305 -55.3309 -54.6309 -54.6306
   -32.0423 -32.0381 -32.0304 -31.9426 -31.9240 -31.9236 -31.9202 -31.8901
   -31.8899 -31.8742 -31.8644 -31.8616 -31.8540 -31.8308 -31.8184 -31.8060
   -31.8048 -31.8011 -31.7980 -31.7902 -31.7886 -31.7850 -31.7449 -31.7425
   -31.7408 -31.7379 -31.7316 -31.7204 -31.7187 -31.7182 -31.7149 -31.7049
   -31.7023 -31.6852 -31.6820 -31.6671 -31.6645 -31.6618 -31.6116 -31.6113
   -31.6023 -31.5425 -30.9535 -30.9532 -30.8699 -30.8697 -30.8303 -30.8302
   -18.4914 -16.0401 -15.8850 -15.8573 -15.7073 -15.6738 -15.6303 -15.6161
   -15.5092 -15.4555 -15.4353 -15.4173 -15.4170 -15.3676 -15.3656 -15.3605
   -15.2885 -15.2696 -15.2668 -15.2410 -15.1852 -15.1786 -15.1720 -15.1669
   -15.1151 -15.1114 -15.0701 -15.0206 -15.0173 -14.8418 -14.5288 -13.1341
   -13.1341  -9.5991  -6.7234  -5.8154  -4.1500  -3.7968  -3.1488  -3.1377
    -3.1178  -2.9225  -2.8539  -2.8240  -2.8206  -2.7276  -2.6867  -2.6492
    -2.6468  -2.5846  -2.5738  -2.5460  -2.5124  -2.5004  -2.4845  -2.4635
    -2.4309  -2.4006  -2.3902  -2.3790  -2.3777  -2.3254  -2.3130  -2.3013
    -2.2686  -2.2487  -2.2294  -2.2185  -2.1498  -2.0497  -2.0325  -1.9492
    -1.8748  -1.8705  -1.7986  -1.7735  -1.7352  -1.7078  -1.6991  -1.6342
    -1.4731  -1.4371  -1.4130  -1.4019  -1.2928  -1.2720  -1.2464  -1.1846
    -1.1718  -1.1506  -1.0235  -0.9879  -0.9748  -0.8907  -0.8803  -0.8002
    -0.7577  -0.6903  -0.6685  -0.6217  -0.6199  -0.5778  -0.5686  -0.5010
    -0.4701  -0.4344  -0.4008  -0.3869  -0.3498  -0.1547  -0.1420  -0.1330
     0.0052   0.0227   0.1862   0.2131   0.2664   0.3628   0.3877   0.4451
     0.4786   0.6206   0.6397   0.6464   0.7083   0.7204   0.7847   0.7960
     1.5354   1.7315   1.7320   1.8199   1.8201   3.5757   3.6877   3.7024
     3.7361   3.8459   3.8716   3.9501   3.9792   4.0170   4.0201   4.0820

     the Fermi energy is     3.4959 ev

!    total energy              =   -2940.25623092 Ry
     estimated scf accuracy    <       0.00000007 Ry
     smearing contrib. (-TS)   =      -0.03710027 Ry
     internal energy E=F+TS    =   -2940.21913065 Ry

     The total energy is F=E-TS. E is the sum of the following terms:
     one-electron contribution =  -23762.88736184 Ry
     hartree contribution      =   11970.35244262 Ry
     xc contribution           =    -485.99889945 Ry
     ewald contribution        =    9338.31343416 Ry
     electric field correction =       0.00125386 Ry

     convergence has been achieved in  71 iterations

     Forces acting on atoms (cartesian axes, Ry/au):

     atom    1 type  1   force =     0.00023243   -0.00026398    0.09312399
     atom    2 type  1   force =     0.00000061   -0.00049665   -0.17830999
     atom    3 type  2   force =     0.00007792   -0.00040406   -0.02008961
     atom    4 type  2   force =     0.00003974   -0.00193081    0.05909944
     atom    5 type  2   force =    -0.01029292   -0.00073312    0.00827422
     atom    6 type  2   force =     0.01151461   -0.00008478    0.00662109
     atom    7 type  1   force =    -0.00058002    0.00210813   -0.01394999
     atom    8 type  1   force =     0.00069194   -0.00092142   -0.00578512
     atom    9 type  2   force =     0.00007164   -0.00012172    0.00005080
     atom   10 type  2   force =    -0.00259923    0.00236531    0.00053350
     atom   11 type  2   force =    -0.00007424   -0.00005389    0.00007071
     atom   12 type  2   force =     0.00004583    0.00019037   -0.00006111
     atom   13 type  1   force =    -0.00008875    0.00007498    0.00003987
     atom   14 type  1   force =    -0.00009936   -0.00034852   -0.00003964
     atom   15 type  2   force =    -0.00014717    0.00011521    0.00009540
     atom   16 type  2   force =     0.00017321   -0.00003402    0.00020918
     atom   17 type  2   force =    -0.00000814   -0.00001658   -0.00002462
     atom   18 type  2   force =     0.00011048   -0.00011730    0.00027975
     atom   19 type  1   force =     0.00014558   -0.00012973    0.00002732
     atom   20 type  1   force =    -0.00025707    0.00026151   -0.00021894
     atom   21 type  2   force =     0.00014132   -0.00011090    0.10401118
     atom   22 type  2   force =     0.00005370    0.00023020    0.00013916
     atom   23 type  2   force =    -0.07025919   -0.00019805   -0.02687255
     atom   24 type  2   force =     0.07029915    0.00026491   -0.02690883
     atom   25 type  1   force =     0.00023058   -0.00018629    0.09279122
     atom   26 type  1   force =     0.00003022   -0.00045713   -0.17844724
     atom   27 type  2   force =     0.00013023   -0.00024472   -0.01916319
     atom   28 type  2   force =     0.00006803   -0.00174004    0.05853672
     atom   29 type  2   force =    -0.01092589   -0.00101279    0.00903303
     atom   30 type  2   force =     0.01204304   -0.00059433    0.00744753
     atom   31 type  1   force =    -0.00057100    0.00639038   -0.01468962
     atom   32 type  1   force =     0.00074834    0.00031587   -0.00608123
     atom   33 type  2   force =    -0.00008921   -0.00016649    0.00003644
     atom   34 type  2   force =    -0.00184504   -0.00250456   -0.00037651
     atom   35 type  2   force =    -0.00010552    0.00021527   -0.00008833
     atom   36 type  2   force =     0.00014121    0.00009586   -0.00014707
     atom   37 type  1   force =     0.00007516    0.00012374   -0.00001845
     atom   38 type  1   force =     0.00007549   -0.00043839   -0.00001948
     atom   39 type  2   force =     0.00014346    0.00014975   -0.00014292
     atom   40 type  2   force =    -0.00010035   -0.00007528    0.00017912
     atom   41 type  2   force =    -0.00007780    0.00003369    0.00005765
     atom   42 type  2   force =     0.00004753    0.00006330    0.00002752
     atom   43 type  1   force =     0.00034189   -0.00010844    0.00010938
     atom   44 type  1   force =     0.00019394    0.00018132   -0.00004229
     atom   45 type  2   force =     0.00012718   -0.00010876    0.10397136
     atom   46 type  2   force =    -0.07026027   -0.00011663   -0.02687245
     atom   47 type  2   force =     0.07025047    0.00029179   -0.02688389
     atom   48 type  3   force =     0.00003791   -0.00205897    0.00075467
     atom   49 type  3   force =    -0.00011551   -0.00021644    0.00009303
     atom   50 type  4   force =     0.00034715   -0.00980162   -0.00115310
     atom   51 type  5   force =    -0.00073442    0.01055478    0.00093747
     atom   52 type  5   force =    -0.00009132    0.00140155   -0.00037488
     atom   53 type  5   force =     0.00043738   -0.00033919    0.00001541
     atom   54 type  5   force =     0.00025509    0.00070769    0.00019487

     Total force =     0.366624     Total SCF correction =     0.000591
  @ DRIVER MODE: Message from server: STATUS
  @ DRIVER MODE: Message from server: GETFORCE
  @ DRIVER MODE: Returning v,forces,stress,ensemble

     Writing output data file ./calc.save/
  @ DRIVER MODE: Message from server: EXIT
  @ DRIVE MODE: Exiting

     General routines

     Parallel routines

   This run was terminated on:  16: 9:20  15Sep2021

   JOB DONE.