     Program PWSCF v.6.7GPU starts on 15Sep2021 at 18:27:21

     R & G space division:  proc/nbgrp/npool/nimage =      10
     Reading input from /storage/home/hcoda1/3/ntian30/research/carbon/CxH_vib/H2O_calc/ads_slab/CH3NHH2O_a/out_0009/pw.inp
Warning: card &CELL ignored
Warning: card   CELL_DYNAMICS='IPI', ignored
Warning: card / ignored

     Current dimensions of program PWSCF are:
     Max number of different atomic species (ntypx) = 10
     Max number of k-points (npk) =  40000
     Max angular momentum in pseudopotentials (lmaxx) =  3
     Presently no symmetry can be used with electric field

     Message from routine cell_base_init:
     DEPRECATED: use true lattice parameter, not A to a.u. conversion factor

     IMPORTANT: XC functional enforced from input :
     Exchange-correlation= BEEF-VDW
                           (   1   4  43  14   2   0   0)
     Any further DFT definition will be discarded
     Please, verify this is what you really want

  @ DRIVER MODE: Connecting to
 qe_1139763_2852633.sched-torque.pace.gatech.edul4lc1e8z_scratch
  using UNIX socket
  @ DRIVER MODE: Message from server: STATUS
  @ DRIVER MODE: Message from server: INIT
  @ DRIVER MODE: Receiving replica           0          -1
  @ DRIVER MODE: Receiving encoded integer          25
  @ DRIVER MODE:  SCF:  T  FORCE:  T  STRESS:  F  VC:  F  ENSEMBLE:  F
  @ DRIVER MODE:  SCF:  T  FORCE:  T  STRESS:  F  VC:  F  ENSEMBLE:  F

     Using Slab Decomposition

     bravais-lattice index     =            0
     lattice parameter (alat)  =       1.8897  a.u.
     unit-cell volume          =    6658.9804 (a.u.)^3
     number of atoms/cell      =           56
     number of atomic types    =            5
     number of electrons       =       399.00
     number of Kohn-Sham states=          209
     kinetic-energy cutoff     =      29.3995  Ry
     charge density cutoff     =     293.9946  Ry
     scf convergence threshold =      7.3E-08
     mixing beta               =       0.0500
     number of iterations used =            8  plain     mixing
     Exchange-correlation= BEEF-VDW
                           (   1   4  43  14   2   0   0)

     celldm(1)=   1.889726  celldm(2)=   0.000000  celldm(3)=   0.000000
     celldm(4)=   0.000000  celldm(5)=   0.000000  celldm(6)=   0.000000

     crystal axes: (cart. coord. in units of alat)
               a(1) = (   6.579727   0.000000   0.000000 )
               a(2) = (  -0.000775   5.961596   0.000000 )
               a(3) = (   0.000000   0.000000  25.155947 )

     reciprocal axes: (cart. coord. in units 2 pi/alat)
               b(1) = (  0.151982  0.000020  0.000000 )
               b(2) = (  0.000000  0.167740  0.000000 )
               b(3) = (  0.000000  0.000000  0.039752 )

     PseudoPot. # 1 for Ti read from file:
     /storage/coda1/p-amedford6/0/shared/rich_project_chbe-medford/medford-share/data/pseudos_module/espresso/nninc/pbe/van/Ti.UPF
     MD5 check sum: 8e4df49b7f0d34bbd5052bf3f5ea0213
     Pseudo is Ultrasoft, Zval = 12.0
     Generated by new atomic code, or converted to UPF format
     Using radial grid of  851 points,  6 beta functions with:
                l(1) =   0
                l(2) =   0
                l(3) =   1
                l(4) =   1
                l(5) =   2
                l(6) =   2
     Q(r) pseudized with  8 coefficients,  rinner =    1.000   1.000   1.000
                                                       1.000   1.000

     PseudoPot. # 2 for O  read from file:
     /storage/coda1/p-amedford6/0/shared/rich_project_chbe-medford/medford-share/data/pseudos_module/espresso/nninc/pbe/van/O.UPF
     MD5 check sum: 78c19812648e8988a0fe644b0f25305e
     Pseudo is Ultrasoft, Zval =  6.0
     Generated by new atomic code, or converted to UPF format
     Using radial grid of  737 points,  4 beta functions with:
                l(1) =   0
                l(2) =   0
                l(3) =   1
                l(4) =   1
     Q(r) pseudized with  8 coefficients,  rinner =    0.800   0.800   0.800

     PseudoPot. # 3 for H  read from file:
     /storage/coda1/p-amedford6/0/shared/rich_project_chbe-medford/medford-share/data/pseudos_module/espresso/nninc/pbe/van/H.UPF
     MD5 check sum: b5ee9d7bfd3a09ee7748110bda690ff7
     Pseudo is Ultrasoft, Zval =  1.0
     Generated by new atomic code, or converted to UPF format
     Using radial grid of  615 points,  1 beta functions with:
                l(1) =   0
     Q(r) pseudized with  8 coefficients,  rinner =    0.800

     PseudoPot. # 4 for N  read from file:
     /storage/coda1/p-amedford6/0/shared/rich_project_chbe-medford/medford-share/data/pseudos_module/espresso/nninc/pbe/van/N.UPF
     MD5 check sum: 90d10febe142ad51ac9d5be1deb811c4
     Pseudo is Ultrasoft, Zval =  5.0
     Generated by new atomic code, or converted to UPF format
     Using radial grid of  729 points,  4 beta functions with:
                l(1) =   0
                l(2) =   0
                l(3) =   1
                l(4) =   1
     Q(r) pseudized with  8 coefficients,  rinner =    0.800   0.800   0.800

     PseudoPot. # 5 for C  read from file:
     /storage/coda1/p-amedford6/0/shared/rich_project_chbe-medford/medford-share/data/pseudos_module/espresso/nninc/pbe/van/C.UPF
     MD5 check sum: 1a69bf6b8db32088f5b2163dbdb77a27
     Pseudo is Ultrasoft, Zval =  4.0
     Generated by new atomic code, or converted to UPF format
     Using radial grid of  721 points,  4 beta functions with:
                l(1) =   0
                l(2) =   0
                l(3) =   1
                l(4) =   1
     Q(r) pseudized with  8 coefficients,  rinner =    0.800   0.800   0.800

     atomic species   valence    mass     pseudopotential
        Ti1           12.00    47.86700     Ti( 1.00)
        O1             6.00    15.99900     O ( 1.00)
        H1             1.00     1.00800     H ( 1.00)
        N1             5.00    14.00700     N ( 1.00)
        C1             4.00    12.01100     C ( 1.00)

     No symmetry found

   Cartesian axes

     site n.     atom                  positions (alat units)
         1           Ti1 tau(   1) = (   0.0004258   2.9801865   6.0000000  )
         2           Ti1 tau(   2) = (   3.2906075   1.4906267   6.0002472  )
         3           O1  tau(   3) = (   0.0006271   0.0005054   7.9858123  )
         4           O1  tau(   4) = (   3.2906025   0.0005020   7.3038282  )
         5           O1  tau(   5) = (   4.5942328   1.4918067   9.2879030  )
         6           O1  tau(   6) = (   1.9868534   1.4903216   9.2879459  )
         7           Ti1 tau(   7) = (   3.2907910   2.8959150   9.1758416  )
         8           Ti1 tau(   8) = (   0.0015273   1.4827037   9.2680791  )
         9           O1  tau(   9) = (   3.2896571   0.0076959  11.3233140  )
        10           O1  tau(  10) = (   0.0116148   5.9584955  10.6183126  )
        11           O1  tau(  11) = (   1.3168077   1.5009220  12.6157425  )
        12           O1  tau(  12) = (   5.2956243   1.4929856  12.6075824  )
        13           Ti1 tau(  13) = (   6.5239244   2.9540340  12.6210794  )
        14           Ti1 tau(  14) = (   3.2085880   1.4976218  12.4699624  )
        15           O1  tau(  15) = (   6.5712616   0.0419518  14.6436513  )
        16           O1  tau(  16) = (   3.3111435   0.0202601  13.9161875  )
        17           O1  tau(  17) = (   4.5291760   1.5523016  16.0784362  )
        18           O1  tau(  18) = (   2.0445308   1.5488630  16.0432715  )
        19           Ti1 tau(  19) = (   3.3059752   3.0257308  15.6838679  )
        20           Ti1 tau(  20) = (   0.0592185   1.5662548  15.8694889  )
        21           O1  tau(  21) = (   3.2904802   0.0005063   4.7018136  )
        22           O1  tau(  22) = (   0.0264932   0.0561689  17.2024660  )
        23           O1  tau(  23) = (   1.3043587   1.4918075   6.0039043  )
        24           O1  tau(  24) = (   5.2767064   1.4903225   6.0039473  )
        25           Ti1 tau(  25) = (   0.0000382   5.9609847   6.0000000  )
        26           Ti1 tau(  26) = (   3.2902200   4.4714249   6.0002472  )
        27           O1  tau(  27) = (   0.0002396   2.9813036   7.9858123  )
        28           O1  tau(  28) = (   3.2902150   2.9813002   7.3038282  )
        29           O1  tau(  29) = (   4.5938453   4.4726049   9.2879030  )
        30           O1  tau(  30) = (   1.9864658   4.4711199   9.2879459  )
        31           Ti1 tau(  31) = (   3.2891106   5.8743827   9.1763621  )
        32           Ti1 tau(  32) = (   0.0006254   4.4649316   9.2693709  )
        33           O1  tau(  33) = (   3.2898653   2.9926188  11.3210358  )
        34           O1  tau(  34) = (   0.0092240   2.9805883  10.6323155  )
        35           O1  tau(  35) = (   1.3106253   4.4883450  12.6271249  )
        36           O1  tau(  36) = (   5.2968722   4.4793810  12.6200386  )
        37           Ti1 tau(  37) = (   6.5212985   5.9329073  12.5685303  )
        38           Ti1 tau(  38) = (   3.2059443   4.4781599  12.4721232  )
        39           O1  tau(  39) = (   6.5764971   2.9600267  14.6431433  )
        40           O1  tau(  40) = (   3.3056941   3.0038382  13.8936370  )
        41           O1  tau(  41) = (   4.5394310   4.5052612  16.0827012  )
        42           O1  tau(  42) = (   2.0570581   4.5113261  16.0718816  )
        43           Ti1 tau(  43) = (   3.3383738   0.0382055  15.7109988  )
        44           Ti1 tau(  44) = (   0.0469139   4.6840235  16.0886640  )
        45           O1  tau(  45) = (   3.2900926   2.9813045   4.7018136  )
        46           O1  tau(  46) = (   1.3039711   4.4726057   6.0039043  )
        47           O1  tau(  47) = (   5.2763189   4.4711207   6.0039473  )
        48           H1  tau(  48) = (   5.6101632   2.9904038  17.7880820  )
        49           N1  tau(  49) = (   6.5649722   2.9946358  17.4438072  )
        50           C1  tau(  50) = (   0.8874553   2.9889031  18.6120612  )
        51           H1  tau(  51) = (   1.3591778   3.9628686  18.7739097  )
        52           H1  tau(  52) = (   0.3310755   2.7322232  19.5165709  )
        53           H1  tau(  53) = (   1.6717793   2.2402645  18.4914768  )
        54           O1  tau(  54) = (   3.2567199   5.9268012  21.6217354  )
        55           H1  tau(  55) = (   4.0245811   5.9269051  22.2091127  )
        56           H1  tau(  56) = (   2.4887544   5.9269923  22.2092946  )

     number of k points=    10  Fermi-Dirac smearing, width (Ry)=  0.0073
                       cart. coord. in units 2pi/alat
        k(    1) = (   0.0000000   0.0000000   0.0000000), wk =   0.1250000
        k(    2) = (   0.0000000   0.0419351   0.0000000), wk =   0.2500000
        k(    3) = (   0.0000000  -0.0838702   0.0000000), wk =   0.1250000
        k(    4) = (   0.0379955   0.0000049   0.0000000), wk =   0.2500000
        k(    5) = (   0.0379955   0.0419400   0.0000000), wk =   0.2500000
        k(    6) = (   0.0379955  -0.0838652   0.0000000), wk =   0.2500000
        k(    7) = (   0.0379955  -0.0419301   0.0000000), wk =   0.2500000
        k(    8) = (  -0.0759910  -0.0000099   0.0000000), wk =   0.1250000
        k(    9) = (  -0.0759910   0.0419252   0.0000000), wk =   0.2500000
        k(   10) = (  -0.0759910  -0.0838800   0.0000000), wk =   0.1250000

     Initial potential from superposition of free atoms

     starting charge  382.99914, renormalised to  399.00000

     negative rho (up, down):  9.626E-03 0.000E+00

     %%%%%%%%%%%%%%%%%%%%%%%%%%%%%%%%%%%%%%%%%%%%%%%%%%%%%%%%%%%%%%%%%%%%%%%%
     %                                                                      %
     % You are using vdW-DF, which was implemented by the Thonhauser group. %
     % Please cite the following two papers that made this development      %
     % possible and the two reviews that describe the various versions:     %
     %                                                                      %
     %   T. Thonhauser et al., PRL 115, 136402 (2015).                      %
     %   T. Thonhauser et al., PRB 76, 125112 (2007).                       %
     %   K. Berland et al., Rep. Prog. Phys. 78, 066501 (2015).             %
     %   D.C. Langreth et al., J. Phys.: Condens. Matter 21, 084203 (2009). %
     %                                                                      %
     %                                                                      %
     % If you are calculating the stress with vdW-DF, please also cite:     %
     %                                                                      %
     %   R. Sabatini et al., J. Phys.: Condens. Matter 24, 424209 (2012).   %
     %                                                                      %
     %%%%%%%%%%%%%%%%%%%%%%%%%%%%%%%%%%%%%%%%%%%%%%%%%%%%%%%%%%%%%%%%%%%%%%%%

     Adding external electric field

     Computed dipole along edir(3) :
        Dipole              -12.5493 Ry au,        -31.8972 Debye
        Dipole field         -0.0237 Ry au,

        Potential amp.        2.1953 Ry
        Total length         46.3494 bohr

     Starting wfcs are  302 atomic wfcs
  @ DRIVER MODE: Message from server: STATUS
  @ DRIVER MODE: Message from server: POSDATA
  @ DRIVER MODE: Reading and sharing cell
  @ DRIVER MODE: Reading and sharing positions
  @ DRIVER MODE: Received positions

     Self-consistent Calculation

     iteration #  1     ecut=    29.40 Ry     beta= 0.05
     Davidson diagonalization with overlap
     c_bands:  2 eigenvalues not converged
     c_bands:  2 eigenvalues not converged
     c_bands:  4 eigenvalues not converged
     c_bands:  3 eigenvalues not converged
     c_bands:  3 eigenvalues not converged
     c_bands:  3 eigenvalues not converged
     c_bands:  5 eigenvalues not converged
     c_bands:  4 eigenvalues not converged
     c_bands:  5 eigenvalues not converged
     ethr =  1.00E-05,  avg # of iterations = 22.0

[...]

     total energy              =   -2445.25879917 Ry
     estimated scf accuracy    <    5721.84823344 Ry

     iteration #  2     ecut=    29.40 Ry     beta= 0.05
     Davidson diagonalization with overlap
     ethr =  1.00E-02,  avg # of iterations = 22.0

[...]

     iteration # 58     ecut=    29.40 Ry     beta= 0.05
     Davidson diagonalization with overlap
     c_bands:  1 eigenvalues not converged
     ethr =  5.72E-10,  avg # of iterations = 10.2

[...]

     total energy              =   -2955.21562065 Ry
     estimated scf accuracy    <       0.00000010 Ry

     iteration # 65     ecut=    29.40 Ry     beta= 0.05
     Davidson diagonalization with overlap
     ethr =  2.51E-11,  avg # of iterations =  8.3

     negative rho (up, down):  1.109E-02 0.000E+00

     Adding external electric field

     Computed dipole along edir(3) :
        Dipole                1.3292 Ry au,          3.3784 Debye
        Dipole field          0.0025 Ry au,

        Potential amp.       -0.2325 Ry
        Total length         46.3494 bohr

     End of self-consistent calculation

          k = 0.0000 0.0000 0.0000 ( 18029 PWs)   bands (ev):

   -55.4949 -55.4861 -55.4609 -55.4500 -55.4052 -55.3363 -55.3331 -55.2992
   -55.2984 -55.2653 -55.2570 -55.2233 -55.0647 -54.7920 -54.4665 -54.4325
   -32.0443 -31.9763 -31.8499 -31.8348 -31.8142 -31.7986 -31.7880 -31.7481
   -31.7362 -31.7360 -31.7093 -31.7017 -31.6685 -31.6471 -31.6385 -31.6353
   -31.6282 -31.5982 -31.5764 -31.5522 -31.5444 -31.5399 -31.5241 -31.5012
   -31.4935 -31.4886 -31.4852 -31.4770 -31.4602 -31.4577 -31.4518 -31.4483
   -31.4346 -31.4294 -31.4104 -31.4061 -31.3697 -31.3298 -31.2343 -31.0638
   -31.0593 -30.9899 -30.8734 -30.7857 -30.7633 -30.6901 -30.6036 -30.4926
   -18.5825 -16.2530 -15.9712 -15.7915 -15.6487 -15.6163 -15.5284 -15.3305
   -15.2049 -15.1895 -15.0852 -15.0532 -15.0287 -15.0220 -14.9938 -14.9900
   -14.9345 -14.9272 -14.9185 -14.9055 -14.8466 -14.8224 -14.7814 -14.6913
   -14.6669 -14.6515 -14.6242 -14.5415 -14.5359 -14.0935 -13.6344 -12.9694
   -12.8532  -8.4771  -6.3859  -3.9167  -3.6234  -3.4495  -3.4113  -3.3968
    -3.3462  -3.0958  -3.0781  -2.8470  -2.7088  -2.6970  -2.6787  -2.6660
    -2.6484  -2.6299  -2.4168  -2.3928  -2.3252  -2.3093  -2.2875  -2.2790
    -2.2728  -2.2631  -2.2596  -2.2149  -2.1598  -2.0469  -2.0282  -1.9217
    -1.8779  -1.8531  -1.8040  -1.7596  -1.7535  -1.7435  -1.7236  -1.7121
    -1.6894  -1.6717  -1.5366  -1.4738  -1.3414  -1.2955  -1.2879  -1.0942
    -1.0578  -0.9642  -0.9371  -0.9207  -0.9125  -0.8804  -0.7986  -0.7067
    -0.6531  -0.6409  -0.5873  -0.5082  -0.4941  -0.4006  -0.3856  -0.3797
    -0.3282  -0.2634  -0.2535  -0.2446  -0.1988  -0.1317  -0.0553   0.0199
     0.0724   0.0932   0.1204   0.1994   0.2283   0.3229   0.3442   0.3905
     0.3961   0.4423   0.4843   0.4930   0.4986   0.5146   0.5343   0.6818
     0.7898   0.8449   0.8794   0.8894   1.0466   1.0821   1.1700   1.2570
     1.4824   1.5550   1.6500   1.7483   1.7998   2.1258   2.1711   3.6486
     3.7276   3.7815   3.7906   3.8863   3.8936   4.0981   4.1074   4.1186
     4.1904

[...]

          k = 0.0380-0.0419 0.0000 ( 17876 PWs)   bands (ev):

[...]

          k =-0.0760-0.0000 0.0000 ( 17886 PWs)   bands (ev):

[...]

          k =-0.0760-0.0839 0.0000 ( 17948 PWs)   bands (ev):

   -55.4782 -55.4774 -55.4681 -55.4678 -55.4005 -55.3409 -55.3181 -55.3133
   -55.2829 -55.2810 -55.2405 -55.2399 -55.0637 -54.7929 -54.4495 -54.4493
   -31.8486 -31.8469 -31.7918 -31.7913 -31.7818 -31.7737 -31.7730 -31.7575
   -31.6982 -31.6959 -31.6894 -31.6855 -31.6645 -31.6319 -31.6152 -31.6117
   -31.6035 -31.5996 -31.5977 -31.5970 -31.5941 -31.5809 -31.5786 -31.5464
   -31.5365 -31.5348 -31.5104 -31.4957 -31.4791 -31.4787 -31.4732 -31.4728
   -31.4560 -31.4558 -31.4552 -31.4515 -31.3993 -31.3325 -31.2294 -31.1265
   -31.0618 -31.0160 -30.7760 -30.7759 -30.6863 -30.6861 -30.6469 -30.6469
   -18.5823 -15.7042 -15.6719 -15.4336 -15.4276 -15.4177 -15.4031 -15.2615
   -15.2066 -15.1981 -15.1914 -15.1654 -15.1446 -15.0915 -15.0652 -15.0269
   -15.0213 -15.0157 -15.0129 -14.9508 -14.9449 -14.9237 -14.9164 -14.8025
   -14.7998 -14.7984 -14.7271 -14.6568 -14.5205 -14.2629 -13.6559 -12.9551
   -12.9548  -8.4809  -6.3874  -3.9282  -2.9977  -2.9602  -2.8130  -2.7222
    -2.6745  -2.6604  -2.6428  -2.5654  -2.4139  -2.4047  -2.3886  -2.3714
    -2.3572  -2.3198  -2.3134  -2.3009  -2.2880  -2.2808  -2.2628  -2.2266
    -2.1882  -2.1605  -2.1526  -2.1430  -2.1184  -2.1063  -2.0809  -2.0755
    -2.0410  -2.0328  -2.0166  -1.9925  -1.7368  -1.7119  -1.6935  -1.6231
    -1.6159  -1.5837  -1.5748  -1.5558  -1.5426  -1.4900  -1.3913  -1.2247
    -1.1913  -1.1845  -1.1644  -1.0997  -1.0781  -0.9283  -0.9015  -0.8825
    -0.8447  -0.7955  -0.7634  -0.7242  -0.6885  -0.6523  -0.5904  -0.5830
    -0.5026  -0.4538  -0.4529  -0.4274  -0.4196  -0.3567  -0.2777  -0.2589
    -0.2480  -0.2066  -0.1937  -0.1119  -0.0891   0.0085   0.0231   0.0862
     0.1189   0.1913   0.3901   0.4901   0.5492   0.5755   0.6288   0.7235
     0.7788   0.7908   0.8259   0.8309   0.8926   0.9328   1.0478   1.0549
     1.1224   1.2248   1.7502   1.9195   1.9203   1.9908   1.9910   3.9094
     3.9163   3.9671   3.9958   4.1483   4.1530   4.1756   4.1765   4.2971
     4.3152

     the Fermi energy is     3.6415 ev

!    total energy              =   -2955.21564802 Ry
     estimated scf accuracy    <       0.00000006 Ry
     smearing contrib. (-TS)   =      -0.02205073 Ry
     internal energy E=F+TS    =   -2955.19359729 Ry

     The total energy is F=E-TS. E is the sum of the following terms:
     one-electron contribution =  -23379.94929612 Ry
     hartree contribution      =   11781.87848319 Ry
     xc contribution           =    -489.67933254 Ry
     ewald contribution        =    9132.55321424 Ry
     electric field correction =       0.00333394 Ry

     convergence has been achieved in  65 iterations

     Forces acting on atoms (cartesian axes, Ry/au):

     atom    1 type  1   force =     0.00012474   -0.00020191    0.09689794
     atom    2 type  1   force =     0.00004072   -0.00047346   -0.17494020
     atom    3 type  2   force =     0.00013040    0.00001858   -0.02538092
     atom    4 type  2   force =    -0.00003093   -0.00126779    0.05223791
     atom    5 type  2   force =    -0.01216675    0.00000731    0.00288677
     atom    6 type  2   force =     0.01361689    0.00055313    0.00225857
     atom    7 type  1   force =     0.00059396    0.00031224   -0.01252653
     atom    8 type  1   force =     0.00044401    0.00707318    0.03083098
     atom    9 type  2   force =     0.00032291    0.00016607    0.00045459
     atom   10 type  2   force =    -0.00271482    0.00207491   -0.01688336
     atom   11 type  2   force =     0.00019006   -0.00037896    0.00012442
     atom   12 type  2   force =     0.00006530   -0.00038461    0.00022684
     atom   13 type  1   force =    -0.00019344    0.00036361    0.00011664
     atom   14 type  1   force =    -0.00012583    0.00033343   -0.00036737
     atom   15 type  2   force =    -0.00000008   -0.00115434    0.00024092
     atom   16 type  2   force =     0.00014480    0.00036460    0.00128919
     atom   17 type  2   force =    -0.00048828   -0.00042721    0.00015314
     atom   18 type  2   force =     0.00051206   -0.00038845    0.00001434
     atom   19 type  1   force =     0.00019450   -0.00061638    0.00033688
     atom   20 type  1   force =    -0.00044926    0.00037688    0.00022698
     atom   21 type  2   force =     0.00005920   -0.00002035    0.10301035
     atom   22 type  2   force =     0.00013491   -0.00226520    0.00031108
     atom   23 type  2   force =    -0.07167845   -0.00015659   -0.02781003
     atom   24 type  2   force =     0.07157475    0.00034319   -0.02786761
     atom   25 type  1   force =     0.00008620   -0.00016498    0.09667066
     atom   26 type  1   force =     0.00009305   -0.00024752   -0.17505389
     atom   27 type  2   force =     0.00012038   -0.00011182   -0.02444914
     atom   28 type  2   force =     0.00003893   -0.00101575    0.05207156
     atom   29 type  2   force =    -0.01236159    0.00067158    0.00265203
     atom   30 type  2   force =     0.01368294    0.00106185    0.00203371
     atom   31 type  1   force =     0.00049189    0.00306709   -0.01333787
     atom   32 type  1   force =     0.00031063   -0.00928819    0.03126917
     atom   33 type  2   force =    -0.00012714    0.00015696    0.00079252
     atom   34 type  2   force =    -0.00202428    0.00179025   -0.02555800
     atom   35 type  2   force =     0.00026612    0.00020422    0.00034919
     atom   36 type  2   force =     0.00022351    0.00012249    0.00033582
     atom   37 type  1   force =    -0.00026719   -0.00066913    0.00008642
     atom   38 type  1   force =    -0.00008518    0.00002976   -0.00021781
     atom   39 type  2   force =     0.00004131   -0.00060955    0.00000572
     atom   40 type  2   force =     0.00024645    0.00004419   -0.00009096
     atom   41 type  2   force =    -0.00018450    0.00002827    0.00013335
     atom   42 type  2   force =     0.00021944   -0.00015960   -0.00023787
     atom   43 type  1   force =    -0.00033865    0.00073613   -0.00074075
     atom   44 type  1   force =    -0.00043154   -0.00078290    0.00106134
     atom   45 type  2   force =     0.00004045   -0.00004615    0.10305205
     atom   46 type  2   force =    -0.07167201   -0.00005845   -0.02780861
     atom   47 type  2   force =     0.07159235    0.00035961   -0.02787570
     atom   48 type  3   force =     0.00010511   -0.00085498    0.00020289
     atom   49 type  4   force =     0.00018865    0.00411686   -0.00023423
     atom   50 type  5   force =    -0.00029444   -0.00230927    0.00082049
     atom   51 type  3   force =    -0.00104054   -0.00009610   -0.00035724
     atom   52 type  3   force =     0.00063991   -0.00063720   -0.00048699
     atom   53 type  3   force =     0.00063694    0.00047046    0.00053921
     atom   54 type  2   force =    -0.00066340   -0.00006579   -0.00026011
     atom   55 type  3   force =    -0.00056918   -0.00001897   -0.00045039
     atom   56 type  3   force =     0.00073397    0.00002476   -0.00075809

     Total force =     0.368287     Total SCF correction =     0.000794
  @ DRIVER MODE: Message from server: STATUS
  @ DRIVER MODE: Message from server: GETFORCE
  @ DRIVER MODE: Returning v,forces,stress,ensemble

     Writing output data file ./calc.save/
  @ DRIVER MODE: Message from server: EXIT
  @ DRIVE MODE: Exiting

     General routines

     Parallel routines

   This run was terminated on:  18:44:56  15Sep2021

   JOB DONE.