     Program PWSCF v.6.7GPU starts on 23Sep2021 at  3:15:12

     R & G space division:  proc/nbgrp/npool/nimage =       8
     Reading input from /storage/home/hcoda1/3/ntian30/research/carbon/CxH_vib/H2O_calc/ads_slab/CH3N2HO_c/out_0013/pw.inp
Warning: card &CELL ignored
Warning: card   CELL_DYNAMICS='IPI', ignored
Warning: card / ignored

     Current dimensions of program PWSCF are:
     Max number of different atomic species (ntypx) = 10
     Max number of k-points (npk) =  40000
     Max angular momentum in pseudopotentials (lmaxx) =  3
     Presently no symmetry can be used with electric field

     Message from routine cell_base_init:
     DEPRECATED: use true lattice parameter, not A to a.u. conversion factor

     IMPORTANT: XC functional enforced from input :
     Exchange-correlation= BEEF-VDW
                           (   1   4  43  14   2   0   0)
     Any further DFT definition will be discarded
     Please, verify this is what you really want

  @ DRIVER MODE: Connecting to
 qe_1139763_2941007.sched-torque.pace.gatech.edudhxjiz5c_scratch
  using UNIX socket
  @ DRIVER MODE: Message from server: STATUS
  @ DRIVER MODE: Message from server: INIT
  @ DRIVER MODE: Receiving replica           0          -1
  @ DRIVER MODE: Receiving encoded integer          25
  @ DRIVER MODE:  SCF:  T  FORCE:  T  STRESS:  F  VC:  F  ENSEMBLE:  F
  @ DRIVER MODE:  SCF:  T  FORCE:  T  STRESS:  F  VC:  F  ENSEMBLE:  F

     Using Slab Decomposition

     bravais-lattice index     =            0
     lattice parameter (alat)  =       1.8897  a.u.
     unit-cell volume          =    6658.9804 (a.u.)^3
     number of atoms/cell      =           55
     number of atomic types    =            5
     number of electrons       =       402.00
     number of Kohn-Sham states=          211
     kinetic-energy cutoff     =      29.3995  Ry
     charge density cutoff     =     293.9946  Ry
     scf convergence threshold =      7.3E-08
     mixing beta               =       0.0500
     number of iterations used =            8  plain     mixing
     Exchange-correlation= BEEF-VDW
                           (   1   4  43  14   2   0   0)

     celldm(1)=   1.889726  celldm(2)=   0.000000  celldm(3)=   0.000000
     celldm(4)=   0.000000  celldm(5)=   0.000000  celldm(6)=   0.000000

     crystal axes: (cart. coord. in units of alat)
               a(1) = (   6.579727   0.000000   0.000000 )
               a(2) = (  -0.000775   5.961596   0.000000 )
               a(3) = (   0.000000   0.000000  25.155947 )

     reciprocal axes: (cart. coord. in units 2 pi/alat)
               b(1) = (  0.151982  0.000020  0.000000 )
               b(2) = (  0.000000  0.167740  0.000000 )
               b(3) = (  0.000000  0.000000  0.039752 )

     PseudoPot. # 1 for Ti read from file:
     /storage/coda1/p-amedford6/0/shared/rich_project_chbe-medford/medford-share/data/pseudos_module/espresso/nninc/pbe/van/Ti.UPF
     MD5 check sum: 8e4df49b7f0d34bbd5052bf3f5ea0213
     Pseudo is Ultrasoft, Zval = 12.0
     Generated by new atomic code, or converted to UPF format
     Using radial grid of  851 points,  6 beta functions with:
                l(1) =   0
                l(2) =   0
                l(3) =   1
                l(4) =   1
                l(5) =   2
                l(6) =   2
     Q(r) pseudized with  8 coefficients,  rinner =    1.000   1.000   1.000
                                                       1.000   1.000

     PseudoPot. # 2 for O  read from file:
     /storage/coda1/p-amedford6/0/shared/rich_project_chbe-medford/medford-share/data/pseudos_module/espresso/nninc/pbe/van/O.UPF
     MD5 check sum: 78c19812648e8988a0fe644b0f25305e
     Pseudo is Ultrasoft, Zval =  6.0
     Generated by new atomic code, or converted to UPF format
     Using radial grid of  737 points,  4 beta functions with:
                l(1) =   0
                l(2) =   0
                l(3) =   1
                l(4) =   1
     Q(r) pseudized with  8 coefficients,  rinner =    0.800   0.800   0.800

     PseudoPot. # 3 for N  read from file:
     /storage/coda1/p-amedford6/0/shared/rich_project_chbe-medford/medford-share/data/pseudos_module/espresso/nninc/pbe/van/N.UPF
     MD5 check sum: 90d10febe142ad51ac9d5be1deb811c4
     Pseudo is Ultrasoft, Zval =  5.0
     Generated by new atomic code, or converted to UPF format
     Using radial grid of  729 points,  4 beta functions with:
                l(1) =   0
                l(2) =   0
                l(3) =   1
                l(4) =   1
     Q(r) pseudized with  8 coefficients,  rinner =    0.800   0.800   0.800

     PseudoPot. # 4 for C  read from file:
     /storage/coda1/p-amedford6/0/shared/rich_project_chbe-medford/medford-share/data/pseudos_module/espresso/nninc/pbe/van/C.UPF
     MD5 check sum: 1a69bf6b8db32088f5b2163dbdb77a27
     Pseudo is Ultrasoft, Zval =  4.0
     Generated by new atomic code, or converted to UPF format
     Using radial grid of  721 points,  4 beta functions with:
                l(1) =   0
                l(2) =   0
                l(3) =   1
                l(4) =   1
     Q(r) pseudized with  8 coefficients,  rinner =    0.800   0.800   0.800

     PseudoPot. # 5 for H  read from file:
     /storage/coda1/p-amedford6/0/shared/rich_project_chbe-medford/medford-share/data/pseudos_module/espresso/nninc/pbe/van/H.UPF
     MD5 check sum: b5ee9d7bfd3a09ee7748110bda690ff7
     Pseudo is Ultrasoft, Zval =  1.0
     Generated by new atomic code, or converted to UPF format
     Using radial grid of  615 points,  1 beta functions with:
                l(1) =   0
     Q(r) pseudized with  8 coefficients,  rinner =    0.800

     atomic species   valence    mass     pseudopotential
        Ti1           12.00    47.86700     Ti( 1.00)
        O1             6.00    15.99900     O ( 1.00)
        N1             5.00    14.00700     N ( 1.00)
        C1             4.00    12.01100     C ( 1.00)
        H1             1.00     1.00800     H ( 1.00)

     No symmetry found

   Cartesian axes

     site n.     atom                  positions (alat units)
         1           Ti1 tau(   1) = (   0.0004258   2.9801865   6.0000000  )
         2           Ti1 tau(   2) = (   3.2906075   1.4906267   6.0002472  )
         3           O1  tau(   3) = (   0.0006271   0.0005054   7.9858123  )
         4           O1  tau(   4) = (   3.2906025   0.0005020   7.3038282  )
         5           O1  tau(   5) = (   4.5942328   1.4918067   9.2879030  )
         6           O1  tau(   6) = (   1.9868534   1.4903216   9.2879459  )
         7           Ti1 tau(   7) = (   3.2907910   2.8959150   9.1758416  )
         8           Ti1 tau(   8) = (   0.0015273   1.4827037   9.2680791  )
         9           O1  tau(   9) = (   3.2989311   0.0219330  11.3020621  )
        10           O1  tau(  10) = (   0.0116148   5.9584955  10.6183126  )
        11           O1  tau(  11) = (   1.3029919   1.4976758  12.6257209  )
        12           O1  tau(  12) = (   5.3026591   1.4951023  12.6306759  )
        13           Ti1 tau(  13) = (   0.0286689   2.8598525  12.6759356  )
        14           Ti1 tau(  14) = (   3.3054201   1.5706400  12.4108957  )
        15           O1  tau(  15) = (   0.0066217   5.9386728  14.6456674  )
        16           O1  tau(  16) = (   3.2936494   5.9217248  13.9190535  )
        17           O1  tau(  17) = (   4.5783085   1.5227378  16.0725395  )
        18           O1  tau(  18) = (   2.0661487   1.5008106  16.0935948  )
        19           Ti1 tau(  19) = (   3.3004316   2.9577776  15.6622982  )
        20           Ti1 tau(  20) = (   6.5114840   1.4532315  15.8500040  )
        21           O1  tau(  21) = (   3.2904802   0.0005063   4.7018136  )
        22           O1  tau(  22) = (   0.0101108   5.9483577  17.1703567  )
        23           O1  tau(  23) = (   1.3043587   1.4918075   6.0039043  )
        24           O1  tau(  24) = (   5.2767064   1.4903225   6.0039473  )
        25           Ti1 tau(  25) = (   0.0000382   5.9609847   6.0000000  )
        26           Ti1 tau(  26) = (   3.2902200   4.4714249   6.0002472  )
        27           O1  tau(  27) = (   0.0002396   2.9813036   7.9858123  )
        28           O1  tau(  28) = (   3.2902150   2.9813002   7.3038282  )
        29           O1  tau(  29) = (   4.5938453   4.4726049   9.2879030  )
        30           O1  tau(  30) = (   1.9864658   4.4711199   9.2879459  )
        31           Ti1 tau(  31) = (   3.2891106   5.8743827   9.1763621  )
        32           Ti1 tau(  32) = (   0.0006254   4.4649316   9.2693709  )
        33           O1  tau(  33) = (   3.2985377   2.9527140  11.2683515  )
        34           O1  tau(  34) = (   0.0092240   2.9805883  10.6323155  )
        35           O1  tau(  35) = (   1.2869011   4.4751273  12.6337776  )
        36           O1  tau(  36) = (   5.3033013   4.4751711  12.6363117  )
        37           Ti1 tau(  37) = (   6.5677423   5.8343599  12.5653580  )
        38           Ti1 tau(  38) = (   3.2861748   4.6640272  12.6826305  )
        39           O1  tau(  39) = (   0.0268303   2.9326313  14.6927244  )
        40           O1  tau(  40) = (   3.2973518   2.9805258  13.8830516  )
        41           O1  tau(  41) = (   4.5656241   4.3944478  16.1024780  )
        42           O1  tau(  42) = (   2.0389263   4.3990843  16.1000718  )
        43           Ti1 tau(  43) = (   3.2183859   5.9292641  16.3327267  )
        44           Ti1 tau(  44) = (   6.5399727   4.6159235  16.0325440  )
        45           O1  tau(  45) = (   3.2900926   2.9813045   4.7018136  )
        46           O1  tau(  46) = (   1.3039711   4.4726057   6.0039043  )
        47           O1  tau(  47) = (   5.2763189   4.4711207   6.0039473  )
        48           N1  tau(  48) = (   0.1383159   2.7169024  18.7005470  )
        49           N1  tau(  49) = (   0.0454196   2.8879789  17.5111406  )
        50           C1  tau(  50) = (   0.1707782   3.8735959  19.6428767  )
        51           H1  tau(  51) = (   6.4938760   4.8136915  19.1652781  )
        52           H1  tau(  52) = (   6.0945921   3.6282151  20.4682347  )
        53           H1  tau(  53) = (   1.2016282   3.9139503  20.0277151  )
        54           O1  tau(  54) = (   3.2907091   5.9158944  18.1602194  )
        55           H1  tau(  55) = (   3.1351319   0.7410148  18.7017648  )

     number of k points=    10  Fermi-Dirac smearing, width (Ry)=  0.0073
                       cart. coord. in units 2pi/alat
        k(    1) = (   0.0000000   0.0000000   0.0000000), wk =   0.1250000
        k(    2) = (   0.0000000   0.0419351   0.0000000), wk =   0.2500000
        k(    3) = (   0.0000000  -0.0838702   0.0000000), wk =   0.1250000
        k(    4) = (   0.0379955   0.0000049   0.0000000), wk =   0.2500000
        k(    5) = (   0.0379955   0.0419400   0.0000000), wk =   0.2500000
        k(    6) = (   0.0379955  -0.0838652   0.0000000), wk =   0.2500000
        k(    7) = (   0.0379955  -0.0419301   0.0000000), wk =   0.2500000
        k(    8) = (  -0.0759910  -0.0000099   0.0000000), wk =   0.1250000
        k(    9) = (  -0.0759910   0.0419252   0.0000000), wk =   0.2500000
        k(   10) = (  -0.0759910  -0.0838800   0.0000000), wk =   0.1250000

     Initial potential from superposition of free atoms

     starting charge  385.99915, renormalised to  402.00000

     negative rho (up, down):  1.430E-02 0.000E+00

     %%%%%%%%%%%%%%%%%%%%%%%%%%%%%%%%%%%%%%%%%%%%%%%%%%%%%%%%%%%%%%%%%%%%%%%%
     %                                                                      %
     % You are using vdW-DF, which was implemented by the Thonhauser group. %
     % Please cite the following two papers that made this development      %
     % possible and the two reviews that describe the various versions:     %
     %                                                                      %
     %   T. Thonhauser et al., PRL 115, 136402 (2015).                      %
     %   T. Thonhauser et al., PRB 76, 125112 (2007).                       %
     %   K. Berland et al., Rep. Prog. Phys. 78, 066501 (2015).             %
     %   D.C. Langreth et al., J. Phys.: Condens. Matter 21, 084203 (2009). %
     %                                                                      %
     %                                                                      %
     % If you are calculating the stress with vdW-DF, please also cite:     %
     %                                                                      %
     %   R. Sabatini et al., J. Phys.: Condens. Matter 24, 424209 (2012).   %
     %                                                                      %
     %%%%%%%%%%%%%%%%%%%%%%%%%%%%%%%%%%%%%%%%%%%%%%%%%%%%%%%%%%%%%%%%%%%%%%%%

     Adding external electric field

     Computed dipole along edir(3) :
        Dipole              -12.0462 Ry au,        -30.6184 Debye
        Dipole field         -0.0227 Ry au,

        Potential amp.        2.1073 Ry
        Total length         46.3494 bohr

     Starting wfcs are  304 atomic wfcs
  @ DRIVER MODE: Message from server: STATUS
  @ DRIVER MODE: Message from server: POSDATA
  @ DRIVER MODE: Reading and sharing cell
  @ DRIVER MODE: Reading and sharing positions
  @ DRIVER MODE: Received positions

     Self-consistent Calculation

     iteration #  1     ecut=    29.40 Ry     beta= 0.05
     Davidson diagonalization with overlap
     c_bands:  5 eigenvalues not converged
     c_bands:  3 eigenvalues not converged
     c_bands:  5 eigenvalues not converged
     c_bands:  3 eigenvalues not converged
     c_bands:  3 eigenvalues not converged
     c_bands:  2 eigenvalues not converged
     c_bands:  5 eigenvalues not converged
     c_bands:  5 eigenvalues not converged
     ethr =  1.00E-05,  avg # of iterations = 21.5

[...]

     total energy              =   -2397.70251160 Ry
     estimated scf accuracy    <    6480.68171880 Ry

     iteration #  2     ecut=    29.40 Ry     beta= 0.05
     Davidson diagonalization with overlap
     ethr =  1.00E-02,  avg # of iterations = 22.5

[...]

     iteration # 86     ecut=    29.40 Ry     beta= 0.05
     Davidson diagonalization with overlap
     c_bands:  1 eigenvalues not converged
     ethr =  7.82E-09,  avg # of iterations =  7.4

[...]

     total energy              =   -2972.75287672 Ry
     estimated scf accuracy    <       0.00000011 Ry

     iteration #101     ecut=    29.40 Ry     beta= 0.05
     Davidson diagonalization with overlap
     ethr =  2.61E-11,  avg # of iterations =  4.1

     negative rho (up, down):  1.493E-02 0.000E+00

     Adding external electric field

     Computed dipole along edir(3) :
        Dipole                0.6526 Ry au,          1.6587 Debye
        Dipole field          0.0012 Ry au,

        Potential amp.       -0.1142 Ry
        Total length         46.3494 bohr

     End of self-consistent calculation

          k = 0.0000 0.0000 0.0000 ( 18029 PWs)   bands (ev):

   -56.2024 -56.1686 -55.7880 -55.7545 -55.5819 -55.5477 -55.4978 -55.3484
   -55.3136 -55.3128 -55.1685 -55.1541 -55.0281 -55.0042 -54.9737 -54.9398
   -32.6527 -32.4948 -32.4679 -32.3609 -32.2769 -32.2683 -32.2676 -32.0318
   -32.0069 -31.9872 -31.9352 -31.9300 -31.9250 -31.8951 -31.8460 -31.8190
   -31.7912 -31.7701 -31.7683 -31.7257 -31.7101 -31.6980 -31.6842 -31.6557
   -31.6375 -31.6246 -31.5542 -31.5325 -31.5239 -31.5208 -31.4987 -31.4651
   -31.4348 -31.4013 -31.3703 -31.3632 -31.3571 -31.3069 -31.2848 -31.2833
   -31.2572 -31.2401 -31.2400 -31.2360 -31.2153 -31.1890 -31.1044 -30.9925
   -18.8069 -16.4957 -16.4409 -16.1608 -15.9536 -15.7792 -15.6945 -15.6830
   -15.6336 -15.5126 -15.5002 -15.3888 -15.3012 -15.2257 -15.1983 -15.1949
   -15.1016 -15.0572 -15.0140 -14.9894 -14.9779 -14.9696 -14.9386 -14.8312
   -14.8238 -14.7952 -14.6971 -14.6847 -14.5818 -14.2857 -14.2698 -13.4714
   -13.3592 -11.4399  -6.8924  -4.3534  -4.1571  -4.0052  -3.9818  -3.9329
    -3.7090  -3.4966  -3.4107  -3.2477  -3.1947  -3.1152  -2.9180  -2.9083
    -2.8538  -2.7830  -2.7077  -2.6488  -2.6022  -2.5860  -2.4899  -2.4528
    -2.4316  -2.4288  -2.3919  -2.3793  -2.2556  -2.2528  -2.2200  -2.1714
    -2.1126  -2.0976  -2.0318  -2.0205  -2.0050  -1.9569  -1.9206  -1.8748
    -1.8155  -1.7793  -1.6544  -1.6285  -1.6218  -1.5348  -1.5161  -1.5073
    -1.4575  -1.2961  -1.2253  -1.1785  -1.1749  -1.0362  -1.0221  -0.9849
    -0.9040  -0.8690  -0.7802  -0.7691  -0.7583  -0.7495  -0.6669  -0.6311
    -0.6151  -0.5890  -0.4067  -0.3776  -0.3169  -0.2643  -0.1645  -0.1207
    -0.1137  -0.1053  -0.0661  -0.0098   0.0120   0.0266   0.1258   0.1502
     0.2049   0.2725   0.3081   0.3806   0.4005   0.4025   0.4142   0.4692
     0.5614   0.6533   0.6962   0.7116   0.7803   0.7946   0.9313   0.9450
     1.0507   1.0923   1.1012   1.1623   1.2817   1.5651   1.5990   1.6382
     2.7572   3.0241   3.1516   3.3085   3.4560   3.5525   3.8453   3.8898
     3.9286   3.9525   3.9950

[...]

          k = 0.0380-0.0419 0.0000 ( 17876 PWs)   bands (ev):

[...]

          k =-0.0760-0.0000 0.0000 ( 17886 PWs)   bands (ev):

[...]

          k =-0.0760-0.0839 0.0000 ( 17948 PWs)   bands (ev):

   -56.1855 -56.1853 -55.7719 -55.7704 -55.5812 -55.5411 -55.5044 -55.3357
   -55.3253 -55.3142 -55.1665 -55.1522 -55.0299 -55.0060 -54.9568 -54.9566
   -32.4804 -32.4802 -32.4688 -32.4687 -32.3130 -32.3125 -32.0923 -32.0886
   -31.9661 -31.9633 -31.9607 -31.9598 -31.8688 -31.8469 -31.8206 -31.8200
   -31.7818 -31.7631 -31.7625 -31.7292 -31.7210 -31.6903 -31.6695 -31.6579
   -31.6040 -31.5975 -31.5745 -31.5581 -31.5421 -31.5418 -31.5255 -31.5057
   -31.4270 -31.4058 -31.3728 -31.3690 -31.3552 -31.3004 -31.2962 -31.2962
   -31.2896 -31.2492 -31.2456 -31.2402 -31.1852 -31.1848 -31.1471 -31.1467
   -18.8041 -16.4319 -15.9044 -15.8952 -15.7688 -15.7638 -15.5894 -15.5755
   -15.5749 -15.4916 -15.4519 -15.4292 -15.2864 -15.2729 -15.2125 -15.1872
   -15.1699 -15.1473 -15.1381 -15.1050 -15.0946 -15.0418 -14.9851 -14.9784
   -14.9195 -14.9119 -14.7543 -14.6923 -14.6466 -14.4988 -14.4047 -13.4625
   -13.4619 -11.4378  -6.9063  -4.2940  -4.1755  -3.9780  -3.9227  -3.0695
    -3.0210  -2.9183  -2.8813  -2.8001  -2.7875  -2.6770  -2.6602  -2.6141
    -2.5977  -2.5892  -2.5438  -2.4975  -2.4872  -2.4653  -2.4385  -2.4213
    -2.4115  -2.3703  -2.3239  -2.3074  -2.3017  -2.2767  -2.1745  -2.1438
    -2.1328  -2.1242  -2.0964  -2.0724  -2.0278  -1.9596  -1.9258  -1.8876
    -1.8756  -1.8051  -1.7402  -1.6980  -1.6936  -1.6125  -1.5475  -1.5240
    -1.4493  -1.4053  -1.2913  -1.2785  -1.2606  -1.1978  -1.1749  -1.1202
    -1.1001  -1.0391  -0.9900  -0.9667  -0.9620  -0.9479  -0.8799  -0.8191
    -0.7116  -0.6632  -0.6474  -0.6136  -0.6086  -0.5801  -0.5454  -0.5082
    -0.4082  -0.3946  -0.3821  -0.3307  -0.3207  -0.2465  -0.1711  -0.0553
     0.0658   0.1421   0.1521   0.1722   0.2114   0.2940   0.3716   0.4123
     0.4580   0.5178   0.5606   0.6003   0.6660   0.8074   0.8595   0.8815
     0.9657   1.0028   1.0737   1.1608   1.4389   1.4498   1.4542   1.4551
     2.8085   3.5732   3.5756   3.6051   3.6160   3.7324   3.8109   3.8286
     3.9536   4.0113   4.0688

     the Fermi energy is     2.9603 ev

!    total energy              =   -2972.75288335 Ry
     estimated scf accuracy    <       0.00000004 Ry
     smearing contrib. (-TS)   =      -0.01283351 Ry
     internal energy E=F+TS    =   -2972.74004984 Ry

     The total energy is F=E-TS. E is the sum of the following terms:
     one-electron contribution =  -23538.59417773 Ry
     hartree contribution      =   11862.91045960 Ry
     xc contribution           =    -493.06982683 Ry
     ewald contribution        =    9196.01269146 Ry
     electric field correction =       0.00080366 Ry

     convergence has been achieved in 101 iterations

     Forces acting on atoms (cartesian axes, Ry/au):

     atom    1 type  1   force =     0.00007491   -0.00035645    0.10679155
     atom    2 type  1   force =    -0.00012648    0.00016984   -0.16546742
     atom    3 type  2   force =     0.00006858   -0.00044617   -0.03890992
     atom    4 type  2   force =     0.00000218    0.00016293    0.03536651
     atom    5 type  2   force =    -0.00262573   -0.00318003   -0.00914481
     atom    6 type  2   force =     0.00444657   -0.00251511   -0.00942977
     atom    7 type  1   force =    -0.00001217    0.00132250    0.03452002
     atom    8 type  1   force =     0.00023801    0.01555662    0.06083713
     atom    9 type  2   force =    -0.00018059   -0.00044878    0.00003614
     atom   10 type  2   force =    -0.00255566    0.00088200   -0.04257417
     atom   11 type  2   force =    -0.00099924    0.00035238    0.00038677
     atom   12 type  2   force =     0.00049020    0.00025361    0.00027659
     atom   13 type  1   force =     0.00045731    0.00067415   -0.00039335
     atom   14 type  1   force =     0.00026553   -0.00015717    0.00043245
     atom   15 type  2   force =     0.00021978    0.00064048    0.00009346
     atom   16 type  2   force =    -0.00009532   -0.00039326   -0.00079761
     atom   17 type  2   force =    -0.00009961    0.00020809    0.00010161
     atom   18 type  2   force =     0.00025551   -0.00006958   -0.00020315
     atom   19 type  1   force =     0.00018492   -0.00096674    0.00013822
     atom   20 type  1   force =     0.00026154    0.00027401   -0.00033697
     atom   21 type  2   force =     0.00003306    0.00013543    0.10041761
     atom   22 type  2   force =     0.00018736    0.00066465    0.00006981
     atom   23 type  2   force =    -0.07680582   -0.00000164   -0.03009906
     atom   24 type  2   force =     0.07667454    0.00047029   -0.03014524
     atom   25 type  1   force =    -0.00008755   -0.00045026    0.10717962
     atom   26 type  1   force =    -0.00020678   -0.00131388   -0.16551154
     atom   27 type  2   force =     0.00010087   -0.00031756   -0.03720305
     atom   28 type  2   force =     0.00004565   -0.00000273    0.03052631
     atom   29 type  2   force =    -0.00566413    0.00366108   -0.00701404
     atom   30 type  2   force =     0.00729845    0.00401024   -0.00728548
     atom   31 type  1   force =    -0.00010955   -0.00228886    0.02270932
     atom   32 type  1   force =     0.00032769   -0.01776460    0.06130371
     atom   33 type  2   force =    -0.00017136    0.00021073   -0.00019203
     atom   34 type  2   force =    -0.00143561    0.00001615   -0.05429364
     atom   35 type  2   force =    -0.00002134   -0.00017274   -0.00021494
     atom   36 type  2   force =    -0.00029447    0.00006025   -0.00005609
     atom   37 type  1   force =     0.00012775   -0.00005956    0.00058727
     atom   38 type  1   force =     0.00033103    0.00001426    0.00013943
     atom   39 type  2   force =    -0.00010809    0.00029444   -0.00035380
     atom   40 type  2   force =     0.00000994    0.00030334    0.00045016
     atom   41 type  2   force =    -0.00026280    0.00024129   -0.00015326
     atom   42 type  2   force =     0.00015688   -0.00001211   -0.00000650
     atom   43 type  1   force =     0.00020020    0.00052553    0.00037437
     atom   44 type  1   force =     0.00028042    0.00010913   -0.00040437
     atom   45 type  2   force =     0.00003501    0.00013591    0.10026834
     atom   46 type  2   force =    -0.07678195    0.00003145   -0.03008962
     atom   47 type  2   force =     0.07664203    0.00046968   -0.03010983
     atom   48 type  3   force =    -0.00158599    0.00094599   -0.00086818
     atom   49 type  3   force =     0.00050072   -0.00050704   -0.00070480
     atom   50 type  4   force =     0.01956072   -0.00060463   -0.00086030
     atom   51 type  5   force =    -0.00268177    0.00158972   -0.00172109
     atom   52 type  5   force =    -0.00559545   -0.00195482    0.00456766
     atom   53 type  5   force =    -0.00972009   -0.00009222   -0.00355515
     atom   54 type  2   force =     0.00019755   -0.00021664    0.00167070
     atom   55 type  5   force =    -0.00144741   -0.00009361   -0.00114559

     Total force =     0.381542     Total SCF correction =     0.000703
  @ DRIVER MODE: Message from server: STATUS
  @ DRIVER MODE: Message from server: GETFORCE
  @ DRIVER MODE: Returning v,forces,stress,ensemble

     Writing output data file ./calc.save/
  @ DRIVER MODE: Message from server: EXIT
  @ DRIVE MODE: Exiting

     General routines

     Parallel routines

   This run was terminated on:   3:48: 8  23Sep2021

   JOB DONE.