     Program PWSCF v.6.7GPU starts on 25Aug2021 at 11:15:50

     R & G space division:  proc/nbgrp/npool/nimage =       6
     Reading input from /storage/home/hcoda1/3/ntian30/research/carbon/CH3_vib_end_on/ads_slab/CH3N2H_a/out_0037/pw.inp
Warning: card &CELL ignored
Warning: card   CELL_DYNAMICS='IPI', ignored
Warning: card / ignored

     Current dimensions of program PWSCF are:
     Max number of different atomic species (ntypx) = 10
     Max number of k-points (npk) =  40000
     Max angular momentum in pseudopotentials (lmaxx) =  3
     Presently no symmetry can be used with electric field

     Message from routine cell_base_init:
     DEPRECATED: use true lattice parameter, not A to a.u. conversion factor

     IMPORTANT: XC functional enforced from input :
     Exchange-correlation= BEEF-VDW
                           (   1   4  43  14   2   0   0)
     Any further DFT definition will be discarded
     Please, verify this is what you really want

  @ DRIVER MODE: Connecting to
 qe_1139763_2643869.sched-torque.pace.gatech.edunw0_v7i2_scratch
  using UNIX socket
  @ DRIVER MODE: Message from server: STATUS
  @ DRIVER MODE: Message from server: INIT
  @ DRIVER MODE: Receiving replica           0          -1
  @ DRIVER MODE: Receiving encoded integer          25
  @ DRIVER MODE:  SCF:  T  FORCE:  T  STRESS:  F  VC:  F  ENSEMBLE:  F
  @ DRIVER MODE:  SCF:  T  FORCE:  T  STRESS:  F  VC:  F  ENSEMBLE:  F

     Using Slab Decomposition

     bravais-lattice index     =            0
     lattice parameter (alat)  =       1.8897  a.u.
     unit-cell volume          =    6658.9804 (a.u.)^3
     number of atoms/cell      =           54
     number of atomic types    =            5
     number of electrons       =       396.00
     number of Kohn-Sham states=          208
     kinetic-energy cutoff     =      29.3995  Ry
     charge density cutoff     =     293.9946  Ry
     scf convergence threshold =      7.3E-08
     mixing beta               =       0.0500
     number of iterations used =            8  plain     mixing
     Exchange-correlation= BEEF-VDW
                           (   1   4  43  14   2   0   0)

     celldm(1)=   1.889726  celldm(2)=   0.000000  celldm(3)=   0.000000
     celldm(4)=   0.000000  celldm(5)=   0.000000  celldm(6)=   0.000000

     crystal axes: (cart. coord. in units of alat)
               a(1) = (   6.579727   0.000000   0.000000 )
               a(2) = (  -0.000775   5.961596   0.000000 )
               a(3) = (   0.000000   0.000000  25.155947 )

     reciprocal axes: (cart. coord. in units 2 pi/alat)
               b(1) = (  0.151982  0.000020  0.000000 )
               b(2) = (  0.000000  0.167740  0.000000 )
               b(3) = (  0.000000  0.000000  0.039752 )

     PseudoPot. # 1 for Ti read from file:
     /storage/coda1/p-amedford6/0/shared/rich_project_chbe-medford/medford-share/data/pseudos_module/espresso/nninc/pbe/van/Ti.UPF
     MD5 check sum: 8e4df49b7f0d34bbd5052bf3f5ea0213
     Pseudo is Ultrasoft, Zval = 12.0
     Generated by new atomic code, or converted to UPF format
     Using radial grid of  851 points,  6 beta functions with:
                l(1) =   0
                l(2) =   0
                l(3) =   1
                l(4) =   1
                l(5) =   2
                l(6) =   2
     Q(r) pseudized with  8 coefficients,  rinner =    1.000   1.000   1.000
                                                       1.000   1.000

     PseudoPot. # 2 for O  read from file:
     /storage/coda1/p-amedford6/0/shared/rich_project_chbe-medford/medford-share/data/pseudos_module/espresso/nninc/pbe/van/O.UPF
     MD5 check sum: 78c19812648e8988a0fe644b0f25305e
     Pseudo is Ultrasoft, Zval =  6.0
     Generated by new atomic code, or converted to UPF format
     Using radial grid of  737 points,  4 beta functions with:
                l(1) =   0
                l(2) =   0
                l(3) =   1
                l(4) =   1
     Q(r) pseudized with  8 coefficients,  rinner =    0.800   0.800   0.800

     PseudoPot. # 3 for N  read from file:
     /storage/coda1/p-amedford6/0/shared/rich_project_chbe-medford/medford-share/data/pseudos_module/espresso/nninc/pbe/van/N.UPF
     MD5 check sum: 90d10febe142ad51ac9d5be1deb811c4
     Pseudo is Ultrasoft, Zval =  5.0
     Generated by new atomic code, or converted to UPF format
     Using radial grid of  729 points,  4 beta functions with:
                l(1) =   0
                l(2) =   0
                l(3) =   1
                l(4) =   1
     Q(r) pseudized with  8 coefficients,  rinner =    0.800   0.800   0.800

     PseudoPot. # 4 for C  read from file:
     /storage/coda1/p-amedford6/0/shared/rich_project_chbe-medford/medford-share/data/pseudos_module/espresso/nninc/pbe/van/C.UPF
     MD5 check sum: 1a69bf6b8db32088f5b2163dbdb77a27
     Pseudo is Ultrasoft, Zval =  4.0
     Generated by new atomic code, or converted to UPF format
     Using radial grid of  721 points,  4 beta functions with:
                l(1) =   0
                l(2) =   0
                l(3) =   1
                l(4) =   1
     Q(r) pseudized with  8 coefficients,  rinner =    0.800   0.800   0.800

     PseudoPot. # 5 for H  read from file:
     /storage/coda1/p-amedford6/0/shared/rich_project_chbe-medford/medford-share/data/pseudos_module/espresso/nninc/pbe/van/H.UPF
     MD5 check sum: b5ee9d7bfd3a09ee7748110bda690ff7
     Pseudo is Ultrasoft, Zval =  1.0
     Generated by new atomic code, or converted to UPF format
     Using radial grid of  615 points,  1 beta functions with:
                l(1) =   0
     Q(r) pseudized with  8 coefficients,  rinner =    0.800

     atomic species   valence    mass     pseudopotential
        Ti1           12.00    47.86700     Ti( 1.00)
        O1             6.00    15.99900     O ( 1.00)
        N1             5.00    14.00700     N ( 1.00)
        C1             4.00    12.01100     C ( 1.00)
        H1             1.00     1.00800     H ( 1.00)

     No symmetry found

   Cartesian axes

     site n.     atom                  positions (alat units)
         1           Ti1 tau(   1) = (   0.0004258   2.9801865   6.0000000  )
         2           Ti1 tau(   2) = (   3.2906075   1.4906267   6.0002472  )
         3           O1  tau(   3) = (   0.0006271   0.0005054   7.9858123  )
         4           O1  tau(   4) = (   3.2906025   0.0005020   7.3038282  )
         5           O1  tau(   5) = (   4.5942328   1.4918067   9.2879030  )
         6           O1  tau(   6) = (   1.9868534   1.4903216   9.2879459  )
         7           Ti1 tau(   7) = (   3.2907910   2.8959150   9.1758416  )
         8           Ti1 tau(   8) = (   0.0015273   1.4827037   9.2680791  )
         9           O1  tau(   9) = (   3.2896288   0.0042867  11.3205077  )
        10           O1  tau(  10) = (   0.0116148   5.9584955  10.6183126  )
        11           O1  tau(  11) = (   1.2848067   1.4985890  12.6232755  )
        12           O1  tau(  12) = (   5.2688617   1.4893877  12.6055203  )
        13           Ti1 tau(  13) = (   0.0799559   3.0171279  12.6206390  )
        14           Ti1 tau(  14) = (   3.4009582   1.4891986  12.4726338  )
        15           O1  tau(  15) = (   6.5707323   0.0080309  14.6263129  )
        16           O1  tau(  16) = (   3.2902489   0.0120312  13.8979102  )
        17           O1  tau(  17) = (   4.5126121   1.5346005  16.0500440  )
        18           O1  tau(  18) = (   2.0453867   1.5362785  16.0447169  )
        19           Ti1 tau(  19) = (   3.2767562   3.0203775  15.6892921  )
        20           Ti1 tau(  20) = (   6.5596632   1.5778499  15.8310978  )
        21           O1  tau(  21) = (   3.2904802   0.0005063   4.7018136  )
        22           O1  tau(  22) = (   6.5709656   0.0671247  17.2345223  )
        23           O1  tau(  23) = (   1.3043587   1.4918075   6.0039043  )
        24           O1  tau(  24) = (   5.2767064   1.4903225   6.0039473  )
        25           Ti1 tau(  25) = (   0.0000382   5.9609847   6.0000000  )
        26           Ti1 tau(  26) = (   3.2902200   4.4714249   6.0002472  )
        27           O1  tau(  27) = (   0.0002396   2.9813036   7.9858123  )
        28           O1  tau(  28) = (   3.2902150   2.9813002   7.3038282  )
        29           O1  tau(  29) = (   4.5938453   4.4726049   9.2879030  )
        30           O1  tau(  30) = (   1.9864658   4.4711199   9.2879459  )
        31           Ti1 tau(  31) = (   3.2891106   5.8743827   9.1763621  )
        32           Ti1 tau(  32) = (   0.0006254   4.4649316   9.2693709  )
        33           O1  tau(  33) = (   3.2919429   2.9835650  11.3172650  )
        34           O1  tau(  34) = (   0.0092240   2.9805883  10.6323155  )
        35           O1  tau(  35) = (   1.2842535   4.4799506  12.6241420  )
        36           O1  tau(  36) = (   5.2755836   4.4732255  12.6042992  )
        37           Ti1 tau(  37) = (   0.0783641   0.0295629  12.6394962  )
        38           Ti1 tau(  38) = (   3.4022659   4.4693352  12.4708195  )
        39           O1  tau(  39) = (   6.5693815   2.9799975  14.6326336  )
        40           O1  tau(  40) = (   3.2899495   3.0014797  13.8849495  )
        41           O1  tau(  41) = (   4.5062741   4.5069571  16.0893315  )
        42           O1  tau(  42) = (   2.0480812   4.5060041  16.0753496  )
        43           Ti1 tau(  43) = (   3.2742444   0.0367023  15.7020416  )
        44           Ti1 tau(  44) = (   6.5658628   4.6518251  16.1481936  )
        45           O1  tau(  45) = (   3.2900926   2.9813045   4.7018136  )
        46           O1  tau(  46) = (   1.3039711   4.4726057   6.0039043  )
        47           O1  tau(  47) = (   5.2763189   4.4711207   6.0039473  )
        48           N1  tau(  48) = (   6.5201982   2.6597193  18.5868863  )
        49           N1  tau(  49) = (   6.5663212   2.9659568  17.3251533  )
        50           C1  tau(  50) = (   0.1092964   3.6297355  19.6533281  )
        51           H1  tau(  51) = (   6.1365678   4.5355971  19.4091500  )
        52           H1  tau(  52) = (   6.3142024   3.1981282  20.5813133  )
        53           H1  tau(  53) = (   1.1661384   3.8973747  19.7839464  )
        54           H1  tau(  54) = (   6.5656389   1.6632157  18.8047554  )

     number of k points=    10  Fermi-Dirac smearing, width (Ry)=  0.0073
                       cart. coord. in units 2pi/alat
        k(    1) = (   0.0000000   0.0000000   0.0000000), wk =   0.1250000
        k(    2) = (   0.0000000   0.0419351   0.0000000), wk =   0.2500000
        k(    3) = (   0.0000000  -0.0838702   0.0000000), wk =   0.1250000
        k(    4) = (   0.0379955   0.0000049   0.0000000), wk =   0.2500000
        k(    5) = (   0.0379955   0.0419400   0.0000000), wk =   0.2500000
        k(    6) = (   0.0379955  -0.0838652   0.0000000), wk =   0.2500000
        k(    7) = (   0.0379955  -0.0419301   0.0000000), wk =   0.2500000
        k(    8) = (  -0.0759910  -0.0000099   0.0000000), wk =   0.1250000
        k(    9) = (  -0.0759910   0.0419252   0.0000000), wk =   0.2500000
        k(   10) = (  -0.0759910  -0.0838800   0.0000000), wk =   0.1250000

     Initial potential from superposition of free atoms

     starting charge  379.99915, renormalised to  396.00000

     negative rho (up, down):  1.474E-02 0.000E+00

     %%%%%%%%%%%%%%%%%%%%%%%%%%%%%%%%%%%%%%%%%%%%%%%%%%%%%%%%%%%%%%%%%%%%%%%%
     %                                                                      %
     % You are using vdW-DF, which was implemented by the Thonhauser group. %
     % Please cite the following two papers that made this development      %
     % possible and the two reviews that describe the various versions:     %
     %                                                                      %
     %   T. Thonhauser et al., PRL 115, 136402 (2015).                      %
     %   T. Thonhauser et al., PRB 76, 125112 (2007).                       %
     %   K. Berland et al., Rep. Prog. Phys. 78, 066501 (2015).             %
     %   D.C. Langreth et al., J. Phys.: Condens. Matter 21, 084203 (2009). %
     %                                                                      %
     %                                                                      %
     % If you are calculating the stress with vdW-DF, please also cite:     %
     %                                                                      %
     %   R. Sabatini et al., J. Phys.: Condens. Matter 24, 424209 (2012).   %
     %                                                                      %
     %%%%%%%%%%%%%%%%%%%%%%%%%%%%%%%%%%%%%%%%%%%%%%%%%%%%%%%%%%%%%%%%%%%%%%%%

     Adding external electric field

     Computed dipole along edir(3) :
        Dipole               -9.2704 Ry au,        -23.5631 Debye
        Dipole field         -0.0175 Ry au,

        Potential amp.        1.6217 Ry
        Total length         46.3494 bohr

     Starting wfcs are  300 atomic wfcs
  @ DRIVER MODE: Message from server: STATUS
  @ DRIVER MODE: Message from server: POSDATA
  @ DRIVER MODE: Reading and sharing cell
  @ DRIVER MODE: Reading and sharing positions
  @ DRIVER MODE: Received positions

     Self-consistent Calculation

     iteration #  1     ecut=    29.40 Ry     beta= 0.05
     Davidson diagonalization with overlap
     c_bands:  1 eigenvalues not converged
     c_bands:  1 eigenvalues not converged
     c_bands:  1 eigenvalues not converged
     ethr =  1.00E-05,  avg # of iterations = 17.9

[...]

     total energy              =   -2585.26616349 Ry
     estimated scf accuracy    <    3947.30451913 Ry

     iteration #  2     ecut=    29.40 Ry     beta= 0.05
     Davidson diagonalization with overlap
     ethr =  1.00E-02,  avg # of iterations = 22.4

[...]

     iteration # 58     ecut=    29.40 Ry     beta= 0.05
     Davidson diagonalization with overlap
     c_bands:  1 eigenvalues not converged
     ethr =  4.00E-09,  avg # of iterations = 15.5

[...]

     total energy              =   -2940.39769814 Ry
     estimated scf accuracy    <       0.00000009 Ry

     iteration # 70     ecut=    29.40 Ry     beta= 0.05
     Davidson diagonalization with overlap
     ethr =  2.22E-11,  avg # of iterations =  9.7

     negative rho (up, down):  1.568E-02 0.000E+00

     Adding external electric field

     Computed dipole along edir(3) :
        Dipole                1.1318 Ry au,          2.8769 Debye
        Dipole field          0.0021 Ry au,

        Potential amp.       -0.1980 Ry
        Total length         46.3494 bohr

     End of self-consistent calculation

          k = 0.0000 0.0000 0.0000 ( 18029 PWs)   bands (ev):

   -55.6422 -55.6082 -55.5500 -55.5124 -55.4063 -55.3838 -55.3725 -55.3485
   -55.3415 -55.3347 -55.3147 -55.2650 -54.7247 -54.5841 -54.5565 -54.5501
   -32.1166 -32.0935 -31.9363 -31.9233 -31.8933 -31.8627 -31.8446 -31.8380
   -31.7953 -31.7789 -31.7779 -31.7389 -31.7299 -31.7120 -31.7008 -31.6911
   -31.6805 -31.6718 -31.6388 -31.6271 -31.6046 -31.5845 -31.5770 -31.5632
   -31.5499 -31.5436 -31.5369 -31.5352 -31.5295 -31.5124 -31.5031 -31.5016
   -31.4977 -31.4608 -31.4467 -31.3791 -31.2225 -30.9898 -30.9478 -30.9331
   -30.9051 -30.8939 -30.8825 -30.8066 -30.7648 -30.7362 -30.7204 -30.6093
   -18.0015 -16.2764 -16.0486 -15.7712 -15.6704 -15.6469 -15.5260 -15.3936
   -15.2932 -15.1981 -15.1578 -15.1035 -15.0990 -15.0695 -15.0393 -15.0033
   -14.9757 -14.9363 -14.9183 -14.8986 -14.8733 -14.8645 -14.7539 -14.7402
   -14.7159 -14.6244 -14.6141 -14.5413 -14.5152 -14.0854 -13.0862 -12.9705
   -12.0203  -8.9350  -5.7283  -4.4577  -4.1528  -3.6593  -3.5334  -3.5032
    -3.4017  -3.2269  -3.1371  -3.0771  -2.9532  -2.7634  -2.7285  -2.7186
    -2.6985  -2.6408  -2.4427  -2.4171  -2.3857  -2.3460  -2.3360  -2.3338
    -2.3196  -2.2579  -2.1916  -2.1269  -2.0286  -2.0236  -1.9673  -1.9540
    -1.9367  -1.9021  -1.8586  -1.8192  -1.7977  -1.7557  -1.7371  -1.7305
    -1.6891  -1.6068  -1.5043  -1.3474  -1.3297  -1.2997  -1.2514  -1.1961
    -1.0315  -1.0161  -0.9786  -0.9725  -0.9408  -0.8651  -0.7985  -0.7129
    -0.6771  -0.6000  -0.5841  -0.5554  -0.4811  -0.3955  -0.3728  -0.3578
    -0.3501  -0.3346  -0.2766  -0.1629  -0.0667  -0.0364   0.0843   0.0889
     0.1241   0.1685   0.1849   0.2668   0.3029   0.3168   0.3682   0.3687
     0.3803   0.4241   0.4470   0.5095   0.5654   0.6497   0.7229   0.7884
     0.8251   0.9416   1.0126   1.0779   1.1097   1.2389   1.3667   1.3761
     1.4377   1.6332   1.6357   2.0061   2.0505   3.5292   3.5502   3.6429
     3.6864   3.7843   3.8233   3.9677   4.0224   4.0603   4.1751   4.2061

[...]

          k = 0.0380-0.0419 0.0000 ( 17876 PWs)   bands (ev):

[...]

          k =-0.0760-0.0000 0.0000 ( 17886 PWs)   bands (ev):

[...]

          k =-0.0760-0.0839 0.0000 ( 17948 PWs)   bands (ev):

   -55.6251 -55.6251 -55.5369 -55.5253 -55.3893 -55.3890 -55.3748 -55.3505
   -55.3331 -55.3303 -55.3300 -55.2696 -54.7231 -54.5671 -54.5670 -54.5580
   -31.9322 -31.9320 -31.9217 -31.9214 -31.9013 -31.8920 -31.7946 -31.7849
   -31.7610 -31.7483 -31.7459 -31.7457 -31.7012 -31.6983 -31.6859 -31.6825
   -31.6738 -31.6700 -31.6695 -31.6444 -31.6000 -31.5982 -31.5850 -31.5820
   -31.5776 -31.5760 -31.5744 -31.5639 -31.5614 -31.5561 -31.5480 -31.5449
   -31.5383 -31.5277 -31.5017 -31.4673 -31.1317 -30.9682 -30.9341 -30.9212
   -30.8952 -30.8952 -30.8028 -30.8027 -30.7840 -30.7661 -30.7636 -30.7635
   -17.9958 -15.6993 -15.6880 -15.5089 -15.5037 -15.4432 -15.4371 -15.2843
   -15.2833 -15.2649 -15.2566 -15.1335 -15.1297 -15.0981 -15.0945 -15.0522
   -15.0435 -15.0254 -15.0170 -15.0154 -15.0088 -14.9822 -14.9314 -14.8973
   -14.8918 -14.7146 -14.7138 -14.5934 -14.5606 -14.2207 -13.0725 -13.0724
   -12.0212  -8.9449  -5.7201  -4.3962  -4.1557  -2.9891  -2.9772  -2.9699
    -2.7037  -2.6986  -2.6742  -2.6637  -2.4586  -2.4459  -2.4247  -2.4190
    -2.3917  -2.3859  -2.3711  -2.3639  -2.2810  -2.2703  -2.2591  -2.2350
    -2.2320  -2.2268  -2.2106  -2.2031  -2.1932  -2.1596  -2.1242  -2.0949
    -2.0603  -2.0378  -1.9185  -1.8081  -1.7303  -1.7235  -1.6929  -1.6871
    -1.6812  -1.6747  -1.6418  -1.5374  -1.4820  -1.4266  -1.2895  -1.2638
    -1.2469  -1.2006  -1.1122  -1.0316  -0.9684  -0.9515  -0.9038  -0.8607
    -0.8358  -0.7517  -0.7273  -0.7198  -0.6523  -0.6195  -0.5750  -0.5692
    -0.5545  -0.4889  -0.4408  -0.3914  -0.3679  -0.3372  -0.2919  -0.2713
    -0.2084  -0.1569  -0.1090  -0.1035  -0.0552  -0.0469   0.0181   0.1677
     0.2170   0.4708   0.4853   0.5160   0.6404   0.7118   0.7171   0.7449
     0.7769   0.8284   0.8401   0.9739   0.9856   0.9881   1.1535   1.1778
     1.2647   1.8061   1.8064   1.8695   1.8699   3.4316   3.9216   3.9389
     3.9641   3.9792   4.0505   4.0514   4.0596   4.0671   4.2450   4.2652

     the Fermi energy is     3.5062 ev

!    total energy              =   -2940.39772580 Ry
     estimated scf accuracy    <       0.00000004 Ry
     smearing contrib. (-TS)   =      -0.02302252 Ry
     internal energy E=F+TS    =   -2940.37470328 Ry

     The total energy is F=E-TS. E is the sum of the following terms:
     one-electron contribution =  -24109.34010973 Ry
     hartree contribution      =   12145.90341470 Ry
     xc contribution           =    -486.04600904 Ry
     ewald contribution        =    9509.10558326 Ry
     electric field correction =       0.00241753 Ry

     convergence has been achieved in  70 iterations

     Forces acting on atoms (cartesian axes, Ry/au):

     atom    1 type  1   force =     0.00016621   -0.00011886    0.09937371
     atom    2 type  1   force =    -0.00013060   -0.00047294   -0.17358232
     atom    3 type  2   force =    -0.00004939   -0.00000292   -0.02877651
     atom    4 type  2   force =     0.00007246   -0.00124973    0.04997684
     atom    5 type  2   force =    -0.01306282    0.00058136    0.00121711
     atom    6 type  2   force =     0.01461093    0.00138890   -0.00010923
     atom    7 type  1   force =    -0.00144483   -0.00059543   -0.00836001
     atom    8 type  1   force =     0.00088131   -0.00412585    0.04513219
     atom    9 type  2   force =    -0.00002993   -0.00065818   -0.00023994
     atom   10 type  2   force =    -0.00129028    0.00227398   -0.02840559
     atom   11 type  2   force =     0.00017930    0.00061466   -0.00003808
     atom   12 type  2   force =     0.00026329    0.00041229    0.00010410
     atom   13 type  1   force =     0.00036669    0.00021934   -0.00060615
     atom   14 type  1   force =     0.00004021    0.00047888    0.00031124
     atom   15 type  2   force =     0.00033517   -0.00009236   -0.00005666
     atom   16 type  2   force =    -0.00040595   -0.00023253   -0.00017952
     atom   17 type  2   force =    -0.00101698    0.00012978   -0.00049372
     atom   18 type  2   force =     0.00090025    0.00021091    0.00022938
     atom   19 type  1   force =     0.00018621   -0.00007724   -0.00001798
     atom   20 type  1   force =    -0.00052456   -0.00084414    0.00016977
     atom   21 type  2   force =     0.00008995   -0.00006962    0.10276836
     atom   22 type  2   force =     0.00000545    0.00005717    0.00012169
     atom   23 type  2   force =    -0.07215465   -0.00015047   -0.02832891
     atom   24 type  2   force =     0.07215025    0.00030923   -0.02832740
     atom   25 type  1   force =     0.00012726   -0.00020443    0.09867462
     atom   26 type  1   force =    -0.00011040   -0.00046204   -0.17379262
     atom   27 type  2   force =     0.00001243   -0.00002429   -0.02806709
     atom   28 type  2   force =     0.00011321   -0.00100319    0.04942925
     atom   29 type  2   force =    -0.01338172    0.00005693    0.00127912
     atom   30 type  2   force =     0.01483776    0.00042200   -0.00006643
     atom   31 type  1   force =    -0.00139753    0.00251093   -0.00864777
     atom   32 type  1   force =     0.00106426    0.00237117    0.04545232
     atom   33 type  2   force =    -0.00012993    0.00104608    0.00057874
     atom   34 type  2   force =    -0.00071665    0.00120386   -0.03114249
     atom   35 type  2   force =     0.00067142   -0.00051942   -0.00018755
     atom   36 type  2   force =    -0.00161537   -0.00011249    0.00006056
     atom   37 type  1   force =    -0.00018210   -0.00152704    0.00018985
     atom   38 type  1   force =     0.00077789   -0.00005276    0.00050548
     atom   39 type  2   force =     0.00033391    0.00016770   -0.00056813
     atom   40 type  2   force =    -0.00040265    0.00032983   -0.00003978
     atom   41 type  2   force =     0.00045013   -0.00060341    0.00006505
     atom   42 type  2   force =    -0.00039256   -0.00070154    0.00051331
     atom   43 type  1   force =     0.00032162   -0.00032829   -0.00059824
     atom   44 type  1   force =    -0.00022763   -0.00064675   -0.00025968
     atom   45 type  2   force =     0.00011050   -0.00006852    0.10279795
     atom   46 type  2   force =    -0.07217835   -0.00010334   -0.02832575
     atom   47 type  2   force =     0.07216154    0.00033568   -0.02830487
     atom   48 type  3   force =    -0.00042454    0.00035781   -0.00134511
     atom   49 type  3   force =     0.00007076   -0.00057048    0.00003929
     atom   50 type  4   force =     0.00107063    0.00009124    0.00085905
     atom   51 type  5   force =    -0.00021922   -0.00041711    0.00013132
     atom   52 type  5   force =     0.00034274    0.00014580   -0.00041280
     atom   53 type  5   force =    -0.00109953    0.00047301   -0.00095901
     atom   54 type  5   force =    -0.00012560   -0.00015315    0.00025909

     Total force =     0.372229     Total SCF correction =     0.000387
  @ DRIVER MODE: Message from server: STATUS
  @ DRIVER MODE: Message from server: GETFORCE
  @ DRIVER MODE: Returning v,forces,stress,ensemble

     Writing output data file ./calc.save/
  @ DRIVER MODE: Message from server: EXIT
  @ DRIVE MODE: Exiting

     General routines

     Parallel routines

   This run was terminated on:  11:45:31  25Aug2021

   JOB DONE.