     Program PWSCF v.6.7GPU starts on 21Sep2021 at 22:21: 6

     R & G space division:  proc/nbgrp/npool/nimage =      10
     Reading input from /storage/home/hcoda1/3/ntian30/research/carbon/CxH_vib/CH_calc/ads_slab/CHNHNHH2O_b/out_0001/pw.inp
Warning: card &CELL ignored
Warning: card   CELL_DYNAMICS='IPI', ignored
Warning: card / ignored

     Current dimensions of program PWSCF are:
     Max number of different atomic species (ntypx) = 10
     Max number of k-points (npk) =  40000
     Max angular momentum in pseudopotentials (lmaxx) =  3
     Presently no symmetry can be used with electric field

     Message from routine cell_base_init:
     DEPRECATED: use true lattice parameter, not A to a.u. conversion factor

     IMPORTANT: XC functional enforced from input :
     Exchange-correlation= BEEF-VDW
                           (   1   4  43  14   2   0   0)
     Any further DFT definition will be discarded
     Please, verify this is what you really want

  @ DRIVER MODE: Connecting to
 qe_1139763_2927424.sched-torque.pace.gatech.eduipawv67a_scratch
  using UNIX socket
  @ DRIVER MODE: Message from server: STATUS
  @ DRIVER MODE: Message from server: INIT
  @ DRIVER MODE: Receiving replica           0          -1
  @ DRIVER MODE: Receiving encoded integer          25
  @ DRIVER MODE:  SCF:  T  FORCE:  T  STRESS:  F  VC:  F  ENSEMBLE:  F
  @ DRIVER MODE:  SCF:  T  FORCE:  T  STRESS:  F  VC:  F  ENSEMBLE:  F

     Using Slab Decomposition

     bravais-lattice index     =            0
     lattice parameter (alat)  =       1.8897  a.u.
     unit-cell volume          =    6658.9804 (a.u.)^3
     number of atoms/cell      =           56
     number of atomic types    =            5
     number of electrons       =       403.00
     number of Kohn-Sham states=          211
     kinetic-energy cutoff     =      29.3995  Ry
     charge density cutoff     =     293.9946  Ry
     scf convergence threshold =      7.3E-08
     mixing beta               =       0.0500
     number of iterations used =            8  plain     mixing
     Exchange-correlation= BEEF-VDW
                           (   1   4  43  14   2   0   0)

     celldm(1)=   1.889726  celldm(2)=   0.000000  celldm(3)=   0.000000
     celldm(4)=   0.000000  celldm(5)=   0.000000  celldm(6)=   0.000000

     crystal axes: (cart. coord. in units of alat)
               a(1) = (   6.579727   0.000000   0.000000 )
               a(2) = (  -0.000775   5.961596   0.000000 )
               a(3) = (   0.000000   0.000000  25.155947 )

     reciprocal axes: (cart. coord. in units 2 pi/alat)
               b(1) = (  0.151982  0.000020  0.000000 )
               b(2) = (  0.000000  0.167740  0.000000 )
               b(3) = (  0.000000  0.000000  0.039752 )

     PseudoPot. # 1 for Ti read from file:
     /storage/coda1/p-amedford6/0/shared/rich_project_chbe-medford/medford-share/data/pseudos_module/espresso/nninc/pbe/van/Ti.UPF
     MD5 check sum: 8e4df49b7f0d34bbd5052bf3f5ea0213
     Pseudo is Ultrasoft, Zval = 12.0
     Generated by new atomic code, or converted to UPF format
     Using radial grid of  851 points,  6 beta functions with:
                l(1) =   0
                l(2) =   0
                l(3) =   1
                l(4) =   1
                l(5) =   2
                l(6) =   2
     Q(r) pseudized with  8 coefficients,  rinner =    1.000   1.000   1.000
                                                       1.000   1.000

     PseudoPot. # 2 for O  read from file:
     /storage/coda1/p-amedford6/0/shared/rich_project_chbe-medford/medford-share/data/pseudos_module/espresso/nninc/pbe/van/O.UPF
     MD5 check sum: 78c19812648e8988a0fe644b0f25305e
     Pseudo is Ultrasoft, Zval =  6.0
     Generated by new atomic code, or converted to UPF format
     Using radial grid of  737 points,  4 beta functions with:
                l(1) =   0
                l(2) =   0
                l(3) =   1
                l(4) =   1
     Q(r) pseudized with  8 coefficients,  rinner =    0.800   0.800   0.800

     PseudoPot. # 3 for N  read from file:
     /storage/coda1/p-amedford6/0/shared/rich_project_chbe-medford/medford-share/data/pseudos_module/espresso/nninc/pbe/van/N.UPF
     MD5 check sum: 90d10febe142ad51ac9d5be1deb811c4
     Pseudo is Ultrasoft, Zval =  5.0
     Generated by new atomic code, or converted to UPF format
     Using radial grid of  729 points,  4 beta functions with:
                l(1) =   0
                l(2) =   0
                l(3) =   1
                l(4) =   1
     Q(r) pseudized with  8 coefficients,  rinner =    0.800   0.800   0.800

     PseudoPot. # 4 for C  read from file:
     /storage/coda1/p-amedford6/0/shared/rich_project_chbe-medford/medford-share/data/pseudos_module/espresso/nninc/pbe/van/C.UPF
     MD5 check sum: 1a69bf6b8db32088f5b2163dbdb77a27
     Pseudo is Ultrasoft, Zval =  4.0
     Generated by new atomic code, or converted to UPF format
     Using radial grid of  721 points,  4 beta functions with:
                l(1) =   0
                l(2) =   0
                l(3) =   1
                l(4) =   1
     Q(r) pseudized with  8 coefficients,  rinner =    0.800   0.800   0.800

     PseudoPot. # 5 for H  read from file:
     /storage/coda1/p-amedford6/0/shared/rich_project_chbe-medford/medford-share/data/pseudos_module/espresso/nninc/pbe/van/H.UPF
     MD5 check sum: b5ee9d7bfd3a09ee7748110bda690ff7
     Pseudo is Ultrasoft, Zval =  1.0
     Generated by new atomic code, or converted to UPF format
     Using radial grid of  615 points,  1 beta functions with:
                l(1) =   0
     Q(r) pseudized with  8 coefficients,  rinner =    0.800

     atomic species   valence    mass     pseudopotential
        Ti1           12.00    47.86700     Ti( 1.00)
        O1             6.00    15.99900     O ( 1.00)
        N1             5.00    14.00700     N ( 1.00)
        C1             4.00    12.01100     C ( 1.00)
        H1             1.00     1.00800     H ( 1.00)

     No symmetry found

   Cartesian axes

     site n.     atom                  positions (alat units)
         1           Ti1 tau(   1) = (   0.0004258   2.9801865   6.0000000  )
         2           Ti1 tau(   2) = (   3.2906075   1.4906267   6.0002472  )
         3           O1  tau(   3) = (   0.0006271   0.0005054   7.9858123  )
         4           O1  tau(   4) = (   3.2906025   0.0005020   7.3038282  )
         5           O1  tau(   5) = (   4.5942328   1.4918067   9.2879030  )
         6           O1  tau(   6) = (   1.9868534   1.4903216   9.2879459  )
         7           Ti1 tau(   7) = (   3.2907910   2.8959150   9.1758416  )
         8           Ti1 tau(   8) = (   0.0015273   1.4827037   9.2680791  )
         9           O1  tau(   9) = (   3.2780774   5.9605562  11.3537357  )
        10           O1  tau(  10) = (   0.0116148   5.9584955  10.6183126  )
        11           O1  tau(  11) = (   1.2922713   1.4781662  12.6511241  )
        12           O1  tau(  12) = (   5.2965393   1.5043564  12.6031353  )
        13           Ti1 tau(  13) = (   6.5273184   3.0207086  12.5807821  )
        14           Ti1 tau(  14) = (   3.2344070   1.4559942  12.5004267  )
        15           O1  tau(  15) = (   6.4759410   0.0295824  14.6525783  )
        16           O1  tau(  16) = (   3.3604338   0.0238249  13.9383540  )
        17           O1  tau(  17) = (   4.5324113   1.5808541  16.1066768  )
        18           O1  tau(  18) = (   1.9684897   1.4712893  15.8817925  )
        19           Ti1 tau(  19) = (   3.2566353   3.0739815  15.8599551  )
        20           Ti1 tau(  20) = (   6.5466614   1.5318677  15.7800735  )
        21           O1  tau(  21) = (   3.2904802   0.0005063   4.7018136  )
        22           O1  tau(  22) = (   6.5744325   0.0155309  17.2227980  )
        23           O1  tau(  23) = (   1.3043587   1.4918075   6.0039043  )
        24           O1  tau(  24) = (   5.2767064   1.4903225   6.0039473  )
        25           Ti1 tau(  25) = (   0.0000382   5.9609847   6.0000000  )
        26           Ti1 tau(  26) = (   3.2902200   4.4714249   6.0002472  )
        27           O1  tau(  27) = (   0.0002396   2.9813036   7.9858123  )
        28           O1  tau(  28) = (   3.2902150   2.9813002   7.3038282  )
        29           O1  tau(  29) = (   4.5938453   4.4726049   9.2879030  )
        30           O1  tau(  30) = (   1.9864658   4.4711199   9.2879459  )
        31           Ti1 tau(  31) = (   3.2891106   5.8743827   9.1763621  )
        32           Ti1 tau(  32) = (   0.0006254   4.4649316   9.2693709  )
        33           O1  tau(  33) = (   3.2727763   2.9788165  11.3438337  )
        34           O1  tau(  34) = (   0.0092240   2.9805883  10.6323155  )
        35           O1  tau(  35) = (   1.2865780   4.4896361  12.6556599  )
        36           O1  tau(  36) = (   5.2967437   4.4749066  12.6066920  )
        37           Ti1 tau(  37) = (   6.5467059   0.0356701  12.5108493  )
        38           Ti1 tau(  38) = (   3.2305653   4.4019604  12.5605372  )
        39           O1  tau(  39) = (   6.5199767   2.9846217  14.6905747  )
        40           O1  tau(  40) = (   3.2851694   3.0254550  13.9321539  )
        41           O1  tau(  41) = (   4.5310495   4.4602642  16.1636806  )
        42           O1  tau(  42) = (   1.9842988   4.5744318  15.9411167  )
        43           Ti1 tau(  43) = (   3.2691225   0.1036042  15.7405456  )
        44           Ti1 tau(  44) = (   6.5697781   4.6877429  16.0360384  )
        45           O1  tau(  45) = (   3.2900926   2.9813045   4.7018136  )
        46           O1  tau(  46) = (   1.3039711   4.4726057   6.0039043  )
        47           O1  tau(  47) = (   5.2763189   4.4711207   6.0039473  )
        48           N1  tau(  48) = (   1.2692381   2.8578196  18.3696018  )
        49           N1  tau(  49) = (   0.1888888   2.9646215  17.5057353  )
        50           C1  tau(  50) = (   2.5352320   2.9081513  18.0382144  )
        51           H1  tau(  51) = (   3.1442446   2.7411670  18.9317345  )
        52           H1  tau(  52) = (   1.0014291   2.6635404  19.3302151  )
        53           H1  tau(  53) = (   5.9397212   2.8571719  18.0851170  )
        54           O1  tau(  54) = (   3.2630597   0.0341043  18.2348460  )
        55           H1  tau(  55) = (   4.0455299   5.4198958  18.2485053  )
        56           H1  tau(  56) = (   2.4923979   5.4091459  18.3156537  )

     number of k points=    10  Fermi-Dirac smearing, width (Ry)=  0.0073
                       cart. coord. in units 2pi/alat
        k(    1) = (   0.0000000   0.0000000   0.0000000), wk =   0.1250000
        k(    2) = (   0.0000000   0.0419351   0.0000000), wk =   0.2500000
        k(    3) = (   0.0000000  -0.0838702   0.0000000), wk =   0.1250000
        k(    4) = (   0.0379955   0.0000049   0.0000000), wk =   0.2500000
        k(    5) = (   0.0379955   0.0419400   0.0000000), wk =   0.2500000
        k(    6) = (   0.0379955  -0.0838652   0.0000000), wk =   0.2500000
        k(    7) = (   0.0379955  -0.0419301   0.0000000), wk =   0.2500000
        k(    8) = (  -0.0759910  -0.0000099   0.0000000), wk =   0.1250000
        k(    9) = (  -0.0759910   0.0419252   0.0000000), wk =   0.2500000
        k(   10) = (  -0.0759910  -0.0838800   0.0000000), wk =   0.1250000

     Initial potential from superposition of free atoms

     starting charge  386.99914, renormalised to  403.00000

     negative rho (up, down):  1.738E-02 0.000E+00

     %%%%%%%%%%%%%%%%%%%%%%%%%%%%%%%%%%%%%%%%%%%%%%%%%%%%%%%%%%%%%%%%%%%%%%%%
     %                                                                      %
     % You are using vdW-DF, which was implemented by the Thonhauser group. %
     % Please cite the following two papers that made this development      %
     % possible and the two reviews that describe the various versions:     %
     %                                                                      %
     %   T. Thonhauser et al., PRL 115, 136402 (2015).                      %
     %   T. Thonhauser et al., PRB 76, 125112 (2007).                       %
     %   K. Berland et al., Rep. Prog. Phys. 78, 066501 (2015).             %
     %   D.C. Langreth et al., J. Phys.: Condens. Matter 21, 084203 (2009). %
     %                                                                      %
     %                                                                      %
     % If you are calculating the stress with vdW-DF, please also cite:     %
     %                                                                      %
     %   R. Sabatini et al., J. Phys.: Condens. Matter 24, 424209 (2012).   %
     %                                                                      %
     %%%%%%%%%%%%%%%%%%%%%%%%%%%%%%%%%%%%%%%%%%%%%%%%%%%%%%%%%%%%%%%%%%%%%%%%

     Adding external electric field

     Computed dipole along edir(3) :
        Dipole              -12.3463 Ry au,        -31.3811 Debye
        Dipole field         -0.0233 Ry au,

        Potential amp.        2.1598 Ry
        Total length         46.3494 bohr

     Starting wfcs are  305 atomic wfcs
  @ DRIVER MODE: Message from server: STATUS
  @ DRIVER MODE: Message from server: POSDATA
  @ DRIVER MODE: Reading and sharing cell
  @ DRIVER MODE: Reading and sharing positions
  @ DRIVER MODE: Received positions

     Self-consistent Calculation

     iteration #  1     ecut=    29.40 Ry     beta= 0.05
     Davidson diagonalization with overlap
     c_bands:  5 eigenvalues not converged
     c_bands:  3 eigenvalues not converged
     c_bands:  3 eigenvalues not converged
     c_bands:  1 eigenvalues not converged
     c_bands:  2 eigenvalues not converged
     c_bands:  2 eigenvalues not converged
     c_bands:  5 eigenvalues not converged
     c_bands:  2 eigenvalues not converged
     c_bands:  4 eigenvalues not converged
     ethr =  1.00E-05,  avg # of iterations = 29.3

[...]

     total energy              =   -2358.74353536 Ry
     estimated scf accuracy    <    6971.27892835 Ry

     iteration #  2     ecut=    29.40 Ry     beta= 0.05
     Davidson diagonalization with overlap
     ethr =  1.00E-02,  avg # of iterations = 25.1

[...]

     iteration # 57     ecut=    29.40 Ry     beta= 0.05
     Davidson diagonalization with overlap
     c_bands:  1 eigenvalues not converged
     ethr =  3.06E-11,  avg # of iterations = 13.3

[...]

     total energy              =   -2973.93982037 Ry
     estimated scf accuracy    <       0.00000013 Ry

     iteration # 59     ecut=    29.40 Ry     beta= 0.05
     Davidson diagonalization with overlap
     ethr =  3.06E-11,  avg # of iterations =  8.2

     negative rho (up, down):  1.725E-02 0.000E+00

     Adding external electric field

     Computed dipole along edir(3) :
        Dipole                1.3952 Ry au,          3.5462 Debye
        Dipole field          0.0026 Ry au,

        Potential amp.       -0.2441 Ry
        Total length         46.3494 bohr

     End of self-consistent calculation

          k = 0.0000 0.0000 0.0000 ( 18029 PWs)   bands (ev):

   -55.3220 -55.2879 -55.2120 -55.1874 -55.1691 -55.1580 -55.1427 -55.1207
   -55.1088 -55.1039 -55.0999 -55.0653 -54.9953 -54.8380 -54.3022 -54.2682
   -31.8062 -31.7329 -31.6577 -31.6523 -31.6425 -31.6139 -31.5895 -31.5671
   -31.5214 -31.5050 -31.4744 -31.4660 -31.4572 -31.4421 -31.4281 -31.4237
   -31.4005 -31.3821 -31.3793 -31.3669 -31.3359 -31.3353 -31.3312 -31.3280
   -31.3248 -31.3215 -31.3175 -31.2992 -31.2914 -31.2814 -31.2747 -31.2724
   -31.2633 -31.2601 -31.2543 -31.2505 -31.2435 -31.2175 -31.2124 -31.0945
   -31.0788 -31.0533 -30.7091 -30.6211 -30.5987 -30.5261 -30.4396 -30.3283
   -18.8724 -18.6788 -15.9800 -15.7961 -15.6148 -15.4762 -15.3943 -15.1627
   -15.1046 -15.0659 -14.9845 -14.9609 -14.8614 -14.8422 -14.8401 -14.8226
   -14.8197 -14.7647 -14.7500 -14.7453 -14.6967 -14.6898 -14.6645 -14.6489
   -14.5954 -14.5179 -14.5084 -14.4628 -14.4175 -14.3710 -14.0264 -13.3850
   -12.8029 -12.6864  -8.7947  -7.2852  -6.6107  -4.3220  -3.7844  -3.3621
    -3.2847  -3.2515  -3.2267  -3.0913  -2.9737  -2.8694  -2.7606  -2.6727
    -2.5867  -2.4826  -2.4255  -2.3804  -2.3198  -2.2595  -2.2335  -2.1481
    -2.1281  -2.1086  -2.0866  -2.0601  -2.0305  -1.9924  -1.8713  -1.8608
    -1.7779  -1.7220  -1.6812  -1.6655  -1.6429  -1.6362  -1.6041  -1.5831
    -1.5744  -1.5631  -1.5605  -1.5261  -1.3876  -1.3624  -1.3346  -1.3159
    -1.1644  -1.0269  -0.9388  -0.9367  -0.8272  -0.7622  -0.7595  -0.7211
    -0.7054  -0.6035  -0.5175  -0.4813  -0.4565  -0.3756  -0.3174  -0.2649
    -0.2128  -0.1754  -0.1108  -0.0876  -0.0707  -0.0537   0.0175   0.0787
     0.1394   0.2247   0.2677   0.2924   0.3834   0.3969   0.4205   0.4852
     0.5196   0.5622   0.5973   0.6268   0.6500   0.6804   0.7059   0.7489
     0.7883   0.9126   0.9308   0.9596   0.9823   1.1549   1.2042   1.3110
     1.3377   1.4493   1.4854   1.6607   1.7218   1.8011   1.9136   2.2918
     2.3376   3.7872   3.8986   3.9327   3.9582   3.9975   4.0483   4.2549
     4.3281   4.3697   4.4265

[...]

          k = 0.0380-0.0419 0.0000 ( 17876 PWs)   bands (ev):

[...]

          k =-0.0760-0.0000 0.0000 ( 17886 PWs)   bands (ev):

[...]

          k =-0.0760-0.0839 0.0000 ( 17948 PWs)   bands (ev):

   -55.3052 -55.3045 -55.2025 -55.1841 -55.1778 -55.1465 -55.1325 -55.1258
   -55.1251 -55.1074 -55.0866 -55.0787 -54.9935 -54.8396 -54.2852 -54.2851
   -31.6217 -31.6213 -31.5995 -31.5991 -31.5671 -31.5350 -31.5039 -31.4914
   -31.4851 -31.4697 -31.4513 -31.4440 -31.4420 -31.4321 -31.4276 -31.4269
   -31.4246 -31.4242 -31.4188 -31.4026 -31.3919 -31.3779 -31.3668 -31.3637
   -31.3601 -31.3555 -31.3467 -31.3339 -31.3281 -31.3267 -31.3114 -31.3022
   -31.2991 -31.2982 -31.2965 -31.2939 -31.2599 -31.2367 -31.2225 -31.1504
   -31.0967 -31.0818 -30.6114 -30.6114 -30.5219 -30.5218 -30.4829 -30.4828
   -18.8605 -18.6863 -15.3581 -15.3220 -15.2841 -15.2572 -15.2414 -15.1200
   -15.1058 -15.0706 -15.0289 -15.0159 -14.9853 -14.9567 -14.9084 -14.8994
   -14.8654 -14.8461 -14.8071 -14.7803 -14.7612 -14.7569 -14.7399 -14.7184
   -14.6743 -14.6526 -14.6405 -14.6362 -14.5844 -14.4909 -14.2120 -13.4072
   -12.7883 -12.7882  -8.7912  -7.2105  -6.6117  -4.5246  -3.5713  -2.8622
    -2.6766  -2.6336  -2.5795  -2.4901  -2.4440  -2.3212  -2.3148  -2.2920
    -2.2469  -2.2337  -2.1930  -2.1530  -2.1468  -2.1191  -2.1065  -2.0621
    -2.0504  -2.0474  -2.0331  -1.9988  -1.9941  -1.9733  -1.9492  -1.9462
    -1.9359  -1.9198  -1.8873  -1.8800  -1.8524  -1.8342  -1.6816  -1.6067
    -1.5655  -1.4878  -1.4647  -1.4479  -1.4289  -1.3944  -1.3742  -1.3485
    -1.3200  -1.1740  -1.0306  -0.9988  -0.9737  -0.8747  -0.8605  -0.8409
    -0.7938  -0.7518  -0.7178  -0.6583  -0.6491  -0.6041  -0.5831  -0.4632
    -0.4242  -0.3252  -0.2903  -0.2884  -0.2708  -0.2564  -0.2389  -0.2131
    -0.1646  -0.0924  -0.0767  -0.0279  -0.0043  -0.0015   0.0115   0.1594
     0.2285   0.2514   0.3534   0.3811   0.5553   0.7203   0.7317   0.8000
     0.8624   0.9191   0.9516   0.9913   1.0017   1.0676   1.0936   1.1983
     1.2071   1.2569   1.2632   1.3487   1.3534   2.0855   2.0872   2.1575
     2.1577   4.1517   4.1643   4.1953   4.2585   4.3013   4.3131   4.3506
     4.3544   4.4572   4.4725

     the Fermi energy is     3.8054 ev

!    total energy              =   -2973.93987037 Ry
     estimated scf accuracy    <       0.00000003 Ry
     smearing contrib. (-TS)   =      -0.02072146 Ry
     internal energy E=F+TS    =   -2973.91914891 Ry

     The total energy is F=E-TS. E is the sum of the following terms:
     one-electron contribution =  -24338.91311237 Ry
     hartree contribution      =   12267.14065542 Ry
     xc contribution           =    -494.11595495 Ry
     ewald contribution        =    9591.96558960 Ry
     electric field correction =       0.00367338 Ry

     convergence has been achieved in  59 iterations

     Forces acting on atoms (cartesian axes, Ry/au):

     atom    1 type  1   force =     0.00002345   -0.00008720    0.09506244
     atom    2 type  1   force =     0.00017091   -0.00069250   -0.17564271
     atom    3 type  2   force =     0.00008816   -0.00004758   -0.02293569
     atom    4 type  2   force =     0.00002050   -0.00143246    0.05289657
     atom    5 type  2   force =    -0.01000625   -0.00031152    0.00380480
     atom    6 type  2   force =     0.01112849    0.00020555    0.00205926
     atom    7 type  1   force =    -0.00021439    0.00179565   -0.00587877
     atom    8 type  1   force =     0.00081935    0.01008152    0.01604635
     atom    9 type  2   force =    -0.00015777    0.00087163    0.00031613
     atom   10 type  2   force =    -0.00227481    0.00217744   -0.01800732
     atom   11 type  2   force =     0.00020773   -0.00003543    0.00008622
     atom   12 type  2   force =    -0.00031725   -0.00018647    0.00057076
     atom   13 type  1   force =    -0.00001424    0.00125248    0.00011542
     atom   14 type  1   force =    -0.00012381    0.00011729    0.00002106
     atom   15 type  2   force =     0.00015355    0.00024664    0.00016018
     atom   16 type  2   force =    -0.00037291    0.00044431   -0.00026369
     atom   17 type  2   force =    -0.00003325   -0.00026038   -0.00008015
     atom   18 type  2   force =    -0.00027307   -0.00001003    0.00040322
     atom   19 type  1   force =    -0.00070685    0.00033285    0.00057566
     atom   20 type  1   force =    -0.00044223   -0.00051951   -0.00036464
     atom   21 type  2   force =     0.00009431   -0.00008698    0.10320086
     atom   22 type  2   force =     0.00039447    0.00001046    0.00053409
     atom   23 type  2   force =    -0.07161185   -0.00016559   -0.02757732
     atom   24 type  2   force =     0.07157053    0.00024800   -0.02762583
     atom   25 type  1   force =     0.00023359   -0.00039614    0.09518772
     atom   26 type  1   force =    -0.00003476   -0.00019999   -0.17580955
     atom   27 type  2   force =     0.00012197   -0.00012118   -0.02196491
     atom   28 type  2   force =     0.00001372   -0.00139755    0.05322439
     atom   29 type  2   force =    -0.01035224   -0.00022707    0.00364662
     atom   30 type  2   force =     0.01138949    0.00042526    0.00191433
     atom   31 type  1   force =    -0.00030112    0.00266618   -0.00007005
     atom   32 type  1   force =     0.00067502   -0.01114638    0.01691123
     atom   33 type  2   force =     0.00037830   -0.00027848   -0.00000994
     atom   34 type  2   force =    -0.00034122    0.00144282   -0.01893455
     atom   35 type  2   force =    -0.00004077   -0.00035113   -0.00015780
     atom   36 type  2   force =     0.00003262   -0.00024336    0.00044662
     atom   37 type  1   force =    -0.00004018   -0.00123449    0.00028217
     atom   38 type  1   force =    -0.00039788    0.00084062    0.00011104
     atom   39 type  2   force =     0.00009665    0.00007391    0.00024541
     atom   40 type  2   force =    -0.00051393   -0.00060307   -0.00021600
     atom   41 type  2   force =     0.00034950   -0.00011725    0.00022021
     atom   42 type  2   force =    -0.00040841   -0.00026932   -0.00029653
     atom   43 type  1   force =    -0.00023756   -0.00021553    0.00066321
     atom   44 type  1   force =    -0.00004523    0.00007920   -0.00030967
     atom   45 type  2   force =     0.00009806   -0.00010123    0.10321785
     atom   46 type  2   force =    -0.07159775   -0.00016945   -0.02756784
     atom   47 type  2   force =     0.07159822    0.00024162   -0.02758138
     atom   48 type  3   force =     0.02788306    0.00060121   -0.00355459
     atom   49 type  3   force =    -0.00618806   -0.00011514   -0.00049582
     atom   50 type  4   force =    -0.01495648   -0.00045168    0.00270532
     atom   51 type  5   force =    -0.00150107   -0.00066254    0.00045850
     atom   52 type  5   force =    -0.00295733   -0.00172322    0.00221233
     atom   53 type  5   force =    -0.00119271   -0.00018544   -0.00220386
     atom   54 type  2   force =     0.00007361    0.00115939   -0.00022922
     atom   55 type  5   force =     0.00006672   -0.00028205    0.00001975
     atom   56 type  5   force =    -0.00002659   -0.00098669    0.00045807

     Total force =     0.366688     Total SCF correction =     0.000426
  @ DRIVER MODE: Message from server: STATUS
  @ DRIVER MODE: Message from server: GETFORCE
  @ DRIVER MODE: Returning v,forces,stress,ensemble

     Writing output data file ./calc.save/
  @ DRIVER MODE: Message from server: EXIT
  @ DRIVE MODE: Exiting

     General routines

     Parallel routines

   This run was terminated on:  22:40:30  21Sep2021

   JOB DONE.