     Program PWSCF v.6.7GPU starts on 23Aug2021 at 12:41:50

     R & G space division:  proc/nbgrp/npool/nimage =       6
     Reading input from /storage/home/hcoda1/3/ntian30/research/carbon/CH_vib/ads_slab/CHN2_a/out_0000/pw.inp
Warning: card &CELL ignored
Warning: card   CELL_DYNAMICS='IPI', ignored
Warning: card / ignored

     Current dimensions of program PWSCF are:
     Max number of different atomic species (ntypx) = 10
     Max number of k-points (npk) =  40000
     Max angular momentum in pseudopotentials (lmaxx) =  3
     Presently no symmetry can be used with electric field

     Message from routine cell_base_init:
     DEPRECATED: use true lattice parameter, not A to a.u. conversion factor

     IMPORTANT: XC functional enforced from input :
     Exchange-correlation= BEEF-VDW
                           (   1   4  43  14   2   0   0)
     Any further DFT definition will be discarded
     Please, verify this is what you really want

  @ DRIVER MODE: Connecting to
 qe_1139763_2632791.sched-torque.pace.gatech.eduk6fasvwg_scratch
  using UNIX socket
  @ DRIVER MODE: Message from server: STATUS
  @ DRIVER MODE: Message from server: INIT
  @ DRIVER MODE: Receiving replica           0          -1
  @ DRIVER MODE: Receiving encoded integer          25
  @ DRIVER MODE:  SCF:  T  FORCE:  T  STRESS:  F  VC:  F  ENSEMBLE:  F
  @ DRIVER MODE:  SCF:  T  FORCE:  T  STRESS:  F  VC:  F  ENSEMBLE:  F

     Using Slab Decomposition

     bravais-lattice index     =            0
     lattice parameter (alat)  =       1.8897  a.u.
     unit-cell volume          =    6658.9804 (a.u.)^3
     number of atoms/cell      =           51
     number of atomic types    =            5
     number of electrons       =       393.00
     number of Kohn-Sham states=          206
     kinetic-energy cutoff     =      29.3995  Ry
     charge density cutoff     =     293.9946  Ry
     scf convergence threshold =      7.3E-08
     mixing beta               =       0.0500
     number of iterations used =            8  plain     mixing
     Exchange-correlation= BEEF-VDW
                           (   1   4  43  14   2   0   0)

     celldm(1)=   1.889726  celldm(2)=   0.000000  celldm(3)=   0.000000
     celldm(4)=   0.000000  celldm(5)=   0.000000  celldm(6)=   0.000000

     crystal axes: (cart. coord. in units of alat)
               a(1) = (   6.579727   0.000000   0.000000 )
               a(2) = (  -0.000775   5.961596   0.000000 )
               a(3) = (   0.000000   0.000000  25.155947 )

     reciprocal axes: (cart. coord. in units 2 pi/alat)
               b(1) = (  0.151982  0.000020  0.000000 )
               b(2) = (  0.000000  0.167740  0.000000 )
               b(3) = (  0.000000  0.000000  0.039752 )

     PseudoPot. # 1 for Ti read from file:
     /storage/coda1/p-amedford6/0/shared/rich_project_chbe-medford/medford-share/data/pseudos_module/espresso/nninc/pbe/van/Ti.UPF
     MD5 check sum: 8e4df49b7f0d34bbd5052bf3f5ea0213
     Pseudo is Ultrasoft, Zval = 12.0
     Generated by new atomic code, or converted to UPF format
     Using radial grid of  851 points,  6 beta functions with:
                l(1) =   0
                l(2) =   0
                l(3) =   1
                l(4) =   1
                l(5) =   2
                l(6) =   2
     Q(r) pseudized with  8 coefficients,  rinner =    1.000   1.000   1.000
                                                       1.000   1.000

     PseudoPot. # 2 for O  read from file:
     /storage/coda1/p-amedford6/0/shared/rich_project_chbe-medford/medford-share/data/pseudos_module/espresso/nninc/pbe/van/O.UPF
     MD5 check sum: 78c19812648e8988a0fe644b0f25305e
     Pseudo is Ultrasoft, Zval =  6.0
     Generated by new atomic code, or converted to UPF format
     Using radial grid of  737 points,  4 beta functions with:
                l(1) =   0
                l(2) =   0
                l(3) =   1
                l(4) =   1
     Q(r) pseudized with  8 coefficients,  rinner =    0.800   0.800   0.800

     PseudoPot. # 3 for N  read from file:
     /storage/coda1/p-amedford6/0/shared/rich_project_chbe-medford/medford-share/data/pseudos_module/espresso/nninc/pbe/van/N.UPF
     MD5 check sum: 90d10febe142ad51ac9d5be1deb811c4
     Pseudo is Ultrasoft, Zval =  5.0
     Generated by new atomic code, or converted to UPF format
     Using radial grid of  729 points,  4 beta functions with:
                l(1) =   0
                l(2) =   0
                l(3) =   1
                l(4) =   1
     Q(r) pseudized with  8 coefficients,  rinner =    0.800   0.800   0.800

     PseudoPot. # 4 for C  read from file:
     /storage/coda1/p-amedford6/0/shared/rich_project_chbe-medford/medford-share/data/pseudos_module/espresso/nninc/pbe/van/C.UPF
     MD5 check sum: 1a69bf6b8db32088f5b2163dbdb77a27
     Pseudo is Ultrasoft, Zval =  4.0
     Generated by new atomic code, or converted to UPF format
     Using radial grid of  721 points,  4 beta functions with:
                l(1) =   0
                l(2) =   0
                l(3) =   1
                l(4) =   1
     Q(r) pseudized with  8 coefficients,  rinner =    0.800   0.800   0.800

     PseudoPot. # 5 for H  read from file:
     /storage/coda1/p-amedford6/0/shared/rich_project_chbe-medford/medford-share/data/pseudos_module/espresso/nninc/pbe/van/H.UPF
     MD5 check sum: b5ee9d7bfd3a09ee7748110bda690ff7
     Pseudo is Ultrasoft, Zval =  1.0
     Generated by new atomic code, or converted to UPF format
     Using radial grid of  615 points,  1 beta functions with:
                l(1) =   0
     Q(r) pseudized with  8 coefficients,  rinner =    0.800

     atomic species   valence    mass     pseudopotential
        Ti1           12.00    47.86700     Ti( 1.00)
        O1             6.00    15.99900     O ( 1.00)
        N1             5.00    14.00700     N ( 1.00)
        C1             4.00    12.01100     C ( 1.00)
        H1             1.00     1.00800     H ( 1.00)

     No symmetry found

   Cartesian axes

     site n.     atom                  positions (alat units)
         1           Ti1 tau(   1) = (   0.0004258   2.9801865   6.0000000  )
         2           Ti1 tau(   2) = (   3.2906075   1.4906267   6.0002472  )
         3           O1  tau(   3) = (   0.0006271   0.0005054   7.9858123  )
         4           O1  tau(   4) = (   3.2906025   0.0005020   7.3038282  )
         5           O1  tau(   5) = (   4.5942328   1.4918067   9.2879030  )
         6           O1  tau(   6) = (   1.9868534   1.4903216   9.2879459  )
         7           Ti1 tau(   7) = (   3.2907910   2.8959150   9.1758416  )
         8           Ti1 tau(   8) = (   0.0015273   1.4827037   9.2680791  )
         9           O1  tau(   9) = (   3.3035207   5.9473585  11.3310231  )
        10           O1  tau(  10) = (   0.0116148   5.9584955  10.6183126  )
        11           O1  tau(  11) = (   1.3208475   1.4758257  12.6111770  )
        12           O1  tau(  12) = (   5.3082752   1.4698866  12.6250687  )
        13           Ti1 tau(  13) = (   6.5356446   2.9641997  12.6185077  )
        14           Ti1 tau(  14) = (   3.2189969   1.4721334  12.4835407  )
        15           O1  tau(  15) = (   0.0393797   5.9575543  14.6615593  )
        16           O1  tau(  16) = (   3.2985004   5.9511915  13.9168519  )
        17           O1  tau(  17) = (   4.5692420   1.4945533  16.0479082  )
        18           O1  tau(  18) = (   2.0930108   1.4957509  16.0624375  )
        19           Ti1 tau(  19) = (   3.3255584   2.9801015  15.7018593  )
        20           Ti1 tau(  20) = (   6.5669960   1.4976744  15.8335939  )
        21           O1  tau(  21) = (   3.2904802   0.0005063   4.7018136  )
        22           O1  tau(  22) = (   0.0392190   0.0140749  17.2134629  )
        23           O1  tau(  23) = (   1.3043587   1.4918075   6.0039043  )
        24           O1  tau(  24) = (   5.2767064   1.4903225   6.0039473  )
        25           Ti1 tau(  25) = (   0.0000382   5.9609847   6.0000000  )
        26           Ti1 tau(  26) = (   3.2902200   4.4714249   6.0002472  )
        27           O1  tau(  27) = (   0.0002396   2.9813036   7.9858123  )
        28           O1  tau(  28) = (   3.2902150   2.9813002   7.3038282  )
        29           O1  tau(  29) = (   4.5938453   4.4726049   9.2879030  )
        30           O1  tau(  30) = (   1.9864658   4.4711199   9.2879459  )
        31           Ti1 tau(  31) = (   3.2891106   5.8743827   9.1763621  )
        32           Ti1 tau(  32) = (   0.0006254   4.4649316   9.2693709  )
        33           O1  tau(  33) = (   3.3031456   2.9698018  11.3313920  )
        34           O1  tau(  34) = (   0.0092240   2.9805883  10.6323155  )
        35           O1  tau(  35) = (   1.3161540   4.4602657  12.6201046  )
        36           O1  tau(  36) = (   5.3094940   4.4638127  12.6365964  )
        37           Ti1 tau(  37) = (   6.5345696   5.9399333  12.5489351  )
        38           Ti1 tau(  38) = (   3.2177077   4.4523588  12.4826418  )
        39           O1  tau(  39) = (   0.0172592   2.9259015  14.6604509  )
        40           O1  tau(  40) = (   3.3090452   2.9742471  13.9045505  )
        41           O1  tau(  41) = (   4.5663562   4.4668710  16.0744231  )
        42           O1  tau(  42) = (   2.0880155   4.4652721  16.0825153  )
        43           Ti1 tau(  43) = (   3.2840513   5.9573583  15.7162584  )
        44           Ti1 tau(  44) = (   0.0037803   4.6334615  16.1183230  )
        45           O1  tau(  45) = (   3.2900926   2.9813045   4.7018136  )
        46           O1  tau(  46) = (   1.3039711   4.4726057   6.0039043  )
        47           O1  tau(  47) = (   5.2763189   4.4711207   6.0039473  )
        48           N1  tau(  48) = (   0.6403421   2.7964730  18.4694378  )
        49           C1  tau(  49) = (   1.0548146   2.6213466  19.5673862  )
        50           H1  tau(  50) = (   1.9720372   2.4638087  20.0927579  )
        51           N1  tau(  51) = (   0.0785678   2.9476959  17.3929364  )

     number of k points=    10  Fermi-Dirac smearing, width (Ry)=  0.0073
                       cart. coord. in units 2pi/alat
        k(    1) = (   0.0000000   0.0000000   0.0000000), wk =   0.1250000
        k(    2) = (   0.0000000   0.0419351   0.0000000), wk =   0.2500000
        k(    3) = (   0.0000000  -0.0838702   0.0000000), wk =   0.1250000
        k(    4) = (   0.0379955   0.0000049   0.0000000), wk =   0.2500000
        k(    5) = (   0.0379955   0.0419400   0.0000000), wk =   0.2500000
        k(    6) = (   0.0379955  -0.0838652   0.0000000), wk =   0.2500000
        k(    7) = (   0.0379955  -0.0419301   0.0000000), wk =   0.2500000
        k(    8) = (  -0.0759910  -0.0000099   0.0000000), wk =   0.1250000
        k(    9) = (  -0.0759910   0.0419252   0.0000000), wk =   0.2500000
        k(   10) = (  -0.0759910  -0.0838800   0.0000000), wk =   0.1250000

     Initial potential from superposition of free atoms

     starting charge  376.99918, renormalised to  393.00000

     negative rho (up, down):  1.612E-02 0.000E+00

     %%%%%%%%%%%%%%%%%%%%%%%%%%%%%%%%%%%%%%%%%%%%%%%%%%%%%%%%%%%%%%%%%%%%%%%%
     %                                                                      %
     % You are using vdW-DF, which was implemented by the Thonhauser group. %
     % Please cite the following two papers that made this development      %
     % possible and the two reviews that describe the various versions:     %
     %                                                                      %
     %   T. Thonhauser et al., PRL 115, 136402 (2015).                      %
     %   T. Thonhauser et al., PRB 76, 125112 (2007).                       %
     %   K. Berland et al., Rep. Prog. Phys. 78, 066501 (2015).             %
     %   D.C. Langreth et al., J. Phys.: Condens. Matter 21, 084203 (2009). %
     %                                                                      %
     %                                                                      %
     % If you are calculating the stress with vdW-DF, please also cite:     %
     %                                                                      %
     %   R. Sabatini et al., J. Phys.: Condens. Matter 24, 424209 (2012).   %
     %                                                                      %
     %%%%%%%%%%%%%%%%%%%%%%%%%%%%%%%%%%%%%%%%%%%%%%%%%%%%%%%%%%%%%%%%%%%%%%%%

     Adding external electric field

     Computed dipole along edir(3) :
        Dipole               -7.3725 Ry au,        -18.7391 Debye
        Dipole field         -0.0139 Ry au,

        Potential amp.        1.2897 Ry
        Total length         46.3494 bohr

     Starting wfcs are  297 atomic wfcs
  @ DRIVER MODE: Message from server: STATUS
  @ DRIVER MODE: Message from server: POSDATA
  @ DRIVER MODE: Reading and sharing cell
  @ DRIVER MODE: Reading and sharing positions
  @ DRIVER MODE: Received positions

     Self-consistent Calculation

     iteration #  1     ecut=    29.40 Ry     beta= 0.05
     Davidson diagonalization with overlap
     ethr =  1.00E-02,  avg # of iterations =  2.1

[...]

     total energy              =   -2709.55715769 Ry
     estimated scf accuracy    <    2512.65699074 Ry

     iteration #  2     ecut=    29.40 Ry     beta= 0.05
     Davidson diagonalization with overlap
     c_bands:  5 eigenvalues not converged
     c_bands:  3 eigenvalues not converged
     ethr =  1.00E-02,  avg # of iterations = 21.1

[...]

     iteration # 67     ecut=    29.40 Ry     beta= 0.05
     Davidson diagonalization with overlap
     ethr =  2.18E-11,  avg # of iterations =  1.0

[...]

     total energy              =   -2936.63876375 Ry
     estimated scf accuracy    <       0.00000014 Ry

     iteration # 68     ecut=    29.40 Ry     beta= 0.05
     Davidson diagonalization with overlap
     c_bands:  1 eigenvalues not converged
     ethr =  2.18E-11,  avg # of iterations = 12.9

     negative rho (up, down):  1.642E-02 0.000E+00

     Adding external electric field

     Computed dipole along edir(3) :
        Dipole                0.6629 Ry au,          1.6850 Debye
        Dipole field          0.0013 Ry au,

        Potential amp.       -0.1160 Ry
        Total length         46.3494 bohr

     End of self-consistent calculation

          k = 0.0000 0.0000 0.0000 ( 18029 PWs)   bands (ev):

   -55.9518 -55.9471 -55.9177 -55.9111 -55.8146 -55.8104 -55.7794 -55.7742
   -55.7626 -55.7287 -55.7285 -55.6949 -55.5063 -55.2852 -54.9307 -54.8966
   -32.5014 -32.4345 -32.3137 -32.2714 -32.2616 -32.2544 -32.2445 -32.2194
   -32.1949 -32.1722 -32.1489 -32.1409 -32.1267 -32.1041 -32.0986 -32.0868
   -32.0564 -32.0501 -32.0453 -32.0200 -32.0161 -32.0091 -31.9880 -31.9690
   -31.9596 -31.9520 -31.9516 -31.9494 -31.9398 -31.9305 -31.9263 -31.9037
   -31.8935 -31.8817 -31.8787 -31.8695 -31.8409 -31.7349 -31.7256 -31.5561
   -31.5205 -31.5047 -31.3378 -31.2494 -31.2270 -31.1546 -31.0681 -30.9570
   -19.3007 -16.7007 -16.4304 -16.1971 -16.1068 -16.0828 -15.9623 -15.7979
   -15.6790 -15.6233 -15.5225 -15.5176 -15.4890 -15.4571 -15.4367 -15.4244
   -15.4000 -15.3963 -15.3729 -15.3593 -15.3144 -15.2936 -15.2773 -15.1838
   -15.1300 -15.0874 -15.0523 -15.0277 -15.0120 -14.5556 -14.0066 -13.4328
   -13.3164  -6.7643  -5.2430  -4.2819  -4.0733  -4.0563  -3.9163  -3.8589
    -3.8103  -3.7056  -3.5694  -3.5035  -3.1923  -3.1363  -3.1213  -3.1055
    -3.0737  -2.8600  -2.8054  -2.7678  -2.7408  -2.7307  -2.7224  -2.7167
    -2.7003  -2.6728  -2.5662  -2.4953  -2.4205  -2.4108  -2.3538  -2.3511
    -2.2649  -2.2418  -2.2194  -2.1979  -2.1936  -2.1830  -2.1567  -2.1351
    -2.0095  -1.9389  -1.8277  -1.7597  -1.7244  -1.5615  -1.5440  -1.4165
    -1.4127  -1.3811  -1.3452  -1.3273  -1.2536  -1.1539  -1.1195  -1.1040
    -1.0577  -0.9745  -0.9281  -0.8469  -0.8021  -0.7761  -0.7235  -0.7158
    -0.7075  -0.6609  -0.5091  -0.4332  -0.3795  -0.3665  -0.3318  -0.2585
    -0.2330  -0.1500  -0.1071  -0.0826  -0.0728  -0.0190   0.0207   0.0340
     0.0477   0.0568   0.0673   0.2454   0.2944   0.3192   0.3723   0.3937
     0.5715   0.6029   0.7023   0.7912   1.0180   1.0917   1.1705   1.2728
     1.2836   1.4884   1.6630   1.7086   3.1789   3.2687   3.3102   3.3150
     3.4207   3.4866   3.6339   3.6549   3.6793   3.7220

[...]

          k = 0.0380-0.0419 0.0000 ( 17876 PWs)   bands (ev):

[...]

          k =-0.0760-0.0000 0.0000 ( 17886 PWs)   bands (ev):

[...]

          k =-0.0760-0.0839 0.0000 ( 17948 PWs)   bands (ev):

   -55.9352 -55.9343 -55.9298 -55.9282 -55.8007 -55.7976 -55.7932 -55.7868
   -55.7463 -55.7444 -55.7133 -55.7104 -55.5050 -55.2863 -54.9136 -54.9135
   -32.3047 -32.3038 -32.2501 -32.2495 -32.2303 -32.2295 -32.2047 -32.2033
   -32.1592 -32.1549 -32.1339 -32.1310 -32.0842 -32.0811 -32.0786 -32.0720
   -32.0667 -32.0592 -32.0549 -32.0539 -32.0518 -32.0488 -32.0168 -32.0067
   -32.0056 -31.9937 -31.9877 -31.9771 -31.9471 -31.9464 -31.9442 -31.9418
   -31.9277 -31.9261 -31.9228 -31.9202 -31.8799 -31.7373 -31.7226 -31.6250
   -31.5305 -31.5210 -31.2397 -31.2397 -31.1507 -31.1505 -31.1114 -31.1114
   -19.2979 -16.1328 -16.1108 -15.9070 -15.8715 -15.8663 -15.8541 -15.7436
   -15.6661 -15.6480 -15.6458 -15.5751 -15.5485 -15.5296 -15.4924 -15.4874
   -15.4735 -15.4701 -15.4388 -15.4169 -15.4100 -15.3924 -15.3844 -15.3069
   -15.2716 -15.2671 -15.2463 -15.1354 -14.9964 -14.7350 -14.0126 -13.4182
   -13.4181  -6.7634  -5.2126  -4.2502  -4.0466  -3.4227  -3.3978  -3.1480
    -3.1114  -3.1032  -3.0468  -2.8748  -2.8586  -2.8434  -2.8178  -2.7865
    -2.7809  -2.7745  -2.7606  -2.7421  -2.7069  -2.6740  -2.6486  -2.6260
    -2.6210  -2.6116  -2.5812  -2.5677  -2.5421  -2.5230  -2.5003  -2.4845
    -2.4704  -2.4599  -2.2797  -2.1948  -2.1585  -2.0948  -2.0856  -2.0611
    -2.0177  -2.0091  -1.9897  -1.9439  -1.8088  -1.6960  -1.6550  -1.6367
    -1.5592  -1.5213  -1.4466  -1.3836  -1.3434  -1.3352  -1.2865  -1.2225
    -1.1758  -1.1595  -1.1006  -1.0681  -1.0191  -1.0026  -0.9537  -0.9135
    -0.9094  -0.8340  -0.7805  -0.7605  -0.7233  -0.7188  -0.6801  -0.6248
    -0.6079  -0.5741  -0.4569  -0.4321  -0.3211  -0.2406  -0.1905   0.0087
     0.0823   0.1194   0.1737   0.2397   0.3213   0.3435   0.3552   0.3655
     0.4168   0.4671   0.5747   0.5859   0.6206   0.7446   1.1841   1.4019
     1.4554   1.4560   1.5284   1.5286   3.4807   3.4976   3.5203   3.5352
     3.6884   3.6936   3.7152   3.7160   3.8431   3.8580

     the Fermi energy is     3.1808 ev

!    total energy              =   -2936.63878445 Ry
     estimated scf accuracy    <       0.00000007 Ry
     smearing contrib. (-TS)   =      -0.02150090 Ry
     internal energy E=F+TS    =   -2936.61728356 Ry

     The total energy is F=E-TS. E is the sum of the following terms:
     one-electron contribution =  -24412.59815472 Ry
     hartree contribution      =   12291.65859411 Ry
     xc contribution           =    -483.59127561 Ry
     ewald contribution        =    9667.91272327 Ry
     electric field correction =       0.00082939 Ry

     convergence has been achieved in  68 iterations

     Forces acting on atoms (cartesian axes, Ry/au):

     atom    1 type  1   force =     0.00000822   -0.00025094    0.09650176
     atom    2 type  1   force =     0.00006605   -0.00048022   -0.17542198
     atom    3 type  2   force =     0.00017450   -0.00005878   -0.02446819
     atom    4 type  2   force =     0.00003325   -0.00142452    0.05288396
     atom    5 type  2   force =    -0.01165888   -0.00077878    0.00292111
     atom    6 type  2   force =     0.01353085   -0.00029474    0.00323482
     atom    7 type  1   force =     0.00094988    0.00042264   -0.01153793
     atom    8 type  1   force =    -0.00000561    0.00992801    0.02613332
     atom    9 type  2   force =    -0.00030753    0.00021380    0.00027539
     atom   10 type  2   force =    -0.00267481    0.00000472   -0.01398426
     atom   11 type  2   force =     0.00069649    0.00022281    0.00031802
     atom   12 type  2   force =    -0.00057448    0.00000383   -0.00002504
     atom   13 type  1   force =     0.00035375   -0.00029835    0.00037911
     atom   14 type  1   force =    -0.00059672   -0.00056229   -0.00050324
     atom   15 type  2   force =    -0.00014085   -0.00015224    0.00061341
     atom   16 type  2   force =     0.00023320   -0.00010964   -0.00034051
     atom   17 type  2   force =     0.00002973    0.00011168   -0.00020509
     atom   18 type  2   force =    -0.00027783    0.00026752   -0.00025759
     atom   19 type  1   force =    -0.00048145   -0.00004295   -0.00072366
     atom   20 type  1   force =     0.00046026    0.00001229    0.00009155
     atom   21 type  2   force =     0.00005738    0.00001791    0.10326775
     atom   22 type  2   force =     0.00015077   -0.00037091   -0.00025655
     atom   23 type  2   force =    -0.07146175   -0.00006898   -0.02764652
     atom   24 type  2   force =     0.07143839    0.00039799   -0.02772574
     atom   25 type  1   force =     0.00025276   -0.00024298    0.09596225
     atom   26 type  1   force =     0.00009960   -0.00027062   -0.17571981
     atom   27 type  2   force =     0.00019990   -0.00017391   -0.02350604
     atom   28 type  2   force =     0.00004793   -0.00120963    0.05303382
     atom   29 type  2   force =    -0.01183290   -0.00001615    0.00276648
     atom   30 type  2   force =     0.01360742    0.00035855    0.00306096
     atom   31 type  1   force =     0.00086220    0.00349983   -0.01215804
     atom   32 type  1   force =     0.00012434   -0.01160653    0.02660960
     atom   33 type  2   force =    -0.00010081    0.00007286   -0.00031021
     atom   34 type  2   force =    -0.00274453   -0.00024892   -0.02148208
     atom   35 type  2   force =     0.00043135   -0.00003668    0.00029598
     atom   36 type  2   force =    -0.00033682   -0.00022952   -0.00022085
     atom   37 type  1   force =     0.00045672   -0.00076859   -0.00040893
     atom   38 type  1   force =    -0.00058419    0.00095597    0.00010482
     atom   39 type  2   force =    -0.00030365   -0.00019653    0.00071878
     atom   40 type  2   force =     0.00009742    0.00020467    0.00000688
     atom   41 type  2   force =     0.00000837    0.00027105   -0.00008903
     atom   42 type  2   force =     0.00005608    0.00016507   -0.00004717
     atom   43 type  1   force =    -0.00002363    0.00058637   -0.00068127
     atom   44 type  1   force =     0.00031011    0.00101487   -0.00089420
     atom   45 type  2   force =     0.00006231    0.00002195    0.10324377
     atom   46 type  2   force =    -0.07150359   -0.00000466   -0.02767386
     atom   47 type  2   force =     0.07144656    0.00037308   -0.02773052
     atom   48 type  3   force =     0.00037360    0.00026357    0.00049833
     atom   49 type  4   force =     0.00023049    0.00001982    0.00000094
     atom   50 type  5   force =    -0.00122795    0.00116093    0.00015876
     atom   51 type  3   force =    -0.00001189   -0.00067374    0.00093671

     Total force =     0.367482     Total SCF correction =     0.000815
  @ DRIVER MODE: Message from server: STATUS
  @ DRIVER MODE: Message from server: GETFORCE
  @ DRIVER MODE: Returning v,forces,stress,ensemble

     Writing output data file ./calc.save/
  @ DRIVER MODE: Message from server: EXIT
  @ DRIVE MODE: Exiting

     General routines

     Parallel routines

   This run was terminated on:  13: 9:29  23Aug2021

   JOB DONE.