     Program PWSCF v.6.7GPU starts on 23Aug2021 at 17: 9:51

     R & G space division:  proc/nbgrp/npool/nimage =       6
     Reading input from /storage/home/hcoda1/3/ntian30/research/carbon/CH_vib/ads_slab/CH_a/out_0010/pw.inp
Warning: card &CELL ignored
Warning: card   CELL_DYNAMICS='IPI', ignored
Warning: card / ignored

     Current dimensions of program PWSCF are:
     Max number of different atomic species (ntypx) = 10
     Max number of k-points (npk) =  40000
     Max angular momentum in pseudopotentials (lmaxx) =  3
     Presently no symmetry can be used with electric field

     Message from routine cell_base_init:
     DEPRECATED: use true lattice parameter, not A to a.u. conversion factor

     IMPORTANT: XC functional enforced from input :
     Exchange-correlation= BEEF-VDW
                           (   1   4  43  14   2   0   0)
     Any further DFT definition will be discarded
     Please, verify this is what you really want

  @ DRIVER MODE: Connecting to
 qe_1139763_2632798.sched-torque.pace.gatech.eduewcen3zj_scratch
  using UNIX socket
  @ DRIVER MODE: Message from server: STATUS
  @ DRIVER MODE: Message from server: INIT
  @ DRIVER MODE: Receiving replica           0          -1
  @ DRIVER MODE: Receiving encoded integer          25
  @ DRIVER MODE:  SCF:  T  FORCE:  T  STRESS:  F  VC:  F  ENSEMBLE:  F
  @ DRIVER MODE:  SCF:  T  FORCE:  T  STRESS:  F  VC:  F  ENSEMBLE:  F

     Using Slab Decomposition

     bravais-lattice index     =            0
     lattice parameter (alat)  =       1.8897  a.u.
     unit-cell volume          =    6658.9804 (a.u.)^3
     number of atoms/cell      =           49
     number of atomic types    =            4
     number of electrons       =       383.00
     number of Kohn-Sham states=          201
     kinetic-energy cutoff     =      29.3995  Ry
     charge density cutoff     =     293.9946  Ry
     scf convergence threshold =      7.3E-08
     mixing beta               =       0.0500
     number of iterations used =            8  plain     mixing
     Exchange-correlation= BEEF-VDW
                           (   1   4  43  14   2   0   0)

     celldm(1)=   1.889726  celldm(2)=   0.000000  celldm(3)=   0.000000
     celldm(4)=   0.000000  celldm(5)=   0.000000  celldm(6)=   0.000000

     crystal axes: (cart. coord. in units of alat)
               a(1) = (   6.579727   0.000000   0.000000 )
               a(2) = (  -0.000775   5.961596   0.000000 )
               a(3) = (   0.000000   0.000000  25.155947 )

     reciprocal axes: (cart. coord. in units 2 pi/alat)
               b(1) = (  0.151982  0.000020  0.000000 )
               b(2) = (  0.000000  0.167740  0.000000 )
               b(3) = (  0.000000  0.000000  0.039752 )

     PseudoPot. # 1 for Ti read from file:
     /storage/coda1/p-amedford6/0/shared/rich_project_chbe-medford/medford-share/data/pseudos_module/espresso/nninc/pbe/van/Ti.UPF
     MD5 check sum: 8e4df49b7f0d34bbd5052bf3f5ea0213
     Pseudo is Ultrasoft, Zval = 12.0
     Generated by new atomic code, or converted to UPF format
     Using radial grid of  851 points,  6 beta functions with:
                l(1) =   0
                l(2) =   0
                l(3) =   1
                l(4) =   1
                l(5) =   2
                l(6) =   2
     Q(r) pseudized with  8 coefficients,  rinner =    1.000   1.000   1.000
                                                       1.000   1.000

     PseudoPot. # 2 for O  read from file:
     /storage/coda1/p-amedford6/0/shared/rich_project_chbe-medford/medford-share/data/pseudos_module/espresso/nninc/pbe/van/O.UPF
     MD5 check sum: 78c19812648e8988a0fe644b0f25305e
     Pseudo is Ultrasoft, Zval =  6.0
     Generated by new atomic code, or converted to UPF format
     Using radial grid of  737 points,  4 beta functions with:
                l(1) =   0
                l(2) =   0
                l(3) =   1
                l(4) =   1
     Q(r) pseudized with  8 coefficients,  rinner =    0.800   0.800   0.800

     PseudoPot. # 3 for C  read from file:
     /storage/coda1/p-amedford6/0/shared/rich_project_chbe-medford/medford-share/data/pseudos_module/espresso/nninc/pbe/van/C.UPF
     MD5 check sum: 1a69bf6b8db32088f5b2163dbdb77a27
     Pseudo is Ultrasoft, Zval =  4.0
     Generated by new atomic code, or converted to UPF format
     Using radial grid of  721 points,  4 beta functions with:
                l(1) =   0
                l(2) =   0
                l(3) =   1
                l(4) =   1
     Q(r) pseudized with  8 coefficients,  rinner =    0.800   0.800   0.800

     PseudoPot. # 4 for H  read from file:
     /storage/coda1/p-amedford6/0/shared/rich_project_chbe-medford/medford-share/data/pseudos_module/espresso/nninc/pbe/van/H.UPF
     MD5 check sum: b5ee9d7bfd3a09ee7748110bda690ff7
     Pseudo is Ultrasoft, Zval =  1.0
     Generated by new atomic code, or converted to UPF format
     Using radial grid of  615 points,  1 beta functions with:
                l(1) =   0
     Q(r) pseudized with  8 coefficients,  rinner =    0.800

     atomic species   valence    mass     pseudopotential
        Ti1           12.00    47.86700     Ti( 1.00)
        O1             6.00    15.99900     O ( 1.00)
        C1             4.00    12.01100     C ( 1.00)
        H1             1.00     1.00800     H ( 1.00)

     No symmetry found

   Cartesian axes

     site n.     atom                  positions (alat units)
         1           Ti1 tau(   1) = (   0.0004258   2.9801865   6.0000000  )
         2           Ti1 tau(   2) = (   3.2906075   1.4906267   6.0002472  )
         3           O1  tau(   3) = (   0.0006271   0.0005054   7.9858123  )
         4           O1  tau(   4) = (   3.2906025   0.0005020   7.3038282  )
         5           O1  tau(   5) = (   4.5942328   1.4918067   9.2879030  )
         6           O1  tau(   6) = (   1.9868534   1.4903216   9.2879459  )
         7           Ti1 tau(   7) = (   3.2921849   2.8658251   9.1648892  )
         8           Ti1 tau(   8) = (   0.0073351   1.4983988   9.3831490  )
         9           O1  tau(   9) = (   3.2842540   0.0070318  11.3521760  )
        10           O1  tau(  10) = (   0.0010487   0.0043113  10.5580200  )
        11           O1  tau(  11) = (   1.2736759   1.5124129  12.6486185  )
        12           O1  tau(  12) = (   5.2630300   1.5084811  12.6300625  )
        13           Ti1 tau(  13) = (   0.0799159   2.9885021  12.8537609  )
        14           Ti1 tau(  14) = (   3.3962166   1.4899997  12.4930974  )
        15           O1  tau(  15) = (   6.5670857   5.9608082  14.6055349  )
        16           O1  tau(  16) = (   3.2779887   0.0262294  13.9455360  )
        17           O1  tau(  17) = (   4.5047259   1.5524619  16.1062024  )
        18           O1  tau(  18) = (   2.0328015   1.5482461  16.0993997  )
        19           Ti1 tau(  19) = (   3.2588990   3.0258902  15.7259251  )
        20           Ti1 tau(  20) = (   6.5443225   1.5921241  16.1654916  )
        21           O1  tau(  21) = (   3.2904802   0.0005063   4.7018136  )
        22           O1  tau(  22) = (   6.5577444   0.0567680  17.2452940  )
        23           O1  tau(  23) = (   1.3043587   1.4918075   6.0039043  )
        24           O1  tau(  24) = (   5.2767064   1.4903225   6.0039473  )
        25           Ti1 tau(  25) = (   0.0000382   5.9609847   6.0000000  )
        26           Ti1 tau(  26) = (   3.2902200   4.4714249   6.0002472  )
        27           O1  tau(  27) = (   0.0002396   2.9813036   7.9858123  )
        28           O1  tau(  28) = (   3.2902150   2.9813002   7.3038282  )
        29           O1  tau(  29) = (   4.5938453   4.4726049   9.2879030  )
        30           O1  tau(  30) = (   1.9864658   4.4711199   9.2879459  )
        31           Ti1 tau(  31) = (   3.2960881   5.8478476   9.1648656  )
        32           Ti1 tau(  32) = (   0.0086818   4.4758218   9.3788328  )
        33           O1  tau(  33) = (   3.2854246   2.9850844  11.3450670  )
        34           O1  tau(  34) = (   0.0004502   2.9836692  10.5560002  )
        35           O1  tau(  35) = (   1.2751814   4.4662498  12.6462591  )
        36           O1  tau(  36) = (   5.2612828   4.4711168  12.6263095  )
        37           Ti1 tau(  37) = (   0.0650160   0.0072273  12.8037121  )
        38           Ti1 tau(  38) = (   3.3952379   4.4681493  12.4860303  )
        39           O1  tau(  39) = (   6.5700874   2.9943110  14.6990684  )
        40           O1  tau(  40) = (   3.2774739   3.0059374  13.9302241  )
        41           O1  tau(  41) = (   4.5038310   4.5165569  16.1051355  )
        42           O1  tau(  42) = (   2.0336826   4.5180826  16.0999700  )
        43           Ti1 tau(  43) = (   3.2582433   0.0441072  15.7465997  )
        44           Ti1 tau(  44) = (   6.5393581   4.6163053  16.1595090  )
        45           O1  tau(  45) = (   3.2900926   2.9813045   4.7018136  )
        46           O1  tau(  46) = (   1.3039711   4.4726057   6.0039043  )
        47           O1  tau(  47) = (   5.2763189   4.4711207   6.0039473  )
        48           C1  tau(  48) = (   6.5669965   3.0274956  17.5143990  )
        49           H1  tau(  49) = (   0.0036594   3.1984539  18.5931066  )

     number of k points=    10  Fermi-Dirac smearing, width (Ry)=  0.0073
                       cart. coord. in units 2pi/alat
        k(    1) = (   0.0000000   0.0000000   0.0000000), wk =   0.1250000
        k(    2) = (   0.0000000   0.0419351   0.0000000), wk =   0.2500000
        k(    3) = (   0.0000000  -0.0838702   0.0000000), wk =   0.1250000
        k(    4) = (   0.0379955   0.0000049   0.0000000), wk =   0.2500000
        k(    5) = (   0.0379955   0.0419400   0.0000000), wk =   0.2500000
        k(    6) = (   0.0379955  -0.0838652   0.0000000), wk =   0.2500000
        k(    7) = (   0.0379955  -0.0419301   0.0000000), wk =   0.2500000
        k(    8) = (  -0.0759910  -0.0000099   0.0000000), wk =   0.1250000
        k(    9) = (  -0.0759910   0.0419252   0.0000000), wk =   0.2500000
        k(   10) = (  -0.0759910  -0.0838800   0.0000000), wk =   0.1250000

     Initial potential from superposition of free atoms

     starting charge  366.99920, renormalised to  383.00000

     negative rho (up, down):  2.156E-02 0.000E+00

     %%%%%%%%%%%%%%%%%%%%%%%%%%%%%%%%%%%%%%%%%%%%%%%%%%%%%%%%%%%%%%%%%%%%%%%%
     %                                                                      %
     % You are using vdW-DF, which was implemented by the Thonhauser group. %
     % Please cite the following two papers that made this development      %
     % possible and the two reviews that describe the various versions:     %
     %                                                                      %
     %   T. Thonhauser et al., PRL 115, 136402 (2015).                      %
     %   T. Thonhauser et al., PRB 76, 125112 (2007).                       %
     %   K. Berland et al., Rep. Prog. Phys. 78, 066501 (2015).             %
     %   D.C. Langreth et al., J. Phys.: Condens. Matter 21, 084203 (2009). %
     %                                                                      %
     %                                                                      %
     % If you are calculating the stress with vdW-DF, please also cite:     %
     %                                                                      %
     %   R. Sabatini et al., J. Phys.: Condens. Matter 24, 424209 (2012).   %
     %                                                                      %
     %%%%%%%%%%%%%%%%%%%%%%%%%%%%%%%%%%%%%%%%%%%%%%%%%%%%%%%%%%%%%%%%%%%%%%%%

     Adding external electric field

     Computed dipole along edir(3) :
        Dipole                0.0501 Ry au,          0.1273 Debye
        Dipole field          0.0001 Ry au,

        Potential amp.       -0.0088 Ry
        Total length         46.3494 bohr

     Starting wfcs are  289 atomic wfcs
  @ DRIVER MODE: Message from server: STATUS
  @ DRIVER MODE: Message from server: POSDATA
  @ DRIVER MODE: Reading and sharing cell
  @ DRIVER MODE: Reading and sharing positions
  @ DRIVER MODE: Received positions

     Self-consistent Calculation

     iteration #  1     ecut=    29.40 Ry     beta= 0.05
     Davidson diagonalization with overlap
     c_bands:  1 eigenvalues not converged
     c_bands:  1 eigenvalues not converged
     c_bands:  1 eigenvalues not converged
     c_bands:  1 eigenvalues not converged
     c_bands:  1 eigenvalues not converged
     c_bands:  1 eigenvalues not converged
     ethr =  1.00E-05,  avg # of iterations = 19.5

[...]

     total energy              =   -2897.80943997 Ry
     estimated scf accuracy    <      11.75190439 Ry

     iteration #  2     ecut=    29.40 Ry     beta= 0.05
     Davidson diagonalization with overlap
     ethr =  3.07E-03,  avg # of iterations =  1.0

[...]

     iteration # 50     ecut=    29.40 Ry     beta= 0.05
     Davidson diagonalization with overlap
     c_bands:  2 eigenvalues not converged
     c_bands:  1 eigenvalues not converged
     ethr =  3.60E-07,  avg # of iterations =  8.9

[...]

     total energy              =   -2896.37513118 Ry
     estimated scf accuracy    <       0.00000017 Ry

     iteration # 74     ecut=    29.40 Ry     beta= 0.05
     Davidson diagonalization with overlap
     ethr =  4.32E-11,  avg # of iterations =  5.3

     negative rho (up, down):  2.069E-02 0.000E+00

     Adding external electric field

     Computed dipole along edir(3) :
        Dipole                0.3684 Ry au,          0.9364 Debye
        Dipole field          0.0007 Ry au,

        Potential amp.       -0.0644 Ry
        Total length         46.3494 bohr

     End of self-consistent calculation

          k = 0.0000 0.0000 0.0000 ( 18029 PWs)   bands (ev):

   -56.6409 -56.6070 -56.3431 -56.3063 -56.2273 -56.1662 -56.0428 -56.0405
   -56.0062 -55.9453 -55.9360 -55.9090 -55.4382 -55.4043 -55.3523 -55.2691
   -33.0692 -32.8873 -32.8864 -32.8589 -32.8329 -32.7417 -32.6960 -32.6801
   -32.6498 -32.5576 -32.5451 -32.5380 -32.5235 -32.5199 -32.5129 -32.4962
   -32.4732 -32.4553 -32.4449 -32.3493 -32.3122 -32.2892 -32.2866 -32.2763
   -32.2624 -32.2597 -32.1977 -32.1939 -32.1681 -32.1620 -32.1549 -32.1305
   -32.1224 -32.1128 -32.0991 -32.0415 -31.8953 -31.8386 -31.7635 -31.7397
   -31.6571 -31.6245 -31.5868 -31.5721 -31.5618 -31.4845 -31.4600 -31.3423
   -16.9976 -16.8095 -16.5772 -16.4421 -16.3521 -16.2791 -16.0124 -16.0103
   -15.9640 -15.8918 -15.8639 -15.8009 -15.7980 -15.7715 -15.7610 -15.7510
   -15.7323 -15.6845 -15.6684 -15.6405 -15.6073 -15.5663 -15.4439 -15.4245
   -15.4081 -15.2942 -15.2444 -15.2062 -15.0220 -13.9310 -13.8169  -7.7726
    -4.4002  -4.3416  -4.1873  -4.1625  -4.0710  -3.8268  -3.6995  -3.4773
    -3.4360  -3.4053  -3.3903  -3.3243  -3.2652  -3.1579  -3.1417  -3.1192
    -3.0799  -3.0714  -3.0495  -3.0354  -3.0107  -2.9701  -2.8874  -2.8486
    -2.8296  -2.7499  -2.7228  -2.6454  -2.6192  -2.5747  -2.5494  -2.4903
    -2.4839  -2.4200  -2.3487  -2.2912  -2.1395  -2.0991  -2.0908  -2.0833
    -2.0133  -1.9042  -1.7626  -1.7282  -1.6621  -1.6602  -1.6427  -1.6056
    -1.5137  -1.4952  -1.4107  -1.3045  -1.2950  -1.2438  -1.1911  -1.1503
    -1.1335  -1.1329  -1.0759  -1.0452  -1.0071  -0.8781  -0.8526  -0.7339
    -0.7165  -0.6813  -0.6444  -0.6393  -0.5889  -0.5307  -0.4774  -0.4468
    -0.4252  -0.3784  -0.3678  -0.3328  -0.3101  -0.2554  -0.1405  -0.1167
    -0.1064  -0.0412   0.1436   0.1691   0.2123   0.3010   0.3495   0.5114
     0.5319   0.5906   0.7987   0.8354   1.1811   1.2611   1.5396   2.2804
     2.6269   2.8218   3.0826   3.1189   3.1360   3.1676   3.3424   3.3769
     3.3953

[...]

          k = 0.0380-0.0419 0.0000 ( 17876 PWs)   bands (ev):

[...]

          k =-0.0760-0.0000 0.0000 ( 17886 PWs)   bands (ev):

[...]

          k =-0.0760-0.0839 0.0000 ( 17948 PWs)   bands (ev):

   -56.6260 -56.6218 -56.3290 -56.3202 -56.2219 -56.1715 -56.0399 -56.0257
   -56.0207 -55.9389 -55.9316 -55.9226 -55.4212 -55.4212 -55.3485 -55.2728
   -32.8883 -32.8849 -32.8754 -32.8701 -32.7874 -32.7838 -32.6941 -32.6873
   -32.6052 -32.5944 -32.5372 -32.5271 -32.5251 -32.5171 -32.4914 -32.4642
   -32.4278 -32.3734 -32.3604 -32.3533 -32.3495 -32.2847 -32.2761 -32.2703
   -32.2675 -32.2591 -32.2518 -32.2433 -32.2318 -32.2263 -32.1838 -32.1752
   -32.1429 -32.1417 -32.1346 -32.1335 -31.7928 -31.7526 -31.7526 -31.6528
   -31.6527 -31.6350 -31.6227 -31.6147 -31.6147 -31.5652 -31.5045 -31.3828
   -16.4533 -16.4346 -16.2209 -16.2116 -16.1130 -16.1126 -16.1117 -16.1093
   -16.0089 -16.0062 -15.9341 -15.9198 -15.8639 -15.8561 -15.8210 -15.8191
   -15.7978 -15.7945 -15.7526 -15.7459 -15.6176 -15.6154 -15.5093 -15.5054
   -15.4665 -15.4262 -15.3863 -15.3759 -15.1583 -13.9194 -13.9189  -7.7749
    -3.7513  -3.7205  -3.4362  -3.4324  -3.2497  -3.2475  -3.2458  -3.2266
    -3.1827  -3.1527  -3.1430  -3.1174  -3.0858  -3.0436  -3.0328  -3.0131
    -3.0085  -3.0028  -2.9898  -2.9886  -2.9655  -2.9564  -2.9042  -2.8829
    -2.8725  -2.8629  -2.8137  -2.8122  -2.7086  -2.5862  -2.5383  -2.5342
    -2.4847  -2.4508  -2.3672  -2.3646  -2.3357  -2.3195  -2.2728  -2.1695
    -2.0380  -2.0354  -1.9887  -1.9596  -1.8928  -1.8182  -1.7163  -1.6500
    -1.6189  -1.5893  -1.5231  -1.4651  -1.4575  -1.4384  -1.4277  -1.4198
    -1.4057  -1.3096  -1.2973  -1.2258  -1.1887  -1.1786  -1.1683  -1.1363
    -1.1100  -1.0468  -0.9511  -0.9484  -0.9360  -0.9086  -0.8027  -0.7596
    -0.7025  -0.6515  -0.6054  -0.3581  -0.3557  -0.2014  -0.0925  -0.0300
     0.0346   0.0587   0.1014   0.1668   0.2286   0.2336   0.2607   0.2632
     0.3590   0.3615   0.9767   0.9772   1.0357   1.0369   1.7711   2.2232
     3.1074   3.1504   3.1678   3.1730   3.1982   3.2261   3.2443   3.2547
     3.5812

     the Fermi energy is     2.1455 ev

!    total energy              =   -2896.37514032 Ry
     estimated scf accuracy    <       0.00000007 Ry
     smearing contrib. (-TS)   =      -0.01052746 Ry
     internal energy E=F+TS    =   -2896.36461285 Ry

     The total energy is F=E-TS. E is the sum of the following terms:
     one-electron contribution =  -24783.60720802 Ry
     hartree contribution      =   12469.83073479 Ry
     xc contribution           =    -472.98021149 Ry
     ewald contribution        =    9890.39181575 Ry
     electric field correction =       0.00025611 Ry

     convergence has been achieved in  74 iterations

     Forces acting on atoms (cartesian axes, Ry/au):

     atom    1 type  1   force =     0.00018698   -0.00055776    0.14916993
     atom    2 type  1   force =    -0.00002551   -0.00030663   -0.17027934
     atom    3 type  2   force =     0.00005983    0.00011947   -0.06124891
     atom    4 type  2   force =     0.00010991   -0.00167371    0.04073482
     atom    5 type  2   force =    -0.02326575    0.00031008    0.00410648
     atom    6 type  2   force =     0.02298659    0.00151852    0.00331251
     atom    7 type  1   force =    -0.00054905    0.00073737    0.00019459
     atom    8 type  1   force =     0.00020487    0.00084924   -0.00019789
     atom    9 type  2   force =    -0.00005913    0.00009650   -0.00049190
     atom   10 type  2   force =    -0.00002951   -0.00051023    0.00031807
     atom   11 type  2   force =    -0.00024647    0.00045460    0.00028712
     atom   12 type  2   force =     0.00033898    0.00011063    0.00023422
     atom   13 type  1   force =     0.00033210    0.00064608   -0.00093566
     atom   14 type  1   force =    -0.00045497    0.00096953   -0.00028490
     atom   15 type  2   force =     0.00012738    0.00000434   -0.00011560
     atom   16 type  2   force =     0.00013580   -0.00026375   -0.00006113
     atom   17 type  2   force =     0.00073916    0.00016078    0.00007914
     atom   18 type  2   force =    -0.00065807    0.00025777    0.00005699
     atom   19 type  1   force =     0.00000614   -0.00108473    0.00061640
     atom   20 type  1   force =     0.00007755   -0.00018831    0.00114278
     atom   21 type  2   force =     0.00008073   -0.00018348    0.10246928
     atom   22 type  2   force =    -0.00005323    0.00025518   -0.00032199
     atom   23 type  2   force =    -0.07445208    0.00019748   -0.03478556
     atom   24 type  2   force =     0.07441037    0.00062690   -0.03483537
     atom   25 type  1   force =    -0.00004252   -0.00051000    0.15021319
     atom   26 type  1   force =    -0.00002119   -0.00071083   -0.17022633
     atom   27 type  2   force =     0.00007290    0.00063707   -0.06046119
     atom   28 type  2   force =     0.00002981   -0.00161746    0.04017677
     atom   29 type  2   force =    -0.02284294    0.00144460    0.00428126
     atom   30 type  2   force =     0.02311435    0.00224022    0.00347978
     atom   31 type  1   force =    -0.00054385    0.00012376   -0.00077987
     atom   32 type  1   force =     0.00023139   -0.00111505    0.00052054
     atom   33 type  2   force =     0.00025890   -0.00008015    0.00119936
     atom   34 type  2   force =    -0.00004236    0.00058998   -0.00025830
     atom   35 type  2   force =    -0.00098580   -0.00040834    0.00004036
     atom   36 type  2   force =     0.00100720   -0.00021866    0.00010864
     atom   37 type  1   force =    -0.00003385   -0.00007515   -0.00028309
     atom   38 type  1   force =    -0.00070266   -0.00076653    0.00033357
     atom   39 type  2   force =    -0.00004115   -0.00017692   -0.00023604
     atom   40 type  2   force =     0.00009687   -0.00015796   -0.00077431
     atom   41 type  2   force =     0.00072488   -0.00036999    0.00049449
     atom   42 type  2   force =    -0.00072971   -0.00045799    0.00052303
     atom   43 type  1   force =    -0.00001594    0.00084342   -0.00087407
     atom   44 type  1   force =     0.00016767   -0.00015777    0.00036063
     atom   45 type  2   force =     0.00007237   -0.00018356    0.10246870
     atom   46 type  2   force =    -0.07444112   -0.00013862   -0.03479200
     atom   47 type  2   force =     0.07439565    0.00030545   -0.03484470
     atom   48 type  3   force =     0.00003478   -0.00064719    0.00279048
     atom   49 type  4   force =     0.00023369   -0.00093819   -0.00262496

     Total force =     0.404613     Total SCF correction =     0.000742
  @ DRIVER MODE: Message from server: STATUS
  @ DRIVER MODE: Message from server: GETFORCE
  @ DRIVER MODE: Returning v,forces,stress,ensemble

     Writing output data file ./calc.save/
  @ DRIVER MODE: Message from server: EXIT
  @ DRIVE MODE: Exiting

     General routines

     Parallel routines

   This run was terminated on:  17:38:18  23Aug2021

   JOB DONE.