     Program PWSCF v.6.7GPU starts on  8Sep2021 at 22:59:34

     R & G space division:  proc/nbgrp/npool/nimage =      10
     Reading input from /storage/home/hcoda1/3/ntian30/research/carbon/CxH_vib/CH_calc/ads_slab/CHO_a/out_0004/pw.inp
Warning: card &CELL ignored
Warning: card   CELL_DYNAMICS='IPI', ignored
Warning: card / ignored

     Current dimensions of program PWSCF are:
     Max number of different atomic species (ntypx) = 10
     Max number of k-points (npk) =  40000
     Max angular momentum in pseudopotentials (lmaxx) =  3
     Presently no symmetry can be used with electric field

     Message from routine cell_base_init:
     DEPRECATED: use true lattice parameter, not A to a.u. conversion factor

     IMPORTANT: XC functional enforced from input :
     Exchange-correlation= BEEF-VDW
                           (   1   4  43  14   2   0   0)
     Any further DFT definition will be discarded
     Please, verify this is what you really want

  @ DRIVER MODE: Connecting to
 qe_1139763_2767379.sched-torque.pace.gatech.edu3u114d0u_scratch
  using UNIX socket
  @ DRIVER MODE: Message from server: STATUS
  @ DRIVER MODE: Message from server: INIT
  @ DRIVER MODE: Receiving replica           0          -1
  @ DRIVER MODE: Receiving encoded integer          25
  @ DRIVER MODE:  SCF:  T  FORCE:  T  STRESS:  F  VC:  F  ENSEMBLE:  F
  @ DRIVER MODE:  SCF:  T  FORCE:  T  STRESS:  F  VC:  F  ENSEMBLE:  F

     Using Slab Decomposition

     bravais-lattice index     =            0
     lattice parameter (alat)  =       1.8897  a.u.
     unit-cell volume          =    6658.9804 (a.u.)^3
     number of atoms/cell      =           50
     number of atomic types    =            4
     number of electrons       =       389.00
     number of Kohn-Sham states=          204
     kinetic-energy cutoff     =      29.3995  Ry
     charge density cutoff     =     293.9946  Ry
     scf convergence threshold =      7.3E-08
     mixing beta               =       0.0500
     number of iterations used =            8  plain     mixing
     Exchange-correlation= BEEF-VDW
                           (   1   4  43  14   2   0   0)

     celldm(1)=   1.889726  celldm(2)=   0.000000  celldm(3)=   0.000000
     celldm(4)=   0.000000  celldm(5)=   0.000000  celldm(6)=   0.000000

     crystal axes: (cart. coord. in units of alat)
               a(1) = (   6.579727   0.000000   0.000000 )
               a(2) = (  -0.000775   5.961596   0.000000 )
               a(3) = (   0.000000   0.000000  25.155947 )

     reciprocal axes: (cart. coord. in units 2 pi/alat)
               b(1) = (  0.151982  0.000020  0.000000 )
               b(2) = (  0.000000  0.167740  0.000000 )
               b(3) = (  0.000000  0.000000  0.039752 )

     PseudoPot. # 1 for O  read from file:
     /storage/coda1/p-amedford6/0/shared/rich_project_chbe-medford/medford-share/data/pseudos_module/espresso/nninc/pbe/van/O.UPF
     MD5 check sum: 78c19812648e8988a0fe644b0f25305e
     Pseudo is Ultrasoft, Zval =  6.0
     Generated by new atomic code, or converted to UPF format
     Using radial grid of  737 points,  4 beta functions with:
                l(1) =   0
                l(2) =   0
                l(3) =   1
                l(4) =   1
     Q(r) pseudized with  8 coefficients,  rinner =    0.800   0.800   0.800

     PseudoPot. # 2 for Ti read from file:
     /storage/coda1/p-amedford6/0/shared/rich_project_chbe-medford/medford-share/data/pseudos_module/espresso/nninc/pbe/van/Ti.UPF
     MD5 check sum: 8e4df49b7f0d34bbd5052bf3f5ea0213
     Pseudo is Ultrasoft, Zval = 12.0
     Generated by new atomic code, or converted to UPF format
     Using radial grid of  851 points,  6 beta functions with:
                l(1) =   0
                l(2) =   0
                l(3) =   1
                l(4) =   1
                l(5) =   2
                l(6) =   2
     Q(r) pseudized with  8 coefficients,  rinner =    1.000   1.000   1.000
                                                       1.000   1.000

     PseudoPot. # 3 for C  read from file:
     /storage/coda1/p-amedford6/0/shared/rich_project_chbe-medford/medford-share/data/pseudos_module/espresso/nninc/pbe/van/C.UPF
     MD5 check sum: 1a69bf6b8db32088f5b2163dbdb77a27
     Pseudo is Ultrasoft, Zval =  4.0
     Generated by new atomic code, or converted to UPF format
     Using radial grid of  721 points,  4 beta functions with:
                l(1) =   0
                l(2) =   0
                l(3) =   1
                l(4) =   1
     Q(r) pseudized with  8 coefficients,  rinner =    0.800   0.800   0.800

     PseudoPot. # 4 for H  read from file:
     /storage/coda1/p-amedford6/0/shared/rich_project_chbe-medford/medford-share/data/pseudos_module/espresso/nninc/pbe/van/H.UPF
     MD5 check sum: b5ee9d7bfd3a09ee7748110bda690ff7
     Pseudo is Ultrasoft, Zval =  1.0
     Generated by new atomic code, or converted to UPF format
     Using radial grid of  615 points,  1 beta functions with:
                l(1) =   0
     Q(r) pseudized with  8 coefficients,  rinner =    0.800

     atomic species   valence    mass     pseudopotential
        O1             6.00    15.99900     O ( 1.00)
        Ti1           12.00    47.86700     Ti( 1.00)
        C1             4.00    12.01100     C ( 1.00)
        H1             1.00     1.00800     H ( 1.00)

     No symmetry found

   Cartesian axes

     site n.     atom                  positions (alat units)
         1           O1  tau(   1) = (   3.2904802   0.0005063   4.7018136  )
         2           O1  tau(   2) = (   3.2900926   2.9813045   4.7018136  )
         3           Ti1 tau(   3) = (   0.0004258   2.9801865   6.0000000  )
         4           Ti1 tau(   4) = (   0.0000382   5.9609847   6.0000000  )
         5           Ti1 tau(   5) = (   3.2906075   1.4906267   6.0002472  )
         6           Ti1 tau(   6) = (   3.2902200   4.4714249   6.0002472  )
         7           O1  tau(   7) = (   1.3043587   1.4918075   6.0039043  )
         8           O1  tau(   8) = (   1.3039711   4.4726057   6.0039043  )
         9           O1  tau(   9) = (   5.2767064   1.4903225   6.0039473  )
        10           O1  tau(  10) = (   5.2763189   4.4711207   6.0039473  )
        11           O1  tau(  11) = (   3.2906025   0.0005020   7.3038282  )
        12           O1  tau(  12) = (   3.2902150   2.9813002   7.3038282  )
        13           O1  tau(  13) = (   0.0006271   0.0005054   7.9858123  )
        14           O1  tau(  14) = (   0.0002396   2.9813036   7.9858123  )
        15           Ti1 tau(  15) = (   3.2969808   0.0564913   9.1534998  )
        16           Ti1 tau(  16) = (   3.3141337   3.0327768   9.1571505  )
        17           Ti1 tau(  17) = (   0.0233175   4.5369896   9.2585411  )
        18           Ti1 tau(  18) = (   0.0198836   1.6172415   9.3624336  )
        19           O1  tau(  19) = (   4.5942328   1.4918067   9.2879030  )
        20           O1  tau(  20) = (   4.5938453   4.4726049   9.2879030  )
        21           O1  tau(  21) = (   1.9868534   1.4903216   9.2879459  )
        22           O1  tau(  22) = (   1.9864658   4.4711199   9.2879459  )
        23           O1  tau(  23) = (   0.0063158   0.0123177  10.6034754  )
        24           O1  tau(  24) = (   0.0044132   2.9941235  10.5786081  )
        25           O1  tau(  25) = (   3.2970120   2.9984392  11.3520126  )
        26           O1  tau(  26) = (   3.2962737   0.0176366  11.3543537  )
        27           Ti1 tau(  27) = (   0.0302790   0.0280999  12.4961607  )
        28           Ti1 tau(  28) = (   3.3312859   4.4933669  12.4927350  )
        29           Ti1 tau(  29) = (   3.3314798   1.5140231  12.4973429  )
        30           Ti1 tau(  30) = (   0.0296678   3.0111287  12.7911082  )
        31           O1  tau(  31) = (   1.2935131   4.4896988  12.6418387  )
        32           O1  tau(  32) = (   1.2923886   1.5080263  12.6414434  )
        33           O1  tau(  33) = (   5.2919490   4.4892252  12.6414299  )
        34           O1  tau(  34) = (   5.2935099   1.5067266  12.6404615  )
        35           O1  tau(  35) = (   3.2972132   2.9952276  13.9333167  )
        36           O1  tau(  36) = (   3.2969292   0.0217920  13.9560627  )
        37           O1  tau(  37) = (   0.0109375   0.0110981  14.6876342  )
        38           O1  tau(  38) = (   0.0109565   3.0062585  14.7134293  )
        39           Ti1 tau(  39) = (   3.3068652   2.9980133  15.7272348  )
        40           Ti1 tau(  40) = (   3.3088638   0.0192678  15.7517854  )
        41           Ti1 tau(  41) = (   0.0288418   4.5446802  15.9499200  )
        42           Ti1 tau(  42) = (   0.0223207   1.3431340  16.0223868  )
        43           O1  tau(  43) = (   4.5495857   4.4747881  16.0802101  )
        44           O1  tau(  44) = (   4.5538725   1.5135375  16.1032510  )
        45           O1  tau(  45) = (   2.0418931   1.5171625  16.1093315  )
        46           O1  tau(  46) = (   2.0408760   4.4691196  16.0910022  )
        47           O1  tau(  47) = (   0.0096378   0.0051088  17.2033978  )
        48           O1  tau(  48) = (   6.5496506   3.0576207  17.4767105  )
        49           C1  tau(  49) = (   6.4067813   3.0303407  18.7370298  )
        50           H1  tau(  50) = (   6.4030715   1.9712591  19.1029599  )

     number of k points=    10  Fermi-Dirac smearing, width (Ry)=  0.0073
                       cart. coord. in units 2pi/alat
        k(    1) = (   0.0000000   0.0000000   0.0000000), wk =   0.1250000
        k(    2) = (   0.0000000   0.0419351   0.0000000), wk =   0.2500000
        k(    3) = (   0.0000000  -0.0838702   0.0000000), wk =   0.1250000
        k(    4) = (   0.0379955   0.0000049   0.0000000), wk =   0.2500000
        k(    5) = (   0.0379955   0.0419400   0.0000000), wk =   0.2500000
        k(    6) = (   0.0379955  -0.0838652   0.0000000), wk =   0.2500000
        k(    7) = (   0.0379955  -0.0419301   0.0000000), wk =   0.2500000
        k(    8) = (  -0.0759910  -0.0000099   0.0000000), wk =   0.1250000
        k(    9) = (  -0.0759910   0.0419252   0.0000000), wk =   0.2500000
        k(   10) = (  -0.0759910  -0.0838800   0.0000000), wk =   0.1250000

     Initial potential from superposition of free atoms

     starting charge  372.99920, renormalised to  389.00000

     negative rho (up, down):  1.925E-02 0.000E+00

     %%%%%%%%%%%%%%%%%%%%%%%%%%%%%%%%%%%%%%%%%%%%%%%%%%%%%%%%%%%%%%%%%%%%%%%%
     %                                                                      %
     % You are using vdW-DF, which was implemented by the Thonhauser group. %
     % Please cite the following two papers that made this development      %
     % possible and the two reviews that describe the various versions:     %
     %                                                                      %
     %   T. Thonhauser et al., PRL 115, 136402 (2015).                      %
     %   T. Thonhauser et al., PRB 76, 125112 (2007).                       %
     %   K. Berland et al., Rep. Prog. Phys. 78, 066501 (2015).             %
     %   D.C. Langreth et al., J. Phys.: Condens. Matter 21, 084203 (2009). %
     %                                                                      %
     %                                                                      %
     % If you are calculating the stress with vdW-DF, please also cite:     %
     %                                                                      %
     %   R. Sabatini et al., J. Phys.: Condens. Matter 24, 424209 (2012).   %
     %                                                                      %
     %%%%%%%%%%%%%%%%%%%%%%%%%%%%%%%%%%%%%%%%%%%%%%%%%%%%%%%%%%%%%%%%%%%%%%%%

     Adding external electric field

     Computed dipole along edir(3) :
        Dipole               -4.4813 Ry au,        -11.3903 Debye
        Dipole field         -0.0085 Ry au,

        Potential amp.        0.7839 Ry
        Total length         46.3494 bohr

     Starting wfcs are  293 atomic wfcs
  @ DRIVER MODE: Message from server: STATUS
  @ DRIVER MODE: Message from server: POSDATA
  @ DRIVER MODE: Reading and sharing cell
  @ DRIVER MODE: Reading and sharing positions
  @ DRIVER MODE: Received positions

     Self-consistent Calculation

     iteration #  1     ecut=    29.40 Ry     beta= 0.05
     Davidson diagonalization with overlap
     c_bands:  5 eigenvalues not converged
     c_bands:  5 eigenvalues not converged
     c_bands:  5 eigenvalues not converged
     c_bands:  3 eigenvalues not converged
     c_bands:  2 eigenvalues not converged
     c_bands:  1 eigenvalues not converged
     c_bands:  3 eigenvalues not converged
     c_bands:  3 eigenvalues not converged
     c_bands:  3 eigenvalues not converged
     c_bands:  1 eigenvalues not converged
     ethr =  1.00E-05,  avg # of iterations = 20.0

[...]

     total energy              =   -2877.59731040 Ry
     estimated scf accuracy    <     588.43716141 Ry

     iteration #  2     ecut=    29.40 Ry     beta= 0.05
     Davidson diagonalization with overlap
     ethr =  1.00E-02,  avg # of iterations = 14.3

[...]

     iteration # 94     ecut=    29.40 Ry     beta= 0.05
     Davidson diagonalization with overlap
     c_bands:  1 eigenvalues not converged
     ethr =  1.12E-10,  avg # of iterations = 11.3

[...]

     total energy              =   -2928.82044106 Ry
     estimated scf accuracy    <       0.00000008 Ry

     iteration # 99     ecut=    29.40 Ry     beta= 0.05
     Davidson diagonalization with overlap
     ethr =  1.98E-11,  avg # of iterations = 11.1

     negative rho (up, down):  1.792E-02 0.000E+00

     Adding external electric field

     Computed dipole along edir(3) :
        Dipole                0.1888 Ry au,          0.4799 Debye
        Dipole field          0.0004 Ry au,

        Potential amp.       -0.0330 Ry
        Total length         46.3494 bohr

     End of self-consistent calculation

          k = 0.0000 0.0000 0.0000 ( 18029 PWs)   bands (ev):

   -56.3007 -56.2883 -56.2640 -56.2520 -56.1998 -56.1872 -56.1545 -56.1345
   -56.1136 -56.0859 -56.0721 -56.0385 -55.9895 -55.9691 -55.3274 -55.2933
   -32.8549 -32.7727 -32.6729 -32.6622 -32.6422 -32.6103 -32.5967 -32.5783
   -32.5510 -32.5343 -32.5335 -32.5060 -32.5035 -32.4696 -32.4596 -32.4487
   -32.4342 -32.4229 -32.4210 -32.3945 -32.3728 -32.3663 -32.3641 -32.3545
   -32.3359 -32.3305 -32.3264 -32.3226 -32.3073 -32.3022 -32.2974 -32.2933
   -32.2559 -32.2453 -32.2215 -32.2160 -32.2059 -32.1929 -32.1770 -32.1588
   -32.1568 -32.1541 -31.7376 -31.6396 -31.6174 -31.5542 -31.4681 -31.3570
   -19.8993 -17.0599 -16.7748 -16.6228 -16.4925 -16.4452 -16.3132 -16.1712
   -16.0812 -16.0033 -15.9542 -15.9151 -15.8851 -15.8748 -15.8545 -15.8359
   -15.8336 -15.8228 -15.7526 -15.7487 -15.7154 -15.6990 -15.6959 -15.5991
   -15.5373 -15.4751 -15.4305 -15.3558 -15.3201 -15.2466 -13.8283 -13.7099
    -8.2777  -5.0701  -4.4084  -4.2389  -4.2077  -4.2016  -4.1283  -3.9097
    -3.8569  -3.6506  -3.6057  -3.4866  -3.4621  -3.4507  -3.4134  -3.3572
    -3.2707  -3.1419  -3.1387  -3.1287  -3.1208  -3.1084  -3.0730  -3.0507
    -3.0434  -3.0065  -2.9353  -2.8259  -2.8241  -2.7237  -2.6965  -2.6772
    -2.6206  -2.6107  -2.5783  -2.5588  -2.5473  -2.5257  -2.4816  -2.4591
    -2.3789  -2.2775  -2.1566  -2.1012  -2.0190  -1.9817  -1.8526  -1.7948
    -1.7388  -1.7138  -1.6660  -1.6367  -1.5972  -1.5666  -1.5337  -1.4593
    -1.3405  -1.3380  -1.2401  -1.1647  -1.1318  -1.1055  -1.0518  -1.0374
    -1.0292  -0.9244  -0.7938  -0.7850  -0.7762  -0.6868  -0.6433  -0.6255
    -0.5425  -0.5367  -0.5006  -0.4780  -0.4516  -0.3733  -0.3643  -0.3169
    -0.3006  -0.2734  -0.1594  -0.1095  -0.0969  -0.0567  -0.0143   0.1740
     0.1859   0.3273   0.4053   0.5980   0.6969   0.7521   0.8659   1.2850
     1.3432   2.6221   2.8740   2.9009   2.9315   2.9708   3.0126   3.1244
     3.2328   3.3128   3.3293   3.3615

[...]

          k = 0.0380-0.0419 0.0000 ( 17876 PWs)   bands (ev):

[...]

          k =-0.0760-0.0000 0.0000 ( 17886 PWs)   bands (ev):

[...]

          k =-0.0760-0.0839 0.0000 ( 17948 PWs)   bands (ev):

   -56.2892 -56.2754 -56.2711 -56.2690 -56.1948 -56.1731 -56.1686 -56.1392
   -56.1113 -56.0827 -56.0577 -56.0533 -55.9918 -55.9716 -55.3109 -55.3097
   -32.6589 -32.6553 -32.5965 -32.5895 -32.5831 -32.5812 -32.5791 -32.5607
   -32.5546 -32.5065 -32.5053 -32.4970 -32.4915 -32.4646 -32.4362 -32.4322
   -32.4191 -32.4172 -32.4137 -32.4050 -32.4046 -32.3932 -32.3808 -32.3792
   -32.3766 -32.3734 -32.3676 -32.3419 -32.3375 -32.3194 -32.3108 -32.3099
   -32.3091 -32.2857 -32.2662 -32.2629 -32.2623 -32.2521 -32.2115 -32.2081
   -32.1999 -32.1659 -31.6308 -31.6292 -31.5511 -31.5501 -31.5117 -31.5107
   -19.8916 -16.4878 -16.4572 -16.3507 -16.2307 -16.2180 -16.1868 -16.1440
   -16.0877 -16.0370 -16.0321 -15.9820 -15.9605 -15.9593 -15.9184 -15.8834
   -15.8348 -15.8268 -15.8208 -15.8159 -15.7656 -15.7609 -15.7208 -15.6929
   -15.6862 -15.6486 -15.6467 -15.5680 -15.4937 -15.4509 -13.8123 -13.8098
    -8.2775  -5.0216  -3.7791  -3.7381  -3.6483  -3.6053  -3.4484  -3.4386
    -3.3931  -3.3308  -3.2731  -3.2194  -3.1919  -3.1667  -3.1509  -3.1352
    -3.1253  -3.1138  -3.1032  -3.0501  -3.0438  -3.0078  -2.9883  -2.9553
    -2.9415  -2.9351  -2.9332  -2.8909  -2.8752  -2.8645  -2.8580  -2.8484
    -2.7524  -2.6689  -2.6257  -2.5597  -2.5074  -2.4533  -2.4360  -2.4178
    -2.3819  -2.3662  -2.3499  -2.2118  -2.1823  -2.0474  -2.0357  -2.0164
    -1.9961  -1.9096  -1.8729  -1.7636  -1.7490  -1.7434  -1.6539  -1.6211
    -1.5606  -1.5443  -1.4684  -1.4264  -1.4037  -1.3279  -1.2768  -1.2646
    -1.2135  -1.1944  -1.1080  -1.0672  -1.0619  -1.0441  -0.9885  -0.9594
    -0.8793  -0.8618  -0.8420  -0.7499  -0.6842  -0.6592  -0.4760  -0.3141
    -0.3055  -0.2674  -0.1772  -0.1245  -0.0796  -0.0285  -0.0265   0.0533
     0.1069   0.1994   0.2169   0.2229   0.2980   1.0554   1.0567   1.1480
     1.1590   2.5383   3.0502   3.0940   3.1197   3.1873   3.3158   3.3404
     3.3540   3.3631   3.3775   3.4869

     the Fermi energy is     2.8498 ev

!    total energy              =   -2928.82044226 Ry
     estimated scf accuracy    <       0.00000005 Ry
     smearing contrib. (-TS)   =      -0.02909565 Ry
     internal energy E=F+TS    =   -2928.79134662 Ry

     The total energy is F=E-TS. E is the sum of the following terms:
     one-electron contribution =  -24718.10733548 Ry
     hartree contribution      =   12439.01205260 Ry
     xc contribution           =    -480.34172795 Ry
     ewald contribution        =    9830.64559693 Ry
     electric field correction =       0.00006729 Ry

     convergence has been achieved in  99 iterations

     Forces acting on atoms (cartesian axes, Ry/au):

     atom    1 type  1   force =    -0.00009137    0.00005558    0.10424082
     atom    2 type  1   force =    -0.00008862    0.00006333    0.10433350
     atom    3 type  2   force =    -0.00023776   -0.00191176    0.10278223
     atom    4 type  2   force =    -0.00012997    0.00161006    0.11441893
     atom    5 type  2   force =    -0.00028606    0.00044879   -0.18038627
     atom    6 type  2   force =    -0.00019103   -0.00001956   -0.18075413
     atom    7 type  1   force =    -0.06891609    0.00069114   -0.02915648
     atom    8 type  1   force =    -0.06847024   -0.00126282   -0.02920621
     atom    9 type  1   force =     0.06855111    0.00119399   -0.02921733
     atom   10 type  1   force =     0.06818693   -0.00088412   -0.02929061
     atom   11 type  1   force =     0.00017850    0.00061498    0.04604075
     atom   12 type  1   force =     0.00045165    0.00080791    0.04738132
     atom   13 type  1   force =     0.00022539   -0.00581487   -0.03325120
     atom   14 type  1   force =     0.00032483    0.00434303   -0.02637711
     atom   15 type  2   force =     0.00025033   -0.00052956   -0.00006767
     atom   16 type  2   force =     0.00041946    0.00040924    0.00031255
     atom   17 type  2   force =    -0.00028046   -0.00075719   -0.00075693
     atom   18 type  2   force =    -0.00040792   -0.00092866   -0.00120488
     atom   19 type  1   force =    -0.01835409    0.00018989    0.00433294
     atom   20 type  1   force =    -0.01686592    0.00156601    0.00360395
     atom   21 type  1   force =     0.01894907   -0.00059914    0.00445908
     atom   22 type  1   force =     0.01760487    0.00155977    0.00358887
     atom   23 type  1   force =     0.00001934    0.00013507   -0.00078432
     atom   24 type  1   force =     0.00004694    0.00027170    0.00091223
     atom   25 type  1   force =     0.00000243   -0.00008647   -0.00001011
     atom   26 type  1   force =    -0.00006750   -0.00025000   -0.00054925
     atom   27 type  2   force =    -0.00005295    0.00039520    0.00142901
     atom   28 type  2   force =    -0.00007159   -0.00029206    0.00069425
     atom   29 type  2   force =     0.00005016    0.00017694    0.00041446
     atom   30 type  2   force =     0.00000608   -0.00032122    0.00145970
     atom   31 type  1   force =    -0.00002040   -0.00040151    0.00002440
     atom   32 type  1   force =     0.00002607    0.00014351    0.00012274
     atom   33 type  1   force =     0.00015446   -0.00036532   -0.00008454
     atom   34 type  1   force =     0.00004748    0.00009165    0.00002855
     atom   35 type  1   force =    -0.00018383   -0.00014295   -0.00020895
     atom   36 type  1   force =    -0.00018981   -0.00062484    0.00083308
     atom   37 type  1   force =     0.00020847    0.00009270    0.00096830
     atom   38 type  1   force =    -0.00021459    0.00012706   -0.00147555
     atom   39 type  2   force =    -0.00010059   -0.00006595    0.00009558
     atom   40 type  2   force =     0.00019430   -0.00058766   -0.00055080
     atom   41 type  2   force =    -0.00016140    0.00000894    0.00014646
     atom   42 type  2   force =    -0.00007820    0.00015780   -0.00068976
     atom   43 type  1   force =     0.00060302   -0.00011168    0.00014647
     atom   44 type  1   force =    -0.00023924    0.00015743   -0.00027407
     atom   45 type  1   force =    -0.00024069    0.00018657   -0.00009538
     atom   46 type  1   force =    -0.00105324    0.00008682    0.00021316
     atom   47 type  1   force =    -0.00009051    0.00062938    0.00046162
     atom   48 type  1   force =    -0.00068194   -0.00254561    0.00331425
     atom   49 type  3   force =     0.00112858    0.00210755   -0.00120744
     atom   50 type  4   force =     0.00013654    0.00018090   -0.00116024

     Total force =     0.374777     Total SCF correction =     0.000476
  @ DRIVER MODE: Message from server: STATUS
  @ DRIVER MODE: Message from server: GETFORCE
  @ DRIVER MODE: Returning v,forces,stress,ensemble

     Writing output data file ./calc.save/
  @ DRIVER MODE: Message from server: EXIT
  @ DRIVE MODE: Exiting

     General routines

     Parallel routines

   This run was terminated on:  23:24:26   8Sep2021

   JOB DONE.