     Program PWSCF v.6.7GPU starts on 18Oct2021 at 14:28: 8

     R & G space division:  proc/nbgrp/npool/nimage =       8
     Reading input from /storage/home/hcoda1/3/ntian30/research/carbon/CxH_vib/Thiel_calc/ads_slab/HH_perslab/out_0006/pw.inp
Warning: card &CELL ignored
Warning: card   CELL_DYNAMICS='IPI', ignored
Warning: card / ignored

     Current dimensions of program PWSCF are:
     Max number of different atomic species (ntypx) = 10
     Max number of k-points (npk) =  40000
     Max angular momentum in pseudopotentials (lmaxx) =  3
     Presently no symmetry can be used with electric field

     Message from routine cell_base_init:
     DEPRECATED: use true lattice parameter, not A to a.u. conversion factor

     IMPORTANT: XC functional enforced from input :
     Exchange-correlation= BEEF-VDW
                           (   1   4  43  14   2   0   0)
     Any further DFT definition will be discarded
     Please, verify this is what you really want

  @ DRIVER MODE: Connecting to
 qe_1139763_3255127.sched-torque.pace.gatech.eduubqcsgo2_scratch
  using UNIX socket
  @ DRIVER MODE: Message from server: STATUS
  @ DRIVER MODE: Message from server: INIT
  @ DRIVER MODE: Receiving replica           0          -1
  @ DRIVER MODE: Receiving encoded integer          25
  @ DRIVER MODE:  SCF:  T  FORCE:  T  STRESS:  F  VC:  F  ENSEMBLE:  F
  @ DRIVER MODE:  SCF:  T  FORCE:  T  STRESS:  F  VC:  F  ENSEMBLE:  F

     Using Slab Decomposition

     bravais-lattice index     =            0
     lattice parameter (alat)  =       1.8897  a.u.
     unit-cell volume          =    9988.4706 (a.u.)^3
     number of atoms/cell      =           55
     number of atomic types    =            3
     number of electrons       =       428.00
     number of Kohn-Sham states=          224
     kinetic-energy cutoff     =      29.3995  Ry
     charge density cutoff     =     293.9946  Ry
     scf convergence threshold =      7.3E-08
     mixing beta               =       0.0500
     number of iterations used =            8  plain     mixing
     Exchange-correlation= BEEF-VDW
                           (   1   4  43  14   2   0   0)

     celldm(1)=   1.889726  celldm(2)=   0.000000  celldm(3)=   0.000000
     celldm(4)=   0.000000  celldm(5)=   0.000000  celldm(6)=   0.000000

     crystal axes: (cart. coord. in units of alat)
               a(1) = (   6.579727   0.000000   0.000000 )
               a(2) = (  -0.001163   8.942395   0.000000 )
               a(3) = (   0.000000   0.000000  25.155947 )

     reciprocal axes: (cart. coord. in units 2 pi/alat)
               b(1) = (  0.151982  0.000020  0.000000 )
               b(2) = (  0.000000  0.111827  0.000000 )
               b(3) = (  0.000000  0.000000  0.039752 )

     PseudoPot. # 1 for O  read from file:
     /storage/coda1/p-amedford6/0/shared/rich_project_chbe-medford/medford-share/data/pseudos_module/espresso/nninc/pbe/van/O.UPF
     MD5 check sum: 78c19812648e8988a0fe644b0f25305e
     Pseudo is Ultrasoft, Zval =  6.0
     Generated by new atomic code, or converted to UPF format
     Using radial grid of  737 points,  4 beta functions with:
                l(1) =   0
                l(2) =   0
                l(3) =   1
                l(4) =   1
     Q(r) pseudized with  8 coefficients,  rinner =    0.800   0.800   0.800

     PseudoPot. # 2 for Ti read from file:
     /storage/coda1/p-amedford6/0/shared/rich_project_chbe-medford/medford-share/data/pseudos_module/espresso/nninc/pbe/van/Ti.UPF
     MD5 check sum: 8e4df49b7f0d34bbd5052bf3f5ea0213
     Pseudo is Ultrasoft, Zval = 12.0
     Generated by new atomic code, or converted to UPF format
     Using radial grid of  851 points,  6 beta functions with:
                l(1) =   0
                l(2) =   0
                l(3) =   1
                l(4) =   1
                l(5) =   2
                l(6) =   2
     Q(r) pseudized with  8 coefficients,  rinner =    1.000   1.000   1.000
                                                       1.000   1.000

     PseudoPot. # 3 for H  read from file:
     /storage/coda1/p-amedford6/0/shared/rich_project_chbe-medford/medford-share/data/pseudos_module/espresso/nninc/pbe/van/H.UPF
     MD5 check sum: b5ee9d7bfd3a09ee7748110bda690ff7
     Pseudo is Ultrasoft, Zval =  1.0
     Generated by new atomic code, or converted to UPF format
     Using radial grid of  615 points,  1 beta functions with:
                l(1) =   0
     Q(r) pseudized with  8 coefficients,  rinner =    0.800

     atomic species   valence    mass     pseudopotential
        O1             6.00    15.99900     O ( 1.00)
        Ti1           12.00    47.86700     Ti( 1.00)
        H1             1.00     1.00800     H ( 1.00)

     No symmetry found

   Cartesian axes

     site n.     atom                  positions (alat units)
         1           O1  tau(   1) = (   0.0007354   0.0005023  10.5931620  )
         2           O1  tau(   2) = (   3.2895597   8.9328148  13.9563037  )
         3           O1  tau(   3) = (   0.0005978   0.0985611  17.3913433  )
         4           O1  tau(   4) = (   0.0006271   0.0005054   7.9858123  )
         5           O1  tau(   5) = (   3.2896697   8.9342645  11.2049655  )
         6           O1  tau(   6) = (  -0.0003651   8.9329897  14.6433231  )
         7           O1  tau(   7) = (   1.9868534   1.4903216   9.2879459  )
         8           O1  tau(   8) = (   5.2447202   1.6209113  12.6144278  )
         9           O1  tau(   9) = (   1.9863342   1.5414685  16.1562942  )
        10           Ti1 tau(  10) = (   0.0007404   1.4906270   9.2895810  )
        11           Ti1 tau(  11) = (   3.2912862   1.3561633  12.5349423  )
        12           Ti1 tau(  12) = (   0.0004920   1.3470917  15.7786735  )
        13           O1  tau(  13) = (   4.5942328   1.4918067   9.2879030  )
        14           O1  tau(  14) = (   1.3364296   1.6200362  12.6141345  )
        15           O1  tau(  15) = (   4.5940299   1.5415597  16.1565144  )
        16           Ti1 tau(  16) = (   3.2902859   2.9801868   9.2893338  )
        17           Ti1 tau(  17) = (   0.0008425   2.8468918  12.4310082  )
        18           Ti1 tau(  18) = (   3.2897726   2.9778300  15.7754387  )
        19           O1  tau(  19) = (   0.0003479   2.9813005  10.5931620  )
        20           O1  tau(  20) = (   3.2899953   2.9760220  13.9593592  )
        21           O1  tau(  21) = (   0.0002396   2.9813036   7.9858123  )
        22           O1  tau(  22) = (   3.2902535   2.9702742  11.2034491  )
        23           O1  tau(  23) = (   0.0001996   3.0016115  14.8754889  )
        24           O1  tau(  24) = (   1.9864658   4.4711199   9.2879459  )
        25           O1  tau(  25) = (   5.2500601   4.5773527  12.6114266  )
        26           O1  tau(  26) = (   1.9844836   4.4355282  16.1532781  )
        27           Ti1 tau(  27) = (   0.0003529   4.4714252   9.2895810  )
        28           Ti1 tau(  28) = (   3.2906597   4.3244847  12.5371400  )
        29           Ti1 tau(  29) = (  -0.0002816   4.6581729  15.7718077  )
        30           O1  tau(  30) = (   4.5938453   4.4726049   9.2879030  )
        31           O1  tau(  31) = (   1.3301928   4.5768014  12.6113087  )
        32           O1  tau(  32) = (   4.5951179   4.4357094  16.1533535  )
        33           Ti1 tau(  33) = (   3.2898983   5.9609850   9.2893338  )
        34           Ti1 tau(  34) = (   0.0001782   5.8230774  12.4473142  )
        35           Ti1 tau(  35) = (   3.2897114   5.9733655  15.7593407  )
        36           O1  tau(  36) = (  -0.0000397   5.9620987  10.5931620  )
        37           O1  tau(  37) = (   3.2897659   5.9527282  13.9548452  )
        38           O1  tau(  38) = (  -0.0000778   5.8930771  17.3915974  )
        39           O1  tau(  39) = (  -0.0001480   5.9621018   7.9858123  )
        40           O1  tau(  40) = (   3.2899370   5.9442392  11.2047318  )
        41           O1  tau(  41) = (  -0.0000177   6.0388360  14.6471464  )
        42           O1  tau(  42) = (   1.9860782   7.4519181   9.2879459  )
        43           O1  tau(  43) = (   5.2406126   7.5613367  12.5866955  )
        44           O1  tau(  44) = (   1.9997133   7.4594595  16.1095921  )
        45           Ti1 tau(  45) = (  -0.0000347   7.4522234   9.2895810  )
        46           Ti1 tau(  46) = (   3.2905271   7.3121622  12.5249915  )
        47           Ti1 tau(  47) = (   0.0000546   7.4652353  16.1046789  )
        48           O1  tau(  48) = (   4.5934577   7.4534031   9.2879030  )
        49           O1  tau(  49) = (   1.3393442   7.5608695  12.5864666  )
        50           O1  tau(  50) = (   4.5795450   7.4594577  16.1094643  )
        51           Ti1 tau(  51) = (   3.2895107   8.9417832   9.2893338  )
        52           Ti1 tau(  52) = (   0.0001497   8.7881157  12.4544516  )
        53           Ti1 tau(  53) = (   3.2897860   8.9238688  15.7591263  )
        54           H1  tau(  54) = (   6.5785799   5.7919152  18.3598116  )
        55           H1  tau(  55) = (   6.5788772   0.1821499  18.3509732  )

     number of k points=    10  Fermi-Dirac smearing, width (Ry)=  0.0073
                       cart. coord. in units 2pi/alat
        k(    1) = (   0.0000000   0.0000000   0.0000000), wk =   0.1250000
        k(    2) = (   0.0000000   0.0279567   0.0000000), wk =   0.2500000
        k(    3) = (   0.0000000  -0.0559134   0.0000000), wk =   0.1250000
        k(    4) = (   0.0379955   0.0000049   0.0000000), wk =   0.2500000
        k(    5) = (   0.0379955   0.0279617   0.0000000), wk =   0.2500000
        k(    6) = (   0.0379955  -0.0559085   0.0000000), wk =   0.2500000
        k(    7) = (   0.0379955  -0.0279518   0.0000000), wk =   0.2500000
        k(    8) = (  -0.0759910  -0.0000099   0.0000000), wk =   0.1250000
        k(    9) = (  -0.0759910   0.0279468   0.0000000), wk =   0.2500000
        k(   10) = (  -0.0759910  -0.0559233   0.0000000), wk =   0.1250000

     Initial potential from superposition of free atoms

     starting charge  409.99914, renormalised to  428.00000

     negative rho (up, down):  4.036E-02 0.000E+00

     %%%%%%%%%%%%%%%%%%%%%%%%%%%%%%%%%%%%%%%%%%%%%%%%%%%%%%%%%%%%%%%%%%%%%%%%
     %                                                                      %
     % You are using vdW-DF, which was implemented by the Thonhauser group. %
     % Please cite the following two papers that made this development      %
     % possible and the two reviews that describe the various versions:     %
     %                                                                      %
     %   T. Thonhauser et al., PRL 115, 136402 (2015).                      %
     %   T. Thonhauser et al., PRB 76, 125112 (2007).                       %
     %   K. Berland et al., Rep. Prog. Phys. 78, 066501 (2015).             %
     %   D.C. Langreth et al., J. Phys.: Condens. Matter 21, 084203 (2009). %
     %                                                                      %
     %                                                                      %
     % If you are calculating the stress with vdW-DF, please also cite:     %
     %                                                                      %
     %   R. Sabatini et al., J. Phys.: Condens. Matter 24, 424209 (2012).   %
     %                                                                      %
     %%%%%%%%%%%%%%%%%%%%%%%%%%%%%%%%%%%%%%%%%%%%%%%%%%%%%%%%%%%%%%%%%%%%%%%%

     Adding external electric field

     Computed dipole along edir(3) :
        Dipole               -0.7979 Ry au,         -2.0281 Debye
        Dipole field         -0.0010 Ry au,

        Potential amp.        0.0931 Ry
        Total length         46.3494 bohr

     Starting wfcs are  322 atomic wfcs
  @ DRIVER MODE: Message from server: STATUS
  @ DRIVER MODE: Message from server: POSDATA
  @ DRIVER MODE: Reading and sharing cell
  @ DRIVER MODE: Reading and sharing positions
  @ DRIVER MODE: Received positions

     Self-consistent Calculation

     iteration #  1     ecut=    29.40 Ry     beta= 0.05
     Davidson diagonalization with overlap
     c_bands:  4 eigenvalues not converged
     c_bands:  4 eigenvalues not converged
     c_bands:  3 eigenvalues not converged
     c_bands:  2 eigenvalues not converged
     c_bands:  3 eigenvalues not converged
     c_bands:  3 eigenvalues not converged
     c_bands:  4 eigenvalues not converged
     c_bands:  2 eigenvalues not converged
     c_bands:  3 eigenvalues not converged
     ethr =  1.00E-05,  avg # of iterations = 19.7

[...]

     total energy              =   -3251.91275851 Ry
     estimated scf accuracy    <      13.90125674 Ry

     iteration #  2     ecut=    29.40 Ry     beta= 0.05
     Davidson diagonalization with overlap
     ethr =  3.25E-03,  avg # of iterations =  1.0

[...]

     iteration # 36     ecut=    29.40 Ry     beta= 0.05
     Davidson diagonalization with overlap
     ethr =  6.44E-07,  avg # of iterations = 13.1

[...]

     total energy              =   -3250.62435114 Ry
     estimated scf accuracy    <       0.00000008 Ry

     iteration # 60     ecut=    29.40 Ry     beta= 0.05
     Davidson diagonalization with overlap
     c_bands:  2 eigenvalues not converged
     ethr =  1.84E-11,  avg # of iterations =  8.0

     negative rho (up, down):  3.752E-02 0.000E+00

     Adding external electric field

     Computed dipole along edir(3) :
        Dipole                1.9747 Ry au,          5.0192 Debye
        Dipole field          0.0025 Ry au,

        Potential amp.       -0.2303 Ry
        Total length         46.3494 bohr

     End of self-consistent calculation

          k = 0.0000 0.0000 0.0000 ( 26871 PWs)   bands (ev):

   -57.5839 -57.5589 -57.5572 -57.5230 -57.5014 -57.4473 -57.4257 -57.4052
   -57.3753 -57.3742 -57.3733 -57.3645 -57.3507 -57.3439 -57.1971 -56.7051
   -56.6820 -56.6718 -33.9752 -33.9744 -33.9732 -33.9493 -33.9038 -33.8891
   -33.8819 -33.8807 -33.8711 -33.8623 -33.8586 -33.8541 -33.8507 -33.8209
   -33.7836 -33.7560 -33.7532 -33.7383 -33.7286 -33.7106 -33.7092 -33.7068
   -33.6853 -33.6817 -33.6806 -33.6708 -33.6644 -33.6625 -33.6546 -33.6321
   -33.6319 -33.6227 -33.6218 -33.6119 -33.6112 -33.6021 -33.5848 -33.5779
   -33.5740 -33.5694 -33.5270 -33.5180 -33.4766 -33.3652 -33.2446 -33.0265
   -33.0146 -33.0118 -32.9970 -32.9879 -32.9346 -32.8747 -32.8635 -32.7332
   -19.5573 -19.4552 -18.4588 -18.0770 -17.9176 -17.8791 -17.8708 -17.8363
   -17.6841 -17.6799 -17.5946 -17.5555 -17.5424 -17.4471 -17.3992 -17.3840
   -17.3792 -17.3582 -17.3454 -17.3266 -17.3130 -17.2979 -17.2716 -17.2276
   -17.1944 -17.1483 -17.1216 -17.1152 -17.0555 -17.0528 -17.0299 -16.7488
   -15.1690 -15.1100 -15.1037  -7.7356  -7.5863  -5.7840  -5.5874  -5.5448
    -5.4106  -5.0606  -5.0450  -5.0160  -4.9790  -4.9637  -4.9376  -4.8974
    -4.8678  -4.8571  -4.8248  -4.8245  -4.7559  -4.7433  -4.7382  -4.6550
    -4.6235  -4.6059  -4.5815  -4.5348  -4.4719  -4.4471  -4.4414  -4.4386
    -4.4180  -4.3868  -4.3661  -4.2534  -4.1586  -4.1297  -4.0240  -3.9610
    -3.9391  -3.9280  -3.9072  -3.8792  -3.8246  -3.7793  -3.7332  -3.7316
    -3.6517  -3.6101  -3.5733  -3.5338  -3.4779  -3.4402  -3.4377  -3.4139
    -3.3547  -3.3285  -3.3128  -3.2392  -3.1211  -3.0971  -3.0175  -2.9577
    -2.8945  -2.8800  -2.7572  -2.7221  -2.6381  -2.6136  -2.6025  -2.5038
    -2.4371  -2.4145  -2.4003  -2.3984  -2.3505  -2.3214  -2.2895  -2.2778
    -2.2643  -2.2207  -2.1500  -2.1495  -2.0600  -2.0239  -2.0180  -1.9885
    -1.9734  -1.9276  -1.9009  -1.8217  -1.6870  -1.6492  -1.5782  -1.5152
    -1.5145  -1.4368  -1.4025  -1.3763  -0.9902  -0.7802  -0.4797  -0.4140
    -0.4124  -0.1301  -0.1226   0.0141   1.3541   1.4277   1.5613   1.6198
     1.8008   1.8331   1.8701   1.9519   1.9788   2.0094   2.0255   2.0477

[...]

          k = 0.0380-0.0280 0.0000 ( 26873 PWs)   bands (ev):

[...]

          k =-0.0760-0.0000 0.0000 ( 26902 PWs)   bands (ev):

[...]

          k =-0.0760-0.0559 0.0000 ( 26868 PWs)   bands (ev):

   -57.5760 -57.5743 -57.5495 -57.5213 -57.5035 -57.4467 -57.4227 -57.4092
   -57.3732 -57.3717 -57.3703 -57.3664 -57.3604 -57.3389 -57.1970 -56.7002
   -56.6913 -56.6674 -34.0684 -33.9776 -33.9712 -33.9547 -33.9346 -33.9305
   -33.8971 -33.8960 -33.8889 -33.8593 -33.8023 -33.7834 -33.7814 -33.7770
   -33.7324 -33.7257 -33.7245 -33.7210 -33.7061 -33.7032 -33.7007 -33.6933
   -33.6928 -33.6743 -33.6739 -33.6649 -33.6599 -33.6587 -33.6568 -33.6499
   -33.6493 -33.6489 -33.6306 -33.6178 -33.6107 -33.6068 -33.6005 -33.5928
   -33.5710 -33.5678 -33.5554 -33.5518 -33.5042 -33.3886 -33.2443 -33.1122
   -33.0140 -33.0061 -32.9833 -32.9183 -32.9076 -32.8478 -32.8352 -32.8248
   -19.5412 -19.4641 -18.1182 -18.0838 -17.8953 -17.8491 -17.7822 -17.7344
   -17.6724 -17.6596 -17.6427 -17.5874 -17.5865 -17.5110 -17.5001 -17.4328
   -17.4024 -17.3824 -17.3815 -17.3747 -17.3709 -17.3427 -17.3052 -17.2466
   -17.2416 -17.2199 -17.1256 -17.0896 -17.0832 -17.0360 -17.0144 -16.7812
   -15.1676 -15.1600 -15.0455  -7.7888  -7.5205  -5.3796  -5.3333  -5.3104
    -5.2576  -5.2011  -5.0344  -4.9783  -4.9266  -4.9207  -4.8616  -4.8163
    -4.7977  -4.7668  -4.7478  -4.7430  -4.7245  -4.6488  -4.6358  -4.6197
    -4.6006  -4.5737  -4.5599  -4.5502  -4.5164  -4.4389  -4.3654  -4.2971
    -4.2912  -4.2748  -4.2199  -4.2094  -4.1764  -4.1263  -4.1007  -4.0587
    -3.9342  -3.8981  -3.8109  -3.7946  -3.7792  -3.7759  -3.7525  -3.6780
    -3.6713  -3.5756  -3.5390  -3.4480  -3.3680  -3.3600  -3.3459  -3.3083
    -3.3002  -3.2568  -3.2206  -3.1831  -3.1719  -3.1584  -3.0953  -3.0385
    -2.9802  -2.9216  -2.8445  -2.8237  -2.7874  -2.7436  -2.7359  -2.7094
    -2.7020  -2.6916  -2.6834  -2.6688  -2.6089  -2.5923  -2.4625  -2.4249
    -2.4083  -2.2877  -2.2734  -2.2284  -2.1980  -2.1496  -2.1457  -2.0331
    -2.0091  -1.9196  -1.8852  -1.8298  -1.8055  -1.7878  -1.7268  -1.4400
    -1.4260  -1.3902  -1.3508  -1.2754  -1.2631  -1.0180  -0.6159  -0.3602
    -0.3362  -0.2921  -0.1217  -0.1181   1.4397   1.5445   1.5810   1.5947
     1.6984   1.7302   1.7341   1.7443   1.7834   1.8127   1.9066   2.0783

     the Fermi energy is     1.4985 ev

!    total energy              =   -3250.62438900 Ry
     estimated scf accuracy    <       0.00000002 Ry
     smearing contrib. (-TS)   =      -0.05123076 Ry
     internal energy E=F+TS    =   -3250.57315824 Ry

     The total energy is F=E-TS. E is the sum of the following terms:
     one-electron contribution =  -33904.95635445 Ry
     hartree contribution      =   17014.29293824 Ry
     xc contribution           =    -530.15950445 Ry
     ewald contribution        =   14170.24485662 Ry
     electric field correction =       0.00490579 Ry

     convergence has been achieved in  60 iterations

     Forces acting on atoms (cartesian axes, Ry/au):

     atom    1 type  1   force =     0.00000297    0.00712201    0.05671283
     atom    2 type  1   force =     0.00004343    0.00336530    0.00113294
     atom    3 type  1   force =     0.00000470   -0.00277466   -0.00367622
     atom    4 type  1   force =     0.00005016    0.00104444    0.10789233
     atom    5 type  1   force =     0.00004012   -0.00021242    0.01010671
     atom    6 type  1   force =    -0.00002935   -0.00655688   -0.00387179
     atom    7 type  1   force =     0.06423565    0.00011033   -0.02837817
     atom    8 type  1   force =     0.00284382   -0.02998804    0.00401826
     atom    9 type  1   force =     0.01259103   -0.01284611   -0.00057441
     atom   10 type  2   force =    -0.00004689   -0.00848407   -0.19231272
     atom   11 type  2   force =    -0.00023576    0.02103201   -0.01104021
     atom   12 type  2   force =     0.00001628    0.02015097    0.01357021
     atom   13 type  1   force =    -0.06432509   -0.00033352   -0.02835744
     atom   14 type  1   force =    -0.00307612   -0.02969549    0.00398323
     atom   15 type  1   force =    -0.01257469   -0.01286239   -0.00057249
     atom   16 type  2   force =     0.00007886   -0.00104074    0.07102579
     atom   17 type  2   force =     0.00043653    0.03732733    0.00576636
     atom   18 type  2   force =    -0.00000974    0.00098582   -0.00818550
     atom   19 type  1   force =     0.00001041    0.00231788    0.05924282
     atom   20 type  1   force =     0.00004480    0.00209803   -0.00265672
     atom   21 type  1   force =     0.00005748    0.00076988    0.10936061
     atom   22 type  1   force =     0.00004596   -0.00072634    0.01036287
     atom   23 type  1   force =    -0.00002177   -0.00042492   -0.00314262
     atom   24 type  1   force =     0.06385093   -0.00070190   -0.02836017
     atom   25 type  1   force =     0.00324963   -0.02911238    0.00356881
     atom   26 type  1   force =     0.01270721    0.01306744   -0.00041936
     atom   27 type  2   force =    -0.00008425    0.00433608   -0.19447478
     atom   28 type  2   force =    -0.00023708    0.01850081   -0.00939446
     atom   29 type  2   force =     0.00002062   -0.02028616    0.01293362
     atom   30 type  1   force =    -0.06394790   -0.00116172   -0.02833313
     atom   31 type  1   force =    -0.00348150   -0.02886169    0.00353111
     atom   32 type  1   force =    -0.01271556    0.01305195   -0.00043061
     atom   33 type  2   force =     0.00007978   -0.00085438    0.07219073
     atom   34 type  2   force =     0.00042116    0.03346878    0.00562697
     atom   35 type  2   force =    -0.00001939   -0.01674220   -0.00128080
     atom   36 type  1   force =    -0.00000091    0.00273944    0.05601205
     atom   37 type  1   force =     0.00003792    0.00193331    0.00181720
     atom   38 type  1   force =    -0.00000830    0.00126215    0.01529239
     atom   39 type  1   force =     0.00005944   -0.00165604    0.10829428
     atom   40 type  1   force =     0.00004367   -0.00052281    0.00999003
     atom   41 type  1   force =    -0.00002955    0.00765642   -0.00386861
     atom   42 type  1   force =     0.06486782   -0.00062502   -0.02829016
     atom   43 type  1   force =     0.00326844   -0.02818278    0.00163648
     atom   44 type  1   force =     0.01692264   -0.00033803    0.00587808
     atom   45 type  2   force =    -0.00007027    0.00171673   -0.18727179
     atom   46 type  2   force =    -0.00023699    0.01865538   -0.01192124
     atom   47 type  2   force =     0.00001860    0.00114275   -0.00715594
     atom   48 type  1   force =    -0.06495912   -0.00108885   -0.02827204
     atom   49 type  1   force =    -0.00354054   -0.02790626    0.00161517
     atom   50 type  1   force =    -0.01690952   -0.00034678    0.00588780
     atom   51 type  2   force =     0.00011594   -0.00089836    0.07255761
     atom   52 type  2   force =     0.00045557    0.03355931    0.00543637
     atom   53 type  2   force =    -0.00001879    0.01521496   -0.00021696
     atom   54 type  3   force =    -0.00000783    0.00151815   -0.02123776
     atom   55 type  3   force =    -0.00003468    0.00108327   -0.00174759

     Total force =     0.464504     Total SCF correction =     0.000362
  @ DRIVER MODE: Message from server: STATUS
  @ DRIVER MODE: Message from server: GETFORCE
  @ DRIVER MODE: Returning v,forces,stress,ensemble

     Writing output data file ./calc.save/
  @ DRIVER MODE: Message from server: EXIT
  @ DRIVE MODE: Exiting

     General routines

     Parallel routines

   This run was terminated on:  14:56:28  18Oct2021

   JOB DONE.