     Program PWSCF v.6.7GPU starts on  9Sep2021 at  4:11:24

     R & G space division:  proc/nbgrp/npool/nimage =      10
     Reading input from /storage/home/hcoda1/3/ntian30/research/carbon/CxH_vib/CH3_calc/ads_slab/CH3N_a/out_0025/pw.inp
Warning: card &CELL ignored
Warning: card   CELL_DYNAMICS='IPI', ignored
Warning: card / ignored

     Current dimensions of program PWSCF are:
     Max number of different atomic species (ntypx) = 10
     Max number of k-points (npk) =  40000
     Max angular momentum in pseudopotentials (lmaxx) =  3
     Presently no symmetry can be used with electric field

     Message from routine cell_base_init:
     DEPRECATED: use true lattice parameter, not A to a.u. conversion factor

     IMPORTANT: XC functional enforced from input :
     Exchange-correlation= BEEF-VDW
                           (   1   4  43  14   2   0   0)
     Any further DFT definition will be discarded
     Please, verify this is what you really want

  @ DRIVER MODE: Connecting to
 qe_1139763_2767403.sched-torque.pace.gatech.eduvgk11i8s_scratch
  using UNIX socket
  @ DRIVER MODE: Message from server: STATUS
  @ DRIVER MODE: Message from server: INIT
  @ DRIVER MODE: Receiving replica           0          -1
  @ DRIVER MODE: Receiving encoded integer          25
  @ DRIVER MODE:  SCF:  T  FORCE:  T  STRESS:  F  VC:  F  ENSEMBLE:  F
  @ DRIVER MODE:  SCF:  T  FORCE:  T  STRESS:  F  VC:  F  ENSEMBLE:  F

     Using Slab Decomposition

     bravais-lattice index     =            0
     lattice parameter (alat)  =       1.8897  a.u.
     unit-cell volume          =    6658.9804 (a.u.)^3
     number of atoms/cell      =           52
     number of atomic types    =            5
     number of electrons       =       390.00
     number of Kohn-Sham states=          205
     kinetic-energy cutoff     =      29.3995  Ry
     charge density cutoff     =     293.9946  Ry
     scf convergence threshold =      7.3E-08
     mixing beta               =       0.0500
     number of iterations used =            8  plain     mixing
     Exchange-correlation= BEEF-VDW
                           (   1   4  43  14   2   0   0)

     celldm(1)=   1.889726  celldm(2)=   0.000000  celldm(3)=   0.000000
     celldm(4)=   0.000000  celldm(5)=   0.000000  celldm(6)=   0.000000

     crystal axes: (cart. coord. in units of alat)
               a(1) = (   6.579727   0.000000   0.000000 )
               a(2) = (  -0.000775   5.961596   0.000000 )
               a(3) = (   0.000000   0.000000  25.155947 )

     reciprocal axes: (cart. coord. in units 2 pi/alat)
               b(1) = (  0.151982  0.000020  0.000000 )
               b(2) = (  0.000000  0.167740  0.000000 )
               b(3) = (  0.000000  0.000000  0.039752 )

     PseudoPot. # 1 for Ti read from file:
     /storage/coda1/p-amedford6/0/shared/rich_project_chbe-medford/medford-share/data/pseudos_module/espresso/nninc/pbe/van/Ti.UPF
     MD5 check sum: 8e4df49b7f0d34bbd5052bf3f5ea0213
     Pseudo is Ultrasoft, Zval = 12.0
     Generated by new atomic code, or converted to UPF format
     Using radial grid of  851 points,  6 beta functions with:
                l(1) =   0
                l(2) =   0
                l(3) =   1
                l(4) =   1
                l(5) =   2
                l(6) =   2
     Q(r) pseudized with  8 coefficients,  rinner =    1.000   1.000   1.000
                                                       1.000   1.000

     PseudoPot. # 2 for O  read from file:
     /storage/coda1/p-amedford6/0/shared/rich_project_chbe-medford/medford-share/data/pseudos_module/espresso/nninc/pbe/van/O.UPF
     MD5 check sum: 78c19812648e8988a0fe644b0f25305e
     Pseudo is Ultrasoft, Zval =  6.0
     Generated by new atomic code, or converted to UPF format
     Using radial grid of  737 points,  4 beta functions with:
                l(1) =   0
                l(2) =   0
                l(3) =   1
                l(4) =   1
     Q(r) pseudized with  8 coefficients,  rinner =    0.800   0.800   0.800

     PseudoPot. # 3 for N  read from file:
     /storage/coda1/p-amedford6/0/shared/rich_project_chbe-medford/medford-share/data/pseudos_module/espresso/nninc/pbe/van/N.UPF
     MD5 check sum: 90d10febe142ad51ac9d5be1deb811c4
     Pseudo is Ultrasoft, Zval =  5.0
     Generated by new atomic code, or converted to UPF format
     Using radial grid of  729 points,  4 beta functions with:
                l(1) =   0
                l(2) =   0
                l(3) =   1
                l(4) =   1
     Q(r) pseudized with  8 coefficients,  rinner =    0.800   0.800   0.800

     PseudoPot. # 4 for C  read from file:
     /storage/coda1/p-amedford6/0/shared/rich_project_chbe-medford/medford-share/data/pseudos_module/espresso/nninc/pbe/van/C.UPF
     MD5 check sum: 1a69bf6b8db32088f5b2163dbdb77a27
     Pseudo is Ultrasoft, Zval =  4.0
     Generated by new atomic code, or converted to UPF format
     Using radial grid of  721 points,  4 beta functions with:
                l(1) =   0
                l(2) =   0
                l(3) =   1
                l(4) =   1
     Q(r) pseudized with  8 coefficients,  rinner =    0.800   0.800   0.800

     PseudoPot. # 5 for H  read from file:
     /storage/coda1/p-amedford6/0/shared/rich_project_chbe-medford/medford-share/data/pseudos_module/espresso/nninc/pbe/van/H.UPF
     MD5 check sum: b5ee9d7bfd3a09ee7748110bda690ff7
     Pseudo is Ultrasoft, Zval =  1.0
     Generated by new atomic code, or converted to UPF format
     Using radial grid of  615 points,  1 beta functions with:
                l(1) =   0
     Q(r) pseudized with  8 coefficients,  rinner =    0.800

     atomic species   valence    mass     pseudopotential
        Ti1           12.00    47.86700     Ti( 1.00)
        O1             6.00    15.99900     O ( 1.00)
        N1             5.00    14.00700     N ( 1.00)
        C1             4.00    12.01100     C ( 1.00)
        H1             1.00     1.00800     H ( 1.00)

     No symmetry found

   Cartesian axes

     site n.     atom                  positions (alat units)
         1           Ti1 tau(   1) = (   0.0004258   2.9801865   6.0000000  )
         2           Ti1 tau(   2) = (   3.2906075   1.4906267   6.0002472  )
         3           O1  tau(   3) = (   0.0006271   0.0005054   7.9858123  )
         4           O1  tau(   4) = (   3.2906025   0.0005020   7.3038282  )
         5           O1  tau(   5) = (   4.5942328   1.4918067   9.2879030  )
         6           O1  tau(   6) = (   1.9868534   1.4903216   9.2879459  )
         7           Ti1 tau(   7) = (   3.2907910   2.8959150   9.1758416  )
         8           Ti1 tau(   8) = (   0.0015273   1.4827037   9.2680791  )
         9           O1  tau(   9) = (   3.3018735   5.9614316  11.2970789  )
        10           O1  tau(  10) = (   0.0116148   5.9584955  10.6183126  )
        11           O1  tau(  11) = (   1.3353665   1.4968727  12.6140821  )
        12           O1  tau(  12) = (   5.3123320   1.5002621  12.6324210  )
        13           Ti1 tau(  13) = (   6.4913169   2.9877414  12.7576577  )
        14           Ti1 tau(  14) = (   3.1819880   1.4874128  12.4666476  )
        15           O1  tau(  15) = (   0.0325390   5.9514364  14.5942808  )
        16           O1  tau(  16) = (   3.3157460   0.0104736  13.8786857  )
        17           O1  tau(  17) = (   4.5538541   1.5308062  16.0536203  )
        18           O1  tau(  18) = (   2.1012647   1.5271178  16.0466835  )
        19           Ti1 tau(  19) = (   3.3239613   3.0121693  15.6870930  )
        20           Ti1 tau(  20) = (   0.0188375   1.6096557  16.0875739  )
        21           O1  tau(  21) = (   3.2904802   0.0005063   4.7018136  )
        22           O1  tau(  22) = (   0.0443345   0.0604659  17.2041813  )
        23           O1  tau(  23) = (   1.3043587   1.4918075   6.0039043  )
        24           O1  tau(  24) = (   5.2767064   1.4903225   6.0039473  )
        25           Ti1 tau(  25) = (   0.0000382   5.9609847   6.0000000  )
        26           Ti1 tau(  26) = (   3.2902200   4.4714249   6.0002472  )
        27           O1  tau(  27) = (   0.0002396   2.9813036   7.9858123  )
        28           O1  tau(  28) = (   3.2902150   2.9813002   7.3038282  )
        29           O1  tau(  29) = (   4.5938453   4.4726049   9.2879030  )
        30           O1  tau(  30) = (   1.9864658   4.4711199   9.2879459  )
        31           Ti1 tau(  31) = (   3.2891106   5.8743827   9.1763621  )
        32           Ti1 tau(  32) = (   0.0006254   4.4649316   9.2693709  )
        33           O1  tau(  33) = (   3.3028429   2.9834257  11.2952420  )
        34           O1  tau(  34) = (   0.0092240   2.9805883  10.6323155  )
        35           O1  tau(  35) = (   1.3370139   4.4664586  12.6123119  )
        36           O1  tau(  36) = (   5.3107101   4.4655690  12.6333123  )
        37           Ti1 tau(  37) = (   6.5188704   0.0058144  12.7695920  )
        38           Ti1 tau(  38) = (   3.1805296   4.4670443  12.4671176  )
        39           O1  tau(  39) = (   0.0099197   2.9765079  14.6559069  )
        40           O1  tau(  40) = (   3.3143426   2.9928857  13.8797190  )
        41           O1  tau(  41) = (   4.5573730   4.5089470  16.0521860  )
        42           O1  tau(  42) = (   2.1018054   4.5121927  16.0508938  )
        43           Ti1 tau(  43) = (   3.3145791   0.0316975  15.6896801  )
        44           Ti1 tau(  44) = (   0.0207397   4.5876961  16.1385408  )
        45           O1  tau(  45) = (   3.2900926   2.9813045   4.7018136  )
        46           O1  tau(  46) = (   1.3039711   4.4726057   6.0039043  )
        47           O1  tau(  47) = (   5.2763189   4.4711207   6.0039473  )
        48           N1  tau(  48) = (   0.0936308   3.0233000  17.3257847  )
        49           C1  tau(  49) = (   0.4281149   3.0137428  18.7308649  )
        50           H1  tau(  50) = (   0.7292188   4.0033843  19.0862330  )
        51           H1  tau(  51) = (   6.1445545   2.6862439  19.3232575  )
        52           H1  tau(  52) = (   1.2301080   2.3040860  18.9332505  )

     number of k points=    10  Fermi-Dirac smearing, width (Ry)=  0.0073
                       cart. coord. in units 2pi/alat
        k(    1) = (   0.0000000   0.0000000   0.0000000), wk =   0.1250000
        k(    2) = (   0.0000000   0.0419351   0.0000000), wk =   0.2500000
        k(    3) = (   0.0000000  -0.0838702   0.0000000), wk =   0.1250000
        k(    4) = (   0.0379955   0.0000049   0.0000000), wk =   0.2500000
        k(    5) = (   0.0379955   0.0419400   0.0000000), wk =   0.2500000
        k(    6) = (   0.0379955  -0.0838652   0.0000000), wk =   0.2500000
        k(    7) = (   0.0379955  -0.0419301   0.0000000), wk =   0.2500000
        k(    8) = (  -0.0759910  -0.0000099   0.0000000), wk =   0.1250000
        k(    9) = (  -0.0759910   0.0419252   0.0000000), wk =   0.2500000
        k(   10) = (  -0.0759910  -0.0838800   0.0000000), wk =   0.1250000

     Initial potential from superposition of free atoms

     starting charge  373.99917, renormalised to  390.00000

     negative rho (up, down):  1.730E-02 0.000E+00

     %%%%%%%%%%%%%%%%%%%%%%%%%%%%%%%%%%%%%%%%%%%%%%%%%%%%%%%%%%%%%%%%%%%%%%%%
     %                                                                      %
     % You are using vdW-DF, which was implemented by the Thonhauser group. %
     % Please cite the following two papers that made this development      %
     % possible and the two reviews that describe the various versions:     %
     %                                                                      %
     %   T. Thonhauser et al., PRL 115, 136402 (2015).                      %
     %   T. Thonhauser et al., PRB 76, 125112 (2007).                       %
     %   K. Berland et al., Rep. Prog. Phys. 78, 066501 (2015).             %
     %   D.C. Langreth et al., J. Phys.: Condens. Matter 21, 084203 (2009). %
     %                                                                      %
     %                                                                      %
     % If you are calculating the stress with vdW-DF, please also cite:     %
     %                                                                      %
     %   R. Sabatini et al., J. Phys.: Condens. Matter 24, 424209 (2012).   %
     %                                                                      %
     %%%%%%%%%%%%%%%%%%%%%%%%%%%%%%%%%%%%%%%%%%%%%%%%%%%%%%%%%%%%%%%%%%%%%%%%

     Adding external electric field

     Computed dipole along edir(3) :
        Dipole               -4.6272 Ry au,        -11.7612 Debye
        Dipole field         -0.0087 Ry au,

        Potential amp.        0.8095 Ry
        Total length         46.3494 bohr

     Starting wfcs are  295 atomic wfcs
  @ DRIVER MODE: Message from server: STATUS
  @ DRIVER MODE: Message from server: POSDATA
  @ DRIVER MODE: Reading and sharing cell
  @ DRIVER MODE: Reading and sharing positions
  @ DRIVER MODE: Received positions

     Self-consistent Calculation

     iteration #  1     ecut=    29.40 Ry     beta= 0.05
     Davidson diagonalization with overlap
     c_bands:  3 eigenvalues not converged
     c_bands:  2 eigenvalues not converged
     c_bands:  2 eigenvalues not converged
     c_bands:  4 eigenvalues not converged
     c_bands:  4 eigenvalues not converged
     c_bands:  2 eigenvalues not converged
     c_bands:  2 eigenvalues not converged
     c_bands:  2 eigenvalues not converged
     ethr =  1.00E-05,  avg # of iterations = 19.7

[...]

     total energy              =   -2877.84022342 Ry
     estimated scf accuracy    <     476.84577289 Ry

     iteration #  2     ecut=    29.40 Ry     beta= 0.05
     Davidson diagonalization with overlap
     ethr =  1.00E-02,  avg # of iterations = 13.5

[...]

     iteration # 25     ecut=    29.40 Ry     beta= 0.05
     Davidson diagonalization with overlap
     c_bands:  2 eigenvalues not converged
     c_bands:  2 eigenvalues not converged
     c_bands:  1 eigenvalues not converged
     c_bands:  1 eigenvalues not converged
     ethr =  4.80E-07,  avg # of iterations = 17.6

[...]

     total energy              =   -2919.13176606 Ry
     estimated scf accuracy    <       0.00000011 Ry

     iteration # 54     ecut=    29.40 Ry     beta= 0.05
     Davidson diagonalization with overlap
     ethr =  2.95E-11,  avg # of iterations =  5.0

     negative rho (up, down):  1.788E-02 0.000E+00

     Adding external electric field

     Computed dipole along edir(3) :
        Dipole                0.2611 Ry au,          0.6638 Debye
        Dipole field          0.0005 Ry au,

        Potential amp.       -0.0457 Ry
        Total length         46.3494 bohr

     End of self-consistent calculation

          k = 0.0000 0.0000 0.0000 ( 18029 PWs)   bands (ev):

   -56.8866 -56.8530 -56.0089 -55.9973 -55.9740 -55.9644 -55.8620 -55.8233
   -55.6459 -55.6106 -55.5508 -55.5481 -55.5169 -55.4388 -54.9676 -54.9205
   -33.3145 -33.1614 -33.1332 -33.0626 -32.9715 -32.9405 -32.4800 -32.4735
   -32.4026 -32.2932 -32.2467 -32.2227 -32.2044 -32.1830 -32.1494 -32.1451
   -32.1411 -32.1381 -32.1125 -32.1103 -32.0985 -32.0691 -32.0428 -32.0290
   -32.0159 -31.9962 -31.9894 -31.9660 -31.9432 -31.8894 -31.8772 -31.8652
   -31.7895 -31.7846 -31.7619 -31.7231 -31.7125 -31.6784 -31.6681 -31.6432
   -31.6245 -31.5674 -31.4976 -31.2183 -31.1927 -31.1718 -31.1414 -31.0263
   -17.0509 -16.6158 -16.3854 -16.2492 -16.1821 -16.1273 -16.0835 -15.9599
   -15.8865 -15.8817 -15.8411 -15.8093 -15.7384 -15.6002 -15.5017 -15.4443
   -15.4008 -15.2817 -15.2229 -15.1894 -15.1837 -15.1449 -15.1298 -14.9326
   -14.9062 -14.8180 -14.7986 -14.6714 -14.4400 -14.0493 -13.9392 -13.0857
    -7.8273  -4.6163  -4.1122  -3.8710  -3.7881  -3.6799  -3.6670  -3.5872
    -3.4675  -3.4208  -3.3742  -3.2581  -3.2549  -3.1190  -3.1083  -3.0622
    -3.0600  -3.0254  -2.9666  -2.9426  -2.9040  -2.8928  -2.8853  -2.7327
    -2.6319  -2.5657  -2.5381  -2.5251  -2.4947  -2.4230  -2.3935  -2.3835
    -2.3797  -2.2746  -2.1290  -2.1277  -2.0958  -2.0539  -2.0511  -2.0118
    -2.0006  -1.8763  -1.7850  -1.6763  -1.6661  -1.6288  -1.5671  -1.5602
    -1.4641  -1.3883  -1.3184  -1.3002  -1.1906  -1.1471  -1.1237  -1.0344
    -0.9726  -0.9351  -0.9124  -0.8958  -0.7926  -0.7760  -0.7691  -0.6756
    -0.6635  -0.6199  -0.5269  -0.5036  -0.4983  -0.4160  -0.4090  -0.3045
    -0.2756  -0.2311  -0.1981  -0.0934  -0.0728   0.0251   0.0625   0.0808
     0.2026   0.2198   0.2800   0.3526   0.4182   0.4348   0.4710   0.5010
     0.5175   0.5951   0.7075   0.7151   0.8181   0.8514   1.0234   1.0623
     1.3440   1.3539   2.0472   2.3880   2.5476   2.8460   3.0349   3.1481
     3.3628   3.3785   3.3837   3.5552   3.6072

[...]

          k = 0.0380-0.0419 0.0000 ( 17876 PWs)   bands (ev):

[...]

          k =-0.0760-0.0000 0.0000 ( 17886 PWs)   bands (ev):

[...]

          k =-0.0760-0.0839 0.0000 ( 17948 PWs)   bands (ev):

   -56.8699 -56.8695 -55.9937 -55.9880 -55.9816 -55.9810 -55.8505 -55.8346
   -55.6311 -55.6252 -55.5452 -55.5339 -55.5338 -55.4416 -54.9596 -54.9284
   -33.1472 -33.1469 -33.1315 -33.1312 -33.0157 -33.0153 -32.3098 -32.3074
   -32.2980 -32.2915 -32.2385 -32.2351 -32.1965 -32.1926 -32.1914 -32.1873
   -32.1833 -32.1804 -32.1783 -32.1766 -32.1009 -32.0883 -32.0496 -32.0374
   -31.9816 -31.9731 -31.9134 -31.9075 -31.8783 -31.8782 -31.8733 -31.8297
   -31.8281 -31.7982 -31.7614 -31.7594 -31.7593 -31.7203 -31.7203 -31.7188
   -31.6844 -31.6449 -31.3625 -31.2849 -31.1893 -31.1621 -31.1500 -31.1086
   -16.3995 -16.3975 -16.3647 -16.3644 -16.0956 -16.0921 -16.0460 -16.0427
   -15.8712 -15.8641 -15.6592 -15.6503 -15.6432 -15.6404 -15.5127 -15.5070
   -15.4438 -15.4296 -15.3419 -15.3394 -15.2762 -15.2701 -15.2319 -15.2121
   -14.9019 -14.8842 -14.7721 -14.7469 -14.5837 -14.0427 -14.0426 -13.1022
    -7.8182  -3.4980  -3.4973  -3.4338  -3.4328  -3.3085  -3.3027  -3.2292
    -3.2285  -3.1272  -3.1236  -3.0995  -2.9971  -2.9842  -2.9812  -2.9707
    -2.9579  -2.8298  -2.8272  -2.8161  -2.8001  -2.7437  -2.7415  -2.7296
    -2.6525  -2.6378  -2.6038  -2.5654  -2.4568  -2.4433  -2.4307  -2.3987
    -2.3429  -2.3288  -2.3157  -2.2739  -2.2500  -2.1629  -2.1080  -2.0548
    -1.9386  -1.9354  -1.9270  -1.9116  -1.7602  -1.7184  -1.6909  -1.6834
    -1.6756  -1.6321  -1.5333  -1.5266  -1.3923  -1.3917  -1.3120  -1.2330
    -1.2154  -1.1853  -1.0552  -1.0149  -0.9783  -0.9701  -0.9427  -0.9233
    -0.8996  -0.8627  -0.7209  -0.7078  -0.6708  -0.6357  -0.6307  -0.5753
    -0.5173  -0.4373  -0.3605  -0.3595  -0.3061  -0.2337  -0.1728  -0.0921
    -0.0778  -0.0733   0.2070   0.2868   0.3787   0.4553   0.5235   0.5773
     0.6118   0.6767   0.7154   0.8491   0.8537   0.8716   0.8719   0.9336
     0.9352   1.3345   1.9367   2.9610   2.9612   3.0281   3.0285   3.3520
     3.3580   3.4661   3.4756   3.5864   3.5888

     the Fermi energy is     2.2270 ev

!    total energy              =   -2919.13183423 Ry
     estimated scf accuracy    <       0.00000003 Ry
     smearing contrib. (-TS)   =      -0.00481863 Ry
     internal energy E=F+TS    =   -2919.12701560 Ry

     The total energy is F=E-TS. E is the sum of the following terms:
     one-electron contribution =  -24569.47464163 Ry
     hartree contribution      =   12368.97470837 Ry
     xc contribution           =    -479.90507235 Ry
     ewald contribution        =    9761.27786131 Ry
     electric field correction =       0.00012870 Ry

     convergence has been achieved in  54 iterations

     Forces acting on atoms (cartesian axes, Ry/au):

     atom    1 type  1   force =     0.00006123   -0.00051232    0.12427826
     atom    2 type  1   force =    -0.00008990   -0.00055081   -0.16065331
     atom    3 type  2   force =     0.00022102   -0.00024053   -0.06809139
     atom    4 type  2   force =    -0.00000271   -0.00032145    0.02757909
     atom    5 type  2   force =    -0.01621011    0.00174529   -0.00936574
     atom    6 type  2   force =     0.01826324    0.00228422   -0.00892006
     atom    7 type  1   force =     0.00112126   -0.00381345    0.02202264
     atom    8 type  1   force =    -0.00061513   -0.00325299    0.11121672
     atom    9 type  2   force =    -0.00010546    0.00138986   -0.00034163
     atom   10 type  2   force =    -0.00191045    0.00178579   -0.07346817
     atom   11 type  2   force =     0.00080960    0.00006215    0.00005598
     atom   12 type  2   force =    -0.00064768    0.00020226    0.00015561
     atom   13 type  1   force =     0.00005574    0.00022328   -0.00041935
     atom   14 type  1   force =    -0.00101234   -0.00024117   -0.00047329
     atom   15 type  2   force =     0.00000107   -0.00028475    0.00009005
     atom   16 type  2   force =    -0.00006151    0.00106732    0.00075401
     atom   17 type  2   force =     0.00008598    0.00013819   -0.00045770
     atom   18 type  2   force =     0.00006832    0.00020010   -0.00006244
     atom   19 type  1   force =     0.00013936    0.00002974   -0.00072188
     atom   20 type  1   force =     0.00032264   -0.00090631    0.00010488
     atom   21 type  2   force =     0.00003896   -0.00006710    0.09975573
     atom   22 type  2   force =     0.00017846   -0.00050439    0.00000526
     atom   23 type  2   force =    -0.07919428   -0.00005622   -0.03245278
     atom   24 type  2   force =     0.07906006    0.00037956   -0.03247560
     atom   25 type  1   force =     0.00004668   -0.00050193    0.12372586
     atom   26 type  1   force =    -0.00009642   -0.00050596   -0.16067354
     atom   27 type  2   force =     0.00032660   -0.00048040   -0.06714311
     atom   28 type  2   force =     0.00002581   -0.00014326    0.02726845
     atom   29 type  2   force =    -0.01660939    0.00134765   -0.00956869
     atom   30 type  2   force =     0.01854986    0.00165380   -0.00913820
     atom   31 type  1   force =     0.00109916   -0.00129175    0.02157990
     atom   32 type  1   force =    -0.00051957    0.00069360    0.11186639
     atom   33 type  2   force =    -0.00033911   -0.00115324    0.00016155
     atom   34 type  2   force =    -0.00156753    0.00135629   -0.07240233
     atom   35 type  2   force =    -0.00179179   -0.00019917    0.00027174
     atom   36 type  2   force =     0.00069554   -0.00042130   -0.00004638
     atom   37 type  1   force =     0.00071905   -0.00033270    0.00068851
     atom   38 type  1   force =    -0.00016149    0.00052019    0.00020849
     atom   39 type  2   force =     0.00018313   -0.00030960   -0.00035009
     atom   40 type  2   force =     0.00010480   -0.00017320    0.00034148
     atom   41 type  2   force =     0.00002107    0.00045336   -0.00013529
     atom   42 type  2   force =     0.00026343    0.00053989   -0.00003060
     atom   43 type  1   force =     0.00038586    0.00016345   -0.00036376
     atom   44 type  1   force =    -0.00023926   -0.00000405    0.00005447
     atom   45 type  2   force =     0.00002344   -0.00007116    0.09976085
     atom   46 type  2   force =    -0.07920389   -0.00000111   -0.03245113
     atom   47 type  2   force =     0.07906988    0.00042629   -0.03247452
     atom   48 type  3   force =    -0.00021025   -0.00082504   -0.00096000
     atom   49 type  4   force =    -0.00718647    0.00432513   -0.00012936
     atom   50 type  5   force =    -0.00043526   -0.00017780    0.00023943
     atom   51 type  5   force =    -0.00057092    0.00083598    0.00012051
     atom   52 type  5   force =     0.00683967   -0.00448024    0.00146448

     Total force =     0.424784     Total SCF correction =     0.000425
  @ DRIVER MODE: Message from server: STATUS
  @ DRIVER MODE: Message from server: GETFORCE
  @ DRIVER MODE: Returning v,forces,stress,ensemble

     Writing output data file ./calc.save/
  @ DRIVER MODE: Message from server: EXIT
  @ DRIVE MODE: Exiting

     General routines

     Parallel routines

   This run was terminated on:   4:24:25   9Sep2021

   JOB DONE.