     Program PWSCF v.6.7GPU starts on 24Aug2021 at 13:45:44

     R & G space division:  proc/nbgrp/npool/nimage =      72
     Reading input from /storage/home/hcoda1/3/ntian30/research/carbon/CH2_vib/ads_slab/CH2NHHH_a/out_0010/pw.inp
Warning: card &CELL ignored
Warning: card   CELL_DYNAMICS='IPI', ignored
Warning: card / ignored

     Current dimensions of program PWSCF are:
     Max number of different atomic species (ntypx) = 10
     Max number of k-points (npk) =  40000
     Max angular momentum in pseudopotentials (lmaxx) =  3
     Presently no symmetry can be used with electric field

     Message from routine cell_base_init:
     DEPRECATED: use true lattice parameter, not A to a.u. conversion factor

     IMPORTANT: XC functional enforced from input :
     Exchange-correlation= BEEF-VDW
                           (   1   4  43  14   2   0   0)
     Any further DFT definition will be discarded
     Please, verify this is what you really want

  @ DRIVER MODE: Connecting to
 qe_1139763_2641440.sched-torque.pace.gatech.edug2v81rb4_scratch
  using UNIX socket
  @ DRIVER MODE: Message from server: STATUS
  @ DRIVER MODE: Message from server: INIT
  @ DRIVER MODE: Receiving replica           0          -1
  @ DRIVER MODE: Receiving encoded integer          25
  @ DRIVER MODE:  SCF:  T  FORCE:  T  STRESS:  F  VC:  F  ENSEMBLE:  F
  @ DRIVER MODE:  SCF:  T  FORCE:  T  STRESS:  F  VC:  F  ENSEMBLE:  F

     Using Slab Decomposition

     bravais-lattice index     =            0
     lattice parameter (alat)  =       1.8897  a.u.
     unit-cell volume          =    6658.9804 (a.u.)^3
     number of atoms/cell      =           54
     number of atomic types    =            5
     number of electrons       =       392.00
     number of Kohn-Sham states=          206
     kinetic-energy cutoff     =      29.3995  Ry
     charge density cutoff     =     293.9946  Ry
     scf convergence threshold =      7.3E-08
     mixing beta               =       0.0500
     number of iterations used =            8  plain     mixing
     Exchange-correlation= BEEF-VDW
                           (   1   4  43  14   2   0   0)

     celldm(1)=   1.889726  celldm(2)=   0.000000  celldm(3)=   0.000000
     celldm(4)=   0.000000  celldm(5)=   0.000000  celldm(6)=   0.000000

     crystal axes: (cart. coord. in units of alat)
               a(1) = (   6.579727   0.000000   0.000000 )
               a(2) = (  -0.000775   5.961596   0.000000 )
               a(3) = (   0.000000   0.000000  25.155947 )

     reciprocal axes: (cart. coord. in units 2 pi/alat)
               b(1) = (  0.151982  0.000020  0.000000 )
               b(2) = (  0.000000  0.167740  0.000000 )
               b(3) = (  0.000000  0.000000  0.039752 )

     PseudoPot. # 1 for Ti read from file:
     /storage/coda1/p-amedford6/0/shared/rich_project_chbe-medford/medford-share/data/pseudos_module/espresso/nninc/pbe/van/Ti.UPF
     MD5 check sum: 8e4df49b7f0d34bbd5052bf3f5ea0213
     Pseudo is Ultrasoft, Zval = 12.0
     Generated by new atomic code, or converted to UPF format
     Using radial grid of  851 points,  6 beta functions with:
                l(1) =   0
                l(2) =   0
                l(3) =   1
                l(4) =   1
                l(5) =   2
                l(6) =   2
     Q(r) pseudized with  8 coefficients,  rinner =    1.000   1.000   1.000
                                                       1.000   1.000

     PseudoPot. # 2 for O  read from file:
     /storage/coda1/p-amedford6/0/shared/rich_project_chbe-medford/medford-share/data/pseudos_module/espresso/nninc/pbe/van/O.UPF
     MD5 check sum: 78c19812648e8988a0fe644b0f25305e
     Pseudo is Ultrasoft, Zval =  6.0
     Generated by new atomic code, or converted to UPF format
     Using radial grid of  737 points,  4 beta functions with:
                l(1) =   0
                l(2) =   0
                l(3) =   1
                l(4) =   1
     Q(r) pseudized with  8 coefficients,  rinner =    0.800   0.800   0.800

     PseudoPot. # 3 for N  read from file:
     /storage/coda1/p-amedford6/0/shared/rich_project_chbe-medford/medford-share/data/pseudos_module/espresso/nninc/pbe/van/N.UPF
     MD5 check sum: 90d10febe142ad51ac9d5be1deb811c4
     Pseudo is Ultrasoft, Zval =  5.0
     Generated by new atomic code, or converted to UPF format
     Using radial grid of  729 points,  4 beta functions with:
                l(1) =   0
                l(2) =   0
                l(3) =   1
                l(4) =   1
     Q(r) pseudized with  8 coefficients,  rinner =    0.800   0.800   0.800

     PseudoPot. # 4 for C  read from file:
     /storage/coda1/p-amedford6/0/shared/rich_project_chbe-medford/medford-share/data/pseudos_module/espresso/nninc/pbe/van/C.UPF
     MD5 check sum: 1a69bf6b8db32088f5b2163dbdb77a27
     Pseudo is Ultrasoft, Zval =  4.0
     Generated by new atomic code, or converted to UPF format
     Using radial grid of  721 points,  4 beta functions with:
                l(1) =   0
                l(2) =   0
                l(3) =   1
                l(4) =   1
     Q(r) pseudized with  8 coefficients,  rinner =    0.800   0.800   0.800

     PseudoPot. # 5 for H  read from file:
     /storage/coda1/p-amedford6/0/shared/rich_project_chbe-medford/medford-share/data/pseudos_module/espresso/nninc/pbe/van/H.UPF
     MD5 check sum: b5ee9d7bfd3a09ee7748110bda690ff7
     Pseudo is Ultrasoft, Zval =  1.0
     Generated by new atomic code, or converted to UPF format
     Using radial grid of  615 points,  1 beta functions with:
                l(1) =   0
     Q(r) pseudized with  8 coefficients,  rinner =    0.800

     atomic species   valence    mass     pseudopotential
        Ti1           12.00    47.86700     Ti( 1.00)
        O1             6.00    15.99900     O ( 1.00)
        N1             5.00    14.00700     N ( 1.00)
        C1             4.00    12.01100     C ( 1.00)
        H1             1.00     1.00800     H ( 1.00)

     No symmetry found

   Cartesian axes

     site n.     atom                  positions (alat units)
         1           Ti1 tau(   1) = (   0.0004258   2.9801865   6.0000000  )
         2           Ti1 tau(   2) = (   3.2906075   1.4906267   6.0002472  )
         3           O1  tau(   3) = (   0.0006271   0.0005054   7.9858123  )
         4           O1  tau(   4) = (   3.2906025   0.0005020   7.3038282  )
         5           O1  tau(   5) = (   4.5942328   1.4918067   9.2879030  )
         6           O1  tau(   6) = (   1.9868534   1.4903216   9.2879459  )
         7           Ti1 tau(   7) = (   3.2907910   2.8959150   9.1758416  )
         8           Ti1 tau(   8) = (   0.0015273   1.4827037   9.2680791  )
         9           O1  tau(   9) = (   3.2947057   0.0061428  11.3716447  )
        10           O1  tau(  10) = (   0.0116148   5.9584955  10.6183126  )
        11           O1  tau(  11) = (   1.2915649   1.4936813  12.6925814  )
        12           O1  tau(  12) = (   5.2970661   1.4944705  12.6810846  )
        13           Ti1 tau(  13) = (   0.0178387   2.9746902  12.5081746  )
        14           Ti1 tau(  14) = (   3.3154821   1.4870708  12.5273966  )
        15           O1  tau(  15) = (   6.5751158   5.8850184  14.6937530  )
        16           O1  tau(  16) = (   3.3021755   5.9482827  13.9948957  )
        17           O1  tau(  17) = (   4.5403780   1.5298489  16.1548813  )
        18           O1  tau(  18) = (   2.0255877   1.5226301  16.1187562  )
        19           Ti1 tau(  19) = (   3.2919084   3.0021400  15.7465462  )
        20           Ti1 tau(  20) = (   0.0121818   1.3098915  15.8601907  )
        21           O1  tau(  21) = (   3.2904802   0.0005063   4.7018136  )
        22           O1  tau(  22) = (   6.5726150   0.1553292  17.2405045  )
        23           O1  tau(  23) = (   1.3043587   1.4918075   6.0039043  )
        24           O1  tau(  24) = (   5.2767064   1.4903225   6.0039473  )
        25           Ti1 tau(  25) = (   0.0000382   5.9609847   6.0000000  )
        26           Ti1 tau(  26) = (   3.2902200   4.4714249   6.0002472  )
        27           O1  tau(  27) = (   0.0002396   2.9813036   7.9858123  )
        28           O1  tau(  28) = (   3.2902150   2.9813002   7.3038282  )
        29           O1  tau(  29) = (   4.5938453   4.4726049   9.2879030  )
        30           O1  tau(  30) = (   1.9864658   4.4711199   9.2879459  )
        31           Ti1 tau(  31) = (   3.2891106   5.8743827   9.1763621  )
        32           Ti1 tau(  32) = (   0.0006254   4.4649316   9.2693709  )
        33           O1  tau(  33) = (   3.2927311   2.9710310  11.3658552  )
        34           O1  tau(  34) = (   0.0092240   2.9805883  10.6323155  )
        35           O1  tau(  35) = (   1.2954064   4.4636889  12.6531092  )
        36           O1  tau(  36) = (   5.2951753   4.4642890  12.6444158  )
        37           Ti1 tau(  37) = (   0.0208150   5.9452171  12.5004641  )
        38           Ti1 tau(  38) = (   3.3163264   4.4646888  12.5160798  )
        39           O1  tau(  39) = (   6.5606049   3.0383603  14.9590055  )
        40           O1  tau(  40) = (   3.3003749   3.0012653  13.9593002  )
        41           O1  tau(  41) = (   4.5325621   4.4784225  16.2386555  )
        42           O1  tau(  42) = (   2.0180351   4.4745910  16.2101397  )
        43           Ti1 tau(  43) = (   3.2993765   0.0184524  15.7908042  )
        44           Ti1 tau(  44) = (   0.0223033   4.5207704  16.0490861  )
        45           O1  tau(  45) = (   3.2900926   2.9813045   4.7018136  )
        46           O1  tau(  46) = (   1.3039711   4.4726057   6.0039043  )
        47           O1  tau(  47) = (   5.2763189   4.4711207   6.0039473  )
        48           N1  tau(  48) = (   6.4337409   3.4053151  18.1409392  )
        49           C1  tau(  49) = (   1.0285230   3.1522446  19.0018829  )
        50           H1  tau(  50) = (   0.7475518   3.0234394  20.0507379  )
        51           H1  tau(  51) = (   1.7227964   3.9744885  18.9089305  )
        52           H1  tau(  52) = (   5.9280473   4.2150708  18.4935385  )
        53           H1  tau(  53) = (   5.7900178   2.6175148  18.1880975  )
        54           H1  tau(  54) = (   1.5159085   2.2300880  18.6641165  )

     number of k points=    10  Fermi-Dirac smearing, width (Ry)=  0.0073
                       cart. coord. in units 2pi/alat
        k(    1) = (   0.0000000   0.0000000   0.0000000), wk =   0.1250000
        k(    2) = (   0.0000000   0.0419351   0.0000000), wk =   0.2500000
        k(    3) = (   0.0000000  -0.0838702   0.0000000), wk =   0.1250000
        k(    4) = (   0.0379955   0.0000049   0.0000000), wk =   0.2500000
        k(    5) = (   0.0379955   0.0419400   0.0000000), wk =   0.2500000
        k(    6) = (   0.0379955  -0.0838652   0.0000000), wk =   0.2500000
        k(    7) = (   0.0379955  -0.0419301   0.0000000), wk =   0.2500000
        k(    8) = (  -0.0759910  -0.0000099   0.0000000), wk =   0.1250000
        k(    9) = (  -0.0759910   0.0419252   0.0000000), wk =   0.2500000
        k(   10) = (  -0.0759910  -0.0838800   0.0000000), wk =   0.1250000

     Initial potential from superposition of free atoms

     starting charge  375.99915, renormalised to  392.00000

     negative rho (up, down):  1.645E-02 0.000E+00

     %%%%%%%%%%%%%%%%%%%%%%%%%%%%%%%%%%%%%%%%%%%%%%%%%%%%%%%%%%%%%%%%%%%%%%%%
     %                                                                      %
     % You are using vdW-DF, which was implemented by the Thonhauser group. %
     % Please cite the following two papers that made this development      %
     % possible and the two reviews that describe the various versions:     %
     %                                                                      %
     %   T. Thonhauser et al., PRL 115, 136402 (2015).                      %
     %   T. Thonhauser et al., PRB 76, 125112 (2007).                       %
     %   K. Berland et al., Rep. Prog. Phys. 78, 066501 (2015).             %
     %   D.C. Langreth et al., J. Phys.: Condens. Matter 21, 084203 (2009). %
     %                                                                      %
     %                                                                      %
     % If you are calculating the stress with vdW-DF, please also cite:     %
     %                                                                      %
     %   R. Sabatini et al., J. Phys.: Condens. Matter 24, 424209 (2012).   %
     %                                                                      %
     %%%%%%%%%%%%%%%%%%%%%%%%%%%%%%%%%%%%%%%%%%%%%%%%%%%%%%%%%%%%%%%%%%%%%%%%

     Adding external electric field

     Computed dipole along edir(3) :
        Dipole               -7.5123 Ry au,        -19.0944 Debye
        Dipole field         -0.0142 Ry au,

        Potential amp.        1.3142 Ry
        Total length         46.3494 bohr

     Starting wfcs are  297 atomic wfcs
  @ DRIVER MODE: Message from server: STATUS
  @ DRIVER MODE: Message from server: POSDATA
  @ DRIVER MODE: Reading and sharing cell
  @ DRIVER MODE: Reading and sharing positions
  @ DRIVER MODE: Received positions

     Self-consistent Calculation

     iteration #  1     ecut=    29.40 Ry     beta= 0.05
     Davidson diagonalization with overlap
     c_bands:  1 eigenvalues not converged
     c_bands:  1 eigenvalues not converged
     c_bands:  2 eigenvalues not converged
     c_bands:  1 eigenvalues not converged
     c_bands:  1 eigenvalues not converged
     c_bands:  1 eigenvalues not converged
     ethr =  1.00E-05,  avg # of iterations = 19.3

[...]

     total energy              =   -2681.19904525 Ry
     estimated scf accuracy    <    2661.10002990 Ry

[...]

     iteration #  3     ecut=    29.40 Ry     beta= 0.05
     Davidson diagonalization with overlap
     ethr =  1.00E-02,  avg # of iterations = 15.1

[...]

     iteration # 60     ecut=    29.40 Ry     beta= 0.05
     Davidson diagonalization with overlap
     c_bands:  1 eigenvalues not converged
     ethr =  2.23E-09,  avg # of iterations = 11.3

[...]

     total energy              =   -2921.63232765 Ry
     estimated scf accuracy    <       0.00000010 Ry

     iteration # 70     ecut=    29.40 Ry     beta= 0.05
     Davidson diagonalization with overlap
     ethr =  2.60E-11,  avg # of iterations =  3.6

     negative rho (up, down):  1.723E-02 0.000E+00

     Adding external electric field

     Computed dipole along edir(3) :
        Dipole                1.3065 Ry au,          3.3207 Debye
        Dipole field          0.0025 Ry au,

        Potential amp.       -0.2285 Ry
        Total length         46.3494 bohr

     End of self-consistent calculation

          k = 0.0000 0.0000 0.0000 ( 18029 PWs)   bands (ev):

   -55.4315 -55.3945 -55.3818 -55.3571 -55.3477 -55.3141 -55.3091 -55.2747
   -55.2483 -55.2315 -55.2139 -55.2128 -55.1792 -55.0998 -54.4099 -54.3759
   -32.0009 -31.8866 -31.8743 -31.7979 -31.7486 -31.7383 -31.7359 -31.7189
   -31.6738 -31.6706 -31.6418 -31.6396 -31.6266 -31.6197 -31.6016 -31.5947
   -31.5869 -31.5747 -31.5696 -31.5463 -31.5346 -31.5306 -31.5027 -31.4957
   -31.4868 -31.4790 -31.4748 -31.4509 -31.4397 -31.4392 -31.4314 -31.4125
   -31.4118 -31.4055 -31.3995 -31.3964 -31.3625 -31.3532 -31.3412 -31.3242
   -31.3056 -31.2957 -30.8193 -30.7252 -30.7032 -30.6357 -30.5489 -30.4380
   -16.2955 -16.1687 -15.9771 -15.8326 -15.7490 -15.6297 -15.5182 -15.5043
   -15.3638 -15.2821 -15.1663 -15.1415 -15.1123 -15.0900 -15.0819 -15.0646
   -14.9737 -14.9688 -14.9565 -14.9241 -14.9229 -14.8786 -14.8681 -14.8261
   -14.8049 -14.8025 -14.6827 -14.5891 -14.5171 -14.2879 -12.9126 -12.7952
   -10.2132  -6.3139  -4.8197  -3.9637  -3.6101  -3.4519  -3.3687  -3.3347
    -3.3223  -3.1906  -3.0534  -2.8985  -2.8517  -2.8192  -2.7232  -2.6467
    -2.6389  -2.6199  -2.4660  -2.4310  -2.3863  -2.3373  -2.2996  -2.2415
    -2.2209  -2.2124  -2.1999  -2.1831  -2.1743  -2.0567  -2.0004  -1.9166
    -1.8573  -1.8346  -1.7843  -1.7642  -1.7440  -1.7205  -1.7113  -1.6701
    -1.6452  -1.6250  -1.5714  -1.4603  -1.3565  -1.3061  -1.1869  -1.0662
    -1.0289  -1.0170  -0.9645  -0.9376  -0.9163  -0.8593  -0.8078  -0.7781
    -0.7228  -0.6631  -0.6018  -0.5521  -0.4790  -0.4753  -0.4167  -0.3676
    -0.2465  -0.2142  -0.1974  -0.1695  -0.0788  -0.0406   0.0030   0.0831
     0.0943   0.1137   0.2075   0.2180   0.2920   0.3404   0.3572   0.4506
     0.4853   0.4978   0.5023   0.5246   0.5544   0.6044   0.6463   0.6727
     0.7396   0.8660   1.0788   1.1594   1.1832   1.5093   1.5190   1.6127
     1.7965   2.1885   2.2367   3.6664   3.7370   3.8125   3.8191   3.8317
     3.9046   4.1391   4.1628   4.1705   4.1772   4.1980

[...]

          k = 0.0380-0.0419 0.0000 ( 17876 PWs)   bands (ev):

[...]

          k =-0.0760-0.0000 0.0000 ( 17886 PWs)   bands (ev):

[...]

          k =-0.0760-0.0839 0.0000 ( 17948 PWs)   bands (ev):

   -55.4174 -55.4084 -55.3648 -55.3645 -55.3556 -55.3105 -55.2931 -55.2906
   -55.2351 -55.2326 -55.2291 -55.1965 -55.1957 -55.1010 -54.3930 -54.3927
   -31.8080 -31.8041 -31.8008 -31.7183 -31.6924 -31.6895 -31.6893 -31.6559
   -31.6559 -31.6403 -31.6338 -31.6311 -31.6244 -31.6027 -31.5871 -31.5703
   -31.5662 -31.5639 -31.5620 -31.5571 -31.5569 -31.5540 -31.5111 -31.5090
   -31.5061 -31.5022 -31.4997 -31.4863 -31.4848 -31.4845 -31.4822 -31.4657
   -31.4623 -31.4463 -31.4426 -31.4288 -31.4258 -31.4233 -31.3775 -31.3774
   -31.3713 -31.3103 -30.7160 -30.7157 -30.6319 -30.6316 -30.5924 -30.5922
   -16.1422 -15.7824 -15.6958 -15.6400 -15.4645 -15.4367 -15.4225 -15.4029
   -15.2740 -15.2483 -15.2227 -15.2001 -15.1791 -15.1416 -15.1339 -15.1292
   -15.0512 -15.0381 -15.0325 -15.0178 -14.9486 -14.9395 -14.9357 -14.9295
   -14.8793 -14.8756 -14.8326 -14.7818 -14.7786 -14.5639 -12.8967 -12.8966
   -10.2165  -6.2844  -4.8160  -3.9274  -2.9657  -2.9315  -2.8963  -2.8923
    -2.6807  -2.6429  -2.6076  -2.5834  -2.4920  -2.4497  -2.4308  -2.4302
    -2.3558  -2.3353  -2.3247  -2.2723  -2.2674  -2.2555  -2.2319  -2.1998
    -2.1743  -2.1597  -2.1500  -2.1315  -2.0878  -2.0742  -2.0541  -2.0342
    -2.0281  -2.0152  -1.9864  -1.9469  -1.8158  -1.8046  -1.7442  -1.6366
    -1.6316  -1.5566  -1.5461  -1.5010  -1.4878  -1.4633  -1.4286  -1.2490
    -1.2068  -1.1761  -1.1666  -1.1117  -1.0357  -1.0190  -0.9567  -0.9351
    -0.9172  -0.8124  -0.7694  -0.7544  -0.6642  -0.6557  -0.5729  -0.5226
    -0.4627  -0.4367  -0.4014  -0.3864  -0.3843  -0.3364  -0.3307  -0.2469
    -0.2011  -0.1649  -0.1514  -0.1192   0.0798   0.0868   0.1090   0.2548
     0.2746   0.4098   0.4369   0.4884   0.5681   0.6012   0.6818   0.7146
     0.8440   0.8748   0.8773   0.9471   0.9614   1.0234   1.0339   1.9695
     1.9701   2.0566   2.0569   3.8171   3.9088   3.9289   3.9714   4.0845
     4.1588   4.1836   4.2053   4.2523   4.2554   4.3169

     the Fermi energy is     3.7302 ev

!    total energy              =   -2921.63234380 Ry
     estimated scf accuracy    <       0.00000007 Ry
     smearing contrib. (-TS)   =      -0.03702637 Ry
     internal energy E=F+TS    =   -2921.59531744 Ry

     The total energy is F=E-TS. E is the sum of the following terms:
     one-electron contribution =  -24082.19916032 Ry
     hartree contribution      =   12130.23334890 Ry
     xc contribution           =    -481.76126481 Ry
     ewald contribution        =    9512.12853779 Ry
     electric field correction =       0.00322101 Ry

     convergence has been achieved in  70 iterations

     Forces acting on atoms (cartesian axes, Ry/au):

     atom    1 type  1   force =     0.00005370   -0.00024310    0.09322186
     atom    2 type  1   force =    -0.00012544   -0.00044017   -0.17822897
     atom    3 type  2   force =     0.00002218   -0.00040617   -0.02021602
     atom    4 type  2   force =    -0.00001199   -0.00187678    0.05853607
     atom    5 type  2   force =    -0.00994776   -0.00082488    0.00751070
     atom    6 type  2   force =     0.01146700   -0.00026997    0.00680911
     atom    7 type  1   force =    -0.00038485    0.00195211   -0.01463328
     atom    8 type  1   force =     0.00010887   -0.00012140   -0.00502118
     atom    9 type  2   force =    -0.00011557   -0.00005871    0.00001225
     atom   10 type  2   force =    -0.00117872    0.00218742   -0.00032758
     atom   11 type  2   force =    -0.00002063   -0.00018782    0.00006391
     atom   12 type  2   force =     0.00059493   -0.00050580    0.00012471
     atom   13 type  1   force =    -0.00072241    0.00034103   -0.00036505
     atom   14 type  1   force =    -0.00000577   -0.00059303    0.00003776
     atom   15 type  2   force =     0.00003770   -0.00056188   -0.00038057
     atom   16 type  2   force =     0.00023764    0.00059778    0.00050217
     atom   17 type  2   force =     0.00008028   -0.00052058    0.00036323
     atom   18 type  2   force =     0.00017990   -0.00012957    0.00025880
     atom   19 type  1   force =     0.00004639   -0.00037557    0.00178050
     atom   20 type  1   force =    -0.00017215    0.00044326    0.00024684
     atom   21 type  2   force =     0.00001169   -0.00009570    0.10388062
     atom   22 type  2   force =     0.00019119   -0.00015024    0.00049683
     atom   23 type  2   force =    -0.07047404   -0.00019266   -0.02692420
     atom   24 type  2   force =     0.07029759    0.00025238   -0.02696567
     atom   25 type  1   force =    -0.00001331   -0.00016672    0.09274157
     atom   26 type  1   force =    -0.00020716   -0.00048798   -0.17824759
     atom   27 type  2   force =     0.00007540   -0.00024180   -0.01926429
     atom   28 type  2   force =     0.00001734   -0.00165714    0.05789273
     atom   29 type  2   force =    -0.01051668   -0.00098275    0.00820988
     atom   30 type  2   force =     0.01192089   -0.00053795    0.00743882
     atom   31 type  1   force =    -0.00034228    0.00605437   -0.01541600
     atom   32 type  1   force =     0.00011395   -0.00039260   -0.00544200
     atom   33 type  2   force =     0.00031001   -0.00010066   -0.00031241
     atom   34 type  2   force =    -0.00063415   -0.00204495   -0.00050393
     atom   35 type  2   force =    -0.00040445   -0.00002463    0.00023701
     atom   36 type  2   force =     0.00067355   -0.00007416   -0.00004120
     atom   37 type  1   force =    -0.00035898   -0.00023697    0.00025254
     atom   38 type  1   force =     0.00002435    0.00041299   -0.00003895
     atom   39 type  2   force =     0.00022463   -0.00008821    0.00021844
     atom   40 type  2   force =     0.00017378    0.00026383    0.00010437
     atom   41 type  2   force =    -0.00047035    0.00025950   -0.00011731
     atom   42 type  2   force =     0.00046702    0.00084240   -0.00008456
     atom   43 type  1   force =     0.00044813    0.00064448    0.00024542
     atom   44 type  1   force =     0.00043304    0.00052692    0.00022860
     atom   45 type  2   force =     0.00001849   -0.00009706    0.10382934
     atom   46 type  2   force =    -0.07044687   -0.00012085   -0.02686519
     atom   47 type  2   force =     0.07027940    0.00030681   -0.02691918
     atom   48 type  3   force =    -0.00073796    0.00223584    0.00025879
     atom   49 type  4   force =    -0.00040376   -0.02271295   -0.00066036
     atom   50 type  5   force =    -0.00018176    0.00219449   -0.00045467
     atom   51 type  5   force =     0.00450897    0.00810820   -0.00091434
     atom   52 type  5   force =    -0.00180515   -0.00032843   -0.00065634
     atom   53 type  5   force =     0.00002013    0.00020352    0.00048691
     atom   54 type  5   force =    -0.00335596    0.01002249    0.00301105

     Total force =     0.367007     Total SCF correction =     0.000924
  @ DRIVER MODE: Message from server: STATUS
  @ DRIVER MODE: Message from server: GETFORCE
  @ DRIVER MODE: Returning v,forces,stress,ensemble

     Writing output data file ./calc.save/
  @ DRIVER MODE: Message from server: EXIT
  @ DRIVE MODE: Exiting

     General routines

     Parallel routines

   This run was terminated on:  14: 8:44  24Aug2021

   JOB DONE.