     Program PWSCF v.6.7GPU starts on 22Sep2021 at 19:41:43

     R & G space division:  proc/nbgrp/npool/nimage =      10
     Reading input from /storage/home/hcoda1/3/ntian30/research/carbon/CxH_vib/CH_calc/ads_slab/CHN2OH_a/out_0027/pw.inp
Warning: card &CELL ignored
Warning: card   CELL_DYNAMICS='IPI', ignored
Warning: card / ignored

     Current dimensions of program PWSCF are:
     Max number of different atomic species (ntypx) = 10
     Max number of k-points (npk) =  40000
     Max angular momentum in pseudopotentials (lmaxx) =  3
     Presently no symmetry can be used with electric field

     Message from routine cell_base_init:
     DEPRECATED: use true lattice parameter, not A to a.u. conversion factor

     IMPORTANT: XC functional enforced from input :
     Exchange-correlation= BEEF-VDW
                           (   1   4  43  14   2   0   0)
     Any further DFT definition will be discarded
     Please, verify this is what you really want

  @ DRIVER MODE: Connecting to
 qe_1139763_2934093.sched-torque.pace.gatech.eduwj48ul4u_scratch
  using UNIX socket
  @ DRIVER MODE: Message from server: STATUS
  @ DRIVER MODE: Message from server: INIT
  @ DRIVER MODE: Receiving replica           0          -1
  @ DRIVER MODE: Receiving encoded integer          25
  @ DRIVER MODE:  SCF:  T  FORCE:  T  STRESS:  F  VC:  F  ENSEMBLE:  F
  @ DRIVER MODE:  SCF:  T  FORCE:  T  STRESS:  F  VC:  F  ENSEMBLE:  F

     Using Slab Decomposition

     bravais-lattice index     =            0
     lattice parameter (alat)  =       1.8897  a.u.
     unit-cell volume          =    6658.9804 (a.u.)^3
     number of atoms/cell      =           53
     number of atomic types    =            5
     number of electrons       =       400.00
     number of Kohn-Sham states=          210
     kinetic-energy cutoff     =      29.3995  Ry
     charge density cutoff     =     293.9946  Ry
     scf convergence threshold =      7.3E-08
     mixing beta               =       0.0500
     number of iterations used =            8  plain     mixing
     Exchange-correlation= BEEF-VDW
                           (   1   4  43  14   2   0   0)

     celldm(1)=   1.889726  celldm(2)=   0.000000  celldm(3)=   0.000000
     celldm(4)=   0.000000  celldm(5)=   0.000000  celldm(6)=   0.000000

     crystal axes: (cart. coord. in units of alat)
               a(1) = (   6.579727   0.000000   0.000000 )
               a(2) = (  -0.000775   5.961596   0.000000 )
               a(3) = (   0.000000   0.000000  25.155947 )

     reciprocal axes: (cart. coord. in units 2 pi/alat)
               b(1) = (  0.151982  0.000020  0.000000 )
               b(2) = (  0.000000  0.167740  0.000000 )
               b(3) = (  0.000000  0.000000  0.039752 )

     PseudoPot. # 1 for Ti read from file:
     /storage/coda1/p-amedford6/0/shared/rich_project_chbe-medford/medford-share/data/pseudos_module/espresso/nninc/pbe/van/Ti.UPF
     MD5 check sum: 8e4df49b7f0d34bbd5052bf3f5ea0213
     Pseudo is Ultrasoft, Zval = 12.0
     Generated by new atomic code, or converted to UPF format
     Using radial grid of  851 points,  6 beta functions with:
                l(1) =   0
                l(2) =   0
                l(3) =   1
                l(4) =   1
                l(5) =   2
                l(6) =   2
     Q(r) pseudized with  8 coefficients,  rinner =    1.000   1.000   1.000
                                                       1.000   1.000

     PseudoPot. # 2 for O  read from file:
     /storage/coda1/p-amedford6/0/shared/rich_project_chbe-medford/medford-share/data/pseudos_module/espresso/nninc/pbe/van/O.UPF
     MD5 check sum: 78c19812648e8988a0fe644b0f25305e
     Pseudo is Ultrasoft, Zval =  6.0
     Generated by new atomic code, or converted to UPF format
     Using radial grid of  737 points,  4 beta functions with:
                l(1) =   0
                l(2) =   0
                l(3) =   1
                l(4) =   1
     Q(r) pseudized with  8 coefficients,  rinner =    0.800   0.800   0.800

     PseudoPot. # 3 for N  read from file:
     /storage/coda1/p-amedford6/0/shared/rich_project_chbe-medford/medford-share/data/pseudos_module/espresso/nninc/pbe/van/N.UPF
     MD5 check sum: 90d10febe142ad51ac9d5be1deb811c4
     Pseudo is Ultrasoft, Zval =  5.0
     Generated by new atomic code, or converted to UPF format
     Using radial grid of  729 points,  4 beta functions with:
                l(1) =   0
                l(2) =   0
                l(3) =   1
                l(4) =   1
     Q(r) pseudized with  8 coefficients,  rinner =    0.800   0.800   0.800

     PseudoPot. # 4 for C  read from file:
     /storage/coda1/p-amedford6/0/shared/rich_project_chbe-medford/medford-share/data/pseudos_module/espresso/nninc/pbe/van/C.UPF
     MD5 check sum: 1a69bf6b8db32088f5b2163dbdb77a27
     Pseudo is Ultrasoft, Zval =  4.0
     Generated by new atomic code, or converted to UPF format
     Using radial grid of  721 points,  4 beta functions with:
                l(1) =   0
                l(2) =   0
                l(3) =   1
                l(4) =   1
     Q(r) pseudized with  8 coefficients,  rinner =    0.800   0.800   0.800

     PseudoPot. # 5 for H  read from file:
     /storage/coda1/p-amedford6/0/shared/rich_project_chbe-medford/medford-share/data/pseudos_module/espresso/nninc/pbe/van/H.UPF
     MD5 check sum: b5ee9d7bfd3a09ee7748110bda690ff7
     Pseudo is Ultrasoft, Zval =  1.0
     Generated by new atomic code, or converted to UPF format
     Using radial grid of  615 points,  1 beta functions with:
                l(1) =   0
     Q(r) pseudized with  8 coefficients,  rinner =    0.800

     atomic species   valence    mass     pseudopotential
        Ti1           12.00    47.86700     Ti( 1.00)
        O1             6.00    15.99900     O ( 1.00)
        N1             5.00    14.00700     N ( 1.00)
        C1             4.00    12.01100     C ( 1.00)
        H1             1.00     1.00800     H ( 1.00)

     No symmetry found

   Cartesian axes

     site n.     atom                  positions (alat units)
         1           Ti1 tau(   1) = (   0.0004258   2.9801865   6.0000000  )
         2           Ti1 tau(   2) = (   3.2906075   1.4906267   6.0002472  )
         3           O1  tau(   3) = (   0.0006271   0.0005054   7.9858123  )
         4           O1  tau(   4) = (   3.2906025   0.0005020   7.3038282  )
         5           O1  tau(   5) = (   4.5942328   1.4918067   9.2879030  )
         6           O1  tau(   6) = (   1.9868534   1.4903216   9.2879459  )
         7           Ti1 tau(   7) = (   3.2907910   2.8959150   9.1758416  )
         8           Ti1 tau(   8) = (   0.0015273   1.4827037   9.2680791  )
         9           O1  tau(   9) = (   3.2947431   5.9554071  11.2675382  )
        10           O1  tau(  10) = (   0.0116148   5.9584955  10.6183126  )
        11           O1  tau(  11) = (   1.2939190   1.5012022  12.6324650  )
        12           O1  tau(  12) = (   5.3075194   1.4952059  12.6199201  )
        13           Ti1 tau(  13) = (   0.0106221   2.8553259  12.7114016  )
        14           Ti1 tau(  14) = (   3.3038960   1.3182849  12.6556579  )
        15           O1  tau(  15) = (   6.5780848   0.0092190  14.6493773  )
        16           O1  tau(  16) = (   3.3025004   0.0387551  13.8658611  )
        17           O1  tau(  17) = (   4.5583283   1.5306594  16.0644060  )
        18           O1  tau(  18) = (   2.0361898   1.5392772  16.0217891  )
        19           Ti1 tau(  19) = (   3.3091865   3.0111069  15.6373089  )
        20           Ti1 tau(  20) = (   0.0377650   1.3505479  16.0707495  )
        21           O1  tau(  21) = (   3.2904802   0.0005063   4.7018136  )
        22           O1  tau(  22) = (   0.0439016   5.9493915  17.1867805  )
        23           O1  tau(  23) = (   1.3043587   1.4918075   6.0039043  )
        24           O1  tau(  24) = (   5.2767064   1.4903225   6.0039473  )
        25           Ti1 tau(  25) = (   0.0000382   5.9609847   6.0000000  )
        26           Ti1 tau(  26) = (   3.2902200   4.4714249   6.0002472  )
        27           O1  tau(  27) = (   0.0002396   2.9813036   7.9858123  )
        28           O1  tau(  28) = (   3.2902150   2.9813002   7.3038282  )
        29           O1  tau(  29) = (   4.5938453   4.4726049   9.2879030  )
        30           O1  tau(  30) = (   1.9864658   4.4711199   9.2879459  )
        31           Ti1 tau(  31) = (   3.2891106   5.8743827   9.1763621  )
        32           Ti1 tau(  32) = (   0.0006254   4.4649316   9.2693709  )
        33           O1  tau(  33) = (   3.2958776   3.0336607  11.2353185  )
        34           O1  tau(  34) = (   0.0092240   2.9805883  10.6323155  )
        35           O1  tau(  35) = (   1.3000586   4.4853303  12.6229424  )
        36           O1  tau(  36) = (   5.2993189   4.4901910  12.6110906  )
        37           Ti1 tau(  37) = (   0.0093010   5.8444503  12.6145921  )
        38           Ti1 tau(  38) = (   3.2999333   4.4129019  12.4053696  )
        39           O1  tau(  39) = (   6.5685983   3.0141634  14.6646344  )
        40           O1  tau(  40) = (   3.3157979   2.9893391  13.8470085  )
        41           O1  tau(  41) = (   4.5469136   4.4558096  16.0384726  )
        42           O1  tau(  42) = (   2.0285042   4.4377151  15.9822253  )
        43           Ti1 tau(  43) = (   3.3362675   0.0317196  16.2890182  )
        44           Ti1 tau(  44) = (   0.0499865   4.4862307  15.8577502  )
        45           O1  tau(  45) = (   3.2900926   2.9813045   4.7018136  )
        46           O1  tau(  46) = (   1.3039711   4.4726057   6.0039043  )
        47           O1  tau(  47) = (   5.2763189   4.4711207   6.0039473  )
        48           N1  tau(  48) = (   0.0045878   3.1533891  18.5964175  )
        49           N1  tau(  49) = (   0.0147781   3.0160983  17.3860304  )
        50           C1  tau(  50) = (   0.1535999   3.3096653  19.7680592  )
        51           H1  tau(  51) = (   6.1193577   3.4501394  20.6313668  )
        52           O1  tau(  52) = (   3.1701150   5.9496689  18.1025665  )
        53           H1  tau(  53) = (   2.2867615   0.0439400  18.5018857  )

     number of k points=    10  Fermi-Dirac smearing, width (Ry)=  0.0073
                       cart. coord. in units 2pi/alat
        k(    1) = (   0.0000000   0.0000000   0.0000000), wk =   0.1250000
        k(    2) = (   0.0000000   0.0419351   0.0000000), wk =   0.2500000
        k(    3) = (   0.0000000  -0.0838702   0.0000000), wk =   0.1250000
        k(    4) = (   0.0379955   0.0000049   0.0000000), wk =   0.2500000
        k(    5) = (   0.0379955   0.0419400   0.0000000), wk =   0.2500000
        k(    6) = (   0.0379955  -0.0838652   0.0000000), wk =   0.2500000
        k(    7) = (   0.0379955  -0.0419301   0.0000000), wk =   0.2500000
        k(    8) = (  -0.0759910  -0.0000099   0.0000000), wk =   0.1250000
        k(    9) = (  -0.0759910   0.0419252   0.0000000), wk =   0.2500000
        k(   10) = (  -0.0759910  -0.0838800   0.0000000), wk =   0.1250000

     Initial potential from superposition of free atoms

     starting charge  383.99917, renormalised to  400.00000

     negative rho (up, down):  1.461E-02 0.000E+00

     %%%%%%%%%%%%%%%%%%%%%%%%%%%%%%%%%%%%%%%%%%%%%%%%%%%%%%%%%%%%%%%%%%%%%%%%
     %                                                                      %
     % You are using vdW-DF, which was implemented by the Thonhauser group. %
     % Please cite the following two papers that made this development      %
     % possible and the two reviews that describe the various versions:     %
     %                                                                      %
     %   T. Thonhauser et al., PRL 115, 136402 (2015).                      %
     %   T. Thonhauser et al., PRB 76, 125112 (2007).                       %
     %   K. Berland et al., Rep. Prog. Phys. 78, 066501 (2015).             %
     %   D.C. Langreth et al., J. Phys.: Condens. Matter 21, 084203 (2009). %
     %                                                                      %
     %                                                                      %
     % If you are calculating the stress with vdW-DF, please also cite:     %
     %                                                                      %
     %   R. Sabatini et al., J. Phys.: Condens. Matter 24, 424209 (2012).   %
     %                                                                      %
     %%%%%%%%%%%%%%%%%%%%%%%%%%%%%%%%%%%%%%%%%%%%%%%%%%%%%%%%%%%%%%%%%%%%%%%%

     Adding external electric field

     Computed dipole along edir(3) :
        Dipole              -10.4151 Ry au,        -26.4725 Debye
        Dipole field         -0.0197 Ry au,

        Potential amp.        1.8220 Ry
        Total length         46.3494 bohr

     Starting wfcs are  302 atomic wfcs
  @ DRIVER MODE: Message from server: STATUS
  @ DRIVER MODE: Message from server: POSDATA
  @ DRIVER MODE: Reading and sharing cell
  @ DRIVER MODE: Reading and sharing positions
  @ DRIVER MODE: Received positions

     Self-consistent Calculation

     iteration #  1     ecut=    29.40 Ry     beta= 0.05
     Davidson diagonalization with overlap
     c_bands:  1 eigenvalues not converged
     c_bands:  1 eigenvalues not converged
     c_bands:  1 eigenvalues not converged
     c_bands:  1 eigenvalues not converged
     c_bands:  3 eigenvalues not converged
     c_bands:  2 eigenvalues not converged
     c_bands:  3 eigenvalues not converged
     c_bands:  2 eigenvalues not converged
     c_bands:  4 eigenvalues not converged
     c_bands:  2 eigenvalues not converged
     ethr =  1.00E-05,  avg # of iterations = 20.0

[...]

     total energy              =   -2482.22167183 Ry
     estimated scf accuracy    <    5431.16807878 Ry

     iteration #  2     ecut=    29.40 Ry     beta= 0.05
     Davidson diagonalization with overlap
     ethr =  1.00E-02,  avg # of iterations = 22.5

[...]

     iteration # 42     ecut=    29.40 Ry     beta= 0.05
     Davidson diagonalization with overlap
     c_bands:  2 eigenvalues not converged
     ethr =  7.91E-06,  avg # of iterations =  5.0

[...]

     total energy              =   -2970.22403014 Ry
     estimated scf accuracy    <       0.00000011 Ry

     iteration # 69     ecut=    29.40 Ry     beta= 0.05
     Davidson diagonalization with overlap
     ethr =  2.66E-11,  avg # of iterations =  6.0

     negative rho (up, down):  1.522E-02 0.000E+00

     Adding external electric field

     Computed dipole along edir(3) :
        Dipole                0.3084 Ry au,          0.7838 Debye
        Dipole field          0.0006 Ry au,

        Potential amp.       -0.0539 Ry
        Total length         46.3494 bohr

     End of self-consistent calculation

          k = 0.0000 0.0000 0.0000 ( 18029 PWs)   bands (ev):

   -56.8426 -56.8091 -56.0021 -55.9669 -55.7425 -55.6781 -55.4117 -55.3875
   -55.3778 -55.3722 -55.3075 -55.2555 -55.2529 -55.2436 -55.0625 -55.0557
   -33.2641 -33.1180 -33.0900 -33.0183 -32.9279 -32.8909 -32.4864 -32.2227
   -32.2204 -32.1920 -32.1430 -32.1410 -32.1123 -31.9741 -31.9620 -31.9096
   -31.8831 -31.8682 -31.8424 -31.7929 -31.7579 -31.7415 -31.7361 -31.7335
   -31.7201 -31.6551 -31.6508 -31.6215 -31.6167 -31.6066 -31.5983 -31.5361
   -31.5242 -31.5062 -31.5041 -31.4793 -31.4752 -31.4579 -31.4463 -31.4244
   -31.4179 -31.3980 -31.3229 -31.3061 -31.3057 -31.2739 -31.2716 -31.2605
   -19.0031 -16.9638 -16.4397 -16.1821 -16.1704 -16.0774 -16.0480 -16.0364
   -15.9557 -15.7615 -15.6994 -15.6275 -15.6064 -15.5118 -15.3869 -15.2904
   -15.1613 -15.0861 -15.0225 -15.0130 -15.0030 -14.9829 -14.8690 -14.8653
   -14.8606 -14.8176 -14.7717 -14.6134 -14.5263 -14.3652 -14.3313 -13.9093
   -13.8019 -13.6277  -6.2848  -5.0474  -4.5332  -3.9456  -3.9122  -3.8412
    -3.7389  -3.5747  -3.5685  -3.4397  -3.3729  -3.2493  -3.2386  -3.2226
    -3.1554  -3.1369  -2.9903  -2.9415  -2.9260  -2.8212  -2.7904  -2.6371
    -2.6109  -2.5161  -2.4670  -2.4328  -2.3769  -2.3505  -2.2754  -2.2686
    -2.2496  -2.1624  -2.1619  -2.1296  -2.0503  -2.0382  -1.9692  -1.9215
    -1.8825  -1.8240  -1.7992  -1.7250  -1.7213  -1.6001  -1.5183  -1.4769
    -1.4336  -1.4244  -1.3641  -1.3089  -1.1991  -1.1729  -1.0832  -1.0380
    -1.0252  -0.9744  -0.8862  -0.8574  -0.7887  -0.7167  -0.6986  -0.6135
    -0.5839  -0.5603  -0.4541  -0.4350  -0.3803  -0.3546  -0.3236  -0.3110
    -0.2342  -0.1170  -0.1026  -0.0375   0.0111   0.0398   0.1322   0.2242
     0.2711   0.3217   0.3504   0.3690   0.4455   0.4734   0.4955   0.5468
     0.5759   0.6098   0.6152   0.7189   0.7500   0.8134   0.8717   0.8918
     1.0004   1.0376   1.0967   1.1468   1.1877   1.5302   1.6338   1.8774
     2.4450   2.6115   2.8875   3.0201   3.3448   3.4316   3.4399   3.4458
     3.6833   3.8203

[...]

          k = 0.0380-0.0419 0.0000 ( 17876 PWs)   bands (ev):

[...]

          k =-0.0760-0.0000 0.0000 ( 17886 PWs)   bands (ev):

[...]

          k =-0.0760-0.0839 0.0000 ( 17948 PWs)   bands (ev):

   -56.8264 -56.8252 -55.9897 -55.9791 -55.7376 -55.6828 -55.3953 -55.3941
   -55.3835 -55.3707 -55.3112 -55.2540 -55.2512 -55.2451 -55.0638 -55.0570
   -33.1043 -33.1032 -33.0819 -33.0806 -32.9721 -32.9713 -32.3111 -32.3026
   -32.1847 -32.1726 -32.1697 -32.1628 -32.0448 -32.0011 -31.9675 -31.9582
   -31.9106 -31.9054 -31.7469 -31.7461 -31.7150 -31.6628 -31.6594 -31.6515
   -31.6433 -31.6307 -31.6160 -31.6144 -31.6098 -31.6024 -31.5885 -31.5775
   -31.5767 -31.5758 -31.5470 -31.5216 -31.5072 -31.4954 -31.4608 -31.4537
   -31.4494 -31.4427 -31.4113 -31.3795 -31.3276 -31.2954 -31.2755 -31.2631
   -19.0005 -16.3299 -16.3273 -16.2719 -16.2703 -16.1619 -16.0307 -16.0250
   -15.7771 -15.7473 -15.5523 -15.5119 -15.4627 -15.4091 -15.3710 -15.3685
   -15.2302 -15.2188 -15.1148 -15.0358 -15.0145 -14.9820 -14.9709 -14.9492
   -14.9438 -14.8723 -14.7872 -14.7249 -14.7109 -14.5433 -14.4648 -13.9064
   -13.9057 -13.6322  -6.2835  -5.0155  -3.9468  -3.7674  -3.5983  -3.3950
    -3.3927  -3.3877  -3.3798  -3.1508  -3.1403  -2.9664  -2.9600  -2.9341
    -2.8732  -2.8615  -2.7551  -2.6868  -2.6815  -2.6722  -2.6472  -2.6211
    -2.6154  -2.5517  -2.4951  -2.3877  -2.3643  -2.3293  -2.3090  -2.2949
    -2.1757  -2.1488  -2.1378  -2.1086  -2.0933  -2.0806  -2.0444  -2.0195
    -1.8660  -1.8273  -1.7192  -1.7046  -1.6843  -1.6409  -1.6236  -1.6027
    -1.5764  -1.5418  -1.5375  -1.4510  -1.4273  -1.3703  -1.2874  -1.2098
    -1.1615  -1.1489  -1.0872  -1.0360  -0.9256  -0.9013  -0.8659  -0.8458
    -0.8176  -0.7589  -0.7288  -0.6233  -0.5382  -0.5069  -0.4862  -0.4812
    -0.4458  -0.4128  -0.3904  -0.2760  -0.2639  -0.2486  -0.1502  -0.0552
     0.0286   0.0887   0.1042   0.1826   0.2770   0.3232   0.3882   0.4551
     0.4927   0.5092   0.6814   0.7309   0.8533   0.8786   0.9097   0.9717
     0.9862   0.9907   1.0129   1.0218   1.0510   1.1300   1.5532   1.7928
     3.0322   3.0351   3.0913   3.0974   3.4011   3.4045   3.5098   3.5124
     3.7947   3.8062

     the Fermi energy is     2.2210 ev

!    total energy              =   -2970.22406035 Ry
     estimated scf accuracy    <       0.00000006 Ry
     smearing contrib. (-TS)   =      -0.00328105 Ry
     internal energy E=F+TS    =   -2970.22077929 Ry

     The total energy is F=E-TS. E is the sum of the following terms:
     one-electron contribution =  -23874.89093767 Ry
     hartree contribution      =   12028.61749783 Ry
     xc contribution           =    -491.45875743 Ry
     ewald contribution        =    9367.51123852 Ry
     electric field correction =       0.00017946 Ry

     convergence has been achieved in  69 iterations

     Forces acting on atoms (cartesian axes, Ry/au):

     atom    1 type  1   force =     0.00006223   -0.00042216    0.12340961
     atom    2 type  1   force =    -0.00004281    0.00025231   -0.15537593
     atom    3 type  2   force =     0.00000951   -0.00007088   -0.06315633
     atom    4 type  2   force =     0.00000871    0.00024103    0.01793671
     atom    5 type  2   force =    -0.00300788   -0.00167623   -0.01288676
     atom    6 type  2   force =     0.00468897   -0.00105563   -0.01335967
     atom    7 type  1   force =    -0.00007185   -0.00670461    0.05746406
     atom    8 type  1   force =     0.00033147    0.01202035    0.09290613
     atom    9 type  2   force =    -0.00005452   -0.00007971   -0.00011687
     atom   10 type  2   force =    -0.00146673    0.00206226   -0.05861835
     atom   11 type  2   force =    -0.00001852    0.00037248   -0.00011033
     atom   12 type  2   force =    -0.00007534    0.00059281   -0.00005198
     atom   13 type  1   force =    -0.00017635    0.00092687   -0.00019816
     atom   14 type  1   force =    -0.00006358    0.00064593   -0.00044480
     atom   15 type  2   force =     0.00001053   -0.00060864   -0.00054899
     atom   16 type  2   force =    -0.00013333    0.00008214   -0.00107061
     atom   17 type  2   force =    -0.00009640   -0.00047216   -0.00012063
     atom   18 type  2   force =     0.00019295    0.00013656   -0.00002631
     atom   19 type  1   force =     0.00038704    0.00006816    0.00116270
     atom   20 type  1   force =    -0.00055740    0.00067747    0.00030314
     atom   21 type  2   force =     0.00003363    0.00021391    0.09798243
     atom   22 type  2   force =     0.00042144   -0.00003460    0.00084379
     atom   23 type  2   force =    -0.08220751    0.00004169   -0.03274822
     atom   24 type  2   force =     0.08209058    0.00048074   -0.03282364
     atom   25 type  1   force =     0.00009459   -0.00060231    0.12342622
     atom   26 type  1   force =    -0.00015520   -0.00150665   -0.15594307
     atom   27 type  2   force =     0.00006917   -0.00069318   -0.06137773
     atom   28 type  2   force =     0.00001927    0.00205535    0.01320009
     atom   29 type  2   force =    -0.00129038    0.00547215   -0.01606121
     atom   30 type  2   force =     0.00295945    0.00580387   -0.01650787
     atom   31 type  1   force =    -0.00011300    0.00211971    0.04130700
     atom   32 type  1   force =     0.00052997   -0.01544771    0.09259407
     atom   33 type  2   force =    -0.00021148   -0.00072574   -0.00055949
     atom   34 type  2   force =    -0.00141105    0.00202893   -0.07248411
     atom   35 type  2   force =     0.00019222   -0.00080750    0.00004312
     atom   36 type  2   force =    -0.00023696   -0.00091909    0.00009592
     atom   37 type  1   force =    -0.00023257   -0.00112552   -0.00027450
     atom   38 type  1   force =    -0.00008410   -0.00149685    0.00068327
     atom   39 type  2   force =     0.00035029   -0.00052660    0.00002281
     atom   40 type  2   force =    -0.00003721   -0.00069898   -0.00128319
     atom   41 type  2   force =     0.00033116    0.00028983   -0.00005468
     atom   42 type  2   force =    -0.00023790    0.00007893    0.00022645
     atom   43 type  1   force =    -0.00016869   -0.00069906    0.00086371
     atom   44 type  1   force =    -0.00009913    0.00016988   -0.00079334
     atom   45 type  2   force =     0.00002552    0.00002463    0.09775388
     atom   46 type  2   force =    -0.08227537   -0.00001236   -0.03278269
     atom   47 type  2   force =     0.08212713    0.00043602   -0.03279691
     atom   48 type  3   force =    -0.00045746   -0.00048612    0.00034636
     atom   49 type  3   force =     0.00033088    0.00052670    0.00046718
     atom   50 type  4   force =     0.00110989    0.00018538   -0.00134423
     atom   51 type  5   force =    -0.00121204   -0.00052909    0.00105242
     atom   52 type  2   force =    -0.00126144    0.00050020    0.00010595
     atom   53 type  5   force =     0.00107958   -0.00110494   -0.00027641

     Total force =     0.412329     Total SCF correction =     0.000607
  @ DRIVER MODE: Message from server: STATUS
  @ DRIVER MODE: Message from server: GETFORCE
  @ DRIVER MODE: Returning v,forces,stress,ensemble

     Writing output data file ./calc.save/
  @ DRIVER MODE: Message from server: EXIT
  @ DRIVE MODE: Exiting

     General routines

     Parallel routines

   This run was terminated on:  20: 1:45  22Sep2021

   JOB DONE.