     Program PWSCF v.6.7GPU starts on 26Sep2021 at  6:14:51

     R & G space division:  proc/nbgrp/npool/nimage =       8
     Reading input from /storage/home/hcoda1/3/ntian30/research/carbon/CxH_vib/H2O_calc/ads_slab/CH3ON2H2O_a/out_0031/pw.inp
Warning: card &CELL ignored
Warning: card   CELL_DYNAMICS='IPI', ignored
Warning: card / ignored

     Current dimensions of program PWSCF are:
     Max number of different atomic species (ntypx) = 10
     Max number of k-points (npk) =  40000
     Max angular momentum in pseudopotentials (lmaxx) =  3
     Presently no symmetry can be used with electric field

     Message from routine cell_base_init:
     DEPRECATED: use true lattice parameter, not A to a.u. conversion factor

     IMPORTANT: XC functional enforced from input :
     Exchange-correlation= BEEF-VDW
                           (   1   4  43  14   2   0   0)
     Any further DFT definition will be discarded
     Please, verify this is what you really want

  @ DRIVER MODE: Connecting to
 qe_1139763_2971672.sched-torque.pace.gatech.edu1iy7qgk9_scratch
  using UNIX socket
  @ DRIVER MODE: Message from server: STATUS
  @ DRIVER MODE: Message from server: INIT
  @ DRIVER MODE: Receiving replica           0          -1
  @ DRIVER MODE: Receiving encoded integer          25
  @ DRIVER MODE:  SCF:  T  FORCE:  T  STRESS:  F  VC:  F  ENSEMBLE:  F
  @ DRIVER MODE:  SCF:  T  FORCE:  T  STRESS:  F  VC:  F  ENSEMBLE:  F

     Using Slab Decomposition

     bravais-lattice index     =            0
     lattice parameter (alat)  =       1.8897  a.u.
     unit-cell volume          =    6658.9804 (a.u.)^3
     number of atoms/cell      =           57
     number of atomic types    =            5
     number of electrons       =       409.00
     number of Kohn-Sham states=          214
     kinetic-energy cutoff     =      29.3995  Ry
     charge density cutoff     =     293.9946  Ry
     scf convergence threshold =      7.3E-08
     mixing beta               =       0.0500
     number of iterations used =            8  plain     mixing
     Exchange-correlation= BEEF-VDW
                           (   1   4  43  14   2   0   0)

     celldm(1)=   1.889726  celldm(2)=   0.000000  celldm(3)=   0.000000
     celldm(4)=   0.000000  celldm(5)=   0.000000  celldm(6)=   0.000000

     crystal axes: (cart. coord. in units of alat)
               a(1) = (   6.579727   0.000000   0.000000 )
               a(2) = (  -0.000775   5.961596   0.000000 )
               a(3) = (   0.000000   0.000000  25.155947 )

     reciprocal axes: (cart. coord. in units 2 pi/alat)
               b(1) = (  0.151982  0.000020  0.000000 )
               b(2) = (  0.000000  0.167740  0.000000 )
               b(3) = (  0.000000  0.000000  0.039752 )

     PseudoPot. # 1 for Ti read from file:
     /storage/coda1/p-amedford6/0/shared/rich_project_chbe-medford/medford-share/data/pseudos_module/espresso/nninc/pbe/van/Ti.UPF
     MD5 check sum: 8e4df49b7f0d34bbd5052bf3f5ea0213
     Pseudo is Ultrasoft, Zval = 12.0
     Generated by new atomic code, or converted to UPF format
     Using radial grid of  851 points,  6 beta functions with:
                l(1) =   0
                l(2) =   0
                l(3) =   1
                l(4) =   1
                l(5) =   2
                l(6) =   2
     Q(r) pseudized with  8 coefficients,  rinner =    1.000   1.000   1.000
                                                       1.000   1.000

     PseudoPot. # 2 for O  read from file:
     /storage/coda1/p-amedford6/0/shared/rich_project_chbe-medford/medford-share/data/pseudos_module/espresso/nninc/pbe/van/O.UPF
     MD5 check sum: 78c19812648e8988a0fe644b0f25305e
     Pseudo is Ultrasoft, Zval =  6.0
     Generated by new atomic code, or converted to UPF format
     Using radial grid of  737 points,  4 beta functions with:
                l(1) =   0
                l(2) =   0
                l(3) =   1
                l(4) =   1
     Q(r) pseudized with  8 coefficients,  rinner =    0.800   0.800   0.800

     PseudoPot. # 3 for C  read from file:
     /storage/coda1/p-amedford6/0/shared/rich_project_chbe-medford/medford-share/data/pseudos_module/espresso/nninc/pbe/van/C.UPF
     MD5 check sum: 1a69bf6b8db32088f5b2163dbdb77a27
     Pseudo is Ultrasoft, Zval =  4.0
     Generated by new atomic code, or converted to UPF format
     Using radial grid of  721 points,  4 beta functions with:
                l(1) =   0
                l(2) =   0
                l(3) =   1
                l(4) =   1
     Q(r) pseudized with  8 coefficients,  rinner =    0.800   0.800   0.800

     PseudoPot. # 4 for H  read from file:
     /storage/coda1/p-amedford6/0/shared/rich_project_chbe-medford/medford-share/data/pseudos_module/espresso/nninc/pbe/van/H.UPF
     MD5 check sum: b5ee9d7bfd3a09ee7748110bda690ff7
     Pseudo is Ultrasoft, Zval =  1.0
     Generated by new atomic code, or converted to UPF format
     Using radial grid of  615 points,  1 beta functions with:
                l(1) =   0
     Q(r) pseudized with  8 coefficients,  rinner =    0.800

     PseudoPot. # 5 for N  read from file:
     /storage/coda1/p-amedford6/0/shared/rich_project_chbe-medford/medford-share/data/pseudos_module/espresso/nninc/pbe/van/N.UPF
     MD5 check sum: 90d10febe142ad51ac9d5be1deb811c4
     Pseudo is Ultrasoft, Zval =  5.0
     Generated by new atomic code, or converted to UPF format
     Using radial grid of  729 points,  4 beta functions with:
                l(1) =   0
                l(2) =   0
                l(3) =   1
                l(4) =   1
     Q(r) pseudized with  8 coefficients,  rinner =    0.800   0.800   0.800

     atomic species   valence    mass     pseudopotential
        Ti1           12.00    47.86700     Ti( 1.00)
        O1             6.00    15.99900     O ( 1.00)
        C1             4.00    12.01100     C ( 1.00)
        H1             1.00     1.00800     H ( 1.00)
        N1             5.00    14.00700     N ( 1.00)

     No symmetry found

   Cartesian axes

     site n.     atom                  positions (alat units)
         1           Ti1 tau(   1) = (   0.0004258   2.9801865   6.0000000  )
         2           Ti1 tau(   2) = (   3.2906075   1.4906267   6.0002472  )
         3           O1  tau(   3) = (   0.0006271   0.0005054   7.9858123  )
         4           O1  tau(   4) = (   3.2906025   0.0005020   7.3038282  )
         5           O1  tau(   5) = (   4.5942328   1.4918067   9.2879030  )
         6           O1  tau(   6) = (   1.9868534   1.4903216   9.2879459  )
         7           Ti1 tau(   7) = (   3.3113259   3.0354369   9.1618307  )
         8           Ti1 tau(   8) = (   0.0141821   1.6139659   9.3625064  )
         9           O1  tau(   9) = (   3.2964399   0.0287090  11.3517035  )
        10           O1  tau(  10) = (   0.0046459   0.0167322  10.6079620  )
        11           O1  tau(  11) = (   1.2916403   1.5142126  12.6509924  )
        12           O1  tau(  12) = (   5.2954765   1.5212855  12.6445515  )
        13           Ti1 tau(  13) = (   0.0303381   3.0181167  12.7741416  )
        14           Ti1 tau(  14) = (   3.3376880   1.5190318  12.5019279  )
        15           O1  tau(  15) = (   6.5702980   0.0162101  14.7136675  )
        16           O1  tau(  16) = (   3.3118210   0.0215951  13.9605728  )
        17           O1  tau(  17) = (   4.5586303   1.5408398  16.0643691  )
        18           O1  tau(  18) = (   2.0376984   1.5397913  16.0346728  )
        19           Ti1 tau(  19) = (   3.2806018   3.0126274  15.6982083  )
        20           Ti1 tau(  20) = (   0.0204579   1.3876160  16.0921805  )
        21           O1  tau(  21) = (   3.2904802   0.0005063   4.7018136  )
        22           O1  tau(  22) = (   0.0362274   0.0182013  17.2505027  )
        23           O1  tau(  23) = (   1.3043587   1.4918075   6.0039043  )
        24           O1  tau(  24) = (   5.2767064   1.4903225   6.0039473  )
        25           Ti1 tau(  25) = (   0.0000382   5.9609847   6.0000000  )
        26           Ti1 tau(  26) = (   3.2902200   4.4714249   6.0002472  )
        27           O1  tau(  27) = (   0.0002396   2.9813036   7.9858123  )
        28           O1  tau(  28) = (   3.2902150   2.9813002   7.3038282  )
        29           O1  tau(  29) = (   4.5938453   4.4726049   9.2879030  )
        30           O1  tau(  30) = (   1.9864658   4.4711199   9.2879459  )
        31           Ti1 tau(  31) = (   3.2918133   0.0584897   9.1554610  )
        32           Ti1 tau(  32) = (   0.0176696   4.5429683   9.2683582  )
        33           O1  tau(  33) = (   3.2944385   3.0046939  11.3531965  )
        34           O1  tau(  34) = (   0.0071923   2.9964285  10.5824339  )
        35           O1  tau(  35) = (   1.2923070   4.5060354  12.6395470  )
        36           O1  tau(  36) = (   5.2930342   4.4972821  12.6335129  )
        37           Ti1 tau(  37) = (   0.0360028   0.0369787  12.5252624  )
        38           Ti1 tau(  38) = (   3.3378333   4.5109478  12.5016189  )
        39           O1  tau(  39) = (   0.0182598   3.0415135  14.6926035  )
        40           O1  tau(  40) = (   3.2973286   3.0139918  13.9115332  )
        41           O1  tau(  41) = (   4.5518717   4.4752506  16.0920674  )
        42           O1  tau(  42) = (   2.0385343   4.4722040  16.0556704  )
        43           Ti1 tau(  43) = (   3.3273276   0.0437280  15.7880462  )
        44           Ti1 tau(  44) = (   0.0148993   4.5306414  15.9319406  )
        45           O1  tau(  45) = (   3.2900926   2.9813045   4.7018136  )
        46           O1  tau(  46) = (   1.3039711   4.4726057   6.0039043  )
        47           O1  tau(  47) = (   5.2763189   4.4711207   6.0039473  )
        48           C1  tau(  48) = (   6.0619278   3.0088867  18.6555636  )
        49           O1  tau(  49) = (   6.5788924   2.9994598  17.3400993  )
        50           H1  tau(  50) = (   4.9713474   2.8828304  18.6515055  )
        51           H1  tau(  51) = (   6.4909130   2.1836263  19.2313859  )
        52           H1  tau(  52) = (   6.3070107   3.9563896  19.1453893  )
        53           N1  tau(  53) = (   5.9850546   3.0301018  22.7159517  )
        54           N1  tau(  54) = (   5.2276613   3.1827328  21.9368001  )
        55           O1  tau(  55) = (   3.1818816   0.0591848  18.2205797  )
        56           H1  tau(  56) = (   3.8437189   5.3938241  18.5518935  )
        57           H1  tau(  57) = (   2.3086839   5.6188137  18.3735615  )

     number of k points=    10  Fermi-Dirac smearing, width (Ry)=  0.0073
                       cart. coord. in units 2pi/alat
        k(    1) = (   0.0000000   0.0000000   0.0000000), wk =   0.1250000
        k(    2) = (   0.0000000   0.0419351   0.0000000), wk =   0.2500000
        k(    3) = (   0.0000000  -0.0838702   0.0000000), wk =   0.1250000
        k(    4) = (   0.0379955   0.0000049   0.0000000), wk =   0.2500000
        k(    5) = (   0.0379955   0.0419400   0.0000000), wk =   0.2500000
        k(    6) = (   0.0379955  -0.0838652   0.0000000), wk =   0.2500000
        k(    7) = (   0.0379955  -0.0419301   0.0000000), wk =   0.2500000
        k(    8) = (  -0.0759910  -0.0000099   0.0000000), wk =   0.1250000
        k(    9) = (  -0.0759910   0.0419252   0.0000000), wk =   0.2500000
        k(   10) = (  -0.0759910  -0.0838800   0.0000000), wk =   0.1250000

     Initial potential from superposition of free atoms

     starting charge  392.99914, renormalised to  409.00000

     negative rho (up, down):  9.754E-03 0.000E+00

     %%%%%%%%%%%%%%%%%%%%%%%%%%%%%%%%%%%%%%%%%%%%%%%%%%%%%%%%%%%%%%%%%%%%%%%%
     %                                                                      %
     % You are using vdW-DF, which was implemented by the Thonhauser group. %
     % Please cite the following two papers that made this development      %
     % possible and the two reviews that describe the various versions:     %
     %                                                                      %
     %   T. Thonhauser et al., PRL 115, 136402 (2015).                      %
     %   T. Thonhauser et al., PRB 76, 125112 (2007).                       %
     %   K. Berland et al., Rep. Prog. Phys. 78, 066501 (2015).             %
     %   D.C. Langreth et al., J. Phys.: Condens. Matter 21, 084203 (2009). %
     %                                                                      %
     %                                                                      %
     % If you are calculating the stress with vdW-DF, please also cite:     %
     %                                                                      %
     %   R. Sabatini et al., J. Phys.: Condens. Matter 24, 424209 (2012).   %
     %                                                                      %
     %%%%%%%%%%%%%%%%%%%%%%%%%%%%%%%%%%%%%%%%%%%%%%%%%%%%%%%%%%%%%%%%%%%%%%%%

     Adding external electric field

     Computed dipole along edir(3) :
        Dipole              -18.5715 Ry au,        -47.2041 Debye
        Dipole field         -0.0350 Ry au,

        Potential amp.        3.2488 Ry
        Total length         46.3494 bohr

     Starting wfcs are  309 atomic wfcs
  @ DRIVER MODE: Message from server: STATUS
  @ DRIVER MODE: Message from server: POSDATA
  @ DRIVER MODE: Reading and sharing cell
  @ DRIVER MODE: Reading and sharing positions
  @ DRIVER MODE: Received positions

     Self-consistent Calculation

     iteration #  1     ecut=    29.40 Ry     beta= 0.05
     Davidson diagonalization with overlap
     c_bands:  3 eigenvalues not converged
     c_bands:  2 eigenvalues not converged
     c_bands:  2 eigenvalues not converged
     c_bands:  5 eigenvalues not converged
     c_bands:  5 eigenvalues not converged
     c_bands:  5 eigenvalues not converged
     c_bands:  1 eigenvalues not converged
     c_bands:  3 eigenvalues not converged
     ethr =  1.00E-05,  avg # of iterations = 28.5

[...]

     total energy              =   -2113.04245356 Ry
     estimated scf accuracy    <   10297.70058364 Ry

     iteration #  2     ecut=    29.40 Ry     beta= 0.05
     Davidson diagonalization with overlap
     ethr =  1.00E-02,  avg # of iterations = 30.7

[...]

     iteration # 82     ecut=    29.40 Ry     beta= 0.05
     Davidson diagonalization with overlap
     c_bands:  1 eigenvalues not converged
     ethr =  7.97E-10,  avg # of iterations = 14.5

[...]

     total energy              =   -3006.52109859 Ry
     estimated scf accuracy    <       0.00000008 Ry

     iteration # 92     ecut=    29.40 Ry     beta= 0.05
     Davidson diagonalization with overlap
     ethr =  1.86E-11,  avg # of iterations =  6.1

     negative rho (up, down):  1.097E-02 0.000E+00

     Adding external electric field

     Computed dipole along edir(3) :
        Dipole                0.9960 Ry au,          2.5317 Debye
        Dipole field          0.0019 Ry au,

        Potential amp.       -0.1742 Ry
        Total length         46.3494 bohr

     End of self-consistent calculation

          k = 0.0000 0.0000 0.0000 ( 18029 PWs)   bands (ev):

   -55.2855 -55.2507 -55.2495 -55.2144 -55.1918 -55.1764 -55.1687 -55.1330
   -55.0823 -55.0638 -55.0488 -55.0406 -55.0067 -54.9532 -54.2921 -54.2580
   -31.8077 -31.7547 -31.6778 -31.6457 -31.6243 -31.5774 -31.5598 -31.5563
   -31.5200 -31.5150 -31.4783 -31.4647 -31.4582 -31.4493 -31.4451 -31.4321
   -31.4261 -31.3899 -31.3846 -31.3770 -31.3729 -31.3540 -31.3501 -31.3410
   -31.3331 -31.3268 -31.3113 -31.2896 -31.2793 -31.2739 -31.2706 -31.2635
   -31.2600 -31.2448 -31.2320 -31.2219 -31.2198 -31.1852 -31.1706 -31.1499
   -31.1378 -31.1364 -30.7014 -30.6056 -30.5832 -30.5179 -30.4319 -30.3208
   -21.5345 -18.7344 -17.1980 -16.0000 -15.7295 -15.5694 -15.4382 -15.4029
   -15.2160 -15.0943 -14.9618 -14.9375 -14.8836 -14.8565 -14.8221 -14.8113
   -14.8064 -14.7942 -14.7862 -14.7394 -14.7048 -14.6873 -14.6868 -14.6635
   -14.6149 -14.5613 -14.4965 -14.4313 -14.4026 -14.3611 -14.2920 -14.2837
   -12.7928 -12.6749  -9.1230  -6.5540  -6.5274  -4.6200  -4.6101  -3.9172
    -3.7663  -3.4722  -3.3638  -3.2914  -3.2119  -3.1897  -3.1679  -3.0926
    -2.9820  -2.8455  -2.7501  -2.5108  -2.4555  -2.4126  -2.3810  -2.3520
    -2.1954  -2.1705  -2.1017  -2.0906  -2.0819  -2.0712  -2.0443  -2.0151
    -1.9895  -1.9577  -1.8987  -1.8745  -1.8039  -1.6731  -1.6645  -1.6325
    -1.5861  -1.5699  -1.5683  -1.5414  -1.4974  -1.4784  -1.4542  -1.4487
    -1.3516  -1.2595  -1.2166  -1.1224  -1.0427  -0.9696  -0.8472  -0.8087
    -0.7353  -0.7021  -0.6859  -0.6321  -0.5830  -0.5726  -0.5141  -0.4672
    -0.3596  -0.3171  -0.2751  -0.2381  -0.1867  -0.1427  -0.0719  -0.0384
    -0.0059  -0.0014   0.0196   0.2180   0.2291   0.2806   0.2933   0.3904
     0.4430   0.4774   0.4906   0.4998   0.5378   0.6134   0.6691   0.6776
     0.7094   0.7451   0.7646   0.8106   0.8514   0.9039   0.9334   0.9682
     1.0348   1.0752   1.2291   1.3238   1.3678   1.4838   1.6407   1.7320
     1.8058   1.9061   2.3188   2.3761   3.8962   3.9303   3.9570   3.9754
     4.0435   4.1424   4.2590   4.3499   4.3594   4.3900

[...]

          k = 0.0380-0.0419 0.0000 ( 17876 PWs)   bands (ev):

[...]

          k =-0.0760-0.0000 0.0000 ( 17886 PWs)   bands (ev):

[...]

          k =-0.0760-0.0839 0.0000 ( 17948 PWs)   bands (ev):

   -55.2735 -55.2614 -55.2348 -55.2301 -55.1887 -55.1742 -55.1582 -55.1437
   -55.0850 -55.0608 -55.0510 -55.0260 -55.0215 -54.9559 -54.2755 -54.2744
   -31.6196 -31.6031 -31.5777 -31.5757 -31.5655 -31.5640 -31.5465 -31.5136
   -31.5067 -31.4899 -31.4865 -31.4760 -31.4409 -31.4305 -31.4101 -31.4059
   -31.4008 -31.3992 -31.3974 -31.3913 -31.3884 -31.3850 -31.3736 -31.3651
   -31.3590 -31.3502 -31.3492 -31.3477 -31.3422 -31.3168 -31.2911 -31.2781
   -31.2752 -31.2743 -31.2711 -31.2624 -31.2540 -31.2412 -31.2316 -31.2223
   -31.1812 -31.1474 -30.5965 -30.5952 -30.5148 -30.5139 -30.4754 -30.4745
   -21.5344 -18.7334 -17.1676 -15.4681 -15.3589 -15.2300 -15.1653 -15.1425
   -15.1159 -15.0631 -15.0468 -14.9911 -14.9870 -14.9365 -14.9302 -14.8872
   -14.8804 -14.8264 -14.7981 -14.7891 -14.7601 -14.7274 -14.7114 -14.7106
   -14.6705 -14.6490 -14.6403 -14.6098 -14.6025 -14.5404 -14.5036 -14.4703
   -12.7771 -12.7753  -9.1249  -6.5546  -6.5209  -4.6206  -4.6172  -3.8269
    -3.7252  -3.4982  -3.2783  -3.0028  -2.7535  -2.5708  -2.4796  -2.4106
    -2.3575  -2.3395  -2.2300  -2.2055  -2.1756  -2.1409  -2.1184  -2.1076
    -2.0901  -2.0811  -2.0740  -2.0564  -2.0229  -2.0031  -1.9772  -1.9522
    -1.9371  -1.9136  -1.8959  -1.8885  -1.8637  -1.8359  -1.8292  -1.8263
    -1.7636  -1.7238  -1.5654  -1.5205  -1.4994  -1.4092  -1.3897  -1.3732
    -1.3477  -1.3336  -1.3170  -1.1982  -1.1472  -1.1189  -1.0107  -0.9927
    -0.9666  -0.8283  -0.8047  -0.7721  -0.7439  -0.7018  -0.6323  -0.6087
    -0.5533  -0.5403  -0.4390  -0.4019  -0.3770  -0.3638  -0.2678  -0.2456
    -0.2401  -0.2143  -0.1511  -0.1194  -0.0740  -0.0442  -0.0134   0.0112
     0.0571   0.0770   0.1709   0.1912   0.2274   0.2702   0.3642   0.5307
     0.6238   0.7340   0.7599   0.8068   0.8671   0.9094   0.9597   1.0132
     1.0609   1.0677   1.1303   1.1674   1.2523   1.2662   1.2696   1.3379
     2.0933   2.0936   2.1815   2.1905   4.1377   4.1460   4.2031   4.2227
     4.3619   4.3681   4.3816   4.3893   4.4839   4.5416

     the Fermi energy is     3.8662 ev

!    total energy              =   -3006.52110181 Ry
     estimated scf accuracy    <       0.00000006 Ry
     smearing contrib. (-TS)   =      -0.02294563 Ry
     internal energy E=F+TS    =   -3006.49815619 Ry

     The total energy is F=E-TS. E is the sum of the following terms:
     one-electron contribution =  -22563.37128224 Ry
     hartree contribution      =   11381.02559304 Ry
     xc contribution           =    -501.16216341 Ry
     ewald contribution        =    8677.00782422 Ry
     electric field correction =       0.00187221 Ry

     convergence has been achieved in  92 iterations

     Forces acting on atoms (cartesian axes, Ry/au):

     atom    1 type  1   force =    -0.00014329   -0.00167071    0.10541541
     atom    2 type  1   force =    -0.00022858    0.00114030   -0.17914387
     atom    3 type  2   force =     0.00020630   -0.00555348   -0.03236239
     atom    4 type  2   force =     0.00010286    0.00071720    0.04628837
     atom    5 type  2   force =    -0.01804576    0.00052578    0.00421960
     atom    6 type  2   force =     0.01844148   -0.00044817    0.00408876
     atom    7 type  1   force =     0.00008381    0.00020627    0.00004067
     atom    8 type  1   force =     0.00007187    0.00030819   -0.00014806
     atom    9 type  2   force =     0.00017440    0.00034654   -0.00009248
     atom   10 type  2   force =     0.00017000   -0.00001834    0.00003796
     atom   11 type  2   force =     0.00004589   -0.00034221   -0.00037106
     atom   12 type  2   force =    -0.00005759   -0.00051596   -0.00051099
     atom   13 type  1   force =     0.00048102    0.00024673    0.00006918
     atom   14 type  1   force =    -0.00026365   -0.00047349   -0.00042085
     atom   15 type  2   force =     0.00004266   -0.00055020    0.00033054
     atom   16 type  2   force =    -0.00008864    0.00030318   -0.00021861
     atom   17 type  2   force =    -0.00042386   -0.00061489    0.00006881
     atom   18 type  2   force =     0.00003899   -0.00049110    0.00019405
     atom   19 type  1   force =     0.00041225   -0.00028486   -0.00012361
     atom   20 type  1   force =    -0.00009694   -0.00075270   -0.00083478
     atom   21 type  2   force =    -0.00003491    0.00009946    0.10396747
     atom   22 type  2   force =    -0.00001757   -0.00053236    0.00053035
     atom   23 type  2   force =    -0.06943223    0.00051589   -0.02946279
     atom   24 type  2   force =     0.06918630    0.00097371   -0.02951815
     atom   25 type  1   force =    -0.00003138    0.00156184    0.11482968
     atom   26 type  1   force =    -0.00022189   -0.00047439   -0.17916938
     atom   27 type  2   force =     0.00021291    0.00415457   -0.02606029
     atom   28 type  2   force =     0.00042799    0.00093109    0.04807723
     atom   29 type  2   force =    -0.01631007    0.00162120    0.00383113
     atom   30 type  2   force =     0.01736161    0.00217318    0.00360028
     atom   31 type  1   force =    -0.00014163    0.00010319   -0.00024205
     atom   32 type  1   force =     0.00010710   -0.00008296    0.00023816
     atom   33 type  2   force =     0.00028728   -0.00050847    0.00018321
     atom   34 type  2   force =    -0.00004187   -0.00029752   -0.00026147
     atom   35 type  2   force =    -0.00046519   -0.00014217    0.00001762
     atom   36 type  2   force =     0.00054527    0.00001163    0.00000805
     atom   37 type  1   force =     0.00046920   -0.00073610   -0.00004430
     atom   38 type  1   force =    -0.00036960   -0.00002289   -0.00036512
     atom   39 type  2   force =    -0.00042238   -0.00049359   -0.00047885
     atom   40 type  2   force =     0.00035838   -0.00040807   -0.00025028
     atom   41 type  2   force =    -0.00018439   -0.00003414    0.00005660
     atom   42 type  2   force =    -0.00033109   -0.00021703    0.00004888
     atom   43 type  1   force =     0.00025878    0.00010604    0.00137954
     atom   44 type  1   force =     0.00002180   -0.00034209   -0.00080309
     atom   45 type  2   force =    -0.00003897    0.00007614    0.10400898
     atom   46 type  2   force =    -0.06904400   -0.00106783   -0.02951606
     atom   47 type  2   force =     0.06885412   -0.00062454   -0.02959068
     atom   48 type  3   force =    -0.00024015    0.00001872    0.00030064
     atom   49 type  2   force =    -0.00000219    0.00025570   -0.00084333
     atom   50 type  4   force =    -0.00042173   -0.00005541    0.00003852
     atom   51 type  4   force =     0.00029289   -0.00028383    0.00015429
     atom   52 type  4   force =    -0.00005260    0.00036299   -0.00042868
     atom   53 type  5   force =     0.02780235   -0.00598670    0.02855187
     atom   54 type  5   force =    -0.02831393    0.00619919   -0.02884094
     atom   55 type  2   force =     0.00070546   -0.00002973    0.00039643
     atom   56 type  4   force =    -0.00156784    0.00013317   -0.00065491
     atom   57 type  4   force =    -0.00012903    0.00096405   -0.00021521

     Total force =     0.378917     Total SCF correction =     0.000851
  @ DRIVER MODE: Message from server: STATUS
  @ DRIVER MODE: Message from server: GETFORCE
  @ DRIVER MODE: Returning v,forces,stress,ensemble

     Writing output data file ./calc.save/
  @ DRIVER MODE: Message from server: EXIT
  @ DRIVE MODE: Exiting

     General routines

     Parallel routines

   This run was terminated on:   6:49:17  26Sep2021

   JOB DONE.