     Program PWSCF v.6.7GPU starts on 16Jul2021 at 11:30:26

     R & G space division:  proc/nbgrp/npool/nimage =      16
     Reading input from /storage/home/hcoda1/3/ntian30/research/carbon/15Jul_vib/ads_slab/CH3NNH3_a/out_0036/pw.inp
Warning: card &CELL ignored
Warning: card   CELL_DYNAMICS='IPI', ignored
Warning: card / ignored

     Current dimensions of program PWSCF are:
     Max number of different atomic species (ntypx) = 10
     Max number of k-points (npk) =  40000
     Max angular momentum in pseudopotentials (lmaxx) =  3
     Presently no symmetry can be used with electric field

     Message from routine cell_base_init:
     DEPRECATED: use true lattice parameter, not A to a.u. conversion factor

     IMPORTANT: XC functional enforced from input :
     Exchange-correlation= BEEF-VDW
                           (   1   4  43  14   2   0   0)
     Any further DFT definition will be discarded
     Please, verify this is what you really want

  @ DRIVER MODE: Connecting to
 qe_1139763_2351650.sched-torque.pace.gatech.edunabln4r0_scratch
  using UNIX socket
  @ DRIVER MODE: Message from server: STATUS
  @ DRIVER MODE: Message from server: INIT
  @ DRIVER MODE: Receiving replica           0          -1
  @ DRIVER MODE: Receiving encoded integer          25
  @ DRIVER MODE:  SCF:  T  FORCE:  T  STRESS:  F  VC:  F  ENSEMBLE:  F
  @ DRIVER MODE:  SCF:  T  FORCE:  T  STRESS:  F  VC:  F  ENSEMBLE:  F

     Using Slab Decomposition

     bravais-lattice index     =            0
     lattice parameter (alat)  =       1.8897  a.u.
     unit-cell volume          =    6658.9804 (a.u.)^3
     number of atoms/cell      =           56
     number of atomic types    =            5
     number of electrons       =       398.00
     number of Kohn-Sham states=          209
     kinetic-energy cutoff     =      29.3995  Ry
     charge density cutoff     =     293.9946  Ry
     scf convergence threshold =      7.3E-08
     mixing beta               =       0.0500
     number of iterations used =            8  plain     mixing
     Exchange-correlation= BEEF-VDW
                           (   1   4  43  14   2   0   0)

     celldm(1)=   1.889726  celldm(2)=   0.000000  celldm(3)=   0.000000
     celldm(4)=   0.000000  celldm(5)=   0.000000  celldm(6)=   0.000000

     crystal axes: (cart. coord. in units of alat)
               a(1) = (   6.579727   0.000000   0.000000 )
               a(2) = (  -0.000775   5.961596   0.000000 )
               a(3) = (   0.000000   0.000000  25.155947 )

     reciprocal axes: (cart. coord. in units 2 pi/alat)
               b(1) = (  0.151982  0.000020  0.000000 )
               b(2) = (  0.000000  0.167740  0.000000 )
               b(3) = (  0.000000  0.000000  0.039752 )

     PseudoPot. # 1 for Ti read from file:
     /storage/coda1/p-amedford6/0/shared/rich_project_chbe-medford/medford-share/data/pseudos_module/espresso/nninc/pbe/van/Ti.UPF
     MD5 check sum: 8e4df49b7f0d34bbd5052bf3f5ea0213
     Pseudo is Ultrasoft, Zval = 12.0
     Generated by new atomic code, or converted to UPF format
     Using radial grid of  851 points,  6 beta functions with:
                l(1) =   0
                l(2) =   0
                l(3) =   1
                l(4) =   1
                l(5) =   2
                l(6) =   2
     Q(r) pseudized with  8 coefficients,  rinner =    1.000   1.000   1.000
                                                       1.000   1.000

     PseudoPot. # 2 for O  read from file:
     /storage/coda1/p-amedford6/0/shared/rich_project_chbe-medford/medford-share/data/pseudos_module/espresso/nninc/pbe/van/O.UPF
     MD5 check sum: 78c19812648e8988a0fe644b0f25305e
     Pseudo is Ultrasoft, Zval =  6.0
     Generated by new atomic code, or converted to UPF format
     Using radial grid of  737 points,  4 beta functions with:
                l(1) =   0
                l(2) =   0
                l(3) =   1
                l(4) =   1
     Q(r) pseudized with  8 coefficients,  rinner =    0.800   0.800   0.800

     PseudoPot. # 3 for N  read from file:
     /storage/coda1/p-amedford6/0/shared/rich_project_chbe-medford/medford-share/data/pseudos_module/espresso/nninc/pbe/van/N.UPF
     MD5 check sum: 90d10febe142ad51ac9d5be1deb811c4
     Pseudo is Ultrasoft, Zval =  5.0
     Generated by new atomic code, or converted to UPF format
     Using radial grid of  729 points,  4 beta functions with:
                l(1) =   0
                l(2) =   0
                l(3) =   1
                l(4) =   1
     Q(r) pseudized with  8 coefficients,  rinner =    0.800   0.800   0.800

     PseudoPot. # 4 for C  read from file:
     /storage/coda1/p-amedford6/0/shared/rich_project_chbe-medford/medford-share/data/pseudos_module/espresso/nninc/pbe/van/C.UPF
     MD5 check sum: 1a69bf6b8db32088f5b2163dbdb77a27
     Pseudo is Ultrasoft, Zval =  4.0
     Generated by new atomic code, or converted to UPF format
     Using radial grid of  721 points,  4 beta functions with:
                l(1) =   0
                l(2) =   0
                l(3) =   1
                l(4) =   1
     Q(r) pseudized with  8 coefficients,  rinner =    0.800   0.800   0.800

     PseudoPot. # 5 for H  read from file:
     /storage/coda1/p-amedford6/0/shared/rich_project_chbe-medford/medford-share/data/pseudos_module/espresso/nninc/pbe/van/H.UPF
     MD5 check sum: b5ee9d7bfd3a09ee7748110bda690ff7
     Pseudo is Ultrasoft, Zval =  1.0
     Generated by new atomic code, or converted to UPF format
     Using radial grid of  615 points,  1 beta functions with:
                l(1) =   0
     Q(r) pseudized with  8 coefficients,  rinner =    0.800

     atomic species   valence    mass     pseudopotential
        Ti1           12.00    47.86700     Ti( 1.00)
        O1             6.00    15.99900     O ( 1.00)
        N1             5.00    14.00700     N ( 1.00)
        C1             4.00    12.01100     C ( 1.00)
        H1             1.00     1.00800     H ( 1.00)

     Starting magnetic structure
     atomic species   magnetization
        Ti1          0.000
        O1           0.000
        N1           0.000
        C1           0.025
        H1           0.000

     No symmetry found

   Cartesian axes

     site n.     atom                  positions (alat units)
         1           Ti1 tau(   1) = (   0.0004258   2.9801865   6.0000000  )
         2           Ti1 tau(   2) = (   3.2906075   1.4906267   6.0002472  )
         3           O1  tau(   3) = (   0.0006271   0.0005054   7.9858123  )
         4           O1  tau(   4) = (   3.2906025   0.0005020   7.3038282  )
         5           O1  tau(   5) = (   4.5942328   1.4918067   9.2879030  )
         6           O1  tau(   6) = (   1.9868534   1.4903216   9.2879459  )
         7           Ti1 tau(   7) = (   3.2907910   2.8959150   9.1758416  )
         8           Ti1 tau(   8) = (   0.0015273   1.4827037   9.2680791  )
         9           O1  tau(   9) = (   3.3019049   5.9598586  11.2958584  )
        10           O1  tau(  10) = (   0.0116148   5.9584955  10.6183126  )
        11           O1  tau(  11) = (   1.3346742   1.4914638  12.6145280  )
        12           O1  tau(  12) = (   5.3113054   1.4894223  12.6320738  )
        13           Ti1 tau(  13) = (   6.4919192   2.9607050  12.7581921  )
        14           Ti1 tau(  14) = (   3.1808934   1.4809541  12.4628303  )
        15           O1  tau(  15) = (   0.0259758   5.9327586  14.5948705  )
        16           O1  tau(  16) = (   3.3179433   0.0111293  13.8771559  )
        17           O1  tau(  17) = (   4.5450242   1.5254396  16.0425357  )
        18           O1  tau(  18) = (   2.0945915   1.5254857  16.0466093  )
        19           Ti1 tau(  19) = (   3.3175380   3.0118254  15.6854273  )
        20           Ti1 tau(  20) = (   0.0287691   1.6153805  16.0968480  )
        21           O1  tau(  21) = (   3.2904802   0.0005063   4.7018136  )
        22           O1  tau(  22) = (   0.0272082   0.0527987  17.2096484  )
        23           O1  tau(  23) = (   1.3043587   1.4918075   6.0039043  )
        24           O1  tau(  24) = (   5.2767064   1.4903225   6.0039473  )
        25           Ti1 tau(  25) = (   0.0000382   5.9609847   6.0000000  )
        26           Ti1 tau(  26) = (   3.2902200   4.4714249   6.0002472  )
        27           O1  tau(  27) = (   0.0002396   2.9813036   7.9858123  )
        28           O1  tau(  28) = (   3.2902150   2.9813002   7.3038282  )
        29           O1  tau(  29) = (   4.5938453   4.4726049   9.2879030  )
        30           O1  tau(  30) = (   1.9864658   4.4711199   9.2879459  )
        31           Ti1 tau(  31) = (   3.2891106   5.8743827   9.1763621  )
        32           Ti1 tau(  32) = (   0.0006254   4.4649316   9.2693709  )
        33           O1  tau(  33) = (   3.3007599   2.9794320  11.2948048  )
        34           O1  tau(  34) = (   0.0092240   2.9805883  10.6323155  )
        35           O1  tau(  35) = (   1.3367187   4.4652043  12.6121808  )
        36           O1  tau(  36) = (   5.3110114   4.4536366  12.6300246  )
        37           Ti1 tau(  37) = (   6.5175235   5.9394146  12.7678677  )
        38           Ti1 tau(  38) = (   3.1810223   4.4618757  12.4682998  )
        39           O1  tau(  39) = (   0.0141956   2.9656780  14.6533049  )
        40           O1  tau(  40) = (   3.3125561   2.9946134  13.8784269  )
        41           O1  tau(  41) = (   4.5469694   4.5079638  16.0550352  )
        42           O1  tau(  42) = (   2.0896055   4.5089645  16.0567747  )
        43           Ti1 tau(  43) = (   3.3249511   0.0336637  15.6879192  )
        44           Ti1 tau(  44) = (   0.0309337   4.5948497  16.1324869  )
        45           O1  tau(  45) = (   3.2900926   2.9813045   4.7018136  )
        46           O1  tau(  46) = (   1.3039711   4.4726057   6.0039043  )
        47           O1  tau(  47) = (   5.2763189   4.4711207   6.0039473  )
        48           N1  tau(  48) = (   0.0510883   3.0100077  17.3315927  )
        49           C1  tau(  49) = (   0.2149723   3.0659314  18.7643681  )
        50           H1  tau(  50) = (   6.1109748   3.7957518  19.2115106  )
        51           H1  tau(  51) = (   0.0391147   2.0919789  19.2277120  )
        52           H1  tau(  52) = (   1.2341903   3.3897193  19.0223879  )
        53           N1  tau(  53) = (   4.7717085   1.8344328  21.5524420  )
        54           H1  tau(  54) = (   4.4711387   2.7986659  21.4441960  )
        55           H1  tau(  55) = (   4.1840297   1.2822813  20.9257432  )
        56           H1  tau(  56) = (   4.5427024   1.5537098  22.4892962  )

     number of k points=    10  Fermi-Dirac smearing, width (Ry)=  0.0073
                       cart. coord. in units 2pi/alat
        k(    1) = (   0.0000000   0.0000000   0.0000000), wk =   0.0625000
        k(    2) = (   0.0000000   0.0419351   0.0000000), wk =   0.1250000
        k(    3) = (   0.0000000  -0.0838702   0.0000000), wk =   0.0625000
        k(    4) = (   0.0379955   0.0000049   0.0000000), wk =   0.1250000
        k(    5) = (   0.0379955   0.0419400   0.0000000), wk =   0.1250000
[...]
     %   T. Thonhauser et al., PRB 76, 125112 (2007).                       %
     %   K. Berland et al., Rep. Prog. Phys. 78, 066501 (2015).             %
     %   D.C. Langreth et al., J. Phys.: Condens. Matter 21, 084203 (2009). %
     %                                                                      %
     %                                                                      %
     % If you are calculating the stress with vdW-DF, please also cite:     %
     %                                                                      %
     %   R. Sabatini et al., J. Phys.: Condens. Matter 24, 424209 (2012).   %
     %                                                                      %
     %%%%%%%%%%%%%%%%%%%%%%%%%%%%%%%%%%%%%%%%%%%%%%%%%%%%%%%%%%%%%%%%%%%%%%%%

     Adding external electric field

     Computed dipole along edir(3) :
        Dipole              -11.2957 Ry au,        -28.7108 Debye
        Dipole field         -0.0213 Ry au,

        Potential amp.        1.9760 Ry
        Total length         46.3494 bohr

[...]

     Starting wfcs are  302 atomic wfcs
  @ DRIVER MODE: Message from server: STATUS
  @ DRIVER MODE: Message from server: POSDATA
  @ DRIVER MODE: Reading and sharing cell
  @ DRIVER MODE: Reading and sharing positions
  @ DRIVER MODE: Received positions

     Self-consistent Calculation

     iteration #  1     ecut=    29.40 Ry     beta= 0.05
     Davidson diagonalization with overlap
     c_bands:  1 eigenvalues not converged
     c_bands:  1 eigenvalues not converged
     c_bands:  2 eigenvalues not converged
     c_bands:  1 eigenvalues not converged
     c_bands:  1 eigenvalues not converged
     c_bands:  1 eigenvalues not converged
     c_bands:  2 eigenvalues not converged
     c_bands:  2 eigenvalues not converged
     c_bands:  1 eigenvalues not converged
     c_bands:  1 eigenvalues not converged
     c_bands:  2 eigenvalues not converged
     c_bands:  1 eigenvalues not converged
     c_bands:  1 eigenvalues not converged
     c_bands:  1 eigenvalues not converged
     c_bands:  2 eigenvalues not converged
     c_bands:  2 eigenvalues not converged
     ethr =  1.00E-05,  avg # of iterations = 19.6

[...]

     total energy              =   -2520.81736755 Ry
     estimated scf accuracy    <    4704.50363390 Ry

     total magnetization       =     0.00 Bohr mag/cell
     absolute magnetization    =     0.01 Bohr mag/cell

     iteration #  2     ecut=    29.40 Ry     beta= 0.05
     Davidson diagonalization with overlap
     ethr =  1.00E-02,  avg # of iterations = 21.9

[...]

     iteration # 34     ecut=    29.40 Ry     beta= 0.05
     Davidson diagonalization with overlap
     c_bands:  1 eigenvalues not converged
     c_bands:  2 eigenvalues not converged
     c_bands:  1 eigenvalues not converged
     c_bands:  2 eigenvalues not converged
     c_bands:  2 eigenvalues not converged
     c_bands:  1 eigenvalues not converged
     c_bands:  2 eigenvalues not converged
     c_bands:  2 eigenvalues not converged
     c_bands:  2 eigenvalues not converged
     ethr =  2.61E-07,  avg # of iterations = 17.0

[...]

     total energy              =   -2942.90754798 Ry
     estimated scf accuracy    <       0.00000017 Ry

[...]

     iteration # 61     ecut=    29.40 Ry     beta= 0.05
     Davidson diagonalization with overlap
     ethr =  4.39E-11,  avg # of iterations =  6.0

     negative rho (up, down):  5.674E-03 5.675E-03

[...]

     Adding external electric field

     Computed dipole along edir(3) :
        Dipole                0.4116 Ry au,          1.0462 Debye
        Dipole field          0.0008 Ry au,

        Potential amp.       -0.0720 Ry
        Total length         46.3494 bohr

     Magnetic moment per site  (integrated on atomic sphere of radius R)
     atom   1 (R=0.735)  charge=  8.0053  magn=  0.0001
     atom   2 (R=0.735)  charge=  8.0011  magn= -0.0001
     atom   3 (R=0.735)  charge=  4.9958  magn=  0.0000
     atom   4 (R=0.735)  charge=  5.0345  magn=  0.0000
     atom   5 (R=0.735)  charge=  4.9982  magn= -0.0000
     atom   6 (R=0.735)  charge=  4.9994  magn= -0.0000
     atom   7 (R=0.735)  charge=  7.9947  magn= -0.0000
     atom   8 (R=0.735)  charge=  7.9823  magn= -0.0000
     atom   9 (R=0.735)  charge=  5.0128  magn= -0.0000
     atom  10 (R=0.735)  charge=  4.9434  magn=  0.0000
     atom  11 (R=0.735)  charge=  4.9999  magn=  0.0000
     atom  12 (R=0.735)  charge=  5.0035  magn= -0.0000
     atom  13 (R=0.735)  charge=  7.9933  magn=  0.0000
     atom  14 (R=0.735)  charge=  8.0006  magn=  0.0000
     atom  15 (R=0.735)  charge=  4.9894  magn= -0.0000
     atom  16 (R=0.735)  charge=  5.0146  magn=  0.0000
     atom  17 (R=0.735)  charge=  4.9900  magn=  0.0000
     atom  18 (R=0.735)  charge=  4.9888  magn= -0.0000
     atom  19 (R=0.735)  charge=  8.0209  magn= -0.0000
     atom  20 (R=0.735)  charge=  8.0241  magn=  0.0001
     atom  21 (R=0.735)  charge=  4.8826  magn=  0.0001
     atom  22 (R=0.735)  charge=  4.9720  magn= -0.0000
     atom  23 (R=0.735)  charge=  4.9884  magn= -0.0000
     atom  24 (R=0.735)  charge=  4.9885  magn= -0.0001
     atom  25 (R=0.735)  charge=  8.0054  magn=  0.0000
     atom  26 (R=0.735)  charge=  8.0011  magn= -0.0001
     atom  27 (R=0.735)  charge=  4.9957  magn=  0.0000
     atom  28 (R=0.735)  charge=  5.0347  magn=  0.0000
     atom  29 (R=0.735)  charge=  4.9989  magn= -0.0000
     atom  30 (R=0.735)  charge=  5.0001  magn= -0.0000
     atom  31 (R=0.735)  charge=  7.9947  magn= -0.0000
     atom  32 (R=0.735)  charge=  7.9826  magn= -0.0000
     atom  33 (R=0.735)  charge=  5.0126  magn= -0.0000
     atom  34 (R=0.735)  charge=  4.9424  magn=  0.0000
     atom  35 (R=0.735)  charge=  5.0005  magn= -0.0000
     atom  36 (R=0.735)  charge=  5.0043  magn= -0.0000
     atom  37 (R=0.735)  charge=  7.9991  magn=  0.0000
     atom  38 (R=0.735)  charge=  8.0003  magn=  0.0000
     atom  39 (R=0.735)  charge=  4.9853  magn= -0.0000
     atom  40 (R=0.735)  charge=  5.0160  magn=  0.0000
     atom  41 (R=0.735)  charge=  4.9884  magn= -0.0000
     atom  42 (R=0.735)  charge=  4.9879  magn=  0.0000
     atom  43 (R=0.735)  charge=  8.0214  magn= -0.0000
     atom  44 (R=0.735)  charge=  8.0216  magn=  0.0000
     atom  45 (R=0.735)  charge=  4.8826  magn=  0.0001
     atom  46 (R=0.735)  charge=  4.9884  magn= -0.0000
     atom  47 (R=0.735)  charge=  4.9885  magn= -0.0001
     atom  48 (R=0.414)  charge=  1.2841  magn= -0.0001
     atom  49 (R=0.451)  charge=  0.8534  magn=  0.0000
     atom  50 (R=0.414)  charge=  0.4289  magn= -0.0000
     atom  51 (R=0.414)  charge=  0.4309  magn= -0.0000
     atom  52 (R=0.414)  charge=  0.4261  magn= -0.0000
     atom  53 (R=0.414)  charge=  1.3012  magn= -0.0001
     atom  54 (R=0.414)  charge=  0.4423  magn=  0.0000
     atom  55 (R=0.414)  charge=  0.4376  magn=  0.0000
     atom  56 (R=0.414)  charge=  0.4526  magn=  0.0000

     End of self-consistent calculation

 ------ SPIN UP ------------

          k = 0.0000 0.0000 0.0000 ( 18029 PWs)   bands (ev):

   -56.6342 -56.6006 -55.7586 -55.7465 -55.7237 -55.7136 -55.6128 -55.5774
   -55.3956 -55.3597 -55.2992 -55.2941 -55.2653 -55.1963 -54.7305 -54.6187
   -33.0621 -32.9088 -32.8806 -32.8099 -32.7188 -32.6881 -32.2291 -32.2231
   -32.1554 -32.0425 -31.9963 -31.9722 -31.9536 -31.9325 -31.8988 -31.8943
   -31.8928 -31.8876 -31.8619 -31.8593 -31.8478 -31.8203 -31.7955 -31.7807
   -31.7677 -31.7490 -31.7399 -31.7152 -31.6914 -31.6375 -31.6262 -31.6133
   -31.5368 -31.5337 -31.5100 -31.4698 -31.4616 -31.4265 -31.4243 -31.4000
   -31.3775 -31.3156 -31.2362 -30.9763 -30.9609 -30.8779 -30.8405 -30.7506
   -16.7988 -16.3667 -16.1361 -15.9968 -15.9311 -15.8749 -15.8322 -15.7064
   -15.6384 -15.6303 -15.5887 -15.5607 -15.4892 -15.3495 -15.2510 -15.1983
   -15.1538 -15.0333 -14.9723 -14.9400 -14.9295 -14.8867 -14.8771 -14.6832
   -14.6602 -14.5665 -14.5452 -14.4245 -14.1899 -13.7980 -13.7018 -13.6879
   -12.8033  -7.5014  -4.3641  -3.8625  -3.8379  -3.6852  -3.6239  -3.5376
    -3.4304  -3.4164  -3.3299  -3.2154  -3.1711  -3.1234  -3.0069  -3.0056
    -2.8574  -2.8128  -2.8099  -2.8074  -2.7585  -2.6991  -2.6756  -2.6437
    -2.6348  -2.6059  -2.4787  -2.3824  -2.3107  -2.2877  -2.2816  -2.2460
    -2.1709  -2.1414  -2.1328  -2.1291  -2.0217  -1.8766  -1.8701  -1.8469
    -1.8049  -1.7996  -1.7571  -1.7439  -1.6262  -1.5356  -1.4331  -1.4168
    -1.3730  -1.3164  -1.3088  -1.2189  -1.1406  -1.0500  -1.0488  -0.9391
    -0.8917  -0.8747  -0.7845  -0.7248  -0.6854  -0.6592  -0.6468  -0.5467
    -0.5242  -0.5141  -0.4299  -0.4182  -0.3691  -0.2801  -0.2573  -0.2485
    -0.1661  -0.1635  -0.0682  -0.0264   0.0136   0.0489   0.1648   0.1821
     0.2804   0.3091   0.3367   0.4496   0.4656   0.5308   0.6055   0.6681
     0.6958   0.7223   0.7516   0.7709   0.8456   0.9575   0.9664   1.0688
     1.1010   1.2747   1.3137   1.4021   1.5999   1.6330   2.3025   2.6405
     2.7999   3.0983   3.2860   3.3992   3.6150   3.6311   3.6360   3.8053
     3.8580

[...]

          k =-0.0760-0.0000 0.0000 ( 17886 PWs)   bands (ev):

[...]

 ------ SPIN DOWN ----------

[...]

          k = 0.0380-0.0419 0.0000 ( 17876 PWs)   bands (ev):

[...]

          k =-0.0760-0.0839 0.0000 ( 17948 PWs)   bands (ev):

   -56.6173 -56.6170 -55.7435 -55.7376 -55.7308 -55.7302 -55.5953 -55.5946
   -55.3819 -55.3734 -55.2909 -55.2824 -55.2823 -55.1994 -54.7276 -54.6213
   -32.8944 -32.8942 -32.8787 -32.8786 -32.7628 -32.7625 -32.0590 -32.0567
   -32.0476 -32.0410 -31.9876 -31.9866 -31.9438 -31.9435 -31.9416 -31.9405
   -31.9329 -31.9300 -31.9278 -31.9262 -31.8479 -31.8459 -31.7969 -31.7940
   -31.7325 -31.7222 -31.6634 -31.6554 -31.6266 -31.6265 -31.6200 -31.5802
   -31.5759 -31.5483 -31.5141 -31.5078 -31.5077 -31.4686 -31.4686 -31.4651
   -31.4417 -31.4022 -31.1163 -30.9958 -30.9603 -30.9298 -30.8429 -30.8057
   -16.1477 -16.1456 -16.1127 -16.1125 -15.8440 -15.8404 -15.7976 -15.7951
   -15.6213 -15.6152 -15.4087 -15.4000 -15.3933 -15.3919 -15.2639 -15.2580
   -15.1926 -15.1822 -15.0930 -15.0838 -15.0273 -15.0208 -14.9783 -14.9573
   -14.6472 -14.6379 -14.5171 -14.4997 -14.3336 -13.7909 -13.7908 -13.7014
   -12.8199  -7.4916  -3.8418  -3.6970  -3.2465  -3.2462  -3.1824  -3.1814
    -3.0600  -3.0559  -2.9771  -2.9765  -2.8783  -2.8770  -2.7635  -2.7344
    -2.7314  -2.7304  -2.7138  -2.6665  -2.5778  -2.5748  -2.5644  -2.5499
    -2.4917  -2.4897  -2.4675  -2.4015  -2.3877  -2.3562  -2.3185  -2.2044
    -2.1941  -2.1821  -2.1503  -2.0870  -2.0799  -2.0669  -2.0245  -1.9920
    -1.9152  -1.8428  -1.8044  -1.6910  -1.6864  -1.6745  -1.6627  -1.5091
    -1.4688  -1.4383  -1.4313  -1.4251  -1.3772  -1.2824  -1.2749  -1.1428
    -1.1411  -1.0671  -0.9855  -0.9643  -0.9359  -0.8073  -0.7632  -0.7287
    -0.7210  -0.6929  -0.6728  -0.6511  -0.6075  -0.4717  -0.4601  -0.4212
    -0.3867  -0.3645  -0.3302  -0.2726  -0.1867  -0.1082  -0.1078  -0.0532
     0.0154   0.0761   0.1632   0.1732   0.1786   0.4597   0.5385   0.6280
     0.7038   0.7698   0.8334   0.8644   0.9197   0.9645   1.1009   1.1041
     1.1236   1.1240   1.1829   1.1867   1.3841   1.6391   2.1916   3.2133
     3.2137   3.2804   3.2809   3.6045   3.6103   3.7184   3.7277   3.8348
     3.8397

     the Fermi energy is     2.4809 ev

!    total energy              =   -2942.90759054 Ry
     estimated scf accuracy    <       0.00000006 Ry
     smearing contrib. (-TS)   =      -0.00487610 Ry
     internal energy E=F+TS    =   -2942.90271444 Ry

     The total energy is F=E-TS. E is the sum of the following terms:
     one-electron contribution =  -23241.26294426 Ry
     hartree contribution      =   11710.81350088 Ry
     xc contribution           =    -487.47385039 Ry
     ewald contribution        =    9075.02025963 Ry
     electric field correction =       0.00031970 Ry

     total magnetization       =    -0.00 Bohr mag/cell
     absolute magnetization    =     0.00 Bohr mag/cell

     convergence has been achieved in  61 iterations

     Forces acting on atoms (cartesian axes, Ry/au):

     atom    1 type  1   force =     0.00003759   -0.00040763    0.12407013
     atom    2 type  1   force =    -0.00009342   -0.00056878   -0.16063855
     atom    3 type  2   force =     0.00023390   -0.00026849   -0.06798211
     atom    4 type  2   force =     0.00001402   -0.00029170    0.02759240
     atom    5 type  2   force =    -0.01616229    0.00175292   -0.00936378
     atom    6 type  2   force =     0.01819436    0.00219123   -0.00898615
     atom    7 type  1   force =     0.00114786   -0.00378230    0.02170856
     atom    8 type  1   force =    -0.00057877   -0.00290842    0.11109157
     atom    9 type  2   force =    -0.00018250    0.00030520   -0.00044472
     atom   10 type  2   force =    -0.00196032    0.00129233   -0.07323146
     atom   11 type  2   force =     0.00022969   -0.00011033    0.00017149
     atom   12 type  2   force =    -0.00026870    0.00021768    0.00020699
     atom   13 type  1   force =    -0.00009515    0.00007477   -0.00040917
     atom   14 type  1   force =    -0.00058483    0.00044240    0.00042819
     atom   15 type  2   force =     0.00027360    0.00000938    0.00017082
     atom   16 type  2   force =    -0.00049326   -0.00036779    0.00055277
     atom   17 type  2   force =    -0.00059135    0.00023879    0.00008227
     atom   18 type  2   force =     0.00001935    0.00024378    0.00007884
     atom   19 type  1   force =     0.00038429   -0.00055735    0.00000177
     atom   20 type  1   force =    -0.00009774    0.00007913    0.00011411
     atom   21 type  2   force =     0.00004959   -0.00001150    0.09974786
     atom   22 type  2   force =     0.00026991   -0.00002870   -0.00039743
     atom   23 type  2   force =    -0.07915977   -0.00000010   -0.03244323
     atom   24 type  2   force =     0.07904534    0.00043904   -0.03246741
     atom   25 type  1   force =     0.00001658   -0.00040874    0.12360502
     atom   26 type  1   force =    -0.00010207   -0.00046586   -0.16079204
     atom   27 type  2   force =     0.00032988   -0.00048523   -0.06703558
     atom   28 type  2   force =     0.00002745   -0.00012188    0.02732049
     atom   29 type  2   force =    -0.01663748    0.00127730   -0.00947010
     atom   30 type  2   force =     0.01856795    0.00165471   -0.00910720
     atom   31 type  1   force =     0.00116382   -0.00137440    0.02113448
     atom   32 type  1   force =    -0.00053501    0.00033979    0.11173160
     atom   33 type  2   force =    -0.00016139   -0.00025132    0.00007357
     atom   34 type  2   force =    -0.00132532    0.00066752   -0.07268336
     atom   35 type  2   force =    -0.00077832   -0.00042919   -0.00002276
     atom   36 type  2   force =     0.00009900   -0.00001590    0.00010590
     atom   37 type  1   force =     0.00005422    0.00064313    0.00025275
     atom   38 type  1   force =    -0.00021271    0.00002213   -0.00017170
     atom   39 type  2   force =     0.00013182   -0.00018584    0.00090679
     atom   40 type  2   force =    -0.00018614   -0.00046725    0.00031400
     atom   41 type  2   force =     0.00008384   -0.00008925    0.00004077
     atom   42 type  2   force =     0.00039870    0.00002123    0.00000399
     atom   43 type  1   force =    -0.00022971   -0.00011581    0.00000948
     atom   44 type  1   force =    -0.00025244    0.00050553    0.00005792
     atom   45 type  2   force =     0.00002447   -0.00003525    0.09976705
     atom   46 type  2   force =    -0.07916518    0.00005390   -0.03244288
     atom   47 type  2   force =     0.07904593    0.00047605   -0.03246056
     atom   48 type  3   force =     0.00089450    0.00074279   -0.00134757
     atom   49 type  4   force =     0.00007737   -0.00046921    0.00010162
     atom   50 type  5   force =    -0.00007932    0.00077568    0.00082182
     atom   51 type  5   force =     0.00026549    0.00045885   -0.00009208
     atom   52 type  5   force =    -0.00029276   -0.00025492    0.00001494
     atom   53 type  3   force =    -0.00269495   -0.00008423   -0.02348317
     atom   54 type  5   force =     0.00096629   -0.00119703    0.00168500
     atom   55 type  5   force =     0.00619746    0.00438628    0.00588176
     atom   56 type  5   force =    -0.00532332   -0.00355710    0.01562628

     Total force =     0.425495     Total SCF correction =     0.000616
  @ DRIVER MODE: Message from server: STATUS
  @ DRIVER MODE: Message from server: GETFORCE
  @ DRIVER MODE: Returning v,forces,stress,ensemble

     Writing output data file ./calc.save/
  @ DRIVER MODE: Message from server: EXIT
  @ DRIVE MODE: Exiting

     General routines

     Parallel routines

   This run was terminated on:  11:58:29  16Jul2021

   JOB DONE.