     Program PWSCF v.6.7GPU starts on 16Jul2021 at 16:38:23

     R & G space division:  proc/nbgrp/npool/nimage =      16
     Reading input from /storage/home/hcoda1/3/ntian30/research/carbon/15Jul_vib/ads_slab/CH3NNH3_a/out_0045/pw.inp
Warning: card &CELL ignored
Warning: card   CELL_DYNAMICS='IPI', ignored
Warning: card / ignored

     Current dimensions of program PWSCF are:
     Max number of different atomic species (ntypx) = 10
     Max number of k-points (npk) =  40000
     Max angular momentum in pseudopotentials (lmaxx) =  3
     Presently no symmetry can be used with electric field

     Message from routine cell_base_init:
     DEPRECATED: use true lattice parameter, not A to a.u. conversion factor

     IMPORTANT: XC functional enforced from input :
     Exchange-correlation= BEEF-VDW
                           (   1   4  43  14   2   0   0)
     Any further DFT definition will be discarded
     Please, verify this is what you really want

  @ DRIVER MODE: Connecting to
 qe_1139763_2351650.sched-torque.pace.gatech.edu38fzw8fe_scratch
  using UNIX socket
  @ DRIVER MODE: Message from server: STATUS
  @ DRIVER MODE: Message from server: INIT
  @ DRIVER MODE: Receiving replica           0          -1
  @ DRIVER MODE: Receiving encoded integer          25
  @ DRIVER MODE:  SCF:  T  FORCE:  T  STRESS:  F  VC:  F  ENSEMBLE:  F
  @ DRIVER MODE:  SCF:  T  FORCE:  T  STRESS:  F  VC:  F  ENSEMBLE:  F

     Using Slab Decomposition

     bravais-lattice index     =            0
     lattice parameter (alat)  =       1.8897  a.u.
     unit-cell volume          =    6658.9804 (a.u.)^3
     number of atoms/cell      =           56
     number of atomic types    =            5
     number of electrons       =       398.00
     number of Kohn-Sham states=          209
     kinetic-energy cutoff     =      29.3995  Ry
     charge density cutoff     =     293.9946  Ry
     scf convergence threshold =      7.3E-08
     mixing beta               =       0.0500
     number of iterations used =            8  plain     mixing
     Exchange-correlation= BEEF-VDW
                           (   1   4  43  14   2   0   0)

     celldm(1)=   1.889726  celldm(2)=   0.000000  celldm(3)=   0.000000
     celldm(4)=   0.000000  celldm(5)=   0.000000  celldm(6)=   0.000000

     crystal axes: (cart. coord. in units of alat)
               a(1) = (   6.579727   0.000000   0.000000 )
               a(2) = (  -0.000775   5.961596   0.000000 )
               a(3) = (   0.000000   0.000000  25.155947 )

     reciprocal axes: (cart. coord. in units 2 pi/alat)
               b(1) = (  0.151982  0.000020  0.000000 )
               b(2) = (  0.000000  0.167740  0.000000 )
               b(3) = (  0.000000  0.000000  0.039752 )

     PseudoPot. # 1 for Ti read from file:
     /storage/coda1/p-amedford6/0/shared/rich_project_chbe-medford/medford-share/data/pseudos_module/espresso/nninc/pbe/van/Ti.UPF
     MD5 check sum: 8e4df49b7f0d34bbd5052bf3f5ea0213
     Pseudo is Ultrasoft, Zval = 12.0
     Generated by new atomic code, or converted to UPF format
     Using radial grid of  851 points,  6 beta functions with:
                l(1) =   0
                l(2) =   0
                l(3) =   1
                l(4) =   1
                l(5) =   2
                l(6) =   2
     Q(r) pseudized with  8 coefficients,  rinner =    1.000   1.000   1.000
                                                       1.000   1.000

     PseudoPot. # 2 for O  read from file:
     /storage/coda1/p-amedford6/0/shared/rich_project_chbe-medford/medford-share/data/pseudos_module/espresso/nninc/pbe/van/O.UPF
     MD5 check sum: 78c19812648e8988a0fe644b0f25305e
     Pseudo is Ultrasoft, Zval =  6.0
     Generated by new atomic code, or converted to UPF format
     Using radial grid of  737 points,  4 beta functions with:
                l(1) =   0
                l(2) =   0
                l(3) =   1
                l(4) =   1
     Q(r) pseudized with  8 coefficients,  rinner =    0.800   0.800   0.800

     PseudoPot. # 3 for N  read from file:
     /storage/coda1/p-amedford6/0/shared/rich_project_chbe-medford/medford-share/data/pseudos_module/espresso/nninc/pbe/van/N.UPF
     MD5 check sum: 90d10febe142ad51ac9d5be1deb811c4
     Pseudo is Ultrasoft, Zval =  5.0
     Generated by new atomic code, or converted to UPF format
     Using radial grid of  729 points,  4 beta functions with:
                l(1) =   0
                l(2) =   0
                l(3) =   1
                l(4) =   1
     Q(r) pseudized with  8 coefficients,  rinner =    0.800   0.800   0.800

     PseudoPot. # 4 for C  read from file:
     /storage/coda1/p-amedford6/0/shared/rich_project_chbe-medford/medford-share/data/pseudos_module/espresso/nninc/pbe/van/C.UPF
     MD5 check sum: 1a69bf6b8db32088f5b2163dbdb77a27
     Pseudo is Ultrasoft, Zval =  4.0
     Generated by new atomic code, or converted to UPF format
     Using radial grid of  721 points,  4 beta functions with:
                l(1) =   0
                l(2) =   0
                l(3) =   1
                l(4) =   1
     Q(r) pseudized with  8 coefficients,  rinner =    0.800   0.800   0.800

     PseudoPot. # 5 for H  read from file:
     /storage/coda1/p-amedford6/0/shared/rich_project_chbe-medford/medford-share/data/pseudos_module/espresso/nninc/pbe/van/H.UPF
     MD5 check sum: b5ee9d7bfd3a09ee7748110bda690ff7
     Pseudo is Ultrasoft, Zval =  1.0
     Generated by new atomic code, or converted to UPF format
     Using radial grid of  615 points,  1 beta functions with:
                l(1) =   0
     Q(r) pseudized with  8 coefficients,  rinner =    0.800

     atomic species   valence    mass     pseudopotential
        Ti1           12.00    47.86700     Ti( 1.00)
        O1             6.00    15.99900     O ( 1.00)
        N1             5.00    14.00700     N ( 1.00)
        C1             4.00    12.01100     C ( 1.00)
        H1             1.00     1.00800     H ( 1.00)

     Starting magnetic structure
     atomic species   magnetization
        Ti1          0.000
        O1           0.000
        N1           0.000
        C1           0.025
        H1           0.000

     No symmetry found

   Cartesian axes

     site n.     atom                  positions (alat units)
         1           Ti1 tau(   1) = (   0.0004258   2.9801865   6.0000000  )
         2           Ti1 tau(   2) = (   3.2906075   1.4906267   6.0002472  )
         3           O1  tau(   3) = (   0.0006271   0.0005054   7.9858123  )
         4           O1  tau(   4) = (   3.2906025   0.0005020   7.3038282  )
         5           O1  tau(   5) = (   4.5942328   1.4918067   9.2879030  )
         6           O1  tau(   6) = (   1.9868534   1.4903216   9.2879459  )
         7           Ti1 tau(   7) = (   3.2907910   2.8959150   9.1758416  )
         8           Ti1 tau(   8) = (   0.0015273   1.4827037   9.2680791  )
         9           O1  tau(   9) = (   3.3019049   5.9598586  11.2958584  )
        10           O1  tau(  10) = (   0.0116148   5.9584955  10.6183126  )
        11           O1  tau(  11) = (   1.3346742   1.4914638  12.6145280  )
        12           O1  tau(  12) = (   5.3113054   1.4894223  12.6320738  )
        13           Ti1 tau(  13) = (   6.4919192   2.9607050  12.7581921  )
        14           Ti1 tau(  14) = (   3.1808934   1.4809541  12.4628303  )
        15           O1  tau(  15) = (   0.0259758   5.9327586  14.5948705  )
        16           O1  tau(  16) = (   3.3179433   0.0111293  13.8771559  )
        17           O1  tau(  17) = (   4.5450242   1.5254396  16.0425357  )
        18           O1  tau(  18) = (   2.0945915   1.5254857  16.0466093  )
        19           Ti1 tau(  19) = (   3.3175380   3.0118254  15.6854273  )
        20           Ti1 tau(  20) = (   0.0287691   1.6153805  16.0968480  )
        21           O1  tau(  21) = (   3.2904802   0.0005063   4.7018136  )
        22           O1  tau(  22) = (   0.0272082   0.0527987  17.2096484  )
        23           O1  tau(  23) = (   1.3043587   1.4918075   6.0039043  )
        24           O1  tau(  24) = (   5.2767064   1.4903225   6.0039473  )
        25           Ti1 tau(  25) = (   0.0000382   5.9609847   6.0000000  )
        26           Ti1 tau(  26) = (   3.2902200   4.4714249   6.0002472  )
        27           O1  tau(  27) = (   0.0002396   2.9813036   7.9858123  )
        28           O1  tau(  28) = (   3.2902150   2.9813002   7.3038282  )
        29           O1  tau(  29) = (   4.5938453   4.4726049   9.2879030  )
        30           O1  tau(  30) = (   1.9864658   4.4711199   9.2879459  )
        31           Ti1 tau(  31) = (   3.2891106   5.8743827   9.1763621  )
        32           Ti1 tau(  32) = (   0.0006254   4.4649316   9.2693709  )
        33           O1  tau(  33) = (   3.3007599   2.9794320  11.2948048  )
        34           O1  tau(  34) = (   0.0092240   2.9805883  10.6323155  )
        35           O1  tau(  35) = (   1.3367187   4.4652043  12.6121808  )
        36           O1  tau(  36) = (   5.3110114   4.4536366  12.6300246  )
        37           Ti1 tau(  37) = (   6.5175235   5.9394146  12.7678677  )
        38           Ti1 tau(  38) = (   3.1810223   4.4618757  12.4682998  )
        39           O1  tau(  39) = (   0.0141956   2.9656780  14.6533049  )
        40           O1  tau(  40) = (   3.3125561   2.9946134  13.8784269  )
        41           O1  tau(  41) = (   4.5469694   4.5079638  16.0550352  )
        42           O1  tau(  42) = (   2.0896055   4.5089645  16.0567747  )
        43           Ti1 tau(  43) = (   3.3249511   0.0336637  15.6879192  )
        44           Ti1 tau(  44) = (   0.0309337   4.5948497  16.1324869  )
        45           O1  tau(  45) = (   3.2900926   2.9813045   4.7018136  )
        46           O1  tau(  46) = (   1.3039711   4.4726057   6.0039043  )
        47           O1  tau(  47) = (   5.2763189   4.4711207   6.0039473  )
        48           N1  tau(  48) = (   0.0510883   3.0100077  17.3315927  )
        49           C1  tau(  49) = (   0.2149723   3.0659314  18.7643681  )
        50           H1  tau(  50) = (   6.1109748   3.7957518  19.2115106  )
        51           H1  tau(  51) = (   0.0391147   2.0919789  19.2277120  )
        52           H1  tau(  52) = (   1.2341903   3.3897193  19.0223879  )
        53           N1  tau(  53) = (   4.7717085   1.8344328  21.5424420  )
        54           H1  tau(  54) = (   4.4711387   2.7986659  21.4441960  )
        55           H1  tau(  55) = (   4.1840297   1.2722813  20.9257432  )
        56           H1  tau(  56) = (   4.5427024   1.5537098  22.4892962  )

     number of k points=    10  Fermi-Dirac smearing, width (Ry)=  0.0073
                       cart. coord. in units 2pi/alat
        k(    1) = (   0.0000000   0.0000000   0.0000000), wk =   0.0625000
        k(    2) = (   0.0000000   0.0419351   0.0000000), wk =   0.1250000
        k(    3) = (   0.0000000  -0.0838702   0.0000000), wk =   0.0625000
        k(    4) = (   0.0379955   0.0000049   0.0000000), wk =   0.1250000
        k(    5) = (   0.0379955   0.0419400   0.0000000), wk =   0.1250000
[...]
     % Please cite the following two papers that made this development      %
     % possible and the two reviews that describe the various versions:     %
     %                                                                      %
     %   T. Thonhauser et al., PRL 115, 136402 (2015).                      %
     %   T. Thonhauser et al., PRB 76, 125112 (2007).                       %
     %   K. Berland et al., Rep. Prog. Phys. 78, 066501 (2015).             %
     %   D.C. Langreth et al., J. Phys.: Condens. Matter 21, 084203 (2009). %
     %                                                                      %
     %                                                                      %
     % If you are calculating the stress with vdW-DF, please also cite:     %
     %                                                                      %
     %   R. Sabatini et al., J. Phys.: Condens. Matter 24, 424209 (2012).   %
     %                                                                      %
     %%%%%%%%%%%%%%%%%%%%%%%%%%%%%%%%%%%%%%%%%%%%%%%%%%%%%%%%%%%%%%%%%%%%%%%%

     Adding external electric field

     Computed dipole along edir(3) :
        Dipole              -11.2917 Ry au,        -28.7007 Debye
        Dipole field         -0.0213 Ry au,

        Potential amp.        1.9753 Ry
        Total length         46.3494 bohr

[...]

     Starting wfcs are  302 atomic wfcs
  @ DRIVER MODE: Message from server: STATUS
  @ DRIVER MODE: Message from server: POSDATA
  @ DRIVER MODE: Reading and sharing cell
  @ DRIVER MODE: Reading and sharing positions
  @ DRIVER MODE: Received positions

     Self-consistent Calculation

     iteration #  1     ecut=    29.40 Ry     beta= 0.05
     Davidson diagonalization with overlap
     c_bands:  1 eigenvalues not converged
     c_bands:  1 eigenvalues not converged
     c_bands:  2 eigenvalues not converged
     c_bands:  1 eigenvalues not converged
     c_bands:  1 eigenvalues not converged
     c_bands:  1 eigenvalues not converged
     c_bands:  2 eigenvalues not converged
     c_bands:  2 eigenvalues not converged
     c_bands:  1 eigenvalues not converged
     c_bands:  1 eigenvalues not converged
     c_bands:  2 eigenvalues not converged
     c_bands:  1 eigenvalues not converged
     c_bands:  1 eigenvalues not converged
     c_bands:  1 eigenvalues not converged
     c_bands:  2 eigenvalues not converged
     c_bands:  2 eigenvalues not converged
     ethr =  1.00E-05,  avg # of iterations = 19.6

[...]

     total energy              =   -2520.84341880 Ry
     estimated scf accuracy    <    4704.40229644 Ry

     total magnetization       =     0.00 Bohr mag/cell
     absolute magnetization    =     0.01 Bohr mag/cell

[...]

     iteration #  3     ecut=    29.40 Ry     beta= 0.05
     Davidson diagonalization with overlap
     ethr =  1.00E-02,  avg # of iterations = 16.1

[...]

     iteration # 53     ecut=    29.40 Ry     beta= 0.05
     Davidson diagonalization with overlap
     c_bands:  1 eigenvalues not converged
     c_bands:  1 eigenvalues not converged
     ethr =  4.96E-08,  avg # of iterations =  7.4

[...]

     total energy              =   -2942.90773001 Ry
     estimated scf accuracy    <       0.00000008 Ry

[...]

     iteration # 72     ecut=    29.40 Ry     beta= 0.05
     Davidson diagonalization with overlap
     ethr =  1.98E-11,  avg # of iterations =  6.0

     negative rho (up, down):  5.674E-03 5.675E-03

[...]

     Adding external electric field

     Computed dipole along edir(3) :
        Dipole                0.4187 Ry au,          1.0643 Debye
        Dipole field          0.0008 Ry au,

        Potential amp.       -0.0733 Ry
        Total length         46.3494 bohr

     Magnetic moment per site  (integrated on atomic sphere of radius R)
     atom   1 (R=0.735)  charge=  8.0053  magn=  0.0002
     atom   2 (R=0.735)  charge=  8.0011  magn=  0.0001
     atom   3 (R=0.735)  charge=  4.9958  magn= -0.0001
     atom   4 (R=0.735)  charge=  5.0345  magn= -0.0000
     atom   5 (R=0.735)  charge=  4.9982  magn= -0.0000
     atom   6 (R=0.735)  charge=  4.9994  magn= -0.0000
     atom   7 (R=0.735)  charge=  7.9947  magn=  0.0000
     atom   8 (R=0.735)  charge=  7.9823  magn=  0.0000
     atom   9 (R=0.735)  charge=  5.0127  magn=  0.0000
     atom  10 (R=0.735)  charge=  4.9434  magn=  0.0000
     atom  11 (R=0.735)  charge=  4.9999  magn=  0.0000
     atom  12 (R=0.735)  charge=  5.0035  magn=  0.0000
     atom  13 (R=0.735)  charge=  7.9933  magn= -0.0000
     atom  14 (R=0.735)  charge=  8.0007  magn= -0.0000
     atom  15 (R=0.735)  charge=  4.9894  magn=  0.0000
     atom  16 (R=0.735)  charge=  5.0146  magn=  0.0000
     atom  17 (R=0.735)  charge=  4.9900  magn= -0.0000
     atom  18 (R=0.735)  charge=  4.9888  magn= -0.0000
     atom  19 (R=0.735)  charge=  8.0209  magn=  0.0000
     atom  20 (R=0.735)  charge=  8.0242  magn=  0.0001
     atom  21 (R=0.735)  charge=  4.8827  magn= -0.0002
     atom  22 (R=0.735)  charge=  4.9720  magn= -0.0000
     atom  23 (R=0.735)  charge=  4.9884  magn= -0.0001
     atom  24 (R=0.735)  charge=  4.9885  magn= -0.0001
     atom  25 (R=0.735)  charge=  8.0053  magn=  0.0002
     atom  26 (R=0.735)  charge=  8.0011  magn=  0.0001
     atom  27 (R=0.735)  charge=  4.9957  magn= -0.0001
     atom  28 (R=0.735)  charge=  5.0347  magn= -0.0000
     atom  29 (R=0.735)  charge=  4.9989  magn= -0.0000
     atom  30 (R=0.735)  charge=  5.0001  magn= -0.0000
     atom  31 (R=0.735)  charge=  7.9948  magn=  0.0000
     atom  32 (R=0.735)  charge=  7.9826  magn=  0.0000
     atom  33 (R=0.735)  charge=  5.0125  magn=  0.0000
     atom  34 (R=0.735)  charge=  4.9424  magn=  0.0000
     atom  35 (R=0.735)  charge=  5.0006  magn=  0.0000
     atom  36 (R=0.735)  charge=  5.0043  magn=  0.0000
     atom  37 (R=0.735)  charge=  7.9990  magn= -0.0000
     atom  38 (R=0.735)  charge=  8.0004  magn= -0.0000
     atom  39 (R=0.735)  charge=  4.9853  magn= -0.0000
     atom  40 (R=0.735)  charge=  5.0160  magn=  0.0000
     atom  41 (R=0.735)  charge=  4.9884  magn= -0.0000
     atom  42 (R=0.735)  charge=  4.9878  magn= -0.0000
     atom  43 (R=0.735)  charge=  8.0214  magn=  0.0000
     atom  44 (R=0.735)  charge=  8.0216  magn=  0.0001
     atom  45 (R=0.735)  charge=  4.8827  magn= -0.0001
     atom  46 (R=0.735)  charge=  4.9884  magn= -0.0001
     atom  47 (R=0.735)  charge=  4.9885  magn= -0.0001
     atom  48 (R=0.418)  charge=  1.3137  magn= -0.0002
     atom  49 (R=0.451)  charge=  0.8534  magn=  0.0000
     atom  50 (R=0.418)  charge=  0.4371  magn= -0.0000
     atom  51 (R=0.418)  charge=  0.4391  magn= -0.0000
     atom  52 (R=0.418)  charge=  0.4339  magn= -0.0000
     atom  53 (R=0.418)  charge=  1.3288  magn= -0.0002
     atom  54 (R=0.418)  charge=  0.4520  magn=  0.0000
     atom  55 (R=0.418)  charge=  0.4467  magn=  0.0000
     atom  56 (R=0.418)  charge=  0.4539  magn=  0.0000

     End of self-consistent calculation

 ------ SPIN UP ------------

          k = 0.0000 0.0000 0.0000 ( 18029 PWs)   bands (ev):

   -56.6311 -56.5975 -55.7556 -55.7437 -55.7206 -55.7109 -55.6102 -55.5749
   -55.3925 -55.3567 -55.2965 -55.2908 -55.2626 -55.1930 -54.7273 -54.6158
   -33.0589 -32.9058 -32.8777 -32.8069 -32.7159 -32.6849 -32.2264 -32.2200
   -32.1529 -32.0396 -31.9936 -31.9692 -31.9509 -31.9295 -31.8959 -31.8915
   -31.8902 -31.8846 -31.8590 -31.8563 -31.8449 -31.8177 -31.7929 -31.7778
   -31.7648 -31.7465 -31.7369 -31.7122 -31.6887 -31.6348 -31.6232 -31.6107
   -31.5336 -31.5307 -31.5073 -31.4665 -31.4585 -31.4238 -31.4211 -31.3967
   -31.3742 -31.3129 -31.2330 -30.9731 -30.9577 -30.8749 -30.8376 -30.7476
   -16.7956 -16.3637 -16.1331 -15.9936 -15.9281 -15.8717 -15.8290 -15.7034
   -15.6355 -15.6274 -15.5855 -15.5579 -15.4863 -15.3467 -15.2481 -15.1955
   -15.1510 -15.0305 -14.9694 -14.9370 -14.9265 -14.8837 -14.8740 -14.6804
   -14.6573 -14.5636 -14.5421 -14.4216 -14.1867 -13.7944 -13.6843 -13.6804
   -12.7996  -7.4974  -4.3610  -3.8596  -3.7707  -3.7237  -3.6211  -3.5346
    -3.4275  -3.4134  -3.3268  -3.2123  -3.1681  -3.1204  -3.0039  -3.0027
    -2.8545  -2.8096  -2.8067  -2.8043  -2.7552  -2.6962  -2.6722  -2.6409
    -2.6318  -2.6019  -2.4757  -2.3795  -2.3079  -2.2847  -2.2789  -2.2430
    -2.1679  -2.1384  -2.1298  -2.1262  -2.0187  -1.8735  -1.8671  -1.8439
    -1.8021  -1.7967  -1.7541  -1.7409  -1.6232  -1.5327  -1.4301  -1.4139
    -1.3699  -1.3136  -1.3057  -1.2159  -1.1378  -1.0469  -1.0457  -0.9360
    -0.8887  -0.8718  -0.7815  -0.7219  -0.6826  -0.6562  -0.6439  -0.5437
    -0.5210  -0.5111  -0.4270  -0.4152  -0.3662  -0.2771  -0.2543  -0.2454
    -0.1632  -0.1606  -0.0653  -0.0235   0.0166   0.0518   0.1678   0.1851
     0.2833   0.3119   0.3397   0.4525   0.4686   0.5338   0.6085   0.6710
     0.6988   0.7255   0.7545   0.7740   0.8485   0.9604   0.9696   1.0719
     1.1039   1.2784   1.3173   1.3962   1.6027   1.6360   2.3061   2.6435
     2.8028   3.1013   3.2890   3.4020   3.6180   3.6340   3.6392   3.8607
     3.8921

[...]

          k =-0.0760-0.0000 0.0000 ( 17886 PWs)   bands (ev):

[...]

 ------ SPIN DOWN ----------

[...]

          k = 0.0380-0.0419 0.0000 ( 17876 PWs)   bands (ev):

[...]

          k =-0.0760-0.0839 0.0000 ( 17948 PWs)   bands (ev):

   -56.6137 -56.6134 -55.7404 -55.7346 -55.7280 -55.7274 -55.5930 -55.5922
   -55.3787 -55.3703 -55.2877 -55.2792 -55.2791 -55.1963 -54.7242 -54.6183
   -32.8909 -32.8907 -32.8753 -32.8751 -32.7592 -32.7589 -32.0562 -32.0538
   -32.0445 -32.0379 -31.9849 -31.9839 -31.9413 -31.9409 -31.9388 -31.9377
   -31.9298 -31.9269 -31.9247 -31.9231 -31.8454 -31.8434 -31.7945 -31.7916
   -31.7294 -31.7191 -31.6603 -31.6523 -31.6233 -31.6232 -31.6169 -31.5771
   -31.5729 -31.5452 -31.5110 -31.5046 -31.5045 -31.4655 -31.4654 -31.4619
   -31.4386 -31.3991 -31.1130 -30.9928 -30.9570 -30.9265 -30.8398 -30.8026
   -16.1447 -16.1426 -16.1097 -16.1094 -15.8410 -15.8374 -15.7948 -15.7923
   -15.6185 -15.6123 -15.4058 -15.3972 -15.3905 -15.3890 -15.2611 -15.2552
   -15.1897 -15.1793 -15.0900 -15.0808 -15.0243 -15.0179 -14.9753 -14.9544
   -14.6442 -14.6349 -14.5142 -14.4968 -14.3305 -13.7884 -13.7883 -13.6806
   -12.8166  -7.4879  -3.7851  -3.7250  -3.2435  -3.2432  -3.1794  -3.1784
    -3.0571  -3.0531  -2.9740  -2.9734  -2.8755  -2.8742  -2.7601  -2.7316
    -2.7285  -2.7275  -2.7107  -2.6626  -2.5750  -2.5718  -2.5615  -2.5470
    -2.4886  -2.4867  -2.4643  -2.3986  -2.3848  -2.3534  -2.3156  -2.2014
    -2.1911  -2.1791  -2.1473  -2.0841  -2.0769  -2.0640  -2.0216  -1.9889
    -1.9122  -1.8397  -1.8014  -1.6881  -1.6835  -1.6716  -1.6598  -1.5061
    -1.4659  -1.4354  -1.4283  -1.4221  -1.3743  -1.2794  -1.2719  -1.1399
    -1.1383  -1.0642  -0.9826  -0.9614  -0.9330  -0.8043  -0.7603  -0.7258
    -0.7181  -0.6900  -0.6698  -0.6482  -0.6045  -0.4688  -0.4571  -0.4183
    -0.3838  -0.3616  -0.3273  -0.2696  -0.1837  -0.1053  -0.1049  -0.0502
     0.0184   0.0790   0.1661   0.1761   0.1816   0.4626   0.5413   0.6309
     0.7067   0.7729   0.8363   0.8673   0.9227   0.9674   1.1037   1.1069
     1.1260   1.1265   1.1858   1.1895   1.3782   1.6419   2.1947   3.2167
     3.2170   3.2839   3.2844   3.6079   3.6137   3.7218   3.7311   3.8379
     3.8428

     the Fermi energy is     2.4842 ev

!    total energy              =   -2942.90774408 Ry
     estimated scf accuracy    <       0.00000005 Ry
     smearing contrib. (-TS)   =      -0.00487789 Ry
     internal energy E=F+TS    =   -2942.90286619 Ry

     The total energy is F=E-TS. E is the sum of the following terms:
     one-electron contribution =  -23242.34803486 Ry
     hartree contribution      =   11711.38488333 Ry
     xc contribution           =    -487.46740334 Ry
     ewald contribution        =    9075.52735779 Ry
     electric field correction =       0.00033088 Ry

     total magnetization       =    -0.00 Bohr mag/cell
     absolute magnetization    =     0.00 Bohr mag/cell

     convergence has been achieved in  72 iterations

     Forces acting on atoms (cartesian axes, Ry/au):

     atom    1 type  1   force =     0.00003940   -0.00040812    0.12406552
     atom    2 type  1   force =    -0.00010310   -0.00057060   -0.16067371
     atom    3 type  2   force =     0.00023481   -0.00026870   -0.06797423
     atom    4 type  2   force =     0.00001335   -0.00029385    0.02759359
     atom    5 type  2   force =    -0.01614763    0.00175636   -0.00936996
     atom    6 type  2   force =     0.01818120    0.00219454   -0.00899319
     atom    7 type  1   force =     0.00115223   -0.00378223    0.02169032
     atom    8 type  1   force =    -0.00057799   -0.00290961    0.11105799
     atom    9 type  2   force =    -0.00017966    0.00030714   -0.00046581
     atom   10 type  2   force =    -0.00196075    0.00129310   -0.07324023
     atom   11 type  2   force =     0.00021855   -0.00010672    0.00016940
     atom   12 type  2   force =    -0.00024647    0.00022371    0.00020508
     atom   13 type  1   force =    -0.00009435    0.00008488   -0.00042928
     atom   14 type  1   force =    -0.00058266    0.00044986    0.00041585
     atom   15 type  2   force =     0.00027532   -0.00000155    0.00016796
     atom   16 type  2   force =    -0.00048830   -0.00036866    0.00057531
     atom   17 type  2   force =    -0.00060602    0.00023814    0.00010223
     atom   18 type  2   force =     0.00003653    0.00024325    0.00010648
     atom   19 type  1   force =     0.00038637   -0.00055632    0.00004308
     atom   20 type  1   force =    -0.00010619    0.00008259    0.00019261
     atom   21 type  2   force =     0.00004954   -0.00000721    0.09971404
     atom   22 type  2   force =     0.00027095   -0.00004739   -0.00037851
     atom   23 type  2   force =    -0.07915447    0.00000110   -0.03244312
     atom   24 type  2   force =     0.07904136    0.00043864   -0.03246538
     atom   25 type  1   force =     0.00001778   -0.00041521    0.12358404
     atom   26 type  1   force =    -0.00010015   -0.00046536   -0.16080950
     atom   27 type  2   force =     0.00033030   -0.00048405   -0.06702607
     atom   28 type  2   force =     0.00002856   -0.00012115    0.02732146
     atom   29 type  2   force =    -0.01662302    0.00128010   -0.00947579
     atom   30 type  2   force =     0.01855404    0.00165770   -0.00911178
     atom   31 type  1   force =     0.00116702   -0.00138568    0.02112043
     atom   32 type  1   force =    -0.00053246    0.00034552    0.11170085
     atom   33 type  2   force =    -0.00015977   -0.00024942    0.00005813
     atom   34 type  2   force =    -0.00132606    0.00066910   -0.07269210
     atom   35 type  2   force =    -0.00079084   -0.00043167   -0.00002373
     atom   36 type  2   force =     0.00011972   -0.00001987    0.00010828
     atom   37 type  1   force =     0.00005881    0.00063484    0.00021731
     atom   38 type  1   force =    -0.00021287    0.00002841   -0.00016597
     atom   39 type  2   force =     0.00013220   -0.00018320    0.00090050
     atom   40 type  2   force =    -0.00018060   -0.00046441    0.00033768
     atom   41 type  2   force =     0.00007321   -0.00008623    0.00007695
     atom   42 type  2   force =     0.00040934    0.00002242    0.00003869
     atom   43 type  1   force =    -0.00022807   -0.00011678    0.00010077
     atom   44 type  1   force =    -0.00026347    0.00050439    0.00010166
     atom   45 type  2   force =     0.00002547   -0.00003187    0.09973633
     atom   46 type  2   force =    -0.07916049    0.00005377   -0.03244337
     atom   47 type  2   force =     0.07904074    0.00047653   -0.03245616
     atom   48 type  3   force =     0.00090193    0.00074094   -0.00135082
     atom   49 type  4   force =     0.00010420   -0.00049967    0.00005972
     atom   50 type  5   force =    -0.00009106    0.00075764    0.00080798
     atom   51 type  5   force =     0.00025397    0.00050677   -0.00012085
     atom   52 type  5   force =    -0.00026722   -0.00024818   -0.00000528
     atom   53 type  3   force =    -0.00394267   -0.00679343   -0.00418949
     atom   54 type  5   force =    -0.00098462   -0.00056661   -0.00151832
     atom   55 type  5   force =     0.00481867    0.00679415    0.00386557
     atom   56 type  5   force =    -0.00082463    0.00009817    0.00158683

     Total force =     0.424562     Total SCF correction =     0.000598
  @ DRIVER MODE: Message from server: STATUS
  @ DRIVER MODE: Message from server: GETFORCE
  @ DRIVER MODE: Returning v,forces,stress,ensemble

     Writing output data file ./calc.save/
  @ DRIVER MODE: Message from server: EXIT
  @ DRIVE MODE: Exiting

     General routines

     Parallel routines

   This run was terminated on:  17: 8:13  16Jul2021

   JOB DONE.