     Program PWSCF v.6.7GPU starts on 24Aug2021 at 13:47:43

     R & G space division:  proc/nbgrp/npool/nimage =      72
     Reading input from /storage/home/hcoda1/3/ntian30/research/carbon/CH2_vib/ads_slab/CH2_a/out_0013/pw.inp
Warning: card &CELL ignored
Warning: card   CELL_DYNAMICS='IPI', ignored
Warning: card / ignored

     Current dimensions of program PWSCF are:
     Max number of different atomic species (ntypx) = 10
     Max number of k-points (npk) =  40000
     Max angular momentum in pseudopotentials (lmaxx) =  3
     Presently no symmetry can be used with electric field

     Message from routine cell_base_init:
     DEPRECATED: use true lattice parameter, not A to a.u. conversion factor

     IMPORTANT: XC functional enforced from input :
     Exchange-correlation= BEEF-VDW
                           (   1   4  43  14   2   0   0)
     Any further DFT definition will be discarded
     Please, verify this is what you really want

  @ DRIVER MODE: Connecting to
 qe_1139763_2641437.sched-torque.pace.gatech.edusmw2pg4o_scratch
  using UNIX socket
  @ DRIVER MODE: Message from server: STATUS
  @ DRIVER MODE: Message from server: INIT
  @ DRIVER MODE: Receiving replica           0          -1
  @ DRIVER MODE: Receiving encoded integer          25
  @ DRIVER MODE:  SCF:  T  FORCE:  T  STRESS:  F  VC:  F  ENSEMBLE:  F
  @ DRIVER MODE:  SCF:  T  FORCE:  T  STRESS:  F  VC:  F  ENSEMBLE:  F

     Using Slab Decomposition

     bravais-lattice index     =            0
     lattice parameter (alat)  =       1.8897  a.u.
     unit-cell volume          =    6658.9804 (a.u.)^3
     number of atoms/cell      =           50
     number of atomic types    =            4
     number of electrons       =       384.00
     number of Kohn-Sham states=          202
     kinetic-energy cutoff     =      29.3995  Ry
     charge density cutoff     =     293.9946  Ry
     scf convergence threshold =      7.3E-08
     mixing beta               =       0.0500
     number of iterations used =            8  plain     mixing
     Exchange-correlation= BEEF-VDW
                           (   1   4  43  14   2   0   0)

     celldm(1)=   1.889726  celldm(2)=   0.000000  celldm(3)=   0.000000
     celldm(4)=   0.000000  celldm(5)=   0.000000  celldm(6)=   0.000000

     crystal axes: (cart. coord. in units of alat)
               a(1) = (   6.579727   0.000000   0.000000 )
               a(2) = (  -0.000775   5.961596   0.000000 )
               a(3) = (   0.000000   0.000000  25.155947 )

     reciprocal axes: (cart. coord. in units 2 pi/alat)
               b(1) = (  0.151982  0.000020  0.000000 )
               b(2) = (  0.000000  0.167740  0.000000 )
               b(3) = (  0.000000  0.000000  0.039752 )

     PseudoPot. # 1 for Ti read from file:
     /storage/coda1/p-amedford6/0/shared/rich_project_chbe-medford/medford-share/data/pseudos_module/espresso/nninc/pbe/van/Ti.UPF
     MD5 check sum: 8e4df49b7f0d34bbd5052bf3f5ea0213
     Pseudo is Ultrasoft, Zval = 12.0
     Generated by new atomic code, or converted to UPF format
     Using radial grid of  851 points,  6 beta functions with:
                l(1) =   0
                l(2) =   0
                l(3) =   1
                l(4) =   1
                l(5) =   2
                l(6) =   2
     Q(r) pseudized with  8 coefficients,  rinner =    1.000   1.000   1.000
                                                       1.000   1.000

     PseudoPot. # 2 for O  read from file:
     /storage/coda1/p-amedford6/0/shared/rich_project_chbe-medford/medford-share/data/pseudos_module/espresso/nninc/pbe/van/O.UPF
     MD5 check sum: 78c19812648e8988a0fe644b0f25305e
     Pseudo is Ultrasoft, Zval =  6.0
     Generated by new atomic code, or converted to UPF format
     Using radial grid of  737 points,  4 beta functions with:
                l(1) =   0
                l(2) =   0
                l(3) =   1
                l(4) =   1
     Q(r) pseudized with  8 coefficients,  rinner =    0.800   0.800   0.800

     PseudoPot. # 3 for C  read from file:
     /storage/coda1/p-amedford6/0/shared/rich_project_chbe-medford/medford-share/data/pseudos_module/espresso/nninc/pbe/van/C.UPF
     MD5 check sum: 1a69bf6b8db32088f5b2163dbdb77a27
     Pseudo is Ultrasoft, Zval =  4.0
     Generated by new atomic code, or converted to UPF format
     Using radial grid of  721 points,  4 beta functions with:
                l(1) =   0
                l(2) =   0
                l(3) =   1
                l(4) =   1
     Q(r) pseudized with  8 coefficients,  rinner =    0.800   0.800   0.800

     PseudoPot. # 4 for H  read from file:
     /storage/coda1/p-amedford6/0/shared/rich_project_chbe-medford/medford-share/data/pseudos_module/espresso/nninc/pbe/van/H.UPF
     MD5 check sum: b5ee9d7bfd3a09ee7748110bda690ff7
     Pseudo is Ultrasoft, Zval =  1.0
     Generated by new atomic code, or converted to UPF format
     Using radial grid of  615 points,  1 beta functions with:
                l(1) =   0
     Q(r) pseudized with  8 coefficients,  rinner =    0.800

     atomic species   valence    mass     pseudopotential
        Ti1           12.00    47.86700     Ti( 1.00)
        O1             6.00    15.99900     O ( 1.00)
        C1             4.00    12.01100     C ( 1.00)
        H1             1.00     1.00800     H ( 1.00)

     No symmetry found

   Cartesian axes

     site n.     atom                  positions (alat units)
         1           Ti1 tau(   1) = (   0.0004258   2.9801865   6.0000000  )
         2           Ti1 tau(   2) = (   3.2906075   1.4906267   6.0002472  )
         3           O1  tau(   3) = (   0.0006271   0.0005054   7.9858123  )
         4           O1  tau(   4) = (   3.2906025   0.0005020   7.3038282  )
         5           O1  tau(   5) = (   4.5942328   1.4918067   9.2879030  )
         6           O1  tau(   6) = (   1.9868534   1.4903216   9.2879459  )
         7           Ti1 tau(   7) = (   3.2756478   2.8760420   9.1630771  )
         8           Ti1 tau(   8) = (   6.5651030   1.4385007   9.3790407  )
         9           O1  tau(   9) = (   3.2651923   0.0045787  11.3553482  )
        10           O1  tau(  10) = (   6.5766178   5.9492394  10.5646413  )
        11           O1  tau(  11) = (   1.2591847   1.4977620  12.6679731  )
        12           O1  tau(  12) = (   5.2482661   1.4982983  12.6347741  )
        13           Ti1 tau(  13) = (   0.0651775   2.9654633  12.8696618  )
        14           Ti1 tau(  14) = (   3.3800656   1.4924449  12.4946823  )
        15           O1  tau(  15) = (   6.5296085   5.9207011  14.6097682  )
        16           O1  tau(  16) = (   3.2682314   0.0147111  13.9481481  )
        17           O1  tau(  17) = (   4.4912147   1.5408453  16.1034427  )
        18           O1  tau(  18) = (   2.0062121   1.5430191  16.1010343  )
        19           Ti1 tau(  19) = (   3.2584153   3.0188911  15.7272741  )
        20           Ti1 tau(  20) = (   6.5595668   1.6180917  16.2090303  )
        21           O1  tau(  21) = (   3.2904802   0.0005063   4.7018136  )
        22           O1  tau(  22) = (   6.5447935   0.0528136  17.2578995  )
        23           O1  tau(  23) = (   1.3043587   1.4918075   6.0039043  )
        24           O1  tau(  24) = (   5.2767064   1.4903225   6.0039473  )
        25           Ti1 tau(  25) = (   0.0000382   5.9609847   6.0000000  )
        26           Ti1 tau(  26) = (   3.2902200   4.4714249   6.0002472  )
        27           O1  tau(  27) = (   0.0002396   2.9813036   7.9858123  )
        28           O1  tau(  28) = (   3.2902150   2.9813002   7.3038282  )
        29           O1  tau(  29) = (   4.5938453   4.4726049   9.2879030  )
        30           O1  tau(  30) = (   1.9864658   4.4711199   9.2879459  )
        31           Ti1 tau(  31) = (   3.2806623   5.8565216   9.1617982  )
        32           Ti1 tau(  32) = (   6.5670484   4.4138833   9.3856844  )
        33           O1  tau(  33) = (   3.2704644   2.9808095  11.3502114  )
        34           O1  tau(  34) = (   6.5770050   2.9672111  10.5601139  )
        35           O1  tau(  35) = (   1.2614422   4.4490125  12.6594447  )
        36           O1  tau(  36) = (   5.2451530   4.4578719  12.6250501  )
        37           Ti1 tau(  37) = (   0.0436288   5.9429386  12.8080954  )
        38           Ti1 tau(  38) = (   3.3780510   4.4695497  12.4860242  )
        39           O1  tau(  39) = (   6.5513063   2.9765972  14.7162787  )
        40           O1  tau(  40) = (   3.2682626   2.9952000  13.9367060  )
        41           O1  tau(  41) = (   4.4851171   4.5114873  16.1027694  )
        42           O1  tau(  42) = (   2.0082088   4.5103763  16.0975713  )
        43           Ti1 tau(  43) = (   3.2690221   0.0357551  15.7449602  )
        44           Ti1 tau(  44) = (   6.5655258   4.6249605  16.1704562  )
        45           O1  tau(  45) = (   3.2900926   2.9813045   4.7018136  )
        46           O1  tau(  46) = (   1.3039711   4.4726057   6.0039043  )
        47           O1  tau(  47) = (   5.2763189   4.4711207   6.0039473  )
        48           C1  tau(  48) = (   6.5259393   3.0234738  17.6125649  )
        49           H1  tau(  49) = (   0.8472112   3.1395175  18.2203151  )
        50           H1  tau(  50) = (   5.6109537   3.1160310  18.2142257  )

     number of k points=    10  Fermi-Dirac smearing, width (Ry)=  0.0073
                       cart. coord. in units 2pi/alat
        k(    1) = (   0.0000000   0.0000000   0.0000000), wk =   0.1250000
        k(    2) = (   0.0000000   0.0419351   0.0000000), wk =   0.2500000
        k(    3) = (   0.0000000  -0.0838702   0.0000000), wk =   0.1250000
        k(    4) = (   0.0379955   0.0000049   0.0000000), wk =   0.2500000
        k(    5) = (   0.0379955   0.0419400   0.0000000), wk =   0.2500000
        k(    6) = (   0.0379955  -0.0838652   0.0000000), wk =   0.2500000
        k(    7) = (   0.0379955  -0.0419301   0.0000000), wk =   0.2500000
        k(    8) = (  -0.0759910  -0.0000099   0.0000000), wk =   0.1250000
        k(    9) = (  -0.0759910   0.0419252   0.0000000), wk =   0.2500000
        k(   10) = (  -0.0759910  -0.0838800   0.0000000), wk =   0.1250000

     Initial potential from superposition of free atoms

     starting charge  367.99919, renormalised to  384.00000

     negative rho (up, down):  2.116E-02 0.000E+00

     %%%%%%%%%%%%%%%%%%%%%%%%%%%%%%%%%%%%%%%%%%%%%%%%%%%%%%%%%%%%%%%%%%%%%%%%
     %                                                                      %
     % You are using vdW-DF, which was implemented by the Thonhauser group. %
     % Please cite the following two papers that made this development      %
     % possible and the two reviews that describe the various versions:     %
     %                                                                      %
     %   T. Thonhauser et al., PRL 115, 136402 (2015).                      %
     %   T. Thonhauser et al., PRB 76, 125112 (2007).                       %
     %   K. Berland et al., Rep. Prog. Phys. 78, 066501 (2015).             %
     %   D.C. Langreth et al., J. Phys.: Condens. Matter 21, 084203 (2009). %
     %                                                                      %
     %                                                                      %
     % If you are calculating the stress with vdW-DF, please also cite:     %
     %                                                                      %
     %   R. Sabatini et al., J. Phys.: Condens. Matter 24, 424209 (2012).   %
     %                                                                      %
     %%%%%%%%%%%%%%%%%%%%%%%%%%%%%%%%%%%%%%%%%%%%%%%%%%%%%%%%%%%%%%%%%%%%%%%%

     Adding external electric field

     Computed dipole along edir(3) :
        Dipole               -0.5194 Ry au,         -1.3201 Debye
        Dipole field         -0.0010 Ry au,

        Potential amp.        0.0909 Ry
        Total length         46.3494 bohr

     Starting wfcs are  290 atomic wfcs
  @ DRIVER MODE: Message from server: STATUS
  @ DRIVER MODE: Message from server: POSDATA
  @ DRIVER MODE: Reading and sharing cell
  @ DRIVER MODE: Reading and sharing positions
  @ DRIVER MODE: Received positions

     Self-consistent Calculation

     iteration #  1     ecut=    29.40 Ry     beta= 0.05
     Davidson diagonalization with overlap
     c_bands:  1 eigenvalues not converged
     c_bands:  2 eigenvalues not converged
     c_bands:  3 eigenvalues not converged
     c_bands:  1 eigenvalues not converged
     c_bands:  1 eigenvalues not converged
     c_bands:  2 eigenvalues not converged
     c_bands:  1 eigenvalues not converged
     c_bands:  2 eigenvalues not converged
     c_bands:  1 eigenvalues not converged
     c_bands:  2 eigenvalues not converged
     ethr =  1.00E-05,  avg # of iterations = 22.0

[...]

     total energy              =   -2899.22638101 Ry
     estimated scf accuracy    <      12.09399101 Ry

     iteration #  2     ecut=    29.40 Ry     beta= 0.05
     Davidson diagonalization with overlap
     ethr =  3.15E-03,  avg # of iterations =  1.0

[...]

     iteration # 42     ecut=    29.40 Ry     beta= 0.05
     Davidson diagonalization with overlap
     c_bands:  1 eigenvalues not converged
     ethr =  2.07E-07,  avg # of iterations = 10.5

[...]

     total energy              =   -2897.72455499 Ry
     estimated scf accuracy    <       0.00000017 Ry

     iteration # 61     ecut=    29.40 Ry     beta= 0.05
     Davidson diagonalization with overlap
     ethr =  4.33E-11,  avg # of iterations =  2.7

     negative rho (up, down):  2.037E-02 0.000E+00

     Adding external electric field

     Computed dipole along edir(3) :
        Dipole                0.2830 Ry au,          0.7194 Debye
        Dipole field          0.0005 Ry au,

        Potential amp.       -0.0495 Ry
        Total length         46.3494 bohr

     End of self-consistent calculation

          k = 0.0000 0.0000 0.0000 ( 18029 PWs)   bands (ev):

   -56.6530 -56.6190 -56.3990 -56.3623 -56.3259 -56.2733 -56.0910 -56.0859
   -56.0520 -55.9842 -55.9590 -55.9208 -55.5524 -55.4717 -55.4377 -55.4271
   -33.0825 -32.9452 -32.9019 -32.8732 -32.8435 -32.7767 -32.7519 -32.7230
   -32.7090 -32.6434 -32.6252 -32.5988 -32.5907 -32.5673 -32.5615 -32.5515
   -32.5481 -32.5304 -32.4593 -32.4540 -32.3874 -32.3492 -32.3375 -32.3256
   -32.3084 -32.3081 -32.2370 -32.2244 -32.2153 -32.1966 -32.1955 -32.1589
   -32.1505 -32.1371 -32.1130 -32.0579 -32.0194 -31.8731 -31.8607 -31.8065
   -31.7952 -31.7715 -31.7461 -31.6915 -31.6064 -31.6042 -31.4944 -31.4741
   -17.0501 -16.8387 -16.6269 -16.4781 -16.3963 -16.3439 -16.0510 -16.0338
   -16.0244 -15.9244 -15.9133 -15.8599 -15.8263 -15.8230 -15.8136 -15.8074
   -15.7718 -15.7288 -15.6973 -15.6617 -15.6289 -15.5950 -15.5042 -15.4656
   -15.4470 -15.3227 -15.2649 -15.2308 -15.0942 -13.9650 -13.8504  -8.3683
    -4.4330  -4.3838  -4.2310  -4.2220  -4.1032  -3.8884  -3.7066  -3.5190
    -3.4874  -3.4581  -3.4520  -3.3484  -3.2954  -3.1851  -3.1839  -3.1520
    -3.1382  -3.1063  -3.0849  -3.0802  -3.0395  -3.0208  -2.9558  -2.9145
    -2.9052  -2.8486  -2.7682  -2.6748  -2.6554  -2.6266  -2.5940  -2.5550
    -2.5377  -2.4388  -2.4326  -2.3665  -2.2311  -2.2095  -2.1615  -2.1329
    -2.1015  -2.0624  -1.9250  -1.7857  -1.7420  -1.7258  -1.6953  -1.6850
    -1.6548  -1.5324  -1.4897  -1.3901  -1.3589  -1.2476  -1.2346  -1.2175
    -1.2018  -1.1716  -1.1028  -1.0753  -1.0405  -0.9581  -0.8975  -0.7676
    -0.7338  -0.7152  -0.6866  -0.6792  -0.6209  -0.5789  -0.5210  -0.5107
    -0.4516  -0.4096  -0.3926  -0.3766  -0.3516  -0.2923  -0.2157  -0.1955
    -0.1326  -0.0947   0.1022   0.1421   0.1700   0.1886   0.2686   0.3017
     0.4791   0.4926   0.5570   0.7596   0.7990   1.1504   1.2298   1.7143
     2.6105   2.7905   2.9852   3.0432   3.0873   3.1670   3.2218   3.2999
     3.3328   3.4543

[...]

          k = 0.0380-0.0419 0.0000 ( 17876 PWs)   bands (ev):

[...]

          k =-0.0760-0.0000 0.0000 ( 17886 PWs)   bands (ev):

[...]

          k =-0.0760-0.0839 0.0000 ( 17948 PWs)   bands (ev):

   -56.6387 -56.6331 -56.3843 -56.3768 -56.3195 -56.2796 -56.0882 -56.0697
   -56.0680 -55.9870 -55.9475 -55.9322 -55.5500 -55.4547 -55.4546 -55.4293
   -32.9021 -32.8975 -32.8905 -32.8837 -32.7982 -32.7936 -32.7530 -32.7466
   -32.6866 -32.6735 -32.6164 -32.6097 -32.5860 -32.5782 -32.5711 -32.5634
   -32.5188 -32.4825 -32.4084 -32.3923 -32.3915 -32.3317 -32.3233 -32.3202
   -32.3077 -32.2931 -32.2881 -32.2845 -32.2624 -32.2536 -32.2341 -32.2175
   -32.1598 -32.1587 -32.1479 -32.1451 -31.9281 -31.8589 -31.8101 -31.7844
   -31.7844 -31.7302 -31.6981 -31.6872 -31.6871 -31.6491 -31.6490 -31.4937
   -16.5191 -16.4920 -16.2736 -16.2600 -16.1503 -16.1476 -16.1355 -16.1344
   -16.0457 -16.0413 -15.9951 -15.9745 -15.9171 -15.9047 -15.8637 -15.8623
   -15.8402 -15.8388 -15.7971 -15.7945 -15.6524 -15.6507 -15.5377 -15.5305
   -15.4930 -15.4511 -15.4109 -15.3983 -15.2346 -13.9527 -13.9522  -8.3702
    -3.8226  -3.7854  -3.4877  -3.4793  -3.2796  -3.2764  -3.2573  -3.2487
    -3.2286  -3.2013  -3.1967  -3.1858  -3.1478  -3.1065  -3.0841  -3.0659
    -3.0548  -3.0471  -3.0424  -3.0415  -3.0214  -3.0020  -2.9869  -2.9623
    -2.9030  -2.8920  -2.8682  -2.8590  -2.7758  -2.6312  -2.5647  -2.5589
    -2.5470  -2.5285  -2.4875  -2.3984  -2.3937  -2.3569  -2.3497  -2.3308
    -2.1372  -2.0729  -2.0695  -2.0075  -1.9787  -1.8750  -1.7279  -1.6949
    -1.6705  -1.6483  -1.5658  -1.5265  -1.5126  -1.4888  -1.4813  -1.4546
    -1.4445  -1.3584  -1.3500  -1.3170  -1.2712  -1.2098  -1.2058  -1.1839
    -1.1635  -1.0645  -0.9956  -0.9796  -0.9653  -0.9233  -0.8539  -0.8034
    -0.7631  -0.6754  -0.6596  -0.3912  -0.3893  -0.2523  -0.2382  -0.1117
    -0.1004  -0.0078   0.0231   0.0669   0.1820   0.1956   0.2003   0.2262
     0.3273   0.3286   0.3643   0.9406   0.9409   1.0063   1.0077   1.9889
     3.0334   3.0504   3.1320   3.1489   3.1535   3.1713   3.2151   3.2176
     3.5120   3.5244

     the Fermi energy is     2.3267 ev

!    total energy              =   -2897.72460260 Ry
     estimated scf accuracy    <       0.00000006 Ry
     smearing contrib. (-TS)   =      -0.00185698 Ry
     internal energy E=F+TS    =   -2897.72274563 Ry

     The total energy is F=E-TS. E is the sum of the following terms:
     one-electron contribution =  -24684.92302894 Ry
     hartree contribution      =   12420.41079549 Ry
     xc contribution           =    -473.85032465 Ry
     ewald contribution        =    9840.63966129 Ry
     electric field correction =       0.00015118 Ry

     convergence has been achieved in  61 iterations

     Forces acting on atoms (cartesian axes, Ry/au):

     atom    1 type  1   force =     0.00029975   -0.00003817    0.14822551
     atom    2 type  1   force =     0.00005416   -0.00032689   -0.17140939
     atom    3 type  2   force =    -0.00004572    0.00265179   -0.05990634
     atom    4 type  2   force =    -0.00032606   -0.00141154    0.04062531
     atom    5 type  2   force =    -0.02537391    0.00094230    0.00495160
     atom    6 type  2   force =     0.02288240    0.00011783    0.00299954
     atom    7 type  1   force =    -0.00051038   -0.00071425   -0.00011020
     atom    8 type  1   force =     0.00074089   -0.00041797    0.00042239
     atom    9 type  2   force =     0.00089725   -0.00028429    0.00034584
     atom   10 type  2   force =    -0.00010668   -0.00000366   -0.00024291
     atom   11 type  2   force =    -0.00016615    0.00003546    0.00014874
     atom   12 type  2   force =     0.00017240    0.00012040    0.00010432
     atom   13 type  1   force =     0.00002833   -0.00100622    0.00035606
     atom   14 type  1   force =    -0.00004575   -0.00114859   -0.00029808
     atom   15 type  2   force =     0.00025669   -0.00030936   -0.00046907
     atom   16 type  2   force =     0.00001721    0.00015625    0.00037084
     atom   17 type  2   force =     0.00102485    0.00006812    0.00020239
     atom   18 type  2   force =    -0.00074859   -0.00017112    0.00037425
     atom   19 type  1   force =     0.00057961   -0.00026996    0.00003058
     atom   20 type  1   force =     0.00005695   -0.00017876    0.00039163
     atom   21 type  2   force =     0.00014031   -0.00010332    0.10272488
     atom   22 type  2   force =     0.00012142   -0.00011363   -0.00031255
     atom   23 type  2   force =    -0.07354599    0.00029549   -0.03460850
     atom   24 type  2   force =     0.07359493    0.00074159   -0.03465934
     atom   25 type  1   force =     0.00007932   -0.00018550    0.14941977
     atom   26 type  1   force =    -0.00000272   -0.00105491   -0.17156921
     atom   27 type  2   force =    -0.00006926    0.00191980   -0.05889498
     atom   28 type  2   force =    -0.00039752   -0.00137247    0.04059591
     atom   29 type  2   force =    -0.02529410    0.00191405    0.00523978
     atom   30 type  2   force =     0.02338334    0.00034562    0.00328690
     atom   31 type  1   force =    -0.00048383   -0.00019409   -0.00005101
     atom   32 type  1   force =     0.00062572   -0.00027993    0.00001509
     atom   33 type  2   force =     0.00005369   -0.00037791    0.00042469
     atom   34 type  2   force =     0.00007181   -0.00014469    0.00002464
     atom   35 type  2   force =    -0.00019521   -0.00035480   -0.00036102
     atom   36 type  2   force =     0.00051865   -0.00063122   -0.00015017
     atom   37 type  1   force =     0.00089620    0.00031746   -0.00002332
     atom   38 type  1   force =    -0.00034947   -0.00015894    0.00022978
     atom   39 type  2   force =     0.00005158    0.00009412   -0.00116099
     atom   40 type  2   force =     0.00000051    0.00030074   -0.00083153
     atom   41 type  2   force =     0.00018342    0.00024201    0.00020016
     atom   42 type  2   force =     0.00025665    0.00049613    0.00037392
     atom   43 type  1   force =     0.00045659    0.00080380   -0.00080999
     atom   44 type  1   force =    -0.00055964    0.00025271    0.00009298
     atom   45 type  2   force =     0.00013840   -0.00009472    0.10269304
     atom   46 type  2   force =    -0.07357412   -0.00012564   -0.03459945
     atom   47 type  2   force =     0.07363090    0.00033920   -0.03467703
     atom   48 type  3   force =    -0.00664008    0.00073417    0.00477643
     atom   49 type  4   force =    -0.00178474   -0.00058043    0.00041429
     atom   50 type  4   force =     0.00900597   -0.00083602   -0.00491614

     Total force =     0.404559     Total SCF correction =     0.000672
  @ DRIVER MODE: Message from server: STATUS
  @ DRIVER MODE: Message from server: GETFORCE
  @ DRIVER MODE: Returning v,forces,stress,ensemble

     Writing output data file ./calc.save/
  @ DRIVER MODE: Message from server: EXIT
  @ DRIVE MODE: Exiting

     General routines

     Parallel routines

   This run was terminated on:  14: 2:49  24Aug2021

   JOB DONE.