     Program PWSCF v.6.7GPU starts on 24Aug2021 at 22:23:40

     R & G space division:  proc/nbgrp/npool/nimage =       6
     Reading input from /storage/home/hcoda1/3/ntian30/research/carbon/CH3_vib_end_on/ads_slab/CH3N2H2_f/out_0011/pw.inp
Warning: card &CELL ignored
Warning: card   CELL_DYNAMICS='IPI', ignored
Warning: card / ignored

     Current dimensions of program PWSCF are:
     Max number of different atomic species (ntypx) = 10
     Max number of k-points (npk) =  40000
     Max angular momentum in pseudopotentials (lmaxx) =  3
     Presently no symmetry can be used with electric field

     Message from routine cell_base_init:
     DEPRECATED: use true lattice parameter, not A to a.u. conversion factor

     IMPORTANT: XC functional enforced from input :
     Exchange-correlation= BEEF-VDW
                           (   1   4  43  14   2   0   0)
     Any further DFT definition will be discarded
     Please, verify this is what you really want

  @ DRIVER MODE: Connecting to
 qe_1139763_2643870.sched-torque.pace.gatech.edujmrezk4s_scratch
  using UNIX socket
  @ DRIVER MODE: Message from server: STATUS
  @ DRIVER MODE: Message from server: INIT
  @ DRIVER MODE: Receiving replica           0          -1
  @ DRIVER MODE: Receiving encoded integer          25
  @ DRIVER MODE:  SCF:  T  FORCE:  T  STRESS:  F  VC:  F  ENSEMBLE:  F
  @ DRIVER MODE:  SCF:  T  FORCE:  T  STRESS:  F  VC:  F  ENSEMBLE:  F

     Using Slab Decomposition

     bravais-lattice index     =            0
     lattice parameter (alat)  =       1.8897  a.u.
     unit-cell volume          =    6658.9804 (a.u.)^3
     number of atoms/cell      =           55
     number of atomic types    =            5
     number of electrons       =       397.00
     number of Kohn-Sham states=          208
     kinetic-energy cutoff     =      29.3995  Ry
     charge density cutoff     =     293.9946  Ry
     scf convergence threshold =      7.3E-08
     mixing beta               =       0.0500
     number of iterations used =            8  plain     mixing
     Exchange-correlation= BEEF-VDW
                           (   1   4  43  14   2   0   0)

     celldm(1)=   1.889726  celldm(2)=   0.000000  celldm(3)=   0.000000
     celldm(4)=   0.000000  celldm(5)=   0.000000  celldm(6)=   0.000000

     crystal axes: (cart. coord. in units of alat)
               a(1) = (   6.579727   0.000000   0.000000 )
               a(2) = (  -0.000775   5.961596   0.000000 )
               a(3) = (   0.000000   0.000000  25.155947 )

     reciprocal axes: (cart. coord. in units 2 pi/alat)
               b(1) = (  0.151982  0.000020  0.000000 )
               b(2) = (  0.000000  0.167740  0.000000 )
               b(3) = (  0.000000  0.000000  0.039752 )

     PseudoPot. # 1 for Ti read from file:
     /storage/coda1/p-amedford6/0/shared/rich_project_chbe-medford/medford-share/data/pseudos_module/espresso/nninc/pbe/van/Ti.UPF
     MD5 check sum: 8e4df49b7f0d34bbd5052bf3f5ea0213
     Pseudo is Ultrasoft, Zval = 12.0
     Generated by new atomic code, or converted to UPF format
     Using radial grid of  851 points,  6 beta functions with:
                l(1) =   0
                l(2) =   0
                l(3) =   1
                l(4) =   1
                l(5) =   2
                l(6) =   2
     Q(r) pseudized with  8 coefficients,  rinner =    1.000   1.000   1.000
                                                       1.000   1.000

     PseudoPot. # 2 for O  read from file:
     /storage/coda1/p-amedford6/0/shared/rich_project_chbe-medford/medford-share/data/pseudos_module/espresso/nninc/pbe/van/O.UPF
     MD5 check sum: 78c19812648e8988a0fe644b0f25305e
     Pseudo is Ultrasoft, Zval =  6.0
     Generated by new atomic code, or converted to UPF format
     Using radial grid of  737 points,  4 beta functions with:
                l(1) =   0
                l(2) =   0
                l(3) =   1
                l(4) =   1
     Q(r) pseudized with  8 coefficients,  rinner =    0.800   0.800   0.800

     PseudoPot. # 3 for N  read from file:
     /storage/coda1/p-amedford6/0/shared/rich_project_chbe-medford/medford-share/data/pseudos_module/espresso/nninc/pbe/van/N.UPF
     MD5 check sum: 90d10febe142ad51ac9d5be1deb811c4
     Pseudo is Ultrasoft, Zval =  5.0
     Generated by new atomic code, or converted to UPF format
     Using radial grid of  729 points,  4 beta functions with:
                l(1) =   0
                l(2) =   0
                l(3) =   1
                l(4) =   1
     Q(r) pseudized with  8 coefficients,  rinner =    0.800   0.800   0.800

     PseudoPot. # 4 for C  read from file:
     /storage/coda1/p-amedford6/0/shared/rich_project_chbe-medford/medford-share/data/pseudos_module/espresso/nninc/pbe/van/C.UPF
     MD5 check sum: 1a69bf6b8db32088f5b2163dbdb77a27
     Pseudo is Ultrasoft, Zval =  4.0
     Generated by new atomic code, or converted to UPF format
     Using radial grid of  721 points,  4 beta functions with:
                l(1) =   0
                l(2) =   0
                l(3) =   1
                l(4) =   1
     Q(r) pseudized with  8 coefficients,  rinner =    0.800   0.800   0.800

     PseudoPot. # 5 for H  read from file:
     /storage/coda1/p-amedford6/0/shared/rich_project_chbe-medford/medford-share/data/pseudos_module/espresso/nninc/pbe/van/H.UPF
     MD5 check sum: b5ee9d7bfd3a09ee7748110bda690ff7
     Pseudo is Ultrasoft, Zval =  1.0
     Generated by new atomic code, or converted to UPF format
     Using radial grid of  615 points,  1 beta functions with:
                l(1) =   0
     Q(r) pseudized with  8 coefficients,  rinner =    0.800

     atomic species   valence    mass     pseudopotential
        Ti1           12.00    47.86700     Ti( 1.00)
        O1             6.00    15.99900     O ( 1.00)
        N1             5.00    14.00700     N ( 1.00)
        C1             4.00    12.01100     C ( 1.00)
        H1             1.00     1.00800     H ( 1.00)

     No symmetry found

   Cartesian axes

     site n.     atom                  positions (alat units)
         1           Ti1 tau(   1) = (   0.0004258   2.9801865   6.0000000  )
         2           Ti1 tau(   2) = (   3.2906075   1.4906267   6.0002472  )
         3           O1  tau(   3) = (   0.0006271   0.0005054   7.9858123  )
         4           O1  tau(   4) = (   3.2906025   0.0005020   7.3038282  )
         5           O1  tau(   5) = (   4.5942328   1.4918067   9.2879030  )
         6           O1  tau(   6) = (   1.9868534   1.4903216   9.2879459  )
         7           Ti1 tau(   7) = (   3.2907910   2.8959150   9.1758416  )
         8           Ti1 tau(   8) = (   0.0015273   1.4827037   9.2680791  )
         9           O1  tau(   9) = (   3.2830128   5.9597860  11.3344455  )
        10           O1  tau(  10) = (   0.0116148   5.9584955  10.6183126  )
        11           O1  tau(  11) = (   1.2885291   1.4855062  12.6376555  )
        12           O1  tau(  12) = (   5.2724004   1.4911608  12.5936499  )
        13           Ti1 tau(  13) = (   0.0410009   3.0319447  12.6084003  )
        14           Ti1 tau(  14) = (   3.3739341   1.4916561  12.4823474  )
        15           O1  tau(  15) = (   6.4862162   0.0153916  14.6455093  )
        16           O1  tau(  16) = (   3.3439542   5.9611638  13.9051029  )
        17           O1  tau(  17) = (   4.4933269   1.5483200  16.1231154  )
        18           O1  tau(  18) = (   1.9964937   1.4536654  15.9127221  )
        19           Ti1 tau(  19) = (   3.1412959   3.0017366  15.7441667  )
        20           Ti1 tau(  20) = (   6.4823597   1.5369342  15.8006069  )
        21           O1  tau(  21) = (   3.2904802   0.0005063   4.7018136  )
        22           O1  tau(  22) = (   6.5709111   0.0522475  17.2082838  )
        23           O1  tau(  23) = (   1.3043587   1.4918075   6.0039043  )
        24           O1  tau(  24) = (   5.2767064   1.4903225   6.0039473  )
        25           Ti1 tau(  25) = (   0.0000382   5.9609847   6.0000000  )
        26           Ti1 tau(  26) = (   3.2902200   4.4714249   6.0002472  )
        27           O1  tau(  27) = (   0.0002396   2.9813036   7.9858123  )
        28           O1  tau(  28) = (   3.2902150   2.9813002   7.3038282  )
        29           O1  tau(  29) = (   4.5938453   4.4726049   9.2879030  )
        30           O1  tau(  30) = (   1.9864658   4.4711199   9.2879459  )
        31           Ti1 tau(  31) = (   3.2891106   5.8743827   9.1763621  )
        32           Ti1 tau(  32) = (   0.0006254   4.4649316   9.2693709  )
        33           O1  tau(  33) = (   3.2833609   2.9822938  11.3349093  )
        34           O1  tau(  34) = (   0.0092240   2.9805883  10.6323155  )
        35           O1  tau(  35) = (   1.2838611   4.4860338  12.6468719  )
        36           O1  tau(  36) = (   5.2760156   4.4607002  12.6015494  )
        37           Ti1 tau(  37) = (   0.0673138   0.0440259  12.5461749  )
        38           Ti1 tau(  38) = (   3.3712377   4.4654930  12.4933830  )
        39           O1  tau(  39) = (   6.5217465   2.9589972  14.6412948  )
        40           O1  tau(  40) = (   3.2809526   2.9956502  13.9333893  )
        41           O1  tau(  41) = (   4.4911989   4.4583117  16.1637052  )
        42           O1  tau(  42) = (   1.9937212   4.5427850  15.9740970  )
        43           Ti1 tau(  43) = (   3.2955853   0.0167752  15.6963065  )
        44           Ti1 tau(  44) = (   6.5082246   4.6715011  16.1069148  )
        45           O1  tau(  45) = (   3.2900926   2.9813045   4.7018136  )
        46           O1  tau(  46) = (   1.3039711   4.4726057   6.0039043  )
        47           O1  tau(  47) = (   5.2763189   4.4711207   6.0039473  )
        48           N1  tau(  48) = (   1.3945086   2.8365607  18.1849301  )
        49           N1  tau(  49) = (   0.1777896   2.9650562  17.4111889  )
        50           C1  tau(  50) = (   1.4118813   3.7128676  19.3556819  )
        51           H1  tau(  51) = (   0.5171711   3.5996102  19.9880000  )
        52           H1  tau(  52) = (   2.2935099   3.4681107  19.9517681  )
        53           H1  tau(  53) = (   1.4703795   4.7520035  19.0319817  )
        54           H1  tau(  54) = (   1.4579882   1.8621926  18.4823179  )
        55           H1  tau(  55) = (   5.9558665   2.8747675  18.0551794  )

     number of k points=    10  Fermi-Dirac smearing, width (Ry)=  0.0073
                       cart. coord. in units 2pi/alat
        k(    1) = (   0.0000000   0.0000000   0.0000000), wk =   0.1250000
        k(    2) = (   0.0000000   0.0419351   0.0000000), wk =   0.2500000
        k(    3) = (   0.0000000  -0.0838702   0.0000000), wk =   0.1250000
        k(    4) = (   0.0379955   0.0000049   0.0000000), wk =   0.2500000
        k(    5) = (   0.0379955   0.0419400   0.0000000), wk =   0.2500000
        k(    6) = (   0.0379955  -0.0838652   0.0000000), wk =   0.2500000
        k(    7) = (   0.0379955  -0.0419301   0.0000000), wk =   0.2500000
        k(    8) = (  -0.0759910  -0.0000099   0.0000000), wk =   0.1250000
        k(    9) = (  -0.0759910   0.0419252   0.0000000), wk =   0.2500000
        k(   10) = (  -0.0759910  -0.0838800   0.0000000), wk =   0.1250000

     Initial potential from superposition of free atoms

     starting charge  380.99914, renormalised to  397.00000

     negative rho (up, down):  1.540E-02 0.000E+00

     %%%%%%%%%%%%%%%%%%%%%%%%%%%%%%%%%%%%%%%%%%%%%%%%%%%%%%%%%%%%%%%%%%%%%%%%
     %                                                                      %
     % You are using vdW-DF, which was implemented by the Thonhauser group. %
     % Please cite the following two papers that made this development      %
     % possible and the two reviews that describe the various versions:     %
     %                                                                      %
     %   T. Thonhauser et al., PRL 115, 136402 (2015).                      %
     %   T. Thonhauser et al., PRB 76, 125112 (2007).                       %
     %   K. Berland et al., Rep. Prog. Phys. 78, 066501 (2015).             %
     %   D.C. Langreth et al., J. Phys.: Condens. Matter 21, 084203 (2009). %
     %                                                                      %
     %                                                                      %
     % If you are calculating the stress with vdW-DF, please also cite:     %
     %                                                                      %
     %   R. Sabatini et al., J. Phys.: Condens. Matter 24, 424209 (2012).   %
     %                                                                      %
     %%%%%%%%%%%%%%%%%%%%%%%%%%%%%%%%%%%%%%%%%%%%%%%%%%%%%%%%%%%%%%%%%%%%%%%%

     Adding external electric field

     Computed dipole along edir(3) :
        Dipole               -9.6140 Ry au,        -24.4365 Debye
        Dipole field         -0.0181 Ry au,

        Potential amp.        1.6818 Ry
        Total length         46.3494 bohr

     Starting wfcs are  301 atomic wfcs
  @ DRIVER MODE: Message from server: STATUS
  @ DRIVER MODE: Message from server: POSDATA
  @ DRIVER MODE: Reading and sharing cell
  @ DRIVER MODE: Reading and sharing positions
  @ DRIVER MODE: Received positions

     Self-consistent Calculation

     iteration #  1     ecut=    29.40 Ry     beta= 0.05
     Davidson diagonalization with overlap
     c_bands:  1 eigenvalues not converged
     c_bands:  1 eigenvalues not converged
     c_bands:  1 eigenvalues not converged
     c_bands:  1 eigenvalues not converged
     c_bands:  1 eigenvalues not converged
     c_bands:  1 eigenvalues not converged
     c_bands:  2 eigenvalues not converged
     ethr =  1.00E-05,  avg # of iterations = 18.8

[...]

     total energy              =   -2533.50013944 Ry
     estimated scf accuracy    <    4540.05256073 Ry

     iteration #  2     ecut=    29.40 Ry     beta= 0.05
     Davidson diagonalization with overlap
     ethr =  1.00E-02,  avg # of iterations = 24.6

[...]

     iteration # 70     ecut=    29.40 Ry     beta= 0.05
     Davidson diagonalization with overlap
     c_bands:  3 eigenvalues not converged
     ethr =  4.30E-10,  avg # of iterations = 15.4

[...]

     total energy              =   -2941.66142157 Ry
     estimated scf accuracy    <       0.00000019 Ry

     iteration # 77     ecut=    29.40 Ry     beta= 0.05
     Davidson diagonalization with overlap
     ethr =  4.77E-11,  avg # of iterations =  7.9

     negative rho (up, down):  1.607E-02 0.000E+00

     Adding external electric field

     Computed dipole along edir(3) :
        Dipole                0.9469 Ry au,          2.4068 Debye
        Dipole field          0.0018 Ry au,

        Potential amp.       -0.1656 Ry
        Total length         46.3494 bohr

     End of self-consistent calculation

          k = 0.0000 0.0000 0.0000 ( 18029 PWs)   bands (ev):

   -55.6826 -55.6660 -55.6485 -55.6294 -55.5893 -55.5351 -55.5273 -55.4976
   -55.4913 -55.4636 -55.4620 -55.4279 -55.2546 -55.0311 -54.6632 -54.6292
   -32.2170 -32.1656 -32.0396 -32.0289 -31.9958 -31.9813 -31.9756 -31.9523
   -31.9268 -31.8953 -31.8932 -31.8868 -31.8436 -31.8348 -31.8219 -31.8197
   -31.8031 -31.7874 -31.7795 -31.7438 -31.7397 -31.7331 -31.7181 -31.7144
   -31.6916 -31.6868 -31.6839 -31.6762 -31.6625 -31.6599 -31.6528 -31.6429
   -31.6379 -31.6280 -31.6150 -31.6051 -31.5741 -31.5047 -31.4621 -31.2977
   -31.2878 -31.2344 -31.0705 -30.9819 -30.9595 -30.8873 -30.8007 -30.6896
   -16.7381 -16.4130 -16.1586 -15.9287 -15.8382 -15.8078 -15.6557 -15.5240
   -15.4145 -15.3329 -15.2480 -15.2289 -15.2215 -15.2113 -15.1849 -15.1783
   -15.1320 -15.1275 -15.1079 -15.0949 -15.0449 -15.0282 -15.0248 -14.9296
   -14.8663 -14.8312 -14.8160 -14.7814 -14.7441 -14.3319 -13.1659 -13.0495
   -11.8152  -8.9786  -5.4025  -4.3629  -3.8486  -3.7853  -3.6410  -3.5903
    -3.5304  -3.4948  -3.3138  -3.2114  -2.9386  -2.8819  -2.8521  -2.8429
    -2.7911  -2.7595  -2.5982  -2.5717  -2.5015  -2.4921  -2.4765  -2.4479
    -2.4404  -2.4336  -2.3979  -2.3726  -2.3447  -2.2395  -2.0996  -2.0904
    -2.0675  -2.0344  -1.9966  -1.9483  -1.9321  -1.9116  -1.8933  -1.8814
    -1.8680  -1.7331  -1.6983  -1.5852  -1.4924  -1.4463  -1.3724  -1.2953
    -1.2687  -1.1546  -1.1147  -1.1036  -1.0888  -1.0770  -0.9776  -0.8729
    -0.8549  -0.8190  -0.7646  -0.7057  -0.6356  -0.5908  -0.5413  -0.4880
    -0.4619  -0.4475  -0.4447  -0.4101  -0.3221  -0.1767  -0.1252  -0.0906
    -0.0688   0.0072   0.0435   0.0994   0.1218   0.1471   0.1834   0.2363
     0.2800   0.2865   0.2998   0.3143   0.3190   0.4932   0.5430   0.5847
     0.6174   0.6637   0.8251   0.8465   0.9689   1.0418   1.1895   1.2841
     1.3587   1.4363   1.5505   1.6113   1.9300   1.9758   3.4479   3.5353
     3.5799   3.5938   3.6889   3.7303   3.9008   3.9309   3.9452   4.0056

[...]

          k = 0.0380-0.0419 0.0000 ( 17876 PWs)   bands (ev):

[...]

          k =-0.0760-0.0000 0.0000 ( 17886 PWs)   bands (ev):

[...]

          k =-0.0760-0.0839 0.0000 ( 17948 PWs)   bands (ev):

   -55.6660 -55.6650 -55.6513 -55.6439 -55.5832 -55.5410 -55.5147 -55.5039
   -55.4810 -55.4796 -55.4479 -55.4421 -55.2534 -55.0322 -54.6462 -54.6461
   -32.0261 -32.0165 -31.9813 -31.9804 -31.9614 -31.9604 -31.9410 -31.9346
   -31.8816 -31.8807 -31.8704 -31.8655 -31.8487 -31.8310 -31.8057 -31.8011
   -31.7967 -31.7931 -31.7869 -31.7865 -31.7850 -31.7845 -31.7814 -31.7418
   -31.7328 -31.7213 -31.7130 -31.7018 -31.6816 -31.6808 -31.6787 -31.6721
   -31.6622 -31.6582 -31.6544 -31.6518 -31.6110 -31.5071 -31.4589 -31.3600
   -31.2900 -31.2608 -30.9722 -30.9722 -30.8833 -30.8832 -30.8440 -30.8440
   -16.7098 -15.8609 -15.7998 -15.6418 -15.6065 -15.5872 -15.5523 -15.4910
   -15.4080 -15.3810 -15.3764 -15.3299 -15.3040 -15.2710 -15.2327 -15.2182
   -15.2111 -15.1924 -15.1803 -15.1462 -15.1367 -15.1250 -15.1178 -15.0420
   -15.0048 -15.0004 -14.9944 -14.8910 -14.7643 -14.5007 -13.1513 -13.1512
   -11.8218  -8.9930  -5.4168  -4.3503  -3.7748  -3.1537  -3.0667  -2.8918
    -2.8364  -2.8075  -2.7918  -2.6263  -2.6177  -2.5999  -2.5580  -2.5323
    -2.5252  -2.5138  -2.5049  -2.4838  -2.4712  -2.4378  -2.4270  -2.3915
    -2.3777  -2.3594  -2.3425  -2.3257  -2.3055  -2.2916  -2.2759  -2.2341
    -2.2140  -2.2035  -2.1833  -2.1397  -1.9289  -1.8790  -1.8436  -1.8305
    -1.8184  -1.7996  -1.7443  -1.7390  -1.7059  -1.6555  -1.5751  -1.4307
    -1.3850  -1.3685  -1.2756  -1.2541  -1.2017  -1.1288  -1.0834  -1.0666
    -1.0324  -0.9666  -0.9331  -0.8938  -0.8274  -0.8034  -0.7981  -0.7035
    -0.6824  -0.6459  -0.6392  -0.5613  -0.5095  -0.4473  -0.4319  -0.4156
    -0.3843  -0.3504  -0.3335  -0.2656  -0.1723  -0.1714  -0.1553  -0.0396
     0.0521   0.2798   0.3416   0.3795   0.4242   0.5176   0.5855   0.6112
     0.6268   0.6474   0.6680   0.7150   0.8433   0.8529   0.8874   1.0005
     1.0869   1.6275   1.7222   1.7230   1.7956   1.7957   3.7490   3.7672
     3.7881   3.8344   3.9536   3.9606   3.9830   3.9854   4.1090   4.1229

     the Fermi energy is     3.4494 ev

!    total energy              =   -2941.66144526 Ry
     estimated scf accuracy    <       0.00000006 Ry
     smearing contrib. (-TS)   =      -0.02152179 Ry
     internal energy E=F+TS    =   -2941.63992347 Ry

     The total energy is F=E-TS. E is the sum of the following terms:
     one-electron contribution =  -24278.61364932 Ry
     hartree contribution      =   12229.79620198 Ry
     xc contribution           =    -486.86762914 Ry
     ewald contribution        =    9594.04346097 Ry
     electric field correction =       0.00169204 Ry

     convergence has been achieved in  77 iterations

     Forces acting on atoms (cartesian axes, Ry/au):

     atom    1 type  1   force =     0.00017808   -0.00011525    0.09638159
     atom    2 type  1   force =    -0.00022395   -0.00063612   -0.17552403
     atom    3 type  2   force =    -0.00004180   -0.00003840   -0.02419816
     atom    4 type  2   force =     0.00004946   -0.00143964    0.05292725
     atom    5 type  2   force =    -0.01185070   -0.00049301    0.00394595
     atom    6 type  2   force =     0.01315742    0.00022845    0.00228170
     atom    7 type  1   force =    -0.00138949    0.00079837   -0.01149303
     atom    8 type  1   force =     0.00053705    0.00922335    0.02523230
     atom    9 type  2   force =    -0.00010845    0.00017541    0.00037822
     atom   10 type  2   force =    -0.00086499    0.00147719   -0.01583087
     atom   11 type  2   force =    -0.00018591   -0.00049424    0.00038602
     atom   12 type  2   force =    -0.00014721   -0.00026368    0.00001342
     atom   13 type  1   force =     0.00054819   -0.00090787    0.00014587
     atom   14 type  1   force =    -0.00008818   -0.00040567    0.00023510
     atom   15 type  2   force =     0.00022376   -0.00017451   -0.00048991
     atom   16 type  2   force =     0.00006670    0.00024442    0.00008871
     atom   17 type  2   force =    -0.00061128    0.00029733    0.00046854
     atom   18 type  2   force =     0.00022327    0.00004034    0.00023867
     atom   19 type  1   force =     0.00015219   -0.00057664    0.00011778
     atom   20 type  1   force =    -0.00006212   -0.00034054   -0.00091847
     atom   21 type  2   force =     0.00007731   -0.00007828    0.10319967
     atom   22 type  2   force =    -0.00041736   -0.00024596    0.00053988
     atom   23 type  2   force =    -0.07145367   -0.00018423   -0.02768666
     atom   24 type  2   force =     0.07137718    0.00024894   -0.02768658
     atom   25 type  1   force =     0.00002745   -0.00027137    0.09584600
     atom   26 type  1   force =    -0.00015723   -0.00024016   -0.17567245
     atom   27 type  2   force =     0.00009129   -0.00012924   -0.02329493
     atom   28 type  2   force =     0.00008034   -0.00129574    0.05335027
     atom   29 type  2   force =    -0.01198072   -0.00005436    0.00373862
     atom   30 type  2   force =     0.01322413    0.00042659    0.00211497
     atom   31 type  1   force =    -0.00141665    0.00344934   -0.01080930
     atom   32 type  1   force =     0.00064900   -0.01008519    0.02564892
     atom   33 type  2   force =    -0.00038720    0.00005044    0.00004065
     atom   34 type  2   force =     0.00074741    0.00089717   -0.02310392
     atom   35 type  2   force =    -0.00010266    0.00028434   -0.00003538
     atom   36 type  2   force =    -0.00023606    0.00059098   -0.00030122
     atom   37 type  1   force =    -0.00082162   -0.00102297   -0.00006254
     atom   38 type  1   force =    -0.00003352   -0.00009626   -0.00003283
     atom   39 type  2   force =    -0.00041858   -0.00000443    0.00009767
     atom   40 type  2   force =     0.00049136    0.00024949    0.00030775
     atom   41 type  2   force =    -0.00000287    0.00054181    0.00026691
     atom   42 type  2   force =     0.00016190    0.00035099   -0.00020366
     atom   43 type  1   force =     0.00021898    0.00010618   -0.00032681
     atom   44 type  1   force =    -0.00041805    0.00041308   -0.00128319
     atom   45 type  2   force =     0.00007072   -0.00009118    0.10323511
     atom   46 type  2   force =    -0.07145452   -0.00016842   -0.02769048
     atom   47 type  2   force =     0.07137887    0.00030788   -0.02770245
     atom   48 type  3   force =    -0.00085569    0.00011257   -0.00370438
     atom   49 type  3   force =    -0.00219197   -0.00175494    0.01604617
     atom   50 type  4   force =    -0.00070163    0.00004616   -0.00007867
     atom   51 type  5   force =     0.00105604    0.00048472   -0.00047124
     atom   52 type  5   force =    -0.00033023    0.00054239   -0.00086123
     atom   53 type  5   force =    -0.00019909   -0.00163949    0.00061392
     atom   54 type  5   force =    -0.00086065    0.00088229   -0.00099939
     atom   55 type  5   force =     0.00522594    0.00077757   -0.00742582

     Total force =     0.367821     Total SCF correction =     0.000944
  @ DRIVER MODE: Message from server: STATUS
  @ DRIVER MODE: Message from server: GETFORCE
  @ DRIVER MODE: Returning v,forces,stress,ensemble

     Writing output data file ./calc.save/
  @ DRIVER MODE: Message from server: EXIT
  @ DRIVE MODE: Exiting

     General routines

     Parallel routines

   This run was terminated on:  23: 1:32  24Aug2021

   JOB DONE.