     Program PWSCF v.6.7GPU starts on 23Sep2021 at  3:37:41

     R & G space division:  proc/nbgrp/npool/nimage =      10
     Reading input from /storage/home/hcoda1/3/ntian30/research/carbon/CxH_vib/H2O_calc/ads_slab/CHNHNH2H2O_b/out_0032/pw.inp
Warning: card &CELL ignored
Warning: card   CELL_DYNAMICS='IPI', ignored
Warning: card / ignored

     Current dimensions of program PWSCF are:
     Max number of different atomic species (ntypx) = 10
     Max number of k-points (npk) =  40000
     Max angular momentum in pseudopotentials (lmaxx) =  3
     Presently no symmetry can be used with electric field

     Message from routine cell_base_init:
     DEPRECATED: use true lattice parameter, not A to a.u. conversion factor

     IMPORTANT: XC functional enforced from input :
     Exchange-correlation= BEEF-VDW
                           (   1   4  43  14   2   0   0)
     Any further DFT definition will be discarded
     Please, verify this is what you really want

  @ DRIVER MODE: Connecting to
 qe_1139763_2937312.sched-torque.pace.gatech.edux10h7yo2_scratch
  using UNIX socket
  @ DRIVER MODE: Message from server: STATUS
  @ DRIVER MODE: Message from server: INIT
  @ DRIVER MODE: Receiving replica           0          -1
  @ DRIVER MODE: Receiving encoded integer          25
  @ DRIVER MODE:  SCF:  T  FORCE:  T  STRESS:  F  VC:  F  ENSEMBLE:  F
  @ DRIVER MODE:  SCF:  T  FORCE:  T  STRESS:  F  VC:  F  ENSEMBLE:  F

     Using Slab Decomposition

     bravais-lattice index     =            0
     lattice parameter (alat)  =       1.8897  a.u.
     unit-cell volume          =    6658.9804 (a.u.)^3
     number of atoms/cell      =           57
     number of atomic types    =            5
     number of electrons       =       404.00
     number of Kohn-Sham states=          212
     kinetic-energy cutoff     =      29.3995  Ry
     charge density cutoff     =     293.9946  Ry
     scf convergence threshold =      7.3E-08
     mixing beta               =       0.0500
     number of iterations used =            8  plain     mixing
     Exchange-correlation= BEEF-VDW
                           (   1   4  43  14   2   0   0)

     celldm(1)=   1.889726  celldm(2)=   0.000000  celldm(3)=   0.000000
     celldm(4)=   0.000000  celldm(5)=   0.000000  celldm(6)=   0.000000

     crystal axes: (cart. coord. in units of alat)
               a(1) = (   6.579727   0.000000   0.000000 )
               a(2) = (  -0.000775   5.961596   0.000000 )
               a(3) = (   0.000000   0.000000  25.155947 )

     reciprocal axes: (cart. coord. in units 2 pi/alat)
               b(1) = (  0.151982  0.000020  0.000000 )
               b(2) = (  0.000000  0.167740  0.000000 )
               b(3) = (  0.000000  0.000000  0.039752 )

     PseudoPot. # 1 for Ti read from file:
     /storage/coda1/p-amedford6/0/shared/rich_project_chbe-medford/medford-share/data/pseudos_module/espresso/nninc/pbe/van/Ti.UPF
     MD5 check sum: 8e4df49b7f0d34bbd5052bf3f5ea0213
     Pseudo is Ultrasoft, Zval = 12.0
     Generated by new atomic code, or converted to UPF format
     Using radial grid of  851 points,  6 beta functions with:
                l(1) =   0
                l(2) =   0
                l(3) =   1
                l(4) =   1
                l(5) =   2
                l(6) =   2
     Q(r) pseudized with  8 coefficients,  rinner =    1.000   1.000   1.000
                                                       1.000   1.000

     PseudoPot. # 2 for O  read from file:
     /storage/coda1/p-amedford6/0/shared/rich_project_chbe-medford/medford-share/data/pseudos_module/espresso/nninc/pbe/van/O.UPF
     MD5 check sum: 78c19812648e8988a0fe644b0f25305e
     Pseudo is Ultrasoft, Zval =  6.0
     Generated by new atomic code, or converted to UPF format
     Using radial grid of  737 points,  4 beta functions with:
                l(1) =   0
                l(2) =   0
                l(3) =   1
                l(4) =   1
     Q(r) pseudized with  8 coefficients,  rinner =    0.800   0.800   0.800

     PseudoPot. # 3 for N  read from file:
     /storage/coda1/p-amedford6/0/shared/rich_project_chbe-medford/medford-share/data/pseudos_module/espresso/nninc/pbe/van/N.UPF
     MD5 check sum: 90d10febe142ad51ac9d5be1deb811c4
     Pseudo is Ultrasoft, Zval =  5.0
     Generated by new atomic code, or converted to UPF format
     Using radial grid of  729 points,  4 beta functions with:
                l(1) =   0
                l(2) =   0
                l(3) =   1
                l(4) =   1
     Q(r) pseudized with  8 coefficients,  rinner =    0.800   0.800   0.800

     PseudoPot. # 4 for C  read from file:
     /storage/coda1/p-amedford6/0/shared/rich_project_chbe-medford/medford-share/data/pseudos_module/espresso/nninc/pbe/van/C.UPF
     MD5 check sum: 1a69bf6b8db32088f5b2163dbdb77a27
     Pseudo is Ultrasoft, Zval =  4.0
     Generated by new atomic code, or converted to UPF format
     Using radial grid of  721 points,  4 beta functions with:
                l(1) =   0
                l(2) =   0
                l(3) =   1
                l(4) =   1
     Q(r) pseudized with  8 coefficients,  rinner =    0.800   0.800   0.800

     PseudoPot. # 5 for H  read from file:
     /storage/coda1/p-amedford6/0/shared/rich_project_chbe-medford/medford-share/data/pseudos_module/espresso/nninc/pbe/van/H.UPF
     MD5 check sum: b5ee9d7bfd3a09ee7748110bda690ff7
     Pseudo is Ultrasoft, Zval =  1.0
     Generated by new atomic code, or converted to UPF format
     Using radial grid of  615 points,  1 beta functions with:
                l(1) =   0
     Q(r) pseudized with  8 coefficients,  rinner =    0.800

     atomic species   valence    mass     pseudopotential
        Ti1           12.00    47.86700     Ti( 1.00)
        O1             6.00    15.99900     O ( 1.00)
        N1             5.00    14.00700     N ( 1.00)
        C1             4.00    12.01100     C ( 1.00)
        H1             1.00     1.00800     H ( 1.00)

     No symmetry found

   Cartesian axes

     site n.     atom                  positions (alat units)
         1           Ti1 tau(   1) = (   0.0004258   2.9801865   6.0000000  )
         2           Ti1 tau(   2) = (   3.2906075   1.4906267   6.0002472  )
         3           O1  tau(   3) = (   0.0006271   0.0005054   7.9858123  )
         4           O1  tau(   4) = (   3.2906025   0.0005020   7.3038282  )
         5           O1  tau(   5) = (   4.5942328   1.4918067   9.2879030  )
         6           O1  tau(   6) = (   1.9868534   1.4903216   9.2879459  )
         7           Ti1 tau(   7) = (   3.2907910   2.8959150   9.1758416  )
         8           Ti1 tau(   8) = (   0.0015273   1.4827037   9.2680791  )
         9           O1  tau(   9) = (   3.3066417   5.9496923  11.3845403  )
        10           O1  tau(  10) = (   0.0116148   5.9584955  10.6183126  )
        11           O1  tau(  11) = (   1.3010148   1.4986442  12.6442229  )
        12           O1  tau(  12) = (   5.3085967   1.5001388  12.6592367  )
        13           Ti1 tau(  13) = (   0.0282779   2.9853959  12.5065338  )
        14           Ti1 tau(  14) = (   3.3279724   1.4707331  12.5413945  )
        15           O1  tau(  15) = (   0.0378505   0.0859181  14.6860672  )
        16           O1  tau(  16) = (   3.3018867   0.0259462  14.0338077  )
        17           O1  tau(  17) = (   4.5998927   1.5484098  16.1661054  )
        18           O1  tau(  18) = (   2.0454451   1.5021798  16.2221046  )
        19           Ti1 tau(  19) = (   3.3206312   2.9825829  15.7321521  )
        20           Ti1 tau(  20) = (   0.0140791   1.4435866  15.9983415  )
        21           O1  tau(  21) = (   3.2904802   0.0005063   4.7018136  )
        22           O1  tau(  22) = (   6.5273045   5.8164216  17.2577718  )
        23           O1  tau(  23) = (   1.3043587   1.4918075   6.0039043  )
        24           O1  tau(  24) = (   5.2767064   1.4903225   6.0039473  )
        25           Ti1 tau(  25) = (   0.0000382   5.9609847   6.0000000  )
        26           Ti1 tau(  26) = (   3.2902200   4.4714249   6.0002472  )
        27           O1  tau(  27) = (   0.0002396   2.9813036   7.9858123  )
        28           O1  tau(  28) = (   3.2902150   2.9813002   7.3038282  )
        29           O1  tau(  29) = (   4.5938453   4.4726049   9.2879030  )
        30           O1  tau(  30) = (   1.9864658   4.4711199   9.2879459  )
        31           Ti1 tau(  31) = (   3.2891106   5.8743827   9.1763621  )
        32           Ti1 tau(  32) = (   0.0006254   4.4649316   9.2693709  )
        33           O1  tau(  33) = (   3.3068470   2.9864458  11.3814114  )
        34           O1  tau(  34) = (   0.0092240   2.9805883  10.6323155  )
        35           O1  tau(  35) = (   1.2982948   4.4740332  12.6840172  )
        36           O1  tau(  36) = (   5.3097620   4.4704985  12.6972095  )
        37           Ti1 tau(  37) = (   0.0348817   0.0130325  12.4954113  )
        38           Ti1 tau(  38) = (   3.3270268   4.4633798  12.5435021  )
        39           O1  tau(  39) = (   0.0563025   2.9439880  14.9425960  )
        40           O1  tau(  40) = (   3.2900316   2.9661073  13.9503945  )
        41           O1  tau(  41) = (   4.5967999   4.4093095  16.0633277  )
        42           O1  tau(  42) = (   2.0412097   4.4536800  16.1303113  )
        43           Ti1 tau(  43) = (   3.2964201   5.9600488  15.8742613  )
        44           Ti1 tau(  44) = (   0.0241369   4.6516137  15.8518307  )
        45           O1  tau(  45) = (   3.2900926   2.9813045   4.7018136  )
        46           O1  tau(  46) = (   1.3039711   4.4726057   6.0039043  )
        47           O1  tau(  47) = (   5.2763189   4.4711207   6.0039473  )
        48           N1  tau(  48) = (   1.4509408   2.7109095  18.7602185  )
        49           N1  tau(  49) = (   0.0917387   2.5303350  18.2207845  )
        50           C1  tau(  50) = (   1.9503960   3.7723240  19.2784661  )
        51           H1  tau(  51) = (   1.1612915   4.5273475  19.4152495  )
        52           H1  tau(  52) = (   2.0208952   1.9183395  18.4664618  )
        53           H1  tau(  53) = (   6.1477449   3.3539424  18.4987646  )
        54           H1  tau(  54) = (   6.2616785   1.7135167  18.6767212  )
        55           O1  tau(  55) = (   3.7012217   5.9496235  18.2853534  )
        56           H1  tau(  56) = (   4.6684668   5.8470116  18.1670174  )
        57           H1  tau(  57) = (   3.3852657   5.1278045  18.7338684  )

     number of k points=    10  Fermi-Dirac smearing, width (Ry)=  0.0073
                       cart. coord. in units 2pi/alat
        k(    1) = (   0.0000000   0.0000000   0.0000000), wk =   0.1250000
        k(    2) = (   0.0000000   0.0419351   0.0000000), wk =   0.2500000
        k(    3) = (   0.0000000  -0.0838702   0.0000000), wk =   0.1250000
        k(    4) = (   0.0379955   0.0000049   0.0000000), wk =   0.2500000
        k(    5) = (   0.0379955   0.0419400   0.0000000), wk =   0.2500000
        k(    6) = (   0.0379955  -0.0838652   0.0000000), wk =   0.2500000
        k(    7) = (   0.0379955  -0.0419301   0.0000000), wk =   0.2500000
        k(    8) = (  -0.0759910  -0.0000099   0.0000000), wk =   0.1250000
        k(    9) = (  -0.0759910   0.0419252   0.0000000), wk =   0.2500000
        k(   10) = (  -0.0759910  -0.0838800   0.0000000), wk =   0.1250000

     Initial potential from superposition of free atoms

     starting charge  387.99913, renormalised to  404.00000

     negative rho (up, down):  1.598E-02 0.000E+00

     %%%%%%%%%%%%%%%%%%%%%%%%%%%%%%%%%%%%%%%%%%%%%%%%%%%%%%%%%%%%%%%%%%%%%%%%
     %                                                                      %
     % You are using vdW-DF, which was implemented by the Thonhauser group. %
     % Please cite the following two papers that made this development      %
     % possible and the two reviews that describe the various versions:     %
     %                                                                      %
     %   T. Thonhauser et al., PRL 115, 136402 (2015).                      %
     %   T. Thonhauser et al., PRB 76, 125112 (2007).                       %
     %   K. Berland et al., Rep. Prog. Phys. 78, 066501 (2015).             %
     %   D.C. Langreth et al., J. Phys.: Condens. Matter 21, 084203 (2009). %
     %                                                                      %
     %                                                                      %
     % If you are calculating the stress with vdW-DF, please also cite:     %
     %                                                                      %
     %   R. Sabatini et al., J. Phys.: Condens. Matter 24, 424209 (2012).   %
     %                                                                      %
     %%%%%%%%%%%%%%%%%%%%%%%%%%%%%%%%%%%%%%%%%%%%%%%%%%%%%%%%%%%%%%%%%%%%%%%%

     Adding external electric field

     Computed dipole along edir(3) :
        Dipole              -14.3585 Ry au,        -36.4957 Debye
        Dipole field         -0.0271 Ry au,

        Potential amp.        2.5118 Ry
        Total length         46.3494 bohr

     Starting wfcs are  306 atomic wfcs
  @ DRIVER MODE: Message from server: STATUS
  @ DRIVER MODE: Message from server: POSDATA
  @ DRIVER MODE: Reading and sharing cell
  @ DRIVER MODE: Reading and sharing positions
  @ DRIVER MODE: Received positions

     Self-consistent Calculation

     iteration #  1     ecut=    29.40 Ry     beta= 0.05
     Davidson diagonalization with overlap
     c_bands:  3 eigenvalues not converged
     c_bands:  4 eigenvalues not converged
     c_bands:  4 eigenvalues not converged
     c_bands:  4 eigenvalues not converged
     c_bands:  5 eigenvalues not converged
     c_bands:  3 eigenvalues not converged
     c_bands:  2 eigenvalues not converged
     c_bands:  4 eigenvalues not converged
     ethr =  1.00E-05,  avg # of iterations = 21.9

[...]

     total energy              =   -2220.92152836 Ry
     estimated scf accuracy    <    8587.39395797 Ry

     iteration #  2     ecut=    29.40 Ry     beta= 0.05
     Davidson diagonalization with overlap
     ethr =  1.00E-02,  avg # of iterations = 27.3

[...]

     iteration # 92     ecut=    29.40 Ry     beta= 0.05
     Davidson diagonalization with overlap
     c_bands:  1 eigenvalues not converged
     ethr =  1.04E-10,  avg # of iterations = 15.6

[...]

     total energy              =   -2975.10525135 Ry
     estimated scf accuracy    <       0.00000008 Ry

     iteration # 96     ecut=    29.40 Ry     beta= 0.05
     Davidson diagonalization with overlap
     ethr =  2.01E-11,  avg # of iterations = 12.0

     negative rho (up, down):  1.579E-02 0.000E+00

     Adding external electric field

     Computed dipole along edir(3) :
        Dipole                1.0243 Ry au,          2.6035 Debye
        Dipole field          0.0019 Ry au,

        Potential amp.       -0.1792 Ry
        Total length         46.3494 bohr

     End of self-consistent calculation

          k = 0.0000 0.0000 0.0000 ( 18029 PWs)   bands (ev):

   -55.3855 -55.3497 -55.3456 -55.3115 -55.3083 -55.3027 -55.2675 -55.2322
   -55.2170 -55.1822 -55.1754 -55.1602 -55.1417 -55.1123 -54.3770 -54.3429
   -31.9445 -31.8805 -31.8384 -31.7572 -31.7084 -31.7056 -31.6813 -31.6785
   -31.6342 -31.5986 -31.5914 -31.5900 -31.5832 -31.5796 -31.5617 -31.5596
   -31.5349 -31.5269 -31.5240 -31.5125 -31.4983 -31.4917 -31.4730 -31.4679
   -31.4598 -31.4467 -31.4461 -31.4172 -31.4029 -31.3992 -31.3960 -31.3738
   -31.3701 -31.3659 -31.3623 -31.3412 -31.3301 -31.3182 -31.3032 -31.3031
   -31.2928 -31.2865 -30.7864 -30.6919 -30.6699 -30.6027 -30.5159 -30.4051
   -18.8902 -18.4551 -16.2203 -15.9729 -15.8369 -15.7324 -15.5951 -15.4969
   -15.3878 -15.2745 -15.2514 -15.1578 -15.0834 -15.0794 -15.0422 -15.0165
   -14.9539 -14.9325 -14.9088 -14.9028 -14.8882 -14.8780 -14.8415 -14.8306
   -14.7992 -14.7866 -14.7694 -14.6564 -14.6272 -14.5520 -14.4815 -14.3454
   -12.8794 -12.7620  -9.8409  -7.0065  -6.3784  -6.0998  -4.4291  -3.7356
    -3.5440  -3.4105  -3.3321  -3.3035  -3.2859  -3.1543  -3.0606  -2.9022
    -2.8634  -2.8071  -2.6739  -2.5981  -2.5917  -2.5038  -2.4313  -2.4079
    -2.3749  -2.2658  -2.2595  -2.2098  -2.1924  -2.1692  -2.1600  -2.1133
    -2.0676  -2.0403  -1.9551  -1.8536  -1.8098  -1.7901  -1.7536  -1.7310
    -1.7263  -1.6826  -1.6764  -1.6527  -1.6139  -1.5896  -1.5442  -1.4320
    -1.3905  -1.2320  -1.1946  -1.0402  -1.0198  -0.9805  -0.9603  -0.9243
    -0.8938  -0.8774  -0.8624  -0.7724  -0.7142  -0.6480  -0.5839  -0.4931
    -0.4826  -0.4087  -0.3828  -0.3178  -0.2303  -0.1857  -0.1761  -0.1512
    -0.1478  -0.0341   0.0108   0.0710   0.0896   0.1471   0.1629   0.1851
     0.2551   0.3086   0.3781   0.4088   0.4880   0.5061   0.5413   0.5504
     0.5828   0.5932   0.6694   0.6843   0.7125   0.8152   0.9127   1.0057
     1.2159   1.2182   1.2520   1.5507   1.5528   1.6460   1.8294   2.2223
     2.2707   3.7044   3.7828   3.8323   3.8499   3.8544   3.9392   4.1939
     4.2082   4.2209   4.2270   4.2681

[...]

          k = 0.0380-0.0419 0.0000 ( 17876 PWs)   bands (ev):

[...]

          k =-0.0760-0.0000 0.0000 ( 17886 PWs)   bands (ev):

[...]

          k =-0.0760-0.0839 0.0000 ( 17948 PWs)   bands (ev):

   -55.3688 -55.3663 -55.3288 -55.3281 -55.3053 -55.3018 -55.2539 -55.2458
   -55.2028 -55.1960 -55.1620 -55.1594 -55.1578 -55.1141 -54.3599 -54.3599
   -31.7951 -31.7570 -31.7429 -31.6538 -31.6531 -31.6389 -31.6268 -31.6198
   -31.6190 -31.5988 -31.5938 -31.5906 -31.5676 -31.5599 -31.5480 -31.5341
   -31.5310 -31.5282 -31.5243 -31.5163 -31.5116 -31.5097 -31.5087 -31.5007
   -31.4689 -31.4675 -31.4486 -31.4480 -31.4480 -31.4430 -31.4402 -31.4357
   -31.4261 -31.4149 -31.4090 -31.3923 -31.3906 -31.3806 -31.3394 -31.3384
   -31.3379 -31.3188 -30.6825 -30.6825 -30.5990 -30.5988 -30.5593 -30.5593
   -18.8844 -18.4574 -15.8398 -15.6533 -15.5019 -15.4300 -15.4096 -15.3265
   -15.2711 -15.2679 -15.1949 -15.1767 -15.1643 -15.1428 -15.1330 -15.0857
   -15.0486 -15.0119 -14.9932 -14.9705 -14.9274 -14.9047 -14.9030 -14.8963
   -14.8885 -14.8483 -14.8430 -14.8397 -14.7480 -14.7460 -14.7142 -14.5642
   -12.8635 -12.8634  -9.8501  -6.9947  -6.3539  -6.0764  -4.4427  -3.6635
    -3.0225  -2.9114  -2.9006  -2.6717  -2.6534  -2.5924  -2.5799  -2.4920
    -2.4761  -2.4156  -2.3921  -2.3420  -2.3190  -2.2812  -2.2673  -2.2455
    -2.2245  -2.2108  -2.1843  -2.1681  -2.1513  -2.1317  -2.1205  -2.1091
    -2.0539  -2.0485  -2.0394  -2.0140  -1.9910  -1.9549  -1.9450  -1.9287
    -1.7732  -1.7574  -1.7360  -1.6006  -1.5962  -1.5623  -1.5221  -1.4945
    -1.4366  -1.4280  -1.3998  -1.3410  -1.1474  -1.1369  -1.1247  -1.1070
    -1.0359  -0.9800  -0.9663  -0.9484  -0.8946  -0.8166  -0.7831  -0.7302
    -0.6415  -0.5893  -0.5798  -0.5539  -0.4327  -0.4097  -0.3672  -0.3492
    -0.3330  -0.2985  -0.2970  -0.2394  -0.1869  -0.1515  -0.1285  -0.1142
    -0.0772   0.0775   0.1293   0.1459   0.2598   0.2895   0.4675   0.5103
     0.5321   0.6371   0.7205   0.7485   0.7629   0.8884   0.9105   0.9129
     0.9813   1.0035   1.0636   1.0693   1.2084   2.0021   2.0034   2.0905
     2.0907   3.8295   3.9522   3.9966   4.0324   4.1082   4.1611   4.2182
     4.2773   4.2894   4.2925   4.3623

     the Fermi energy is     3.7664 ev

!    total energy              =   -2975.10525516 Ry
     estimated scf accuracy    <       0.00000005 Ry
     smearing contrib. (-TS)   =      -0.03671760 Ry
     internal energy E=F+TS    =   -2975.06853755 Ry

     The total energy is F=E-TS. E is the sum of the following terms:
     one-electron contribution =  -23505.50099874 Ry
     hartree contribution      =   11848.76358194 Ry
     xc contribution           =    -494.92234650 Ry
     ewald contribution        =    9176.58924581 Ry
     electric field correction =       0.00197993 Ry

     convergence has been achieved in  96 iterations

     Forces acting on atoms (cartesian axes, Ry/au):

     atom    1 type  1   force =     0.00003252   -0.00024778    0.09309468
     atom    2 type  1   force =    -0.00019347   -0.00032339   -0.17839231
     atom    3 type  2   force =     0.00006063   -0.00016582   -0.02023982
     atom    4 type  2   force =     0.00001669   -0.00203481    0.05925041
     atom    5 type  2   force =    -0.01033039   -0.00110500    0.00808761
     atom    6 type  2   force =     0.01217130   -0.00054927    0.00816669
     atom    7 type  1   force =     0.00015154    0.00328834   -0.01112104
     atom    8 type  1   force =    -0.00029691    0.00051194   -0.00561406
     atom    9 type  2   force =     0.00004022    0.00017969   -0.00015135
     atom   10 type  2   force =    -0.00146460   -0.00003281   -0.00170764
     atom   11 type  2   force =     0.00038114   -0.00003171   -0.00005608
     atom   12 type  2   force =    -0.00009753    0.00010915   -0.00008707
     atom   13 type  1   force =    -0.00008717   -0.00017352   -0.00023245
     atom   14 type  1   force =    -0.00021668   -0.00036318    0.00035114
     atom   15 type  2   force =     0.00007002   -0.00047549    0.00009111
     atom   16 type  2   force =     0.00021807    0.00009712    0.00023729
     atom   17 type  2   force =     0.00036124   -0.00018851    0.00015946
     atom   18 type  2   force =    -0.00007562   -0.00014277   -0.00013646
     atom   19 type  1   force =    -0.00024032   -0.00044456    0.00007355
     atom   20 type  1   force =     0.00010688    0.00028173    0.00050315
     atom   21 type  2   force =    -0.00000381   -0.00007464    0.10400408
     atom   22 type  2   force =    -0.00009119   -0.00000956   -0.00003847
     atom   23 type  2   force =    -0.07034242   -0.00013788   -0.02683126
     atom   24 type  2   force =     0.07021367    0.00030607   -0.02691114
     atom   25 type  1   force =     0.00002674   -0.00015888    0.09272659
     atom   26 type  1   force =    -0.00016063   -0.00039382   -0.17833888
     atom   27 type  2   force =     0.00011078   -0.00031252   -0.01919370
     atom   28 type  2   force =     0.00004569   -0.00163512    0.05840391
     atom   29 type  2   force =    -0.01028463   -0.00063964    0.00729298
     atom   30 type  2   force =     0.01201947   -0.00030779    0.00742924
     atom   31 type  1   force =     0.00007593    0.00514036   -0.01466938
     atom   32 type  1   force =    -0.00013827   -0.00050009   -0.00595614
     atom   33 type  2   force =     0.00012901   -0.00039809   -0.00024018
     atom   34 type  2   force =    -0.00078798    0.00260458   -0.00104331
     atom   35 type  2   force =    -0.00007455   -0.00011512   -0.00011731
     atom   36 type  2   force =     0.00024155    0.00000319   -0.00014250
     atom   37 type  1   force =    -0.00043311    0.00008374    0.00003042
     atom   38 type  1   force =    -0.00003573   -0.00024117   -0.00023743
     atom   39 type  2   force =    -0.00030095   -0.00020009   -0.00016972
     atom   40 type  2   force =    -0.00013672   -0.00006257   -0.00005550
     atom   41 type  2   force =    -0.00013982   -0.00013258    0.00033672
     atom   42 type  2   force =    -0.00009793   -0.00025683    0.00014486
     atom   43 type  1   force =     0.00003449   -0.00030510    0.00013443
     atom   44 type  1   force =    -0.00003456   -0.00003619    0.00013043
     atom   45 type  2   force =     0.00001101   -0.00010866    0.10397289
     atom   46 type  2   force =    -0.07036267   -0.00013705   -0.02685216
     atom   47 type  2   force =     0.07020717    0.00029871   -0.02691160
     atom   48 type  3   force =     0.00116988   -0.00039552   -0.00008103
     atom   49 type  3   force =     0.00450496   -0.00595026   -0.00139524
     atom   50 type  4   force =     0.00025509    0.00113686    0.00063643
     atom   51 type  5   force =    -0.00005519   -0.00057533   -0.00040982
     atom   52 type  5   force =     0.00012189   -0.00091906   -0.00014141
     atom   53 type  5   force =    -0.00605315    0.00585523    0.00186023
     atom   54 type  5   force =    -0.00017009    0.00104099    0.00009554
     atom   55 type  2   force =     0.00010991   -0.00013767    0.00056038
     atom   56 type  5   force =     0.00022050   -0.00039643   -0.00041515
     atom   57 type  5   force =    -0.00040193   -0.00012145    0.00011540

     Total force =     0.366363     Total SCF correction =     0.000524
  @ DRIVER MODE: Message from server: STATUS
  @ DRIVER MODE: Message from server: GETFORCE
  @ DRIVER MODE: Returning v,forces,stress,ensemble

     Writing output data file ./calc.save/
  @ DRIVER MODE: Message from server: EXIT
  @ DRIVE MODE: Exiting

     General routines

     Parallel routines

   This run was terminated on:   4: 4:23  23Sep2021

   JOB DONE.