     Program PWSCF v.6.7GPU starts on 12Oct2021 at 10:16:15

     R & G space division:  proc/nbgrp/npool/nimage =       8
     Reading input from /storage/home/hcoda1/3/ntian30/research/carbon/ACS_vib/ads_slab/N2H/out_0005/pw.inp
Warning: card &CELL ignored
Warning: card   CELL_DYNAMICS='IPI', ignored
Warning: card / ignored

     Current dimensions of program PWSCF are:
     Max number of different atomic species (ntypx) = 10
     Max number of k-points (npk) =  40000
     Max angular momentum in pseudopotentials (lmaxx) =  3
     Presently no symmetry can be used with electric field

     Message from routine cell_base_init:
     DEPRECATED: use true lattice parameter, not A to a.u. conversion factor

     IMPORTANT: XC functional enforced from input :
     Exchange-correlation= BEEF-VDW
                           (   1   4  43  14   2   0   0)
     Any further DFT definition will be discarded
     Please, verify this is what you really want

  @ DRIVER MODE: Connecting to
 qe_1139763_3181314.sched-torque.pace.gatech.edustmnr28d_scratch
  using UNIX socket
  @ DRIVER MODE: Message from server: STATUS
  @ DRIVER MODE: Message from server: INIT
  @ DRIVER MODE: Receiving replica           0          -1
  @ DRIVER MODE: Receiving encoded integer          25
  @ DRIVER MODE:  SCF:  T  FORCE:  T  STRESS:  F  VC:  F  ENSEMBLE:  F
  @ DRIVER MODE:  SCF:  T  FORCE:  T  STRESS:  F  VC:  F  ENSEMBLE:  F

     Using Slab Decomposition

     bravais-lattice index     =            0
     lattice parameter (alat)  =       1.8897  a.u.
     unit-cell volume          =    6658.9804 (a.u.)^3
     number of atoms/cell      =           50
     number of atomic types    =            4
     number of electrons       =       389.00
     number of Kohn-Sham states=          204
     kinetic-energy cutoff     =      29.3995  Ry
     charge density cutoff     =     293.9946  Ry
     scf convergence threshold =      7.3E-08
     mixing beta               =       0.0500
     number of iterations used =            8  plain     mixing
     Exchange-correlation= BEEF-VDW
                           (   1   4  43  14   2   0   0)

     celldm(1)=   1.889726  celldm(2)=   0.000000  celldm(3)=   0.000000
     celldm(4)=   0.000000  celldm(5)=   0.000000  celldm(6)=   0.000000

     crystal axes: (cart. coord. in units of alat)
               a(1) = (   6.579727   0.000000   0.000000 )
               a(2) = (  -0.000775   5.961596   0.000000 )
               a(3) = (   0.000000   0.000000  25.155947 )

     reciprocal axes: (cart. coord. in units 2 pi/alat)
               b(1) = (  0.151982  0.000020  0.000000 )
               b(2) = (  0.000000  0.167740  0.000000 )
               b(3) = (  0.000000  0.000000  0.039752 )

     PseudoPot. # 1 for Ti read from file:
     /storage/coda1/p-amedford6/0/shared/rich_project_chbe-medford/medford-share/data/pseudos_module/espresso/nninc/pbe/van/Ti.UPF
     MD5 check sum: 8e4df49b7f0d34bbd5052bf3f5ea0213
     Pseudo is Ultrasoft, Zval = 12.0
     Generated by new atomic code, or converted to UPF format
     Using radial grid of  851 points,  6 beta functions with:
                l(1) =   0
                l(2) =   0
                l(3) =   1
                l(4) =   1
                l(5) =   2
                l(6) =   2
     Q(r) pseudized with  8 coefficients,  rinner =    1.000   1.000   1.000
                                                       1.000   1.000

     PseudoPot. # 2 for O  read from file:
     /storage/coda1/p-amedford6/0/shared/rich_project_chbe-medford/medford-share/data/pseudos_module/espresso/nninc/pbe/van/O.UPF
     MD5 check sum: 78c19812648e8988a0fe644b0f25305e
     Pseudo is Ultrasoft, Zval =  6.0
     Generated by new atomic code, or converted to UPF format
     Using radial grid of  737 points,  4 beta functions with:
                l(1) =   0
                l(2) =   0
                l(3) =   1
                l(4) =   1
     Q(r) pseudized with  8 coefficients,  rinner =    0.800   0.800   0.800

     PseudoPot. # 3 for N  read from file:
     /storage/coda1/p-amedford6/0/shared/rich_project_chbe-medford/medford-share/data/pseudos_module/espresso/nninc/pbe/van/N.UPF
     MD5 check sum: 90d10febe142ad51ac9d5be1deb811c4
     Pseudo is Ultrasoft, Zval =  5.0
     Generated by new atomic code, or converted to UPF format
     Using radial grid of  729 points,  4 beta functions with:
                l(1) =   0
                l(2) =   0
                l(3) =   1
                l(4) =   1
     Q(r) pseudized with  8 coefficients,  rinner =    0.800   0.800   0.800

     PseudoPot. # 4 for H  read from file:
     /storage/coda1/p-amedford6/0/shared/rich_project_chbe-medford/medford-share/data/pseudos_module/espresso/nninc/pbe/van/H.UPF
     MD5 check sum: b5ee9d7bfd3a09ee7748110bda690ff7
     Pseudo is Ultrasoft, Zval =  1.0
     Generated by new atomic code, or converted to UPF format
     Using radial grid of  615 points,  1 beta functions with:
                l(1) =   0
     Q(r) pseudized with  8 coefficients,  rinner =    0.800

     atomic species   valence    mass     pseudopotential
        Ti1           12.00    47.86700     Ti( 1.00)
        O1             6.00    15.99900     O ( 1.00)
        N1             5.00    14.00700     N ( 1.00)
        H1             1.00     1.00800     H ( 1.00)

     No symmetry found

   Cartesian axes

     site n.     atom                  positions (alat units)
         1           Ti1 tau(   1) = (   0.0004258   2.9801865   6.0000000  )
         2           Ti1 tau(   2) = (   3.2906075   1.4906267   6.0002472  )
         3           O1  tau(   3) = (   0.0006271   0.0005054   7.9858123  )
         4           O1  tau(   4) = (   3.2906025   0.0005020   7.3038282  )
         5           O1  tau(   5) = (   4.5942328   1.4918067   9.2879030  )
         6           O1  tau(   6) = (   1.9868534   1.4903216   9.2879459  )
         7           Ti1 tau(   7) = (   3.2913060   3.0378612   9.1552972  )
         8           Ti1 tau(   8) = (   0.0009381   1.5839581   9.3521326  )
         9           O1  tau(   9) = (   3.2925928   0.0151421  11.3436145  )
        10           O1  tau(  10) = (   0.0015930   0.0098544  10.5931849  )
        11           O1  tau(  11) = (   1.2954366   1.5088831  12.6205452  )
        12           O1  tau(  12) = (   5.2873992   1.5081763  12.6209847  )
        13           Ti1 tau(  13) = (   0.0062007   3.0223002  12.7522649  )
        14           Ti1 tau(  14) = (   3.2997597   1.5103467  12.4821987  )
        15           O1  tau(  15) = (   0.0040346   0.0184607  14.6317695  )
        16           O1  tau(  16) = (   3.2910281   0.0168284  13.9441510  )
        17           O1  tau(  17) = (   4.5375602   1.5179921  16.0890948  )
        18           O1  tau(  18) = (   2.0457139   1.5162684  16.0851288  )
        19           Ti1 tau(  19) = (   3.2874297   2.9968575  15.7108406  )
        20           Ti1 tau(  20) = (   6.5695515   1.3443907  16.0039228  )
        21           O1  tau(  21) = (   3.2904802   0.0005063   4.7018136  )
        22           O1  tau(  22) = (   0.0014600   0.0364584  17.1914435  )
        23           O1  tau(  23) = (   1.3043587   1.4918075   6.0039043  )
        24           O1  tau(  24) = (   5.2767064   1.4903225   6.0039473  )
        25           Ti1 tau(  25) = (   0.0000382   5.9609847   6.0000000  )
        26           Ti1 tau(  26) = (   3.2902200   4.4714249   6.0002472  )
        27           O1  tau(  27) = (   0.0002396   2.9813036   7.9858123  )
        28           O1  tau(  28) = (   3.2902150   2.9813002   7.3038282  )
        29           O1  tau(  29) = (   4.5938453   4.4726049   9.2879030  )
        30           O1  tau(  30) = (   1.9864658   4.4711199   9.2879459  )
        31           Ti1 tau(  31) = (   3.2910671   0.0593156   9.1538314  )
        32           Ti1 tau(  32) = (   0.0005551   4.5317022   9.3016378  )
        33           O1  tau(  33) = (   3.2922260   2.9941798  11.3385902  )
        34           O1  tau(  34) = (   0.0008704   2.9922752  10.5694424  )
        35           O1  tau(  35) = (   1.2972379   4.4863578  12.6167950  )
        36           O1  tau(  36) = (   5.2846861   4.4861696  12.6173214  )
        37           Ti1 tau(  37) = (   0.0087596   0.0398615  12.5729301  )
        38           Ti1 tau(  38) = (   3.2994502   4.4862820  12.4776038  )
        39           O1  tau(  39) = (   0.0007913   3.0275094  14.6627896  )
        40           O1  tau(  40) = (   3.2912693   2.9957722  13.9146565  )
        41           O1  tau(  41) = (   4.5447272   4.4665429  16.0834370  )
        42           O1  tau(  42) = (   2.0408322   4.4687941  16.0798044  )
        43           Ti1 tau(  43) = (   3.2813896   0.0196903  15.7368506  )
        44           Ti1 tau(  44) = (   6.5682818   4.5002177  15.9516634  )
        45           O1  tau(  45) = (   3.2900926   2.9813045   4.7018136  )
        46           O1  tau(  46) = (   1.3039711   4.4726057   6.0039043  )
        47           O1  tau(  47) = (   5.2763189   4.4711207   6.0039473  )
        48           N1  tau(  48) = (   0.0702777   2.9930733  18.6564031  )
        49           N1  tau(  49) = (   0.0230277   3.0528524  17.4426018  )
        50           H1  tau(  50) = (   0.0865168   1.9966355  18.9942200  )

     number of k points=    10  Fermi-Dirac smearing, width (Ry)=  0.0073
                       cart. coord. in units 2pi/alat
        k(    1) = (   0.0000000   0.0000000   0.0000000), wk =   0.1250000
        k(    2) = (   0.0000000   0.0419351   0.0000000), wk =   0.2500000
        k(    3) = (   0.0000000  -0.0838702   0.0000000), wk =   0.1250000
        k(    4) = (   0.0379955   0.0000049   0.0000000), wk =   0.2500000
        k(    5) = (   0.0379955   0.0419400   0.0000000), wk =   0.2500000
        k(    6) = (   0.0379955  -0.0838652   0.0000000), wk =   0.2500000
        k(    7) = (   0.0379955  -0.0419301   0.0000000), wk =   0.2500000
        k(    8) = (  -0.0759910  -0.0000099   0.0000000), wk =   0.1250000
        k(    9) = (  -0.0759910   0.0419252   0.0000000), wk =   0.2500000
        k(   10) = (  -0.0759910  -0.0838800   0.0000000), wk =   0.1250000

     Initial potential from superposition of free atoms

     starting charge  372.99922, renormalised to  389.00000

     negative rho (up, down):  2.006E-02 0.000E+00

     %%%%%%%%%%%%%%%%%%%%%%%%%%%%%%%%%%%%%%%%%%%%%%%%%%%%%%%%%%%%%%%%%%%%%%%%
     %                                                                      %
     % You are using vdW-DF, which was implemented by the Thonhauser group. %
     % Please cite the following two papers that made this development      %
     % possible and the two reviews that describe the various versions:     %
     %                                                                      %
     %   T. Thonhauser et al., PRL 115, 136402 (2015).                      %
     %   T. Thonhauser et al., PRB 76, 125112 (2007).                       %
     %   K. Berland et al., Rep. Prog. Phys. 78, 066501 (2015).             %
     %   D.C. Langreth et al., J. Phys.: Condens. Matter 21, 084203 (2009). %
     %                                                                      %
     %                                                                      %
     % If you are calculating the stress with vdW-DF, please also cite:     %
     %                                                                      %
     %   R. Sabatini et al., J. Phys.: Condens. Matter 24, 424209 (2012).   %
     %                                                                      %
     %%%%%%%%%%%%%%%%%%%%%%%%%%%%%%%%%%%%%%%%%%%%%%%%%%%%%%%%%%%%%%%%%%%%%%%%

     Adding external electric field

     Computed dipole along edir(3) :
        Dipole               -4.3778 Ry au,        -11.1273 Debye
        Dipole field         -0.0083 Ry au,

        Potential amp.        0.7658 Ry
        Total length         46.3494 bohr

     Starting wfcs are  293 atomic wfcs
  @ DRIVER MODE: Message from server: STATUS
  @ DRIVER MODE: Message from server: POSDATA
  @ DRIVER MODE: Reading and sharing cell
  @ DRIVER MODE: Reading and sharing positions
  @ DRIVER MODE: Received positions

     Self-consistent Calculation

     iteration #  1     ecut=    29.40 Ry     beta= 0.05
     Davidson diagonalization with overlap
     c_bands:  3 eigenvalues not converged
     c_bands:  3 eigenvalues not converged
     c_bands:  5 eigenvalues not converged
     c_bands:  1 eigenvalues not converged
     c_bands:  3 eigenvalues not converged
     c_bands:  2 eigenvalues not converged
     c_bands:  3 eigenvalues not converged
     c_bands:  1 eigenvalues not converged
     c_bands:  3 eigenvalues not converged
     c_bands:  1 eigenvalues not converged
     ethr =  1.00E-05,  avg # of iterations = 20.0

[...]

     total energy              =   -2891.89025147 Ry
     estimated scf accuracy    <     399.37743236 Ry

     iteration #  2     ecut=    29.40 Ry     beta= 0.05
     Davidson diagonalization with overlap
     ethr =  1.00E-02,  avg # of iterations = 13.6

[...]

     iteration # 33     ecut=    29.40 Ry     beta= 0.05
     Davidson diagonalization with overlap
     c_bands:  1 eigenvalues not converged
     c_bands:  1 eigenvalues not converged
     c_bands:  3 eigenvalues not converged
     c_bands:  1 eigenvalues not converged
     c_bands:  4 eigenvalues not converged
     ethr =  1.80E-06,  avg # of iterations = 17.7

[...]

     total energy              =   -2925.19935593 Ry
     estimated scf accuracy    <       0.00000010 Ry

     iteration # 55     ecut=    29.40 Ry     beta= 0.05
     Davidson diagonalization with overlap
     ethr =  2.65E-11,  avg # of iterations = 10.9

     negative rho (up, down):  1.930E-02 0.000E+00

     Adding external electric field

     Computed dipole along edir(3) :
        Dipole                0.3861 Ry au,          0.9813 Debye
        Dipole field          0.0007 Ry au,

        Potential amp.       -0.0675 Ry
        Total length         46.3494 bohr

     End of self-consistent calculation

          k = 0.0000 0.0000 0.0000 ( 18029 PWs)   bands (ev):

   -56.2460 -56.2105 -56.2105 -56.1740 -56.1268 -56.0808 -56.0376 -56.0179
   -55.9823 -55.9658 -55.9322 -55.9004 -55.7717 -55.5981 -55.2402 -55.2061
   -32.7762 -32.7079 -32.5577 -32.5526 -32.5310 -32.5308 -32.5065 -32.4588
   -32.4539 -32.4444 -32.4157 -32.4102 -32.3916 -32.3865 -32.3565 -32.3502
   -32.3411 -32.3308 -32.3156 -32.2938 -32.2857 -32.2689 -32.2496 -32.2245
   -32.2210 -32.2207 -32.2096 -32.2005 -32.1920 -32.1810 -32.1571 -32.1392
   -32.1096 -32.1068 -32.0802 -32.0773 -32.0631 -32.0336 -31.9339 -31.8420
   -31.8393 -31.7976 -31.6493 -31.5536 -31.5311 -31.4662 -31.3803 -31.2689
   -18.8687 -16.9519 -16.6545 -16.5028 -16.3596 -16.3302 -16.2210 -16.0034
   -15.8954 -15.8269 -15.8041 -15.7824 -15.7654 -15.7502 -15.7370 -15.7357
   -15.7132 -15.6711 -15.6338 -15.6297 -15.6226 -15.5807 -15.4855 -15.4364
   -15.4095 -15.3543 -15.3437 -15.2458 -15.2025 -15.0014 -13.7401 -13.6222
    -9.0834  -5.3539  -4.3135  -4.1431  -4.1144  -4.0474  -4.0127  -3.7659
    -3.7577  -3.4767  -3.4282  -3.3580  -3.3445  -3.3232  -3.2624  -3.2561
    -3.0839  -3.0534  -3.0307  -2.9987  -2.9952  -2.9739  -2.9649  -2.9472
    -2.9282  -2.8725  -2.7532  -2.6979  -2.6371  -2.6260  -2.5583  -2.5335
    -2.4895  -2.4642  -2.4624  -2.4451  -2.4309  -2.4090  -2.3599  -2.2447
    -2.1901  -2.1238  -2.0257  -2.0057  -1.9208  -1.7742  -1.7166  -1.6498
    -1.6295  -1.6129  -1.5476  -1.5378  -1.4360  -1.4025  -1.3966  -1.3250
    -1.2286  -1.2095  -1.1131  -1.0626  -0.9968  -0.9734  -0.9467  -0.9335
    -0.9102  -0.7202  -0.6826  -0.6606  -0.6228  -0.5879  -0.5152  -0.4959
    -0.4087  -0.4002  -0.3746  -0.3230  -0.3168  -0.2457  -0.2223  -0.2217
    -0.1598  -0.1336   0.0155   0.0355   0.0460   0.1464   0.1550   0.3316
     0.3460   0.4348   0.5443   0.6914   0.7846   0.8904   0.9567   1.3759
     1.4389   2.2260   2.9549   2.9753   3.0074   3.1138   3.1342   3.2300
     3.2751   3.4035   3.4181   3.4594

[...]

          k = 0.0380-0.0419 0.0000 ( 17876 PWs)   bands (ev):

[...]

          k =-0.0760-0.0000 0.0000 ( 17886 PWs)   bands (ev):

[...]

          k =-0.0760-0.0839 0.0000 ( 17948 PWs)   bands (ev):

   -56.2334 -56.2229 -56.1943 -56.1899 -56.1239 -56.0729 -56.0454 -56.0206
   -55.9779 -55.9511 -55.9473 -55.9041 -55.7700 -55.5997 -55.2234 -55.2228
   -32.5796 -32.5755 -32.5292 -32.5212 -32.5186 -32.5050 -32.5047 -32.4612
   -32.4167 -32.4136 -32.4103 -32.3943 -32.3670 -32.3643 -32.3569 -32.3312
   -32.3268 -32.3207 -32.3171 -32.3125 -32.2807 -32.2797 -32.2728 -32.2676
   -32.2544 -32.2519 -32.2261 -32.2234 -32.2059 -32.2042 -32.1858 -32.1825
   -32.1568 -32.1546 -32.1487 -32.1240 -32.0927 -32.0369 -31.9293 -31.9032
   -31.8432 -31.8333 -31.5441 -31.5434 -31.4626 -31.4621 -31.4236 -31.4231
   -18.8641 -16.3928 -16.3614 -16.1400 -16.1208 -16.1184 -16.0411 -15.9441
   -15.9405 -15.9368 -15.9334 -15.8765 -15.8483 -15.8324 -15.7932 -15.7355
   -15.7265 -15.7164 -15.7155 -15.6655 -15.6645 -15.6134 -15.5500 -15.5370
   -15.5355 -15.5345 -15.5192 -15.4390 -15.4065 -15.1571 -13.7243 -13.7226
    -9.0838  -5.3051  -3.6902  -3.6509  -3.3940  -3.3763  -3.3606  -3.3529
    -3.2404  -3.1577  -3.1248  -3.0920  -3.0711  -3.0543  -3.0523  -3.0155
    -3.0098  -2.9728  -2.9631  -2.9502  -2.9275  -2.8906  -2.8768  -2.8444
    -2.8347  -2.8243  -2.8176  -2.7862  -2.7703  -2.7572  -2.7382  -2.7353
    -2.6001  -2.5487  -2.4422  -2.4413  -2.3348  -2.3214  -2.3125  -2.3029
    -2.2758  -2.2687  -2.2356  -2.1047  -2.0367  -1.9322  -1.9196  -1.9139
    -1.8230  -1.7671  -1.6419  -1.5963  -1.5806  -1.5367  -1.4708  -1.4653
    -1.4322  -1.4303  -1.3191  -1.2941  -1.2679  -1.1898  -1.1815  -1.1778
    -1.0802  -1.0457  -1.0046  -0.9696  -0.9482  -0.8972  -0.8423  -0.7987
    -0.7735  -0.7380  -0.7301  -0.6495  -0.5759  -0.5255  -0.2558  -0.1993
    -0.1891  -0.1203  -0.0257   0.0374   0.0540   0.1054   0.1582   0.2215
     0.2713   0.3311   0.3337   0.3778   0.4242   1.1474   1.1484   1.2382
     1.2446   2.1722   3.0938   3.2006   3.2098   3.2605   3.3359   3.4272
     3.4376   3.4385   3.4410   3.6183

     the Fermi energy is     2.9119 ev

!    total energy              =   -2925.19941453 Ry
     estimated scf accuracy    <       0.00000005 Ry
     smearing contrib. (-TS)   =      -0.02330304 Ry
     internal energy E=F+TS    =   -2925.17611149 Ry

     The total energy is F=E-TS. E is the sum of the following terms:
     one-electron contribution =  -24767.00858636 Ry
     hartree contribution      =   12464.72286026 Ry
     xc contribution           =    -479.97830628 Ry
     ewald contribution        =    9857.08763961 Ry
     electric field correction =       0.00028128 Ry

     convergence has been achieved in  55 iterations

     Forces acting on atoms (cartesian axes, Ry/au):

     atom    1 type  1   force =     0.00007183   -0.00095696    0.11384952
     atom    2 type  1   force =    -0.00009635    0.00025442   -0.17944010
     atom    3 type  2   force =    -0.00000106   -0.00524018   -0.03558760
     atom    4 type  2   force =     0.00003891    0.00060780    0.04439316
     atom    5 type  2   force =    -0.02019122   -0.00082089    0.00349813
     atom    6 type  2   force =     0.02028227   -0.00039224    0.00350905
     atom    7 type  1   force =    -0.00022161    0.00017614    0.00019165
     atom    8 type  1   force =     0.00021759    0.00174145   -0.00009668
     atom    9 type  2   force =    -0.00005664    0.00026810   -0.00035055
     atom   10 type  2   force =    -0.00000858    0.00011640    0.00037231
     atom   11 type  2   force =    -0.00020111   -0.00002242    0.00033377
     atom   12 type  2   force =    -0.00007348   -0.00004483    0.00033684
     atom   13 type  1   force =     0.00031983    0.00056923    0.00059619
     atom   14 type  1   force =     0.00030040   -0.00006469    0.00106637
     atom   15 type  2   force =     0.00010563   -0.00014450   -0.00024337
     atom   16 type  2   force =     0.00001146   -0.00038101   -0.00080464
     atom   17 type  2   force =     0.00143268   -0.00013113   -0.00022350
     atom   18 type  2   force =    -0.00105167   -0.00017162   -0.00020038
     atom   19 type  1   force =    -0.00016820    0.00000076    0.00009400
     atom   20 type  1   force =    -0.00015815   -0.00078686   -0.00114839
     atom   21 type  2   force =     0.00003911    0.00008156    0.10409190
     atom   22 type  2   force =    -0.00002738   -0.00007015    0.00120541
     atom   23 type  2   force =    -0.06905054    0.00033749   -0.03032640
     atom   24 type  2   force =     0.06892119    0.00077476   -0.03036359
     atom   25 type  1   force =     0.00015865    0.00085883    0.12103519
     atom   26 type  1   force =    -0.00010523    0.00040972   -0.17936534
     atom   27 type  2   force =     0.00002342    0.00096837   -0.03231921
     atom   28 type  2   force =     0.00004093    0.00070989    0.04484416
     atom   29 type  2   force =    -0.01921759    0.00046699    0.00324469
     atom   30 type  2   force =     0.01934656    0.00088104    0.00324253
     atom   31 type  1   force =    -0.00046770    0.00023024    0.00032522
     atom   32 type  1   force =     0.00023171    0.00065022   -0.00091540
     atom   33 type  2   force =    -0.00001432   -0.00008714   -0.00066002
     atom   34 type  2   force =    -0.00005996    0.00026685   -0.00015552
     atom   35 type  2   force =    -0.00034756    0.00016145   -0.00002414
     atom   36 type  2   force =     0.00004463    0.00014600   -0.00002651
     atom   37 type  1   force =     0.00044007    0.00017236   -0.00153667
     atom   38 type  1   force =     0.00034213    0.00038998    0.00115984
     atom   39 type  2   force =     0.00007406   -0.00014274    0.00043291
     atom   40 type  2   force =     0.00000252    0.00003475   -0.00014738
     atom   41 type  2   force =     0.00111078   -0.00044235    0.00036968
     atom   42 type  2   force =    -0.00055002   -0.00044025    0.00028596
     atom   43 type  1   force =    -0.00056752   -0.00015628    0.00031483
     atom   44 type  1   force =    -0.00044047    0.00006676   -0.00078490
     atom   45 type  2   force =     0.00004428    0.00005805    0.10414050
     atom   46 type  2   force =    -0.06884781   -0.00101894   -0.03037657
     atom   47 type  2   force =     0.06872668   -0.00058120   -0.03041532
     atom   48 type  3   force =     0.00097025   -0.00451618    0.02748652
     atom   49 type  3   force =    -0.00089032    0.00128251   -0.02397422
     atom   50 type  4   force =    -0.00048309    0.00393047   -0.00093391

     Total force =     0.381659     Total SCF correction =     0.000613
  @ DRIVER MODE: Message from server: STATUS
  @ DRIVER MODE: Message from server: GETFORCE
  @ DRIVER MODE: Returning v,forces,stress,ensemble

     Writing output data file ./calc.save/
  @ DRIVER MODE: Message from server: EXIT
  @ DRIVE MODE: Exiting

     General routines

     Parallel routines

   This run was terminated on:  10:33:30  12Oct2021

   JOB DONE.