     Program PWSCF v.6.7GPU starts on 10Sep2021 at 23:55:12

     R & G space division:  proc/nbgrp/npool/nimage =      10
     Reading input from /storage/home/hcoda1/3/ntian30/research/carbon/CxH_vib/CH2_calc/ads_slab/CH2O_c/out_0017/pw.inp
Warning: card &CELL ignored
Warning: card   CELL_DYNAMICS='IPI', ignored
Warning: card / ignored

     Current dimensions of program PWSCF are:
     Max number of different atomic species (ntypx) = 10
     Max number of k-points (npk) =  40000
     Max angular momentum in pseudopotentials (lmaxx) =  3
     Presently no symmetry can be used with electric field

     Message from routine cell_base_init:
     DEPRECATED: use true lattice parameter, not A to a.u. conversion factor

     IMPORTANT: XC functional enforced from input :
     Exchange-correlation= BEEF-VDW
                           (   1   4  43  14   2   0   0)
     Any further DFT definition will be discarded
     Please, verify this is what you really want

  @ DRIVER MODE: Connecting to
 qe_1139763_2792043.sched-torque.pace.gatech.edup3ikjnxh_scratch
  using UNIX socket
  @ DRIVER MODE: Message from server: STATUS
  @ DRIVER MODE: Message from server: INIT
  @ DRIVER MODE: Receiving replica           0          -1
  @ DRIVER MODE: Receiving encoded integer          25
  @ DRIVER MODE:  SCF:  T  FORCE:  T  STRESS:  F  VC:  F  ENSEMBLE:  F
  @ DRIVER MODE:  SCF:  T  FORCE:  T  STRESS:  F  VC:  F  ENSEMBLE:  F

     Using Slab Decomposition

     bravais-lattice index     =            0
     lattice parameter (alat)  =       1.8897  a.u.
     unit-cell volume          =    6658.9804 (a.u.)^3
     number of atoms/cell      =           51
     number of atomic types    =            4
     number of electrons       =       390.00
     number of Kohn-Sham states=          205
     kinetic-energy cutoff     =      29.3995  Ry
     charge density cutoff     =     293.9946  Ry
     scf convergence threshold =      7.3E-08
     mixing beta               =       0.0500
     number of iterations used =            8  plain     mixing
     Exchange-correlation= BEEF-VDW
                           (   1   4  43  14   2   0   0)

     celldm(1)=   1.889726  celldm(2)=   0.000000  celldm(3)=   0.000000
     celldm(4)=   0.000000  celldm(5)=   0.000000  celldm(6)=   0.000000

     crystal axes: (cart. coord. in units of alat)
               a(1) = (   6.579727   0.000000   0.000000 )
               a(2) = (  -0.000775   5.961596   0.000000 )
               a(3) = (   0.000000   0.000000  25.155947 )

     reciprocal axes: (cart. coord. in units 2 pi/alat)
               b(1) = (  0.151982  0.000020  0.000000 )
               b(2) = (  0.000000  0.167740  0.000000 )
               b(3) = (  0.000000  0.000000  0.039752 )

     PseudoPot. # 1 for O  read from file:
     /storage/coda1/p-amedford6/0/shared/rich_project_chbe-medford/medford-share/data/pseudos_module/espresso/nninc/pbe/van/O.UPF
     MD5 check sum: 78c19812648e8988a0fe644b0f25305e
     Pseudo is Ultrasoft, Zval =  6.0
     Generated by new atomic code, or converted to UPF format
     Using radial grid of  737 points,  4 beta functions with:
                l(1) =   0
                l(2) =   0
                l(3) =   1
                l(4) =   1
     Q(r) pseudized with  8 coefficients,  rinner =    0.800   0.800   0.800

     PseudoPot. # 2 for Ti read from file:
     /storage/coda1/p-amedford6/0/shared/rich_project_chbe-medford/medford-share/data/pseudos_module/espresso/nninc/pbe/van/Ti.UPF
     MD5 check sum: 8e4df49b7f0d34bbd5052bf3f5ea0213
     Pseudo is Ultrasoft, Zval = 12.0
     Generated by new atomic code, or converted to UPF format
     Using radial grid of  851 points,  6 beta functions with:
                l(1) =   0
                l(2) =   0
                l(3) =   1
                l(4) =   1
                l(5) =   2
                l(6) =   2
     Q(r) pseudized with  8 coefficients,  rinner =    1.000   1.000   1.000
                                                       1.000   1.000

     PseudoPot. # 3 for C  read from file:
     /storage/coda1/p-amedford6/0/shared/rich_project_chbe-medford/medford-share/data/pseudos_module/espresso/nninc/pbe/van/C.UPF
     MD5 check sum: 1a69bf6b8db32088f5b2163dbdb77a27
     Pseudo is Ultrasoft, Zval =  4.0
     Generated by new atomic code, or converted to UPF format
     Using radial grid of  721 points,  4 beta functions with:
                l(1) =   0
                l(2) =   0
                l(3) =   1
                l(4) =   1
     Q(r) pseudized with  8 coefficients,  rinner =    0.800   0.800   0.800

     PseudoPot. # 4 for H  read from file:
     /storage/coda1/p-amedford6/0/shared/rich_project_chbe-medford/medford-share/data/pseudos_module/espresso/nninc/pbe/van/H.UPF
     MD5 check sum: b5ee9d7bfd3a09ee7748110bda690ff7
     Pseudo is Ultrasoft, Zval =  1.0
     Generated by new atomic code, or converted to UPF format
     Using radial grid of  615 points,  1 beta functions with:
                l(1) =   0
     Q(r) pseudized with  8 coefficients,  rinner =    0.800

     atomic species   valence    mass     pseudopotential
        O1             6.00    15.99900     O ( 1.00)
        Ti1           12.00    47.86700     Ti( 1.00)
        C1             4.00    12.01100     C ( 1.00)
        H1             1.00     1.00800     H ( 1.00)

     No symmetry found

   Cartesian axes

     site n.     atom                  positions (alat units)
         1           O1  tau(   1) = (   3.2904802   0.0005063   4.7018136  )
         2           O1  tau(   2) = (   3.2900926   2.9813045   4.7018136  )
         3           Ti1 tau(   3) = (   0.0004258   2.9801865   6.0000000  )
         4           Ti1 tau(   4) = (   0.0000382   5.9609847   6.0000000  )
         5           Ti1 tau(   5) = (   3.2906075   1.4906267   6.0002472  )
         6           Ti1 tau(   6) = (   3.2902200   4.4714249   6.0002472  )
         7           O1  tau(   7) = (   1.3043587   1.4918075   6.0039043  )
         8           O1  tau(   8) = (   1.3039711   4.4726057   6.0039043  )
         9           O1  tau(   9) = (   5.2767064   1.4903225   6.0039473  )
        10           O1  tau(  10) = (   5.2763189   4.4711207   6.0039473  )
        11           O1  tau(  11) = (   3.2906025   0.0005020   7.3038282  )
        12           O1  tau(  12) = (   3.2902150   2.9813002   7.3038282  )
        13           O1  tau(  13) = (   0.0006271   0.0005054   7.9858123  )
        14           O1  tau(  14) = (   0.0002396   2.9813036   7.9858123  )
        15           Ti1 tau(  15) = (   3.3026304   0.0558743   9.1529855  )
        16           Ti1 tau(  16) = (   3.3164045   3.0327615   9.1572159  )
        17           Ti1 tau(  17) = (   0.0278175   4.5359734   9.2551557  )
        18           Ti1 tau(  18) = (   0.0245227   1.6138560   9.3625275  )
        19           O1  tau(  19) = (   4.5942328   1.4918067   9.2879030  )
        20           O1  tau(  20) = (   4.5938453   4.4726049   9.2879030  )
        21           O1  tau(  21) = (   1.9868534   1.4903216   9.2879459  )
        22           O1  tau(  22) = (   1.9864658   4.4711199   9.2879459  )
        23           O1  tau(  23) = (   0.0082563   0.0105963  10.6032901  )
        24           O1  tau(  24) = (   0.0079484   2.9900140  10.5841352  )
        25           O1  tau(  25) = (   3.3038251   2.9929121  11.3473413  )
        26           O1  tau(  26) = (   3.3033308   0.0102956  11.3494618  )
        27           Ti1 tau(  27) = (   0.0317432   0.0173395  12.5007832  )
        28           Ti1 tau(  28) = (   3.3306627   4.4867663  12.4909107  )
        29           Ti1 tau(  29) = (   3.3307827   1.5098530  12.4883691  )
        30           Ti1 tau(  30) = (   0.0330478   2.9976760  12.7859357  )
        31           O1  tau(  31) = (   1.3012438   4.4818129  12.6408784  )
        32           O1  tau(  32) = (   1.3024292   1.5014896  12.6394904  )
        33           O1  tau(  33) = (   5.3013637   4.4812751  12.6442516  )
        34           O1  tau(  34) = (   5.3009141   1.5012301  12.6421300  )
        35           O1  tau(  35) = (   3.3022887   2.9886358  13.9251823  )
        36           O1  tau(  36) = (   3.3062039   0.0095056  13.9482717  )
        37           O1  tau(  37) = (   0.0260699   0.0177473  14.6866479  )
        38           O1  tau(  38) = (   0.0273203   2.9953000  14.7270975  )
        39           Ti1 tau(  39) = (   3.3120190   2.9903054  15.7171600  )
        40           Ti1 tau(  40) = (   3.3230935   0.0106652  15.7391692  )
        41           Ti1 tau(  41) = (   0.0328368   4.5824378  15.9539421  )
        42           Ti1 tau(  42) = (   0.0326753   1.3890416  16.0019494  )
        43           O1  tau(  43) = (   4.5622593   4.4711273  16.0916796  )
        44           O1  tau(  44) = (   4.5612194   1.5125715  16.1009491  )
        45           O1  tau(  45) = (   2.0595944   1.5153445  16.1103626  )
        46           O1  tau(  46) = (   2.0577381   4.4687033  16.1006481  )
        47           O1  tau(  47) = (   0.0167757   0.0040543  17.2075325  )
        48           O1  tau(  48) = (   6.5679879   3.0050237  17.4360139  )
        49           C1  tau(  49) = (   6.3840651   3.0748419  18.6981053  )
        50           H1  tau(  50) = (   6.3009919   4.0539401  19.1513311  )
        51           H1  tau(  51) = (   6.3054763   2.1576074  19.2739789  )

     number of k points=    10  Fermi-Dirac smearing, width (Ry)=  0.0073
                       cart. coord. in units 2pi/alat
        k(    1) = (   0.0000000   0.0000000   0.0000000), wk =   0.1250000
        k(    2) = (   0.0000000   0.0419351   0.0000000), wk =   0.2500000
        k(    3) = (   0.0000000  -0.0838702   0.0000000), wk =   0.1250000
        k(    4) = (   0.0379955   0.0000049   0.0000000), wk =   0.2500000
        k(    5) = (   0.0379955   0.0419400   0.0000000), wk =   0.2500000
        k(    6) = (   0.0379955  -0.0838652   0.0000000), wk =   0.2500000
        k(    7) = (   0.0379955  -0.0419301   0.0000000), wk =   0.2500000
        k(    8) = (  -0.0759910  -0.0000099   0.0000000), wk =   0.1250000
        k(    9) = (  -0.0759910   0.0419252   0.0000000), wk =   0.2500000
        k(   10) = (  -0.0759910  -0.0838800   0.0000000), wk =   0.1250000

     Initial potential from superposition of free atoms

     starting charge  373.99919, renormalised to  390.00000

     negative rho (up, down):  1.846E-02 0.000E+00

     %%%%%%%%%%%%%%%%%%%%%%%%%%%%%%%%%%%%%%%%%%%%%%%%%%%%%%%%%%%%%%%%%%%%%%%%
     %                                                                      %
     % You are using vdW-DF, which was implemented by the Thonhauser group. %
     % Please cite the following two papers that made this development      %
     % possible and the two reviews that describe the various versions:     %
     %                                                                      %
     %   T. Thonhauser et al., PRL 115, 136402 (2015).                      %
     %   T. Thonhauser et al., PRB 76, 125112 (2007).                       %
     %   K. Berland et al., Rep. Prog. Phys. 78, 066501 (2015).             %
     %   D.C. Langreth et al., J. Phys.: Condens. Matter 21, 084203 (2009). %
     %                                                                      %
     %                                                                      %
     % If you are calculating the stress with vdW-DF, please also cite:     %
     %                                                                      %
     %   R. Sabatini et al., J. Phys.: Condens. Matter 24, 424209 (2012).   %
     %                                                                      %
     %%%%%%%%%%%%%%%%%%%%%%%%%%%%%%%%%%%%%%%%%%%%%%%%%%%%%%%%%%%%%%%%%%%%%%%%

     Adding external electric field

     Computed dipole along edir(3) :
        Dipole               -5.1794 Ry au,        -13.1648 Debye
        Dipole field         -0.0098 Ry au,

        Potential amp.        0.9061 Ry
        Total length         46.3494 bohr

     Starting wfcs are  294 atomic wfcs
  @ DRIVER MODE: Message from server: STATUS
  @ DRIVER MODE: Message from server: POSDATA
  @ DRIVER MODE: Reading and sharing cell
  @ DRIVER MODE: Reading and sharing positions
  @ DRIVER MODE: Received positions

     Self-consistent Calculation

     iteration #  1     ecut=    29.40 Ry     beta= 0.05
     Davidson diagonalization with overlap
     c_bands:  5 eigenvalues not converged
     c_bands:  4 eigenvalues not converged
     c_bands:  2 eigenvalues not converged
     c_bands:  1 eigenvalues not converged
     c_bands:  2 eigenvalues not converged
     c_bands:  4 eigenvalues not converged
     c_bands:  2 eigenvalues not converged
     c_bands:  3 eigenvalues not converged
     c_bands:  2 eigenvalues not converged
     ethr =  1.00E-05,  avg # of iterations = 20.9

[...]

     total energy              =   -2823.10562445 Ry
     estimated scf accuracy    <    1180.90548496 Ry

     iteration #  2     ecut=    29.40 Ry     beta= 0.05
     Davidson diagonalization with overlap
     ethr =  1.00E-02,  avg # of iterations = 17.0

[...]

     iteration # 82     ecut=    29.40 Ry     beta= 0.05
     Davidson diagonalization with overlap
     c_bands:  1 eigenvalues not converged
     c_bands:  1 eigenvalues not converged
     ethr =  6.25E-11,  avg # of iterations =  9.7

[...]

     total energy              =   -2930.16725452 Ry
     estimated scf accuracy    <       0.00000010 Ry

     iteration # 84     ecut=    29.40 Ry     beta= 0.05
     Davidson diagonalization with overlap
     ethr =  2.67E-11,  avg # of iterations =  2.5

     negative rho (up, down):  1.728E-02 0.000E+00

     Adding external electric field

     Computed dipole along edir(3) :
        Dipole                0.9322 Ry au,          2.3694 Debye
        Dipole field          0.0018 Ry au,

        Potential amp.       -0.1631 Ry
        Total length         46.3494 bohr

     End of self-consistent calculation

          k = 0.0000 0.0000 0.0000 ( 18029 PWs)   bands (ev):

   -55.8206 -55.8094 -55.7843 -55.7732 -55.7116 -55.6971 -55.6747 -55.6022
   -55.6005 -55.5896 -55.5794 -55.5560 -55.5246 -55.4867 -54.8468 -54.8128
   -32.3791 -32.2931 -32.1880 -32.1710 -32.1269 -32.1225 -32.1151 -32.0963
   -32.0691 -32.0519 -32.0501 -32.0239 -31.9940 -31.9910 -31.9793 -31.9577
   -31.9415 -31.9411 -31.9315 -31.9149 -31.8930 -31.8865 -31.8839 -31.8719
   -31.8632 -31.8460 -31.8440 -31.8208 -31.8154 -31.8148 -31.7898 -31.7618
   -31.7562 -31.7339 -31.7334 -31.7306 -31.7087 -31.7086 -31.6946 -31.6777
   -31.6755 -31.6749 -31.2569 -31.1591 -31.1369 -31.0737 -30.9876 -30.8763
   -19.8393 -16.5907 -16.2965 -16.1505 -16.0164 -15.9672 -15.8522 -15.6943
   -15.6155 -15.5493 -15.4937 -15.4411 -15.4038 -15.4027 -15.3733 -15.3599
   -15.3538 -15.3464 -15.2723 -15.2704 -15.2356 -15.2179 -15.2071 -15.1180
   -15.0577 -14.9975 -14.9507 -14.8928 -14.8392 -14.8260 -13.3474 -13.2290
    -9.3048  -5.5582  -5.5172  -3.9398  -3.7631  -3.7236  -3.7081  -3.6511
    -3.5284  -3.4231  -3.3962  -3.1060  -3.0182  -2.9883  -2.9775  -2.9648
    -2.8227  -2.7797  -2.6650  -2.6621  -2.6504  -2.6457  -2.6258  -2.5902
    -2.5834  -2.5391  -2.5163  -2.4075  -2.3675  -2.2580  -2.2443  -2.2152
    -2.1562  -2.1309  -2.1002  -2.0878  -2.0576  -2.0538  -2.0514  -2.0064
    -1.9058  -1.8185  -1.7512  -1.6687  -1.6304  -1.5377  -1.3792  -1.3096
    -1.2689  -1.2335  -1.1841  -1.1652  -1.1350  -1.1131  -1.0914  -1.0822
    -0.9839  -0.8719  -0.8616  -0.7631  -0.7029  -0.6849  -0.6694  -0.5782
    -0.5595  -0.5489  -0.4556  -0.3139  -0.3042  -0.3000  -0.1812  -0.1503
    -0.1272  -0.0825  -0.0576  -0.0230   0.0076   0.0628   0.1073   0.1177
     0.1646   0.1821   0.2077   0.3090   0.3612   0.3730   0.4271   0.4642
     0.6453   0.6660   0.8075   0.8729   1.0796   1.1779   1.2330   1.3466
     1.7655   1.8233   3.3447   3.3761   3.4012   3.4509   3.4971   3.5390
     3.5921   3.7871   3.8045   3.8133   3.8380

[...]

          k = 0.0380-0.0419 0.0000 ( 17876 PWs)   bands (ev):

[...]

          k =-0.0760-0.0000 0.0000 ( 17886 PWs)   bands (ev):

[...]

          k =-0.0760-0.0839 0.0000 ( 17948 PWs)   bands (ev):

   -55.8088 -55.7960 -55.7915 -55.7908 -55.7018 -55.6938 -55.6844 -55.6052
   -55.5971 -55.5755 -55.5733 -55.5705 -55.5307 -55.4892 -54.8304 -54.8291
   -32.1805 -32.1803 -32.1165 -32.1029 -32.1015 -32.0965 -32.0816 -32.0766
   -32.0625 -32.0334 -32.0255 -32.0108 -31.9943 -31.9575 -31.9464 -31.9377
   -31.9363 -31.9333 -31.9251 -31.9217 -31.9045 -31.9018 -31.8980 -31.8970
   -31.8942 -31.8909 -31.8794 -31.8563 -31.8287 -31.8278 -31.8274 -31.8055
   -31.8005 -31.7829 -31.7798 -31.7734 -31.7708 -31.7697 -31.7431 -31.7164
   -31.7091 -31.6844 -31.1503 -31.1488 -31.0704 -31.0694 -31.0312 -31.0302
   -19.8314 -16.0228 -15.9922 -15.8753 -15.7624 -15.7494 -15.7066 -15.6637
   -15.6158 -15.5574 -15.5544 -15.5066 -15.4875 -15.4833 -15.4388 -15.4060
   -15.3580 -15.3519 -15.3405 -15.3396 -15.2857 -15.2821 -15.2355 -15.2283
   -15.2073 -15.1683 -15.1649 -15.0946 -15.0611 -15.0044 -13.3313 -13.3291
    -9.3058  -5.5408  -5.4945  -3.5547  -3.3115  -3.2781  -3.1083  -2.9801
    -2.9704  -2.9118  -2.8280  -2.7907  -2.7459  -2.6961  -2.6929  -2.6708
    -2.6586  -2.6448  -2.6409  -2.6327  -2.5872  -2.5675  -2.5260  -2.4822
    -2.4741  -2.4607  -2.4548  -2.4148  -2.3990  -2.3873  -2.3800  -2.3742
    -2.3031  -2.2270  -2.1557  -2.0806  -2.0277  -2.0079  -1.9762  -1.9416
    -1.9067  -1.8894  -1.8724  -1.7486  -1.7260  -1.5774  -1.5613  -1.5384
    -1.5297  -1.4762  -1.4692  -1.3479  -1.2709  -1.2650  -1.1982  -1.1757
    -1.1468  -1.0983  -1.0760  -0.9959  -0.9538  -0.9110  -0.8570  -0.7961
    -0.7843  -0.7185  -0.7082  -0.6274  -0.6069  -0.5854  -0.5807  -0.5101
    -0.4762  -0.3969  -0.3859  -0.3630  -0.2626  -0.1971  -0.1920   0.0030
     0.1748   0.1795   0.1992   0.2990   0.3294   0.3725   0.4281   0.4441
     0.5309   0.5854   0.6765   0.6966   0.7054   0.7861   1.5366   1.5376
     1.6286   1.6392   3.2990   3.5636   3.6006   3.6046   3.6651   3.8186
     3.8216   3.8388   3.8484   3.9786   4.0003

     the Fermi energy is     3.3299 ev

!    total energy              =   -2930.16725859 Ry
     estimated scf accuracy    <       0.00000007 Ry
     smearing contrib. (-TS)   =      -0.03342589 Ry
     internal energy E=F+TS    =   -2930.13383269 Ry

     The total energy is F=E-TS. E is the sum of the following terms:
     one-electron contribution =  -24668.62063376 Ry
     hartree contribution      =   12419.76373909 Ry
     xc contribution           =    -481.27144261 Ry
     ewald contribution        =    9799.99286464 Ry
     electric field correction =       0.00163995 Ry

     convergence has been achieved in  84 iterations

     Forces acting on atoms (cartesian axes, Ry/au):

     atom    1 type  1   force =    -0.00009981    0.00004846    0.10427467
     atom    2 type  1   force =    -0.00009532    0.00004847    0.10433813
     atom    3 type  2   force =    -0.00025421   -0.00196418    0.10278272
     atom    4 type  2   force =    -0.00014681    0.00159559    0.11369709
     atom    5 type  2   force =    -0.00033120    0.00058541   -0.18044994
     atom    6 type  2   force =    -0.00019494   -0.00014289   -0.18079212
     atom    7 type  1   force =    -0.06894411    0.00062441   -0.02908819
     atom    8 type  1   force =    -0.06846619   -0.00120092   -0.02912663
     atom    9 type  1   force =     0.06858079    0.00111081   -0.02916455
     atom   10 type  1   force =     0.06819216   -0.00080440   -0.02921524
     atom   11 type  1   force =     0.00037385    0.00051215    0.04560696
     atom   12 type  1   force =     0.00056885    0.00075978    0.04714316
     atom   13 type  1   force =     0.00028119   -0.00576256   -0.03304993
     atom   14 type  1   force =     0.00033119    0.00397386   -0.02582200
     atom   15 type  2   force =     0.00003504   -0.00027498    0.00026357
     atom   16 type  2   force =     0.00013680    0.00013721   -0.00008822
     atom   17 type  2   force =    -0.00022236   -0.00068762    0.00127455
     atom   18 type  2   force =    -0.00028514   -0.00034868    0.00065940
     atom   19 type  1   force =    -0.01791636    0.00015094    0.00394354
     atom   20 type  1   force =    -0.01643446    0.00130454    0.00321645
     atom   21 type  1   force =     0.01955064   -0.00097685    0.00433835
     atom   22 type  1   force =     0.01781418    0.00103088    0.00344668
     atom   23 type  1   force =    -0.00014401   -0.00025684    0.00013882
     atom   24 type  1   force =    -0.00022429    0.00003403    0.00002183
     atom   25 type  1   force =    -0.00002405   -0.00010796   -0.00087161
     atom   26 type  1   force =    -0.00011520    0.00022835   -0.00016531
     atom   27 type  2   force =    -0.00004258   -0.00075971   -0.00092211
     atom   28 type  2   force =     0.00013831    0.00068146    0.00011725
     atom   29 type  2   force =     0.00009000   -0.00088962    0.00048780
     atom   30 type  2   force =    -0.00024768    0.00137403   -0.00047166
     atom   31 type  1   force =    -0.00020352   -0.00034559    0.00041703
     atom   32 type  1   force =    -0.00024726    0.00036533    0.00001793
     atom   33 type  1   force =     0.00000423   -0.00039313    0.00052294
     atom   34 type  1   force =     0.00020954    0.00043908    0.00023525
     atom   35 type  1   force =     0.00014760   -0.00005690   -0.00136922
     atom   36 type  1   force =    -0.00006818    0.00032808   -0.00012462
     atom   37 type  1   force =    -0.00075043    0.00008029    0.00040954
     atom   38 type  1   force =     0.00006400   -0.00023474   -0.00060058
     atom   39 type  2   force =    -0.00078134    0.00064709    0.00128030
     atom   40 type  2   force =    -0.00104065   -0.00006056    0.00037938
     atom   41 type  2   force =     0.00062422   -0.00102698   -0.00071976
     atom   42 type  2   force =     0.00070640    0.00120096   -0.00062411
     atom   43 type  1   force =    -0.00033002    0.00021911    0.00054894
     atom   44 type  1   force =     0.00053743    0.00014539    0.00051072
     atom   45 type  1   force =    -0.00061548   -0.00005438    0.00036700
     atom   46 type  1   force =     0.00017492    0.00015744    0.00053915
     atom   47 type  1   force =    -0.00044713    0.00076107    0.00158713
     atom   48 type  1   force =    -0.00028203   -0.00139844   -0.00017366
     atom   49 type  3   force =     0.00014855   -0.00356081   -0.00376629
     atom   50 type  4   force =    -0.00012317    0.00316591    0.00432125
     atom   51 type  4   force =     0.00036803   -0.00040142   -0.00028180

     Total force =     0.374501     Total SCF correction =     0.000682
  @ DRIVER MODE: Message from server: STATUS
  @ DRIVER MODE: Message from server: GETFORCE
  @ DRIVER MODE: Returning v,forces,stress,ensemble

     Writing output data file ./calc.save/
  @ DRIVER MODE: Message from server: EXIT
  @ DRIVE MODE: Exiting

     General routines

     Parallel routines

   This run was terminated on:   0:16:39  11Sep2021

   JOB DONE.