     Program PWSCF v.6.7GPU starts on 18Oct2021 at 21: 4:37

     R & G space division:  proc/nbgrp/npool/nimage =       8
     Reading input from /storage/home/hcoda1/3/ntian30/research/carbon/CxH_vib/Thiel_calc/ads_slab/NNH2_perslab/out_0018/pw.inp
Warning: card &CELL ignored
Warning: card   CELL_DYNAMICS='IPI', ignored
Warning: card / ignored

     Current dimensions of program PWSCF are:
     Max number of different atomic species (ntypx) = 10
     Max number of k-points (npk) =  40000
     Max angular momentum in pseudopotentials (lmaxx) =  3
     Presently no symmetry can be used with electric field

     Message from routine cell_base_init:
     DEPRECATED: use true lattice parameter, not A to a.u. conversion factor

     IMPORTANT: XC functional enforced from input :
     Exchange-correlation= BEEF-VDW
                           (   1   4  43  14   2   0   0)
     Any further DFT definition will be discarded
     Please, verify this is what you really want

  @ DRIVER MODE: Connecting to
 qe_1139763_3255132.sched-torque.pace.gatech.edubcxmh3ab_scratch
  using UNIX socket
  @ DRIVER MODE: Message from server: STATUS
  @ DRIVER MODE: Message from server: INIT
  @ DRIVER MODE: Receiving replica           0          -1
  @ DRIVER MODE: Receiving encoded integer          25
  @ DRIVER MODE:  SCF:  T  FORCE:  T  STRESS:  F  VC:  F  ENSEMBLE:  F
  @ DRIVER MODE:  SCF:  T  FORCE:  T  STRESS:  F  VC:  F  ENSEMBLE:  F

     Using Slab Decomposition

     bravais-lattice index     =            0
     lattice parameter (alat)  =       1.8897  a.u.
     unit-cell volume          =    9988.4706 (a.u.)^3
     number of atoms/cell      =           57
     number of atomic types    =            4
     number of electrons       =       438.00
     number of Kohn-Sham states=          229
     kinetic-energy cutoff     =      29.3995  Ry
     charge density cutoff     =     293.9946  Ry
     scf convergence threshold =      7.3E-08
     mixing beta               =       0.0500
     number of iterations used =            8  plain     mixing
     Exchange-correlation= BEEF-VDW
                           (   1   4  43  14   2   0   0)

     celldm(1)=   1.889726  celldm(2)=   0.000000  celldm(3)=   0.000000
     celldm(4)=   0.000000  celldm(5)=   0.000000  celldm(6)=   0.000000

     crystal axes: (cart. coord. in units of alat)
               a(1) = (   6.579727   0.000000   0.000000 )
               a(2) = (  -0.001163   8.942395   0.000000 )
               a(3) = (   0.000000   0.000000  25.155947 )

     reciprocal axes: (cart. coord. in units 2 pi/alat)
               b(1) = (  0.151982  0.000020  0.000000 )
               b(2) = (  0.000000  0.111827  0.000000 )
               b(3) = (  0.000000  0.000000  0.039752 )

     PseudoPot. # 1 for O  read from file:
     /storage/coda1/p-amedford6/0/shared/rich_project_chbe-medford/medford-share/data/pseudos_module/espresso/nninc/pbe/van/O.UPF
     MD5 check sum: 78c19812648e8988a0fe644b0f25305e
     Pseudo is Ultrasoft, Zval =  6.0
     Generated by new atomic code, or converted to UPF format
     Using radial grid of  737 points,  4 beta functions with:
                l(1) =   0
                l(2) =   0
                l(3) =   1
                l(4) =   1
     Q(r) pseudized with  8 coefficients,  rinner =    0.800   0.800   0.800

     PseudoPot. # 2 for Ti read from file:
     /storage/coda1/p-amedford6/0/shared/rich_project_chbe-medford/medford-share/data/pseudos_module/espresso/nninc/pbe/van/Ti.UPF
     MD5 check sum: 8e4df49b7f0d34bbd5052bf3f5ea0213
     Pseudo is Ultrasoft, Zval = 12.0
     Generated by new atomic code, or converted to UPF format
     Using radial grid of  851 points,  6 beta functions with:
                l(1) =   0
                l(2) =   0
                l(3) =   1
                l(4) =   1
                l(5) =   2
                l(6) =   2
     Q(r) pseudized with  8 coefficients,  rinner =    1.000   1.000   1.000
                                                       1.000   1.000

     PseudoPot. # 3 for H  read from file:
     /storage/coda1/p-amedford6/0/shared/rich_project_chbe-medford/medford-share/data/pseudos_module/espresso/nninc/pbe/van/H.UPF
     MD5 check sum: b5ee9d7bfd3a09ee7748110bda690ff7
     Pseudo is Ultrasoft, Zval =  1.0
     Generated by new atomic code, or converted to UPF format
     Using radial grid of  615 points,  1 beta functions with:
                l(1) =   0
     Q(r) pseudized with  8 coefficients,  rinner =    0.800

     PseudoPot. # 4 for N  read from file:
     /storage/coda1/p-amedford6/0/shared/rich_project_chbe-medford/medford-share/data/pseudos_module/espresso/nninc/pbe/van/N.UPF
     MD5 check sum: 90d10febe142ad51ac9d5be1deb811c4
     Pseudo is Ultrasoft, Zval =  5.0
     Generated by new atomic code, or converted to UPF format
     Using radial grid of  729 points,  4 beta functions with:
                l(1) =   0
                l(2) =   0
                l(3) =   1
                l(4) =   1
     Q(r) pseudized with  8 coefficients,  rinner =    0.800   0.800   0.800

     atomic species   valence    mass     pseudopotential
        O1             6.00    15.99900     O ( 1.00)
        Ti1           12.00    47.86700     Ti( 1.00)
        H1             1.00     1.00800     H ( 1.00)
        N1             5.00    14.00700     N ( 1.00)

     No symmetry found

   Cartesian axes

     site n.     atom                  positions (alat units)
         1           O1  tau(   1) = (   0.0007354   0.0005023  10.5931620  )
         2           O1  tau(   2) = (   3.2894307   8.9151027  13.8626301  )
         3           O1  tau(   3) = (   6.5785074   8.9029937  17.1811234  )
         4           O1  tau(   4) = (   0.0006271   0.0005054   7.9858123  )
         5           O1  tau(   5) = (   3.2894531   8.9103059  11.1803102  )
         6           O1  tau(   6) = (   0.0001665   0.0898506  14.4854618  )
         7           O1  tau(   7) = (   1.9868534   1.4903216   9.2879459  )
         8           O1  tau(   8) = (   5.2077972   1.5880252  12.5310617  )
         9           O1  tau(   9) = (   2.0270748   1.5591520  16.0154840  )
        10           Ti1 tau(  10) = (   0.0007404   1.4906270   9.2895810  )
        11           Ti1 tau(  11) = (   3.2905041   1.3137855  12.4866761  )
        12           Ti1 tau(  12) = (   0.0002678   1.1980239  15.9503415  )
        13           O1  tau(  13) = (   4.5942328   1.4918067   9.2879030  )
        14           O1  tau(  14) = (   1.3724876   1.5877008  12.5310667  )
        15           O1  tau(  15) = (   4.5530873   1.5595562  16.0152608  )
        16           Ti1 tau(  16) = (   3.2902859   2.9801868   9.2893338  )
        17           Ti1 tau(  17) = (   0.0008780   2.7802750  12.4897906  )
        18           Ti1 tau(  18) = (   3.2898779   2.8637395  15.6733051  )
        19           O1  tau(  19) = (   0.0003479   2.9813005  10.5931620  )
        20           O1  tau(  20) = (   3.2899356   2.9525523  13.8505550  )
        21           O1  tau(  21) = (   0.0002396   2.9813036   7.9858123  )
        22           O1  tau(  22) = (   3.2901204   2.9601344  11.1763257  )
        23           O1  tau(  23) = (   0.0004730   3.0483324  14.4991547  )
        24           O1  tau(  24) = (   1.9864658   4.4711199   9.2879459  )
        25           O1  tau(  25) = (   5.2121867   4.5795871  12.5488104  )
        26           O1  tau(  26) = (   2.0380122   4.5167588  15.9960207  )
        27           Ti1 tau(  27) = (   0.0003529   4.4714252   9.2895810  )
        28           Ti1 tau(  28) = (   3.2900145   4.2996056  12.4866231  )
        29           Ti1 tau(  29) = (   0.0009039   4.3359069  15.7637737  )
        30           O1  tau(  30) = (   4.5938453   4.4726049   9.2879030  )
        31           O1  tau(  31) = (   1.3674610   4.5798255  12.5489393  )
        32           O1  tau(  32) = (   4.5418257   4.5152924  15.9960624  )
        33           Ti1 tau(  33) = (   3.2898983   5.9609850   9.2893338  )
        34           Ti1 tau(  34) = (   0.0004239   5.7833099  12.5042391  )
        35           Ti1 tau(  35) = (   3.2910320   5.8371074  15.6885635  )
        36           O1  tau(  36) = (  -0.0000397   5.9620987  10.5931620  )
        37           O1  tau(  37) = (   3.2901811   5.9367453  13.8700337  )
        38           O1  tau(  38) = (  -0.0004039   5.8805593  17.2333871  )
        39           O1  tau(  39) = (  -0.0001480   5.9621018   7.9858123  )
        40           O1  tau(  40) = (   3.2898277   5.9371809  11.1794419  )
        41           O1  tau(  41) = (  -0.0006310   6.0052776  14.6075531  )
        42           O1  tau(  42) = (   1.9860782   7.4519181   9.2879459  )
        43           O1  tau(  43) = (   5.2131951   7.5341658  12.5551123  )
        44           O1  tau(  44) = (   2.0327247   7.5116181  16.0212389  )
        45           Ti1 tau(  45) = (  -0.0000347   7.4522234   9.2895810  )
        46           Ti1 tau(  46) = (   3.2898580   7.2746474  12.4940400  )
        47           Ti1 tau(  47) = (  -0.0002525   7.1929251  16.1233257  )
        48           O1  tau(  48) = (   4.5934577   7.4534031   9.2879030  )
        49           O1  tau(  49) = (   1.3658113   7.5340457  12.5553947  )
        50           O1  tau(  50) = (   4.5451309   7.5107891  16.0219122  )
        51           Ti1 tau(  51) = (   3.2895107   8.9417832   9.2893338  )
        52           Ti1 tau(  52) = (   0.0004043   8.7442612  12.5370553  )
        53           Ti1 tau(  53) = (   3.2888508   8.8110328  15.6839088  )
        54           H1  tau(  54) = (   6.5771461   3.9800110  18.9428080  )
        55           N1  tau(  55) = (   6.5778577   3.0643241  18.4967573  )
        56           N1  tau(  56) = (   0.0000211   2.9855599  17.2225610  )
        57           H1  tau(  57) = (   6.5772452   2.2208360  19.0633684  )

     number of k points=    10  Fermi-Dirac smearing, width (Ry)=  0.0073
                       cart. coord. in units 2pi/alat
        k(    1) = (   0.0000000   0.0000000   0.0000000), wk =   0.1250000
        k(    2) = (   0.0000000   0.0279567   0.0000000), wk =   0.2500000
        k(    3) = (   0.0000000  -0.0559134   0.0000000), wk =   0.1250000
        k(    4) = (   0.0379955   0.0000049   0.0000000), wk =   0.2500000
        k(    5) = (   0.0379955   0.0279617   0.0000000), wk =   0.2500000
        k(    6) = (   0.0379955  -0.0559085   0.0000000), wk =   0.2500000
        k(    7) = (   0.0379955  -0.0279518   0.0000000), wk =   0.2500000
        k(    8) = (  -0.0759910  -0.0000099   0.0000000), wk =   0.1250000
        k(    9) = (  -0.0759910   0.0279468   0.0000000), wk =   0.2500000
        k(   10) = (  -0.0759910  -0.0559233   0.0000000), wk =   0.1250000

     Initial potential from superposition of free atoms

     starting charge  419.99912, renormalised to  438.00000

     negative rho (up, down):  3.820E-02 0.000E+00

     %%%%%%%%%%%%%%%%%%%%%%%%%%%%%%%%%%%%%%%%%%%%%%%%%%%%%%%%%%%%%%%%%%%%%%%%
     %                                                                      %
     % You are using vdW-DF, which was implemented by the Thonhauser group. %
     % Please cite the following two papers that made this development      %
     % possible and the two reviews that describe the various versions:     %
     %                                                                      %
     %   T. Thonhauser et al., PRL 115, 136402 (2015).                      %
     %   T. Thonhauser et al., PRB 76, 125112 (2007).                       %
     %   K. Berland et al., Rep. Prog. Phys. 78, 066501 (2015).             %
     %   D.C. Langreth et al., J. Phys.: Condens. Matter 21, 084203 (2009). %
     %                                                                      %
     %                                                                      %
     % If you are calculating the stress with vdW-DF, please also cite:     %
     %                                                                      %
     %   R. Sabatini et al., J. Phys.: Condens. Matter 24, 424209 (2012).   %
     %                                                                      %
     %%%%%%%%%%%%%%%%%%%%%%%%%%%%%%%%%%%%%%%%%%%%%%%%%%%%%%%%%%%%%%%%%%%%%%%%

     Adding external electric field

     Computed dipole along edir(3) :
        Dipole               -4.0118 Ry au,        -10.1969 Debye
        Dipole field         -0.0050 Ry au,

        Potential amp.        0.4679 Ry
        Total length         46.3494 bohr

     Starting wfcs are  330 atomic wfcs
  @ DRIVER MODE: Message from server: STATUS
  @ DRIVER MODE: Message from server: POSDATA
  @ DRIVER MODE: Reading and sharing cell
  @ DRIVER MODE: Reading and sharing positions
  @ DRIVER MODE: Received positions

     Self-consistent Calculation

     iteration #  1     ecut=    29.40 Ry     beta= 0.05
     Davidson diagonalization with overlap
     c_bands:  2 eigenvalues not converged
     c_bands:  4 eigenvalues not converged
     c_bands:  4 eigenvalues not converged
     c_bands:  1 eigenvalues not converged
     c_bands:  1 eigenvalues not converged
     ethr =  1.00E-05,  avg # of iterations = 25.3

[...]

     total energy              =   -3291.59433537 Ry
     estimated scf accuracy    <      28.43905351 Ry

     iteration #  2     ecut=    29.40 Ry     beta= 0.05
     Davidson diagonalization with overlap
     ethr =  6.49E-03,  avg # of iterations =  4.7

[...]

     iteration # 42     ecut=    29.40 Ry     beta= 0.05
     Davidson diagonalization with overlap
     c_bands:  1 eigenvalues not converged
     ethr =  8.66E-08,  avg # of iterations =  7.1

[...]

     total energy              =   -3290.76817399 Ry
     estimated scf accuracy    <       0.00000015 Ry

     iteration # 67     ecut=    29.40 Ry     beta= 0.05
     Davidson diagonalization with overlap
     ethr =  3.32E-11,  avg # of iterations =  6.0

     negative rho (up, down):  3.581E-02 0.000E+00

     Adding external electric field

     Computed dipole along edir(3) :
        Dipole                1.4321 Ry au,          3.6400 Debye
        Dipole field          0.0018 Ry au,

        Potential amp.       -0.1670 Ry
        Total length         46.3494 bohr

     End of self-consistent calculation

          k = 0.0000 0.0000 0.0000 ( 26871 PWs)   bands (ev):

   -58.0827 -58.0583 -58.0554 -57.9629 -57.9393 -57.9334 -57.8924 -57.8580
   -57.8274 -57.6202 -57.5408 -57.4973 -57.0290 -56.9821 -56.9612 -56.7879
   -56.7603 -56.7503 -34.4415 -34.4396 -34.4372 -34.4262 -34.4231 -34.3740
   -34.3710 -34.3113 -34.2878 -34.2682 -34.2511 -34.2305 -34.2268 -34.2076
   -34.1951 -34.1893 -34.1822 -34.1803 -34.1671 -34.1434 -34.1401 -34.1384
   -34.1282 -34.1171 -34.0803 -34.0758 -34.0411 -34.0156 -33.9895 -33.9023
   -33.8360 -33.7940 -33.7864 -33.7785 -33.7222 -33.6500 -33.5379 -33.4434
   -33.2954 -33.2760 -33.2559 -33.2469 -33.2314 -33.2223 -33.1423 -33.1271
   -33.1051 -33.0968 -33.0935 -33.0769 -32.9992 -32.9384 -32.9247 -32.7982
   -20.6423 -18.8201 -18.3328 -18.2028 -18.1968 -18.1797 -18.1314 -18.1240
   -18.0601 -17.8118 -17.6965 -17.6659 -17.6629 -17.6424 -17.5570 -17.5548
   -17.5418 -17.5012 -17.4880 -17.4682 -17.3802 -17.3762 -17.3089 -17.2793
   -17.2339 -17.1549 -17.1136 -17.0725 -17.0079 -16.8970 -16.7176 -16.5780
   -16.4311 -15.2591 -15.2139 -15.2083 -13.0008  -9.2624  -6.9881  -6.1675
    -5.8538  -5.7344  -5.7232  -5.4457  -5.4333  -5.3573  -5.3467  -5.3279
    -5.2317  -5.2203  -5.2084  -5.2050  -5.1931  -5.0340  -5.0214  -4.8978
    -4.8328  -4.8125  -4.8064  -4.7759  -4.7246  -4.7100  -4.6462  -4.6364
    -4.6183  -4.6053  -4.5964  -4.5041  -4.4654  -4.3896  -4.3450  -4.3197
    -4.2934  -4.2727  -4.1847  -4.1358  -4.1240  -4.0579  -4.0335  -3.9639
    -3.9429  -3.9347  -3.9142  -3.8802  -3.8301  -3.6440  -3.6205  -3.5482
    -3.4171  -3.3381  -3.2614  -3.2541  -3.1703  -3.1636  -3.1358  -3.1304
    -3.1163  -3.1042  -3.0441  -2.9591  -2.9314  -2.8893  -2.8670  -2.8581
    -2.8242  -2.6928  -2.6859  -2.6712  -2.6627  -2.6221  -2.6105  -2.5754
    -2.5690  -2.5632  -2.4758  -2.3783  -2.3538  -2.3362  -2.3010  -2.2586
    -2.1791  -2.1678  -2.1439  -2.0597  -1.9712  -1.9554  -1.7851  -1.7325
    -1.6834  -1.6321  -1.6296  -1.6184  -1.5595  -1.4702  -1.4664  -1.4062
    -1.3547  -1.2038  -0.9853  -0.7095  -0.4869  -0.4763  -0.4499  -0.2785
    -0.2667  -0.1722   0.9573   0.9821   1.2204   1.4354   1.4397   1.5298
     1.7047   1.7164   1.7307   1.7469   1.7776

[...]

          k = 0.0380-0.0280 0.0000 ( 26873 PWs)   bands (ev):

[...]

          k =-0.0760-0.0000 0.0000 ( 26902 PWs)   bands (ev):

[...]

          k =-0.0760-0.0559 0.0000 ( 26868 PWs)   bands (ev):

   -58.0756 -58.0723 -58.0483 -57.9573 -57.9506 -57.9276 -57.8912 -57.8603
   -57.8262 -57.6199 -57.5414 -57.4969 -57.0284 -56.9842 -56.9598 -56.7849
   -56.7673 -56.7462 -34.5221 -34.5023 -34.4306 -34.4280 -34.3872 -34.3803
   -34.2866 -34.2676 -34.2414 -34.2383 -34.2263 -34.2243 -34.2140 -34.2097
   -34.2079 -34.2068 -34.2017 -34.2015 -34.1586 -34.1576 -34.1551 -34.1277
   -34.1219 -34.1004 -34.0995 -34.0923 -34.0702 -34.0316 -33.9145 -33.8986
   -33.8536 -33.8350 -33.7946 -33.7852 -33.7230 -33.6504 -33.5806 -33.3630
   -33.3004 -33.2786 -33.2581 -33.2555 -33.2258 -33.2220 -33.1771 -33.1700
   -33.1284 -33.1124 -33.0923 -32.9858 -32.9676 -32.9107 -32.9025 -32.8863
   -20.6417 -18.5381 -18.5286 -18.2216 -18.0988 -18.0833 -17.9346 -17.8798
   -17.8590 -17.8455 -17.8046 -17.7845 -17.7622 -17.7285 -17.6422 -17.6375
   -17.5942 -17.5752 -17.5703 -17.5447 -17.5242 -17.5077 -17.3205 -17.2533
   -17.1707 -17.1363 -17.1103 -17.0033 -16.9894 -16.9579 -16.7301 -16.5771
   -16.3990 -15.2669 -15.2586 -15.1461 -12.9992  -9.2629  -6.9472  -5.8403
    -5.8314  -5.7269  -5.6893  -5.4836  -5.2071  -5.1859  -5.1803  -5.1618
    -5.1553  -5.0997  -5.0784  -5.0746  -5.0337  -5.0304  -4.9904  -4.9592
    -4.8862  -4.8463  -4.8452  -4.8320  -4.8219  -4.7741  -4.6965  -4.6843
    -4.6492  -4.6313  -4.6266  -4.5055  -4.4546  -4.4238  -4.4107  -4.3183
    -4.2674  -4.2673  -4.0801  -4.0664  -4.0561  -3.9786  -3.9439  -3.8785
    -3.8481  -3.7516  -3.5597  -3.5574  -3.5541  -3.5438  -3.4789  -3.4599
    -3.4449  -3.4186  -3.3643  -3.3386  -3.3348  -3.3198  -3.2589  -3.2230
    -3.1485  -3.0780  -3.0757  -3.0658  -3.0470  -3.0353  -3.0194  -2.9936
    -2.9657  -2.9382  -2.8981  -2.8594  -2.8458  -2.7814  -2.7099  -2.6695
    -2.6494  -2.6328  -2.6199  -2.5264  -2.4914  -2.3927  -2.3652  -2.2615
    -2.1229  -2.0070  -1.9752  -1.9600  -1.9594  -1.8809  -1.8097  -1.8053
    -1.7650  -1.7119  -1.6350  -1.6312  -1.5757  -1.4978  -1.3247  -1.3123
    -1.2985  -1.2579  -1.1414  -1.1382  -0.7159  -0.4025  -0.3919  -0.3537
    -0.2992  -0.2951   0.8786   1.1478   1.2329   1.2486   1.3405   1.3524
     1.4029   1.5150   1.5686   1.5814   1.7677

     the Fermi energy is     0.9682 ev

!    total energy              =   -3290.76819243 Ry
     estimated scf accuracy    <       0.00000004 Ry
     smearing contrib. (-TS)   =      -0.02548439 Ry
     internal energy E=F+TS    =   -3290.74270804 Ry

     The total energy is F=E-TS. E is the sum of the following terms:
     one-electron contribution =  -34649.59817754 Ry
     hartree contribution      =   17387.90371537 Ry
     xc contribution           =    -540.57756352 Ry
     ewald contribution        =   14511.52673753 Ry
     electric field correction =       0.00258012 Ry

     convergence has been achieved in  67 iterations

     Forces acting on atoms (cartesian axes, Ry/au):

     atom    1 type  1   force =     0.00005523    0.00571602    0.05255612
     atom    2 type  1   force =    -0.00006572   -0.00115607   -0.00729457
     atom    3 type  1   force =     0.00001467   -0.00559899   -0.00120876
     atom    4 type  1   force =     0.00005020    0.00075006    0.10116698
     atom    5 type  1   force =    -0.00005924   -0.00057825    0.00808314
     atom    6 type  1   force =     0.00005309   -0.00030142    0.00246903
     atom    7 type  1   force =     0.07726887   -0.00001965   -0.03164893
     atom    8 type  1   force =     0.00623194   -0.02638947    0.00077158
     atom    9 type  1   force =     0.00658338   -0.01959537    0.00240381
     atom   10 type  2   force =    -0.00007438   -0.01108504   -0.16219629
     atom   11 type  2   force =     0.00030627    0.01957019   -0.00190488
     atom   12 type  2   force =    -0.00006789    0.02555147   -0.00184393
     atom   13 type  1   force =    -0.07737089   -0.00046235   -0.03161592
     atom   14 type  1   force =    -0.00598428   -0.02667467    0.00078627
     atom   15 type  1   force =    -0.00668213   -0.01956467    0.00239620
     atom   16 type  2   force =     0.00012362   -0.00265856    0.06036622
     atom   17 type  2   force =    -0.00051188    0.03264485    0.00258902
     atom   18 type  2   force =     0.00015332    0.01806089   -0.00134315
     atom   19 type  1   force =     0.00005569    0.00930644    0.05106907
     atom   20 type  1   force =    -0.00006456   -0.00158284   -0.00485604
     atom   21 type  1   force =     0.00004614    0.00263718    0.10246333
     atom   22 type  1   force =    -0.00005582   -0.00077517    0.00788322
     atom   23 type  1   force =     0.00004956   -0.00190219    0.00273744
     atom   24 type  1   force =     0.07599289   -0.00030106   -0.03163480
     atom   25 type  1   force =     0.00687034   -0.02613724    0.00094123
     atom   26 type  1   force =     0.00516632   -0.01994377    0.00081907
     atom   27 type  2   force =    -0.00005558   -0.00160341   -0.17002651
     atom   28 type  2   force =     0.00031916    0.02075168   -0.00216591
     atom   29 type  2   force =    -0.00012412    0.02375071    0.00242215
     atom   30 type  1   force =    -0.07609823   -0.00075208   -0.03160115
     atom   31 type  1   force =    -0.00659643   -0.02644435    0.00095988
     atom   32 type  1   force =    -0.00514598   -0.01978969    0.00081423
     atom   33 type  2   force =     0.00011409   -0.00117457    0.06155518
     atom   34 type  2   force =    -0.00054624    0.03172989    0.00297316
     atom   35 type  2   force =     0.00005669    0.02647954    0.00233361
     atom   36 type  1   force =     0.00004494    0.00402341    0.05988283
     atom   37 type  1   force =    -0.00006144   -0.00152796   -0.00603690
     atom   38 type  1   force =     0.00000155   -0.00344584   -0.00192384
     atom   39 type  1   force =     0.00005493   -0.00126749    0.10268192
     atom   40 type  1   force =    -0.00005797   -0.00083016    0.00708240
     atom   41 type  1   force =     0.00004520   -0.00395707    0.00334525
     atom   42 type  1   force =     0.07727852   -0.00092431   -0.03224575
     atom   43 type  1   force =     0.00846971   -0.02788195    0.00037002
     atom   44 type  1   force =     0.00747431   -0.02205324    0.00224435
     atom   45 type  2   force =    -0.00008557    0.00748698   -0.16121957
     atom   46 type  2   force =     0.00033552    0.02111870   -0.00204100
     atom   47 type  2   force =    -0.00008678    0.02109725   -0.00126088
     atom   48 type  1   force =    -0.07738243   -0.00137125   -0.03222220
     atom   49 type  1   force =    -0.00818791   -0.02819263    0.00038362
     atom   50 type  1   force =    -0.00748168   -0.02198605    0.00223453
     atom   51 type  2   force =     0.00011605   -0.00314769    0.06193914
     atom   52 type  2   force =    -0.00054388    0.03302087    0.00327813
     atom   53 type  2   force =     0.00006828    0.02976936    0.00470385
     atom   54 type  3   force =    -0.00000782    0.00108052    0.00185865
     atom   55 type  4   force =    -0.00001365    0.00177615    0.01354671
     atom   56 type  4   force =     0.00002914   -0.00521982   -0.02017813
     atom   57 type  3   force =    -0.00001713   -0.00002581    0.00235777

     Total force =     0.437257     Total SCF correction =     0.000326
  @ DRIVER MODE: Message from server: STATUS
  @ DRIVER MODE: Message from server: GETFORCE
  @ DRIVER MODE: Returning v,forces,stress,ensemble

     Writing output data file ./calc.save/
  @ DRIVER MODE: Message from server: EXIT
  @ DRIVE MODE: Exiting

     General routines

     Parallel routines

   This run was terminated on:  21:40:10  18Oct2021

   JOB DONE.