     Program PWSCF v.6.7GPU starts on  2Aug2021 at 16:26: 3

     R & G space division:  proc/nbgrp/npool/nimage =      16
     Reading input from /storage/home/hcoda1/3/ntian30/research/carbon/02Aug_vib_paired/ads_slab/CH3NN_a/out_0011/pw.inp
Warning: card &CELL ignored
Warning: card   CELL_DYNAMICS='IPI', ignored
Warning: card / ignored

     Current dimensions of program PWSCF are:
     Max number of different atomic species (ntypx) = 10
     Max number of k-points (npk) =  40000
     Max angular momentum in pseudopotentials (lmaxx) =  3
     Presently no symmetry can be used with electric field

     Message from routine cell_base_init:
     DEPRECATED: use true lattice parameter, not A to a.u. conversion factor

     IMPORTANT: XC functional enforced from input :
     Exchange-correlation= BEEF-VDW
                           (   1   4  43  14   2   0   0)
     Any further DFT definition will be discarded
     Please, verify this is what you really want

  @ DRIVER MODE: Connecting to
 qe_1139763_2482546.sched-torque.pace.gatech.eduo8q_cznl_scratch
  using UNIX socket
  @ DRIVER MODE: Message from server: STATUS
  @ DRIVER MODE: Message from server: INIT
  @ DRIVER MODE: Receiving replica           0          -1
  @ DRIVER MODE: Receiving encoded integer          25
  @ DRIVER MODE:  SCF:  T  FORCE:  T  STRESS:  F  VC:  F  ENSEMBLE:  F
  @ DRIVER MODE:  SCF:  T  FORCE:  T  STRESS:  F  VC:  F  ENSEMBLE:  F

     Using Slab Decomposition

     bravais-lattice index     =            0
     lattice parameter (alat)  =       1.8897  a.u.
     unit-cell volume          =    6658.9804 (a.u.)^3
     number of atoms/cell      =           53
     number of atomic types    =            5
     number of electrons       =       395.00
     number of Kohn-Sham states=          207
     kinetic-energy cutoff     =      29.3995  Ry
     charge density cutoff     =     293.9946  Ry
     scf convergence threshold =      7.3E-08
     mixing beta               =       0.0500
     number of iterations used =            8  plain     mixing
     Exchange-correlation= BEEF-VDW
                           (   1   4  43  14   2   0   0)

     celldm(1)=   1.889726  celldm(2)=   0.000000  celldm(3)=   0.000000
     celldm(4)=   0.000000  celldm(5)=   0.000000  celldm(6)=   0.000000

     crystal axes: (cart. coord. in units of alat)
               a(1) = (   6.579727   0.000000   0.000000 )
               a(2) = (  -0.000775   5.961596   0.000000 )
               a(3) = (   0.000000   0.000000  25.155947 )

     reciprocal axes: (cart. coord. in units 2 pi/alat)
               b(1) = (  0.151982  0.000020  0.000000 )
               b(2) = (  0.000000  0.167740  0.000000 )
               b(3) = (  0.000000  0.000000  0.039752 )

     PseudoPot. # 1 for Ti read from file:
     /storage/coda1/p-amedford6/0/shared/rich_project_chbe-medford/medford-share/data/pseudos_module/espresso/nninc/pbe/van/Ti.UPF
     MD5 check sum: 8e4df49b7f0d34bbd5052bf3f5ea0213
     Pseudo is Ultrasoft, Zval = 12.0
     Generated by new atomic code, or converted to UPF format
     Using radial grid of  851 points,  6 beta functions with:
                l(1) =   0
                l(2) =   0
                l(3) =   1
                l(4) =   1
                l(5) =   2
                l(6) =   2
     Q(r) pseudized with  8 coefficients,  rinner =    1.000   1.000   1.000
                                                       1.000   1.000

     PseudoPot. # 2 for O  read from file:
     /storage/coda1/p-amedford6/0/shared/rich_project_chbe-medford/medford-share/data/pseudos_module/espresso/nninc/pbe/van/O.UPF
     MD5 check sum: 78c19812648e8988a0fe644b0f25305e
     Pseudo is Ultrasoft, Zval =  6.0
     Generated by new atomic code, or converted to UPF format
     Using radial grid of  737 points,  4 beta functions with:
                l(1) =   0
                l(2) =   0
                l(3) =   1
                l(4) =   1
     Q(r) pseudized with  8 coefficients,  rinner =    0.800   0.800   0.800

     PseudoPot. # 3 for N  read from file:
     /storage/coda1/p-amedford6/0/shared/rich_project_chbe-medford/medford-share/data/pseudos_module/espresso/nninc/pbe/van/N.UPF
     MD5 check sum: 90d10febe142ad51ac9d5be1deb811c4
     Pseudo is Ultrasoft, Zval =  5.0
     Generated by new atomic code, or converted to UPF format
     Using radial grid of  729 points,  4 beta functions with:
                l(1) =   0
                l(2) =   0
                l(3) =   1
                l(4) =   1
     Q(r) pseudized with  8 coefficients,  rinner =    0.800   0.800   0.800

     PseudoPot. # 4 for C  read from file:
     /storage/coda1/p-amedford6/0/shared/rich_project_chbe-medford/medford-share/data/pseudos_module/espresso/nninc/pbe/van/C.UPF
     MD5 check sum: 1a69bf6b8db32088f5b2163dbdb77a27
     Pseudo is Ultrasoft, Zval =  4.0
     Generated by new atomic code, or converted to UPF format
     Using radial grid of  721 points,  4 beta functions with:
                l(1) =   0
                l(2) =   0
                l(3) =   1
                l(4) =   1
     Q(r) pseudized with  8 coefficients,  rinner =    0.800   0.800   0.800

     PseudoPot. # 5 for H  read from file:
     /storage/coda1/p-amedford6/0/shared/rich_project_chbe-medford/medford-share/data/pseudos_module/espresso/nninc/pbe/van/H.UPF
     MD5 check sum: b5ee9d7bfd3a09ee7748110bda690ff7
     Pseudo is Ultrasoft, Zval =  1.0
     Generated by new atomic code, or converted to UPF format
     Using radial grid of  615 points,  1 beta functions with:
                l(1) =   0
     Q(r) pseudized with  8 coefficients,  rinner =    0.800

     atomic species   valence    mass     pseudopotential
        Ti1           12.00    47.86700     Ti( 1.00)
        O1             6.00    15.99900     O ( 1.00)
        N1             5.00    14.00700     N ( 1.00)
        C1             4.00    12.01100     C ( 1.00)
        H1             1.00     1.00800     H ( 1.00)

     No symmetry found

   Cartesian axes

     site n.     atom                  positions (alat units)
         1           Ti1 tau(   1) = (   0.0004258   2.9801865   6.0000000  )
         2           Ti1 tau(   2) = (   3.2906075   1.4906267   6.0002472  )
         3           O1  tau(   3) = (   0.0006271   0.0005054   7.9858123  )
         4           O1  tau(   4) = (   3.2906025   0.0005020   7.3038282  )
         5           O1  tau(   5) = (   4.5942328   1.4918067   9.2879030  )
         6           O1  tau(   6) = (   1.9868534   1.4903216   9.2879459  )
         7           Ti1 tau(   7) = (   3.2907910   2.8959150   9.1758416  )
         8           Ti1 tau(   8) = (   0.0015273   1.4827037   9.2680791  )
         9           O1  tau(   9) = (   3.2935944   5.9504131  11.3331737  )
        10           O1  tau(  10) = (   0.0116148   5.9584955  10.6183126  )
        11           O1  tau(  11) = (   1.3139784   1.4900993  12.6222913  )
        12           O1  tau(  12) = (   5.2991156   1.4868386  12.6236412  )
        13           Ti1 tau(  13) = (   6.5257823   2.9641578  12.6501544  )
        14           Ti1 tau(  14) = (   3.2087869   1.4768241  12.4812772  )
        15           O1  tau(  15) = (   0.0069532   0.0155221  14.6013729  )
        16           O1  tau(  16) = (   3.2989757   5.9447163  13.9218705  )
        17           O1  tau(  17) = (   4.5399408   1.4684032  16.0509043  )
        18           O1  tau(  18) = (   2.0534050   1.4785924  16.0487376  )
        19           Ti1 tau(  19) = (   3.3071538   2.9600697  15.7031993  )
        20           Ti1 tau(  20) = (   0.0179100   1.3679571  15.8029155  )
        21           O1  tau(  21) = (   3.2904802   0.0005063   4.7018136  )
        22           O1  tau(  22) = (   0.0297737   0.0076327  17.1327444  )
        23           O1  tau(  23) = (   1.3043587   1.4918075   6.0039043  )
        24           O1  tau(  24) = (   5.2767064   1.4903225   6.0039473  )
        25           Ti1 tau(  25) = (   0.0000382   5.9609847   6.0000000  )
        26           Ti1 tau(  26) = (   3.2902200   4.4714249   6.0002472  )
        27           O1  tau(  27) = (   0.0002396   2.9813036   7.9858123  )
        28           O1  tau(  28) = (   3.2902150   2.9813002   7.3038282  )
        29           O1  tau(  29) = (   4.5938453   4.4726049   9.2879030  )
        30           O1  tau(  30) = (   1.9864658   4.4711199   9.2879459  )
        31           Ti1 tau(  31) = (   3.2891106   5.8743827   9.1763621  )
        32           Ti1 tau(  32) = (   0.0006254   4.4649316   9.2693709  )
        33           O1  tau(  33) = (   3.2925666   2.9731923  11.3325550  )
        34           O1  tau(  34) = (   0.0092240   2.9805883  10.6323155  )
        35           O1  tau(  35) = (   1.3076969   4.4692784  12.6256357  )
        36           O1  tau(  36) = (   5.2992390   4.4652990  12.6273021  )
        37           Ti1 tau(  37) = (   6.5214685   5.9362284  12.5385417  )
        38           Ti1 tau(  38) = (   3.2054519   4.4560432  12.4842663  )
        39           O1  tau(  39) = (   0.0022752   2.9713357  14.7092999  )
        40           O1  tau(  40) = (   3.3007181   2.9764241  13.9083417  )
        41           O1  tau(  41) = (   4.5485645   4.4411382  16.0917119  )
        42           O1  tau(  42) = (   2.0537992   4.4371030  16.0853891  )
        43           Ti1 tau(  43) = (   3.2976414   5.9412218  15.7196561  )
        44           Ti1 tau(  44) = (   0.0123595   4.4653852  16.1631357  )
        45           O1  tau(  45) = (   3.2900926   2.9813045   4.7018136  )
        46           O1  tau(  46) = (   1.3039711   4.4726057   6.0039043  )
        47           O1  tau(  47) = (   5.2763189   4.4711207   6.0039473  )
        48           N1  tau(  48) = (   0.6591532   2.9890904  22.3781942  )
        49           C1  tau(  49) = (   6.5648715   3.0365617  17.8247222  )
        50           H1  tau(  50) = (   6.0219261   3.7962297  18.4082231  )
        51           H1  tau(  51) = (   6.0207922   2.1139738  18.0322221  )
        52           H1  tau(  52) = (   0.9815245   2.9432023  18.2699478  )
        53           N1  tau(  53) = (   6.1995506   3.0156182  22.7499213  )

     number of k points=    10  Fermi-Dirac smearing, width (Ry)=  0.0073
                       cart. coord. in units 2pi/alat
        k(    1) = (   0.0000000   0.0000000   0.0000000), wk =   0.1250000
        k(    2) = (   0.0000000   0.0419351   0.0000000), wk =   0.2500000
        k(    3) = (   0.0000000  -0.0838702   0.0000000), wk =   0.1250000
        k(    4) = (   0.0379955   0.0000049   0.0000000), wk =   0.2500000
        k(    5) = (   0.0379955   0.0419400   0.0000000), wk =   0.2500000
        k(    6) = (   0.0379955  -0.0838652   0.0000000), wk =   0.2500000
        k(    7) = (   0.0379955  -0.0419301   0.0000000), wk =   0.2500000
        k(    8) = (  -0.0759910  -0.0000099   0.0000000), wk =   0.1250000
        k(    9) = (  -0.0759910   0.0419252   0.0000000), wk =   0.2500000
        k(   10) = (  -0.0759910  -0.0838800   0.0000000), wk =   0.1250000

     Initial potential from superposition of free atoms

     starting charge  378.99916, renormalised to  395.00000

     negative rho (up, down):  1.028E-02 0.000E+00

     %%%%%%%%%%%%%%%%%%%%%%%%%%%%%%%%%%%%%%%%%%%%%%%%%%%%%%%%%%%%%%%%%%%%%%%%
     %                                                                      %
     % You are using vdW-DF, which was implemented by the Thonhauser group. %
     % Please cite the following two papers that made this development      %
     % possible and the two reviews that describe the various versions:     %
     %                                                                      %
     %   T. Thonhauser et al., PRL 115, 136402 (2015).                      %
     %   T. Thonhauser et al., PRB 76, 125112 (2007).                       %
     %   K. Berland et al., Rep. Prog. Phys. 78, 066501 (2015).             %
     %   D.C. Langreth et al., J. Phys.: Condens. Matter 21, 084203 (2009). %
     %                                                                      %
     %                                                                      %
     % If you are calculating the stress with vdW-DF, please also cite:     %
     %                                                                      %
     %   R. Sabatini et al., J. Phys.: Condens. Matter 24, 424209 (2012).   %
     %                                                                      %
     %%%%%%%%%%%%%%%%%%%%%%%%%%%%%%%%%%%%%%%%%%%%%%%%%%%%%%%%%%%%%%%%%%%%%%%%

     Adding external electric field

     Computed dipole along edir(3) :
        Dipole              -11.4304 Ry au,        -29.0533 Debye
        Dipole field         -0.0216 Ry au,

        Potential amp.        1.9996 Ry
        Total length         46.3494 bohr

     Starting wfcs are  299 atomic wfcs
  @ DRIVER MODE: Message from server: STATUS
  @ DRIVER MODE: Message from server: POSDATA
  @ DRIVER MODE: Reading and sharing cell
  @ DRIVER MODE: Reading and sharing positions
  @ DRIVER MODE: Received positions

     Self-consistent Calculation

     iteration #  1     ecut=    29.40 Ry     beta= 0.05
     Davidson diagonalization with overlap
     c_bands:  1 eigenvalues not converged
     c_bands:  1 eigenvalues not converged
     c_bands:  1 eigenvalues not converged
     c_bands:  1 eigenvalues not converged
     c_bands:  2 eigenvalues not converged
     c_bands:  2 eigenvalues not converged
     c_bands:  1 eigenvalues not converged
     c_bands:  1 eigenvalues not converged
     ethr =  1.00E-05,  avg # of iterations = 19.3

[...]

     total energy              =   -2597.28268842 Ry
     estimated scf accuracy    <    3830.51274530 Ry

     iteration #  2     ecut=    29.40 Ry     beta= 0.05
     Davidson diagonalization with overlap
     ethr =  1.00E-02,  avg # of iterations = 22.9

[...]

     iteration # 47     ecut=    29.40 Ry     beta= 0.05
     Davidson diagonalization with overlap
     c_bands:  1 eigenvalues not converged
     c_bands:  1 eigenvalues not converged
     ethr =  1.42E-07,  avg # of iterations =  6.2

[...]

     total energy              =   -2939.19601746 Ry
     estimated scf accuracy    <       0.00000011 Ry

     iteration # 67     ecut=    29.40 Ry     beta= 0.05
     Davidson diagonalization with overlap
     ethr =  2.80E-11,  avg # of iterations =  9.5

     negative rho (up, down):  1.218E-02 0.000E+00

     Adding external electric field

     Computed dipole along edir(3) :
        Dipole                0.4125 Ry au,          1.0485 Debye
        Dipole field          0.0008 Ry au,

        Potential amp.       -0.0722 Ry
        Total length         46.3494 bohr

     End of self-consistent calculation

          k = 0.0000 0.0000 0.0000 ( 18029 PWs)   bands (ev):

   -56.0152 -56.0040 -55.9811 -55.9680 -55.8970 -55.8730 -55.8515 -55.8299
   -55.8209 -55.7874 -55.7869 -55.7536 -55.5719 -55.4485 -54.9925 -54.9584
   -32.5596 -32.4974 -32.3686 -32.3506 -32.3210 -32.3200 -32.3081 -32.2778
   -32.2571 -32.2333 -32.2272 -32.2148 -32.1850 -32.1674 -32.1560 -32.1443
   -32.1281 -32.1193 -32.1029 -32.0768 -32.0740 -32.0723 -32.0345 -32.0258
   -32.0232 -32.0183 -32.0088 -32.0047 -31.9897 -31.9875 -31.9821 -31.9616
   -31.9614 -31.9551 -31.9400 -31.9244 -31.8992 -31.8565 -31.7854 -31.7311
   -31.6651 -31.5539 -31.3996 -31.3112 -31.2888 -31.2163 -31.1298 -31.0188
   -20.6404 -16.7613 -16.4904 -16.2672 -16.1688 -16.1427 -16.0257 -15.8580
   -15.7337 -15.6893 -15.5891 -15.5740 -15.5510 -15.5202 -15.5076 -15.4984
   -15.4631 -15.4560 -15.4386 -15.4266 -15.3757 -15.3577 -15.3481 -15.2362
   -15.1909 -15.1497 -15.1331 -15.0696 -15.0207 -14.6339 -13.4950 -13.3787
    -9.0815  -5.8072  -4.1335  -3.9732  -3.9211  -3.8770  -3.8464  -3.7669
    -3.7636  -3.6303  -3.5663  -3.2596  -3.2023  -3.1863  -3.1684  -3.1404
    -2.9805  -2.9144  -2.8507  -2.8272  -2.8219  -2.7931  -2.7851  -2.7716
    -2.7349  -2.6957  -2.6715  -2.6268  -2.5729  -2.5137  -2.4960  -2.4308
    -2.4082  -2.3288  -2.3064  -2.2844  -2.2561  -2.2420  -2.2328  -2.2112
    -2.1923  -2.1712  -1.9847  -1.9500  -1.8860  -1.8036  -1.7981  -1.6221
    -1.5205  -1.4926  -1.4679  -1.4411  -1.4066  -1.3905  -1.3138  -1.2030
    -1.1702  -1.1320  -1.0698  -1.0195  -0.9885  -0.8887  -0.8655  -0.7769
    -0.7757  -0.7512  -0.6950  -0.5999  -0.5004  -0.4697  -0.4523  -0.4055
    -0.3696  -0.3068  -0.2897  -0.2291  -0.1633  -0.1521  -0.0769  -0.0499
    -0.0456  -0.0211  -0.0099   0.0352   0.0499   0.1672   0.1928   0.2786
     0.3233   0.4201   0.5399   0.6441   0.6813   0.7406   0.9552   1.0295
     1.1284   1.1328   1.2218   1.6008   1.6465   3.1242   3.2074   3.2555
     3.2631   3.3566   3.3700   3.5722   3.5990   3.6299   3.6683

[...]

          k = 0.0380-0.0419 0.0000 ( 17876 PWs)   bands (ev):

[...]

          k =-0.0760-0.0000 0.0000 ( 17886 PWs)   bands (ev):

[...]

          k =-0.0760-0.0839 0.0000 ( 17948 PWs)   bands (ev):

   -55.9988 -55.9974 -55.9864 -55.9854 -55.8891 -55.8645 -55.8592 -55.8383
   -55.8048 -55.8026 -55.7724 -55.7688 -55.5700 -55.4504 -54.9755 -54.9753
   -32.3634 -32.3622 -32.3131 -32.3123 -32.2940 -32.2929 -32.2780 -32.2694
   -32.2220 -32.2075 -32.2049 -32.2001 -32.1634 -32.1469 -32.1442 -32.1336
   -32.1258 -32.1183 -32.1168 -32.1167 -32.1103 -32.1068 -32.0888 -32.0814
   -32.0568 -32.0546 -32.0501 -32.0247 -32.0051 -32.0039 -32.0024 -32.0005
   -31.9864 -31.9845 -31.9817 -31.9765 -31.9359 -31.8415 -31.7874 -31.7338
   -31.7045 -31.6049 -31.3016 -31.3014 -31.2124 -31.2122 -31.1731 -31.1730
   -20.6403 -16.1960 -16.1754 -15.9725 -15.9295 -15.9241 -15.9191 -15.8155
   -15.7122 -15.7102 -15.7085 -15.6380 -15.6132 -15.6022 -15.5533 -15.5502
   -15.5394 -15.5278 -15.5225 -15.4765 -15.4692 -15.4519 -15.4431 -15.3777
   -15.3311 -15.3265 -15.3044 -15.1154 -14.9942 -14.9173 -13.4806 -13.4803
    -9.0945  -5.8104  -3.7706  -3.7662  -3.4873  -3.4630  -3.2310  -3.1751
    -3.1626  -3.0890  -2.9464  -2.9106  -2.9043  -2.8919  -2.8581  -2.8463
    -2.8308  -2.8227  -2.8118  -2.7851  -2.7612  -2.7281  -2.7218  -2.6971
    -2.6837  -2.6661  -2.6421  -2.6320  -2.6134  -2.5869  -2.5750  -2.5535
    -2.5439  -2.5181  -2.4973  -2.3458  -2.2485  -2.2113  -2.1514  -2.1436
    -2.1160  -2.0882  -2.0767  -2.0591  -2.0527  -2.0006  -1.8397  -1.7350
    -1.7198  -1.6828  -1.6338  -1.6136  -1.5594  -1.4249  -1.3979  -1.3716
    -1.3093  -1.2968  -1.2507  -1.2278  -1.2164  -1.1342  -1.1161  -1.0559
    -0.9940  -0.9754  -0.9717  -0.9154  -0.8555  -0.7851  -0.7750  -0.7320
    -0.6948  -0.6432  -0.6196  -0.5900  -0.5205  -0.4847  -0.3652  -0.3163
    -0.0857  -0.0325   0.0321   0.0783   0.1367   0.1822   0.1881   0.3031
     0.3055   0.3215   0.4190   0.4240   0.5121   0.5296   0.5528   0.7425
     1.2329   1.3933   1.3941   1.4659   1.4664   3.3994   3.4179   3.4470
     3.4889   3.6248   3.6341   3.6527   3.6542   3.7811   3.8014

     the Fermi energy is     3.1203 ev

!    total energy              =   -2939.19603851 Ry
     estimated scf accuracy    <       0.00000006 Ry
     smearing contrib. (-TS)   =      -0.02186359 Ry
     internal energy E=F+TS    =   -2939.17417492 Ry

     The total energy is F=E-TS. E is the sum of the following terms:
     one-electron contribution =  -23191.59506149 Ry
     hartree contribution      =   11681.11296823 Ry
     xc contribution           =    -484.90102866 Ry
     ewald contribution        =    9056.20862585 Ry
     electric field correction =       0.00032114 Ry

     convergence has been achieved in  67 iterations

     Forces acting on atoms (cartesian axes, Ry/au):

     atom    1 type  1   force =    -0.00000181   -0.00019345    0.09688076
     atom    2 type  1   force =    -0.00000618   -0.00054627   -0.17523386
     atom    3 type  2   force =     0.00009595   -0.00001329   -0.02519163
     atom    4 type  2   force =    -0.00003171   -0.00140983    0.05281266
     atom    5 type  2   force =    -0.01239353   -0.00103642    0.00323698
     atom    6 type  2   force =     0.01388464   -0.00053268    0.00283819
     atom    7 type  1   force =     0.00059851    0.00044685   -0.01142806
     atom    8 type  1   force =     0.00025370    0.01541494    0.02921961
     atom    9 type  2   force =    -0.00019339    0.00078318    0.00003070
     atom   10 type  2   force =    -0.00283947    0.00140662   -0.01827892
     atom   11 type  2   force =     0.00080451    0.00001990   -0.00003067
     atom   12 type  2   force =    -0.00060780   -0.00017039   -0.00011287
     atom   13 type  1   force =     0.00059789   -0.00029582    0.00004383
     atom   14 type  1   force =    -0.00039742    0.00029576   -0.00006088
     atom   15 type  2   force =     0.00014494   -0.00023231    0.00071841
     atom   16 type  2   force =    -0.00015018    0.00008354    0.00046527
     atom   17 type  2   force =     0.00016959   -0.00065580   -0.00022401
     atom   18 type  2   force =     0.00004303   -0.00068980    0.00005473
     atom   19 type  1   force =    -0.00009359   -0.00144704   -0.00034410
     atom   20 type  1   force =     0.00004976    0.00043108   -0.00016123
     atom   21 type  2   force =     0.00002453    0.00005619    0.10323593
     atom   22 type  2   force =    -0.00017197    0.00049455    0.00004719
     atom   23 type  2   force =    -0.07155908   -0.00009899   -0.02769494
     atom   24 type  2   force =     0.07142851    0.00039241   -0.02775427
     atom   25 type  1   force =     0.00005179   -0.00026860    0.09666875
     atom   26 type  1   force =     0.00003223   -0.00012998   -0.17541503
     atom   27 type  2   force =     0.00012941   -0.00012095   -0.02392443
     atom   28 type  2   force =    -0.00000766   -0.00118491    0.05299526
     atom   29 type  2   force =    -0.01258769    0.00056122    0.00299561
     atom   30 type  2   force =     0.01394289    0.00102016    0.00262394
     atom   31 type  1   force =     0.00052314    0.00341260   -0.01250220
     atom   32 type  1   force =     0.00028096   -0.01699947    0.02992290
     atom   33 type  2   force =    -0.00024635   -0.00052595   -0.00052906
     atom   34 type  2   force =    -0.00265632    0.00031067   -0.02245287
     atom   35 type  2   force =    -0.00005993   -0.00016096    0.00000838
     atom   36 type  2   force =     0.00002181   -0.00001096    0.00004347
     atom   37 type  1   force =     0.00027851   -0.00038205   -0.00054325
     atom   38 type  1   force =    -0.00022736    0.00040807    0.00023525
     atom   39 type  2   force =     0.00002485   -0.00039722    0.00003887
     atom   40 type  2   force =     0.00032650   -0.00050891   -0.00000952
     atom   41 type  2   force =    -0.00045371    0.00019143   -0.00003835
     atom   42 type  2   force =     0.00058934    0.00037772   -0.00013790
     atom   43 type  1   force =    -0.00024728    0.00068750   -0.00002549
     atom   44 type  1   force =     0.00023053    0.00023642   -0.00130377
     atom   45 type  2   force =     0.00002229    0.00002617    0.10322275
     atom   46 type  2   force =    -0.07155572   -0.00000581   -0.02769008
     atom   47 type  2   force =     0.07140294    0.00040276   -0.02775124
     atom   48 type  3   force =    -0.00084800    0.00017330   -0.00039669
     atom   49 type  4   force =     0.00188947    0.00031091    0.00860029
     atom   50 type  5   force =     0.00172171   -0.00215556   -0.00366225
     atom   51 type  5   force =     0.00071657    0.00097079   -0.00094564
     atom   52 type  5   force =    -0.00364612    0.00100847   -0.00272525
     atom   53 type  3   force =     0.00070180    0.00025021   -0.00037125

     Total force =     0.368983     Total SCF correction =     0.000373
  @ DRIVER MODE: Message from server: STATUS
  @ DRIVER MODE: Message from server: GETFORCE
  @ DRIVER MODE: Returning v,forces,stress,ensemble

     Writing output data file ./calc.save/
  @ DRIVER MODE: Message from server: EXIT
  @ DRIVE MODE: Exiting

     General routines

     Parallel routines

   This run was terminated on:  16:40:41   2Aug2021

   JOB DONE.