     Program PWSCF v.6.7GPU starts on 15Jul2021 at 22:27:42

     R & G space division:  proc/nbgrp/npool/nimage =      16
     Reading input from /storage/home/hcoda1/3/ntian30/research/carbon/15Jul_vib/ads_slab/CH3NNHHH_a/out_0007/pw.inp
Warning: card &CELL ignored
Warning: card   CELL_DYNAMICS='IPI', ignored
Warning: card / ignored

     Current dimensions of program PWSCF are:
     Max number of different atomic species (ntypx) = 10
     Max number of k-points (npk) =  40000
     Max angular momentum in pseudopotentials (lmaxx) =  3
     Presently no symmetry can be used with electric field

     Message from routine cell_base_init:
     DEPRECATED: use true lattice parameter, not A to a.u. conversion factor

     IMPORTANT: XC functional enforced from input :
     Exchange-correlation= BEEF-VDW
                           (   1   4  43  14   2   0   0)
     Any further DFT definition will be discarded
     Please, verify this is what you really want

  @ DRIVER MODE: Connecting to
 qe_1139763_2351652.sched-torque.pace.gatech.eduockakc6e_scratch
  using UNIX socket
  @ DRIVER MODE: Message from server: STATUS
  @ DRIVER MODE: Message from server: INIT
  @ DRIVER MODE: Receiving replica           0          -1
  @ DRIVER MODE: Receiving encoded integer          25
  @ DRIVER MODE:  SCF:  T  FORCE:  T  STRESS:  F  VC:  F  ENSEMBLE:  F
  @ DRIVER MODE:  SCF:  T  FORCE:  T  STRESS:  F  VC:  F  ENSEMBLE:  F

     Using Slab Decomposition

     bravais-lattice index     =            0
     lattice parameter (alat)  =       1.8897  a.u.
     unit-cell volume          =    6658.9804 (a.u.)^3
     number of atoms/cell      =           56
     number of atomic types    =            5
     number of electrons       =       398.00
     number of Kohn-Sham states=          209
     kinetic-energy cutoff     =      29.3995  Ry
     charge density cutoff     =     293.9946  Ry
     scf convergence threshold =      7.3E-08
     mixing beta               =       0.0500
     number of iterations used =            8  plain     mixing
     Exchange-correlation= BEEF-VDW
                           (   1   4  43  14   2   0   0)

     celldm(1)=   1.889726  celldm(2)=   0.000000  celldm(3)=   0.000000
     celldm(4)=   0.000000  celldm(5)=   0.000000  celldm(6)=   0.000000

     crystal axes: (cart. coord. in units of alat)
               a(1) = (   6.579727   0.000000   0.000000 )
               a(2) = (  -0.000775   5.961596   0.000000 )
               a(3) = (   0.000000   0.000000  25.155947 )

     reciprocal axes: (cart. coord. in units 2 pi/alat)
               b(1) = (  0.151982  0.000020  0.000000 )
               b(2) = (  0.000000  0.167740  0.000000 )
               b(3) = (  0.000000  0.000000  0.039752 )

     PseudoPot. # 1 for Ti read from file:
     /storage/coda1/p-amedford6/0/shared/rich_project_chbe-medford/medford-share/data/pseudos_module/espresso/nninc/pbe/van/Ti.UPF
     MD5 check sum: 8e4df49b7f0d34bbd5052bf3f5ea0213
     Pseudo is Ultrasoft, Zval = 12.0
     Generated by new atomic code, or converted to UPF format
     Using radial grid of  851 points,  6 beta functions with:
                l(1) =   0
                l(2) =   0
                l(3) =   1
                l(4) =   1
                l(5) =   2
                l(6) =   2
     Q(r) pseudized with  8 coefficients,  rinner =    1.000   1.000   1.000
                                                       1.000   1.000

     PseudoPot. # 2 for O  read from file:
     /storage/coda1/p-amedford6/0/shared/rich_project_chbe-medford/medford-share/data/pseudos_module/espresso/nninc/pbe/van/O.UPF
     MD5 check sum: 78c19812648e8988a0fe644b0f25305e
     Pseudo is Ultrasoft, Zval =  6.0
     Generated by new atomic code, or converted to UPF format
     Using radial grid of  737 points,  4 beta functions with:
                l(1) =   0
                l(2) =   0
                l(3) =   1
                l(4) =   1
     Q(r) pseudized with  8 coefficients,  rinner =    0.800   0.800   0.800

     PseudoPot. # 3 for N  read from file:
     /storage/coda1/p-amedford6/0/shared/rich_project_chbe-medford/medford-share/data/pseudos_module/espresso/nninc/pbe/van/N.UPF
     MD5 check sum: 90d10febe142ad51ac9d5be1deb811c4
     Pseudo is Ultrasoft, Zval =  5.0
     Generated by new atomic code, or converted to UPF format
     Using radial grid of  729 points,  4 beta functions with:
                l(1) =   0
                l(2) =   0
                l(3) =   1
                l(4) =   1
     Q(r) pseudized with  8 coefficients,  rinner =    0.800   0.800   0.800

     PseudoPot. # 4 for C  read from file:
     /storage/coda1/p-amedford6/0/shared/rich_project_chbe-medford/medford-share/data/pseudos_module/espresso/nninc/pbe/van/C.UPF
     MD5 check sum: 1a69bf6b8db32088f5b2163dbdb77a27
     Pseudo is Ultrasoft, Zval =  4.0
     Generated by new atomic code, or converted to UPF format
     Using radial grid of  721 points,  4 beta functions with:
                l(1) =   0
                l(2) =   0
                l(3) =   1
                l(4) =   1
     Q(r) pseudized with  8 coefficients,  rinner =    0.800   0.800   0.800

     PseudoPot. # 5 for H  read from file:
     /storage/coda1/p-amedford6/0/shared/rich_project_chbe-medford/medford-share/data/pseudos_module/espresso/nninc/pbe/van/H.UPF
     MD5 check sum: b5ee9d7bfd3a09ee7748110bda690ff7
     Pseudo is Ultrasoft, Zval =  1.0
     Generated by new atomic code, or converted to UPF format
     Using radial grid of  615 points,  1 beta functions with:
                l(1) =   0
     Q(r) pseudized with  8 coefficients,  rinner =    0.800

     atomic species   valence    mass     pseudopotential
        Ti1           12.00    47.86700     Ti( 1.00)
        O1             6.00    15.99900     O ( 1.00)
        N1             5.00    14.00700     N ( 1.00)
        C1             4.00    12.01100     C ( 1.00)
        H1             1.00     1.00800     H ( 1.00)

     Starting magnetic structure
     atomic species   magnetization
        Ti1          0.000
        O1           0.000
        N1           0.000
        C1           0.025
        H1           0.000

     No symmetry found

   Cartesian axes

     site n.     atom                  positions (alat units)
         1           Ti1 tau(   1) = (   0.0004258   2.9801865   6.0000000  )
         2           Ti1 tau(   2) = (   3.2906075   1.4906267   6.0002472  )
         3           O1  tau(   3) = (   0.0006271   0.0005054   7.9858123  )
         4           O1  tau(   4) = (   3.2906025   0.0005020   7.3038282  )
         5           O1  tau(   5) = (   4.5942328   1.4918067   9.2879030  )
         6           O1  tau(   6) = (   1.9868534   1.4903216   9.2879459  )
         7           Ti1 tau(   7) = (   3.2907910   2.8959150   9.1758416  )
         8           Ti1 tau(   8) = (   0.0015273   1.4827037   9.2680791  )
         9           O1  tau(   9) = (   3.2969863   5.9453513  11.3493076  )
        10           O1  tau(  10) = (   0.0116148   5.9584955  10.6183126  )
        11           O1  tau(  11) = (   1.3059050   1.4736943  12.6642453  )
        12           O1  tau(  12) = (   5.3003793   1.4775083  12.6459419  )
        13           Ti1 tau(  13) = (   0.0167275   2.9625105  12.5508078  )
        14           Ti1 tau(  14) = (   3.3131340   1.4712512  12.4909780  )
        15           O1  tau(  15) = (   6.5517612   5.9325698  14.7566896  )
        16           O1  tau(  16) = (   3.3302114   5.9429442  13.9823395  )
        17           O1  tau(  17) = (   4.5243935   1.5056208  16.2316672  )
        18           O1  tau(  18) = (   2.0170937   1.4633510  16.1378485  )
        19           Ti1 tau(  19) = (   3.2500237   2.9242626  15.6920970  )
        20           Ti1 tau(  20) = (   6.5441017   1.2779805  16.1516014  )
        21           O1  tau(  21) = (   3.2904802   0.0005063   4.7018136  )
        22           O1  tau(  22) = (   6.5540411   5.9581837  17.3465722  )
        23           O1  tau(  23) = (   1.3043587   1.4918075   6.0039043  )
        24           O1  tau(  24) = (   5.2767064   1.4903225   6.0039473  )
        25           Ti1 tau(  25) = (   0.0000382   5.9609847   6.0000000  )
        26           Ti1 tau(  26) = (   3.2902200   4.4714249   6.0002472  )
        27           O1  tau(  27) = (   0.0002396   2.9813036   7.9858123  )
        28           O1  tau(  28) = (   3.2902150   2.9813002   7.3038282  )
        29           O1  tau(  29) = (   4.5938453   4.4726049   9.2879030  )
        30           O1  tau(  30) = (   1.9864658   4.4711199   9.2879459  )
        31           Ti1 tau(  31) = (   3.2891106   5.8743827   9.1763621  )
        32           Ti1 tau(  32) = (   0.0006254   4.4649316   9.2693709  )
        33           O1  tau(  33) = (   3.2962403   2.9651072  11.3429128  )
        34           O1  tau(  34) = (   0.0092240   2.9805883  10.6323155  )
        35           O1  tau(  35) = (   1.3076126   4.4641214  12.6643835  )
        36           O1  tau(  36) = (   5.2981430   4.4591552  12.6429889  )
        37           Ti1 tau(  37) = (   0.0194730   5.9489450  12.5196332  )
        38           Ti1 tau(  38) = (   3.3150505   4.4522436  12.4946186  )
        39           O1  tau(  39) = (   6.5702761   2.9869041  14.8038460  )
        40           O1  tau(  40) = (   3.3119818   2.9576719  13.9204832  )
        41           O1  tau(  41) = (   4.5223198   4.3950437  16.2490866  )
        42           O1  tau(  42) = (   2.0356696   4.4339808  16.1311045  )
        43           Ti1 tau(  43) = (   3.3057863   5.9493229  15.7677403  )
        44           Ti1 tau(  44) = (   0.0958844   4.4293496  15.8701971  )
        45           O1  tau(  45) = (   3.2900926   2.9813045   4.7018136  )
        46           O1  tau(  46) = (   1.3039711   4.4726057   6.0039043  )
        47           O1  tau(  47) = (   5.2763189   4.4711207   6.0039473  )
        48           N1  tau(  48) = (   0.0620580   3.0375546  17.6897758  )
        49           C1  tau(  49) = (   1.1016374   2.9693208  18.6984743  )
        50           H1  tau(  50) = (   1.2951007   3.9532040  19.1583453  )
        51           H1  tau(  51) = (   0.8627774   2.2426413  19.4871689  )
        52           H1  tau(  52) = (   2.0263963   2.6228967  18.2308865  )
        53           N1  tau(  53) = (   5.4279256   3.3744730  18.4033390  )
        54           H1  tau(  54) = (   5.6103604   4.1199394  19.0852601  )
        55           H1  tau(  55) = (   4.7934260   3.8076565  17.6395878  )
        56           H1  tau(  56) = (   5.0090149   2.5598412  18.8678436  )

     number of k points=    10  Fermi-Dirac smearing, width (Ry)=  0.0073
                       cart. coord. in units 2pi/alat
        k(    1) = (   0.0000000   0.0000000   0.0000000), wk =   0.0625000
        k(    2) = (   0.0000000   0.0419351   0.0000000), wk =   0.1250000
        k(    3) = (   0.0000000  -0.0838702   0.0000000), wk =   0.0625000
        k(    4) = (   0.0379955   0.0000049   0.0000000), wk =   0.1250000
        k(    5) = (   0.0379955   0.0419400   0.0000000), wk =   0.1250000
[...]
     % possible and the two reviews that describe the various versions:     %
     %                                                                      %
     %   T. Thonhauser et al., PRL 115, 136402 (2015).                      %
     %   T. Thonhauser et al., PRB 76, 125112 (2007).                       %
     %   K. Berland et al., Rep. Prog. Phys. 78, 066501 (2015).             %
     %   D.C. Langreth et al., J. Phys.: Condens. Matter 21, 084203 (2009). %
     %                                                                      %
     %                                                                      %
     % If you are calculating the stress with vdW-DF, please also cite:     %
     %                                                                      %
     %   R. Sabatini et al., J. Phys.: Condens. Matter 24, 424209 (2012).   %
     %                                                                      %
     %%%%%%%%%%%%%%%%%%%%%%%%%%%%%%%%%%%%%%%%%%%%%%%%%%%%%%%%%%%%%%%%%%%%%%%%

     Adding external electric field

     Computed dipole along edir(3) :
        Dipole              -10.5729 Ry au,        -26.8736 Debye
        Dipole field         -0.0200 Ry au,

        Potential amp.        1.8496 Ry
        Total length         46.3494 bohr

[...]

     Starting wfcs are  302 atomic wfcs
  @ DRIVER MODE: Message from server: STATUS
  @ DRIVER MODE: Message from server: POSDATA
  @ DRIVER MODE: Reading and sharing cell
  @ DRIVER MODE: Reading and sharing positions
  @ DRIVER MODE: Received positions

     Self-consistent Calculation

     iteration #  1     ecut=    29.40 Ry     beta= 0.05
     Davidson diagonalization with overlap
     c_bands:  4 eigenvalues not converged
     c_bands:  2 eigenvalues not converged
     c_bands:  1 eigenvalues not converged
     c_bands:  4 eigenvalues not converged
     c_bands:  5 eigenvalues not converged
     c_bands:  5 eigenvalues not converged
     c_bands:  1 eigenvalues not converged
     c_bands:  5 eigenvalues not converged
     c_bands:  3 eigenvalues not converged
     c_bands:  3 eigenvalues not converged
     c_bands:  3 eigenvalues not converged
     c_bands:  1 eigenvalues not converged
     c_bands:  4 eigenvalues not converged
     c_bands:  5 eigenvalues not converged
     c_bands:  5 eigenvalues not converged
     c_bands:  5 eigenvalues not converged
     c_bands:  3 eigenvalues not converged
     ethr =  1.00E-05,  avg # of iterations = 20.0

[...]

     total energy              =   -2443.27941450 Ry
     estimated scf accuracy    <    5586.07645780 Ry

     total magnetization       =     0.00 Bohr mag/cell
     absolute magnetization    =     0.01 Bohr mag/cell

     iteration #  2     ecut=    29.40 Ry     beta= 0.05
     Davidson diagonalization with overlap
     ethr =  1.00E-02,  avg # of iterations = 23.4

[...]

     iteration #129     ecut=    29.40 Ry     beta= 0.05
     Davidson diagonalization with overlap
     ethr =  2.50E-10,  avg # of iterations =  1.0

[...]

     total energy              =   -2942.82537471 Ry
     estimated scf accuracy    <       0.00000011 Ry

[...]

     iteration #140     ecut=    29.40 Ry     beta= 0.05
     Davidson diagonalization with overlap
     c_bands:  2 eigenvalues not converged
     c_bands:  1 eigenvalues not converged
     c_bands:  2 eigenvalues not converged
     ethr =  2.73E-11,  avg # of iterations =  7.0

     negative rho (up, down):  7.301E-03 7.296E-03

[...]

     Adding external electric field

     Computed dipole along edir(3) :
        Dipole                1.6177 Ry au,          4.1119 Debye
        Dipole field          0.0031 Ry au,

        Potential amp.       -0.2830 Ry
        Total length         46.3494 bohr

     Magnetic moment per site  (integrated on atomic sphere of radius R)
     atom   1 (R=0.723)  charge=  7.9140  magn=  0.0011
     atom   2 (R=0.723)  charge=  7.8964  magn=  0.0001
     atom   3 (R=0.633)  charge=  4.2081  magn= -0.0002
     atom   4 (R=0.633)  charge=  4.2373  magn= -0.0000
     atom   5 (R=0.633)  charge=  4.2137  magn= -0.0000
     atom   6 (R=0.633)  charge=  4.2139  magn= -0.0000
     atom   7 (R=0.723)  charge=  7.8964  magn=  0.0001
     atom   8 (R=0.723)  charge=  7.8945  magn=  0.0012
     atom   9 (R=0.633)  charge=  4.2238  magn=  0.0001
     atom  10 (R=0.633)  charge=  4.2125  magn= -0.0000
     atom  11 (R=0.633)  charge=  4.2093  magn=  0.0001
     atom  12 (R=0.633)  charge=  4.2112  magn=  0.0001
     atom  13 (R=0.723)  charge=  7.8926  magn= -0.0002
     atom  14 (R=0.723)  charge=  7.9040  magn= -0.0006
     atom  15 (R=0.633)  charge=  4.2098  magn=  0.0000
     atom  16 (R=0.633)  charge=  4.2161  magn= -0.0001
     atom  17 (R=0.633)  charge=  4.2035  magn= -0.0000
     atom  18 (R=0.633)  charge=  4.2034  magn= -0.0000
     atom  19 (R=0.723)  charge=  7.9504  magn= -0.0002
     atom  20 (R=0.723)  charge=  7.9299  magn= -0.0001
     atom  21 (R=0.633)  charge=  4.1284  magn= -0.0000
     atom  22 (R=0.633)  charge=  4.1764  magn=  0.0000
     atom  23 (R=0.633)  charge=  4.2074  magn= -0.0002
     atom  24 (R=0.633)  charge=  4.2074  magn= -0.0002
     atom  25 (R=0.723)  charge=  7.9141  magn=  0.0017
     atom  26 (R=0.723)  charge=  7.8964  magn=  0.0001
     atom  27 (R=0.633)  charge=  4.2076  magn= -0.0001
     atom  28 (R=0.633)  charge=  4.2375  magn= -0.0000
     atom  29 (R=0.633)  charge=  4.2143  magn= -0.0000
     atom  30 (R=0.633)  charge=  4.2144  magn= -0.0000
     atom  31 (R=0.723)  charge=  7.8969  magn=  0.0000
     atom  32 (R=0.723)  charge=  7.8947  magn=  0.0012
     atom  33 (R=0.633)  charge=  4.2223  magn=  0.0001
     atom  34 (R=0.633)  charge=  4.2053  magn= -0.0000
     atom  35 (R=0.633)  charge=  4.2090  magn=  0.0001
     atom  36 (R=0.633)  charge=  4.2115  magn=  0.0001
     atom  37 (R=0.723)  charge=  7.8965  magn= -0.0002
     atom  38 (R=0.723)  charge=  7.9034  magn= -0.0006
     atom  39 (R=0.633)  charge=  4.1926  magn= -0.0000
     atom  40 (R=0.633)  charge=  4.2343  magn=  0.0001
     atom  41 (R=0.633)  charge=  4.2025  magn= -0.0000
     atom  42 (R=0.633)  charge=  4.2134  magn= -0.0000
     atom  43 (R=0.723)  charge=  7.9399  magn=  0.0006
     atom  44 (R=0.723)  charge=  7.9263  magn= -0.0000
     atom  45 (R=0.633)  charge=  4.1284  magn= -0.0002
     atom  46 (R=0.633)  charge=  4.2073  magn= -0.0002
     atom  47 (R=0.633)  charge=  4.2074  magn= -0.0002
     atom  48 (R=0.423)  charge=  1.3367  magn= -0.0000
     atom  49 (R=0.451)  charge=  0.8569  magn=  0.0000
     atom  50 (R=0.423)  charge=  0.4477  magn= -0.0000
     atom  51 (R=0.423)  charge=  0.4512  magn= -0.0000
     atom  52 (R=0.423)  charge=  0.4503  magn= -0.0000
     atom  53 (R=0.423)  charge=  1.3750  magn= -0.0000
     atom  54 (R=0.423)  charge=  0.4520  magn= -0.0000
     atom  55 (R=0.423)  charge=  0.3989  magn=  0.0000
     atom  56 (R=0.423)  charge=  0.4520  magn= -0.0000

     End of self-consistent calculation

 ------ SPIN UP ------------

          k = 0.0000 0.0000 0.0000 ( 18029 PWs)   bands (ev):

   -55.1348 -55.0983 -55.0981 -55.0642 -55.0176 -55.0032 -54.9795 -54.9371
   -54.9255 -54.9153 -54.9019 -54.8927 -54.8588 -54.7872 -54.1091 -54.0750
   -31.7149 -31.5871 -31.5039 -31.4721 -31.4287 -31.4270 -31.4243 -31.3958
   -31.3917 -31.3882 -31.3594 -31.3444 -31.3430 -31.3123 -31.2948 -31.2692
   -31.2535 -31.2512 -31.2396 -31.2348 -31.2087 -31.2018 -31.1945 -31.1683
   -31.1554 -31.1468 -31.1400 -31.1351 -31.1328 -31.1210 -31.1205 -31.1138
   -31.0961 -31.0871 -31.0817 -31.0561 -31.0526 -31.0398 -31.0342 -31.0300
   -31.0181 -30.9772 -30.5174 -30.4255 -30.4033 -30.3340 -30.2472 -30.1362
   -18.9519 -15.9997 -15.7452 -15.6095 -15.3750 -15.3227 -15.2663 -15.0619
   -15.0573 -14.9863 -14.9714 -14.9226 -14.9024 -14.8353 -14.7511 -14.7317
   -14.6618 -14.6603 -14.6311 -14.6212 -14.6183 -14.5557 -14.5465 -14.5165
   -14.5034 -14.4785 -14.3605 -14.2757 -14.2171 -13.9691 -13.6284 -12.6113
   -12.4942  -9.7326  -7.7246  -7.2122  -5.4813  -3.8232  -3.3366  -3.2447
    -3.1600  -3.1329  -3.0550  -3.0267  -2.8422  -2.8195  -2.4796  -2.4446
    -2.3927  -2.3755  -2.3527  -2.3363  -2.1687  -2.1428  -2.0699  -2.0366
    -2.0189  -1.9765  -1.9609  -1.9507  -1.9170  -1.9115  -1.9023  -1.6950
    -1.6387  -1.5439  -1.5215  -1.5071  -1.4621  -1.4273  -1.4177  -1.4145
    -1.4086  -1.3951  -1.3829  -1.3020  -1.2469  -1.1634  -1.1542  -1.1189
    -1.0143  -0.9699  -0.7670  -0.7528  -0.7072  -0.6649  -0.6020  -0.5816
    -0.5142  -0.4835  -0.4656  -0.3433  -0.3144  -0.2746  -0.2466  -0.1790
    -0.1486  -0.1031  -0.0191   0.0518   0.0878   0.1063   0.1651   0.2952
     0.3068   0.3358   0.3970   0.4607   0.5011   0.5207   0.5396   0.5764
     0.6265   0.7524   0.7967   0.8169   0.8209   0.8550   0.8771   0.9283
     0.9531   1.0137   1.0194   1.1368   1.2064   1.4305   1.4665   1.4937
     1.8262   1.8495   1.9138   2.0998   2.4879   2.5351   3.9679   4.0295
     4.0861   4.1024   4.1215   4.2104   4.2482   4.4323   4.4598   4.4624
     4.4658

[...]

          k =-0.0760-0.0000 0.0000 ( 17886 PWs)   bands (ev):

[...]

 ------ SPIN DOWN ----------

[...]

          k = 0.0380-0.0419 0.0000 ( 17876 PWs)   bands (ev):

[...]

          k =-0.0760-0.0839 0.0000 ( 17948 PWs)   bands (ev):

   -55.1207 -55.1148 -55.0791 -55.0779 -55.0076 -54.9983 -54.9908 -54.9209
   -54.9193 -54.9168 -54.9079 -54.9065 -54.8553 -54.7912 -54.0919 -54.0917
   -31.5192 -31.5163 -31.4391 -31.4173 -31.4013 -31.4005 -31.3712 -31.3700
   -31.3469 -31.3412 -31.3381 -31.3378 -31.3055 -31.2676 -31.2624 -31.2581
   -31.2559 -31.2519 -31.2497 -31.2433 -31.2125 -31.2084 -31.2059 -31.2040
   -31.1981 -31.1969 -31.1843 -31.1834 -31.1554 -31.1507 -31.1353 -31.1312
   -31.1292 -31.1284 -31.1278 -31.1196 -31.0956 -31.0887 -31.0863 -31.0672
   -31.0421 -31.0239 -30.4158 -30.4156 -30.3299 -30.3297 -30.2904 -30.2904
   -18.9471 -15.5067 -15.3970 -15.2901 -15.2240 -15.1809 -15.1297 -15.1119
   -15.1013 -15.0564 -15.0266 -14.9577 -14.8931 -14.8401 -14.8390 -14.8049
   -14.7260 -14.7122 -14.7051 -14.6947 -14.6379 -14.6312 -14.5997 -14.5789
   -14.5758 -14.5459 -14.4720 -14.4696 -14.3846 -14.1779 -13.6648 -12.5961
   -12.5959  -9.7024  -7.7212  -7.1585  -5.4843  -3.8447  -3.3914  -2.7549
    -2.6442  -2.4339  -2.4076  -2.3475  -2.3283  -2.2468  -2.1827  -2.1604
    -2.1369  -2.1032  -2.0999  -2.0755  -2.0542  -2.0012  -1.9730  -1.9600
    -1.9546  -1.9393  -1.9267  -1.9063  -1.8506  -1.8401  -1.8327  -1.7899
    -1.7793  -1.7472  -1.7411  -1.7022  -1.6854  -1.6116  -1.5168  -1.4925
    -1.4340  -1.3325  -1.3178  -1.3121  -1.2194  -1.2107  -1.1812  -1.1504
    -1.0959  -0.9969  -0.9418  -0.8651  -0.8618  -0.8329  -0.7453  -0.6811
    -0.6476  -0.6382  -0.5998  -0.5406  -0.5198  -0.4850  -0.4023  -0.3609
    -0.3347  -0.3008  -0.2043  -0.1436  -0.1204  -0.0885  -0.0850   0.0040
     0.0373   0.0741   0.0949   0.1331   0.1598   0.2245   0.2468   0.3568
     0.4250   0.4564   0.5759   0.5999   0.6637   0.7958   0.8676   0.9080
     0.9604   1.0187   1.0462   1.1766   1.1838   1.1995   1.3026   1.3430
     1.3499   1.3628   2.2725   2.2735   2.3550   2.3553   4.1005   4.1878
     4.2304   4.2679   4.3746   4.4863   4.5045   4.5474   4.5485   4.6233
     4.6298

     the Fermi energy is     4.0214 ev

!    total energy              =   -2942.82537488 Ry
     estimated scf accuracy    <       0.00000007 Ry
     smearing contrib. (-TS)   =      -0.03684466 Ry
     internal energy E=F+TS    =   -2942.78853022 Ry

     The total energy is F=E-TS. E is the sum of the following terms:
     one-electron contribution =  -23972.41515890 Ry
     hartree contribution      =   12081.77853544 Ry
     xc contribution           =    -487.77461431 Ry
     ewald contribution        =    9435.61776874 Ry
     electric field correction =       0.00493882 Ry

     total magnetization       =     0.01 Bohr mag/cell
     absolute magnetization    =     0.02 Bohr mag/cell

     convergence has been achieved in 140 iterations

     Forces acting on atoms (cartesian axes, Ry/au):

     atom    1 type  1   force =     0.00015189   -0.00022535    0.09431413
     atom    2 type  1   force =    -0.00009514   -0.00033542   -0.17740223
     atom    3 type  2   force =     0.00005568   -0.00016515   -0.02137451
     atom    4 type  2   force =    -0.00001481   -0.00172460    0.05657582
     atom    5 type  2   force =    -0.01054740   -0.00127725    0.00623843
     atom    6 type  2   force =     0.01221515   -0.00074392    0.00571084
     atom    7 type  1   force =    -0.00033165    0.00171780   -0.01618597
     atom    8 type  1   force =    -0.00011289    0.00438483    0.00560787
     atom    9 type  2   force =     0.00000936   -0.00004480   -0.00005814
     atom   10 type  2   force =    -0.00074212   -0.00022166   -0.00044401
     atom   11 type  2   force =     0.00034590    0.00013028   -0.00018710
     atom   12 type  2   force =    -0.00051666    0.00000629   -0.00012259
     atom   13 type  1   force =     0.00004140   -0.00035957    0.00009577
     atom   14 type  1   force =     0.00055655    0.00012021   -0.00030792
     atom   15 type  2   force =    -0.00038107    0.00018299   -0.00012142
     atom   16 type  2   force =    -0.00032912    0.00019577   -0.00005241
     atom   17 type  2   force =    -0.00012848    0.00009678    0.00043059
     atom   18 type  2   force =     0.00006747    0.00028974   -0.00016416
     atom   19 type  1   force =     0.00010149    0.00004316    0.00020017
     atom   20 type  1   force =     0.00011135    0.00032203   -0.00069697
     atom   21 type  2   force =     0.00003673    0.00004230    0.10363433
     atom   22 type  2   force =    -0.00004797   -0.00080475   -0.00033183
     atom   23 type  2   force =    -0.07081841   -0.00009980   -0.02719152
     atom   24 type  2   force =     0.07068167    0.00034116   -0.02722053
     atom   25 type  1   force =    -0.00009510   -0.00019483    0.09373870
     atom   26 type  1   force =    -0.00015146   -0.00031927   -0.17732831
     atom   27 type  2   force =     0.00008704   -0.00035055   -0.02047336
     atom   28 type  2   force =     0.00003088   -0.00144000    0.05588569
     atom   29 type  2   force =    -0.01090771   -0.00073677    0.00608754
     atom   30 type  2   force =     0.01245834   -0.00029215    0.00556676
     atom   31 type  1   force =    -0.00017344    0.00462547   -0.01721615
     atom   32 type  1   force =    -0.00003977   -0.00480207    0.00558188
     atom   33 type  2   force =     0.00005629    0.00012391    0.00026202
     atom   34 type  2   force =     0.00005723   -0.00085289   -0.00296861
     atom   35 type  2   force =     0.00023520    0.00002738    0.00008239
     atom   36 type  2   force =    -0.00042745    0.00015411   -0.00006298
     atom   37 type  1   force =    -0.00012902   -0.00010552   -0.00021535
     atom   38 type  1   force =     0.00043166   -0.00028781    0.00038176
     atom   39 type  2   force =    -0.00046107    0.00010596    0.00080868
     atom   40 type  2   force =    -0.00011759    0.00018630   -0.00023198
     atom   41 type  2   force =     0.00013303    0.00031239    0.00016555
     atom   42 type  2   force =    -0.00013122    0.00023641   -0.00005063
     atom   43 type  1   force =    -0.00045085    0.00058277   -0.00001719
     atom   44 type  1   force =    -0.00016678    0.00057490   -0.00041682
     atom   45 type  2   force =     0.00002573    0.00001143    0.10362750
     atom   46 type  2   force =    -0.07081951   -0.00003610   -0.02719128
     atom   47 type  2   force =     0.07068566    0.00038012   -0.02719770
     atom   48 type  3   force =    -0.00445634   -0.00059933   -0.00096849
     atom   49 type  4   force =     0.01935191   -0.00052628   -0.00315395
     atom   50 type  5   force =    -0.00191779   -0.00093373   -0.00024090
     atom   51 type  5   force =    -0.00259645   -0.00189082    0.00164454
     atom   52 type  5   force =    -0.00878115    0.00264527    0.00394533
     atom   53 type  3   force =    -0.00182725    0.00120963    0.00020947
     atom   54 type  5   force =     0.00028452    0.00004519   -0.00027328
     atom   55 type  5   force =    -0.00025495    0.00010561   -0.00064204
     atom   56 type  5   force =    -0.00024154    0.00017018   -0.00028544

     Total force =     0.366301     Total SCF correction =     0.000392
  @ DRIVER MODE: Message from server: STATUS
  @ DRIVER MODE: Message from server: GETFORCE
  @ DRIVER MODE: Returning v,forces,stress,ensemble

     Writing output data file ./calc.save/
  @ DRIVER MODE: Message from server: EXIT
  @ DRIVE MODE: Exiting

     General routines

     Parallel routines

   This run was terminated on:  23:21:36  15Jul2021

   JOB DONE.