     Program PWSCF v.6.7GPU starts on 23Aug2021 at 18:31:44

     R & G space division:  proc/nbgrp/npool/nimage =       6
     Reading input from /storage/home/hcoda1/3/ntian30/research/carbon/CH_vib/ads_slab/CHNHHH_a/out_0011/pw.inp
Warning: card &CELL ignored
Warning: card   CELL_DYNAMICS='IPI', ignored
Warning: card / ignored

     Current dimensions of program PWSCF are:
     Max number of different atomic species (ntypx) = 10
     Max number of k-points (npk) =  40000
     Max angular momentum in pseudopotentials (lmaxx) =  3
     Presently no symmetry can be used with electric field

     Message from routine cell_base_init:
     DEPRECATED: use true lattice parameter, not A to a.u. conversion factor

     IMPORTANT: XC functional enforced from input :
     Exchange-correlation= BEEF-VDW
                           (   1   4  43  14   2   0   0)
     Any further DFT definition will be discarded
     Please, verify this is what you really want

  @ DRIVER MODE: Connecting to
 qe_1139763_2632793.sched-torque.pace.gatech.edu3ls_vhgq_scratch
  using UNIX socket
  @ DRIVER MODE: Message from server: STATUS
  @ DRIVER MODE: Message from server: INIT
  @ DRIVER MODE: Receiving replica           0          -1
  @ DRIVER MODE: Receiving encoded integer          25
  @ DRIVER MODE:  SCF:  T  FORCE:  T  STRESS:  F  VC:  F  ENSEMBLE:  F
  @ DRIVER MODE:  SCF:  T  FORCE:  T  STRESS:  F  VC:  F  ENSEMBLE:  F

     Using Slab Decomposition

     bravais-lattice index     =            0
     lattice parameter (alat)  =       1.8897  a.u.
     unit-cell volume          =    6658.9804 (a.u.)^3
     number of atoms/cell      =           53
     number of atomic types    =            5
     number of electrons       =       391.00
     number of Kohn-Sham states=          205
     kinetic-energy cutoff     =      29.3995  Ry
     charge density cutoff     =     293.9946  Ry
     scf convergence threshold =      7.3E-08
     mixing beta               =       0.0500
     number of iterations used =            8  plain     mixing
     Exchange-correlation= BEEF-VDW
                           (   1   4  43  14   2   0   0)

     celldm(1)=   1.889726  celldm(2)=   0.000000  celldm(3)=   0.000000
     celldm(4)=   0.000000  celldm(5)=   0.000000  celldm(6)=   0.000000

     crystal axes: (cart. coord. in units of alat)
               a(1) = (   6.579727   0.000000   0.000000 )
               a(2) = (  -0.000775   5.961596   0.000000 )
               a(3) = (   0.000000   0.000000  25.155947 )

     reciprocal axes: (cart. coord. in units 2 pi/alat)
               b(1) = (  0.151982  0.000020  0.000000 )
               b(2) = (  0.000000  0.167740  0.000000 )
               b(3) = (  0.000000  0.000000  0.039752 )

     PseudoPot. # 1 for Ti read from file:
     /storage/coda1/p-amedford6/0/shared/rich_project_chbe-medford/medford-share/data/pseudos_module/espresso/nninc/pbe/van/Ti.UPF
     MD5 check sum: 8e4df49b7f0d34bbd5052bf3f5ea0213
     Pseudo is Ultrasoft, Zval = 12.0
     Generated by new atomic code, or converted to UPF format
     Using radial grid of  851 points,  6 beta functions with:
                l(1) =   0
                l(2) =   0
                l(3) =   1
                l(4) =   1
                l(5) =   2
                l(6) =   2
     Q(r) pseudized with  8 coefficients,  rinner =    1.000   1.000   1.000
                                                       1.000   1.000

     PseudoPot. # 2 for O  read from file:
     /storage/coda1/p-amedford6/0/shared/rich_project_chbe-medford/medford-share/data/pseudos_module/espresso/nninc/pbe/van/O.UPF
     MD5 check sum: 78c19812648e8988a0fe644b0f25305e
     Pseudo is Ultrasoft, Zval =  6.0
     Generated by new atomic code, or converted to UPF format
     Using radial grid of  737 points,  4 beta functions with:
                l(1) =   0
                l(2) =   0
                l(3) =   1
                l(4) =   1
     Q(r) pseudized with  8 coefficients,  rinner =    0.800   0.800   0.800

     PseudoPot. # 3 for N  read from file:
     /storage/coda1/p-amedford6/0/shared/rich_project_chbe-medford/medford-share/data/pseudos_module/espresso/nninc/pbe/van/N.UPF
     MD5 check sum: 90d10febe142ad51ac9d5be1deb811c4
     Pseudo is Ultrasoft, Zval =  5.0
     Generated by new atomic code, or converted to UPF format
     Using radial grid of  729 points,  4 beta functions with:
                l(1) =   0
                l(2) =   0
                l(3) =   1
                l(4) =   1
     Q(r) pseudized with  8 coefficients,  rinner =    0.800   0.800   0.800

     PseudoPot. # 4 for C  read from file:
     /storage/coda1/p-amedford6/0/shared/rich_project_chbe-medford/medford-share/data/pseudos_module/espresso/nninc/pbe/van/C.UPF
     MD5 check sum: 1a69bf6b8db32088f5b2163dbdb77a27
     Pseudo is Ultrasoft, Zval =  4.0
     Generated by new atomic code, or converted to UPF format
     Using radial grid of  721 points,  4 beta functions with:
                l(1) =   0
                l(2) =   0
                l(3) =   1
                l(4) =   1
     Q(r) pseudized with  8 coefficients,  rinner =    0.800   0.800   0.800

     PseudoPot. # 5 for H  read from file:
     /storage/coda1/p-amedford6/0/shared/rich_project_chbe-medford/medford-share/data/pseudos_module/espresso/nninc/pbe/van/H.UPF
     MD5 check sum: b5ee9d7bfd3a09ee7748110bda690ff7
     Pseudo is Ultrasoft, Zval =  1.0
     Generated by new atomic code, or converted to UPF format
     Using radial grid of  615 points,  1 beta functions with:
                l(1) =   0
     Q(r) pseudized with  8 coefficients,  rinner =    0.800

     atomic species   valence    mass     pseudopotential
        Ti1           12.00    47.86700     Ti( 1.00)
        O1             6.00    15.99900     O ( 1.00)
        N1             5.00    14.00700     N ( 1.00)
        C1             4.00    12.01100     C ( 1.00)
        H1             1.00     1.00800     H ( 1.00)

     No symmetry found

   Cartesian axes

     site n.     atom                  positions (alat units)
         1           Ti1 tau(   1) = (   0.0004258   2.9801865   6.0000000  )
         2           Ti1 tau(   2) = (   3.2906075   1.4906267   6.0002472  )
         3           O1  tau(   3) = (   0.0006271   0.0005054   7.9858123  )
         4           O1  tau(   4) = (   3.2906025   0.0005020   7.3038282  )
         5           O1  tau(   5) = (   4.5942328   1.4918067   9.2879030  )
         6           O1  tau(   6) = (   1.9868534   1.4903216   9.2879459  )
         7           Ti1 tau(   7) = (   3.2907910   2.8959150   9.1758416  )
         8           Ti1 tau(   8) = (   0.0015273   1.4827037   9.2680791  )
         9           O1  tau(   9) = (   3.3113122   5.9567026  11.3833813  )
        10           O1  tau(  10) = (   0.0116148   5.9584955  10.6183126  )
        11           O1  tau(  11) = (   1.3074368   1.4838846  12.6958875  )
        12           O1  tau(  12) = (   5.3165545   1.4905306  12.6890028  )
        13           Ti1 tau(  13) = (   0.0319163   2.9634337  12.5060949  )
        14           Ti1 tau(  14) = (   3.3348194   1.4676286  12.5406051  )
        15           O1  tau(  15) = (   6.5718004   5.8756060  14.7032446  )
        16           O1  tau(  16) = (   3.3285255   5.9545307  14.0046557  )
        17           O1  tau(  17) = (   4.5620449   1.5282301  16.1894795  )
        18           O1  tau(  18) = (   2.0507131   1.5111456  16.1254446  )
        19           Ti1 tau(  19) = (   3.3090684   3.0029381  15.7706148  )
        20           Ti1 tau(  20) = (   0.0350077   1.2886257  15.8758580  )
        21           O1  tau(  21) = (   3.2904802   0.0005063   4.7018136  )
        22           O1  tau(  22) = (   0.0240991   0.1326893  17.2553962  )
        23           O1  tau(  23) = (   1.3043587   1.4918075   6.0039043  )
        24           O1  tau(  24) = (   5.2767064   1.4903225   6.0039473  )
        25           Ti1 tau(  25) = (   0.0000382   5.9609847   6.0000000  )
        26           Ti1 tau(  26) = (   3.2902200   4.4714249   6.0002472  )
        27           O1  tau(  27) = (   0.0002396   2.9813036   7.9858123  )
        28           O1  tau(  28) = (   3.2902150   2.9813002   7.3038282  )
        29           O1  tau(  29) = (   4.5938453   4.4726049   9.2879030  )
        30           O1  tau(  30) = (   1.9864658   4.4711199   9.2879459  )
        31           Ti1 tau(  31) = (   3.2891106   5.8743827   9.1763621  )
        32           Ti1 tau(  32) = (   0.0006254   4.4649316   9.2693709  )
        33           O1  tau(  33) = (   3.3073171   2.9646269  11.3784001  )
        34           O1  tau(  34) = (   0.0092240   2.9805883  10.6323155  )
        35           O1  tau(  35) = (   1.3112202   4.4579144  12.6624112  )
        36           O1  tau(  36) = (   5.3138049   4.4530836  12.6532163  )
        37           Ti1 tau(  37) = (   0.0383750   5.9352221  12.5084026  )
        38           Ti1 tau(  38) = (   3.3346062   4.4465110  12.5317211  )
        39           O1  tau(  39) = (   0.0124192   3.0170750  14.9941726  )
        40           O1  tau(  40) = (   3.3221393   2.9969786  13.9787254  )
        41           O1  tau(  41) = (   4.5445774   4.4782521  16.2319081  )
        42           O1  tau(  42) = (   2.0501905   4.4790704  16.2078326  )
        43           Ti1 tau(  43) = (   3.3285819   0.0194352  15.8051934  )
        44           Ti1 tau(  44) = (   0.0611752   4.5099810  16.0683830  )
        45           O1  tau(  45) = (   3.2900926   2.9813045   4.7018136  )
        46           O1  tau(  46) = (   1.3039711   4.4726057   6.0039043  )
        47           O1  tau(  47) = (   5.2763189   4.4711207   6.0039473  )
        48           N1  tau(  48) = (   6.2166669   3.4226028  18.2351681  )
        49           C1  tau(  49) = (   0.7325778   3.1430902  19.0355235  )
        50           H1  tau(  50) = (   1.1688338   2.1628109  18.9760543  )
        51           H1  tau(  51) = (   5.7007151   4.2593073  18.4945226  )
        52           H1  tau(  52) = (   5.5741914   2.6425579  18.1107425  )
        53           H1  tau(  53) = (   1.2593429   3.9788434  19.4721980  )

     number of k points=    10  Fermi-Dirac smearing, width (Ry)=  0.0073
                       cart. coord. in units 2pi/alat
        k(    1) = (   0.0000000   0.0000000   0.0000000), wk =   0.1250000
        k(    2) = (   0.0000000   0.0419351   0.0000000), wk =   0.2500000
        k(    3) = (   0.0000000  -0.0838702   0.0000000), wk =   0.1250000
        k(    4) = (   0.0379955   0.0000049   0.0000000), wk =   0.2500000
        k(    5) = (   0.0379955   0.0419400   0.0000000), wk =   0.2500000
        k(    6) = (   0.0379955  -0.0838652   0.0000000), wk =   0.2500000
        k(    7) = (   0.0379955  -0.0419301   0.0000000), wk =   0.2500000
        k(    8) = (  -0.0759910  -0.0000099   0.0000000), wk =   0.1250000
        k(    9) = (  -0.0759910   0.0419252   0.0000000), wk =   0.2500000
        k(   10) = (  -0.0759910  -0.0838800   0.0000000), wk =   0.1250000

     Initial potential from superposition of free atoms

     starting charge  374.99916, renormalised to  391.00000

     negative rho (up, down):  1.699E-02 0.000E+00

     %%%%%%%%%%%%%%%%%%%%%%%%%%%%%%%%%%%%%%%%%%%%%%%%%%%%%%%%%%%%%%%%%%%%%%%%
     %                                                                      %
     % You are using vdW-DF, which was implemented by the Thonhauser group. %
     % Please cite the following two papers that made this development      %
     % possible and the two reviews that describe the various versions:     %
     %                                                                      %
     %   T. Thonhauser et al., PRL 115, 136402 (2015).                      %
     %   T. Thonhauser et al., PRB 76, 125112 (2007).                       %
     %   K. Berland et al., Rep. Prog. Phys. 78, 066501 (2015).             %
     %   D.C. Langreth et al., J. Phys.: Condens. Matter 21, 084203 (2009). %
     %                                                                      %
     %                                                                      %
     % If you are calculating the stress with vdW-DF, please also cite:     %
     %                                                                      %
     %   R. Sabatini et al., J. Phys.: Condens. Matter 24, 424209 (2012).   %
     %                                                                      %
     %%%%%%%%%%%%%%%%%%%%%%%%%%%%%%%%%%%%%%%%%%%%%%%%%%%%%%%%%%%%%%%%%%%%%%%%

     Adding external electric field

     Computed dipole along edir(3) :
        Dipole               -6.8839 Ry au,        -17.4970 Debye
        Dipole field         -0.0130 Ry au,

        Potential amp.        1.2042 Ry
        Total length         46.3494 bohr

     Starting wfcs are  296 atomic wfcs
  @ DRIVER MODE: Message from server: STATUS
  @ DRIVER MODE: Message from server: POSDATA
  @ DRIVER MODE: Reading and sharing cell
  @ DRIVER MODE: Reading and sharing positions
  @ DRIVER MODE: Received positions

     Self-consistent Calculation

     iteration #  1     ecut=    29.40 Ry     beta= 0.05
     Davidson diagonalization with overlap
     c_bands:  1 eigenvalues not converged
     c_bands:  2 eigenvalues not converged
     ethr =  1.00E-05,  avg # of iterations = 15.9

[...]

     total energy              =   -2713.95497555 Ry
     estimated scf accuracy    <    2275.96718832 Ry

[...]

     iteration #  3     ecut=    29.40 Ry     beta= 0.05
     Davidson diagonalization with overlap
     ethr =  1.00E-02,  avg # of iterations = 15.5

[...]

     iteration # 72     ecut=    29.40 Ry     beta= 0.05
     Davidson diagonalization with overlap
     ethr =  3.55E-11,  avg # of iterations =  8.8

[...]

     total energy              =   -2920.25689779 Ry
     estimated scf accuracy    <       0.00000012 Ry

     iteration # 73     ecut=    29.40 Ry     beta= 0.05
     Davidson diagonalization with overlap
     c_bands:  1 eigenvalues not converged
     ethr =  2.99E-11,  avg # of iterations = 11.4

     negative rho (up, down):  1.634E-02 0.000E+00

     Adding external electric field

     Computed dipole along edir(3) :
        Dipole                0.9156 Ry au,          2.3273 Debye
        Dipole field          0.0017 Ry au,

        Potential amp.       -0.1602 Ry
        Total length         46.3494 bohr

     End of self-consistent calculation

          k = 0.0000 0.0000 0.0000 ( 18029 PWs)   bands (ev):

   -55.7116 -55.6752 -55.6652 -55.6311 -55.5984 -55.5952 -55.5608 -55.5366
   -55.5283 -55.5022 -55.4972 -55.4635 -55.4408 -55.2820 -54.6967 -54.6627
   -32.2766 -32.1581 -32.0826 -32.0333 -32.0298 -32.0256 -32.0210 -32.0030
   -31.9543 -31.9444 -31.9241 -31.9189 -31.9103 -31.8804 -31.8657 -31.8649
   -31.8502 -31.8364 -31.8325 -31.8177 -31.8129 -31.7794 -31.7724 -31.7671
   -31.7389 -31.7269 -31.7266 -31.7223 -31.7163 -31.7090 -31.6971 -31.6952
   -31.6855 -31.6828 -31.6501 -31.6489 -31.6446 -31.6251 -31.6134 -31.6086
   -31.5016 -31.4542 -31.1062 -31.0116 -30.9896 -30.9225 -30.8357 -30.7249
   -16.7345 -16.5214 -16.2632 -16.0986 -15.9977 -15.9117 -15.7702 -15.7512
   -15.6350 -15.5582 -15.4159 -15.3802 -15.3666 -15.3496 -15.3278 -15.3162
   -15.2598 -15.2540 -15.2333 -15.2088 -15.2047 -15.1566 -15.1533 -15.1130
   -15.0896 -15.0295 -14.9579 -14.8741 -14.8017 -14.4750 -13.1991 -13.0816
    -9.5479  -6.9016  -5.0161  -3.8754  -3.7323  -3.6690  -3.6137  -3.6065
    -3.4624  -3.2915  -3.1438  -3.1262  -3.0918  -2.9809  -2.9169  -2.9025
    -2.8792  -2.7574  -2.7234  -2.6754  -2.6372  -2.5639  -2.5590  -2.5176
    -2.5039  -2.4607  -2.4541  -2.4272  -2.3019  -2.2807  -2.2472  -2.1799
    -2.1194  -2.1183  -2.0608  -2.0429  -2.0031  -1.9943  -1.9845  -1.9427
    -1.9359  -1.9011  -1.8003  -1.7365  -1.6045  -1.5703  -1.4257  -1.3537
    -1.3053  -1.2869  -1.2032  -1.1833  -1.1328  -1.0922  -1.0832  -1.0501
    -0.9368  -0.8520  -0.8004  -0.7456  -0.7137  -0.6970  -0.6079  -0.5155
    -0.4928  -0.4796  -0.4391  -0.3368  -0.3153  -0.2537  -0.1935  -0.1778
    -0.1686  -0.0745  -0.0417   0.0310   0.0806   0.1018   0.1741   0.1994
     0.2191   0.2245   0.2594   0.2713   0.3462   0.3638   0.3885   0.4753
     0.6008   0.8464   0.8967   0.9081   1.2266   1.2310   1.3262   1.5094
     1.9026   1.9509   3.3794   3.3973   3.4610   3.5301   3.5339   3.5977
     3.6209   3.8660   3.8873   3.8947   3.9112

[...]

          k = 0.0380-0.0419 0.0000 ( 17876 PWs)   bands (ev):

[...]

          k =-0.0760-0.0000 0.0000 ( 17886 PWs)   bands (ev):

[...]

          k =-0.0760-0.0839 0.0000 ( 17948 PWs)   bands (ev):

   -55.6964 -55.6901 -55.6482 -55.6480 -55.5939 -55.5786 -55.5773 -55.5326
   -55.5210 -55.5175 -55.4808 -55.4800 -55.4387 -55.2841 -54.6798 -54.6795
   -32.0834 -32.0786 -31.9875 -31.9732 -31.9731 -31.9692 -31.9423 -31.9396
   -31.9395 -31.9233 -31.9168 -31.9078 -31.9024 -31.8619 -31.8588 -31.8533
   -31.8493 -31.8447 -31.8392 -31.8360 -31.8195 -31.7999 -31.7918 -31.7911
   -31.7737 -31.7691 -31.7679 -31.7675 -31.7537 -31.7503 -31.7337 -31.7301
   -31.7297 -31.7152 -31.7133 -31.7105 -31.6631 -31.6610 -31.6599 -31.6191
   -31.5460 -31.5038 -31.0024 -31.0021 -30.9188 -30.9186 -30.8792 -30.8791
   -16.7088 -16.0022 -15.9363 -15.8983 -15.7500 -15.7090 -15.6743 -15.6628
   -15.5394 -15.5081 -15.4876 -15.4663 -15.4312 -15.4163 -15.4097 -15.3586
   -15.3312 -15.3109 -15.3066 -15.2927 -15.2301 -15.2238 -15.2189 -15.2116
   -15.1638 -15.1602 -15.0690 -15.0660 -15.0438 -14.7626 -13.1831 -13.1831
    -9.5499  -6.8833  -4.9957  -3.2069  -3.1896  -3.1527  -3.1250  -2.9720
    -2.9215  -2.8942  -2.8638  -2.7966  -2.7402  -2.7238  -2.6799  -2.6775
    -2.6220  -2.5895  -2.5647  -2.5499  -2.5440  -2.5299  -2.5084  -2.4726
    -2.4435  -2.4421  -2.4325  -2.3875  -2.3608  -2.3501  -2.3124  -2.3061
    -2.2985  -2.2702  -2.2082  -2.1094  -2.0770  -2.0517  -1.9548  -1.9212
    -1.9162  -1.8364  -1.8033  -1.7481  -1.7416  -1.7348  -1.5706  -1.4973
    -1.4602  -1.4572  -1.4352  -1.3077  -1.2932  -1.2149  -1.1908  -1.1790
    -1.0958  -1.0699  -1.0262  -0.9996  -0.9226  -0.8940  -0.8322  -0.7450
    -0.7070  -0.6995  -0.6696  -0.6658  -0.6170  -0.6059  -0.5207  -0.4820
    -0.4471  -0.4367  -0.3888  -0.2045  -0.1869  -0.1572  -0.0177   0.0312
     0.1574   0.1809   0.2414   0.3154   0.3559   0.4005   0.4371   0.5820
     0.5920   0.6216   0.6693   0.6803   0.7387   0.7475   1.6825   1.6830
     1.7708   1.7710   3.3929   3.6405   3.6423   3.6781   3.7010   3.8558
     3.9005   3.9437   3.9660   3.9692   3.9909

     the Fermi energy is     3.4474 ev

!    total energy              =   -2920.25691156 Ry
     estimated scf accuracy    <       0.00000006 Ry
     smearing contrib. (-TS)   =      -0.04245380 Ry
     internal energy E=F+TS    =   -2920.21445777 Ry

     The total energy is F=E-TS. E is the sum of the following terms:
     one-electron contribution =  -24061.38306823 Ry
     hartree contribution      =   12116.97413133 Ry
     xc contribution           =    -480.86209826 Ry
     ewald contribution        =    9505.05499530 Ry
     electric field correction =       0.00158209 Ry

     convergence has been achieved in  73 iterations

     Forces acting on atoms (cartesian axes, Ry/au):

     atom    1 type  1   force =    -0.00002233   -0.00019191    0.09317072
     atom    2 type  1   force =    -0.00011491   -0.00033456   -0.17842552
     atom    3 type  2   force =     0.00009146   -0.00039391   -0.02006198
     atom    4 type  2   force =     0.00004714   -0.00199819    0.05911405
     atom    5 type  2   force =    -0.01019149   -0.00081986    0.00743172
     atom    6 type  2   force =     0.01219943   -0.00042888    0.00774733
     atom    7 type  1   force =     0.00015484    0.00228178   -0.01370583
     atom    8 type  1   force =    -0.00035469   -0.00183174   -0.00452969
     atom    9 type  2   force =    -0.00034160    0.00036110   -0.00022042
     atom   10 type  2   force =    -0.00026689    0.00141366    0.00224292
     atom   11 type  2   force =    -0.00013377    0.00010387   -0.00009734
     atom   12 type  2   force =    -0.00027338   -0.00022837   -0.00061322
     atom   13 type  1   force =    -0.00048991    0.00090934   -0.00026694
     atom   14 type  1   force =    -0.00070068    0.00043383   -0.00048481
     atom   15 type  2   force =     0.00002644   -0.00013731    0.00023640
     atom   16 type  2   force =    -0.00040453   -0.00009180    0.00004058
     atom   17 type  2   force =     0.00000975   -0.00025556   -0.00028084
     atom   18 type  2   force =    -0.00034618   -0.00015917    0.00054471
     atom   19 type  1   force =    -0.00068797    0.00003099   -0.00009853
     atom   20 type  1   force =    -0.00010391   -0.00029059   -0.00076890
     atom   21 type  2   force =     0.00002537   -0.00006191    0.10397969
     atom   22 type  2   force =    -0.00057424   -0.00009255    0.00056841
     atom   23 type  2   force =    -0.07034362   -0.00014623   -0.02688902
     atom   24 type  2   force =     0.07022203    0.00029348   -0.02697318
     atom   25 type  1   force =     0.00002515   -0.00014677    0.09257033
     atom   26 type  1   force =    -0.00013937   -0.00045991   -0.17850120
     atom   27 type  2   force =     0.00015891   -0.00028313   -0.01914142
     atom   28 type  2   force =     0.00005848   -0.00176721    0.05849493
     atom   29 type  2   force =    -0.01067285   -0.00130203    0.00790015
     atom   30 type  2   force =     0.01255061   -0.00083329    0.00816608
     atom   31 type  1   force =     0.00028711    0.00601232   -0.01443126
     atom   32 type  1   force =    -0.00036533    0.00121260   -0.00500497
     atom   33 type  2   force =    -0.00004764   -0.00045459   -0.00007158
     atom   34 type  2   force =     0.00078312   -0.00258516    0.00064248
     atom   35 type  2   force =    -0.00059967   -0.00028715   -0.00011845
     atom   36 type  2   force =     0.00059544    0.00005499    0.00005453
     atom   37 type  1   force =    -0.00047354   -0.00043473    0.00002887
     atom   38 type  1   force =    -0.00026402    0.00035789   -0.00087060
     atom   39 type  2   force =    -0.00063443    0.00024083   -0.00000554
     atom   40 type  2   force =    -0.00014764   -0.00037227   -0.00055021
     atom   41 type  2   force =    -0.00101321    0.00006526    0.00020775
     atom   42 type  2   force =     0.00022949   -0.00010828    0.00030346
     atom   43 type  1   force =     0.00042736   -0.00011753   -0.00057304
     atom   44 type  1   force =     0.00044261    0.00074181   -0.00060592
     atom   45 type  2   force =     0.00003837   -0.00007521    0.10393216
     atom   46 type  2   force =    -0.07031409   -0.00009370   -0.02686967
     atom   47 type  2   force =     0.07021706    0.00034892   -0.02692482
     atom   48 type  3   force =    -0.00594045    0.00197368   -0.00366289
     atom   49 type  4   force =     0.00824370    0.00577548    0.00877424
     atom   50 type  5   force =    -0.00004266   -0.00177207   -0.00128956
     atom   51 type  5   force =     0.00175136   -0.00077646   -0.00036225
     atom   52 type  5   force =    -0.00034303    0.00056754   -0.00062828
     atom   53 type  5   force =    -0.00223719   -0.00384730   -0.00312361

     Total force =     0.366692     Total SCF correction =     0.000698
  @ DRIVER MODE: Message from server: STATUS
  @ DRIVER MODE: Message from server: GETFORCE
  @ DRIVER MODE: Returning v,forces,stress,ensemble

     Writing output data file ./calc.save/
  @ DRIVER MODE: Message from server: EXIT
  @ DRIVE MODE: Exiting

     General routines

     Parallel routines

   This run was terminated on:  19: 2:37  23Aug2021

   JOB DONE.