     Program PWSCF v.6.7GPU starts on 23Sep2021 at  2:18: 6

     R & G space division:  proc/nbgrp/npool/nimage =      10
     Reading input from /storage/home/hcoda1/3/ntian30/research/carbon/CxH_vib/H2O_calc/ads_slab/CH2NHNHO_a/out_0031/pw.inp
Warning: card &CELL ignored
Warning: card   CELL_DYNAMICS='IPI', ignored
Warning: card / ignored

     Current dimensions of program PWSCF are:
     Max number of different atomic species (ntypx) = 10
     Max number of k-points (npk) =  40000
     Max angular momentum in pseudopotentials (lmaxx) =  3
     Presently no symmetry can be used with electric field

     Message from routine cell_base_init:
     DEPRECATED: use true lattice parameter, not A to a.u. conversion factor

     IMPORTANT: XC functional enforced from input :
     Exchange-correlation= BEEF-VDW
                           (   1   4  43  14   2   0   0)
     Any further DFT definition will be discarded
     Please, verify this is what you really want

  @ DRIVER MODE: Connecting to
 qe_1139763_2937322.sched-torque.pace.gatech.edun_q3bzjy_scratch
  using UNIX socket
  @ DRIVER MODE: Message from server: STATUS
  @ DRIVER MODE: Message from server: INIT
  @ DRIVER MODE: Receiving replica           0          -1
  @ DRIVER MODE: Receiving encoded integer          25
  @ DRIVER MODE:  SCF:  T  FORCE:  T  STRESS:  F  VC:  F  ENSEMBLE:  F
  @ DRIVER MODE:  SCF:  T  FORCE:  T  STRESS:  F  VC:  F  ENSEMBLE:  F

     Using Slab Decomposition

     bravais-lattice index     =            0
     lattice parameter (alat)  =       1.8897  a.u.
     unit-cell volume          =    6658.9804 (a.u.)^3
     number of atoms/cell      =           55
     number of atomic types    =            5
     number of electrons       =       402.00
     number of Kohn-Sham states=          211
     kinetic-energy cutoff     =      29.3995  Ry
     charge density cutoff     =     293.9946  Ry
     scf convergence threshold =      7.3E-08
     mixing beta               =       0.0500
     number of iterations used =            8  plain     mixing
     Exchange-correlation= BEEF-VDW
                           (   1   4  43  14   2   0   0)

     celldm(1)=   1.889726  celldm(2)=   0.000000  celldm(3)=   0.000000
     celldm(4)=   0.000000  celldm(5)=   0.000000  celldm(6)=   0.000000

     crystal axes: (cart. coord. in units of alat)
               a(1) = (   6.579727   0.000000   0.000000 )
               a(2) = (  -0.000775   5.961596   0.000000 )
               a(3) = (   0.000000   0.000000  25.155947 )

     reciprocal axes: (cart. coord. in units 2 pi/alat)
               b(1) = (  0.151982  0.000020  0.000000 )
               b(2) = (  0.000000  0.167740  0.000000 )
               b(3) = (  0.000000  0.000000  0.039752 )

     PseudoPot. # 1 for Ti read from file:
     /storage/coda1/p-amedford6/0/shared/rich_project_chbe-medford/medford-share/data/pseudos_module/espresso/nninc/pbe/van/Ti.UPF
     MD5 check sum: 8e4df49b7f0d34bbd5052bf3f5ea0213
     Pseudo is Ultrasoft, Zval = 12.0
     Generated by new atomic code, or converted to UPF format
     Using radial grid of  851 points,  6 beta functions with:
                l(1) =   0
                l(2) =   0
                l(3) =   1
                l(4) =   1
                l(5) =   2
                l(6) =   2
     Q(r) pseudized with  8 coefficients,  rinner =    1.000   1.000   1.000
                                                       1.000   1.000

     PseudoPot. # 2 for O  read from file:
     /storage/coda1/p-amedford6/0/shared/rich_project_chbe-medford/medford-share/data/pseudos_module/espresso/nninc/pbe/van/O.UPF
     MD5 check sum: 78c19812648e8988a0fe644b0f25305e
     Pseudo is Ultrasoft, Zval =  6.0
     Generated by new atomic code, or converted to UPF format
     Using radial grid of  737 points,  4 beta functions with:
                l(1) =   0
                l(2) =   0
                l(3) =   1
                l(4) =   1
     Q(r) pseudized with  8 coefficients,  rinner =    0.800   0.800   0.800

     PseudoPot. # 3 for N  read from file:
     /storage/coda1/p-amedford6/0/shared/rich_project_chbe-medford/medford-share/data/pseudos_module/espresso/nninc/pbe/van/N.UPF
     MD5 check sum: 90d10febe142ad51ac9d5be1deb811c4
     Pseudo is Ultrasoft, Zval =  5.0
     Generated by new atomic code, or converted to UPF format
     Using radial grid of  729 points,  4 beta functions with:
                l(1) =   0
                l(2) =   0
                l(3) =   1
                l(4) =   1
     Q(r) pseudized with  8 coefficients,  rinner =    0.800   0.800   0.800

     PseudoPot. # 4 for C  read from file:
     /storage/coda1/p-amedford6/0/shared/rich_project_chbe-medford/medford-share/data/pseudos_module/espresso/nninc/pbe/van/C.UPF
     MD5 check sum: 1a69bf6b8db32088f5b2163dbdb77a27
     Pseudo is Ultrasoft, Zval =  4.0
     Generated by new atomic code, or converted to UPF format
     Using radial grid of  721 points,  4 beta functions with:
                l(1) =   0
                l(2) =   0
                l(3) =   1
                l(4) =   1
     Q(r) pseudized with  8 coefficients,  rinner =    0.800   0.800   0.800

     PseudoPot. # 5 for H  read from file:
     /storage/coda1/p-amedford6/0/shared/rich_project_chbe-medford/medford-share/data/pseudos_module/espresso/nninc/pbe/van/H.UPF
     MD5 check sum: b5ee9d7bfd3a09ee7748110bda690ff7
     Pseudo is Ultrasoft, Zval =  1.0
     Generated by new atomic code, or converted to UPF format
     Using radial grid of  615 points,  1 beta functions with:
                l(1) =   0
     Q(r) pseudized with  8 coefficients,  rinner =    0.800

     atomic species   valence    mass     pseudopotential
        Ti1           12.00    47.86700     Ti( 1.00)
        O1             6.00    15.99900     O ( 1.00)
        N1             5.00    14.00700     N ( 1.00)
        C1             4.00    12.01100     C ( 1.00)
        H1             1.00     1.00800     H ( 1.00)

     No symmetry found

   Cartesian axes

     site n.     atom                  positions (alat units)
         1           Ti1 tau(   1) = (   0.0004258   2.9801865   6.0000000  )
         2           Ti1 tau(   2) = (   3.2906075   1.4906267   6.0002472  )
         3           O1  tau(   3) = (   0.0006271   0.0005054   7.9858123  )
         4           O1  tau(   4) = (   3.2906025   0.0005020   7.3038282  )
         5           O1  tau(   5) = (   4.5942328   1.4918067   9.2879030  )
         6           O1  tau(   6) = (   1.9868534   1.4903216   9.2879459  )
         7           Ti1 tau(   7) = (   3.2907910   2.8959150   9.1758416  )
         8           Ti1 tau(   8) = (   0.0015273   1.4827037   9.2680791  )
         9           O1  tau(   9) = (   3.2865774   0.0244666  11.2672233  )
        10           O1  tau(  10) = (   0.0116148   5.9584955  10.6183126  )
        11           O1  tau(  11) = (   1.2851059   1.4881214  12.6284388  )
        12           O1  tau(  12) = (   5.2821296   1.4859116  12.6239949  )
        13           Ti1 tau(  13) = (   6.5757640   3.1226837  12.6583379  )
        14           Ti1 tau(  14) = (   3.2808560   1.5553189  12.4169499  )
        15           O1  tau(  15) = (   6.5631415   0.0020138  14.6662933  )
        16           O1  tau(  16) = (   3.2768600   5.9282172  13.8639556  )
        17           O1  tau(  17) = (   4.5247100   1.5609280  15.9911388  )
        18           O1  tau(  18) = (   2.0319249   1.5505618  16.0334288  )
        19           Ti1 tau(  19) = (   3.2655126   3.0139642  15.6417618  )
        20           Ti1 tau(  20) = (   6.4701730   1.5779936  15.7979382  )
        21           O1  tau(  21) = (   3.2904802   0.0005063   4.7018136  )
        22           O1  tau(  22) = (   6.5470303   0.0764028  17.2486596  )
        23           O1  tau(  23) = (   1.3043587   1.4918075   6.0039043  )
        24           O1  tau(  24) = (   5.2767064   1.4903225   6.0039473  )
        25           Ti1 tau(  25) = (   0.0000382   5.9609847   6.0000000  )
        26           Ti1 tau(  26) = (   3.2902200   4.4714249   6.0002472  )
        27           O1  tau(  27) = (   0.0002396   2.9813036   7.9858123  )
        28           O1  tau(  28) = (   3.2902150   2.9813002   7.3038282  )
        29           O1  tau(  29) = (   4.5938453   4.4726049   9.2879030  )
        30           O1  tau(  30) = (   1.9864658   4.4711199   9.2879459  )
        31           Ti1 tau(  31) = (   3.2891106   5.8743827   9.1763621  )
        32           Ti1 tau(  32) = (   0.0006254   4.4649316   9.2693709  )
        33           O1  tau(  33) = (   3.2856154   2.9374191  11.2445503  )
        34           O1  tau(  34) = (   0.0092240   2.9805883  10.6323155  )
        35           O1  tau(  35) = (   1.2776263   4.4762221  12.6158080  )
        36           O1  tau(  36) = (   5.2889682   4.4773653  12.6103441  )
        37           Ti1 tau(  37) = (   6.5721904   0.1276321  12.6579576  )
        38           Ti1 tau(  38) = (   3.2825792   4.6513186  12.6446142  )
        39           O1  tau(  39) = (   6.5601178   2.9984380  14.6401328  )
        40           O1  tau(  40) = (   3.2784952   3.0022753  13.8540846  )
        41           O1  tau(  41) = (   4.5130724   4.4679886  16.1105769  )
        42           O1  tau(  42) = (   2.0068779   4.4712703  16.0772645  )
        43           Ti1 tau(  43) = (   3.1879138   0.0422448  16.2953621  )
        44           Ti1 tau(  44) = (   6.5239028   4.6756254  16.1574449  )
        45           O1  tau(  45) = (   3.2900926   2.9813045   4.7018136  )
        46           O1  tau(  46) = (   1.3039711   4.4726057   6.0039043  )
        47           O1  tau(  47) = (   5.2763189   4.4711207   6.0039473  )
        48           N1  tau(  48) = (   0.1470516   2.5879757  18.5611170  )
        49           N1  tau(  49) = (   6.5778558   2.9357776  17.3215245  )
        50           C1  tau(  50) = (   0.2601206   3.3452726  19.6311682  )
        51           H1  tau(  51) = (   0.3627438   2.8498571  20.5812141  )
        52           H1  tau(  52) = (   0.2464683   4.4174571  19.5160682  )
        53           H1  tau(  53) = (   0.1672712   1.5612145  18.6921905  )
        54           O1  tau(  54) = (   3.2326362   0.0923429  18.1472848  )
        55           H1  tau(  55) = (   3.6209404   5.2806276  18.5811828  )

     number of k points=    10  Fermi-Dirac smearing, width (Ry)=  0.0073
                       cart. coord. in units 2pi/alat
        k(    1) = (   0.0000000   0.0000000   0.0000000), wk =   0.1250000
        k(    2) = (   0.0000000   0.0419351   0.0000000), wk =   0.2500000
        k(    3) = (   0.0000000  -0.0838702   0.0000000), wk =   0.1250000
        k(    4) = (   0.0379955   0.0000049   0.0000000), wk =   0.2500000
        k(    5) = (   0.0379955   0.0419400   0.0000000), wk =   0.2500000
        k(    6) = (   0.0379955  -0.0838652   0.0000000), wk =   0.2500000
        k(    7) = (   0.0379955  -0.0419301   0.0000000), wk =   0.2500000
        k(    8) = (  -0.0759910  -0.0000099   0.0000000), wk =   0.1250000
        k(    9) = (  -0.0759910   0.0419252   0.0000000), wk =   0.2500000
        k(   10) = (  -0.0759910  -0.0838800   0.0000000), wk =   0.1250000

     Initial potential from superposition of free atoms

     starting charge  385.99915, renormalised to  402.00000

     negative rho (up, down):  1.462E-02 0.000E+00

     %%%%%%%%%%%%%%%%%%%%%%%%%%%%%%%%%%%%%%%%%%%%%%%%%%%%%%%%%%%%%%%%%%%%%%%%
     %                                                                      %
     % You are using vdW-DF, which was implemented by the Thonhauser group. %
     % Please cite the following two papers that made this development      %
     % possible and the two reviews that describe the various versions:     %
     %                                                                      %
     %   T. Thonhauser et al., PRL 115, 136402 (2015).                      %
     %   T. Thonhauser et al., PRB 76, 125112 (2007).                       %
     %   K. Berland et al., Rep. Prog. Phys. 78, 066501 (2015).             %
     %   D.C. Langreth et al., J. Phys.: Condens. Matter 21, 084203 (2009). %
     %                                                                      %
     %                                                                      %
     % If you are calculating the stress with vdW-DF, please also cite:     %
     %                                                                      %
     %   R. Sabatini et al., J. Phys.: Condens. Matter 24, 424209 (2012).   %
     %                                                                      %
     %%%%%%%%%%%%%%%%%%%%%%%%%%%%%%%%%%%%%%%%%%%%%%%%%%%%%%%%%%%%%%%%%%%%%%%%

     Adding external electric field

     Computed dipole along edir(3) :
        Dipole              -11.6290 Ry au,        -29.5581 Debye
        Dipole field         -0.0219 Ry au,

        Potential amp.        2.0343 Ry
        Total length         46.3494 bohr

     Starting wfcs are  304 atomic wfcs
  @ DRIVER MODE: Message from server: STATUS
  @ DRIVER MODE: Message from server: POSDATA
  @ DRIVER MODE: Reading and sharing cell
  @ DRIVER MODE: Reading and sharing positions
  @ DRIVER MODE: Received positions

     Self-consistent Calculation

     iteration #  1     ecut=    29.40 Ry     beta= 0.05
     Davidson diagonalization with overlap
     c_bands:  3 eigenvalues not converged
     c_bands:  2 eigenvalues not converged
     c_bands:  3 eigenvalues not converged
     c_bands:  4 eigenvalues not converged
     c_bands:  1 eigenvalues not converged
     c_bands:  4 eigenvalues not converged
     c_bands:  5 eigenvalues not converged
     c_bands:  5 eigenvalues not converged
     c_bands:  5 eigenvalues not converged
     ethr =  1.00E-05,  avg # of iterations = 23.9

[...]

     total energy              =   -2412.16262444 Ry
     estimated scf accuracy    <    6293.17276161 Ry

     iteration #  2     ecut=    29.40 Ry     beta= 0.05
     Davidson diagonalization with overlap
     ethr =  1.00E-02,  avg # of iterations = 22.9

[...]

     iteration # 35     ecut=    29.40 Ry     beta= 0.05
     Davidson diagonalization with overlap
     c_bands:  1 eigenvalues not converged
     ethr =  1.52E-06,  avg # of iterations = 11.9

[...]

     total energy              =   -2972.74111304 Ry
     estimated scf accuracy    <       0.00000021 Ry

     iteration # 67     ecut=    29.40 Ry     beta= 0.05
     Davidson diagonalization with overlap
     ethr =  4.96E-11,  avg # of iterations =  6.0

     negative rho (up, down):  1.521E-02 0.000E+00

     Adding external electric field

     Computed dipole along edir(3) :
        Dipole                0.6661 Ry au,          1.6931 Debye
        Dipole field          0.0013 Ry au,

        Potential amp.       -0.1165 Ry
        Total length         46.3494 bohr

     End of self-consistent calculation

          k = 0.0000 0.0000 0.0000 ( 18029 PWs)   bands (ev):

   -56.5000 -56.4665 -55.7006 -55.6665 -55.4416 -55.3852 -55.1391 -55.1073
   -55.0884 -55.0546 -55.0339 -54.9830 -54.9794 -54.7863 -54.7540 -54.6419
   -32.9238 -32.7777 -32.7497 -32.6738 -32.5832 -32.5503 -32.1839 -31.9227
   -31.9218 -31.8919 -31.8406 -31.8361 -31.8164 -31.6708 -31.6627 -31.6155
   -31.5916 -31.5878 -31.5458 -31.5134 -31.4749 -31.4606 -31.4334 -31.4090
   -31.3727 -31.3715 -31.3680 -31.3571 -31.3052 -31.2952 -31.2724 -31.2492
   -31.2309 -31.2152 -31.2135 -31.2020 -31.1834 -31.1720 -31.1571 -31.1018
   -31.0463 -31.0258 -30.9966 -30.9851 -30.9697 -30.9187 -30.8569 -30.8322
   -18.6498 -16.6348 -16.1281 -16.0786 -15.8373 -15.7751 -15.7192 -15.7150
   -15.6696 -15.4284 -15.3908 -15.3578 -15.3139 -15.2171 -15.0870 -14.9902
   -14.7987 -14.7443 -14.7424 -14.7125 -14.6876 -14.6551 -14.6299 -14.5983
   -14.5941 -14.5611 -14.5058 -14.3339 -14.2687 -14.0595 -14.0444 -13.5861
   -13.4781 -12.4095  -8.5629  -6.0054  -4.5884  -4.2009  -3.6416  -3.6077
    -3.4301  -3.3403  -3.2493  -3.1676  -3.0724  -3.0415  -2.9621  -2.9223
    -2.9058  -2.8390  -2.8173  -2.6547  -2.6284  -2.6096  -2.5211  -2.4929
    -2.3304  -2.3062  -2.2240  -2.1509  -2.1311  -2.0739  -2.0610  -2.0007
    -1.9489  -1.9317  -1.8654  -1.8595  -1.8447  -1.7317  -1.7165  -1.6803
    -1.6326  -1.5717  -1.5614  -1.5073  -1.4226  -1.4090  -1.2760  -1.1923
    -1.1482  -1.1434  -1.1069  -1.0644  -1.0172  -0.8834  -0.8729  -0.7627
    -0.7430  -0.7411  -0.6735  -0.5771  -0.5557  -0.5231  -0.4476  -0.4111
    -0.3676  -0.3166  -0.2629  -0.1412  -0.1337  -0.1170  -0.0722  -0.0302
    -0.0150   0.0600   0.1508   0.1674   0.2727   0.2888   0.3371   0.4301
     0.5114   0.5216   0.5406   0.6022   0.6445   0.6793   0.7538   0.7727
     0.8135   0.8255   0.8746   0.9333   0.9606   1.0612   1.1087   1.1276
     1.1612   1.2094   1.2884   1.3714   1.4682   1.5098   1.5410   1.8116
     2.3278   2.7828   2.9455   3.2230   3.3344   3.6451   3.7700   3.7709
     3.7815   3.9848   4.1336

[...]

          k = 0.0380-0.0419 0.0000 ( 17876 PWs)   bands (ev):

[...]

          k =-0.0760-0.0000 0.0000 ( 17886 PWs)   bands (ev):

[...]

          k =-0.0760-0.0839 0.0000 ( 17948 PWs)   bands (ev):

   -56.4834 -56.4829 -55.6865 -55.6805 -55.4359 -55.3908 -55.1378 -55.1029
   -55.0716 -55.0712 -55.0381 -54.9822 -54.9798 -54.7876 -54.7518 -54.6440
   -32.7637 -32.7632 -32.7410 -32.7405 -32.6273 -32.6268 -32.0064 -32.0016
   -31.8813 -31.8758 -31.8708 -31.8609 -31.7431 -31.7082 -31.6641 -31.6573
   -31.6171 -31.6133 -31.4445 -31.4352 -31.4221 -31.4220 -31.3824 -31.3772
   -31.3618 -31.3537 -31.3409 -31.3216 -31.3001 -31.2932 -31.2925 -31.2744
   -31.2549 -31.2548 -31.2538 -31.2395 -31.2212 -31.1871 -31.1788 -31.1490
   -31.1338 -31.0501 -31.0064 -31.0007 -30.9862 -30.9483 -30.8713 -30.8589
   -18.6461 -16.0692 -16.0039 -16.0011 -15.9408 -15.9391 -15.7064 -15.7024
   -15.4666 -15.4384 -15.2802 -15.1870 -15.1692 -15.1073 -15.0692 -15.0171
   -14.9627 -14.9335 -14.8230 -14.7855 -14.7542 -14.7164 -14.6898 -14.6697
   -14.6094 -14.5729 -14.5492 -14.4503 -14.4262 -14.1915 -14.1835 -13.5823
   -13.5820 -12.4144  -8.5654  -6.0003  -4.5452  -3.6636  -3.3327  -3.0712
    -3.0670  -3.0614  -3.0564  -3.0148  -2.8171  -2.8135  -2.6603  -2.6269
    -2.6151  -2.5897  -2.5588  -2.4551  -2.3789  -2.3621  -2.3605  -2.3563
    -2.3071  -2.2990  -2.2478  -2.1696  -2.1065  -2.0980  -2.0638  -2.0022
    -1.9432  -1.8947  -1.8905  -1.8524  -1.8294  -1.7981  -1.7789  -1.7575
    -1.7125  -1.6288  -1.5049  -1.4292  -1.3977  -1.3806  -1.3425  -1.2955
    -1.2825  -1.2706  -1.2189  -1.2041  -1.1396  -1.1100  -1.0694  -0.9735
    -0.9136  -0.8822  -0.8576  -0.7530  -0.7140  -0.6391  -0.5942  -0.5596
    -0.5242  -0.5007  -0.4391  -0.4280  -0.3458  -0.2781  -0.2508  -0.1951
    -0.1814  -0.1694  -0.1516  -0.1068  -0.0012   0.0144   0.0478   0.1466
     0.2099   0.2822   0.3004   0.3921   0.4207   0.4917   0.6070   0.6453
     0.7143   0.7784   0.8520   0.9373   0.9853   1.0304   1.1361   1.2213
     1.2366   1.2838   1.3109   1.3160   1.3173   1.3701   1.3902   1.5181
     2.1639   3.3662   3.3679   3.4248   3.4295   3.7292   3.7344   3.8405
     3.8440   4.0939   4.1151

     the Fermi energy is     2.5940 ev

!    total energy              =   -2972.74113434 Ry
     estimated scf accuracy    <       0.00000003 Ry
     smearing contrib. (-TS)   =      -0.00419618 Ry
     internal energy E=F+TS    =   -2972.73693816 Ry

     The total energy is F=E-TS. E is the sum of the following terms:
     one-electron contribution =  -23700.02163272 Ry
     hartree contribution      =   11945.31743245 Ry
     xc contribution           =    -493.12274003 Ry
     ewald contribution        =    9275.08916481 Ry
     electric field correction =       0.00083734 Ry

     convergence has been achieved in  67 iterations

     Forces acting on atoms (cartesian axes, Ry/au):

     atom    1 type  1   force =     0.00016569   -0.00043097    0.12198562
     atom    2 type  1   force =    -0.00004212    0.00028139   -0.15639038
     atom    3 type  2   force =     0.00004735   -0.00048074   -0.06053824
     atom    4 type  2   force =     0.00005201    0.00071628    0.01972339
     atom    5 type  2   force =    -0.00084685   -0.00259675   -0.01518588
     atom    6 type  2   force =     0.00220025   -0.00198110   -0.01654467
     atom    7 type  1   force =    -0.00030161   -0.00090204    0.05417357
     atom    8 type  1   force =     0.00081932    0.00108349    0.09008987
     atom    9 type  2   force =    -0.00035854   -0.00028292    0.00007190
     atom   10 type  2   force =    -0.00296101    0.00316537   -0.05930373
     atom   11 type  2   force =    -0.00026553    0.00019062    0.00005187
     atom   12 type  2   force =    -0.00021771    0.00014032   -0.00037819
     atom   13 type  1   force =    -0.00052468    0.00040689    0.00035124
     atom   14 type  1   force =     0.00006540    0.00142782   -0.00110635
     atom   15 type  2   force =    -0.00001712   -0.00066401   -0.00145757
     atom   16 type  2   force =     0.00011907    0.00068004    0.00048742
     atom   17 type  2   force =    -0.00083058   -0.00043220   -0.00010263
     atom   18 type  2   force =     0.00044844    0.00011890   -0.00033658
     atom   19 type  1   force =     0.00000388    0.00123680   -0.00010522
     atom   20 type  1   force =     0.00012350    0.00047353    0.00030922
     atom   21 type  2   force =     0.00009270   -0.00002588    0.09828255
     atom   22 type  2   force =     0.00022712   -0.00043880    0.00030208
     atom   23 type  2   force =    -0.08163592   -0.00004864   -0.03248487
     atom   24 type  2   force =     0.08162076    0.00036901   -0.03251495
     atom   25 type  1   force =     0.00002792   -0.00029328    0.12167531
     atom   26 type  1   force =     0.00003139   -0.00154568   -0.15642703
     atom   27 type  2   force =     0.00012897    0.00021096   -0.05949955
     atom   28 type  2   force =     0.00005507    0.00039118    0.01459008
     atom   29 type  2   force =    -0.00455724    0.00217956   -0.01161714
     atom   30 type  2   force =     0.00588946    0.00262590   -0.01292531
     atom   31 type  1   force =    -0.00044052   -0.00214299    0.04017025
     atom   32 type  1   force =     0.00079048   -0.00225449    0.09111600
     atom   33 type  2   force =    -0.00012479    0.00038177    0.00008378
     atom   34 type  2   force =    -0.00235005    0.00049393   -0.06881718
     atom   35 type  2   force =    -0.00022146    0.00005625    0.00026774
     atom   36 type  2   force =     0.00059780   -0.00027013    0.00003058
     atom   37 type  1   force =    -0.00002886    0.00021067   -0.00070361
     atom   38 type  1   force =     0.00013328    0.00103279   -0.00047719
     atom   39 type  2   force =    -0.00049739   -0.00119824    0.00040261
     atom   40 type  2   force =    -0.00001385    0.00044537   -0.00013701
     atom   41 type  2   force =     0.00080777   -0.00042856    0.00001318
     atom   42 type  2   force =    -0.00055730   -0.00068168   -0.00073594
     atom   43 type  1   force =    -0.00022454   -0.00127273    0.00009362
     atom   44 type  1   force =    -0.00005213   -0.00068506    0.00051666
     atom   45 type  2   force =     0.00009568    0.00008397    0.09809046
     atom   46 type  2   force =    -0.08158949   -0.00002820   -0.03247905
     atom   47 type  2   force =     0.08157603    0.00041279   -0.03249665
     atom   48 type  3   force =    -0.00157890    0.00036026    0.00025449
     atom   49 type  3   force =     0.00007553   -0.00126516    0.00016834
     atom   50 type  4   force =     0.00051646   -0.00008400   -0.00007156
     atom   51 type  5   force =     0.00055343    0.00033411   -0.00059489
     atom   52 type  5   force =     0.00087372   -0.00102991   -0.00015673
     atom   53 type  5   force =     0.00117813    0.00097705    0.00028879
     atom   54 type  2   force =    -0.00044468    0.00101886   -0.00098257
     atom   55 type  5   force =     0.00136629   -0.00004168    0.00098007

     Total force =     0.408348     Total SCF correction =     0.000519
  @ DRIVER MODE: Message from server: STATUS
  @ DRIVER MODE: Message from server: GETFORCE
  @ DRIVER MODE: Returning v,forces,stress,ensemble

     Writing output data file ./calc.save/
  @ DRIVER MODE: Message from server: EXIT
  @ DRIVE MODE: Exiting

     General routines

     Parallel routines

   This run was terminated on:   2:36: 7  23Sep2021

   JOB DONE.