     Program PWSCF v.6.7GPU starts on 10Sep2021 at 16:59:59

     R & G space division:  proc/nbgrp/npool/nimage =      10
     Reading input from /storage/home/hcoda1/3/ntian30/research/carbon/CxH_vib/CH_calc/ads_slab/CHNHNH_a/out_0020/pw.inp
Warning: card &CELL ignored
Warning: card   CELL_DYNAMICS='IPI', ignored
Warning: card / ignored

     Current dimensions of program PWSCF are:
     Max number of different atomic species (ntypx) = 10
     Max number of k-points (npk) =  40000
     Max angular momentum in pseudopotentials (lmaxx) =  3
     Presently no symmetry can be used with electric field

     Message from routine cell_base_init:
     DEPRECATED: use true lattice parameter, not A to a.u. conversion factor

     IMPORTANT: XC functional enforced from input :
     Exchange-correlation= BEEF-VDW
                           (   1   4  43  14   2   0   0)
     Any further DFT definition will be discarded
     Please, verify this is what you really want

  @ DRIVER MODE: Connecting to
 qe_1139763_2787518.sched-torque.pace.gatech.edu1qtn3rzl_scratch
  using UNIX socket
  @ DRIVER MODE: Message from server: STATUS
  @ DRIVER MODE: Message from server: INIT
  @ DRIVER MODE: Receiving replica           0          -1
  @ DRIVER MODE: Receiving encoded integer          25
  @ DRIVER MODE:  SCF:  T  FORCE:  T  STRESS:  F  VC:  F  ENSEMBLE:  F
  @ DRIVER MODE:  SCF:  T  FORCE:  T  STRESS:  F  VC:  F  ENSEMBLE:  F

     Using Slab Decomposition

     bravais-lattice index     =            0
     lattice parameter (alat)  =       1.8897  a.u.
     unit-cell volume          =    6658.9804 (a.u.)^3
     number of atoms/cell      =           53
     number of atomic types    =            5
     number of electrons       =       395.00
     number of Kohn-Sham states=          207
     kinetic-energy cutoff     =      29.3995  Ry
     charge density cutoff     =     293.9946  Ry
     scf convergence threshold =      7.3E-08
     mixing beta               =       0.0500
     number of iterations used =            8  plain     mixing
     Exchange-correlation= BEEF-VDW
                           (   1   4  43  14   2   0   0)

     celldm(1)=   1.889726  celldm(2)=   0.000000  celldm(3)=   0.000000
     celldm(4)=   0.000000  celldm(5)=   0.000000  celldm(6)=   0.000000

     crystal axes: (cart. coord. in units of alat)
               a(1) = (   6.579727   0.000000   0.000000 )
               a(2) = (  -0.000775   5.961596   0.000000 )
               a(3) = (   0.000000   0.000000  25.155947 )

     reciprocal axes: (cart. coord. in units 2 pi/alat)
               b(1) = (  0.151982  0.000020  0.000000 )
               b(2) = (  0.000000  0.167740  0.000000 )
               b(3) = (  0.000000  0.000000  0.039752 )

     PseudoPot. # 1 for Ti read from file:
     /storage/coda1/p-amedford6/0/shared/rich_project_chbe-medford/medford-share/data/pseudos_module/espresso/nninc/pbe/van/Ti.UPF
     MD5 check sum: 8e4df49b7f0d34bbd5052bf3f5ea0213
     Pseudo is Ultrasoft, Zval = 12.0
     Generated by new atomic code, or converted to UPF format
     Using radial grid of  851 points,  6 beta functions with:
                l(1) =   0
                l(2) =   0
                l(3) =   1
                l(4) =   1
                l(5) =   2
                l(6) =   2
     Q(r) pseudized with  8 coefficients,  rinner =    1.000   1.000   1.000
                                                       1.000   1.000

     PseudoPot. # 2 for O  read from file:
     /storage/coda1/p-amedford6/0/shared/rich_project_chbe-medford/medford-share/data/pseudos_module/espresso/nninc/pbe/van/O.UPF
     MD5 check sum: 78c19812648e8988a0fe644b0f25305e
     Pseudo is Ultrasoft, Zval =  6.0
     Generated by new atomic code, or converted to UPF format
     Using radial grid of  737 points,  4 beta functions with:
                l(1) =   0
                l(2) =   0
                l(3) =   1
                l(4) =   1
     Q(r) pseudized with  8 coefficients,  rinner =    0.800   0.800   0.800

     PseudoPot. # 3 for N  read from file:
     /storage/coda1/p-amedford6/0/shared/rich_project_chbe-medford/medford-share/data/pseudos_module/espresso/nninc/pbe/van/N.UPF
     MD5 check sum: 90d10febe142ad51ac9d5be1deb811c4
     Pseudo is Ultrasoft, Zval =  5.0
     Generated by new atomic code, or converted to UPF format
     Using radial grid of  729 points,  4 beta functions with:
                l(1) =   0
                l(2) =   0
                l(3) =   1
                l(4) =   1
     Q(r) pseudized with  8 coefficients,  rinner =    0.800   0.800   0.800

     PseudoPot. # 4 for C  read from file:
     /storage/coda1/p-amedford6/0/shared/rich_project_chbe-medford/medford-share/data/pseudos_module/espresso/nninc/pbe/van/C.UPF
     MD5 check sum: 1a69bf6b8db32088f5b2163dbdb77a27
     Pseudo is Ultrasoft, Zval =  4.0
     Generated by new atomic code, or converted to UPF format
     Using radial grid of  721 points,  4 beta functions with:
                l(1) =   0
                l(2) =   0
                l(3) =   1
                l(4) =   1
     Q(r) pseudized with  8 coefficients,  rinner =    0.800   0.800   0.800

     PseudoPot. # 5 for H  read from file:
     /storage/coda1/p-amedford6/0/shared/rich_project_chbe-medford/medford-share/data/pseudos_module/espresso/nninc/pbe/van/H.UPF
     MD5 check sum: b5ee9d7bfd3a09ee7748110bda690ff7
     Pseudo is Ultrasoft, Zval =  1.0
     Generated by new atomic code, or converted to UPF format
     Using radial grid of  615 points,  1 beta functions with:
                l(1) =   0
     Q(r) pseudized with  8 coefficients,  rinner =    0.800

     atomic species   valence    mass     pseudopotential
        Ti1           12.00    47.86700     Ti( 1.00)
        O1             6.00    15.99900     O ( 1.00)
        N1             5.00    14.00700     N ( 1.00)
        C1             4.00    12.01100     C ( 1.00)
        H1             1.00     1.00800     H ( 1.00)

     No symmetry found

   Cartesian axes

     site n.     atom                  positions (alat units)
         1           Ti1 tau(   1) = (   0.0004258   2.9801865   6.0000000  )
         2           Ti1 tau(   2) = (   3.2906075   1.4906267   6.0002472  )
         3           O1  tau(   3) = (   0.0006271   0.0005054   7.9858123  )
         4           O1  tau(   4) = (   3.2906025   0.0005020   7.3038282  )
         5           O1  tau(   5) = (   4.5942328   1.4918067   9.2879030  )
         6           O1  tau(   6) = (   1.9868534   1.4903216   9.2879459  )
         7           Ti1 tau(   7) = (   3.2907910   2.8959150   9.1758416  )
         8           Ti1 tau(   8) = (   0.0015273   1.4827037   9.2680791  )
         9           O1  tau(   9) = (   3.2974950   5.9468587  11.3331085  )
        10           O1  tau(  10) = (   0.0116148   5.9584955  10.6183126  )
        11           O1  tau(  11) = (   1.3019594   1.4757037  12.6170356  )
        12           O1  tau(  12) = (   5.2841045   1.4688878  12.6073194  )
        13           Ti1 tau(  13) = (   0.0658538   3.0089988  12.6217963  )
        14           Ti1 tau(  14) = (   3.3903573   1.4765488  12.4775701  )
        15           O1  tau(  15) = (   6.5762050   0.0002902  14.6414759  )
        16           O1  tau(  16) = (   3.3078303   5.9588356  13.9306596  )
        17           O1  tau(  17) = (   4.5399328   1.5113171  16.0740780  )
        18           O1  tau(  18) = (   2.0525891   1.5105181  16.0861438  )
        19           Ti1 tau(  19) = (   3.3041007   2.9930787  15.6963055  )
        20           Ti1 tau(  20) = (   0.0280933   1.5113244  15.8467906  )
        21           O1  tau(  21) = (   3.2904802   0.0005063   4.7018136  )
        22           O1  tau(  22) = (   0.0368235   0.0128086  17.1990618  )
        23           O1  tau(  23) = (   1.3043587   1.4918075   6.0039043  )
        24           O1  tau(  24) = (   5.2767064   1.4903225   6.0039473  )
        25           Ti1 tau(  25) = (   0.0000382   5.9609847   6.0000000  )
        26           Ti1 tau(  26) = (   3.2902200   4.4714249   6.0002472  )
        27           O1  tau(  27) = (   0.0002396   2.9813036   7.9858123  )
        28           O1  tau(  28) = (   3.2902150   2.9813002   7.3038282  )
        29           O1  tau(  29) = (   4.5938453   4.4726049   9.2879030  )
        30           O1  tau(  30) = (   1.9864658   4.4711199   9.2879459  )
        31           Ti1 tau(  31) = (   3.2891106   5.8743827   9.1763621  )
        32           Ti1 tau(  32) = (   0.0006254   4.4649316   9.2693709  )
        33           O1  tau(  33) = (   3.3000731   2.9737533  11.3293525  )
        34           O1  tau(  34) = (   0.0092240   2.9805883  10.6323155  )
        35           O1  tau(  35) = (   1.3001503   4.4664650  12.6348062  )
        36           O1  tau(  36) = (   5.2875254   4.4541756  12.6228532  )
        37           Ti1 tau(  37) = (   0.0765437   0.0243871  12.5594496  )
        38           Ti1 tau(  38) = (   3.3883988   4.4566399  12.4818539  )
        39           O1  tau(  39) = (   0.0169469   2.9261715  14.6451004  )
        40           O1  tau(  40) = (   3.3035743   2.9719493  13.9037931  )
        41           O1  tau(  41) = (   4.5445893   4.4635849  16.0933648  )
        42           O1  tau(  42) = (   2.0554864   4.4706235  16.0676963  )
        43           Ti1 tau(  43) = (   3.3300396   0.0018144  15.7250798  )
        44           Ti1 tau(  44) = (   0.0441581   4.6348571  16.0952712  )
        45           O1  tau(  45) = (   3.2900926   2.9813045   4.7018136  )
        46           O1  tau(  46) = (   1.3039711   4.4726057   6.0039043  )
        47           O1  tau(  47) = (   5.2763189   4.4711207   6.0039473  )
        48           N1  tau(  48) = (   1.0252718   2.8101955  18.5330041  )
        49           N1  tau(  49) = (   6.5702222   2.9467621  17.4444712  )
        50           C1  tau(  50) = (   1.2122298   3.5280882  19.5702009  )
        51           H1  tau(  51) = (   0.5137382   4.3646449  19.6222421  )
        52           H1  tau(  52) = (   1.5845460   1.9874866  18.3412699  )
        53           H1  tau(  53) = (   5.6894004   2.9582294  17.9538253  )

     number of k points=    10  Fermi-Dirac smearing, width (Ry)=  0.0073
                       cart. coord. in units 2pi/alat
        k(    1) = (   0.0000000   0.0000000   0.0000000), wk =   0.1250000
        k(    2) = (   0.0000000   0.0419351   0.0000000), wk =   0.2500000
        k(    3) = (   0.0000000  -0.0838702   0.0000000), wk =   0.1250000
        k(    4) = (   0.0379955   0.0000049   0.0000000), wk =   0.2500000
        k(    5) = (   0.0379955   0.0419400   0.0000000), wk =   0.2500000
        k(    6) = (   0.0379955  -0.0838652   0.0000000), wk =   0.2500000
        k(    7) = (   0.0379955  -0.0419301   0.0000000), wk =   0.2500000
        k(    8) = (  -0.0759910  -0.0000099   0.0000000), wk =   0.1250000
        k(    9) = (  -0.0759910   0.0419252   0.0000000), wk =   0.2500000
        k(   10) = (  -0.0759910  -0.0838800   0.0000000), wk =   0.1250000

     Initial potential from superposition of free atoms

     starting charge  378.99916, renormalised to  395.00000

     negative rho (up, down):  1.643E-02 0.000E+00

     %%%%%%%%%%%%%%%%%%%%%%%%%%%%%%%%%%%%%%%%%%%%%%%%%%%%%%%%%%%%%%%%%%%%%%%%
     %                                                                      %
     % You are using vdW-DF, which was implemented by the Thonhauser group. %
     % Please cite the following two papers that made this development      %
     % possible and the two reviews that describe the various versions:     %
     %                                                                      %
     %   T. Thonhauser et al., PRL 115, 136402 (2015).                      %
     %   T. Thonhauser et al., PRB 76, 125112 (2007).                       %
     %   K. Berland et al., Rep. Prog. Phys. 78, 066501 (2015).             %
     %   D.C. Langreth et al., J. Phys.: Condens. Matter 21, 084203 (2009). %
     %                                                                      %
     %                                                                      %
     % If you are calculating the stress with vdW-DF, please also cite:     %
     %                                                                      %
     %   R. Sabatini et al., J. Phys.: Condens. Matter 24, 424209 (2012).   %
     %                                                                      %
     %%%%%%%%%%%%%%%%%%%%%%%%%%%%%%%%%%%%%%%%%%%%%%%%%%%%%%%%%%%%%%%%%%%%%%%%

     Adding external electric field

     Computed dipole along edir(3) :
        Dipole               -8.5017 Ry au,        -21.6093 Debye
        Dipole field         -0.0160 Ry au,

        Potential amp.        1.4872 Ry
        Total length         46.3494 bohr

     Starting wfcs are  299 atomic wfcs
  @ DRIVER MODE: Message from server: STATUS
  @ DRIVER MODE: Message from server: POSDATA
  @ DRIVER MODE: Reading and sharing cell
  @ DRIVER MODE: Reading and sharing positions
  @ DRIVER MODE: Received positions

     Self-consistent Calculation

     iteration #  1     ecut=    29.40 Ry     beta= 0.05
     Davidson diagonalization with overlap
     c_bands:  1 eigenvalues not converged
     c_bands:  1 eigenvalues not converged
     c_bands:  2 eigenvalues not converged
     c_bands:  3 eigenvalues not converged
     c_bands:  3 eigenvalues not converged
     c_bands:  1 eigenvalues not converged
     c_bands:  1 eigenvalues not converged
     ethr =  1.00E-05,  avg # of iterations = 19.2

[...]

     total energy              =   -2621.16979246 Ry
     estimated scf accuracy    <    3530.45126962 Ry

[...]

     iteration #  3     ecut=    29.40 Ry     beta= 0.05
     Davidson diagonalization with overlap
     ethr =  1.00E-02,  avg # of iterations = 14.8

[...]

     iteration # 65     ecut=    29.40 Ry     beta= 0.05
     Davidson diagonalization with overlap
     c_bands:  1 eigenvalues not converged
     c_bands:  2 eigenvalues not converged
     ethr =  1.91E-11,  avg # of iterations = 13.5

[...]

     total energy              =   -2939.04804201 Ry
     estimated scf accuracy    <       0.00000007 Ry

     iteration # 66     ecut=    29.40 Ry     beta= 0.05
     Davidson diagonalization with overlap
     ethr =  1.87E-11,  avg # of iterations =  2.8

     negative rho (up, down):  1.570E-02 0.000E+00

     Adding external electric field

     Computed dipole along edir(3) :
        Dipole                0.0446 Ry au,          0.1135 Debye
        Dipole field          0.0001 Ry au,

        Potential amp.       -0.0078 Ry
        Total length         46.3494 bohr

     End of self-consistent calculation

          k = 0.0000 0.0000 0.0000 ( 18029 PWs)   bands (ev):

   -56.2392 -56.2330 -56.2051 -56.1970 -56.1476 -56.0763 -56.0755 -56.0472
   -56.0400 -56.0132 -56.0114 -55.9778 -55.7855 -55.5208 -55.2160 -55.1820
   -32.7895 -32.7213 -32.5891 -32.5770 -32.5573 -32.5459 -32.5322 -32.5021
   -32.4816 -32.4799 -32.4541 -32.4423 -32.4142 -32.3913 -32.3857 -32.3745
   -32.3741 -32.3432 -32.3279 -32.2963 -32.2885 -32.2859 -32.2618 -32.2423
   -32.2377 -32.2346 -32.2345 -32.2217 -32.2142 -32.1982 -32.1920 -32.1901
   -32.1863 -32.1777 -32.1643 -32.1541 -32.1236 -32.0378 -31.9751 -31.7992
   -31.7825 -31.7220 -31.6231 -31.5348 -31.5123 -31.4398 -31.3533 -31.2423
   -17.3038 -16.9882 -16.7157 -16.5069 -16.3950 -16.3630 -16.2633 -16.0801
   -15.9563 -15.9261 -15.8264 -15.7991 -15.7753 -15.7644 -15.7421 -15.7323
   -15.6853 -15.6808 -15.6683 -15.6530 -15.5997 -15.5747 -15.5457 -15.4369
   -15.4303 -15.3972 -15.3714 -15.2951 -15.2887 -14.8281 -13.7187 -13.6023
   -12.7655  -8.6673  -5.3321  -4.3635  -4.2212  -4.1918  -4.1444  -4.0924
    -3.8753  -3.8124  -3.7600  -3.6237  -3.4683  -3.4267  -3.4138  -3.3977
    -3.3683  -3.1420  -3.1165  -3.0529  -3.0294  -3.0237  -3.0126  -3.0030
    -2.9821  -2.9648  -2.8923  -2.7879  -2.7148  -2.6660  -2.6182  -2.6092
    -2.5510  -2.5054  -2.5002  -2.4828  -2.4780  -2.4699  -2.4319  -2.4232
    -2.2871  -2.2261  -2.0931  -2.0566  -2.0365  -1.8887  -1.8461  -1.7513
    -1.6850  -1.6677  -1.6583  -1.6296  -1.5442  -1.5233  -1.4024  -1.3800
    -1.3396  -1.2684  -1.2547  -1.2335  -1.1308  -1.1155  -1.0104  -1.0030
    -0.9967  -0.9794  -0.9223  -0.7326  -0.7116  -0.6805  -0.6610  -0.6279
    -0.5514  -0.5210  -0.4303  -0.4177  -0.3590  -0.3389  -0.3144  -0.2647
    -0.2587  -0.2467  -0.2429  -0.2270  -0.0514   0.0100   0.0671   0.1180
     0.1335   0.2905   0.3400   0.4183   0.5037   0.7314   0.8058   0.8432
     0.8944   0.9980   1.3771   1.4227   2.4402   2.9015   2.9818   3.0318
     3.0420   3.1363   3.1426   3.3499   3.3715   3.3776   3.4412

[...]

          k = 0.0380-0.0419 0.0000 ( 17876 PWs)   bands (ev):

[...]

          k =-0.0760-0.0000 0.0000 ( 17886 PWs)   bands (ev):

[...]

          k =-0.0760-0.0839 0.0000 ( 17948 PWs)   bands (ev):

   -56.2225 -56.2216 -56.2158 -56.2141 -56.1431 -56.0806 -56.0621 -56.0533
   -56.0311 -56.0288 -55.9949 -55.9944 -55.7844 -55.5217 -55.1990 -55.1989
   -32.5945 -32.5916 -32.5369 -32.5362 -32.5256 -32.5180 -32.5171 -32.4986
   -32.4410 -32.4395 -32.4340 -32.4309 -32.4058 -32.3706 -32.3599 -32.3555
   -32.3482 -32.3443 -32.3422 -32.3419 -32.3411 -32.3341 -32.3319 -32.2839
   -32.2829 -32.2721 -32.2540 -32.2437 -32.2297 -32.2292 -32.2267 -32.2264
   -32.2099 -32.2091 -32.2013 -32.1990 -32.1293 -32.0402 -31.9703 -31.8560
   -31.7916 -31.7471 -31.5251 -31.5250 -31.4359 -31.4358 -31.3966 -31.3966
   -17.2864 -16.4390 -16.4074 -16.1811 -16.1709 -16.1562 -16.1527 -16.0154
   -15.9479 -15.9448 -15.9380 -15.9062 -15.8784 -15.8403 -15.7956 -15.7736
   -15.7730 -15.7613 -15.7545 -15.7013 -15.6961 -15.6744 -15.6675 -15.5655
   -15.5545 -15.5510 -15.4975 -15.4090 -15.2800 -15.0023 -13.7042 -13.7040
   -12.7762  -8.6727  -5.3298  -3.8871  -3.7300  -3.6928  -3.5524  -3.4108
    -3.4067  -3.3958  -3.3225  -3.1551  -3.1406  -3.1181  -3.0938  -3.0669
    -3.0668  -3.0521  -3.0465  -3.0276  -3.0037  -2.9683  -2.9293  -2.9258
    -2.9038  -2.8939  -2.8681  -2.8542  -2.8245  -2.8125  -2.7968  -2.7787
    -2.7602  -2.7447  -2.5913  -2.4714  -2.4379  -2.3755  -2.3672  -2.3477
    -2.3134  -2.3025  -2.2895  -2.2275  -2.1263  -1.9904  -1.9427  -1.9365
    -1.9041  -1.8244  -1.8121  -1.6666  -1.6525  -1.6246  -1.5865  -1.5331
    -1.5160  -1.4652  -1.4029  -1.3899  -1.3582  -1.3284  -1.2525  -1.2021
    -1.1993  -1.1820  -1.1219  -1.0343  -1.0261  -1.0090  -1.0013  -0.9514
    -0.8739  -0.8601  -0.8286  -0.7435  -0.7260  -0.6279  -0.5442  -0.3457
    -0.2599  -0.2129  -0.1667  -0.1335  -0.0302   0.0158   0.0317   0.0679
     0.0810   0.1279   0.1870   0.2935   0.3003   0.3615   0.4710   0.8081
     1.1694   1.1703   1.2424   1.2426   2.3986   3.1616   3.1701   3.2256
     3.2479   3.3985   3.4042   3.4286   3.4299   3.5501   3.5675

     the Fermi energy is     2.8963 ev

!    total energy              =   -2939.04806368 Ry
     estimated scf accuracy    <       0.00000005 Ry
     smearing contrib. (-TS)   =      -0.02297239 Ry
     internal energy E=F+TS    =   -2939.02509129 Ry

     The total energy is F=E-TS. E is the sum of the following terms:
     one-electron contribution =  -24314.88417837 Ry
     hartree contribution      =   12241.29646807 Ry
     xc contribution           =    -485.13135426 Ry
     ewald contribution        =    9619.69396952 Ry
     electric field correction =       0.00000376 Ry

     convergence has been achieved in  66 iterations

     Forces acting on atoms (cartesian axes, Ry/au):

     atom    1 type  1   force =     0.00025843   -0.00024144    0.09664877
     atom    2 type  1   force =    -0.00018348   -0.00052532   -0.17528035
     atom    3 type  2   force =    -0.00000377   -0.00007809   -0.02503983
     atom    4 type  2   force =     0.00005854   -0.00154465    0.05298037
     atom    5 type  2   force =    -0.01217449   -0.00104398    0.00343977
     atom    6 type  2   force =     0.01405388   -0.00028633    0.00273015
     atom    7 type  1   force =    -0.00095360    0.00049730   -0.01193733
     atom    8 type  1   force =     0.00044112    0.00875977    0.02923978
     atom    9 type  2   force =     0.00051187    0.00030466   -0.00017412
     atom   10 type  2   force =    -0.00090366   -0.00020262   -0.01710747
     atom   11 type  2   force =     0.00036826    0.00017905    0.00035838
     atom   12 type  2   force =    -0.00106226    0.00082328    0.00049164
     atom   13 type  1   force =     0.00146226    0.00080939   -0.00001877
     atom   14 type  1   force =    -0.00124319    0.00035727   -0.00025580
     atom   15 type  2   force =    -0.00065316    0.00073147    0.00049764
     atom   16 type  2   force =     0.00032016   -0.00036166   -0.00017476
     atom   17 type  2   force =     0.00060287    0.00019200   -0.00014521
     atom   18 type  2   force =    -0.00063129    0.00007992   -0.00023067
     atom   19 type  1   force =    -0.00006744   -0.00054754   -0.00004695
     atom   20 type  1   force =    -0.00001394   -0.00002666    0.00039607
     atom   21 type  2   force =     0.00008082   -0.00006040    0.10318960
     atom   22 type  2   force =     0.00002012    0.00161658    0.00041683
     atom   23 type  2   force =    -0.07150009   -0.00015644   -0.02775979
     atom   24 type  2   force =     0.07144864    0.00026033   -0.02775989
     atom   25 type  1   force =     0.00007925   -0.00022524    0.09650327
     atom   26 type  1   force =    -0.00013172   -0.00034021   -0.17546105
     atom   27 type  2   force =     0.00006293   -0.00023962   -0.02406802
     atom   28 type  2   force =     0.00011851   -0.00128104    0.05275062
     atom   29 type  2   force =    -0.01228527    0.00002382    0.00300351
     atom   30 type  2   force =     0.01405539    0.00040220    0.00237217
     atom   31 type  1   force =    -0.00094278    0.00316277   -0.01288408
     atom   32 type  1   force =     0.00028864   -0.01002689    0.02993274
     atom   33 type  2   force =     0.00025840   -0.00013708    0.00046918
     atom   34 type  2   force =    -0.00003293   -0.00000166   -0.02437966
     atom   35 type  2   force =    -0.00033004    0.00022364   -0.00027597
     atom   36 type  2   force =    -0.00115126    0.00054091   -0.00007211
     atom   37 type  1   force =     0.00123446   -0.00092419    0.00047732
     atom   38 type  1   force =    -0.00091677   -0.00057246   -0.00004464
     atom   39 type  2   force =    -0.00020040   -0.00059587    0.00060865
     atom   40 type  2   force =     0.00008533    0.00054373    0.00013943
     atom   41 type  2   force =    -0.00114415   -0.00008354   -0.00024402
     atom   42 type  2   force =     0.00165275   -0.00023566   -0.00020658
     atom   43 type  1   force =    -0.00051319    0.00032122   -0.00047215
     atom   44 type  1   force =    -0.00012384    0.00000415    0.00002240
     atom   45 type  2   force =     0.00005357   -0.00008570    0.10318882
     atom   46 type  2   force =    -0.07152602   -0.00015784   -0.02774759
     atom   47 type  2   force =     0.07149659    0.00034129   -0.02778590
     atom   48 type  3   force =    -0.00040026    0.00108486    0.00093395
     atom   49 type  3   force =    -0.00045910   -0.00011897   -0.00040813
     atom   50 type  4   force =     0.00628527   -0.00491315   -0.00092419
     atom   51 type  5   force =    -0.00549413    0.00611351   -0.00003562
     atom   52 type  5   force =     0.00043987   -0.00167752   -0.00046965
     atom   53 type  5   force =    -0.00069573   -0.00068132    0.00061922

     Total force =     0.368536     Total SCF correction =     0.000775
  @ DRIVER MODE: Message from server: STATUS
  @ DRIVER MODE: Message from server: GETFORCE
  @ DRIVER MODE: Returning v,forces,stress,ensemble

     Writing output data file ./calc.save/
  @ DRIVER MODE: Message from server: EXIT
  @ DRIVE MODE: Exiting

     General routines

     Parallel routines

   This run was terminated on:  17:17:38  10Sep2021

   JOB DONE.