     Program PWSCF v.6.7GPU starts on 15Sep2021 at 15:54:56

     R & G space division:  proc/nbgrp/npool/nimage =      10
     Reading input from /storage/home/hcoda1/3/ntian30/research/carbon/CxH_vib/H2O_calc/ads_slab/CH3NH2NHH2O_c/out_0001/pw.inp
Warning: card &CELL ignored
Warning: card   CELL_DYNAMICS='IPI', ignored
Warning: card / ignored

     Current dimensions of program PWSCF are:
     Max number of different atomic species (ntypx) = 10
     Max number of k-points (npk) =  40000
     Max angular momentum in pseudopotentials (lmaxx) =  3
     Presently no symmetry can be used with electric field

     Message from routine cell_base_init:
     DEPRECATED: use true lattice parameter, not A to a.u. conversion factor

     IMPORTANT: XC functional enforced from input :
     Exchange-correlation= BEEF-VDW
                           (   1   4  43  14   2   0   0)
     Any further DFT definition will be discarded
     Please, verify this is what you really want

  @ DRIVER MODE: Connecting to
 qe_1139763_2852614.sched-torque.pace.gatech.edu0noet2d2_scratch
  using UNIX socket
  @ DRIVER MODE: Message from server: STATUS
  @ DRIVER MODE: Message from server: INIT
  @ DRIVER MODE: Receiving replica           0          -1
  @ DRIVER MODE: Receiving encoded integer          25
  @ DRIVER MODE:  SCF:  T  FORCE:  T  STRESS:  F  VC:  F  ENSEMBLE:  F
  @ DRIVER MODE:  SCF:  T  FORCE:  T  STRESS:  F  VC:  F  ENSEMBLE:  F

     Using Slab Decomposition

     bravais-lattice index     =            0
     lattice parameter (alat)  =       1.8897  a.u.
     unit-cell volume          =    6658.9804 (a.u.)^3
     number of atoms/cell      =           59
     number of atomic types    =            5
     number of electrons       =       406.00
     number of Kohn-Sham states=          213
     kinetic-energy cutoff     =      29.3995  Ry
     charge density cutoff     =     293.9946  Ry
     scf convergence threshold =      7.3E-08
     mixing beta               =       0.0500
     number of iterations used =            8  plain     mixing
     Exchange-correlation= BEEF-VDW
                           (   1   4  43  14   2   0   0)

     celldm(1)=   1.889726  celldm(2)=   0.000000  celldm(3)=   0.000000
     celldm(4)=   0.000000  celldm(5)=   0.000000  celldm(6)=   0.000000

     crystal axes: (cart. coord. in units of alat)
               a(1) = (   6.579727   0.000000   0.000000 )
               a(2) = (  -0.000775   5.961596   0.000000 )
               a(3) = (   0.000000   0.000000  25.155947 )

     reciprocal axes: (cart. coord. in units 2 pi/alat)
               b(1) = (  0.151982  0.000020  0.000000 )
               b(2) = (  0.000000  0.167740  0.000000 )
               b(3) = (  0.000000  0.000000  0.039752 )

     PseudoPot. # 1 for Ti read from file:
     /storage/coda1/p-amedford6/0/shared/rich_project_chbe-medford/medford-share/data/pseudos_module/espresso/nninc/pbe/van/Ti.UPF
     MD5 check sum: 8e4df49b7f0d34bbd5052bf3f5ea0213
     Pseudo is Ultrasoft, Zval = 12.0
     Generated by new atomic code, or converted to UPF format
     Using radial grid of  851 points,  6 beta functions with:
                l(1) =   0
                l(2) =   0
                l(3) =   1
                l(4) =   1
                l(5) =   2
                l(6) =   2
     Q(r) pseudized with  8 coefficients,  rinner =    1.000   1.000   1.000
                                                       1.000   1.000

     PseudoPot. # 2 for O  read from file:
     /storage/coda1/p-amedford6/0/shared/rich_project_chbe-medford/medford-share/data/pseudos_module/espresso/nninc/pbe/van/O.UPF
     MD5 check sum: 78c19812648e8988a0fe644b0f25305e
     Pseudo is Ultrasoft, Zval =  6.0
     Generated by new atomic code, or converted to UPF format
     Using radial grid of  737 points,  4 beta functions with:
                l(1) =   0
                l(2) =   0
                l(3) =   1
                l(4) =   1
     Q(r) pseudized with  8 coefficients,  rinner =    0.800   0.800   0.800

     PseudoPot. # 3 for N  read from file:
     /storage/coda1/p-amedford6/0/shared/rich_project_chbe-medford/medford-share/data/pseudos_module/espresso/nninc/pbe/van/N.UPF
     MD5 check sum: 90d10febe142ad51ac9d5be1deb811c4
     Pseudo is Ultrasoft, Zval =  5.0
     Generated by new atomic code, or converted to UPF format
     Using radial grid of  729 points,  4 beta functions with:
                l(1) =   0
                l(2) =   0
                l(3) =   1
                l(4) =   1
     Q(r) pseudized with  8 coefficients,  rinner =    0.800   0.800   0.800

     PseudoPot. # 4 for C  read from file:
     /storage/coda1/p-amedford6/0/shared/rich_project_chbe-medford/medford-share/data/pseudos_module/espresso/nninc/pbe/van/C.UPF
     MD5 check sum: 1a69bf6b8db32088f5b2163dbdb77a27
     Pseudo is Ultrasoft, Zval =  4.0
     Generated by new atomic code, or converted to UPF format
     Using radial grid of  721 points,  4 beta functions with:
                l(1) =   0
                l(2) =   0
                l(3) =   1
                l(4) =   1
     Q(r) pseudized with  8 coefficients,  rinner =    0.800   0.800   0.800

     PseudoPot. # 5 for H  read from file:
     /storage/coda1/p-amedford6/0/shared/rich_project_chbe-medford/medford-share/data/pseudos_module/espresso/nninc/pbe/van/H.UPF
     MD5 check sum: b5ee9d7bfd3a09ee7748110bda690ff7
     Pseudo is Ultrasoft, Zval =  1.0
     Generated by new atomic code, or converted to UPF format
     Using radial grid of  615 points,  1 beta functions with:
                l(1) =   0
     Q(r) pseudized with  8 coefficients,  rinner =    0.800

     atomic species   valence    mass     pseudopotential
        Ti1           12.00    47.86700     Ti( 1.00)
        O1             6.00    15.99900     O ( 1.00)
        N1             5.00    14.00700     N ( 1.00)
        C1             4.00    12.01100     C ( 1.00)
        H1             1.00     1.00800     H ( 1.00)

     No symmetry found

   Cartesian axes

     site n.     atom                  positions (alat units)
         1           Ti1 tau(   1) = (   0.0004258   2.9801865   6.0000000  )
         2           Ti1 tau(   2) = (   3.2906075   1.4906267   6.0002472  )
         3           O1  tau(   3) = (   0.0006271   0.0005054   7.9858123  )
         4           O1  tau(   4) = (   3.2906025   0.0005020   7.3038282  )
         5           O1  tau(   5) = (   4.5942328   1.4918067   9.2879030  )
         6           O1  tau(   6) = (   1.9868534   1.4903216   9.2879459  )
         7           Ti1 tau(   7) = (   3.2907910   2.8959150   9.1758416  )
         8           Ti1 tau(   8) = (   0.0015273   1.4827037   9.2680791  )
         9           O1  tau(   9) = (   3.2795193   0.0050042  11.3600746  )
        10           O1  tau(  10) = (   0.0116148   5.9584955  10.6183126  )
        11           O1  tau(  11) = (   1.2764768   1.4833402  12.6625751  )
        12           O1  tau(  12) = (   5.2691860   1.4824858  12.6730715  )
        13           Ti1 tau(  13) = (   6.5785005   2.9712200  12.5432933  )
        14           Ti1 tau(  14) = (   3.2815129   1.4861921  12.5133659  )
        15           O1  tau(  15) = (   0.0084525   5.9333602  14.7514412  )
        16           O1  tau(  16) = (   3.2474592   5.9449689  14.0025778  )
        17           O1  tau(  17) = (   4.5272503   1.5270814  16.0535473  )
        18           O1  tau(  18) = (   2.0088677   1.5398698  16.1918835  )
        19           Ti1 tau(  19) = (   3.2695027   3.0127370  15.7044713  )
        20           Ti1 tau(  20) = (   6.4897317   1.5391078  15.7731133  )
        21           O1  tau(  21) = (   3.2904802   0.0005063   4.7018136  )
        22           O1  tau(  22) = (   6.4943121   0.0104379  17.3746616  )
        23           O1  tau(  23) = (   1.3043587   1.4918075   6.0039043  )
        24           O1  tau(  24) = (   5.2767064   1.4903225   6.0039473  )
        25           Ti1 tau(  25) = (   0.0000382   5.9609847   6.0000000  )
        26           Ti1 tau(  26) = (   3.2902200   4.4714249   6.0002472  )
        27           O1  tau(  27) = (   0.0002396   2.9813036   7.9858123  )
        28           O1  tau(  28) = (   3.2902150   2.9813002   7.3038282  )
        29           O1  tau(  29) = (   4.5938453   4.4726049   9.2879030  )
        30           O1  tau(  30) = (   1.9864658   4.4711199   9.2879459  )
        31           Ti1 tau(  31) = (   3.2891106   5.8743827   9.1763621  )
        32           Ti1 tau(  32) = (   0.0006254   4.4649316   9.2693709  )
        33           O1  tau(  33) = (   3.2806081   2.9711243  11.3509633  )
        34           O1  tau(  34) = (   0.0092240   2.9805883  10.6323155  )
        35           O1  tau(  35) = (   1.2760424   4.4718827  12.6381679  )
        36           O1  tau(  36) = (   5.2690016   4.4731519  12.6446470  )
        37           Ti1 tau(  37) = (   6.5708669   5.9382087  12.5160675  )
        38           Ti1 tau(  38) = (   3.2845625   4.4656782  12.4980923  )
        39           O1  tau(  39) = (   6.5779858   3.0049062  14.7590937  )
        40           O1  tau(  40) = (   3.2501146   3.0001303  13.9242794  )
        41           O1  tau(  41) = (   4.5300198   4.4412671  16.1793791  )
        42           O1  tau(  42) = (   2.0030354   4.4482434  16.2507355  )
        43           Ti1 tau(  43) = (   3.2558399   0.0045369  15.7947069  )
        44           Ti1 tau(  44) = (   0.0024851   4.6597080  16.1671864  )
        45           O1  tau(  45) = (   3.2900926   2.9813045   4.7018136  )
        46           O1  tau(  46) = (   1.3039711   4.4726057   6.0039043  )
        47           O1  tau(  47) = (   5.2763189   4.4711207   6.0039473  )
        48           N1  tau(  48) = (   0.8510865   2.3037131  18.4629187  )
        49           N1  tau(  49) = (   6.4642385   2.8627238  17.5618644  )
        50           C1  tau(  50) = (   1.1134797   3.0572184  19.7121060  )
        51           H1  tau(  51) = (   0.2160447   3.0254214  20.3281890  )
        52           H1  tau(  52) = (   1.9467850   2.5864873  20.2353232  )
        53           H1  tau(  53) = (   1.3463996   4.0866186  19.4485780  )
        54           H1  tau(  54) = (   0.5832711   1.3114681  18.6183785  )
        55           H1  tau(  55) = (   5.5643591   2.7461405  18.0238738  )
        56           H1  tau(  56) = (   1.7079168   2.1891883  17.8702682  )
        57           O1  tau(  57) = (   4.0734316   0.3075885  18.7765601  )
        58           H1  tau(  58) = (   4.9241673   0.1787741  18.2816895  )
        59           H1  tau(  59) = (   3.8734322   5.3936830  19.1372508  )

     number of k points=    10  Fermi-Dirac smearing, width (Ry)=  0.0073
                       cart. coord. in units 2pi/alat
        k(    1) = (   0.0000000   0.0000000   0.0000000), wk =   0.1250000
        k(    2) = (   0.0000000   0.0419351   0.0000000), wk =   0.2500000
        k(    3) = (   0.0000000  -0.0838702   0.0000000), wk =   0.1250000
        k(    4) = (   0.0379955   0.0000049   0.0000000), wk =   0.2500000
        k(    5) = (   0.0379955   0.0419400   0.0000000), wk =   0.2500000
        k(    6) = (   0.0379955  -0.0838652   0.0000000), wk =   0.2500000
        k(    7) = (   0.0379955  -0.0419301   0.0000000), wk =   0.2500000
        k(    8) = (  -0.0759910  -0.0000099   0.0000000), wk =   0.1250000
        k(    9) = (  -0.0759910   0.0419252   0.0000000), wk =   0.2500000
        k(   10) = (  -0.0759910  -0.0838800   0.0000000), wk =   0.1250000

     Initial potential from superposition of free atoms

     starting charge  389.99912, renormalised to  406.00000

     negative rho (up, down):  1.393E-02 0.000E+00

     %%%%%%%%%%%%%%%%%%%%%%%%%%%%%%%%%%%%%%%%%%%%%%%%%%%%%%%%%%%%%%%%%%%%%%%%
     %                                                                      %
     % You are using vdW-DF, which was implemented by the Thonhauser group. %
     % Please cite the following two papers that made this development      %
     % possible and the two reviews that describe the various versions:     %
     %                                                                      %
     %   T. Thonhauser et al., PRL 115, 136402 (2015).                      %
     %   T. Thonhauser et al., PRB 76, 125112 (2007).                       %
     %   K. Berland et al., Rep. Prog. Phys. 78, 066501 (2015).             %
     %   D.C. Langreth et al., J. Phys.: Condens. Matter 21, 084203 (2009). %
     %                                                                      %
     %                                                                      %
     % If you are calculating the stress with vdW-DF, please also cite:     %
     %                                                                      %
     %   R. Sabatini et al., J. Phys.: Condens. Matter 24, 424209 (2012).   %
     %                                                                      %
     %%%%%%%%%%%%%%%%%%%%%%%%%%%%%%%%%%%%%%%%%%%%%%%%%%%%%%%%%%%%%%%%%%%%%%%%

     Adding external electric field

     Computed dipole along edir(3) :
        Dipole              -15.6809 Ry au,        -39.8568 Debye
        Dipole field         -0.0296 Ry au,

        Potential amp.        2.7431 Ry
        Total length         46.3494 bohr

     Starting wfcs are  308 atomic wfcs
  @ DRIVER MODE: Message from server: STATUS
  @ DRIVER MODE: Message from server: POSDATA
  @ DRIVER MODE: Reading and sharing cell
  @ DRIVER MODE: Reading and sharing positions
  @ DRIVER MODE: Received positions

     Self-consistent Calculation

     iteration #  1     ecut=    29.40 Ry     beta= 0.05
     Davidson diagonalization with overlap
     c_bands:  2 eigenvalues not converged
     c_bands:  5 eigenvalues not converged
     c_bands:  2 eigenvalues not converged
     c_bands:  4 eigenvalues not converged
     c_bands:  4 eigenvalues not converged
     c_bands:  5 eigenvalues not converged
     c_bands:  5 eigenvalues not converged
     c_bands:  1 eigenvalues not converged
     ethr =  1.00E-05,  avg # of iterations = 22.5

[...]

     total energy              =   -2140.12919584 Ry
     estimated scf accuracy    <    9575.54327363 Ry

     iteration #  2     ecut=    29.40 Ry     beta= 0.05
     Davidson diagonalization with overlap
     ethr =  1.00E-02,  avg # of iterations = 31.6

[...]

     iteration # 66     ecut=    29.40 Ry     beta= 0.05
     Davidson diagonalization with overlap
     c_bands:  1 eigenvalues not converged
     ethr =  6.41E-11,  avg # of iterations = 11.9

[...]

     total energy              =   -2977.68471347 Ry
     estimated scf accuracy    <       0.00000017 Ry

     iteration # 67     ecut=    29.40 Ry     beta= 0.05
     Davidson diagonalization with overlap
     ethr =  4.17E-11,  avg # of iterations =  7.1

     negative rho (up, down):  1.247E-02 0.000E+00

     Adding external electric field

     Computed dipole along edir(3) :
        Dipole                1.6059 Ry au,          4.0819 Debye
        Dipole field          0.0030 Ry au,

        Potential amp.       -0.2809 Ry
        Total length         46.3494 bohr

     End of self-consistent calculation

          k = 0.0000 0.0000 0.0000 ( 18029 PWs)   bands (ev):

   -54.9547 -54.9178 -54.9153 -54.8837 -54.8443 -54.8346 -54.7944 -54.7628
   -54.7587 -54.7474 -54.7277 -54.7223 -54.7141 -54.6612 -53.9332 -53.8991
   -31.5267 -31.4079 -31.3212 -31.2823 -31.2662 -31.2522 -31.2496 -31.2443
   -31.2099 -31.2078 -31.1635 -31.1629 -31.1576 -31.1274 -31.1088 -31.0888
   -31.0785 -31.0726 -31.0708 -31.0639 -31.0294 -31.0255 -31.0193 -31.0131
   -30.9933 -30.9747 -30.9647 -30.9637 -30.9563 -30.9561 -30.9456 -30.9373
   -30.9214 -30.9207 -30.9121 -30.9114 -30.8854 -30.8783 -30.8763 -30.8761
   -30.8568 -30.8563 -30.3419 -30.2494 -30.2272 -30.1584 -30.0717 -29.9607
   -18.9856 -18.2086 -15.7900 -15.5222 -15.3970 -15.1969 -15.1433 -15.0388
   -14.8788 -14.8184 -14.7530 -14.7281 -14.7237 -14.6956 -14.6230 -14.5677
   -14.5387 -14.4859 -14.4852 -14.4495 -14.4420 -14.4375 -14.3827 -14.3787
   -14.3422 -14.3284 -14.3209 -14.1781 -14.0991 -14.0517 -14.0403 -13.2086
   -12.4358 -12.3187 -10.9630  -7.5806  -6.3927  -5.9724  -5.7512  -4.0143
    -3.8384  -3.1337  -2.9611  -2.9492  -2.8733  -2.8493  -2.6788  -2.6192
    -2.5091  -2.3930  -2.3185  -2.2212  -2.1773  -2.1590  -2.1455  -2.0309
    -1.9464  -1.9091  -1.8692  -1.8314  -1.8140  -1.7684  -1.7474  -1.7374
    -1.7047  -1.6799  -1.5263  -1.4525  -1.4164  -1.3835  -1.3413  -1.2839
    -1.2620  -1.2457  -1.2400  -1.2322  -1.2160  -1.1922  -1.1563  -1.1240
    -1.0556  -0.9711  -0.9625  -0.8511  -0.7665  -0.6337  -0.5810  -0.5236
    -0.4930  -0.4265  -0.3856  -0.3366  -0.3013  -0.2949  -0.2483  -0.1605
    -0.1475  -0.0905  -0.0721   0.0129   0.0599   0.0646   0.0758   0.2526
     0.2626   0.2806   0.3830   0.4637   0.5031   0.5197   0.5770   0.6396
     0.6416   0.6801   0.7024   0.7330   0.8158   0.9194   0.9444   0.9825
     0.9972   1.0225   1.0397   1.0663   1.1060   1.1871   1.1932   1.2702
     1.3602   1.3732   1.6368   1.6692   2.0000   2.0267   2.0894   2.2751
     2.6639   2.7113   4.1474   4.2093   4.2548   4.2803   4.2984   4.3806
     4.4012   4.6151   4.6415   4.6427   4.6517

[...]

          k = 0.0380-0.0419 0.0000 ( 17876 PWs)   bands (ev):

[...]

          k =-0.0760-0.0000 0.0000 ( 17886 PWs)   bands (ev):

[...]

          k =-0.0760-0.0839 0.0000 ( 17948 PWs)   bands (ev):

   -54.9428 -54.9269 -54.9007 -54.9007 -54.8418 -54.8250 -54.8040 -54.7562
   -54.7475 -54.7420 -54.7326 -54.7296 -54.7246 -54.6636 -53.9162 -53.9159
   -31.3354 -31.3240 -31.2581 -31.2230 -31.2229 -31.2170 -31.1932 -31.1932
   -31.1690 -31.1660 -31.1568 -31.1532 -31.1451 -31.0950 -31.0816 -31.0808
   -31.0767 -31.0753 -31.0722 -31.0694 -31.0425 -31.0322 -31.0298 -31.0234
   -31.0226 -31.0200 -31.0200 -31.0195 -30.9986 -30.9810 -30.9750 -30.9686
   -30.9618 -30.9561 -30.9545 -30.9506 -30.9503 -30.9238 -30.9162 -30.9129
   -30.9083 -30.8987 -30.2400 -30.2398 -30.1545 -30.1543 -30.1151 -30.1150
   -18.9807 -18.2092 -15.2807 -15.1539 -15.0552 -14.9995 -14.9524 -14.9369
   -14.9192 -14.8661 -14.8361 -14.7765 -14.7523 -14.7039 -14.6596 -14.6557
   -14.6283 -14.5487 -14.5333 -14.5211 -14.5135 -14.4623 -14.4483 -14.4256
   -14.4028 -14.3988 -14.3805 -14.3085 -14.2982 -14.2940 -14.2549 -13.2176
   -12.4204 -12.4201 -10.9634  -7.5919  -6.3831  -5.9717  -5.7359  -3.9930
    -3.8316  -2.5617  -2.5404  -2.4054  -2.3867  -2.2803  -2.1879  -2.1377
    -2.1318  -1.9931  -1.9601  -1.9446  -1.9291  -1.9169  -1.8682  -1.8449
    -1.8090  -1.7913  -1.7817  -1.7718  -1.7561  -1.7358  -1.6838  -1.6792
    -1.6689  -1.6546  -1.6104  -1.5947  -1.5638  -1.5530  -1.5247  -1.5021
    -1.4365  -1.3409  -1.2935  -1.2512  -1.1957  -1.1429  -1.1369  -1.0584
    -1.0404  -1.0086  -0.9776  -0.9529  -0.8578  -0.7839  -0.6892  -0.6872
    -0.6832  -0.5637  -0.5238  -0.5055  -0.4928  -0.4640  -0.3792  -0.3688
    -0.3090  -0.2347  -0.2085  -0.2035  -0.1776  -0.0581  -0.0334   0.0274
     0.0575   0.0903   0.0925   0.1714   0.1847   0.2437   0.2584   0.2718
     0.3167   0.3344   0.4325   0.5224   0.5585   0.6608   0.7532   0.7832
     0.8782   0.9362   1.0398   1.0616   1.0849   1.1810   1.1889   1.2247
     1.3540   1.3608   1.4766   1.5164   1.5263   1.5290   2.4474   2.4489
     2.5313   2.5315   4.2738   4.3965   4.4121   4.4583   4.5122   4.6540
     4.6774   4.7251   4.7265   4.8005   4.8099

     the Fermi energy is     4.1996 ev

!    total energy              =   -2977.68473999 Ry
     estimated scf accuracy    <       0.00000006 Ry
     smearing contrib. (-TS)   =      -0.03699981 Ry
     internal energy E=F+TS    =   -2977.64774018 Ry

     The total energy is F=E-TS. E is the sum of the following terms:
     one-electron contribution =  -23305.83597463 Ry
     hartree contribution      =   11753.90625349 Ry
     xc contribution           =    -496.60947951 Ry
     ewald contribution        =    9070.88659345 Ry
     electric field correction =       0.00486702 Ry

     convergence has been achieved in  67 iterations

     Forces acting on atoms (cartesian axes, Ry/au):

     atom    1 type  1   force =     0.00008820   -0.00026265    0.09413211
     atom    2 type  1   force =    -0.00008666   -0.00045337   -0.17748084
     atom    3 type  2   force =     0.00006306   -0.00033162   -0.02122810
     atom    4 type  2   force =     0.00003867   -0.00179357    0.05730767
     atom    5 type  2   force =    -0.01080672   -0.00101578    0.00668301
     atom    6 type  2   force =     0.01200693   -0.00033559    0.00503743
     atom    7 type  1   force =    -0.00060230    0.00105629   -0.01461565
     atom    8 type  1   force =     0.00086814    0.00330776    0.00461394
     atom    9 type  2   force =     0.00001096   -0.00005519    0.00014454
     atom   10 type  2   force =    -0.00368865    0.00211074   -0.00164484
     atom   11 type  2   force =    -0.00017580    0.00061720   -0.00009384
     atom   12 type  2   force =     0.00019650    0.00028324   -0.00021354
     atom   13 type  1   force =    -0.00019664   -0.00027390    0.00007085
     atom   14 type  1   force =     0.00025883   -0.00021003   -0.00039630
     atom   15 type  2   force =     0.00023042    0.00039275   -0.00005216
     atom   16 type  2   force =    -0.00013360    0.00026102   -0.00019781
     atom   17 type  2   force =    -0.00008926   -0.00031800    0.00028218
     atom   18 type  2   force =    -0.00003233    0.00025133    0.00044518
     atom   19 type  1   force =     0.00007843    0.00032542   -0.00035251
     atom   20 type  1   force =     0.00027024   -0.00023866   -0.00030288
     atom   21 type  2   force =     0.00012188   -0.00008728    0.10377369
     atom   22 type  2   force =     0.00053752   -0.00049349   -0.00098967
     atom   23 type  2   force =    -0.07064798   -0.00014524   -0.02713630
     atom   24 type  2   force =     0.07061697    0.00031797   -0.02713978
     atom   25 type  1   force =     0.00010954   -0.00016541    0.09375112
     atom   26 type  1   force =    -0.00006304   -0.00054341   -0.17769442
     atom   27 type  2   force =     0.00006917   -0.00005165   -0.02033877
     atom   28 type  2   force =     0.00006715   -0.00146126    0.05630545
     atom   29 type  2   force =    -0.01131551   -0.00039484    0.00736778
     atom   30 type  2   force =     0.01242842   -0.00000132    0.00575641
     atom   31 type  1   force =    -0.00074437    0.00573233   -0.01565391
     atom   32 type  1   force =     0.00081833   -0.00458862    0.00434924
     atom   33 type  2   force =     0.00002177    0.00015258    0.00028902
     atom   34 type  2   force =    -0.00321111   -0.00103476   -0.00518717
     atom   35 type  2   force =    -0.00011746   -0.00039836    0.00007922
     atom   36 type  2   force =     0.00021982   -0.00006927   -0.00009547
     atom   37 type  1   force =    -0.00012408    0.00043581   -0.00015582
     atom   38 type  1   force =     0.00008446    0.00014837   -0.00015114
     atom   39 type  2   force =    -0.00044755   -0.00033173   -0.00012380
     atom   40 type  2   force =     0.00012532   -0.00008920    0.00027996
     atom   41 type  2   force =    -0.00006269    0.00026229   -0.00022237
     atom   42 type  2   force =     0.00039652    0.00008055   -0.00029554
     atom   43 type  1   force =    -0.00003228   -0.00013074   -0.00006725
     atom   44 type  1   force =     0.00033027    0.00055287    0.00024724
     atom   45 type  2   force =     0.00010604   -0.00006478    0.10377000
     atom   46 type  2   force =    -0.07064214   -0.00007220   -0.02710696
     atom   47 type  2   force =     0.07061805    0.00032777   -0.02712776
     atom   48 type  3   force =     0.02177216    0.00052408   -0.00241245
     atom   49 type  3   force =    -0.00525680    0.00020953    0.00036293
     atom   50 type  4   force =    -0.00305292    0.00017462   -0.00020976
     atom   51 type  5   force =     0.00089364    0.00148947    0.00072479
     atom   52 type  5   force =    -0.00024276   -0.00029236   -0.00069107
     atom   53 type  5   force =     0.00007880   -0.00071734   -0.00085905
     atom   54 type  5   force =    -0.00237827   -0.00288609    0.00102516
     atom   55 type  5   force =    -0.00080117    0.00027200   -0.00162350
     atom   56 type  5   force =    -0.00848172    0.00024187    0.00500149
     atom   57 type  2   force =    -0.00081647    0.00078887    0.00146534
     atom   58 type  5   force =     0.00032486   -0.00064814   -0.00103568
     atom   59 type  5   force =     0.00039923   -0.00036088   -0.00036965

     Total force =     0.366693     Total SCF correction =     0.000563
  @ DRIVER MODE: Message from server: STATUS
  @ DRIVER MODE: Message from server: GETFORCE
  @ DRIVER MODE: Returning v,forces,stress,ensemble

     Writing output data file ./calc.save/
  @ DRIVER MODE: Message from server: EXIT
  @ DRIVE MODE: Exiting

     General routines

     Parallel routines

   This run was terminated on:  16:14: 7  15Sep2021

   JOB DONE.