     Program PWSCF v.6.7GPU starts on 23Sep2021 at 13:24:54

     R & G space division:  proc/nbgrp/npool/nimage =       8
     Reading input from /storage/home/hcoda1/3/ntian30/research/carbon/CxH_vib/H2O_calc/ads_slab/CH3NNHHHHO_a/out_0007/pw.inp
Warning: card &CELL ignored
Warning: card   CELL_DYNAMICS='IPI', ignored
Warning: card / ignored

     Current dimensions of program PWSCF are:
     Max number of different atomic species (ntypx) = 10
     Max number of k-points (npk) =  40000
     Max angular momentum in pseudopotentials (lmaxx) =  3
     Presently no symmetry can be used with electric field

     Message from routine cell_base_init:
     DEPRECATED: use true lattice parameter, not A to a.u. conversion factor

     IMPORTANT: XC functional enforced from input :
     Exchange-correlation= BEEF-VDW
                           (   1   4  43  14   2   0   0)
     Any further DFT definition will be discarded
     Please, verify this is what you really want

  @ DRIVER MODE: Connecting to
 qe_1139763_2947308.sched-torque.pace.gatech.edu5zb_65l9_scratch
  using UNIX socket
  @ DRIVER MODE: Message from server: STATUS
  @ DRIVER MODE: Message from server: INIT
  @ DRIVER MODE: Receiving replica           0          -1
  @ DRIVER MODE: Receiving encoded integer          25
  @ DRIVER MODE:  SCF:  T  FORCE:  T  STRESS:  F  VC:  F  ENSEMBLE:  F
  @ DRIVER MODE:  SCF:  T  FORCE:  T  STRESS:  F  VC:  F  ENSEMBLE:  F

     Using Slab Decomposition

     bravais-lattice index     =            0
     lattice parameter (alat)  =       1.8897  a.u.
     unit-cell volume          =    6658.9804 (a.u.)^3
     number of atoms/cell      =           58
     number of atomic types    =            5
     number of electrons       =       405.00
     number of Kohn-Sham states=          212
     kinetic-energy cutoff     =      29.3995  Ry
     charge density cutoff     =     293.9946  Ry
     scf convergence threshold =      7.3E-08
     mixing beta               =       0.0500
     number of iterations used =            8  plain     mixing
     Exchange-correlation= BEEF-VDW
                           (   1   4  43  14   2   0   0)

     celldm(1)=   1.889726  celldm(2)=   0.000000  celldm(3)=   0.000000
     celldm(4)=   0.000000  celldm(5)=   0.000000  celldm(6)=   0.000000

     crystal axes: (cart. coord. in units of alat)
               a(1) = (   6.579727   0.000000   0.000000 )
               a(2) = (  -0.000775   5.961596   0.000000 )
               a(3) = (   0.000000   0.000000  25.155947 )

     reciprocal axes: (cart. coord. in units 2 pi/alat)
               b(1) = (  0.151982  0.000020  0.000000 )
               b(2) = (  0.000000  0.167740  0.000000 )
               b(3) = (  0.000000  0.000000  0.039752 )

     PseudoPot. # 1 for Ti read from file:
     /storage/coda1/p-amedford6/0/shared/rich_project_chbe-medford/medford-share/data/pseudos_module/espresso/nninc/pbe/van/Ti.UPF
     MD5 check sum: 8e4df49b7f0d34bbd5052bf3f5ea0213
     Pseudo is Ultrasoft, Zval = 12.0
     Generated by new atomic code, or converted to UPF format
     Using radial grid of  851 points,  6 beta functions with:
                l(1) =   0
                l(2) =   0
                l(3) =   1
                l(4) =   1
                l(5) =   2
                l(6) =   2
     Q(r) pseudized with  8 coefficients,  rinner =    1.000   1.000   1.000
                                                       1.000   1.000

     PseudoPot. # 2 for O  read from file:
     /storage/coda1/p-amedford6/0/shared/rich_project_chbe-medford/medford-share/data/pseudos_module/espresso/nninc/pbe/van/O.UPF
     MD5 check sum: 78c19812648e8988a0fe644b0f25305e
     Pseudo is Ultrasoft, Zval =  6.0
     Generated by new atomic code, or converted to UPF format
     Using radial grid of  737 points,  4 beta functions with:
                l(1) =   0
                l(2) =   0
                l(3) =   1
                l(4) =   1
     Q(r) pseudized with  8 coefficients,  rinner =    0.800   0.800   0.800

     PseudoPot. # 3 for N  read from file:
     /storage/coda1/p-amedford6/0/shared/rich_project_chbe-medford/medford-share/data/pseudos_module/espresso/nninc/pbe/van/N.UPF
     MD5 check sum: 90d10febe142ad51ac9d5be1deb811c4
     Pseudo is Ultrasoft, Zval =  5.0
     Generated by new atomic code, or converted to UPF format
     Using radial grid of  729 points,  4 beta functions with:
                l(1) =   0
                l(2) =   0
                l(3) =   1
                l(4) =   1
     Q(r) pseudized with  8 coefficients,  rinner =    0.800   0.800   0.800

     PseudoPot. # 4 for C  read from file:
     /storage/coda1/p-amedford6/0/shared/rich_project_chbe-medford/medford-share/data/pseudos_module/espresso/nninc/pbe/van/C.UPF
     MD5 check sum: 1a69bf6b8db32088f5b2163dbdb77a27
     Pseudo is Ultrasoft, Zval =  4.0
     Generated by new atomic code, or converted to UPF format
     Using radial grid of  721 points,  4 beta functions with:
                l(1) =   0
                l(2) =   0
                l(3) =   1
                l(4) =   1
     Q(r) pseudized with  8 coefficients,  rinner =    0.800   0.800   0.800

     PseudoPot. # 5 for H  read from file:
     /storage/coda1/p-amedford6/0/shared/rich_project_chbe-medford/medford-share/data/pseudos_module/espresso/nninc/pbe/van/H.UPF
     MD5 check sum: b5ee9d7bfd3a09ee7748110bda690ff7
     Pseudo is Ultrasoft, Zval =  1.0
     Generated by new atomic code, or converted to UPF format
     Using radial grid of  615 points,  1 beta functions with:
                l(1) =   0
     Q(r) pseudized with  8 coefficients,  rinner =    0.800

     atomic species   valence    mass     pseudopotential
        Ti1           12.00    47.86700     Ti( 1.00)
        O1             6.00    15.99900     O ( 1.00)
        N1             5.00    14.00700     N ( 1.00)
        C1             4.00    12.01100     C ( 1.00)
        H1             1.00     1.00800     H ( 1.00)

     No symmetry found

   Cartesian axes

     site n.     atom                  positions (alat units)
         1           Ti1 tau(   1) = (   0.0004258   2.9801865   6.0000000  )
         2           Ti1 tau(   2) = (   3.2906075   1.4906267   6.0002472  )
         3           O1  tau(   3) = (   0.0006271   0.0005054   7.9858123  )
         4           O1  tau(   4) = (   3.2906025   0.0005020   7.3038282  )
         5           O1  tau(   5) = (   4.5942328   1.4918067   9.2879030  )
         6           O1  tau(   6) = (   1.9868534   1.4903216   9.2879459  )
         7           Ti1 tau(   7) = (   3.2907910   2.8959150   9.1758416  )
         8           Ti1 tau(   8) = (   0.0015273   1.4827037   9.2680791  )
         9           O1  tau(   9) = (   3.3066316   0.0080679  11.3583267  )
        10           O1  tau(  10) = (   0.0116148   5.9584955  10.6183126  )
        11           O1  tau(  11) = (   1.3000076   1.5005770  12.6434233  )
        12           O1  tau(  12) = (   5.3281586   1.4930334  12.6431679  )
        13           Ti1 tau(  13) = (   0.0126194   3.0144704  12.5166071  )
        14           Ti1 tau(  14) = (   3.3185830   1.5708444  12.4374219  )
        15           O1  tau(  15) = (   0.0449490   0.0685618  14.6579901  )
        16           O1  tau(  16) = (   3.3164028   5.8986079  13.9921319  )
        17           O1  tau(  17) = (   4.5763498   1.4919541  16.1892649  )
        18           O1  tau(  18) = (   2.0390356   1.5007807  16.1677599  )
        19           Ti1 tau(  19) = (   3.3152479   2.9236451  15.6986563  )
        20           Ti1 tau(  20) = (   0.0808212   1.4292116  16.0039943  )
        21           O1  tau(  21) = (   3.2904802   0.0005063   4.7018136  )
        22           O1  tau(  22) = (   0.0303022   5.8046116  17.1736243  )
        23           O1  tau(  23) = (   1.3043587   1.4918075   6.0039043  )
        24           O1  tau(  24) = (   5.2767064   1.4903225   6.0039473  )
        25           Ti1 tau(  25) = (   0.0000382   5.9609847   6.0000000  )
        26           Ti1 tau(  26) = (   3.2902200   4.4714249   6.0002472  )
        27           O1  tau(  27) = (   0.0002396   2.9813036   7.9858123  )
        28           O1  tau(  28) = (   3.2902150   2.9813002   7.3038282  )
        29           O1  tau(  29) = (   4.5938453   4.4726049   9.2879030  )
        30           O1  tau(  30) = (   1.9864658   4.4711199   9.2879459  )
        31           Ti1 tau(  31) = (   3.2891106   5.8743827   9.1763621  )
        32           Ti1 tau(  32) = (   0.0006254   4.4649316   9.2693709  )
        33           O1  tau(  33) = (   3.3101163   2.9547251  11.3177968  )
        34           O1  tau(  34) = (   0.0092240   2.9805883  10.6323155  )
        35           O1  tau(  35) = (   1.2917786   4.4638488  12.6831265  )
        36           O1  tau(  36) = (   5.3332004   4.4701953  12.6833355  )
        37           Ti1 tau(  37) = (   0.0360484   0.0435164  12.5022323  )
        38           Ti1 tau(  38) = (   3.3166134   4.6596848  12.7231989  )
        39           O1  tau(  39) = (   6.5734590   2.9070644  14.8960501  )
        40           O1  tau(  40) = (   3.3256711   2.9499323  13.9293234  )
        41           O1  tau(  41) = (   4.5718193   4.3849529  16.1598725  )
        42           O1  tau(  42) = (   2.0293811   4.3548050  16.0908550  )
        43           Ti1 tau(  43) = (   3.3839698   5.9011270  16.3477160  )
        44           Ti1 tau(  44) = (   0.0762916   4.6312412  15.8077656  )
        45           O1  tau(  45) = (   3.2900926   2.9813045   4.7018136  )
        46           O1  tau(  46) = (   1.3039711   4.4726057   6.0039043  )
        47           O1  tau(  47) = (   5.2763189   4.4711207   6.0039473  )
        48           N1  tau(  48) = (   1.0338470   3.0145746  18.8549854  )
        49           N1  tau(  49) = (   6.4514719   2.5758313  18.0922931  )
        50           C1  tau(  50) = (   0.6385090   3.7489381  20.0602371  )
        51           H1  tau(  51) = (   6.5128770   4.5633600  19.8465500  )
        52           H1  tau(  52) = (   0.1876125   3.0656416  20.7809517  )
        53           H1  tau(  53) = (   1.5398112   4.1767214  20.4987412  )
        54           H1  tau(  54) = (   5.7034478   3.2665398  18.1448723  )
        55           H1  tau(  55) = (   6.1095767   1.7263867  18.5341855  )
        56           H1  tau(  56) = (   1.5400177   3.6533120  18.2466354  )
        57           O1  tau(  57) = (   3.2295176   5.8880611  18.1942677  )
        58           H1  tau(  58) = (   2.6769533   0.6239085  18.5854980  )

     number of k points=    10  Fermi-Dirac smearing, width (Ry)=  0.0073
                       cart. coord. in units 2pi/alat
        k(    1) = (   0.0000000   0.0000000   0.0000000), wk =   0.1250000
        k(    2) = (   0.0000000   0.0419351   0.0000000), wk =   0.2500000
        k(    3) = (   0.0000000  -0.0838702   0.0000000), wk =   0.1250000
        k(    4) = (   0.0379955   0.0000049   0.0000000), wk =   0.2500000
        k(    5) = (   0.0379955   0.0419400   0.0000000), wk =   0.2500000
        k(    6) = (   0.0379955  -0.0838652   0.0000000), wk =   0.2500000
        k(    7) = (   0.0379955  -0.0419301   0.0000000), wk =   0.2500000
        k(    8) = (  -0.0759910  -0.0000099   0.0000000), wk =   0.1250000
        k(    9) = (  -0.0759910   0.0419252   0.0000000), wk =   0.2500000
        k(   10) = (  -0.0759910  -0.0838800   0.0000000), wk =   0.1250000

     Initial potential from superposition of free atoms

     starting charge  388.99913, renormalised to  405.00000

     negative rho (up, down):  1.325E-02 0.000E+00

     %%%%%%%%%%%%%%%%%%%%%%%%%%%%%%%%%%%%%%%%%%%%%%%%%%%%%%%%%%%%%%%%%%%%%%%%
     %                                                                      %
     % You are using vdW-DF, which was implemented by the Thonhauser group. %
     % Please cite the following two papers that made this development      %
     % possible and the two reviews that describe the various versions:     %
     %                                                                      %
     %   T. Thonhauser et al., PRL 115, 136402 (2015).                      %
     %   T. Thonhauser et al., PRB 76, 125112 (2007).                       %
     %   K. Berland et al., Rep. Prog. Phys. 78, 066501 (2015).             %
     %   D.C. Langreth et al., J. Phys.: Condens. Matter 21, 084203 (2009). %
     %                                                                      %
     %                                                                      %
     % If you are calculating the stress with vdW-DF, please also cite:     %
     %                                                                      %
     %   R. Sabatini et al., J. Phys.: Condens. Matter 24, 424209 (2012).   %
     %                                                                      %
     %%%%%%%%%%%%%%%%%%%%%%%%%%%%%%%%%%%%%%%%%%%%%%%%%%%%%%%%%%%%%%%%%%%%%%%%

     Adding external electric field

     Computed dipole along edir(3) :
        Dipole              -14.7651 Ry au,        -37.5293 Debye
        Dipole field         -0.0279 Ry au,

        Potential amp.        2.5829 Ry
        Total length         46.3494 bohr

     Starting wfcs are  307 atomic wfcs
  @ DRIVER MODE: Message from server: STATUS
  @ DRIVER MODE: Message from server: POSDATA
  @ DRIVER MODE: Reading and sharing cell
  @ DRIVER MODE: Reading and sharing positions
  @ DRIVER MODE: Received positions

     Self-consistent Calculation

     iteration #  1     ecut=    29.40 Ry     beta= 0.05
     Davidson diagonalization with overlap
     c_bands:  3 eigenvalues not converged
     c_bands:  4 eigenvalues not converged
     c_bands:  2 eigenvalues not converged
     c_bands:  3 eigenvalues not converged
     c_bands:  3 eigenvalues not converged
     c_bands:  3 eigenvalues not converged
     ethr =  1.00E-05,  avg # of iterations = 23.2

[...]

     total energy              =   -2204.22819044 Ry
     estimated scf accuracy    <    8785.84023393 Ry

[...]

     iteration #  3     ecut=    29.40 Ry     beta= 0.05
     Davidson diagonalization with overlap
     ethr =  1.00E-02,  avg # of iterations = 16.0

[...]

     iteration # 62     ecut=    29.40 Ry     beta= 0.05
     Davidson diagonalization with overlap
     c_bands:  1 eigenvalues not converged
     ethr =  2.93E-10,  avg # of iterations = 14.9

[...]

     total energy              =   -2976.49808062 Ry
     estimated scf accuracy    <       0.00000009 Ry

     iteration # 67     ecut=    29.40 Ry     beta= 0.05
     Davidson diagonalization with overlap
     ethr =  2.33E-11,  avg # of iterations =  9.6

     negative rho (up, down):  1.443E-02 0.000E+00

     Adding external electric field

     Computed dipole along edir(3) :
        Dipole                0.9924 Ry au,          2.5225 Debye
        Dipole field          0.0019 Ry au,

        Potential amp.       -0.1736 Ry
        Total length         46.3494 bohr

     End of self-consistent calculation

          k = 0.0000 0.0000 0.0000 ( 18029 PWs)   bands (ev):

   -55.5823 -55.4990 -55.4649 -55.3645 -55.3428 -55.3270 -55.3129 -55.3063
   -55.2932 -55.2636 -55.2199 -55.0975 -55.0873 -55.0096 -54.4679 -54.4339
   -31.9835 -31.9187 -31.8783 -31.8306 -31.8288 -31.8096 -31.7991 -31.7898
   -31.7501 -31.7449 -31.7267 -31.6516 -31.6280 -31.6073 -31.6055 -31.6036
   -31.5979 -31.5859 -31.5835 -31.5565 -31.5503 -31.5250 -31.5244 -31.5128
   -31.4975 -31.4865 -31.4786 -31.4620 -31.4572 -31.4543 -31.4446 -31.4387
   -31.4348 -31.4156 -31.3737 -31.3717 -31.3017 -31.2941 -31.2806 -31.2592
   -31.2224 -31.2150 -30.8737 -30.7881 -30.7656 -30.6912 -30.6049 -30.4930
   -17.5335 -16.4006 -16.1398 -15.9772 -15.7614 -15.6761 -15.6476 -15.4551
   -15.3497 -15.2968 -15.1107 -15.0640 -15.0337 -15.0227 -15.0073 -14.9846
   -14.9647 -14.9267 -14.9181 -14.9079 -14.9022 -14.8637 -14.8414 -14.7907
   -14.7680 -14.7054 -14.6333 -14.5656 -14.5181 -14.2575 -14.2393 -12.9995
   -12.9666 -12.8503  -9.4502  -6.1910  -5.1896  -4.6122  -3.9626  -3.5046
    -3.4036  -3.3878  -3.3330  -3.2692  -3.1721  -2.9960  -2.8875  -2.8341
    -2.7329  -2.6255  -2.5706  -2.5068  -2.4768  -2.4308  -2.3977  -2.3859
    -2.3789  -2.2830  -2.2744  -2.2474  -2.2120  -2.1560  -2.1403  -2.0627
    -2.0260  -2.0175  -1.8928  -1.8805  -1.8147  -1.8103  -1.8040  -1.7706
    -1.7495  -1.7346  -1.7053  -1.6217  -1.5689  -1.4984  -1.4760  -1.4456
    -1.1867  -1.0945  -1.0569  -1.0290  -0.9313  -0.9174  -0.9024  -0.8981
    -0.8841  -0.8343  -0.7890  -0.7038  -0.5947  -0.5740  -0.5651  -0.5201
    -0.4548  -0.3732  -0.3001  -0.2703  -0.2331  -0.2199  -0.1541  -0.0766
    -0.0601  -0.0482   0.0614   0.0744   0.1573   0.2158   0.2301   0.2754
     0.3157   0.3486   0.4052   0.4415   0.4720   0.4778   0.5111   0.5556
     0.6113   0.6418   0.6698   0.7519   0.8075   0.8529   0.8807   1.0516
     1.0807   1.1346   1.1782   1.2653   1.5082   1.5584   1.5978   1.7528
     2.1247   2.1699   3.5856   3.7367   3.7518   3.8213   3.8464   3.9375
     4.0749   4.1426   4.2749   4.2829

[...]

          k = 0.0380-0.0419 0.0000 ( 17876 PWs)   bands (ev):

[...]

          k =-0.0760-0.0000 0.0000 ( 17886 PWs)   bands (ev):

[...]

          k =-0.0760-0.0839 0.0000 ( 17948 PWs)   bands (ev):

   -55.5816 -55.4821 -55.4816 -55.3633 -55.3298 -55.3193 -55.3135 -55.3101
   -55.3097 -55.2557 -55.2279 -55.0944 -55.0884 -55.0126 -54.4510 -54.4507
   -31.8660 -31.8082 -31.8037 -31.7990 -31.7987 -31.7841 -31.7755 -31.7750
   -31.7062 -31.6502 -31.6423 -31.6349 -31.6300 -31.6168 -31.6021 -31.6019
   -31.5998 -31.5997 -31.5852 -31.5748 -31.5671 -31.5588 -31.5376 -31.5193
   -31.5166 -31.5128 -31.5055 -31.5024 -31.4903 -31.4828 -31.4804 -31.4746
   -31.4694 -31.4508 -31.4450 -31.3676 -31.3564 -31.3417 -31.3036 -31.2981
   -31.2645 -31.2184 -30.7784 -30.7782 -30.6868 -30.6863 -30.6483 -30.6479
   -17.5271 -16.3865 -15.7482 -15.5699 -15.4738 -15.4673 -15.3365 -15.2707
   -15.2619 -15.2274 -15.2087 -15.1938 -15.1606 -15.1429 -15.1038 -15.0510
   -15.0176 -14.9950 -14.9834 -14.9463 -14.9338 -14.9118 -14.9046 -14.8960
   -14.8376 -14.8056 -14.7965 -14.7657 -14.5702 -14.5487 -14.3719 -13.0010
   -12.9523 -12.9521  -9.4478  -6.1759  -5.1909  -4.6228  -3.9589  -3.1748
    -2.9224  -2.7788  -2.7027  -2.5687  -2.5586  -2.5010  -2.4880  -2.4479
    -2.4397  -2.3987  -2.3446  -2.3289  -2.2854  -2.2804  -2.2497  -2.2373
    -2.2267  -2.2174  -2.1926  -2.1729  -2.1640  -2.1231  -2.1185  -2.1026
    -2.0834  -2.0667  -2.0391  -2.0280  -1.9880  -1.9488  -1.8838  -1.8095
    -1.7237  -1.6410  -1.6305  -1.6197  -1.5732  -1.5667  -1.5200  -1.5084
    -1.4612  -1.4099  -1.2955  -1.1739  -1.1331  -1.1067  -1.0744  -1.0431
    -0.9879  -0.9650  -0.9299  -0.8817  -0.8497  -0.7260  -0.7150  -0.6495
    -0.5651  -0.5312  -0.4558  -0.4427  -0.4283  -0.4118  -0.3903  -0.3734
    -0.3438  -0.3277  -0.2236  -0.1995  -0.1964  -0.1737  -0.1228  -0.0200
     0.0532   0.1372   0.2395   0.2890   0.3170   0.3509   0.4506   0.5687
     0.5942   0.6573   0.6891   0.7321   0.7991   0.8198   0.8678   0.9525
     1.0057   1.0386   1.0645   1.0697   1.1238   1.1497   1.9214   1.9299
     1.9901   1.9904   3.7996   4.0755   4.1010   4.1170   4.1543   4.1586
     4.1803   4.1950   4.2602   4.2753

     the Fermi energy is     3.6226 ev

!    total energy              =   -2976.49812801 Ry
     estimated scf accuracy    <       0.00000006 Ry
     smearing contrib. (-TS)   =      -0.01952891 Ry
     internal energy E=F+TS    =   -2976.47859910 Ry

     The total energy is F=E-TS. E is the sum of the following terms:
     one-electron contribution =  -23034.34457826 Ry
     hartree contribution      =   11613.52841552 Ry
     xc contribution           =    -495.71066021 Ry
     ewald contribution        =    8940.04636515 Ry
     electric field correction =       0.00185869 Ry

     convergence has been achieved in  67 iterations

     Forces acting on atoms (cartesian axes, Ry/au):

     atom    1 type  1   force =     0.00001263   -0.00022517    0.09407432
     atom    2 type  1   force =    -0.00016728    0.00025640   -0.17513582
     atom    3 type  2   force =     0.00007182   -0.00016447   -0.02115597
     atom    4 type  2   force =     0.00000389   -0.00104229    0.05354115
     atom    5 type  2   force =    -0.00454270   -0.00322914    0.00114240
     atom    6 type  2   force =     0.00660135   -0.00242805    0.00160705
     atom    7 type  1   force =     0.00036769    0.00457687    0.01036756
     atom    8 type  1   force =    -0.00055718    0.00199327    0.00312722
     atom    9 type  2   force =     0.00010364   -0.00050473   -0.00049234
     atom   10 type  2   force =    -0.00030944   -0.00004455   -0.01132444
     atom   11 type  2   force =    -0.00023719    0.00045698    0.00004250
     atom   12 type  2   force =    -0.00026449    0.00067480    0.00008268
     atom   13 type  1   force =     0.00061486   -0.00065439    0.00022728
     atom   14 type  1   force =    -0.00035929    0.00017584    0.00019872
     atom   15 type  2   force =    -0.00020526    0.00010750    0.00052826
     atom   16 type  2   force =     0.00004104   -0.00001977    0.00042875
     atom   17 type  2   force =    -0.00065374    0.00010029   -0.00012395
     atom   18 type  2   force =    -0.00013524    0.00014353    0.00033947
     atom   19 type  1   force =    -0.00002987    0.00051312   -0.00031076
     atom   20 type  1   force =    -0.00030108   -0.00003243   -0.00001399
     atom   21 type  2   force =     0.00003054   -0.00001388    0.10311356
     atom   22 type  2   force =    -0.00007265   -0.00008788   -0.00025636
     atom   23 type  2   force =    -0.07212760   -0.00020608   -0.02725330
     atom   24 type  2   force =     0.07203320    0.00023754   -0.02733229
     atom   25 type  1   force =     0.00006509   -0.00034636    0.09405813
     atom   26 type  1   force =     0.00000501   -0.00128653   -0.17516305
     atom   27 type  2   force =     0.00015442   -0.00021345   -0.01993953
     atom   28 type  2   force =     0.00008692   -0.00111275    0.04905989
     atom   29 type  2   force =    -0.00667897    0.00151944    0.00212005
     atom   30 type  2   force =     0.00854658    0.00169919    0.00249224
     atom   31 type  1   force =     0.00049994   -0.00019859    0.00052382
     atom   32 type  1   force =    -0.00020487   -0.00146204    0.00352303
     atom   33 type  2   force =    -0.00007901    0.00001316   -0.00004222
     atom   34 type  2   force =    -0.00088795    0.00246406   -0.01152909
     atom   35 type  2   force =     0.00003413   -0.00043469    0.00048835
     atom   36 type  2   force =    -0.00053622   -0.00041582    0.00034294
     atom   37 type  1   force =     0.00036306    0.00027862    0.00002676
     atom   38 type  1   force =    -0.00037150    0.00020242    0.00030433
     atom   39 type  2   force =    -0.00048421    0.00043917    0.00046938
     atom   40 type  2   force =    -0.00001873   -0.00006919   -0.00005421
     atom   41 type  2   force =    -0.00036142   -0.00027733    0.00028545
     atom   42 type  2   force =    -0.00023700   -0.00025286   -0.00027225
     atom   43 type  1   force =     0.00001372   -0.00030430    0.00069929
     atom   44 type  1   force =    -0.00013399    0.00019589    0.00005275
     atom   45 type  2   force =     0.00002226   -0.00001700    0.10297365
     atom   46 type  2   force =    -0.07213609   -0.00009366   -0.02724945
     atom   47 type  2   force =     0.07199164    0.00034380   -0.02729346
     atom   48 type  3   force =    -0.00475074   -0.00284024   -0.00210961
     atom   49 type  3   force =     0.01747269   -0.00055290   -0.00061549
     atom   50 type  4   force =     0.00009428   -0.00008520   -0.00003112
     atom   51 type  5   force =    -0.00016034    0.00030983    0.00024794
     atom   52 type  5   force =    -0.00006327   -0.00076377    0.00000797
     atom   53 type  5   force =     0.00028772   -0.00049362    0.00002039
     atom   54 type  5   force =    -0.00797896    0.00606256    0.00078271
     atom   55 type  5   force =    -0.00338009   -0.00295190    0.00243378
     atom   56 type  5   force =    -0.00062204    0.00017643   -0.00116068
     atom   57 type  2   force =    -0.00020326    0.00048932   -0.00069246
     atom   58 type  5   force =    -0.00026646   -0.00060504   -0.00018191

     Total force =     0.362338     Total SCF correction =     0.000547
  @ DRIVER MODE: Message from server: STATUS
  @ DRIVER MODE: Message from server: GETFORCE
  @ DRIVER MODE: Returning v,forces,stress,ensemble

     Writing output data file ./calc.save/
  @ DRIVER MODE: Message from server: EXIT
  @ DRIVE MODE: Exiting

     General routines

     Parallel routines

   This run was terminated on:  13:48:37  23Sep2021

   JOB DONE.