     Program PWSCF v.6.7GPU starts on 11Sep2021 at  2: 9:36

     R & G space division:  proc/nbgrp/npool/nimage =      10
     Reading input from /storage/home/hcoda1/3/ntian30/research/carbon/CxH_vib/CH2_calc/ads_slab/CH2O_c/out_0024/pw.inp
Warning: card &CELL ignored
Warning: card   CELL_DYNAMICS='IPI', ignored
Warning: card / ignored

     Current dimensions of program PWSCF are:
     Max number of different atomic species (ntypx) = 10
     Max number of k-points (npk) =  40000
     Max angular momentum in pseudopotentials (lmaxx) =  3
     Presently no symmetry can be used with electric field

     Message from routine cell_base_init:
     DEPRECATED: use true lattice parameter, not A to a.u. conversion factor

     IMPORTANT: XC functional enforced from input :
     Exchange-correlation= BEEF-VDW
                           (   1   4  43  14   2   0   0)
     Any further DFT definition will be discarded
     Please, verify this is what you really want

  @ DRIVER MODE: Connecting to
 qe_1139763_2792043.sched-torque.pace.gatech.edunz_zen2r_scratch
  using UNIX socket
  @ DRIVER MODE: Message from server: STATUS
  @ DRIVER MODE: Message from server: INIT
  @ DRIVER MODE: Receiving replica           0          -1
  @ DRIVER MODE: Receiving encoded integer          25
  @ DRIVER MODE:  SCF:  T  FORCE:  T  STRESS:  F  VC:  F  ENSEMBLE:  F
  @ DRIVER MODE:  SCF:  T  FORCE:  T  STRESS:  F  VC:  F  ENSEMBLE:  F

     Using Slab Decomposition

     bravais-lattice index     =            0
     lattice parameter (alat)  =       1.8897  a.u.
     unit-cell volume          =    6658.9804 (a.u.)^3
     number of atoms/cell      =           51
     number of atomic types    =            4
     number of electrons       =       390.00
     number of Kohn-Sham states=          205
     kinetic-energy cutoff     =      29.3995  Ry
     charge density cutoff     =     293.9946  Ry
     scf convergence threshold =      7.3E-08
     mixing beta               =       0.0500
     number of iterations used =            8  plain     mixing
     Exchange-correlation= BEEF-VDW
                           (   1   4  43  14   2   0   0)

     celldm(1)=   1.889726  celldm(2)=   0.000000  celldm(3)=   0.000000
     celldm(4)=   0.000000  celldm(5)=   0.000000  celldm(6)=   0.000000

     crystal axes: (cart. coord. in units of alat)
               a(1) = (   6.579727   0.000000   0.000000 )
               a(2) = (  -0.000775   5.961596   0.000000 )
               a(3) = (   0.000000   0.000000  25.155947 )

     reciprocal axes: (cart. coord. in units 2 pi/alat)
               b(1) = (  0.151982  0.000020  0.000000 )
               b(2) = (  0.000000  0.167740  0.000000 )
               b(3) = (  0.000000  0.000000  0.039752 )

     PseudoPot. # 1 for O  read from file:
     /storage/coda1/p-amedford6/0/shared/rich_project_chbe-medford/medford-share/data/pseudos_module/espresso/nninc/pbe/van/O.UPF
     MD5 check sum: 78c19812648e8988a0fe644b0f25305e
     Pseudo is Ultrasoft, Zval =  6.0
     Generated by new atomic code, or converted to UPF format
     Using radial grid of  737 points,  4 beta functions with:
                l(1) =   0
                l(2) =   0
                l(3) =   1
                l(4) =   1
     Q(r) pseudized with  8 coefficients,  rinner =    0.800   0.800   0.800

     PseudoPot. # 2 for Ti read from file:
     /storage/coda1/p-amedford6/0/shared/rich_project_chbe-medford/medford-share/data/pseudos_module/espresso/nninc/pbe/van/Ti.UPF
     MD5 check sum: 8e4df49b7f0d34bbd5052bf3f5ea0213
     Pseudo is Ultrasoft, Zval = 12.0
     Generated by new atomic code, or converted to UPF format
     Using radial grid of  851 points,  6 beta functions with:
                l(1) =   0
                l(2) =   0
                l(3) =   1
                l(4) =   1
                l(5) =   2
                l(6) =   2
     Q(r) pseudized with  8 coefficients,  rinner =    1.000   1.000   1.000
                                                       1.000   1.000

     PseudoPot. # 3 for C  read from file:
     /storage/coda1/p-amedford6/0/shared/rich_project_chbe-medford/medford-share/data/pseudos_module/espresso/nninc/pbe/van/C.UPF
     MD5 check sum: 1a69bf6b8db32088f5b2163dbdb77a27
     Pseudo is Ultrasoft, Zval =  4.0
     Generated by new atomic code, or converted to UPF format
     Using radial grid of  721 points,  4 beta functions with:
                l(1) =   0
                l(2) =   0
                l(3) =   1
                l(4) =   1
     Q(r) pseudized with  8 coefficients,  rinner =    0.800   0.800   0.800

     PseudoPot. # 4 for H  read from file:
     /storage/coda1/p-amedford6/0/shared/rich_project_chbe-medford/medford-share/data/pseudos_module/espresso/nninc/pbe/van/H.UPF
     MD5 check sum: b5ee9d7bfd3a09ee7748110bda690ff7
     Pseudo is Ultrasoft, Zval =  1.0
     Generated by new atomic code, or converted to UPF format
     Using radial grid of  615 points,  1 beta functions with:
                l(1) =   0
     Q(r) pseudized with  8 coefficients,  rinner =    0.800

     atomic species   valence    mass     pseudopotential
        O1             6.00    15.99900     O ( 1.00)
        Ti1           12.00    47.86700     Ti( 1.00)
        C1             4.00    12.01100     C ( 1.00)
        H1             1.00     1.00800     H ( 1.00)

     No symmetry found

   Cartesian axes

     site n.     atom                  positions (alat units)
         1           O1  tau(   1) = (   3.2904802   0.0005063   4.7018136  )
         2           O1  tau(   2) = (   3.2900926   2.9813045   4.7018136  )
         3           Ti1 tau(   3) = (   0.0004258   2.9801865   6.0000000  )
         4           Ti1 tau(   4) = (   0.0000382   5.9609847   6.0000000  )
         5           Ti1 tau(   5) = (   3.2906075   1.4906267   6.0002472  )
         6           Ti1 tau(   6) = (   3.2902200   4.4714249   6.0002472  )
         7           O1  tau(   7) = (   1.3043587   1.4918075   6.0039043  )
         8           O1  tau(   8) = (   1.3039711   4.4726057   6.0039043  )
         9           O1  tau(   9) = (   5.2767064   1.4903225   6.0039473  )
        10           O1  tau(  10) = (   5.2763189   4.4711207   6.0039473  )
        11           O1  tau(  11) = (   3.2906025   0.0005020   7.3038282  )
        12           O1  tau(  12) = (   3.2902150   2.9813002   7.3038282  )
        13           O1  tau(  13) = (   0.0006271   0.0005054   7.9858123  )
        14           O1  tau(  14) = (   0.0002396   2.9813036   7.9858123  )
        15           Ti1 tau(  15) = (   3.3026304   0.0558743   9.1529855  )
        16           Ti1 tau(  16) = (   3.3164045   3.0327615   9.1572159  )
        17           Ti1 tau(  17) = (   0.0278175   4.5359734   9.2551557  )
        18           Ti1 tau(  18) = (   0.0245227   1.6138560   9.3625275  )
        19           O1  tau(  19) = (   4.5942328   1.4918067   9.2879030  )
        20           O1  tau(  20) = (   4.5938453   4.4726049   9.2879030  )
        21           O1  tau(  21) = (   1.9868534   1.4903216   9.2879459  )
        22           O1  tau(  22) = (   1.9864658   4.4711199   9.2879459  )
        23           O1  tau(  23) = (   0.0082563   0.0105963  10.6032901  )
        24           O1  tau(  24) = (   0.0079484   2.9900140  10.5841352  )
        25           O1  tau(  25) = (   3.3038251   2.9929121  11.3473413  )
        26           O1  tau(  26) = (   3.3033308   0.0102956  11.3494618  )
        27           Ti1 tau(  27) = (   0.0317432   0.0173395  12.5007832  )
        28           Ti1 tau(  28) = (   3.3306627   4.4867663  12.4909107  )
        29           Ti1 tau(  29) = (   3.3307827   1.5098530  12.4883691  )
        30           Ti1 tau(  30) = (   0.0330478   2.9976760  12.7859357  )
        31           O1  tau(  31) = (   1.3012438   4.4818129  12.6408784  )
        32           O1  tau(  32) = (   1.3024292   1.5014896  12.6394904  )
        33           O1  tau(  33) = (   5.3013637   4.4812751  12.6442516  )
        34           O1  tau(  34) = (   5.3009141   1.5012301  12.6421300  )
        35           O1  tau(  35) = (   3.3022887   2.9886358  13.9251823  )
        36           O1  tau(  36) = (   3.3062039   0.0095056  13.9482717  )
        37           O1  tau(  37) = (   0.0260699   0.0177473  14.6866479  )
        38           O1  tau(  38) = (   0.0273203   2.9953000  14.7270975  )
        39           Ti1 tau(  39) = (   3.3120190   2.9903054  15.7171600  )
        40           Ti1 tau(  40) = (   3.3230935   0.0106652  15.7391692  )
        41           Ti1 tau(  41) = (   0.0328368   4.5824378  15.9539421  )
        42           Ti1 tau(  42) = (   0.0326753   1.3890416  16.0019494  )
        43           O1  tau(  43) = (   4.5622593   4.4711273  16.0916796  )
        44           O1  tau(  44) = (   4.5612194   1.5125715  16.1009491  )
        45           O1  tau(  45) = (   2.0595944   1.5153445  16.1103626  )
        46           O1  tau(  46) = (   2.0577381   4.4687033  16.1006481  )
        47           O1  tau(  47) = (   0.0167757   0.0040543  17.2075325  )
        48           O1  tau(  48) = (   6.5679879   3.0050237  17.4360139  )
        49           C1  tau(  49) = (   6.3840651   3.0748419  18.6981053  )
        50           H1  tau(  50) = (   6.3009919   4.0539401  19.1613311  )
        51           H1  tau(  51) = (   6.3054763   2.1576074  19.2839789  )

     number of k points=    10  Fermi-Dirac smearing, width (Ry)=  0.0073
                       cart. coord. in units 2pi/alat
        k(    1) = (   0.0000000   0.0000000   0.0000000), wk =   0.1250000
        k(    2) = (   0.0000000   0.0419351   0.0000000), wk =   0.2500000
        k(    3) = (   0.0000000  -0.0838702   0.0000000), wk =   0.1250000
        k(    4) = (   0.0379955   0.0000049   0.0000000), wk =   0.2500000
        k(    5) = (   0.0379955   0.0419400   0.0000000), wk =   0.2500000
        k(    6) = (   0.0379955  -0.0838652   0.0000000), wk =   0.2500000
        k(    7) = (   0.0379955  -0.0419301   0.0000000), wk =   0.2500000
        k(    8) = (  -0.0759910  -0.0000099   0.0000000), wk =   0.1250000
        k(    9) = (  -0.0759910   0.0419252   0.0000000), wk =   0.2500000
        k(   10) = (  -0.0759910  -0.0838800   0.0000000), wk =   0.1250000

     Initial potential from superposition of free atoms

     starting charge  373.99919, renormalised to  390.00000

     negative rho (up, down):  1.844E-02 0.000E+00

     %%%%%%%%%%%%%%%%%%%%%%%%%%%%%%%%%%%%%%%%%%%%%%%%%%%%%%%%%%%%%%%%%%%%%%%%
     %                                                                      %
     % You are using vdW-DF, which was implemented by the Thonhauser group. %
     % Please cite the following two papers that made this development      %
     % possible and the two reviews that describe the various versions:     %
     %                                                                      %
     %   T. Thonhauser et al., PRL 115, 136402 (2015).                      %
     %   T. Thonhauser et al., PRB 76, 125112 (2007).                       %
     %   K. Berland et al., Rep. Prog. Phys. 78, 066501 (2015).             %
     %   D.C. Langreth et al., J. Phys.: Condens. Matter 21, 084203 (2009). %
     %                                                                      %
     %                                                                      %
     % If you are calculating the stress with vdW-DF, please also cite:     %
     %                                                                      %
     %   R. Sabatini et al., J. Phys.: Condens. Matter 24, 424209 (2012).   %
     %                                                                      %
     %%%%%%%%%%%%%%%%%%%%%%%%%%%%%%%%%%%%%%%%%%%%%%%%%%%%%%%%%%%%%%%%%%%%%%%%

     Adding external electric field

     Computed dipole along edir(3) :
        Dipole               -5.1811 Ry au,        -13.1689 Debye
        Dipole field         -0.0098 Ry au,

        Potential amp.        0.9063 Ry
        Total length         46.3494 bohr

     Starting wfcs are  294 atomic wfcs
  @ DRIVER MODE: Message from server: STATUS
  @ DRIVER MODE: Message from server: POSDATA
  @ DRIVER MODE: Reading and sharing cell
  @ DRIVER MODE: Reading and sharing positions
  @ DRIVER MODE: Received positions

     Self-consistent Calculation

     iteration #  1     ecut=    29.40 Ry     beta= 0.05
     Davidson diagonalization with overlap
     c_bands:  5 eigenvalues not converged
     c_bands:  4 eigenvalues not converged
     c_bands:  2 eigenvalues not converged
     c_bands:  1 eigenvalues not converged
     c_bands:  2 eigenvalues not converged
     c_bands:  5 eigenvalues not converged
     c_bands:  2 eigenvalues not converged
     c_bands:  3 eigenvalues not converged
     c_bands:  2 eigenvalues not converged
     ethr =  1.00E-05,  avg # of iterations = 20.9

[...]

     total energy              =   -2823.03241668 Ry
     estimated scf accuracy    <    1181.81608699 Ry

     iteration #  2     ecut=    29.40 Ry     beta= 0.05
     Davidson diagonalization with overlap
     ethr =  1.00E-02,  avg # of iterations = 16.5

[...]

     iteration # 70     ecut=    29.40 Ry     beta= 0.05
     Davidson diagonalization with overlap
     ethr =  3.49E-11,  avg # of iterations = 10.6

[...]

     total energy              =   -2930.16721008 Ry
     estimated scf accuracy    <       0.00000009 Ry

     iteration # 71     ecut=    29.40 Ry     beta= 0.05
     Davidson diagonalization with overlap
     c_bands:  1 eigenvalues not converged
     ethr =  2.39E-11,  avg # of iterations = 12.5

     negative rho (up, down):  1.726E-02 0.000E+00

     Adding external electric field

     Computed dipole along edir(3) :
        Dipole                0.9328 Ry au,          2.3709 Debye
        Dipole field          0.0018 Ry au,

        Potential amp.       -0.1632 Ry
        Total length         46.3494 bohr

     End of self-consistent calculation

          k = 0.0000 0.0000 0.0000 ( 18029 PWs)   bands (ev):

   -55.8203 -55.8086 -55.7840 -55.7724 -55.7109 -55.6964 -55.6739 -55.6014
   -55.6004 -55.5890 -55.5791 -55.5554 -55.5243 -55.4862 -54.8467 -54.8126
   -32.3782 -32.2928 -32.1872 -32.1707 -32.1261 -32.1217 -32.1149 -32.0961
   -32.0684 -32.0516 -32.0493 -32.0231 -31.9932 -31.9902 -31.9789 -31.9568
   -31.9407 -31.9404 -31.9308 -31.9146 -31.8923 -31.8858 -31.8835 -31.8714
   -31.8628 -31.8452 -31.8434 -31.8202 -31.8148 -31.8144 -31.7890 -31.7615
   -31.7559 -31.7332 -31.7329 -31.7298 -31.7083 -31.7081 -31.6939 -31.6774
   -31.6750 -31.6744 -31.2568 -31.1590 -31.1368 -31.0735 -30.9874 -30.8762
   -19.8421 -16.5900 -16.2961 -16.1498 -16.0159 -15.9667 -15.8513 -15.6939
   -15.6150 -15.5486 -15.4930 -15.4406 -15.4033 -15.4019 -15.3725 -15.3591
   -15.3537 -15.3461 -15.2718 -15.2698 -15.2355 -15.2175 -15.2068 -15.1176
   -15.0569 -14.9967 -14.9506 -14.8919 -14.8387 -14.8250 -13.3476 -13.2292
    -9.2876  -5.5304  -5.5113  -3.9390  -3.7624  -3.7233  -3.7075  -3.6505
    -3.5304  -3.4227  -3.3954  -3.1051  -3.0176  -2.9877  -2.9770  -2.9642
    -2.8221  -2.7785  -2.6646  -2.6616  -2.6500  -2.6453  -2.6251  -2.5899
    -2.5825  -2.5384  -2.5159  -2.4068  -2.3669  -2.2573  -2.2436  -2.2144
    -2.1556  -2.1308  -2.0999  -2.0863  -2.0572  -2.0530  -2.0507  -2.0058
    -1.9052  -1.8173  -1.7492  -1.6678  -1.6295  -1.5375  -1.3783  -1.3091
    -1.2681  -1.2334  -1.1837  -1.1646  -1.1343  -1.1123  -1.0893  -1.0791
    -0.9834  -0.8712  -0.8611  -0.7626  -0.7021  -0.6832  -0.6685  -0.5778
    -0.5592  -0.5484  -0.4549  -0.3133  -0.3035  -0.2995  -0.1808  -0.1499
    -0.1269  -0.0818  -0.0570  -0.0224   0.0083   0.0631   0.1077   0.1182
     0.1648   0.1828   0.2081   0.3096   0.3620   0.3738   0.4277   0.4647
     0.6463   0.6666   0.8077   0.8735   1.0796   1.1777   1.2334   1.3466
     1.7654   1.8232   3.3451   3.3767   3.4016   3.4514   3.4976   3.5394
     3.5924   3.7877   3.8049   3.8137   3.8386

[...]

          k = 0.0380-0.0419 0.0000 ( 17876 PWs)   bands (ev):

[...]

          k =-0.0760-0.0000 0.0000 ( 17886 PWs)   bands (ev):

[...]

          k =-0.0760-0.0839 0.0000 ( 17948 PWs)   bands (ev):

   -55.8085 -55.7956 -55.7907 -55.7900 -55.7012 -55.6931 -55.6835 -55.6045
   -55.5971 -55.5749 -55.5729 -55.5699 -55.5304 -55.4887 -54.8302 -54.8290
   -32.1796 -32.1793 -32.1163 -32.1027 -32.1012 -32.0957 -32.0814 -32.0763
   -32.0616 -32.0327 -32.0245 -32.0100 -31.9935 -31.9568 -31.9459 -31.9371
   -31.9354 -31.9329 -31.9247 -31.9210 -31.9039 -31.9011 -31.8973 -31.8963
   -31.8935 -31.8902 -31.8785 -31.8560 -31.8281 -31.8273 -31.8268 -31.8048
   -31.8003 -31.7827 -31.7793 -31.7733 -31.7701 -31.7690 -31.7427 -31.7159
   -31.7086 -31.6838 -31.1502 -31.1487 -31.0702 -31.0692 -31.0310 -31.0299
   -19.8343 -16.0220 -15.9914 -15.8748 -15.7617 -15.7487 -15.7062 -15.6632
   -15.6153 -15.5570 -15.5541 -15.5058 -15.4867 -15.4828 -15.4381 -15.4054
   -15.3573 -15.3512 -15.3402 -15.3390 -15.2854 -15.2818 -15.2351 -15.2277
   -15.2070 -15.1680 -15.1646 -15.0943 -15.0592 -15.0039 -13.3315 -13.3293
    -9.2886  -5.5067  -5.4948  -3.5568  -3.3107  -3.2773  -3.1075  -2.9793
    -2.9696  -2.9114  -2.8273  -2.7901  -2.7452  -2.6954  -2.6922  -2.6705
    -2.6581  -2.6441  -2.6403  -2.6321  -2.5865  -2.5668  -2.5252  -2.4813
    -2.4737  -2.4604  -2.4546  -2.4145  -2.3986  -2.3869  -2.3797  -2.3738
    -2.3025  -2.2263  -2.1549  -2.0798  -2.0268  -2.0067  -1.9758  -1.9412
    -1.9063  -1.8892  -1.8723  -1.7479  -1.7251  -1.5765  -1.5608  -1.5379
    -1.5289  -1.4747  -1.4684  -1.3470  -1.2704  -1.2644  -1.1927  -1.1748
    -1.1462  -1.0976  -1.0752  -0.9955  -0.9530  -0.9103  -0.8562  -0.7959
    -0.7841  -0.7179  -0.7075  -0.6269  -0.6062  -0.5850  -0.5802  -0.5097
    -0.4758  -0.3964  -0.3854  -0.3626  -0.2616  -0.1966  -0.1915   0.0035
     0.1750   0.1801   0.2000   0.2995   0.3302   0.3732   0.4293   0.4445
     0.5312   0.5859   0.6769   0.6970   0.7058   0.7866   1.5364   1.5375
     1.6286   1.6391   3.2994   3.5642   3.6012   3.6052   3.6657   3.8189
     3.8219   3.8391   3.8484   3.9730   3.9809

     the Fermi energy is     3.3303 ev

!    total energy              =   -2930.16724310 Ry
     estimated scf accuracy    <       0.00000005 Ry
     smearing contrib. (-TS)   =      -0.03343122 Ry
     internal energy E=F+TS    =   -2930.13381187 Ry

     The total energy is F=E-TS. E is the sum of the following terms:
     one-electron contribution =  -24667.63099509 Ry
     hartree contribution      =   12419.26386840 Ry
     xc contribution           =    -481.26489305 Ry
     ewald contribution        =    9799.49656585 Ry
     electric field correction =       0.00164202 Ry

     convergence has been achieved in  71 iterations

     Forces acting on atoms (cartesian axes, Ry/au):

     atom    1 type  1   force =    -0.00009969    0.00004900    0.10426631
     atom    2 type  1   force =    -0.00009445    0.00005183    0.10431698
     atom    3 type  2   force =    -0.00025137   -0.00195808    0.10280981
     atom    4 type  2   force =    -0.00015229    0.00160051    0.11371598
     atom    5 type  2   force =    -0.00032706    0.00058443   -0.18041258
     atom    6 type  2   force =    -0.00019878   -0.00013714   -0.18076765
     atom    7 type  1   force =    -0.06897644    0.00062758   -0.02908473
     atom    8 type  1   force =    -0.06849936   -0.00120333   -0.02913089
     atom    9 type  1   force =     0.06861267    0.00111496   -0.02916517
     atom   10 type  1   force =     0.06823173   -0.00080746   -0.02921859
     atom   11 type  1   force =     0.00037662    0.00051288    0.04558382
     atom   12 type  1   force =     0.00056942    0.00076124    0.04711896
     atom   13 type  1   force =     0.00028277   -0.00577292   -0.03305390
     atom   14 type  1   force =     0.00033428    0.00397705   -0.02583224
     atom   15 type  2   force =     0.00003331   -0.00027342    0.00028933
     atom   16 type  2   force =     0.00013309    0.00012356   -0.00005563
     atom   17 type  2   force =    -0.00021858   -0.00067135    0.00129633
     atom   18 type  2   force =    -0.00027544   -0.00036344    0.00066553
     atom   19 type  1   force =    -0.01793492    0.00014821    0.00393566
     atom   20 type  1   force =    -0.01644999    0.00130424    0.00320533
     atom   21 type  1   force =     0.01956777   -0.00098084    0.00433204
     atom   22 type  1   force =     0.01782588    0.00103128    0.00343762
     atom   23 type  1   force =    -0.00014114   -0.00026784    0.00012697
     atom   24 type  1   force =    -0.00022490    0.00003233   -0.00001167
     atom   25 type  1   force =    -0.00002629   -0.00010939   -0.00089419
     atom   26 type  1   force =    -0.00011530    0.00023945   -0.00017521
     atom   27 type  2   force =    -0.00005457   -0.00075901   -0.00093428
     atom   28 type  2   force =     0.00014847    0.00067626    0.00012822
     atom   29 type  2   force =     0.00009923   -0.00088147    0.00049976
     atom   30 type  2   force =    -0.00025452    0.00136500   -0.00047835
     atom   31 type  1   force =    -0.00021554   -0.00033299    0.00039579
     atom   32 type  1   force =    -0.00026071    0.00035414    0.00000073
     atom   33 type  1   force =     0.00001411   -0.00038102    0.00050333
     atom   34 type  1   force =     0.00021771    0.00042813    0.00021558
     atom   35 type  1   force =     0.00014867   -0.00004991   -0.00139082
     atom   36 type  1   force =    -0.00006881    0.00032414   -0.00014180
     atom   37 type  1   force =    -0.00074412    0.00007125    0.00044108
     atom   38 type  1   force =     0.00006319   -0.00022910   -0.00057468
     atom   39 type  2   force =    -0.00078629    0.00064571    0.00130005
     atom   40 type  2   force =    -0.00104855   -0.00006159    0.00041684
     atom   41 type  2   force =     0.00061113   -0.00074702   -0.00072146
     atom   42 type  2   force =     0.00068656    0.00092646   -0.00063672
     atom   43 type  1   force =    -0.00033545    0.00020920    0.00055641
     atom   44 type  1   force =     0.00052964    0.00015549    0.00052480
     atom   45 type  1   force =    -0.00061557   -0.00003753    0.00039534
     atom   46 type  1   force =     0.00017171    0.00014335    0.00056596
     atom   47 type  1   force =    -0.00042525    0.00077307    0.00139668
     atom   48 type  1   force =    -0.00070057   -0.00119200    0.00242462
     atom   49 type  3   force =    -0.00068232   -0.00423634    0.00373617
     atom   50 type  4   force =     0.00048610   -0.00053812   -0.00016507
     atom   51 type  4   force =     0.00103419    0.00376055   -0.00575642

     Total force =     0.374539     Total SCF correction =     0.000756
  @ DRIVER MODE: Message from server: STATUS
  @ DRIVER MODE: Message from server: GETFORCE
  @ DRIVER MODE: Returning v,forces,stress,ensemble

     Writing output data file ./calc.save/
  @ DRIVER MODE: Message from server: EXIT
  @ DRIVE MODE: Exiting

     General routines

     Parallel routines

   This run was terminated on:   2:28:46  11Sep2021

   JOB DONE.