     Program PWSCF v.6.7GPU starts on 23Sep2021 at  0:31: 0

     R & G space division:  proc/nbgrp/npool/nimage =       8
     Reading input from /storage/home/hcoda1/3/ntian30/research/carbon/CxH_vib/H2O_calc/ads_slab/CH2OHHO_a/out_0007/pw.inp
Warning: card &CELL ignored
Warning: card   CELL_DYNAMICS='IPI', ignored
Warning: card / ignored

     Current dimensions of program PWSCF are:
     Max number of different atomic species (ntypx) = 10
     Max number of k-points (npk) =  40000
     Max angular momentum in pseudopotentials (lmaxx) =  3
     Presently no symmetry can be used with electric field

     Message from routine cell_base_init:
     DEPRECATED: use true lattice parameter, not A to a.u. conversion factor

     IMPORTANT: XC functional enforced from input :
     Exchange-correlation= BEEF-VDW
                           (   1   4  43  14   2   0   0)
     Any further DFT definition will be discarded
     Please, verify this is what you really want

  @ DRIVER MODE: Connecting to
 qe_1139763_2941013.sched-torque.pace.gatech.edukero1eql_scratch
  using UNIX socket
  @ DRIVER MODE: Message from server: STATUS
  @ DRIVER MODE: Message from server: INIT
  @ DRIVER MODE: Receiving replica           0          -1
  @ DRIVER MODE: Receiving encoded integer          25
  @ DRIVER MODE:  SCF:  T  FORCE:  T  STRESS:  F  VC:  F  ENSEMBLE:  F
  @ DRIVER MODE:  SCF:  T  FORCE:  T  STRESS:  F  VC:  F  ENSEMBLE:  F

     Using Slab Decomposition

     bravais-lattice index     =            0
     lattice parameter (alat)  =       1.8897  a.u.
     unit-cell volume          =    6658.9804 (a.u.)^3
     number of atoms/cell      =           54
     number of atomic types    =            4
     number of electrons       =       398.00
     number of Kohn-Sham states=          209
     kinetic-energy cutoff     =      29.3995  Ry
     charge density cutoff     =     293.9946  Ry
     scf convergence threshold =      7.3E-08
     mixing beta               =       0.0500
     number of iterations used =            8  plain     mixing
     Exchange-correlation= BEEF-VDW
                           (   1   4  43  14   2   0   0)

     celldm(1)=   1.889726  celldm(2)=   0.000000  celldm(3)=   0.000000
     celldm(4)=   0.000000  celldm(5)=   0.000000  celldm(6)=   0.000000

     crystal axes: (cart. coord. in units of alat)
               a(1) = (   6.579727   0.000000   0.000000 )
               a(2) = (  -0.000775   5.961596   0.000000 )
               a(3) = (   0.000000   0.000000  25.155947 )

     reciprocal axes: (cart. coord. in units 2 pi/alat)
               b(1) = (  0.151982  0.000020  0.000000 )
               b(2) = (  0.000000  0.167740  0.000000 )
               b(3) = (  0.000000  0.000000  0.039752 )

     PseudoPot. # 1 for Ti read from file:
     /storage/coda1/p-amedford6/0/shared/rich_project_chbe-medford/medford-share/data/pseudos_module/espresso/nninc/pbe/van/Ti.UPF
     MD5 check sum: 8e4df49b7f0d34bbd5052bf3f5ea0213
     Pseudo is Ultrasoft, Zval = 12.0
     Generated by new atomic code, or converted to UPF format
     Using radial grid of  851 points,  6 beta functions with:
                l(1) =   0
                l(2) =   0
                l(3) =   1
                l(4) =   1
                l(5) =   2
                l(6) =   2
     Q(r) pseudized with  8 coefficients,  rinner =    1.000   1.000   1.000
                                                       1.000   1.000

     PseudoPot. # 2 for O  read from file:
     /storage/coda1/p-amedford6/0/shared/rich_project_chbe-medford/medford-share/data/pseudos_module/espresso/nninc/pbe/van/O.UPF
     MD5 check sum: 78c19812648e8988a0fe644b0f25305e
     Pseudo is Ultrasoft, Zval =  6.0
     Generated by new atomic code, or converted to UPF format
     Using radial grid of  737 points,  4 beta functions with:
                l(1) =   0
                l(2) =   0
                l(3) =   1
                l(4) =   1
     Q(r) pseudized with  8 coefficients,  rinner =    0.800   0.800   0.800

     PseudoPot. # 3 for C  read from file:
     /storage/coda1/p-amedford6/0/shared/rich_project_chbe-medford/medford-share/data/pseudos_module/espresso/nninc/pbe/van/C.UPF
     MD5 check sum: 1a69bf6b8db32088f5b2163dbdb77a27
     Pseudo is Ultrasoft, Zval =  4.0
     Generated by new atomic code, or converted to UPF format
     Using radial grid of  721 points,  4 beta functions with:
                l(1) =   0
                l(2) =   0
                l(3) =   1
                l(4) =   1
     Q(r) pseudized with  8 coefficients,  rinner =    0.800   0.800   0.800

     PseudoPot. # 4 for H  read from file:
     /storage/coda1/p-amedford6/0/shared/rich_project_chbe-medford/medford-share/data/pseudos_module/espresso/nninc/pbe/van/H.UPF
     MD5 check sum: b5ee9d7bfd3a09ee7748110bda690ff7
     Pseudo is Ultrasoft, Zval =  1.0
     Generated by new atomic code, or converted to UPF format
     Using radial grid of  615 points,  1 beta functions with:
                l(1) =   0
     Q(r) pseudized with  8 coefficients,  rinner =    0.800

     atomic species   valence    mass     pseudopotential
        Ti1           12.00    47.86700     Ti( 1.00)
        O1             6.00    15.99900     O ( 1.00)
        C1             4.00    12.01100     C ( 1.00)
        H1             1.00     1.00800     H ( 1.00)

     No symmetry found

   Cartesian axes

     site n.     atom                  positions (alat units)
         1           Ti1 tau(   1) = (   0.0004258   2.9801865   6.0000000  )
         2           Ti1 tau(   2) = (   3.2906075   1.4906267   6.0002472  )
         3           O1  tau(   3) = (   0.0006271   0.0005054   7.9858123  )
         4           O1  tau(   4) = (   3.2906025   0.0005020   7.3038282  )
         5           O1  tau(   5) = (   4.5942328   1.4918067   9.2879030  )
         6           O1  tau(   6) = (   1.9868534   1.4903216   9.2879459  )
         7           Ti1 tau(   7) = (   3.2053781   3.0281819   9.2289109  )
         8           Ti1 tau(   8) = (   6.4789090   1.5422439   9.3246958  )
         9           O1  tau(   9) = (   3.3131828   0.0076525  11.3143355  )
        10           O1  tau(  10) = (   0.0036331   0.0073455  10.5537702  )
        11           O1  tau(  11) = (   1.2849538   1.5262321  12.5678262  )
        12           O1  tau(  12) = (   5.3289628   1.4687457  12.6164477  )
        13           Ti1 tau(  13) = (   0.0494698   3.0469090  12.7547230  )
        14           Ti1 tau(  14) = (   3.2845375   1.6334081  12.5308488  )
        15           O1  tau(  15) = (   0.1943872   0.0117586  14.6058021  )
        16           O1  tau(  16) = (   3.1943342   5.9422946  13.9142442  )
        17           O1  tau(  17) = (   4.6623408   1.4089460  15.7678261  )
        18           O1  tau(  18) = (   2.0428328   1.6351894  16.0888801  )
        19           Ti1 tau(  19) = (   3.4388860   2.9458104  15.8736401  )
        20           Ti1 tau(  20) = (   0.1295272   1.3814375  15.8666627  )
        21           O1  tau(  21) = (   3.2904802   0.0005063   4.7018136  )
        22           O1  tau(  22) = (   0.0846747   0.0144810  17.1090220  )
        23           O1  tau(  23) = (   1.3043587   1.4918075   6.0039043  )
        24           O1  tau(  24) = (   5.2767064   1.4903225   6.0039473  )
        25           Ti1 tau(  25) = (   0.0000382   5.9609847   6.0000000  )
        26           Ti1 tau(  26) = (   3.2902200   4.4714249   6.0002472  )
        27           O1  tau(  27) = (   0.0002396   2.9813036   7.9858123  )
        28           O1  tau(  28) = (   3.2902150   2.9813002   7.3038282  )
        29           O1  tau(  29) = (   4.5938453   4.4726049   9.2879030  )
        30           O1  tau(  30) = (   1.9864658   4.4711199   9.2879459  )
        31           Ti1 tau(  31) = (   3.2224821   0.0470802   9.2230333  )
        32           Ti1 tau(  32) = (   6.4759698   4.4664252   9.3127940  )
        33           O1  tau(  33) = (   3.3094535   2.9663607  11.2852029  )
        34           O1  tau(  34) = (   6.5591786   2.9896559  10.5312464  )
        35           O1  tau(  35) = (   1.2916819   4.4480478  12.5709280  )
        36           O1  tau(  36) = (   5.3369627   4.5124161  12.6303246  )
        37           Ti1 tau(  37) = (   6.5569224   0.0640291  12.4639877  )
        38           Ti1 tau(  38) = (   3.2972653   4.6387695  12.6472152  )
        39           O1  tau(  39) = (   0.0654804   2.9943531  14.6628162  )
        40           O1  tau(  40) = (   3.3673531   2.9793459  13.8791815  )
        41           O1  tau(  41) = (   4.6654837   4.5585741  15.7845026  )
        42           O1  tau(  42) = (   2.0434307   4.3527116  16.0649513  )
        43           Ti1 tau(  43) = (   3.4443475   5.9291804  16.0141943  )
        44           Ti1 tau(  44) = (   0.1552736   4.5966999  15.8683145  )
        45           O1  tau(  45) = (   3.2900926   2.9813045   4.7018136  )
        46           O1  tau(  46) = (   1.3039711   4.4726057   6.0039043  )
        47           O1  tau(  47) = (   5.2763189   4.4711207   6.0039473  )
        48           C1  tau(  48) = (   4.6056898   2.9812133  17.8228851  )
        49           O1  tau(  49) = (   6.0866523   2.9907575  17.4046881  )
        50           H1  tau(  50) = (   0.0599730   2.9907033  18.2108262  )
        51           H1  tau(  51) = (   4.4920754   2.0732530  18.4117920  )
        52           H1  tau(  52) = (   4.4771298   3.8877196  18.4106030  )
        53           O1  tau(  53) = (   3.3127961   5.9530928  17.8757943  )
        54           H1  tau(  54) = (   2.4287022   0.1083392  18.2542858  )

     number of k points=    10  Fermi-Dirac smearing, width (Ry)=  0.0073
                       cart. coord. in units 2pi/alat
        k(    1) = (   0.0000000   0.0000000   0.0000000), wk =   0.1250000
        k(    2) = (   0.0000000   0.0419351   0.0000000), wk =   0.2500000
        k(    3) = (   0.0000000  -0.0838702   0.0000000), wk =   0.1250000
        k(    4) = (   0.0379955   0.0000049   0.0000000), wk =   0.2500000
        k(    5) = (   0.0379955   0.0419400   0.0000000), wk =   0.2500000
        k(    6) = (   0.0379955  -0.0838652   0.0000000), wk =   0.2500000
        k(    7) = (   0.0379955  -0.0419301   0.0000000), wk =   0.2500000
        k(    8) = (  -0.0759910  -0.0000099   0.0000000), wk =   0.1250000
        k(    9) = (  -0.0759910   0.0419252   0.0000000), wk =   0.2500000
        k(   10) = (  -0.0759910  -0.0838800   0.0000000), wk =   0.1250000

     Initial potential from superposition of free atoms

     starting charge  381.99917, renormalised to  398.00000

     negative rho (up, down):  1.910E-02 0.000E+00

     %%%%%%%%%%%%%%%%%%%%%%%%%%%%%%%%%%%%%%%%%%%%%%%%%%%%%%%%%%%%%%%%%%%%%%%%
     %                                                                      %
     % You are using vdW-DF, which was implemented by the Thonhauser group. %
     % Please cite the following two papers that made this development      %
     % possible and the two reviews that describe the various versions:     %
     %                                                                      %
     %   T. Thonhauser et al., PRL 115, 136402 (2015).                      %
     %   T. Thonhauser et al., PRB 76, 125112 (2007).                       %
     %   K. Berland et al., Rep. Prog. Phys. 78, 066501 (2015).             %
     %   D.C. Langreth et al., J. Phys.: Condens. Matter 21, 084203 (2009). %
     %                                                                      %
     %                                                                      %
     % If you are calculating the stress with vdW-DF, please also cite:     %
     %                                                                      %
     %   R. Sabatini et al., J. Phys.: Condens. Matter 24, 424209 (2012).   %
     %                                                                      %
     %%%%%%%%%%%%%%%%%%%%%%%%%%%%%%%%%%%%%%%%%%%%%%%%%%%%%%%%%%%%%%%%%%%%%%%%

     Adding external electric field

     Computed dipole along edir(3) :
        Dipole               -7.9392 Ry au,        -20.1794 Debye
        Dipole field         -0.0150 Ry au,

        Potential amp.        1.3888 Ry
        Total length         46.3494 bohr

     Starting wfcs are  300 atomic wfcs
  @ DRIVER MODE: Message from server: STATUS
  @ DRIVER MODE: Message from server: POSDATA
  @ DRIVER MODE: Reading and sharing cell
  @ DRIVER MODE: Reading and sharing positions
  @ DRIVER MODE: Received positions

     Self-consistent Calculation

     iteration #  1     ecut=    29.40 Ry     beta= 0.05
     Davidson diagonalization with overlap
     c_bands:  1 eigenvalues not converged
     c_bands:  2 eigenvalues not converged
     c_bands:  1 eigenvalues not converged
     c_bands:  1 eigenvalues not converged
     c_bands:  1 eigenvalues not converged
     c_bands:  1 eigenvalues not converged
     ethr =  1.00E-05,  avg # of iterations = 18.8

[...]

     total energy              =   -2649.59835419 Ry
     estimated scf accuracy    <    3499.58173164 Ry

[...]

     iteration #  3     ecut=    29.40 Ry     beta= 0.05
     Davidson diagonalization with overlap
     ethr =  1.00E-02,  avg # of iterations = 14.3

[...]

     iteration # 44     ecut=    29.40 Ry     beta= 0.05
     Davidson diagonalization with overlap
     c_bands:  1 eigenvalues not converged
     c_bands:  1 eigenvalues not converged
     ethr =  2.51E-07,  avg # of iterations =  9.5

[...]

     total energy              =   -2964.91869967 Ry
     estimated scf accuracy    <       0.00000024 Ry

     iteration # 65     ecut=    29.40 Ry     beta= 0.05
     Davidson diagonalization with overlap
     ethr =  3.41E-11,  avg # of iterations =  5.1

     negative rho (up, down):  1.875E-02 0.000E+00

     Adding external electric field

     Computed dipole along edir(3) :
        Dipole                0.6444 Ry au,          1.6379 Debye
        Dipole field          0.0012 Ry au,

        Potential amp.       -0.1127 Ry
        Total length         46.3494 bohr

     End of self-consistent calculation

          k = 0.0000 0.0000 0.0000 ( 18029 PWs)   bands (ev):

   -56.4304 -56.3656 -55.7974 -55.7969 -55.7494 -55.7453 -55.7432 -55.7015
   -55.6942 -55.6467 -55.4580 -55.4434 -55.3797 -55.3590 -54.9561 -54.9222
   -32.8328 -32.7061 -32.6293 -32.6013 -32.4994 -32.4575 -32.4127 -32.3220
   -32.2152 -32.1831 -32.1061 -32.0616 -32.0409 -32.0065 -32.0041 -31.9954
   -31.9760 -31.9612 -31.9562 -31.9451 -31.9391 -31.9357 -31.9243 -31.9062
   -31.8934 -31.8917 -31.8732 -31.8651 -31.8517 -31.8339 -31.8238 -31.7989
   -31.7593 -31.7033 -31.6597 -31.6471 -31.6221 -31.5930 -31.5900 -31.5586
   -31.5488 -31.4165 -31.3488 -31.3032 -31.2786 -31.1647 -31.0785 -30.9696
   -19.3351 -16.5886 -16.4376 -16.3067 -16.1707 -15.9568 -15.9277 -15.8256
   -15.7231 -15.6827 -15.6008 -15.5726 -15.4342 -15.3844 -15.3563 -15.3348
   -15.3150 -15.2962 -15.2814 -15.2437 -15.2282 -15.1947 -15.1413 -15.0753
   -15.0538 -15.0019 -14.9704 -14.9553 -14.8698 -14.8047 -14.7241 -13.4632
   -13.3573  -9.1734  -6.1893  -4.0864  -3.9935  -3.9388  -3.8840  -3.7856
    -3.7198  -3.6867  -3.6246  -3.3067  -3.1744  -3.0812  -3.0304  -3.0042
    -2.9273  -2.9262  -2.9126  -2.7965  -2.7354  -2.7096  -2.6480  -2.6308
    -2.5882  -2.5524  -2.5480  -2.5335  -2.4914  -2.4523  -2.4112  -2.3930
    -2.3469  -2.2640  -2.2452  -2.1682  -2.1331  -2.1122  -2.0244  -1.9595
    -1.9500  -1.9124  -1.8874  -1.7824  -1.6055  -1.5188  -1.4609  -1.4080
    -1.3856  -1.3189  -1.3090  -1.2438  -1.1885  -1.1692  -1.1643  -1.0485
    -0.9962  -0.9643  -0.9174  -0.8828  -0.8193  -0.7717  -0.7552  -0.7260
    -0.7119  -0.6040  -0.5157  -0.4971  -0.4668  -0.4342  -0.3147  -0.2652
    -0.2345  -0.2081  -0.1915  -0.1503  -0.1058  -0.0385   0.0070   0.0626
     0.1016   0.1725   0.1830   0.2211   0.2564   0.2918   0.3560   0.3710
     0.4752   0.5043   0.5601   0.5967   0.7419   0.7701   0.9316   0.9919
     1.0546   1.1491   1.2749   1.3373   1.5850   1.6244   1.7908   2.8847
     3.0474   3.3149   3.3593   3.4946   3.5647   3.6226   3.7650   3.7910
     3.8453

[...]

          k = 0.0380-0.0419 0.0000 ( 17876 PWs)   bands (ev):

[...]

          k =-0.0760-0.0000 0.0000 ( 17886 PWs)   bands (ev):

[...]

          k =-0.0760-0.0839 0.0000 ( 17948 PWs)   bands (ev):

   -56.4257 -56.3702 -55.7905 -55.7895 -55.7569 -55.7495 -55.7379 -55.7088
   -55.6870 -55.6539 -55.4550 -55.4385 -55.3845 -55.3619 -54.9393 -54.9389
   -32.7031 -32.6718 -32.6314 -32.6260 -32.5728 -32.5251 -32.3352 -32.1611
   -32.1070 -32.0749 -32.0534 -32.0366 -32.0349 -32.0223 -32.0146 -32.0127
   -31.9975 -31.9825 -31.9770 -31.9565 -31.9562 -31.9528 -31.9497 -31.9368
   -31.9243 -31.9036 -31.8936 -31.8838 -31.8673 -31.8382 -31.7864 -31.7671
   -31.7567 -31.7218 -31.7135 -31.6801 -31.6611 -31.6487 -31.6339 -31.6022
   -31.5963 -31.4175 -31.2919 -31.2915 -31.1626 -31.1621 -31.1219 -31.1215
   -19.3277 -16.2392 -16.1301 -15.9400 -15.9049 -15.8279 -15.8262 -15.7771
   -15.7379 -15.6406 -15.5853 -15.5670 -15.4950 -15.4705 -15.4536 -15.4275
   -15.3777 -15.3524 -15.3284 -15.3179 -15.2740 -15.2501 -15.2455 -15.1987
   -15.1470 -15.1193 -15.1012 -15.0495 -14.9940 -14.9349 -14.8822 -13.4646
   -13.4588  -9.1815  -6.1711  -4.0999  -3.6842  -3.6380  -3.3396  -3.1553
    -2.9767  -2.9643  -2.9505  -2.9430  -2.8745  -2.8674  -2.8188  -2.7781
    -2.7225  -2.7023  -2.6749  -2.6698  -2.6637  -2.6223  -2.6118  -2.5855
    -2.5589  -2.5536  -2.5111  -2.5029  -2.4836  -2.4367  -2.4225  -2.3902
    -2.3603  -2.3340  -2.2818  -2.2240  -2.2046  -2.1915  -2.0646  -1.9953
    -1.9912  -1.9154  -1.9015  -1.8725  -1.8328  -1.7589  -1.6955  -1.6574
    -1.5243  -1.5049  -1.4485  -1.4092  -1.3365  -1.3243  -1.2412  -1.2119
    -1.1607  -1.1386  -1.1029  -1.0846  -1.0645  -1.0604  -0.9346  -0.9059
    -0.8472  -0.8367  -0.8059  -0.7729  -0.7491  -0.6934  -0.6246  -0.6162
    -0.5667  -0.5208  -0.4530  -0.4143  -0.3334  -0.2765  -0.2365  -0.1696
    -0.0633   0.0578   0.0959   0.2009   0.2984   0.3057   0.3717   0.4210
     0.4479   0.4929   0.5785   0.5892   0.6562   0.6675   0.7012   0.7583
     0.8072   0.8783   1.4251   1.4410   1.4626   1.4654   1.7291   3.4281
     3.4548   3.4749   3.5176   3.6623   3.7570   3.7835   3.8499   3.8995
     3.9138

     the Fermi energy is     2.4103 ev

!    total energy              =   -2964.91872741 Ry
     estimated scf accuracy    <       0.00000005 Ry
     smearing contrib. (-TS)   =      -0.00044934 Ry
     internal energy E=F+TS    =   -2964.91827807 Ry

     The total energy is F=E-TS. E is the sum of the following terms:
     one-electron contribution =  -24900.80726745 Ry
     hartree contribution      =   12540.78033712 Ry
     xc contribution           =    -490.06903282 Ry
     ewald contribution        =    9885.17690143 Ry
     electric field correction =       0.00078366 Ry

     convergence has been achieved in  65 iterations

     Forces acting on atoms (cartesian axes, Ry/au):

     atom    1 type  1   force =     0.00009696   -0.00023504    0.12240556
     atom    2 type  1   force =     0.00010396    0.00183757   -0.15181054
     atom    3 type  2   force =    -0.00068132   -0.00092206   -0.05773016
     atom    4 type  2   force =    -0.00119175    0.00052372    0.04763882
     atom    5 type  2   force =    -0.01071262   -0.00519224   -0.00143473
     atom    6 type  2   force =     0.01358873    0.00025477   -0.00014060
     atom    7 type  1   force =    -0.00026795    0.00014940    0.00007706
     atom    8 type  1   force =     0.00039972   -0.00013776   -0.00041699
     atom    9 type  2   force =     0.00001485   -0.00024123    0.00042172
     atom   10 type  2   force =    -0.00012380   -0.00005524    0.00017095
     atom   11 type  2   force =    -0.00048838   -0.00026911    0.00028384
     atom   12 type  2   force =     0.00020327    0.00007590    0.00000447
     atom   13 type  1   force =     0.00040428   -0.00011121   -0.00008529
     atom   14 type  1   force =    -0.00010313   -0.00023362    0.00004458
     atom   15 type  2   force =    -0.00030179   -0.00017854   -0.00005464
     atom   16 type  2   force =     0.00017872    0.00008177   -0.00009728
     atom   17 type  2   force =    -0.00022217   -0.00015680   -0.00002457
     atom   18 type  2   force =    -0.00034447   -0.00019572    0.00018514
     atom   19 type  1   force =    -0.00058325    0.00002861    0.00006328
     atom   20 type  1   force =    -0.00040260    0.00001011   -0.00072495
     atom   21 type  2   force =     0.00027186    0.00013043    0.09730797
     atom   22 type  2   force =    -0.00031220   -0.00033380   -0.00017834
     atom   23 type  2   force =    -0.08311515    0.00238669   -0.03360110
     atom   24 type  2   force =     0.08316567    0.00267426   -0.03366677
     atom   25 type  1   force =     0.00042192    0.00038154    0.13896795
     atom   26 type  1   force =     0.00005046   -0.00119625   -0.15163770
     atom   27 type  2   force =    -0.00069678    0.00143556   -0.05287240
     atom   28 type  2   force =    -0.00117746    0.00017330    0.04595004
     atom   29 type  2   force =    -0.01132112    0.00058835   -0.00073203
     atom   30 type  2   force =     0.01405463    0.00412969    0.00077528
     atom   31 type  1   force =    -0.00048946   -0.00016936    0.00014669
     atom   32 type  1   force =     0.00034989   -0.00004420   -0.00018425
     atom   33 type  2   force =    -0.00024846    0.00012020    0.00008356
     atom   34 type  2   force =     0.00013971    0.00008607    0.00016598
     atom   35 type  2   force =    -0.00022650    0.00054524    0.00036535
     atom   36 type  2   force =     0.00025242   -0.00000548   -0.00015782
     atom   37 type  1   force =    -0.00063630    0.00028673    0.00016963
     atom   38 type  1   force =    -0.00031627   -0.00043264   -0.00015599
     atom   39 type  2   force =     0.00012055   -0.00010876    0.00048543
     atom   40 type  2   force =    -0.00025669   -0.00009726    0.00015362
     atom   41 type  2   force =    -0.00014907   -0.00036676   -0.00006007
     atom   42 type  2   force =    -0.00063854   -0.00024258    0.00037704
     atom   43 type  1   force =    -0.00008486   -0.00002330   -0.00013544
     atom   44 type  1   force =    -0.00043798    0.00004338   -0.00020882
     atom   45 type  2   force =     0.00023604    0.00013354    0.09738496
     atom   46 type  2   force =    -0.08303713   -0.00265024   -0.03361721
     atom   47 type  2   force =     0.08307409   -0.00230334   -0.03372066
     atom   48 type  3   force =    -0.00255270   -0.00003562    0.00135219
     atom   49 type  2   force =     0.01201664    0.00001198    0.00624855
     atom   50 type  4   force =    -0.00594535    0.00006659   -0.00817006
     atom   51 type  4   force =    -0.00086516   -0.00006729    0.00033800
     atom   52 type  4   force =    -0.00118324   -0.00009720   -0.00003001
     atom   53 type  2   force =    -0.00072255    0.00055839    0.00067648
     atom   54 type  4   force =     0.00069183   -0.00061114   -0.00059570

     Total force =     0.378105     Total SCF correction =     0.000857
  @ DRIVER MODE: Message from server: STATUS
  @ DRIVER MODE: Message from server: GETFORCE
  @ DRIVER MODE: Returning v,forces,stress,ensemble

     Writing output data file ./calc.save/
  @ DRIVER MODE: Message from server: EXIT
  @ DRIVE MODE: Exiting

     General routines

     Parallel routines

   This run was terminated on:   0:52: 2  23Sep2021

   JOB DONE.