     Program PWSCF v.6.7GPU starts on  9Sep2021 at  0: 6:39

     R & G space division:  proc/nbgrp/npool/nimage =      10
     Reading input from /storage/home/hcoda1/3/ntian30/research/carbon/CxH_vib/CH3_calc/ads_slab/CH3N2_c/out_0007/pw.inp
Warning: card &CELL ignored
Warning: card   CELL_DYNAMICS='IPI', ignored
Warning: card / ignored

     Current dimensions of program PWSCF are:
     Max number of different atomic species (ntypx) = 10
     Max number of k-points (npk) =  40000
     Max angular momentum in pseudopotentials (lmaxx) =  3
     Presently no symmetry can be used with electric field

     Message from routine cell_base_init:
     DEPRECATED: use true lattice parameter, not A to a.u. conversion factor

     IMPORTANT: XC functional enforced from input :
     Exchange-correlation= BEEF-VDW
                           (   1   4  43  14   2   0   0)
     Any further DFT definition will be discarded
     Please, verify this is what you really want

  @ DRIVER MODE: Connecting to
 qe_1139763_2767397.sched-torque.pace.gatech.eduu4zzlvxu_scratch
  using UNIX socket
  @ DRIVER MODE: Message from server: STATUS
  @ DRIVER MODE: Message from server: INIT
  @ DRIVER MODE: Receiving replica           0          -1
  @ DRIVER MODE: Receiving encoded integer          25
  @ DRIVER MODE:  SCF:  T  FORCE:  T  STRESS:  F  VC:  F  ENSEMBLE:  F
  @ DRIVER MODE:  SCF:  T  FORCE:  T  STRESS:  F  VC:  F  ENSEMBLE:  F

     Using Slab Decomposition

     bravais-lattice index     =            0
     lattice parameter (alat)  =       1.8897  a.u.
     unit-cell volume          =    6658.9804 (a.u.)^3
     number of atoms/cell      =           53
     number of atomic types    =            5
     number of electrons       =       395.00
     number of Kohn-Sham states=          207
     kinetic-energy cutoff     =      29.3995  Ry
     charge density cutoff     =     293.9946  Ry
     scf convergence threshold =      7.3E-08
     mixing beta               =       0.0500
     number of iterations used =            8  plain     mixing
     Exchange-correlation= BEEF-VDW
                           (   1   4  43  14   2   0   0)

     celldm(1)=   1.889726  celldm(2)=   0.000000  celldm(3)=   0.000000
     celldm(4)=   0.000000  celldm(5)=   0.000000  celldm(6)=   0.000000

     crystal axes: (cart. coord. in units of alat)
               a(1) = (   6.579727   0.000000   0.000000 )
               a(2) = (  -0.000775   5.961596   0.000000 )
               a(3) = (   0.000000   0.000000  25.155947 )

     reciprocal axes: (cart. coord. in units 2 pi/alat)
               b(1) = (  0.151982  0.000020  0.000000 )
               b(2) = (  0.000000  0.167740  0.000000 )
               b(3) = (  0.000000  0.000000  0.039752 )

     PseudoPot. # 1 for Ti read from file:
     /storage/coda1/p-amedford6/0/shared/rich_project_chbe-medford/medford-share/data/pseudos_module/espresso/nninc/pbe/van/Ti.UPF
     MD5 check sum: 8e4df49b7f0d34bbd5052bf3f5ea0213
     Pseudo is Ultrasoft, Zval = 12.0
     Generated by new atomic code, or converted to UPF format
     Using radial grid of  851 points,  6 beta functions with:
                l(1) =   0
                l(2) =   0
                l(3) =   1
                l(4) =   1
                l(5) =   2
                l(6) =   2
     Q(r) pseudized with  8 coefficients,  rinner =    1.000   1.000   1.000
                                                       1.000   1.000

     PseudoPot. # 2 for O  read from file:
     /storage/coda1/p-amedford6/0/shared/rich_project_chbe-medford/medford-share/data/pseudos_module/espresso/nninc/pbe/van/O.UPF
     MD5 check sum: 78c19812648e8988a0fe644b0f25305e
     Pseudo is Ultrasoft, Zval =  6.0
     Generated by new atomic code, or converted to UPF format
     Using radial grid of  737 points,  4 beta functions with:
                l(1) =   0
                l(2) =   0
                l(3) =   1
                l(4) =   1
     Q(r) pseudized with  8 coefficients,  rinner =    0.800   0.800   0.800

     PseudoPot. # 3 for N  read from file:
     /storage/coda1/p-amedford6/0/shared/rich_project_chbe-medford/medford-share/data/pseudos_module/espresso/nninc/pbe/van/N.UPF
     MD5 check sum: 90d10febe142ad51ac9d5be1deb811c4
     Pseudo is Ultrasoft, Zval =  5.0
     Generated by new atomic code, or converted to UPF format
     Using radial grid of  729 points,  4 beta functions with:
                l(1) =   0
                l(2) =   0
                l(3) =   1
                l(4) =   1
     Q(r) pseudized with  8 coefficients,  rinner =    0.800   0.800   0.800

     PseudoPot. # 4 for C  read from file:
     /storage/coda1/p-amedford6/0/shared/rich_project_chbe-medford/medford-share/data/pseudos_module/espresso/nninc/pbe/van/C.UPF
     MD5 check sum: 1a69bf6b8db32088f5b2163dbdb77a27
     Pseudo is Ultrasoft, Zval =  4.0
     Generated by new atomic code, or converted to UPF format
     Using radial grid of  721 points,  4 beta functions with:
                l(1) =   0
                l(2) =   0
                l(3) =   1
                l(4) =   1
     Q(r) pseudized with  8 coefficients,  rinner =    0.800   0.800   0.800

     PseudoPot. # 5 for H  read from file:
     /storage/coda1/p-amedford6/0/shared/rich_project_chbe-medford/medford-share/data/pseudos_module/espresso/nninc/pbe/van/H.UPF
     MD5 check sum: b5ee9d7bfd3a09ee7748110bda690ff7
     Pseudo is Ultrasoft, Zval =  1.0
     Generated by new atomic code, or converted to UPF format
     Using radial grid of  615 points,  1 beta functions with:
                l(1) =   0
     Q(r) pseudized with  8 coefficients,  rinner =    0.800

     atomic species   valence    mass     pseudopotential
        Ti1           12.00    47.86700     Ti( 1.00)
        O1             6.00    15.99900     O ( 1.00)
        N1             5.00    14.00700     N ( 1.00)
        C1             4.00    12.01100     C ( 1.00)
        H1             1.00     1.00800     H ( 1.00)

     No symmetry found

   Cartesian axes

     site n.     atom                  positions (alat units)
         1           Ti1 tau(   1) = (   0.0004258   2.9801865   6.0000000  )
         2           Ti1 tau(   2) = (   3.2906075   1.4906267   6.0002472  )
         3           O1  tau(   3) = (   0.0006271   0.0005054   7.9858123  )
         4           O1  tau(   4) = (   3.2906025   0.0005020   7.3038282  )
         5           O1  tau(   5) = (   4.5942328   1.4918067   9.2879030  )
         6           O1  tau(   6) = (   1.9868534   1.4903216   9.2879459  )
         7           Ti1 tau(   7) = (   3.2907910   2.8959150   9.1758416  )
         8           Ti1 tau(   8) = (   0.0015273   1.4827037   9.2680791  )
         9           O1  tau(   9) = (   3.2868105   5.9447858  11.3346005  )
        10           O1  tau(  10) = (   0.0116148   5.9584955  10.6183126  )
        11           O1  tau(  11) = (   1.2897616   1.4699164  12.6258314  )
        12           O1  tau(  12) = (   5.2713851   1.4716199  12.6109895  )
        13           Ti1 tau(  13) = (   0.0629619   2.9460495  12.6207869  )
        14           Ti1 tau(  14) = (   3.3778125   1.4702366  12.4807322  )
        15           O1  tau(  15) = (   6.5741670   5.9392046  14.6271830  )
        16           O1  tau(  16) = (   3.2925211   5.9405975  13.9303826  )
        17           O1  tau(  17) = (   4.5331425   1.4971777  16.0590535  )
        18           O1  tau(  18) = (   2.0416154   1.4974824  16.0477615  )
        19           Ti1 tau(  19) = (   3.2901388   2.9722967  15.7036181  )
        20           Ti1 tau(  20) = (   6.5714728   1.5019933  15.8140906  )
        21           O1  tau(  21) = (   3.2904802   0.0005063   4.7018136  )
        22           O1  tau(  22) = (   6.5775371   0.0159386  17.1814867  )
        23           O1  tau(  23) = (   1.3043587   1.4918075   6.0039043  )
        24           O1  tau(  24) = (   5.2767064   1.4903225   6.0039473  )
        25           Ti1 tau(  25) = (   0.0000382   5.9609847   6.0000000  )
        26           Ti1 tau(  26) = (   3.2902200   4.4714249   6.0002472  )
        27           O1  tau(  27) = (   0.0002396   2.9813036   7.9858123  )
        28           O1  tau(  28) = (   3.2902150   2.9813002   7.3038282  )
        29           O1  tau(  29) = (   4.5938453   4.4726049   9.2879030  )
        30           O1  tau(  30) = (   1.9864658   4.4711199   9.2879459  )
        31           Ti1 tau(  31) = (   3.2891106   5.8743827   9.1763621  )
        32           Ti1 tau(  32) = (   0.0006254   4.4649316   9.2693709  )
        33           O1  tau(  33) = (   3.2909631   2.9655588  11.3316111  )
        34           O1  tau(  34) = (   0.0092240   2.9805883  10.6323155  )
        35           O1  tau(  35) = (   1.2884032   4.4536117  12.6269208  )
        36           O1  tau(  36) = (   5.2752684   4.4605011  12.6109535  )
        37           Ti1 tau(  37) = (   0.0626277   5.9200555  12.5524633  )
        38           Ti1 tau(  38) = (   3.3797810   4.4486816  12.4846537  )
        39           O1  tau(  39) = (   6.5720240   2.9440667  14.6479771  )
        40           O1  tau(  40) = (   3.2941106   2.9728877  13.9057494  )
        41           O1  tau(  41) = (   4.5311790   4.4530262  16.1020043  )
        42           O1  tau(  42) = (   2.0427069   4.4534008  16.0946336  )
        43           Ti1 tau(  43) = (   3.2818950   5.9508925  15.7274921  )
        44           Ti1 tau(  44) = (   6.5750914   4.6476268  16.0792144  )
        45           O1  tau(  45) = (   3.2900926   2.9813045   4.7018136  )
        46           O1  tau(  46) = (   1.3039711   4.4726057   6.0039043  )
        47           O1  tau(  47) = (   5.2763189   4.4711207   6.0039473  )
        48           N1  tau(  48) = (   0.0795740   2.6614725  18.6386781  )
        49           N1  tau(  49) = (   0.0032033   2.8794178  17.4383708  )
        50           C1  tau(  50) = (   0.1510961   3.8031638  19.5808395  )
        51           H1  tau(  51) = (   6.4701351   4.7592986  19.1328852  )
        52           H1  tau(  52) = (   6.0910372   3.5604803  20.4266230  )
        53           H1  tau(  53) = (   1.1812797   3.8285794  19.9476819  )

     number of k points=    10  Fermi-Dirac smearing, width (Ry)=  0.0073
                       cart. coord. in units 2pi/alat
        k(    1) = (   0.0000000   0.0000000   0.0000000), wk =   0.1250000
        k(    2) = (   0.0000000   0.0419351   0.0000000), wk =   0.2500000
        k(    3) = (   0.0000000  -0.0838702   0.0000000), wk =   0.1250000
        k(    4) = (   0.0379955   0.0000049   0.0000000), wk =   0.2500000
        k(    5) = (   0.0379955   0.0419400   0.0000000), wk =   0.2500000
        k(    6) = (   0.0379955  -0.0838652   0.0000000), wk =   0.2500000
        k(    7) = (   0.0379955  -0.0419301   0.0000000), wk =   0.2500000
        k(    8) = (  -0.0759910  -0.0000099   0.0000000), wk =   0.1250000
        k(    9) = (  -0.0759910   0.0419252   0.0000000), wk =   0.2500000
        k(   10) = (  -0.0759910  -0.0838800   0.0000000), wk =   0.1250000

     Initial potential from superposition of free atoms

     starting charge  378.99916, renormalised to  395.00000

     negative rho (up, down):  1.506E-02 0.000E+00

     %%%%%%%%%%%%%%%%%%%%%%%%%%%%%%%%%%%%%%%%%%%%%%%%%%%%%%%%%%%%%%%%%%%%%%%%
     %                                                                      %
     % You are using vdW-DF, which was implemented by the Thonhauser group. %
     % Please cite the following two papers that made this development      %
     % possible and the two reviews that describe the various versions:     %
     %                                                                      %
     %   T. Thonhauser et al., PRL 115, 136402 (2015).                      %
     %   T. Thonhauser et al., PRB 76, 125112 (2007).                       %
     %   K. Berland et al., Rep. Prog. Phys. 78, 066501 (2015).             %
     %   D.C. Langreth et al., J. Phys.: Condens. Matter 21, 084203 (2009). %
     %                                                                      %
     %                                                                      %
     % If you are calculating the stress with vdW-DF, please also cite:     %
     %                                                                      %
     %   R. Sabatini et al., J. Phys.: Condens. Matter 24, 424209 (2012).   %
     %                                                                      %
     %%%%%%%%%%%%%%%%%%%%%%%%%%%%%%%%%%%%%%%%%%%%%%%%%%%%%%%%%%%%%%%%%%%%%%%%

     Adding external electric field

     Computed dipole along edir(3) :
        Dipole               -8.8495 Ry au,        -22.4931 Debye
        Dipole field         -0.0167 Ry au,

        Potential amp.        1.5481 Ry
        Total length         46.3494 bohr

     Starting wfcs are  299 atomic wfcs
  @ DRIVER MODE: Message from server: STATUS
  @ DRIVER MODE: Message from server: POSDATA
  @ DRIVER MODE: Reading and sharing cell
  @ DRIVER MODE: Reading and sharing positions
  @ DRIVER MODE: Received positions

     Self-consistent Calculation

     iteration #  1     ecut=    29.40 Ry     beta= 0.05
     Davidson diagonalization with overlap
     c_bands:  1 eigenvalues not converged
     c_bands:  2 eigenvalues not converged
     c_bands:  1 eigenvalues not converged
     c_bands:  3 eigenvalues not converged
     c_bands:  3 eigenvalues not converged
     c_bands:  1 eigenvalues not converged
     ethr =  1.00E-05,  avg # of iterations = 19.1

[...]

     total energy              =   -2605.55902350 Ry
     estimated scf accuracy    <    3700.33757703 Ry

     iteration #  2     ecut=    29.40 Ry     beta= 0.05
     Davidson diagonalization with overlap
     ethr =  1.00E-02,  avg # of iterations = 22.2

[...]

     iteration # 64     ecut=    29.40 Ry     beta= 0.05
     Davidson diagonalization with overlap
     c_bands:  1 eigenvalues not converged
     ethr =  5.00E-11,  avg # of iterations = 13.4

[...]

     total energy              =   -2939.15474161 Ry
     estimated scf accuracy    <       0.00000021 Ry

     iteration # 68     ecut=    29.40 Ry     beta= 0.05
     Davidson diagonalization with overlap
     ethr =  5.00E-11,  avg # of iterations =  8.9

     negative rho (up, down):  1.566E-02 0.000E+00

     Adding external electric field

     Computed dipole along edir(3) :
        Dipole                0.7088 Ry au,          1.8015 Debye
        Dipole field          0.0013 Ry au,

        Potential amp.       -0.1240 Ry
        Total length         46.3494 bohr

     End of self-consistent calculation

          k = 0.0000 0.0000 0.0000 ( 18029 PWs)   bands (ev):

   -55.8952 -55.8807 -55.8611 -55.8448 -55.7961 -55.7306 -55.7045 -55.7040
   -55.6940 -55.6700 -55.6694 -55.6358 -55.2866 -55.0955 -54.8727 -54.8387
   -32.4349 -32.3773 -32.2306 -32.2281 -32.2026 -32.1995 -32.1882 -32.1600
   -32.1377 -32.1247 -32.1029 -32.0670 -32.0614 -32.0475 -32.0340 -32.0205
   -32.0181 -31.9992 -31.9855 -31.9524 -31.9446 -31.9402 -31.8994 -31.8941
   -31.8919 -31.8885 -31.8803 -31.8756 -31.8715 -31.8445 -31.8440 -31.8348
   -31.8336 -31.8224 -31.8105 -31.7816 -31.7782 -31.5666 -31.4600 -31.3577
   -31.3557 -31.3113 -31.2799 -31.1914 -31.1690 -31.0965 -31.0100 -30.8991
   -18.4411 -16.6332 -16.3682 -16.1392 -16.0455 -16.0136 -15.8955 -15.7331
   -15.6155 -15.5607 -15.4633 -15.4438 -15.4304 -15.3988 -15.3802 -15.3749
   -15.3410 -15.3373 -15.3183 -15.3032 -15.2551 -15.2315 -15.2096 -15.1102
   -15.0641 -15.0299 -15.0146 -14.9520 -14.9468 -14.4419 -13.3751 -13.2586
   -11.3613  -6.9303  -4.3461  -4.0031  -3.8894  -3.8610  -3.8478  -3.8005
    -3.7443  -3.6244  -3.4993  -3.4372  -3.1264  -3.0784  -3.0625  -3.0453
    -3.0077  -2.8002  -2.7488  -2.7085  -2.6839  -2.6768  -2.6659  -2.6582
    -2.6465  -2.6081  -2.5056  -2.4363  -2.4284  -2.3445  -2.2936  -2.2705
    -2.2069  -2.1873  -2.1655  -2.1425  -2.1312  -2.1099  -2.0901  -2.0792
    -1.9740  -1.8832  -1.7504  -1.6948  -1.6729  -1.6571  -1.6433  -1.5029
    -1.3703  -1.3380  -1.3280  -1.3201  -1.2867  -1.2752  -1.1922  -1.0630
    -1.0522  -1.0120  -0.9602  -0.9023  -0.8771  -0.7751  -0.7385  -0.6615
    -0.6564  -0.6394  -0.5865  -0.5339  -0.3764  -0.3347  -0.3084  -0.2864
    -0.2618  -0.1912  -0.1697  -0.0530  -0.0360  -0.0183   0.0418   0.0651
     0.0782   0.0881   0.1057   0.1237   0.1415   0.3084   0.3807   0.4331
     0.4567   0.5146   0.6394   0.7087   0.7635   0.8640   1.0751   1.1494
     1.2420   1.3415   1.7207   1.7664   2.6471   3.2440   3.3247   3.3736
     3.3883   3.4852   3.5192   3.6959   3.6966   3.7253   3.7954

[...]

          k = 0.0380-0.0419 0.0000 ( 17876 PWs)   bands (ev):

[...]

          k =-0.0760-0.0000 0.0000 ( 17886 PWs)   bands (ev):

[...]

          k =-0.0760-0.0839 0.0000 ( 17948 PWs)   bands (ev):

   -55.8786 -55.8776 -55.8629 -55.8624 -55.7927 -55.7186 -55.7078 -55.7061
   -55.6879 -55.6855 -55.6534 -55.6521 -55.2851 -55.0968 -54.8557 -54.8556
   -32.2395 -32.2376 -32.1930 -32.1922 -32.1741 -32.1730 -32.1700 -32.1346
   -32.0891 -32.0861 -32.0800 -32.0794 -32.0427 -32.0133 -32.0056 -32.0049
   -31.9985 -31.9982 -31.9978 -31.9971 -31.9935 -31.9921 -31.9896 -31.9383
   -31.9245 -31.9123 -31.9113 -31.9001 -31.8871 -31.8866 -31.8842 -31.8833
   -31.8678 -31.8671 -31.8575 -31.8549 -31.6950 -31.5683 -31.4681 -31.4150
   -31.3574 -31.3368 -31.1818 -31.1816 -31.0927 -31.0925 -31.0533 -31.0533
   -18.4368 -16.0690 -16.0430 -15.8429 -15.8098 -15.8058 -15.7913 -15.6825
   -15.5976 -15.5904 -15.5876 -15.5210 -15.4912 -15.4753 -15.4347 -15.4224
   -15.4147 -15.4033 -15.3926 -15.3560 -15.3486 -15.3313 -15.3239 -15.2397
   -15.2119 -15.2078 -15.1820 -15.0641 -14.9328 -14.6181 -13.3605 -13.3604
   -11.3590  -6.9420  -4.2554  -3.8986  -3.8343  -3.3585  -3.3296  -3.0893
    -3.0507  -3.0369  -2.9836  -2.8220  -2.7917  -2.7659  -2.7543  -2.7227
    -2.7175  -2.7054  -2.7001  -2.6802  -2.6389  -2.6175  -2.5999  -2.5821
    -2.5630  -2.5490  -2.5327  -2.5163  -2.5066  -2.4670  -2.4437  -2.4321
    -2.4137  -2.4016  -2.2451  -2.1223  -2.0881  -2.0336  -2.0233  -2.0019
    -1.9615  -1.9576  -1.9458  -1.8817  -1.8087  -1.6518  -1.6121  -1.5945
    -1.5761  -1.5565  -1.5006  -1.4602  -1.3734  -1.2988  -1.2752  -1.2706
    -1.2021  -1.1152  -1.1073  -1.0601  -1.0171  -1.0078  -0.9531  -0.8882
    -0.8575  -0.8532  -0.8009  -0.7313  -0.7138  -0.6636  -0.6567  -0.6124
    -0.5572  -0.5492  -0.5278  -0.4872  -0.4053  -0.3817  -0.2431  -0.1634
    -0.0407   0.0736   0.1678   0.1822   0.2621   0.3142   0.3978   0.4156
     0.4259   0.4351   0.4782   0.5616   0.6369   0.6516   0.6976   0.8185
     1.5131   1.5139   1.5860   1.5862   2.7038   3.4911   3.5358   3.5778
     3.6101   3.7164   3.7488   3.7725   3.7739   3.8017   3.9168

     the Fermi energy is     3.2391 ev

!    total energy              =   -2939.15477543 Ry
     estimated scf accuracy    <       0.00000007 Ry
     smearing contrib. (-TS)   =      -0.02244249 Ry
     internal energy E=F+TS    =   -2939.13233294 Ry

     The total energy is F=E-TS. E is the sum of the following terms:
     one-electron contribution =  -24176.16351930 Ry
     hartree contribution      =   12175.33264433 Ry
     xc contribution           =    -485.18321258 Ry
     ewald contribution        =    9546.88080660 Ry
     electric field correction =       0.00094801 Ry

     convergence has been achieved in  68 iterations

     Forces acting on atoms (cartesian axes, Ry/au):

     atom    1 type  1   force =     0.00012570   -0.00024055    0.09666380
     atom    2 type  1   force =    -0.00010786   -0.00050490   -0.17524551
     atom    3 type  2   force =     0.00000114   -0.00009861   -0.02498279
     atom    4 type  2   force =     0.00005273   -0.00149987    0.05299576
     atom    5 type  2   force =    -0.01216742   -0.00109357    0.00361252
     atom    6 type  2   force =     0.01371082   -0.00028908    0.00229049
     atom    7 type  1   force =    -0.00117195    0.00035908   -0.01151476
     atom    8 type  1   force =     0.00056320    0.00940540    0.02851284
     atom    9 type  2   force =     0.00019235    0.00053008   -0.00013324
     atom   10 type  2   force =    -0.00115641    0.00028381   -0.01822386
     atom   11 type  2   force =    -0.00012127   -0.00000840   -0.00012307
     atom   12 type  2   force =     0.00014122    0.00022524    0.00018749
     atom   13 type  1   force =     0.00008444   -0.00030819    0.00013633
     atom   14 type  1   force =     0.00022716    0.00016889    0.00020958
     atom   15 type  2   force =    -0.00005136   -0.00005661   -0.00011995
     atom   16 type  2   force =    -0.00034519    0.00033977    0.00035053
     atom   17 type  2   force =    -0.00047525    0.00025205   -0.00036614
     atom   18 type  2   force =    -0.00018260    0.00032087    0.00042511
     atom   19 type  1   force =     0.00019981    0.00014045    0.00013368
     atom   20 type  1   force =    -0.00075447   -0.00022686    0.00026009
     atom   21 type  2   force =     0.00008448    0.00001818    0.10324227
     atom   22 type  2   force =    -0.00006404    0.00024213    0.00075535
     atom   23 type  2   force =    -0.07143740   -0.00007746   -0.02771778
     atom   24 type  2   force =     0.07140559    0.00034240   -0.02772967
     atom   25 type  1   force =     0.00007324   -0.00022264    0.09638355
     atom   26 type  1   force =    -0.00021992   -0.00025686   -0.17564467
     atom   27 type  2   force =     0.00007219   -0.00025182   -0.02398481
     atom   28 type  2   force =     0.00009753   -0.00126150    0.05286607
     atom   29 type  2   force =    -0.01240803    0.00003620    0.00352719
     atom   30 type  2   force =     0.01386857    0.00032297    0.00217073
     atom   31 type  1   force =    -0.00112531    0.00333348   -0.01192328
     atom   32 type  1   force =     0.00065059   -0.01115380    0.02911948
     atom   33 type  2   force =     0.00010507   -0.00020007   -0.00039282
     atom   34 type  2   force =    -0.00088752   -0.00093644   -0.02481953
     atom   35 type  2   force =    -0.00039170    0.00027183    0.00003110
     atom   36 type  2   force =     0.00072377    0.00028592    0.00034181
     atom   37 type  1   force =    -0.00001412   -0.00022040    0.00003562
     atom   38 type  1   force =    -0.00000463    0.00010535   -0.00000123
     atom   39 type  2   force =     0.00042646    0.00033368   -0.00043645
     atom   40 type  2   force =    -0.00032017    0.00010450    0.00013530
     atom   41 type  2   force =    -0.00080765    0.00070884   -0.00010336
     atom   42 type  2   force =    -0.00032524    0.00027540    0.00064536
     atom   43 type  1   force =     0.00015320    0.00039723    0.00045306
     atom   44 type  1   force =    -0.00067175    0.00021249    0.00081529
     atom   45 type  2   force =     0.00008170   -0.00002877    0.10323922
     atom   46 type  2   force =    -0.07146481   -0.00002938   -0.02774024
     atom   47 type  2   force =     0.07142786    0.00039634   -0.02776206
     atom   48 type  3   force =    -0.00050913   -0.00070154   -0.00159287
     atom   49 type  3   force =     0.00271376    0.00009131    0.00118041
     atom   50 type  4   force =     0.00195693    0.00052898   -0.00078296
     atom   51 type  5   force =     0.00009012    0.00071144   -0.00041680
     atom   52 type  5   force =    -0.00123659   -0.00090805    0.00102933
     atom   53 type  5   force =    -0.00080783   -0.00016895    0.00000847

     Total force =     0.368338     Total SCF correction =     0.000744
  @ DRIVER MODE: Message from server: STATUS
  @ DRIVER MODE: Message from server: GETFORCE
  @ DRIVER MODE: Returning v,forces,stress,ensemble

     Writing output data file ./calc.save/
  @ DRIVER MODE: Message from server: EXIT
  @ DRIVE MODE: Exiting

     General routines

     Parallel routines

   This run was terminated on:   0:24:15   9Sep2021

   JOB DONE.