     Program PWSCF v.6.7GPU starts on 13Oct2021 at  5:24:34

     R & G space division:  proc/nbgrp/npool/nimage =       8
     Reading input from /storage/home/hcoda1/3/ntian30/research/carbon/ACS_vib/ads_slab/H2NNH2/out_0033/pw.inp
Warning: card &CELL ignored
Warning: card   CELL_DYNAMICS='IPI', ignored
Warning: card / ignored

     Current dimensions of program PWSCF are:
     Max number of different atomic species (ntypx) = 10
     Max number of k-points (npk) =  40000
     Max angular momentum in pseudopotentials (lmaxx) =  3
     Presently no symmetry can be used with electric field

     Message from routine cell_base_init:
     DEPRECATED: use true lattice parameter, not A to a.u. conversion factor

     IMPORTANT: XC functional enforced from input :
     Exchange-correlation= BEEF-VDW
                           (   1   4  43  14   2   0   0)
     Any further DFT definition will be discarded
     Please, verify this is what you really want

  @ DRIVER MODE: Connecting to
 qe_1139763_3181310.sched-torque.pace.gatech.edujks0g3dy_scratch
  using UNIX socket
  @ DRIVER MODE: Message from server: STATUS
  @ DRIVER MODE: Message from server: INIT
  @ DRIVER MODE: Receiving replica           0          -1
  @ DRIVER MODE: Receiving encoded integer          25
  @ DRIVER MODE:  SCF:  T  FORCE:  T  STRESS:  F  VC:  F  ENSEMBLE:  F
  @ DRIVER MODE:  SCF:  T  FORCE:  T  STRESS:  F  VC:  F  ENSEMBLE:  F

     Using Slab Decomposition

     bravais-lattice index     =            0
     lattice parameter (alat)  =       1.8897  a.u.
     unit-cell volume          =    6658.9804 (a.u.)^3
     number of atoms/cell      =           53
     number of atomic types    =            4
     number of electrons       =       392.00
     number of Kohn-Sham states=          206
     kinetic-energy cutoff     =      29.3995  Ry
     charge density cutoff     =     293.9946  Ry
     scf convergence threshold =      7.3E-08
     mixing beta               =       0.0500
     number of iterations used =            8  plain     mixing
     Exchange-correlation= BEEF-VDW
                           (   1   4  43  14   2   0   0)

     celldm(1)=   1.889726  celldm(2)=   0.000000  celldm(3)=   0.000000
     celldm(4)=   0.000000  celldm(5)=   0.000000  celldm(6)=   0.000000

     crystal axes: (cart. coord. in units of alat)
               a(1) = (   6.579727   0.000000   0.000000 )
               a(2) = (  -0.000775   5.961596   0.000000 )
               a(3) = (   0.000000   0.000000  25.155947 )

     reciprocal axes: (cart. coord. in units 2 pi/alat)
               b(1) = (  0.151982  0.000020  0.000000 )
               b(2) = (  0.000000  0.167740  0.000000 )
               b(3) = (  0.000000  0.000000  0.039752 )

     PseudoPot. # 1 for Ti read from file:
     /storage/coda1/p-amedford6/0/shared/rich_project_chbe-medford/medford-share/data/pseudos_module/espresso/nninc/pbe/van/Ti.UPF
     MD5 check sum: 8e4df49b7f0d34bbd5052bf3f5ea0213
     Pseudo is Ultrasoft, Zval = 12.0
     Generated by new atomic code, or converted to UPF format
     Using radial grid of  851 points,  6 beta functions with:
                l(1) =   0
                l(2) =   0
                l(3) =   1
                l(4) =   1
                l(5) =   2
                l(6) =   2
     Q(r) pseudized with  8 coefficients,  rinner =    1.000   1.000   1.000
                                                       1.000   1.000

     PseudoPot. # 2 for O  read from file:
     /storage/coda1/p-amedford6/0/shared/rich_project_chbe-medford/medford-share/data/pseudos_module/espresso/nninc/pbe/van/O.UPF
     MD5 check sum: 78c19812648e8988a0fe644b0f25305e
     Pseudo is Ultrasoft, Zval =  6.0
     Generated by new atomic code, or converted to UPF format
     Using radial grid of  737 points,  4 beta functions with:
                l(1) =   0
                l(2) =   0
                l(3) =   1
                l(4) =   1
     Q(r) pseudized with  8 coefficients,  rinner =    0.800   0.800   0.800

     PseudoPot. # 3 for H  read from file:
     /storage/coda1/p-amedford6/0/shared/rich_project_chbe-medford/medford-share/data/pseudos_module/espresso/nninc/pbe/van/H.UPF
     MD5 check sum: b5ee9d7bfd3a09ee7748110bda690ff7
     Pseudo is Ultrasoft, Zval =  1.0
     Generated by new atomic code, or converted to UPF format
     Using radial grid of  615 points,  1 beta functions with:
                l(1) =   0
     Q(r) pseudized with  8 coefficients,  rinner =    0.800

     PseudoPot. # 4 for N  read from file:
     /storage/coda1/p-amedford6/0/shared/rich_project_chbe-medford/medford-share/data/pseudos_module/espresso/nninc/pbe/van/N.UPF
     MD5 check sum: 90d10febe142ad51ac9d5be1deb811c4
     Pseudo is Ultrasoft, Zval =  5.0
     Generated by new atomic code, or converted to UPF format
     Using radial grid of  729 points,  4 beta functions with:
                l(1) =   0
                l(2) =   0
                l(3) =   1
                l(4) =   1
     Q(r) pseudized with  8 coefficients,  rinner =    0.800   0.800   0.800

     atomic species   valence    mass     pseudopotential
        Ti1           12.00    47.86700     Ti( 1.00)
        O1             6.00    15.99900     O ( 1.00)
        H1             1.00     1.00800     H ( 1.00)
        N1             5.00    14.00700     N ( 1.00)

     No symmetry found

   Cartesian axes

     site n.     atom                  positions (alat units)
         1           Ti1 tau(   1) = (   0.0004258   2.9801865   6.0000000  )
         2           Ti1 tau(   2) = (   3.2906075   1.4906267   6.0002472  )
         3           O1  tau(   3) = (   0.0006271   0.0005054   7.9858123  )
         4           O1  tau(   4) = (   3.2906025   0.0005020   7.3038282  )
         5           O1  tau(   5) = (   4.5942328   1.4918067   9.2879030  )
         6           O1  tau(   6) = (   1.9868534   1.4903216   9.2879459  )
         7           Ti1 tau(   7) = (   3.2907910   2.8959150   9.1758416  )
         8           Ti1 tau(   8) = (   0.0001184   1.4796821   9.2618995  )
         9           O1  tau(   9) = (   3.3033009   5.9571037  11.3689245  )
        10           O1  tau(  10) = (   0.0046093   5.9606512  10.6148452  )
        11           O1  tau(  11) = (   1.3031693   1.4924284  12.6635891  )
        12           O1  tau(  12) = (   5.3048943   1.4931164  12.6630676  )
        13           Ti1 tau(  13) = (   0.0220873   2.9701805  12.5026553  )
        14           Ti1 tau(  14) = (   3.3209497   1.4853901  12.5165241  )
        15           O1  tau(  15) = (   0.0111090   5.9548334  14.6950652  )
        16           O1  tau(  16) = (   3.3059555   5.9578033  13.9930857  )
        17           O1  tau(  17) = (   4.5400856   1.4977043  16.1996482  )
        18           O1  tau(  18) = (   2.0449602   1.5055634  16.1912035  )
        19           Ti1 tau(  19) = (   3.3033294   2.9754315  15.7369611  )
        20           Ti1 tau(  20) = (   0.0669189   1.3514287  15.9855452  )
        21           O1  tau(  21) = (   3.2904802   0.0005063   4.7018136  )
        22           O1  tau(  22) = (   0.0169155   5.9572437  17.2386537  )
        23           O1  tau(  23) = (   1.3043587   1.4918075   6.0039043  )
        24           O1  tau(  24) = (   5.2767064   1.4903225   6.0039473  )
        25           Ti1 tau(  25) = (   0.0000382   5.9609847   6.0000000  )
        26           Ti1 tau(  26) = (   3.2902200   4.4714249   6.0002472  )
        27           O1  tau(  27) = (   0.0002396   2.9813036   7.9858123  )
        28           O1  tau(  28) = (   3.2902150   2.9813002   7.3038282  )
        29           O1  tau(  29) = (   4.5938453   4.4726049   9.2879030  )
        30           O1  tau(  30) = (   1.9864658   4.4711199   9.2879459  )
        31           Ti1 tau(  31) = (   3.2891106   5.8743827   9.1763621  )
        32           Ti1 tau(  32) = (  -0.0005703   4.4645639   9.2621285  )
        33           O1  tau(  33) = (   3.3036452   2.9764387  11.3618117  )
        34           O1  tau(  34) = (   0.0064946   2.9800876  10.6274040  )
        35           O1  tau(  35) = (   1.3025983   4.4627906  12.6614389  )
        36           O1  tau(  36) = (   5.3044333   4.4622094  12.6652126  )
        37           Ti1 tau(  37) = (   0.0242538   5.9517307  12.5043500  )
        38           Ti1 tau(  38) = (   3.3173473   4.4639239  12.5158395  )
        39           O1  tau(  39) = (   0.0133908   2.9741471  14.9664594  )
        40           O1  tau(  40) = (   3.3068033   2.9766936  13.9537582  )
        41           O1  tau(  41) = (   4.5624531   4.4468677  16.1922021  )
        42           O1  tau(  42) = (   2.0658021   4.4533190  16.1937748  )
        43           Ti1 tau(  43) = (   3.3070936   5.9559909  15.7859554  )
        44           Ti1 tau(  44) = (   6.5464735   4.5686029  15.9538643  )
        45           O1  tau(  45) = (   3.2900926   2.9813045   4.7018136  )
        46           O1  tau(  46) = (   1.3039711   4.4726057   6.0039043  )
        47           O1  tau(  47) = (   5.2763189   4.4711207   6.0039473  )
        48           H1  tau(  48) = (   6.1991321   4.2482542  18.7414658  )
        49           H1  tau(  49) = (   1.1283133   3.8395711  18.1715982  )
        50           N1  tau(  50) = (   0.1317752   3.6792193  18.0720352  )
        51           N1  tau(  51) = (   6.4315599   2.2892659  18.0961467  )
        52           H1  tau(  52) = (   5.4285218   2.1347736  18.1483859  )
        53           H1  tau(  53) = (   0.3235236   1.7479878  18.8239140  )

     number of k points=    10  Fermi-Dirac smearing, width (Ry)=  0.0073
                       cart. coord. in units 2pi/alat
        k(    1) = (   0.0000000   0.0000000   0.0000000), wk =   0.1250000
        k(    2) = (   0.0000000   0.0419351   0.0000000), wk =   0.2500000
        k(    3) = (   0.0000000  -0.0838702   0.0000000), wk =   0.1250000
        k(    4) = (   0.0379955   0.0000049   0.0000000), wk =   0.2500000
        k(    5) = (   0.0379955   0.0419400   0.0000000), wk =   0.2500000
        k(    6) = (   0.0379955  -0.0838652   0.0000000), wk =   0.2500000
        k(    7) = (   0.0379955  -0.0419301   0.0000000), wk =   0.2500000
        k(    8) = (  -0.0759910  -0.0000099   0.0000000), wk =   0.1250000
        k(    9) = (  -0.0759910   0.0419252   0.0000000), wk =   0.2500000
        k(   10) = (  -0.0759910  -0.0838800   0.0000000), wk =   0.1250000

     Initial potential from superposition of free atoms

     starting charge  375.99919, renormalised to  392.00000

     negative rho (up, down):  1.864E-02 0.000E+00

     %%%%%%%%%%%%%%%%%%%%%%%%%%%%%%%%%%%%%%%%%%%%%%%%%%%%%%%%%%%%%%%%%%%%%%%%
     %                                                                      %
     % You are using vdW-DF, which was implemented by the Thonhauser group. %
     % Please cite the following two papers that made this development      %
     % possible and the two reviews that describe the various versions:     %
     %                                                                      %
     %   T. Thonhauser et al., PRL 115, 136402 (2015).                      %
     %   T. Thonhauser et al., PRB 76, 125112 (2007).                       %
     %   K. Berland et al., Rep. Prog. Phys. 78, 066501 (2015).             %
     %   D.C. Langreth et al., J. Phys.: Condens. Matter 21, 084203 (2009). %
     %                                                                      %
     %                                                                      %
     % If you are calculating the stress with vdW-DF, please also cite:     %
     %                                                                      %
     %   R. Sabatini et al., J. Phys.: Condens. Matter 24, 424209 (2012).   %
     %                                                                      %
     %%%%%%%%%%%%%%%%%%%%%%%%%%%%%%%%%%%%%%%%%%%%%%%%%%%%%%%%%%%%%%%%%%%%%%%%

     Adding external electric field

     Computed dipole along edir(3) :
        Dipole               -7.0277 Ry au,        -17.8625 Debye
        Dipole field         -0.0133 Ry au,

        Potential amp.        1.2294 Ry
        Total length         46.3494 bohr

     Starting wfcs are  296 atomic wfcs
  @ DRIVER MODE: Message from server: STATUS
  @ DRIVER MODE: Message from server: POSDATA
  @ DRIVER MODE: Reading and sharing cell
  @ DRIVER MODE: Reading and sharing positions
  @ DRIVER MODE: Received positions

     Self-consistent Calculation

     iteration #  1     ecut=    29.40 Ry     beta= 0.05
     Davidson diagonalization with overlap
     c_bands:  1 eigenvalues not converged
     c_bands:  1 eigenvalues not converged
     c_bands:  2 eigenvalues not converged
     c_bands:  1 eigenvalues not converged
     c_bands:  1 eigenvalues not converged
     c_bands:  1 eigenvalues not converged
     ethr =  1.00E-05,  avg # of iterations = 19.6

[...]

     total energy              =   -2685.32508456 Ry
     estimated scf accuracy    <    2688.07827644 Ry

[...]

     iteration #  5     ecut=    29.40 Ry     beta= 0.05
     Davidson diagonalization with overlap
     ethr =  1.00E-02,  avg # of iterations = 11.0

[...]

     iteration # 81     ecut=    29.40 Ry     beta= 0.05
     Davidson diagonalization with overlap
     ethr =  4.95E-11,  avg # of iterations =  1.6

[...]

     total energy              =   -2928.89053745 Ry
     estimated scf accuracy    <       0.00000029 Ry

     iteration # 84     ecut=    29.40 Ry     beta= 0.05
     Davidson diagonalization with overlap
     c_bands:  1 eigenvalues not converged
     ethr =  4.45E-11,  avg # of iterations = 10.9

     negative rho (up, down):  1.642E-02 0.000E+00

     Adding external electric field

     Computed dipole along edir(3) :
        Dipole                1.6240 Ry au,          4.1279 Debye
        Dipole field          0.0031 Ry au,

        Potential amp.       -0.2841 Ry
        Total length         46.3494 bohr

     End of self-consistent calculation

          k = 0.0000 0.0000 0.0000 ( 18029 PWs)   bands (ev):

   -55.3074 -55.2714 -55.2563 -55.2222 -55.1818 -55.1760 -55.1475 -55.1207
   -55.0998 -55.0894 -55.0861 -55.0814 -55.0556 -55.0267 -54.2854 -54.2513
   -31.8797 -31.7500 -31.6953 -31.6693 -31.6246 -31.6107 -31.6054 -31.5975
   -31.5476 -31.5465 -31.5179 -31.5161 -31.5021 -31.4802 -31.4644 -31.4512
   -31.4450 -31.4254 -31.4193 -31.4082 -31.3986 -31.3727 -31.3713 -31.3603
   -31.3520 -31.3237 -31.3129 -31.3125 -31.3051 -31.2988 -31.2942 -31.2901
   -31.2844 -31.2753 -31.2730 -31.2689 -31.2631 -31.2350 -31.2199 -31.2169
   -31.2013 -31.1312 -30.6947 -30.6009 -30.5788 -30.5110 -30.4242 -30.3134
   -18.6089 -16.1486 -15.8867 -15.7518 -15.5970 -15.5053 -15.4012 -15.3435
   -15.2374 -15.1557 -15.0686 -15.0559 -15.0316 -15.0048 -14.9658 -14.9324
   -14.8477 -14.8430 -14.8201 -14.8001 -14.7984 -14.7502 -14.7411 -14.7222
   -14.7022 -14.6816 -14.5472 -14.4619 -14.3940 -14.1328 -13.3136 -12.7884
   -12.6710  -7.5315  -7.0027  -5.5048  -3.4856  -3.3208  -3.2950  -3.2385
    -3.2001  -3.0598  -2.9459  -2.7266  -2.7097  -2.6225  -2.5871  -2.5391
    -2.5172  -2.4985  -2.3319  -2.3031  -2.2900  -2.2336  -2.1729  -2.1185
    -2.1036  -2.0995  -2.0885  -2.0701  -2.0648  -1.9447  -1.8704  -1.7966
    -1.7329  -1.6999  -1.6629  -1.6544  -1.6353  -1.5958  -1.5881  -1.5576
    -1.5432  -1.4973  -1.4687  -1.3395  -1.2874  -1.2157  -1.0296  -0.9418
    -0.8964  -0.8821  -0.8482  -0.8024  -0.7888  -0.6852  -0.6707  -0.6489
    -0.6047  -0.5410  -0.4848  -0.4338  -0.3641  -0.3049  -0.2962  -0.1926
    -0.0953  -0.0856  -0.0646   0.0327   0.0679   0.1156   0.1950   0.2112
     0.2232   0.3103   0.3520   0.3882   0.4271   0.4515   0.5751   0.6191
     0.6326   0.6468   0.6511   0.6767   0.7034   0.7682   0.7988   0.8681
     0.9936   1.0990   1.1666   1.2653   1.3080   1.6405   1.6440   1.7370
     1.9209   2.3116   2.3586   3.7933   3.8623   3.9364   3.9458   3.9555
     4.0276   4.1127   4.2667   4.2906   4.2987   4.3149

[...]

          k = 0.0380-0.0419 0.0000 ( 17876 PWs)   bands (ev):

[...]

          k =-0.0760-0.0000 0.0000 ( 17886 PWs)   bands (ev):

[...]

          k =-0.0760-0.0839 0.0000 ( 17948 PWs)   bands (ev):

   -55.2895 -55.2891 -55.2395 -55.2389 -55.1718 -55.1648 -55.1646 -55.1054
   -55.1036 -55.1009 -55.0745 -55.0739 -55.0712 -55.0336 -54.2683 -54.2682
   -31.6836 -31.6817 -31.6030 -31.5913 -31.5713 -31.5654 -31.5648 -31.5327
   -31.5312 -31.5112 -31.5084 -31.5065 -31.5002 -31.4449 -31.4421 -31.4389
   -31.4341 -31.4334 -31.4316 -31.4282 -31.3978 -31.3855 -31.3818 -31.3715
   -31.3584 -31.3581 -31.3572 -31.3569 -31.3436 -31.3392 -31.3345 -31.3263
   -31.3192 -31.3146 -31.3033 -31.2992 -31.2992 -31.2905 -31.2707 -31.2563
   -31.2545 -31.2363 -30.5915 -30.5914 -30.5073 -30.5071 -30.4677 -30.4676
   -18.5937 -15.5932 -15.5719 -15.5309 -15.3364 -15.3264 -15.3133 -15.3101
   -15.2076 -15.1931 -15.1208 -15.0957 -15.0487 -15.0291 -15.0136 -15.0121
   -14.9193 -14.8997 -14.8941 -14.8918 -14.8211 -14.8129 -14.8045 -14.7956
   -14.7654 -14.7586 -14.6565 -14.6538 -14.6245 -14.6054 -13.1444 -12.7725
   -12.7724  -7.5308  -7.0281  -5.5559  -3.0629  -2.8610  -2.7873  -2.7115
    -2.5540  -2.5334  -2.4932  -2.3829  -2.3439  -2.3298  -2.3228  -2.2913
    -2.2386  -2.2199  -2.2091  -2.1480  -2.1457  -2.1258  -2.1168  -2.0911
    -2.0797  -2.0359  -2.0271  -2.0082  -1.9710  -1.9543  -1.9301  -1.9052
    -1.8999  -1.8820  -1.8238  -1.7914  -1.6834  -1.6697  -1.6065  -1.5131
    -1.5057  -1.4240  -1.3965  -1.3618  -1.3399  -1.3376  -1.2180  -1.1363
    -1.0820  -1.0506  -1.0437  -0.9347  -0.8982  -0.8164  -0.8033  -0.7899
    -0.7320  -0.6487  -0.6259  -0.6082  -0.5256  -0.4624  -0.4542  -0.3601
    -0.3380  -0.2746  -0.2619  -0.2603  -0.2180  -0.1991  -0.1733  -0.1134
    -0.0773  -0.0402  -0.0184   0.0211   0.2180   0.2394   0.2622   0.3921
     0.5099   0.5324   0.5667   0.6039   0.6986   0.7630   0.8034   0.8497
     0.9001   0.9859   0.9951   1.0899   1.0962   1.1515   1.1581   2.0936
     2.0945   2.1794   2.1803   3.9632   4.0054   4.0658   4.0954   4.1784
     4.3069   4.3225   4.3766   4.3782   4.4444   4.4489

     the Fermi energy is     3.8564 ev

!    total energy              =   -2928.89054151 Ry
     estimated scf accuracy    <       0.00000004 Ry
     smearing contrib. (-TS)   =      -0.03700448 Ry
     internal energy E=F+TS    =   -2928.85353702 Ry

     The total energy is F=E-TS. E is the sum of the following terms:
     one-electron contribution =  -24386.89018484 Ry
     hartree contribution      =   12284.96289013 Ry
     xc contribution           =    -482.73985842 Ry
     ewald contribution        =    9655.80863889 Ry
     electric field correction =       0.00497721 Ry

     convergence has been achieved in  84 iterations

     Forces acting on atoms (cartesian axes, Ry/au):

     atom    1 type  1   force =     0.00007482   -0.00018229    0.09195177
     atom    2 type  1   force =    -0.00017807   -0.00022685   -0.17805464
     atom    3 type  2   force =     0.00000628   -0.00050237   -0.02213660
     atom    4 type  2   force =     0.00002820   -0.00184535    0.05825752
     atom    5 type  2   force =    -0.01041113   -0.00081420    0.00667882
     atom    6 type  2   force =     0.01170793   -0.00036831    0.00700304
     atom    7 type  1   force =    -0.00031629    0.00236352   -0.01478233
     atom    8 type  1   force =     0.00006489    0.00000780    0.00013910
     atom    9 type  2   force =    -0.00010635   -0.00011430   -0.00082374
     atom   10 type  2   force =     0.00012444   -0.00004688    0.00052840
     atom   11 type  2   force =     0.00011522   -0.00006357   -0.00026850
     atom   12 type  2   force =    -0.00032539   -0.00005214   -0.00018352
     atom   13 type  1   force =     0.00006757    0.00019315    0.00012432
     atom   14 type  1   force =    -0.00009746   -0.00010498   -0.00013204
     atom   15 type  2   force =     0.00022422    0.00007025    0.00079363
     atom   16 type  2   force =    -0.00010021    0.00007569   -0.00029559
     atom   17 type  2   force =    -0.00037049   -0.00012999    0.00022127
     atom   18 type  2   force =     0.00061228   -0.00013847    0.00037382
     atom   19 type  1   force =    -0.00001321   -0.00004406    0.00043977
     atom   20 type  1   force =    -0.00088696   -0.00022452    0.00055615
     atom   21 type  2   force =     0.00000699   -0.00002600    0.10390018
     atom   22 type  2   force =    -0.00001162    0.00019303   -0.00103432
     atom   23 type  2   force =    -0.07049951   -0.00019753   -0.02663752
     atom   24 type  2   force =     0.07034285    0.00022645   -0.02669492
     atom   25 type  1   force =     0.00003206   -0.00013022    0.09065498
     atom   26 type  1   force =    -0.00018294   -0.00036421   -0.17821917
     atom   27 type  2   force =     0.00000643   -0.00017627   -0.02113773
     atom   28 type  2   force =     0.00006320   -0.00153344    0.05747575
     atom   29 type  2   force =    -0.01049019   -0.00097163    0.00672911
     atom   30 type  2   force =     0.01165409   -0.00039473    0.00703620
     atom   31 type  1   force =    -0.00036667    0.00548773   -0.01571758
     atom   32 type  1   force =     0.00004088    0.00000853    0.00007885
     atom   33 type  2   force =    -0.00010493   -0.00008824   -0.00052088
     atom   34 type  2   force =    -0.00003032    0.00000321    0.00022329
     atom   35 type  2   force =     0.00015350   -0.00021262   -0.00014313
     atom   36 type  2   force =    -0.00036639   -0.00019075   -0.00013965
     atom   37 type  1   force =     0.00003994   -0.00007254    0.00074885
     atom   38 type  1   force =    -0.00016651   -0.00038191   -0.00010576
     atom   39 type  2   force =     0.00000977    0.00003704   -0.00010550
     atom   40 type  2   force =    -0.00039114   -0.00004597   -0.00027429
     atom   41 type  2   force =    -0.00056437    0.00005661    0.00031747
     atom   42 type  2   force =     0.00035810    0.00006679    0.00059236
     atom   43 type  1   force =    -0.00012121   -0.00009610   -0.00016227
     atom   44 type  1   force =     0.00022260    0.00090791    0.00117678
     atom   45 type  2   force =     0.00000861   -0.00004300    0.10386912
     atom   46 type  2   force =    -0.07050103   -0.00002959   -0.02666637
     atom   47 type  2   force =     0.07035331    0.00043164   -0.02670044
     atom   48 type  3   force =     0.00063844   -0.00056421    0.00044878
     atom   49 type  3   force =     0.00102852    0.00003219    0.00010883
     atom   50 type  4   force =    -0.00099890   -0.00135316    0.00169947
     atom   51 type  4   force =     0.00123365   -0.00451949    0.00445003
     atom   52 type  3   force =     0.00138244    0.00066244   -0.00018666
     atom   53 type  3   force =    -0.00299993    0.00542592   -0.00545450

     Total force =     0.365187     Total SCF correction =     0.000545
  @ DRIVER MODE: Message from server: STATUS
  @ DRIVER MODE: Message from server: GETFORCE
  @ DRIVER MODE: Returning v,forces,stress,ensemble

     Writing output data file ./calc.save/
  @ DRIVER MODE: Message from server: EXIT
  @ DRIVE MODE: Exiting

     General routines

     Parallel routines

   This run was terminated on:   5:57:15  13Oct2021

   JOB DONE.