     Program PWSCF v.6.7GPU starts on 12Oct2021 at 16:36:39

     R & G space division:  proc/nbgrp/npool/nimage =       8
     Reading input from /storage/home/hcoda1/3/ntian30/research/carbon/ACS_vib/ads_slab/HNNH/out_0008/pw.inp
Warning: card &CELL ignored
Warning: card   CELL_DYNAMICS='IPI', ignored
Warning: card / ignored

     Current dimensions of program PWSCF are:
     Max number of different atomic species (ntypx) = 10
     Max number of k-points (npk) =  40000
     Max angular momentum in pseudopotentials (lmaxx) =  3
     Presently no symmetry can be used with electric field

     Message from routine cell_base_init:
     DEPRECATED: use true lattice parameter, not A to a.u. conversion factor

     IMPORTANT: XC functional enforced from input :
     Exchange-correlation= BEEF-VDW
                           (   1   4  43  14   2   0   0)
     Any further DFT definition will be discarded
     Please, verify this is what you really want

  @ DRIVER MODE: Connecting to
 qe_1139763_3181311.sched-torque.pace.gatech.edurin983ja_scratch
  using UNIX socket
  @ DRIVER MODE: Message from server: STATUS
  @ DRIVER MODE: Message from server: INIT
  @ DRIVER MODE: Receiving replica           0          -1
  @ DRIVER MODE: Receiving encoded integer          25
  @ DRIVER MODE:  SCF:  T  FORCE:  T  STRESS:  F  VC:  F  ENSEMBLE:  F
  @ DRIVER MODE:  SCF:  T  FORCE:  T  STRESS:  F  VC:  F  ENSEMBLE:  F

     Using Slab Decomposition

     bravais-lattice index     =            0
     lattice parameter (alat)  =       1.8897  a.u.
     unit-cell volume          =    6658.9804 (a.u.)^3
     number of atoms/cell      =           51
     number of atomic types    =            4
     number of electrons       =       390.00
     number of Kohn-Sham states=          205
     kinetic-energy cutoff     =      29.3995  Ry
     charge density cutoff     =     293.9946  Ry
     scf convergence threshold =      7.3E-08
     mixing beta               =       0.0500
     number of iterations used =            8  plain     mixing
     Exchange-correlation= BEEF-VDW
                           (   1   4  43  14   2   0   0)

     celldm(1)=   1.889726  celldm(2)=   0.000000  celldm(3)=   0.000000
     celldm(4)=   0.000000  celldm(5)=   0.000000  celldm(6)=   0.000000

     crystal axes: (cart. coord. in units of alat)
               a(1) = (   6.579727   0.000000   0.000000 )
               a(2) = (  -0.000775   5.961596   0.000000 )
               a(3) = (   0.000000   0.000000  25.155947 )

     reciprocal axes: (cart. coord. in units 2 pi/alat)
               b(1) = (  0.151982  0.000020  0.000000 )
               b(2) = (  0.000000  0.167740  0.000000 )
               b(3) = (  0.000000  0.000000  0.039752 )

     PseudoPot. # 1 for Ti read from file:
     /storage/coda1/p-amedford6/0/shared/rich_project_chbe-medford/medford-share/data/pseudos_module/espresso/nninc/pbe/van/Ti.UPF
     MD5 check sum: 8e4df49b7f0d34bbd5052bf3f5ea0213
     Pseudo is Ultrasoft, Zval = 12.0
     Generated by new atomic code, or converted to UPF format
     Using radial grid of  851 points,  6 beta functions with:
                l(1) =   0
                l(2) =   0
                l(3) =   1
                l(4) =   1
                l(5) =   2
                l(6) =   2
     Q(r) pseudized with  8 coefficients,  rinner =    1.000   1.000   1.000
                                                       1.000   1.000

     PseudoPot. # 2 for O  read from file:
     /storage/coda1/p-amedford6/0/shared/rich_project_chbe-medford/medford-share/data/pseudos_module/espresso/nninc/pbe/van/O.UPF
     MD5 check sum: 78c19812648e8988a0fe644b0f25305e
     Pseudo is Ultrasoft, Zval =  6.0
     Generated by new atomic code, or converted to UPF format
     Using radial grid of  737 points,  4 beta functions with:
                l(1) =   0
                l(2) =   0
                l(3) =   1
                l(4) =   1
     Q(r) pseudized with  8 coefficients,  rinner =    0.800   0.800   0.800

     PseudoPot. # 3 for H  read from file:
     /storage/coda1/p-amedford6/0/shared/rich_project_chbe-medford/medford-share/data/pseudos_module/espresso/nninc/pbe/van/H.UPF
     MD5 check sum: b5ee9d7bfd3a09ee7748110bda690ff7
     Pseudo is Ultrasoft, Zval =  1.0
     Generated by new atomic code, or converted to UPF format
     Using radial grid of  615 points,  1 beta functions with:
                l(1) =   0
     Q(r) pseudized with  8 coefficients,  rinner =    0.800

     PseudoPot. # 4 for N  read from file:
     /storage/coda1/p-amedford6/0/shared/rich_project_chbe-medford/medford-share/data/pseudos_module/espresso/nninc/pbe/van/N.UPF
     MD5 check sum: 90d10febe142ad51ac9d5be1deb811c4
     Pseudo is Ultrasoft, Zval =  5.0
     Generated by new atomic code, or converted to UPF format
     Using radial grid of  729 points,  4 beta functions with:
                l(1) =   0
                l(2) =   0
                l(3) =   1
                l(4) =   1
     Q(r) pseudized with  8 coefficients,  rinner =    0.800   0.800   0.800

     atomic species   valence    mass     pseudopotential
        Ti1           12.00    47.86700     Ti( 1.00)
        O1             6.00    15.99900     O ( 1.00)
        H1             1.00     1.00800     H ( 1.00)
        N1             5.00    14.00700     N ( 1.00)

     No symmetry found

   Cartesian axes

     site n.     atom                  positions (alat units)
         1           Ti1 tau(   1) = (   0.0004258   2.9801865   6.0000000  )
         2           Ti1 tau(   2) = (   3.2906075   1.4906267   6.0002472  )
         3           O1  tau(   3) = (   0.0006271   0.0005054   7.9858123  )
         4           O1  tau(   4) = (   3.2906025   0.0005020   7.3038282  )
         5           O1  tau(   5) = (   4.5942328   1.4918067   9.2879030  )
         6           O1  tau(   6) = (   1.9868534   1.4903216   9.2879459  )
         7           Ti1 tau(   7) = (   3.2908881   2.9042228   9.1664735  )
         8           Ti1 tau(   8) = (   0.0028208   1.4453605   9.2576896  )
         9           O1  tau(   9) = (   3.2707936   0.0024169  11.3547307  )
        10           O1  tau(  10) = (   6.5771562   5.9613851  10.5998947  )
        11           O1  tau(  11) = (   1.2750810   1.4887983  12.6623546  )
        12           O1  tau(  12) = (   5.2735957   1.4941237  12.6366476  )
        13           Ti1 tau(  13) = (   6.5484273   3.0048924  12.8091026  )
        14           Ti1 tau(  14) = (   3.2635572   1.4892482  12.5038529  )
        15           O1  tau(  15) = (   6.5112577   5.9342846  14.6610847  )
        16           O1  tau(  16) = (   3.2966729   5.9487847  13.9562402  )
        17           O1  tau(  17) = (   4.4981853   1.5100712  16.1215815  )
        18           O1  tau(  18) = (   1.9927245   1.4809274  16.0269182  )
        19           Ti1 tau(  19) = (   3.2349744   2.9714856  15.7300180  )
        20           Ti1 tau(  20) = (   6.5689460   1.3052557  15.9023701  )
        21           O1  tau(  21) = (   3.2904802   0.0005063   4.7018136  )
        22           O1  tau(  22) = (   6.5497555   0.0700294  17.2054191  )
        23           O1  tau(  23) = (   1.3043587   1.4918075   6.0039043  )
        24           O1  tau(  24) = (   5.2767064   1.4903225   6.0039473  )
        25           Ti1 tau(  25) = (   0.0000382   5.9609847   6.0000000  )
        26           Ti1 tau(  26) = (   3.2902200   4.4714249   6.0002472  )
        27           O1  tau(  27) = (   0.0002396   2.9813036   7.9858123  )
        28           O1  tau(  28) = (   3.2902150   2.9813002   7.3038282  )
        29           O1  tau(  29) = (   4.5938453   4.4726049   9.2879030  )
        30           O1  tau(  30) = (   1.9864658   4.4711199   9.2879459  )
        31           Ti1 tau(  31) = (   3.2899333   5.8856170   9.1744801  )
        32           Ti1 tau(  32) = (   0.0020137   4.3658053   9.3606106  )
        33           O1  tau(  33) = (   3.2690173   2.9735267  11.3530824  )
        34           O1  tau(  34) = (   0.0002412   2.9750176  10.5666245  )
        35           O1  tau(  35) = (   1.2748646   4.4726994  12.6423647  )
        36           O1  tau(  36) = (   5.2720213   4.4664742  12.6163582  )
        37           Ti1 tau(  37) = (   6.5582605   0.0201509  12.4985948  )
        38           Ti1 tau(  38) = (   3.2618569   4.4653106  12.4956167  )
        39           O1  tau(  39) = (   6.5348066   3.0079926  14.7180217  )
        40           O1  tau(  40) = (   3.2797409   2.9875293  13.9337705  )
        41           O1  tau(  41) = (   4.5027845   4.4373921  16.1556124  )
        42           O1  tau(  42) = (   1.9850320   4.4617864  16.0830993  )
        43           Ti1 tau(  43) = (   3.2823567   5.9555293  15.7495178  )
        44           Ti1 tau(  44) = (   6.5552429   4.5047081  16.0597439  )
        45           O1  tau(  45) = (   3.2900926   2.9813045   4.7018136  )
        46           O1  tau(  46) = (   1.3039711   4.4726057   6.0039043  )
        47           O1  tau(  47) = (   5.2763189   4.4711207   6.0039473  )
        48           H1  tau(  48) = (   0.5659039   2.5807529  19.4396776  )
        49           N1  tau(  49) = (   0.9430341   2.9538053  18.5544450  )
        50           N1  tau(  50) = (   6.5241730   3.1816813  17.7405862  )
        51           H1  tau(  51) = (   5.5906726   3.0068531  18.1306748  )

     number of k points=    10  Fermi-Dirac smearing, width (Ry)=  0.0073
                       cart. coord. in units 2pi/alat
        k(    1) = (   0.0000000   0.0000000   0.0000000), wk =   0.1250000
        k(    2) = (   0.0000000   0.0419351   0.0000000), wk =   0.2500000
        k(    3) = (   0.0000000  -0.0838702   0.0000000), wk =   0.1250000
        k(    4) = (   0.0379955   0.0000049   0.0000000), wk =   0.2500000
        k(    5) = (   0.0379955   0.0419400   0.0000000), wk =   0.2500000
        k(    6) = (   0.0379955  -0.0838652   0.0000000), wk =   0.2500000
        k(    7) = (   0.0379955  -0.0419301   0.0000000), wk =   0.2500000
        k(    8) = (  -0.0759910  -0.0000099   0.0000000), wk =   0.1250000
        k(    9) = (  -0.0759910   0.0419252   0.0000000), wk =   0.2500000
        k(   10) = (  -0.0759910  -0.0838800   0.0000000), wk =   0.1250000

     Initial potential from superposition of free atoms

     starting charge  373.99921, renormalised to  390.00000

     negative rho (up, down):  1.941E-02 0.000E+00

     %%%%%%%%%%%%%%%%%%%%%%%%%%%%%%%%%%%%%%%%%%%%%%%%%%%%%%%%%%%%%%%%%%%%%%%%
     %                                                                      %
     % You are using vdW-DF, which was implemented by the Thonhauser group. %
     % Please cite the following two papers that made this development      %
     % possible and the two reviews that describe the various versions:     %
     %                                                                      %
     %   T. Thonhauser et al., PRL 115, 136402 (2015).                      %
     %   T. Thonhauser et al., PRB 76, 125112 (2007).                       %
     %   K. Berland et al., Rep. Prog. Phys. 78, 066501 (2015).             %
     %   D.C. Langreth et al., J. Phys.: Condens. Matter 21, 084203 (2009). %
     %                                                                      %
     %                                                                      %
     % If you are calculating the stress with vdW-DF, please also cite:     %
     %                                                                      %
     %   R. Sabatini et al., J. Phys.: Condens. Matter 24, 424209 (2012).   %
     %                                                                      %
     %%%%%%%%%%%%%%%%%%%%%%%%%%%%%%%%%%%%%%%%%%%%%%%%%%%%%%%%%%%%%%%%%%%%%%%%

     Adding external electric field

     Computed dipole along edir(3) :
        Dipole               -5.1488 Ry au,        -13.0871 Debye
        Dipole field         -0.0097 Ry au,

        Potential amp.        0.9007 Ry
        Total length         46.3494 bohr

     Starting wfcs are  294 atomic wfcs
  @ DRIVER MODE: Message from server: STATUS
  @ DRIVER MODE: Message from server: POSDATA
  @ DRIVER MODE: Reading and sharing cell
  @ DRIVER MODE: Reading and sharing positions
  @ DRIVER MODE: Received positions

     Self-consistent Calculation

     iteration #  1     ecut=    29.40 Ry     beta= 0.05
     Davidson diagonalization with overlap
     c_bands:  3 eigenvalues not converged
     c_bands:  3 eigenvalues not converged
     c_bands:  3 eigenvalues not converged
     c_bands:  2 eigenvalues not converged
     c_bands:  3 eigenvalues not converged
     ethr =  1.00E-05,  avg # of iterations = 22.2

[...]

     total energy              =   -2837.61585755 Ry
     estimated scf accuracy    <     994.34085289 Ry

     iteration #  2     ecut=    29.40 Ry     beta= 0.05
     Davidson diagonalization with overlap
     ethr =  1.00E-02,  avg # of iterations = 16.3

[...]

     iteration # 49     ecut=    29.40 Ry     beta= 0.05
     Davidson diagonalization with overlap
     c_bands:  1 eigenvalues not converged
     ethr =  2.53E-09,  avg # of iterations = 12.4

[...]

     total energy              =   -2926.39967836 Ry
     estimated scf accuracy    <       0.00000009 Ry

     iteration # 59     ecut=    29.40 Ry     beta= 0.05
     Davidson diagonalization with overlap
     ethr =  2.28E-11,  avg # of iterations = 13.5

     negative rho (up, down):  1.910E-02 0.000E+00

     Adding external electric field

     Computed dipole along edir(3) :
        Dipole                0.7728 Ry au,          1.9643 Debye
        Dipole field          0.0015 Ry au,

        Potential amp.       -0.1352 Ry
        Total length         46.3494 bohr

     End of self-consistent calculation

          k = 0.0000 0.0000 0.0000 ( 18029 PWs)   bands (ev):

   -55.9658 -55.9527 -55.9280 -55.9161 -55.8743 -55.8341 -55.8108 -55.7987
   -55.7406 -55.7159 -55.6823 -55.6261 -55.5763 -55.5048 -54.9328 -54.8987
   -32.5200 -32.4317 -32.3147 -32.3059 -32.2822 -32.2601 -32.2357 -32.2072
   -32.2009 -32.1931 -32.1728 -32.1607 -32.1328 -32.1326 -32.1250 -32.1062
   -32.0998 -32.0837 -32.0640 -32.0540 -32.0299 -32.0169 -32.0079 -32.0077
   -31.9916 -31.9783 -31.9601 -31.9520 -31.9391 -31.9298 -31.9252 -31.9004
   -31.8915 -31.8646 -31.8475 -31.8271 -31.8260 -31.8139 -31.8075 -31.7373
   -31.6915 -31.6202 -31.3409 -31.2498 -31.2271 -31.1573 -31.0709 -30.9601
   -17.9584 -16.7214 -16.4197 -16.2833 -16.1393 -16.0936 -15.9921 -15.8084
   -15.7031 -15.6532 -15.5882 -15.5640 -15.5622 -15.5102 -15.5020 -15.4964
   -15.4732 -15.4341 -15.3984 -15.3579 -15.3546 -15.3473 -15.3142 -15.2522
   -15.2182 -15.1243 -15.0705 -14.9741 -14.9698 -14.8316 -13.4356 -13.3188
   -10.2986  -6.5465  -4.0721  -3.9467  -3.8877  -3.8430  -3.7869  -3.5809
    -3.5288  -3.3090  -3.2509  -3.1550  -3.1106  -3.0906  -3.0861  -3.0035
    -2.8732  -2.7817  -2.7725  -2.7601  -2.7354  -2.7261  -2.7159  -2.6955
    -2.6892  -2.6338  -2.5743  -2.4933  -2.4375  -2.3852  -2.3344  -2.2553
    -2.2338  -2.2214  -2.2127  -2.2063  -2.1719  -2.1661  -2.1518  -2.0269
    -1.9968  -1.9147  -1.7914  -1.7706  -1.6526  -1.5763  -1.5544  -1.4271
    -1.3918  -1.3589  -1.3256  -1.2791  -1.2443  -1.2339  -1.1575  -1.1181
    -1.0222  -0.9867  -0.8874  -0.8413  -0.8365  -0.7705  -0.6995  -0.6884
    -0.6744  -0.5306  -0.4477  -0.4380  -0.4349  -0.3489  -0.2964  -0.2435
    -0.1958  -0.1879  -0.1680  -0.1296  -0.1006  -0.0039   0.0056   0.0388
     0.0531   0.0908   0.1806   0.2513   0.2638   0.3227   0.3377   0.5416
     0.5562   0.5634   0.7083   0.7566   1.0034   1.0886   1.1145   1.2760
     1.6687   1.7236   3.1411   3.2292   3.2448   3.2818   3.3470   3.3915
     3.5439   3.5973   3.6410   3.6679   3.6926

[...]

          k = 0.0380-0.0419 0.0000 ( 17876 PWs)   bands (ev):

[...]

          k =-0.0760-0.0000 0.0000 ( 17886 PWs)   bands (ev):

[...]

          k =-0.0760-0.0839 0.0000 ( 17948 PWs)   bands (ev):

   -55.9552 -55.9384 -55.9371 -55.9314 -55.8693 -55.8238 -55.8156 -55.8089
   -55.7377 -55.6994 -55.6990 -55.6286 -55.5722 -55.5088 -54.9162 -54.9152
   -32.3248 -32.3205 -32.2572 -32.2563 -32.2479 -32.2394 -32.2221 -32.2219
   -32.1647 -32.1621 -32.1564 -32.1496 -32.1325 -32.1065 -32.0880 -32.0809
   -32.0768 -32.0739 -32.0719 -32.0695 -32.0566 -32.0365 -32.0313 -32.0239
   -32.0217 -32.0186 -32.0159 -32.0123 -31.9637 -31.9407 -31.9368 -31.9364
   -31.9216 -31.9089 -31.9047 -31.8970 -31.8543 -31.8251 -31.8238 -31.7416
   -31.7276 -31.6658 -31.2405 -31.2392 -31.1542 -31.1533 -31.1146 -31.1135
   -17.9526 -16.1594 -16.1315 -15.9808 -15.8905 -15.8793 -15.8347 -15.7748
   -15.7459 -15.6889 -15.6573 -15.6396 -15.6221 -15.6051 -15.5797 -15.5321
   -15.4834 -15.4774 -15.4678 -15.4516 -15.4023 -15.3928 -15.3676 -15.3573
   -15.3365 -15.2718 -15.2500 -15.2042 -15.1244 -14.9960 -13.4223 -13.4186
   -10.3033  -6.5472  -3.4454  -3.4125  -3.2864  -3.2082  -3.1057  -3.1012
    -3.0209  -2.9563  -2.9161  -2.8709  -2.8229  -2.8022  -2.7708  -2.7657
    -2.7587  -2.7476  -2.7366  -2.7043  -2.6911  -2.6627  -2.6457  -2.6253
    -2.6170  -2.6013  -2.5698  -2.5580  -2.5425  -2.5005  -2.4972  -2.4924
    -2.4868  -2.2903  -2.2526  -2.2080  -2.1563  -2.0797  -2.0635  -2.0421
    -2.0096  -1.9938  -1.9840  -1.9137  -1.8181  -1.7021  -1.6666  -1.6444
    -1.6303  -1.5879  -1.4100  -1.3813  -1.3663  -1.3381  -1.3081  -1.2587
    -1.2256  -1.2083  -1.1123  -1.0924  -1.0488  -0.9745  -0.9204  -0.9003
    -0.8680  -0.8310  -0.7857  -0.7478  -0.7064  -0.6908  -0.6260  -0.5774
    -0.5325  -0.5127  -0.4947  -0.4078  -0.3262  -0.3070  -0.1041   0.0300
     0.0621   0.0746   0.2118   0.2294   0.2659   0.3355   0.3715   0.4111
     0.4699   0.5620   0.5771   0.5834   0.5963   0.6582   1.4499   1.4545
     1.5288   1.5408   3.2037   3.3907   3.4331   3.4734   3.5336   3.6768
     3.7007   3.7022   3.7251   3.7812   3.8466

     the Fermi energy is     3.1858 ev

!    total energy              =   -2926.39972052 Ry
     estimated scf accuracy    <       0.00000006 Ry
     smearing contrib. (-TS)   =      -0.03275913 Ry
     internal energy E=F+TS    =   -2926.36696140 Ry

     The total energy is F=E-TS. E is the sum of the following terms:
     one-electron contribution =  -24580.67250720 Ry
     hartree contribution      =   12374.40769211 Ry
     xc contribution           =    -480.77569847 Ry
     ewald contribution        =    9760.67242507 Ry
     electric field correction =       0.00112710 Ry

     convergence has been achieved in  59 iterations

     Forces acting on atoms (cartesian axes, Ry/au):

     atom    1 type  1   force =     0.00019006    0.00160452    0.10332064
     atom    2 type  1   force =     0.00005834   -0.00228489   -0.17661700
     atom    3 type  2   force =     0.00017919    0.00648783   -0.03459781
     atom    4 type  2   force =    -0.00004964   -0.00102727    0.05240847
     atom    5 type  2   force =    -0.01732429   -0.00087036    0.00516876
     atom    6 type  2   force =     0.01633498   -0.00066294    0.00402875
     atom    7 type  1   force =     0.00051918    0.00281584   -0.00769208
     atom    8 type  1   force =    -0.00011190   -0.00004644    0.00049786
     atom    9 type  2   force =     0.00014134   -0.00018844   -0.00052457
     atom   10 type  2   force =     0.00006758   -0.00015122   -0.00042843
     atom   11 type  2   force =     0.00024873    0.00016642    0.00028522
     atom   12 type  2   force =     0.00017783    0.00030791    0.00016591
     atom   13 type  1   force =    -0.00040591    0.00069126   -0.00066539
     atom   14 type  1   force =    -0.00040533   -0.00004573   -0.00096165
     atom   15 type  2   force =    -0.00001186    0.00078674   -0.00001916
     atom   16 type  2   force =     0.00004210   -0.00016143    0.00077960
     atom   17 type  2   force =     0.00010659    0.00032925    0.00019398
     atom   18 type  2   force =    -0.00021706    0.00020717   -0.00014779
     atom   19 type  1   force =     0.00004265   -0.00055089    0.00078845
     atom   20 type  1   force =    -0.00007819   -0.00105764    0.00110605
     atom   21 type  2   force =     0.00012613   -0.00007452    0.10331681
     atom   22 type  2   force =    -0.00030336    0.00019740    0.00083903
     atom   23 type  2   force =    -0.07031922    0.00113096   -0.02968934
     atom   24 type  2   force =     0.07030761    0.00156088   -0.02969577
     atom   25 type  1   force =     0.00010903   -0.00166911    0.11620137
     atom   26 type  1   force =    -0.00002727    0.00128501   -0.17609752
     atom   27 type  2   force =     0.00011122   -0.00259966   -0.02893055
     atom   28 type  2   force =    -0.00004174   -0.00141365    0.05146065
     atom   29 type  2   force =    -0.01883894    0.00098143    0.00643390
     atom   30 type  2   force =     0.01783905    0.00162632    0.00534773
     atom   31 type  1   force =     0.00052182   -0.00132553   -0.01364585
     atom   32 type  1   force =    -0.00010957   -0.00102754    0.00069026
     atom   33 type  2   force =     0.00007365   -0.00014191   -0.00047912
     atom   34 type  2   force =     0.00008483   -0.00063931    0.00079118
     atom   35 type  2   force =     0.00037698   -0.00019903    0.00037883
     atom   36 type  2   force =     0.00007865   -0.00015146    0.00027515
     atom   37 type  1   force =    -0.00014857    0.00020523    0.00005453
     atom   38 type  1   force =    -0.00051500   -0.00054768   -0.00072614
     atom   39 type  2   force =    -0.00033197   -0.00043035    0.00068554
     atom   40 type  2   force =     0.00011046   -0.00014390    0.00140702
     atom   41 type  2   force =     0.00025185   -0.00043248    0.00014279
     atom   42 type  2   force =    -0.00060839   -0.00013941   -0.00032726
     atom   43 type  1   force =     0.00017878    0.00027875    0.00032820
     atom   44 type  1   force =    -0.00003303    0.00099805    0.00173320
     atom   45 type  2   force =     0.00012186   -0.00004392    0.10351921
     atom   46 type  2   force =    -0.07074910   -0.00147112   -0.02964988
     atom   47 type  2   force =     0.07072726   -0.00104076   -0.02968381
     atom   48 type  3   force =     0.00406410    0.00093035   -0.00285528
     atom   49 type  4   force =    -0.01311656    0.00000155   -0.00194713
     atom   50 type  4   force =     0.00943071   -0.00061468    0.00152739
     atom   51 type  3   force =     0.00112435   -0.00143962    0.00150509

     Total force =     0.375000     Total SCF correction =     0.000835
  @ DRIVER MODE: Message from server: STATUS
  @ DRIVER MODE: Message from server: GETFORCE
  @ DRIVER MODE: Returning v,forces,stress,ensemble

     Writing output data file ./calc.save/
  @ DRIVER MODE: Message from server: EXIT
  @ DRIVE MODE: Exiting

     General routines

     Parallel routines

   This run was terminated on:  17:34:22  12Oct2021

   JOB DONE.