     Program PWSCF v.6.7GPU starts on 23Sep2021 at 13:52:51

     R & G space division:  proc/nbgrp/npool/nimage =       8
     Reading input from /storage/home/hcoda1/3/ntian30/research/carbon/CxH_vib/H2O_calc/ads_slab/CH3ON2HO_a/out_0007/pw.inp
Warning: card &CELL ignored
Warning: card   CELL_DYNAMICS='IPI', ignored
Warning: card / ignored

     Current dimensions of program PWSCF are:
     Max number of different atomic species (ntypx) = 10
     Max number of k-points (npk) =  40000
     Max angular momentum in pseudopotentials (lmaxx) =  3
     Presently no symmetry can be used with electric field

     Message from routine cell_base_init:
     DEPRECATED: use true lattice parameter, not A to a.u. conversion factor

     IMPORTANT: XC functional enforced from input :
     Exchange-correlation= BEEF-VDW
                           (   1   4  43  14   2   0   0)
     Any further DFT definition will be discarded
     Please, verify this is what you really want

  @ DRIVER MODE: Connecting to
 qe_1139763_2947306.sched-torque.pace.gatech.edu07cmbv7l_scratch
  using UNIX socket
  @ DRIVER MODE: Message from server: STATUS
  @ DRIVER MODE: Message from server: INIT
  @ DRIVER MODE: Receiving replica           0          -1
  @ DRIVER MODE: Receiving encoded integer          25
  @ DRIVER MODE:  SCF:  T  FORCE:  T  STRESS:  F  VC:  F  ENSEMBLE:  F
  @ DRIVER MODE:  SCF:  T  FORCE:  T  STRESS:  F  VC:  F  ENSEMBLE:  F

     Using Slab Decomposition

     bravais-lattice index     =            0
     lattice parameter (alat)  =       1.8897  a.u.
     unit-cell volume          =    6658.9804 (a.u.)^3
     number of atoms/cell      =           56
     number of atomic types    =            5
     number of electrons       =       408.00
     number of Kohn-Sham states=          214
     kinetic-energy cutoff     =      29.3995  Ry
     charge density cutoff     =     293.9946  Ry
     scf convergence threshold =      7.3E-08
     mixing beta               =       0.0500
     number of iterations used =            8  plain     mixing
     Exchange-correlation= BEEF-VDW
                           (   1   4  43  14   2   0   0)

     celldm(1)=   1.889726  celldm(2)=   0.000000  celldm(3)=   0.000000
     celldm(4)=   0.000000  celldm(5)=   0.000000  celldm(6)=   0.000000

     crystal axes: (cart. coord. in units of alat)
               a(1) = (   6.579727   0.000000   0.000000 )
               a(2) = (  -0.000775   5.961596   0.000000 )
               a(3) = (   0.000000   0.000000  25.155947 )

     reciprocal axes: (cart. coord. in units 2 pi/alat)
               b(1) = (  0.151982  0.000020  0.000000 )
               b(2) = (  0.000000  0.167740  0.000000 )
               b(3) = (  0.000000  0.000000  0.039752 )

     PseudoPot. # 1 for Ti read from file:
     /storage/coda1/p-amedford6/0/shared/rich_project_chbe-medford/medford-share/data/pseudos_module/espresso/nninc/pbe/van/Ti.UPF
     MD5 check sum: 8e4df49b7f0d34bbd5052bf3f5ea0213
     Pseudo is Ultrasoft, Zval = 12.0
     Generated by new atomic code, or converted to UPF format
     Using radial grid of  851 points,  6 beta functions with:
                l(1) =   0
                l(2) =   0
                l(3) =   1
                l(4) =   1
                l(5) =   2
                l(6) =   2
     Q(r) pseudized with  8 coefficients,  rinner =    1.000   1.000   1.000
                                                       1.000   1.000

     PseudoPot. # 2 for O  read from file:
     /storage/coda1/p-amedford6/0/shared/rich_project_chbe-medford/medford-share/data/pseudos_module/espresso/nninc/pbe/van/O.UPF
     MD5 check sum: 78c19812648e8988a0fe644b0f25305e
     Pseudo is Ultrasoft, Zval =  6.0
     Generated by new atomic code, or converted to UPF format
     Using radial grid of  737 points,  4 beta functions with:
                l(1) =   0
                l(2) =   0
                l(3) =   1
                l(4) =   1
     Q(r) pseudized with  8 coefficients,  rinner =    0.800   0.800   0.800

     PseudoPot. # 3 for C  read from file:
     /storage/coda1/p-amedford6/0/shared/rich_project_chbe-medford/medford-share/data/pseudos_module/espresso/nninc/pbe/van/C.UPF
     MD5 check sum: 1a69bf6b8db32088f5b2163dbdb77a27
     Pseudo is Ultrasoft, Zval =  4.0
     Generated by new atomic code, or converted to UPF format
     Using radial grid of  721 points,  4 beta functions with:
                l(1) =   0
                l(2) =   0
                l(3) =   1
                l(4) =   1
     Q(r) pseudized with  8 coefficients,  rinner =    0.800   0.800   0.800

     PseudoPot. # 4 for H  read from file:
     /storage/coda1/p-amedford6/0/shared/rich_project_chbe-medford/medford-share/data/pseudos_module/espresso/nninc/pbe/van/H.UPF
     MD5 check sum: b5ee9d7bfd3a09ee7748110bda690ff7
     Pseudo is Ultrasoft, Zval =  1.0
     Generated by new atomic code, or converted to UPF format
     Using radial grid of  615 points,  1 beta functions with:
                l(1) =   0
     Q(r) pseudized with  8 coefficients,  rinner =    0.800

     PseudoPot. # 5 for N  read from file:
     /storage/coda1/p-amedford6/0/shared/rich_project_chbe-medford/medford-share/data/pseudos_module/espresso/nninc/pbe/van/N.UPF
     MD5 check sum: 90d10febe142ad51ac9d5be1deb811c4
     Pseudo is Ultrasoft, Zval =  5.0
     Generated by new atomic code, or converted to UPF format
     Using radial grid of  729 points,  4 beta functions with:
                l(1) =   0
                l(2) =   0
                l(3) =   1
                l(4) =   1
     Q(r) pseudized with  8 coefficients,  rinner =    0.800   0.800   0.800

     atomic species   valence    mass     pseudopotential
        Ti1           12.00    47.86700     Ti( 1.00)
        O1             6.00    15.99900     O ( 1.00)
        C1             4.00    12.01100     C ( 1.00)
        H1             1.00     1.00800     H ( 1.00)
        N1             5.00    14.00700     N ( 1.00)

     No symmetry found

   Cartesian axes

     site n.     atom                  positions (alat units)
         1           Ti1 tau(   1) = (   0.0004258   2.9801865   6.0000000  )
         2           Ti1 tau(   2) = (   3.2906075   1.4906267   6.0002472  )
         3           O1  tau(   3) = (   0.0006271   0.0005054   7.9858123  )
         4           O1  tau(   4) = (   3.2906025   0.0005020   7.3038282  )
         5           O1  tau(   5) = (   4.5942328   1.4918067   9.2879030  )
         6           O1  tau(   6) = (   1.9868534   1.4903216   9.2879459  )
         7           Ti1 tau(   7) = (   3.3138730   3.1023225   9.2183157  )
         8           Ti1 tau(   8) = (   0.0392070   1.5780841   9.3433077  )
         9           O1  tau(   9) = (   3.2868017   0.0212601  11.3135411  )
        10           O1  tau(  10) = (   0.0022550   0.0140515  10.5858881  )
        11           O1  tau(  11) = (   1.2767464   1.5002397  12.6205121  )
        12           O1  tau(  12) = (   5.2993684   1.4943797  12.6172415  )
        13           Ti1 tau(  13) = (   0.0200588   3.0780815  12.7918821  )
        14           Ti1 tau(  14) = (   3.2574684   1.5637424  12.4212484  )
        15           O1  tau(  15) = (   6.5768379   0.0158506  14.6682411  )
        16           O1  tau(  16) = (   3.2886937   5.9311801  13.9109749  )
        17           O1  tau(  17) = (   4.5620935   1.5260772  16.0398494  )
        18           O1  tau(  18) = (   2.0292830   1.5431627  16.0187044  )
        19           Ti1 tau(  19) = (   3.3027642   2.9567202  15.6520962  )
        20           Ti1 tau(  20) = (   0.0552782   1.4362356  15.9688716  )
        21           O1  tau(  21) = (   3.2904802   0.0005063   4.7018136  )
        22           O1  tau(  22) = (   0.0488089   0.0211857  17.1900833  )
        23           O1  tau(  23) = (   1.3043587   1.4918075   6.0039043  )
        24           O1  tau(  24) = (   5.2767064   1.4903225   6.0039473  )
        25           Ti1 tau(  25) = (   0.0000382   5.9609847   6.0000000  )
        26           Ti1 tau(  26) = (   3.2902200   4.4714249   6.0002472  )
        27           O1  tau(  27) = (   0.0002396   2.9813036   7.9858123  )
        28           O1  tau(  28) = (   3.2902150   2.9813002   7.3038282  )
        29           O1  tau(  29) = (   4.5938453   4.4726049   9.2879030  )
        30           O1  tau(  30) = (   1.9864658   4.4711199   9.2879459  )
        31           Ti1 tau(  31) = (   3.3219941   0.1169887   9.1790125  )
        32           Ti1 tau(  32) = (   0.0373256   4.5280481   9.3594506  )
        33           O1  tau(  33) = (   3.2887547   2.9594671  11.2851190  )
        34           O1  tau(  34) = (   0.0046902   2.9985155  10.5475055  )
        35           O1  tau(  35) = (   1.2817606   4.4707209  12.6310527  )
        36           O1  tau(  36) = (   5.3098963   4.4869072  12.6241852  )
        37           Ti1 tau(  37) = (   6.5328698   0.0937101  12.6083326  )
        38           Ti1 tau(  38) = (   3.2790761   4.6595539  12.6693962  )
        39           O1  tau(  39) = (   0.0062896   2.9920245  14.6683812  )
        40           O1  tau(  40) = (   3.3079832   2.9813091  13.8732900  )
        41           O1  tau(  41) = (   4.5514670   4.4448635  16.0695425  )
        42           O1  tau(  42) = (   2.0242163   4.4286948  16.0089506  )
        43           Ti1 tau(  43) = (   3.3772342   5.9382356  16.2476532  )
        44           Ti1 tau(  44) = (   0.0845355   4.5653432  16.0322982  )
        45           O1  tau(  45) = (   3.2900926   2.9813045   4.7018136  )
        46           O1  tau(  46) = (   1.3039711   4.4726057   6.0039043  )
        47           O1  tau(  47) = (   5.2763189   4.4711207   6.0039473  )
        48           C1  tau(  48) = (   6.0101766   2.9784267  18.6088694  )
        49           O1  tau(  49) = (   6.5549008   2.9952511  17.2928482  )
        50           H1  tau(  50) = (   4.9185495   2.9407445  18.5675634  )
        51           H1  tau(  51) = (   6.3703738   2.0936667  19.1370987  )
        52           H1  tau(  52) = (   6.3118891   3.8824302  19.1399426  )
        53           N1  tau(  53) = (   6.0262039   3.1690275  22.5535725  )
        54           N1  tau(  54) = (   5.1417247   3.1052473  21.8962875  )
        55           O1  tau(  55) = (   3.2068502   5.9581871  18.0710493  )
        56           H1  tau(  56) = (   2.3500504   0.2277792  18.4614507  )

     number of k points=    10  Fermi-Dirac smearing, width (Ry)=  0.0073
                       cart. coord. in units 2pi/alat
        k(    1) = (   0.0000000   0.0000000   0.0000000), wk =   0.1250000
        k(    2) = (   0.0000000   0.0419351   0.0000000), wk =   0.2500000
        k(    3) = (   0.0000000  -0.0838702   0.0000000), wk =   0.1250000
        k(    4) = (   0.0379955   0.0000049   0.0000000), wk =   0.2500000
        k(    5) = (   0.0379955   0.0419400   0.0000000), wk =   0.2500000
        k(    6) = (   0.0379955  -0.0838652   0.0000000), wk =   0.2500000
        k(    7) = (   0.0379955  -0.0419301   0.0000000), wk =   0.2500000
        k(    8) = (  -0.0759910  -0.0000099   0.0000000), wk =   0.1250000
        k(    9) = (  -0.0759910   0.0419252   0.0000000), wk =   0.2500000
        k(   10) = (  -0.0759910  -0.0838800   0.0000000), wk =   0.1250000

     Initial potential from superposition of free atoms

     starting charge  391.99915, renormalised to  408.00000

     negative rho (up, down):  9.973E-03 0.000E+00

     %%%%%%%%%%%%%%%%%%%%%%%%%%%%%%%%%%%%%%%%%%%%%%%%%%%%%%%%%%%%%%%%%%%%%%%%
     %                                                                      %
     % You are using vdW-DF, which was implemented by the Thonhauser group. %
     % Please cite the following two papers that made this development      %
     % possible and the two reviews that describe the various versions:     %
     %                                                                      %
     %   T. Thonhauser et al., PRL 115, 136402 (2015).                      %
     %   T. Thonhauser et al., PRB 76, 125112 (2007).                       %
     %   K. Berland et al., Rep. Prog. Phys. 78, 066501 (2015).             %
     %   D.C. Langreth et al., J. Phys.: Condens. Matter 21, 084203 (2009). %
     %                                                                      %
     %                                                                      %
     % If you are calculating the stress with vdW-DF, please also cite:     %
     %                                                                      %
     %   R. Sabatini et al., J. Phys.: Condens. Matter 24, 424209 (2012).   %
     %                                                                      %
     %%%%%%%%%%%%%%%%%%%%%%%%%%%%%%%%%%%%%%%%%%%%%%%%%%%%%%%%%%%%%%%%%%%%%%%%

     Adding external electric field

     Computed dipole along edir(3) :
        Dipole              -16.8152 Ry au,        -42.7399 Debye
        Dipole field         -0.0317 Ry au,

        Potential amp.        2.9416 Ry
        Total length         46.3494 bohr

     Starting wfcs are  308 atomic wfcs
  @ DRIVER MODE: Message from server: STATUS
  @ DRIVER MODE: Message from server: POSDATA
  @ DRIVER MODE: Reading and sharing cell
  @ DRIVER MODE: Reading and sharing positions
  @ DRIVER MODE: Received positions

     Self-consistent Calculation

     iteration #  1     ecut=    29.40 Ry     beta= 0.05
     Davidson diagonalization with overlap
     c_bands:  4 eigenvalues not converged
     c_bands:  1 eigenvalues not converged
     c_bands:  5 eigenvalues not converged
     c_bands:  1 eigenvalues not converged
     c_bands:  2 eigenvalues not converged
     c_bands:  2 eigenvalues not converged
     c_bands:  1 eigenvalues not converged
     ethr =  1.00E-05,  avg # of iterations = 29.3

[...]

     total energy              =   -2248.46626060 Ry
     estimated scf accuracy    <    8688.97358938 Ry

     iteration #  2     ecut=    29.40 Ry     beta= 0.05
     Davidson diagonalization with overlap
     ethr =  1.00E-02,  avg # of iterations = 33.3

[...]

     iteration # 57     ecut=    29.40 Ry     beta= 0.05
     Davidson diagonalization with overlap
     c_bands:  1 eigenvalues not converged
     ethr =  3.13E-07,  avg # of iterations =  6.8

[...]

     total energy              =   -3005.28915454 Ry
     estimated scf accuracy    <       0.00000014 Ry

     iteration # 93     ecut=    29.40 Ry     beta= 0.05
     Davidson diagonalization with overlap
     ethr =  3.53E-11,  avg # of iterations =  5.0

     negative rho (up, down):  1.141E-02 0.000E+00

     Adding external electric field

     Computed dipole along edir(3) :
        Dipole                0.5459 Ry au,          1.3875 Debye
        Dipole field          0.0010 Ry au,

        Potential amp.       -0.0955 Ry
        Total length         46.3494 bohr

     End of self-consistent calculation

          k = 0.0000 0.0000 0.0000 ( 18029 PWs)   bands (ev):

   -56.1321 -56.0846 -55.5744 -55.5547 -55.5384 -55.5170 -55.4834 -55.4597
   -55.4251 -55.3977 -55.3650 -55.3232 -55.3221 -55.1857 -54.7449 -54.7110
   -32.5450 -32.3963 -32.3459 -32.3116 -32.2169 -32.1714 -32.0778 -32.0214
   -32.0130 -31.9044 -31.8625 -31.8445 -31.8380 -31.8179 -31.8156 -31.7771
   -31.7736 -31.7595 -31.7408 -31.7340 -31.7291 -31.6881 -31.6795 -31.6643
   -31.6611 -31.6434 -31.6403 -31.6310 -31.6232 -31.6134 -31.6067 -31.5880
   -31.5745 -31.5687 -31.5617 -31.5280 -31.5192 -31.5162 -31.4858 -31.4404
   -31.4025 -31.3909 -31.1393 -31.0851 -31.0607 -30.9562 -30.8713 -30.7604
   -20.8530 -17.3643 -16.3422 -16.2886 -16.1475 -15.9108 -15.7660 -15.6890
   -15.4595 -15.4492 -15.3343 -15.3274 -15.2927 -15.1614 -15.1444 -15.1363
   -15.0837 -15.0705 -15.0475 -15.0443 -15.0419 -15.0331 -14.9758 -14.9567
   -14.9171 -14.8580 -14.7822 -14.7605 -14.7125 -14.7020 -14.6600 -14.4341
   -13.2465 -13.1378  -9.0782  -6.0133  -4.1149  -3.9909  -3.9770  -3.9301
    -3.8156  -3.7709  -3.5905  -3.4918  -3.4734  -3.3908  -3.2938  -3.1881
    -2.9740  -2.8227  -2.7596  -2.7207  -2.7125  -2.6787  -2.6374  -2.5755
    -2.5209  -2.4786  -2.4450  -2.4109  -2.3507  -2.3386  -2.3225  -2.2919
    -2.2727  -2.2514  -2.2188  -2.2012  -2.0725  -2.0356  -2.0051  -1.9947
    -1.9418  -1.9224  -1.9038  -1.8934  -1.8494  -1.7526  -1.6549  -1.6408
    -1.5965  -1.4104  -1.3355  -1.2887  -1.2108  -1.1455  -1.0677  -1.0473
    -1.0374  -0.9823  -0.9452  -0.8425  -0.8094  -0.7696  -0.7024  -0.6967
    -0.6582  -0.5965  -0.5722  -0.5112  -0.4839  -0.4507  -0.3115  -0.2753
    -0.2582  -0.1967  -0.1958  -0.1017  -0.0433   0.0092   0.0278   0.0831
     0.1238   0.1456   0.1963   0.2272   0.2421   0.3246   0.3736   0.3804
     0.4155   0.4544   0.4733   0.5045   0.5930   0.6419   0.6676   0.6935
     0.8374   0.8526   0.9059   1.0121   1.0281   1.2050   1.2724   1.3082
     1.4950   1.5329   1.8242   1.8699   3.1682   3.3314   3.6106   3.7248
     3.7671   3.8072   3.8826   3.9099   4.0636   4.0957

[...]

          k = 0.0380-0.0419 0.0000 ( 17876 PWs)   bands (ev):

[...]

          k =-0.0760-0.0000 0.0000 ( 17886 PWs)   bands (ev):

[...]

          k =-0.0760-0.0839 0.0000 ( 17948 PWs)   bands (ev):

   -56.1251 -56.0914 -55.5724 -55.5498 -55.5373 -55.5110 -55.4879 -55.4655
   -55.4269 -55.3990 -55.3564 -55.3314 -55.3204 -55.1876 -54.7281 -54.7277
   -32.3918 -32.3762 -32.3499 -32.3475 -32.2771 -32.2484 -31.9664 -31.8862
   -31.8573 -31.8380 -31.8173 -31.8054 -31.7942 -31.7887 -31.7770 -31.7639
   -31.7580 -31.7491 -31.7488 -31.7396 -31.7316 -31.7229 -31.7094 -31.7080
   -31.7061 -31.6884 -31.6842 -31.6579 -31.6507 -31.6494 -31.6322 -31.6257
   -31.6015 -31.5958 -31.5803 -31.5684 -31.5657 -31.5380 -31.5233 -31.5052
   -31.4409 -31.3944 -31.0738 -31.0737 -30.9549 -30.9532 -30.9135 -30.9125
   -20.8529 -17.3278 -16.3155 -15.6947 -15.6058 -15.5965 -15.5891 -15.5562
   -15.5204 -15.4554 -15.4411 -15.3727 -15.3009 -15.2698 -15.2284 -15.2032
   -15.1882 -15.1509 -15.1469 -15.0850 -15.0415 -15.0325 -15.0180 -15.0041
   -14.9594 -14.9516 -14.9429 -14.9267 -14.9174 -14.8567 -14.7568 -14.5788
   -13.2421 -13.2410  -9.0783  -6.0148  -4.0474  -3.9950  -3.9724  -3.8628
    -3.7105  -3.4730  -2.9279  -2.8481  -2.7692  -2.7673  -2.6986  -2.6784
    -2.6303  -2.6074  -2.5708  -2.5559  -2.5337  -2.4684  -2.4435  -2.4291
    -2.4256  -2.4165  -2.4008  -2.3819  -2.3393  -2.3302  -2.3178  -2.3074
    -2.2888  -2.2840  -2.2720  -2.2518  -2.2100  -2.1479  -2.0882  -1.9506
    -1.9424  -1.9155  -1.8971  -1.8720  -1.8478  -1.7968  -1.7152  -1.6952
    -1.6765  -1.6011  -1.5417  -1.3370  -1.3160  -1.2983  -1.2285  -1.1602
    -1.0933  -1.0759  -1.0411  -1.0065  -0.9838  -0.9429  -0.8865  -0.8530
    -0.8099  -0.7970  -0.7582  -0.7205  -0.6704  -0.6112  -0.6028  -0.5697
    -0.5196  -0.4956  -0.4060  -0.3974  -0.3740  -0.3560  -0.3220  -0.2308
    -0.1788  -0.1326  -0.0439  -0.0037   0.0356   0.1702   0.2356   0.2708
     0.3437   0.3872   0.4917   0.5143   0.5934   0.6145   0.6442   0.6688
     0.7375   0.8052   0.8565   0.9067   0.9463   0.9611   1.0121   1.0661
     1.6660   1.6685   1.6760   1.6823   3.7111   3.7373   3.7451   3.7785
     3.9831   4.0131   4.0856   4.1024   4.1231   4.1786

     the Fermi energy is     2.5763 ev

!    total energy              =   -3005.28915701 Ry
     estimated scf accuracy    <       0.00000002 Ry
     smearing contrib. (-TS)   =      -0.00015430 Ry
     internal energy E=F+TS    =   -3005.28900271 Ry

     The total energy is F=E-TS. E is the sum of the following terms:
     one-electron contribution =  -22581.92567176 Ry
     hartree contribution      =   11387.24313786 Ry
     xc contribution           =    -500.24433835 Ry
     ewald contribution        =    8689.63730716 Ry
     electric field correction =       0.00056239 Ry

     convergence has been achieved in  93 iterations

     Forces acting on atoms (cartesian axes, Ry/au):

     atom    1 type  1   force =     0.00012276    0.00010926    0.13278340
     atom    2 type  1   force =    -0.00010992    0.00820535   -0.15823439
     atom    3 type  2   force =     0.00029836   -0.00362400   -0.05307778
     atom    4 type  2   force =     0.00059187    0.00104949    0.04010576
     atom    5 type  2   force =    -0.00786214   -0.00195100   -0.00034314
     atom    6 type  2   force =     0.00846152   -0.00490323   -0.00004947
     atom    7 type  1   force =    -0.00017577   -0.00031868   -0.00004211
     atom    8 type  1   force =    -0.00000671   -0.00027058    0.00021100
     atom    9 type  2   force =     0.00013276    0.00009278   -0.00000420
     atom   10 type  2   force =    -0.00003377    0.00020435    0.00009434
     atom   11 type  2   force =    -0.00005453    0.00013352   -0.00000582
     atom   12 type  2   force =     0.00037679   -0.00010439   -0.00005558
     atom   13 type  1   force =    -0.00017747    0.00003487    0.00014214
     atom   14 type  1   force =     0.00012988    0.00058269    0.00009788
     atom   15 type  2   force =    -0.00017668    0.00010865    0.00013363
     atom   16 type  2   force =    -0.00000377    0.00004841   -0.00045996
     atom   17 type  2   force =    -0.00030619   -0.00069812   -0.00002447
     atom   18 type  2   force =    -0.00044986   -0.00035676    0.00035580
     atom   19 type  1   force =    -0.00003194    0.00030588    0.00002690
     atom   20 type  1   force =     0.00014221    0.00018513    0.00002945
     atom   21 type  2   force =    -0.00006581    0.00009430    0.09915348
     atom   22 type  2   force =    -0.00013729    0.00012612    0.00002934
     atom   23 type  2   force =    -0.08058058    0.00058056   -0.03415783
     atom   24 type  2   force =     0.08035420    0.00110143   -0.03419700
     atom   25 type  1   force =    -0.00021937   -0.00017255    0.14169195
     atom   26 type  1   force =    -0.00019158   -0.00686334   -0.15774906
     atom   27 type  2   force =     0.00043741    0.00018026   -0.05211834
     atom   28 type  2   force =     0.00043857    0.00035589    0.04189005
     atom   29 type  2   force =    -0.00940211    0.00598167    0.00164955
     atom   30 type  2   force =     0.00931202    0.00235434    0.00175819
     atom   31 type  1   force =    -0.00002853    0.00010016    0.00014714
     atom   32 type  1   force =     0.00001630   -0.00012953   -0.00010806
     atom   33 type  2   force =    -0.00006631   -0.00032042    0.00026183
     atom   34 type  2   force =    -0.00009770   -0.00005563    0.00003585
     atom   35 type  2   force =     0.00061354    0.00025741   -0.00007036
     atom   36 type  2   force =    -0.00018499    0.00014666    0.00004846
     atom   37 type  1   force =    -0.00040002    0.00047034   -0.00066033
     atom   38 type  1   force =     0.00026126   -0.00034970   -0.00010265
     atom   39 type  2   force =     0.00004498   -0.00000120    0.00044141
     atom   40 type  2   force =     0.00012424   -0.00008080   -0.00040019
     atom   41 type  2   force =     0.00026948    0.00041902   -0.00006940
     atom   42 type  2   force =    -0.00074685    0.00014325    0.00024915
     atom   43 type  1   force =    -0.00031073   -0.00034013    0.00009357
     atom   44 type  1   force =    -0.00030335   -0.00052494   -0.00031099
     atom   45 type  2   force =    -0.00007696    0.00018491    0.09872065
     atom   46 type  2   force =    -0.08054739   -0.00156595   -0.03411323
     atom   47 type  2   force =     0.08034844   -0.00103293   -0.03419599
     atom   48 type  3   force =    -0.00244324   -0.00010733    0.00217071
     atom   49 type  2   force =     0.00420184   -0.00023273   -0.00309684
     atom   50 type  4   force =    -0.00081197    0.00014882    0.00110839
     atom   51 type  4   force =     0.00004738   -0.00022757    0.00006365
     atom   52 type  4   force =     0.00032953    0.00046068   -0.00029167
     atom   53 type  5   force =     0.00097730    0.00010777    0.00071949
     atom   54 type  5   force =    -0.00128987   -0.00000337   -0.00083503
     atom   55 type  2   force =    -0.00115887    0.00082252    0.00024843
     atom   56 type  4   force =     0.00041963   -0.00086161    0.00031227

     Total force =     0.383719     Total SCF correction =     0.000550
  @ DRIVER MODE: Message from server: STATUS
  @ DRIVER MODE: Message from server: GETFORCE
  @ DRIVER MODE: Returning v,forces,stress,ensemble

     Writing output data file ./calc.save/
  @ DRIVER MODE: Message from server: EXIT
  @ DRIVE MODE: Exiting

     General routines

     Parallel routines

   This run was terminated on:  14:25:37  23Sep2021

   JOB DONE.