     Program PWSCF v.6.7GPU starts on 23Aug2021 at 14:31:59

     R & G space division:  proc/nbgrp/npool/nimage =       6
     Reading input from /storage/home/hcoda1/3/ntian30/research/carbon/CH2_vib/ads_slab/CH2N2_b/out_0004/pw.inp
Warning: card &CELL ignored
Warning: card   CELL_DYNAMICS='IPI', ignored
Warning: card / ignored

     Current dimensions of program PWSCF are:
     Max number of different atomic species (ntypx) = 10
     Max number of k-points (npk) =  40000
     Max angular momentum in pseudopotentials (lmaxx) =  3
     Presently no symmetry can be used with electric field

     Message from routine cell_base_init:
     DEPRECATED: use true lattice parameter, not A to a.u. conversion factor

     IMPORTANT: XC functional enforced from input :
     Exchange-correlation= BEEF-VDW
                           (   1   4  43  14   2   0   0)
     Any further DFT definition will be discarded
     Please, verify this is what you really want

  @ DRIVER MODE: Connecting to
 qe_1139763_2632805.sched-torque.pace.gatech.eduv_wfj4ru_scratch
  using UNIX socket
  @ DRIVER MODE: Message from server: STATUS
  @ DRIVER MODE: Message from server: INIT
  @ DRIVER MODE: Receiving replica           0          -1
  @ DRIVER MODE: Receiving encoded integer          25
  @ DRIVER MODE:  SCF:  T  FORCE:  T  STRESS:  F  VC:  F  ENSEMBLE:  F
  @ DRIVER MODE:  SCF:  T  FORCE:  T  STRESS:  F  VC:  F  ENSEMBLE:  F

     Using Slab Decomposition

     bravais-lattice index     =            0
     lattice parameter (alat)  =       1.8897  a.u.
     unit-cell volume          =    6658.9804 (a.u.)^3
     number of atoms/cell      =           52
     number of atomic types    =            5
     number of electrons       =       394.00
     number of Kohn-Sham states=          207
     kinetic-energy cutoff     =      29.3995  Ry
     charge density cutoff     =     293.9946  Ry
     scf convergence threshold =      7.3E-08
     mixing beta               =       0.0500
     number of iterations used =            8  plain     mixing
     Exchange-correlation= BEEF-VDW
                           (   1   4  43  14   2   0   0)

     celldm(1)=   1.889726  celldm(2)=   0.000000  celldm(3)=   0.000000
     celldm(4)=   0.000000  celldm(5)=   0.000000  celldm(6)=   0.000000

     crystal axes: (cart. coord. in units of alat)
               a(1) = (   6.579727   0.000000   0.000000 )
               a(2) = (  -0.000775   5.961596   0.000000 )
               a(3) = (   0.000000   0.000000  25.155947 )

     reciprocal axes: (cart. coord. in units 2 pi/alat)
               b(1) = (  0.151982  0.000020  0.000000 )
               b(2) = (  0.000000  0.167740  0.000000 )
               b(3) = (  0.000000  0.000000  0.039752 )

     PseudoPot. # 1 for Ti read from file:
     /storage/coda1/p-amedford6/0/shared/rich_project_chbe-medford/medford-share/data/pseudos_module/espresso/nninc/pbe/van/Ti.UPF
     MD5 check sum: 8e4df49b7f0d34bbd5052bf3f5ea0213
     Pseudo is Ultrasoft, Zval = 12.0
     Generated by new atomic code, or converted to UPF format
     Using radial grid of  851 points,  6 beta functions with:
                l(1) =   0
                l(2) =   0
                l(3) =   1
                l(4) =   1
                l(5) =   2
                l(6) =   2
     Q(r) pseudized with  8 coefficients,  rinner =    1.000   1.000   1.000
                                                       1.000   1.000

     PseudoPot. # 2 for O  read from file:
     /storage/coda1/p-amedford6/0/shared/rich_project_chbe-medford/medford-share/data/pseudos_module/espresso/nninc/pbe/van/O.UPF
     MD5 check sum: 78c19812648e8988a0fe644b0f25305e
     Pseudo is Ultrasoft, Zval =  6.0
     Generated by new atomic code, or converted to UPF format
     Using radial grid of  737 points,  4 beta functions with:
                l(1) =   0
                l(2) =   0
                l(3) =   1
                l(4) =   1
     Q(r) pseudized with  8 coefficients,  rinner =    0.800   0.800   0.800

     PseudoPot. # 3 for N  read from file:
     /storage/coda1/p-amedford6/0/shared/rich_project_chbe-medford/medford-share/data/pseudos_module/espresso/nninc/pbe/van/N.UPF
     MD5 check sum: 90d10febe142ad51ac9d5be1deb811c4
     Pseudo is Ultrasoft, Zval =  5.0
     Generated by new atomic code, or converted to UPF format
     Using radial grid of  729 points,  4 beta functions with:
                l(1) =   0
                l(2) =   0
                l(3) =   1
                l(4) =   1
     Q(r) pseudized with  8 coefficients,  rinner =    0.800   0.800   0.800

     PseudoPot. # 4 for C  read from file:
     /storage/coda1/p-amedford6/0/shared/rich_project_chbe-medford/medford-share/data/pseudos_module/espresso/nninc/pbe/van/C.UPF
     MD5 check sum: 1a69bf6b8db32088f5b2163dbdb77a27
     Pseudo is Ultrasoft, Zval =  4.0
     Generated by new atomic code, or converted to UPF format
     Using radial grid of  721 points,  4 beta functions with:
                l(1) =   0
                l(2) =   0
                l(3) =   1
                l(4) =   1
     Q(r) pseudized with  8 coefficients,  rinner =    0.800   0.800   0.800

     PseudoPot. # 5 for H  read from file:
     /storage/coda1/p-amedford6/0/shared/rich_project_chbe-medford/medford-share/data/pseudos_module/espresso/nninc/pbe/van/H.UPF
     MD5 check sum: b5ee9d7bfd3a09ee7748110bda690ff7
     Pseudo is Ultrasoft, Zval =  1.0
     Generated by new atomic code, or converted to UPF format
     Using radial grid of  615 points,  1 beta functions with:
                l(1) =   0
     Q(r) pseudized with  8 coefficients,  rinner =    0.800

     atomic species   valence    mass     pseudopotential
        Ti1           12.00    47.86700     Ti( 1.00)
        O1             6.00    15.99900     O ( 1.00)
        N1             5.00    14.00700     N ( 1.00)
        C1             4.00    12.01100     C ( 1.00)
        H1             1.00     1.00800     H ( 1.00)

     No symmetry found

   Cartesian axes

     site n.     atom                  positions (alat units)
         1           Ti1 tau(   1) = (   0.0004258   2.9801865   6.0000000  )
         2           Ti1 tau(   2) = (   3.2906075   1.4906267   6.0002472  )
         3           O1  tau(   3) = (   0.0006271   0.0005054   7.9858123  )
         4           O1  tau(   4) = (   3.2906025   0.0005020   7.3038282  )
         5           O1  tau(   5) = (   4.5942328   1.4918067   9.2879030  )
         6           O1  tau(   6) = (   1.9868534   1.4903216   9.2879459  )
         7           Ti1 tau(   7) = (   3.2907910   2.8959150   9.1758416  )
         8           Ti1 tau(   8) = (   0.0015273   1.4827037   9.2680791  )
         9           O1  tau(   9) = (   3.2944872   5.9444814  11.3088555  )
        10           O1  tau(  10) = (   0.0116148   5.9584955  10.6183126  )
        11           O1  tau(  11) = (   1.2913257   1.4757505  12.6225222  )
        12           O1  tau(  12) = (   5.2743172   1.4729811  12.6021195  )
        13           Ti1 tau(  13) = (   0.0890023   2.9564894  12.7220187  )
        14           Ti1 tau(  14) = (   3.4221593   1.4702301  12.4648352  )
        15           O1  tau(  15) = (   0.0068176   5.9411714  14.5947238  )
        16           O1  tau(  16) = (   3.2944910   5.9492763  13.8828731  )
        17           O1  tau(  17) = (   4.5250581   1.4982466  16.0456249  )
        18           O1  tau(  18) = (   2.0665045   1.4881935  16.0281199  )
        19           Ti1 tau(  19) = (   3.2778778   2.9684174  15.6871799  )
        20           Ti1 tau(  20) = (   6.5490154   1.5309925  16.0314916  )
        21           O1  tau(  21) = (   3.2904802   0.0005063   4.7018136  )
        22           O1  tau(  22) = (   0.0123181   0.0076990  17.1679072  )
        23           O1  tau(  23) = (   1.3043587   1.4918075   6.0039043  )
        24           O1  tau(  24) = (   5.2767064   1.4903225   6.0039473  )
        25           Ti1 tau(  25) = (   0.0000382   5.9609847   6.0000000  )
        26           Ti1 tau(  26) = (   3.2902200   4.4714249   6.0002472  )
        27           O1  tau(  27) = (   0.0002396   2.9813036   7.9858123  )
        28           O1  tau(  28) = (   3.2902150   2.9813002   7.3038282  )
        29           O1  tau(  29) = (   4.5938453   4.4726049   9.2879030  )
        30           O1  tau(  30) = (   1.9864658   4.4711199   9.2879459  )
        31           Ti1 tau(  31) = (   3.2891106   5.8743827   9.1763621  )
        32           Ti1 tau(  32) = (   0.0006254   4.4649316   9.2693709  )
        33           O1  tau(  33) = (   3.2980042   2.9668427  11.3079272  )
        34           O1  tau(  34) = (   0.0092240   2.9805883  10.6323155  )
        35           O1  tau(  35) = (   1.2899229   4.4488879  12.6271902  )
        36           O1  tau(  36) = (   5.2743549   4.4545148  12.6090941  )
        37           Ti1 tau(  37) = (   0.1039690   5.9375691  12.6739196  )
        38           Ti1 tau(  38) = (   3.4213609   4.4493060  12.4702176  )
        39           O1  tau(  39) = (   6.5648181   2.9459624  14.6378081  )
        40           O1  tau(  40) = (   3.2943236   2.9658899  13.8785053  )
        41           O1  tau(  41) = (   4.5287159   4.4634493  16.0515226  )
        42           O1  tau(  42) = (   2.0597896   4.4749507  16.0164256  )
        43           Ti1 tau(  43) = (   3.2714021   5.9517381  15.6902239  )
        44           Ti1 tau(  44) = (   6.5616293   4.5902425  16.0297769  )
        45           O1  tau(  45) = (   3.2900926   2.9813045   4.7018136  )
        46           O1  tau(  46) = (   1.3039711   4.4726057   6.0039043  )
        47           O1  tau(  47) = (   5.2763189   4.4711207   6.0039473  )
        48           N1  tau(  48) = (   0.6459789   3.0709845  18.5091170  )
        49           N1  tau(  49) = (   0.0956274   2.9759187  17.3381616  )
        50           C1  tau(  50) = (   0.0579326   3.2697647  19.6266723  )
        51           H1  tau(  51) = (   5.5568954   3.3836083  19.7010695  )
        52           H1  tau(  52) = (   0.6727643   3.3288843  20.5134281  )

     number of k points=    10  Fermi-Dirac smearing, width (Ry)=  0.0073
                       cart. coord. in units 2pi/alat
        k(    1) = (   0.0000000   0.0000000   0.0000000), wk =   0.1250000
        k(    2) = (   0.0000000   0.0419351   0.0000000), wk =   0.2500000
        k(    3) = (   0.0000000  -0.0838702   0.0000000), wk =   0.1250000
        k(    4) = (   0.0379955   0.0000049   0.0000000), wk =   0.2500000
        k(    5) = (   0.0379955   0.0419400   0.0000000), wk =   0.2500000
        k(    6) = (   0.0379955  -0.0838652   0.0000000), wk =   0.2500000
        k(    7) = (   0.0379955  -0.0419301   0.0000000), wk =   0.2500000
        k(    8) = (  -0.0759910  -0.0000099   0.0000000), wk =   0.1250000
        k(    9) = (  -0.0759910   0.0419252   0.0000000), wk =   0.2500000
        k(   10) = (  -0.0759910  -0.0838800   0.0000000), wk =   0.1250000

     Initial potential from superposition of free atoms

     starting charge  377.99917, renormalised to  394.00000

     negative rho (up, down):  1.509E-02 0.000E+00

     %%%%%%%%%%%%%%%%%%%%%%%%%%%%%%%%%%%%%%%%%%%%%%%%%%%%%%%%%%%%%%%%%%%%%%%%
     %                                                                      %
     % You are using vdW-DF, which was implemented by the Thonhauser group. %
     % Please cite the following two papers that made this development      %
     % possible and the two reviews that describe the various versions:     %
     %                                                                      %
     %   T. Thonhauser et al., PRL 115, 136402 (2015).                      %
     %   T. Thonhauser et al., PRB 76, 125112 (2007).                       %
     %   K. Berland et al., Rep. Prog. Phys. 78, 066501 (2015).             %
     %   D.C. Langreth et al., J. Phys.: Condens. Matter 21, 084203 (2009). %
     %                                                                      %
     %                                                                      %
     % If you are calculating the stress with vdW-DF, please also cite:     %
     %                                                                      %
     %   R. Sabatini et al., J. Phys.: Condens. Matter 24, 424209 (2012).   %
     %                                                                      %
     %%%%%%%%%%%%%%%%%%%%%%%%%%%%%%%%%%%%%%%%%%%%%%%%%%%%%%%%%%%%%%%%%%%%%%%%

     Adding external electric field

     Computed dipole along edir(3) :
        Dipole               -7.6437 Ry au,        -19.4284 Debye
        Dipole field         -0.0144 Ry au,

        Potential amp.        1.3372 Ry
        Total length         46.3494 bohr

     Starting wfcs are  298 atomic wfcs
  @ DRIVER MODE: Message from server: STATUS
  @ DRIVER MODE: Message from server: POSDATA
  @ DRIVER MODE: Reading and sharing cell
  @ DRIVER MODE: Reading and sharing positions
  @ DRIVER MODE: Received positions

     Self-consistent Calculation

     iteration #  1     ecut=    29.40 Ry     beta= 0.05
     Davidson diagonalization with overlap
     c_bands:  1 eigenvalues not converged
     c_bands:  1 eigenvalues not converged
     c_bands:  1 eigenvalues not converged
     c_bands:  1 eigenvalues not converged
     c_bands:  1 eigenvalues not converged
     c_bands:  1 eigenvalues not converged
     ethr =  1.00E-05,  avg # of iterations = 18.6

[...]

     total energy              =   -2699.58221952 Ry
     estimated scf accuracy    <    2638.54993290 Ry

[...]

     iteration #  3     ecut=    29.40 Ry     beta= 0.05
     Davidson diagonalization with overlap
     ethr =  1.00E-02,  avg # of iterations = 15.8

[...]

     iteration # 36     ecut=    29.40 Ry     beta= 0.05
     Davidson diagonalization with overlap
     c_bands:  1 eigenvalues not converged
     c_bands:  1 eigenvalues not converged
     ethr =  8.03E-07,  avg # of iterations = 11.7

[...]

     total energy              =   -2937.89154168 Ry
     estimated scf accuracy    <       0.00000008 Ry

     iteration # 71     ecut=    29.40 Ry     beta= 0.05
     Davidson diagonalization with overlap
     ethr =  2.02E-11,  avg # of iterations =  6.6

     negative rho (up, down):  1.607E-02 0.000E+00

     Adding external electric field

     Computed dipole along edir(3) :
        Dipole                0.5232 Ry au,          1.3299 Debye
        Dipole field          0.0010 Ry au,

        Potential amp.       -0.0915 Ry
        Total length         46.3494 bohr

     End of self-consistent calculation

          k = 0.0000 0.0000 0.0000 ( 18029 PWs)   bands (ev):

   -56.3142 -56.2803 -55.8943 -55.8917 -55.8584 -55.8577 -55.8290 -55.7953
   -55.6766 -55.6678 -55.6370 -55.6313 -55.1624 -55.1345 -55.1284 -55.0587
   -32.7702 -32.6063 -32.5790 -32.4731 -32.4356 -32.3936 -32.3799 -32.3567
   -32.3154 -32.1923 -32.1791 -32.1491 -32.1399 -32.1171 -32.1068 -32.0763
   -32.0609 -32.0601 -32.0572 -32.0302 -32.0258 -32.0220 -32.0202 -32.0075
   -31.9947 -31.9916 -31.9809 -31.9393 -31.9110 -31.9067 -31.8426 -31.8286
   -31.8131 -31.8012 -31.7866 -31.7409 -31.6606 -31.5641 -31.4892 -31.4659
   -31.3880 -31.3813 -31.3453 -31.3122 -31.2957 -31.2607 -31.1856 -31.1847
   -17.7298 -16.6863 -16.5298 -16.2514 -16.0255 -15.9983 -15.8615 -15.8284
   -15.8044 -15.7766 -15.6562 -15.6160 -15.5782 -15.4615 -15.4184 -15.4063
   -15.3886 -15.3697 -15.3636 -15.2747 -15.2511 -15.2341 -15.1826 -15.0882
   -15.0568 -15.0154 -14.8741 -14.8569 -14.7606 -14.4993 -13.6634 -13.5494
   -11.9406  -6.6358  -4.6227  -4.1545  -4.0879  -4.0176  -3.8647  -3.7815
    -3.5945  -3.5608  -3.4669  -3.2394  -3.1541  -3.1450  -3.0692  -3.0454
    -3.0347  -2.9421  -2.8751  -2.8438  -2.8213  -2.7996  -2.7418  -2.6640
    -2.6183  -2.5849  -2.5663  -2.5330  -2.4273  -2.3713  -2.3559  -2.3323
    -2.2726  -2.2581  -2.2344  -2.2299  -2.1938  -2.1814  -2.1014  -2.0677
    -1.9448  -1.8710  -1.7473  -1.7405  -1.6682  -1.6499  -1.6251  -1.4264
    -1.4016  -1.3273  -1.2920  -1.2362  -1.2097  -1.1558  -1.0941  -1.0604
    -0.9631  -0.9359  -0.9053  -0.8705  -0.8484  -0.8185  -0.7988  -0.7392
    -0.6914  -0.5161  -0.4743  -0.4397  -0.3454  -0.3309  -0.3005  -0.2621
    -0.2467  -0.1955  -0.1898  -0.1761  -0.1177  -0.1033  -0.0184   0.0486
     0.0546   0.1038   0.1784   0.2408   0.2771   0.3949   0.4436   0.5112
     0.6064   0.6147   0.6755   0.8253   0.8399   0.8592   0.8638   1.0716
     1.3198   1.4213   1.4631   1.5620   2.7694   2.9064   3.0155   3.2116
     3.3280   3.3471   3.5238   3.6645   3.7014   3.7579   3.7657

[...]

          k = 0.0380-0.0419 0.0000 ( 17876 PWs)   bands (ev):

[...]

          k =-0.0760-0.0000 0.0000 ( 17886 PWs)   bands (ev):

[...]

          k =-0.0760-0.0839 0.0000 ( 17948 PWs)   bands (ev):

   -56.2973 -56.2970 -55.8786 -55.8771 -55.8739 -55.8720 -55.8131 -55.8113
   -55.6661 -55.6553 -55.6474 -55.6438 -55.1454 -55.1452 -55.1302 -55.0628
   -32.5920 -32.5916 -32.5859 -32.5858 -32.4247 -32.4244 -32.2425 -32.2387
   -32.1822 -32.1766 -32.1538 -32.1517 -32.1351 -32.1322 -32.0921 -32.0883
   -32.0667 -32.0609 -32.0545 -32.0521 -32.0411 -32.0396 -32.0262 -32.0251
   -32.0141 -32.0009 -31.9803 -31.9717 -31.9455 -31.9347 -31.8859 -31.8797
   -31.8720 -31.8466 -31.8147 -31.8114 -31.5495 -31.4788 -31.4787 -31.4049
   -31.3777 -31.3776 -31.3567 -31.3403 -31.3386 -31.3386 -31.2681 -31.2435
   -17.7238 -16.0460 -16.0437 -16.0398 -16.0334 -15.9154 -15.9133 -15.7563
   -15.7542 -15.7286 -15.7232 -15.5776 -15.5541 -15.5130 -15.5121 -15.4721
   -15.4622 -15.3931 -15.3904 -15.3816 -15.3758 -15.3606 -15.3561 -15.3114
   -15.2701 -15.0321 -14.9587 -14.8995 -14.7844 -14.6898 -13.6520 -13.6519
   -11.9449  -6.6301  -4.5629  -4.0823  -3.3362  -3.3316  -3.1684  -3.1507
    -3.0965  -3.0952  -3.0161  -2.9713  -2.9702  -2.8550  -2.8325  -2.7915
    -2.7881  -2.7740  -2.7714  -2.7377  -2.7316  -2.7098  -2.7033  -2.6476
    -2.6328  -2.6259  -2.6209  -2.5476  -2.5035  -2.4757  -2.4428  -2.4091
    -2.3801  -2.2892  -2.2856  -2.2482  -2.2263  -2.1677  -2.1640  -2.1102
    -2.0747  -2.0075  -1.9979  -1.7860  -1.7402  -1.7309  -1.6799  -1.5940
    -1.5716  -1.4267  -1.3953  -1.3332  -1.3203  -1.2708  -1.2525  -1.2440
    -1.1571  -1.1495  -1.1406  -1.0640  -1.0563  -0.9951  -0.9588  -0.9257
    -0.8420  -0.8278  -0.7888  -0.7860  -0.7763  -0.7085  -0.6619  -0.5902
    -0.5419  -0.5285  -0.4096  -0.3602  -0.2938  -0.2307  -0.1885  -0.0830
    -0.0419  -0.0323   0.1773   0.1880   0.2331   0.3237   0.4444   0.4454
     0.4840   0.5758   0.5972   0.6231   0.6397   0.8370   0.9103   1.2389
     1.2400   1.2798   1.2803   1.5266   2.7285   3.4310   3.4318   3.4570
     3.4574   3.5943   3.6180   3.6544   3.6635   3.7466   3.7505

     the Fermi energy is     2.8558 ev

!    total energy              =   -2937.89155651 Ry
     estimated scf accuracy    <       0.00000003 Ry
     smearing contrib. (-TS)   =      -0.01395396 Ry
     internal energy E=F+TS    =   -2937.87760255 Ry

     The total energy is F=E-TS. E is the sum of the following terms:
     one-electron contribution =  -24294.02823427 Ry
     hartree contribution      =   12233.36564975 Ry
     xc contribution           =    -484.31491456 Ry
     ewald contribution        =    9607.09937987 Ry
     electric field correction =       0.00051666 Ry

     convergence has been achieved in  71 iterations

     Forces acting on atoms (cartesian axes, Ry/au):

     atom    1 type  1   force =     0.00009953   -0.00021407    0.10743420
     atom    2 type  1   force =    -0.00012637   -0.00062899   -0.16926737
     atom    3 type  2   force =    -0.00015971    0.00000446   -0.04193207
     atom    4 type  2   force =     0.00005717   -0.00093501    0.04202477
     atom    5 type  2   force =    -0.01491041    0.00022264   -0.00302000
     atom    6 type  2   force =     0.01654498    0.00103802   -0.00399626
     atom    7 type  1   force =    -0.00113337   -0.00212406    0.00241652
     atom    8 type  1   force =     0.00131541    0.00453128    0.07558308
     atom    9 type  2   force =     0.00004233    0.00010844    0.00042341
     atom   10 type  2   force =    -0.00132339    0.00010083   -0.04723455
     atom   11 type  2   force =    -0.00047077    0.00030791    0.00023074
     atom   12 type  2   force =    -0.00007467    0.00049498    0.00014433
     atom   13 type  1   force =     0.00043886   -0.00043019    0.00077241
     atom   14 type  1   force =    -0.00013988   -0.00010956   -0.00006526
     atom   15 type  2   force =    -0.00023360   -0.00010718    0.00020938
     atom   16 type  2   force =     0.00019600    0.00023754   -0.00017888
     atom   17 type  2   force =     0.00008322    0.00048669    0.00028188
     atom   18 type  2   force =    -0.00035631   -0.00006427   -0.00028917
     atom   19 type  1   force =     0.00016794    0.00074612   -0.00022086
     atom   20 type  1   force =     0.00033842    0.00051598    0.00057646
     atom   21 type  2   force =     0.00007070    0.00003729    0.10163208
     atom   22 type  2   force =    -0.00043526    0.00039300    0.00009660
     atom   23 type  2   force =    -0.07420301   -0.00003649   -0.02981575
     atom   24 type  2   force =     0.07415964    0.00041849   -0.02981659
     atom   25 type  1   force =     0.00026451   -0.00035061    0.10693272
     atom   26 type  1   force =    -0.00002285   -0.00037357   -0.16934943
     atom   27 type  2   force =    -0.00004115   -0.00029131   -0.04087438
     atom   28 type  2   force =     0.00011120   -0.00073652    0.04199671
     atom   29 type  2   force =    -0.01521466    0.00063822   -0.00330884
     atom   30 type  2   force =     0.01677789    0.00101262   -0.00428170
     atom   31 type  1   force =    -0.00133134    0.00038653    0.00216609
     atom   32 type  1   force =     0.00130743   -0.00712352    0.07621253
     atom   33 type  2   force =    -0.00004934    0.00016813    0.00014895
     atom   34 type  2   force =    -0.00146447   -0.00007974   -0.05555590
     atom   35 type  2   force =     0.00000322    0.00007625    0.00012233
     atom   36 type  2   force =    -0.00002866    0.00022613   -0.00014567
     atom   37 type  1   force =     0.00022056    0.00029675    0.00038347
     atom   38 type  1   force =     0.00011767    0.00023600   -0.00032282
     atom   39 type  2   force =    -0.00023138   -0.00003670   -0.00077235
     atom   40 type  2   force =     0.00007915    0.00027302    0.00014694
     atom   41 type  2   force =    -0.00039633    0.00023784   -0.00039188
     atom   42 type  2   force =     0.00017787    0.00023475    0.00021313
     atom   43 type  1   force =    -0.00014713    0.00063454    0.00022777
     atom   44 type  1   force =    -0.00025221    0.00023221   -0.00028398
     atom   45 type  2   force =     0.00006071    0.00000036    0.10164798
     atom   46 type  2   force =    -0.07419245    0.00001436   -0.02978634
     atom   47 type  2   force =     0.07414976    0.00044767   -0.02980714
     atom   48 type  3   force =     0.00170594   -0.00255903   -0.00373992
     atom   49 type  3   force =     0.00048248    0.00115838   -0.00012198
     atom   50 type  4   force =    -0.00111868    0.00056434    0.00309606
     atom   51 type  5   force =     0.00001650   -0.00058391   -0.00026663
     atom   52 type  5   force =    -0.00093169    0.00030293   -0.00027482

     Total force =     0.389279     Total SCF correction =     0.000625
  @ DRIVER MODE: Message from server: STATUS
  @ DRIVER MODE: Message from server: GETFORCE
  @ DRIVER MODE: Returning v,forces,stress,ensemble

     Writing output data file ./calc.save/
  @ DRIVER MODE: Message from server: EXIT
  @ DRIVE MODE: Exiting

     General routines

     Parallel routines

   This run was terminated on:  14:59:36  23Aug2021

   JOB DONE.