     Program PWSCF v.6.7GPU starts on  8Sep2021 at 23:19:33

     R & G space division:  proc/nbgrp/npool/nimage =      10
     Reading input from /storage/home/hcoda1/3/ntian30/research/carbon/CxH_vib/CH_calc/ads_slab/CH_a/out_0006/pw.inp
Warning: card &CELL ignored
Warning: card   CELL_DYNAMICS='IPI', ignored
Warning: card / ignored

     Current dimensions of program PWSCF are:
     Max number of different atomic species (ntypx) = 10
     Max number of k-points (npk) =  40000
     Max angular momentum in pseudopotentials (lmaxx) =  3
     Presently no symmetry can be used with electric field

     Message from routine cell_base_init:
     DEPRECATED: use true lattice parameter, not A to a.u. conversion factor

     IMPORTANT: XC functional enforced from input :
     Exchange-correlation= BEEF-VDW
                           (   1   4  43  14   2   0   0)
     Any further DFT definition will be discarded
     Please, verify this is what you really want

  @ DRIVER MODE: Connecting to
 qe_1139763_2767381.sched-torque.pace.gatech.edunnkqjz6a_scratch
  using UNIX socket
  @ DRIVER MODE: Message from server: STATUS
  @ DRIVER MODE: Message from server: INIT
  @ DRIVER MODE: Receiving replica           0          -1
  @ DRIVER MODE: Receiving encoded integer          25
  @ DRIVER MODE:  SCF:  T  FORCE:  T  STRESS:  F  VC:  F  ENSEMBLE:  F
  @ DRIVER MODE:  SCF:  T  FORCE:  T  STRESS:  F  VC:  F  ENSEMBLE:  F

     Using Slab Decomposition

     bravais-lattice index     =            0
     lattice parameter (alat)  =       1.8897  a.u.
     unit-cell volume          =    6658.9804 (a.u.)^3
     number of atoms/cell      =           49
     number of atomic types    =            4
     number of electrons       =       383.00
     number of Kohn-Sham states=          201
     kinetic-energy cutoff     =      29.3995  Ry
     charge density cutoff     =     293.9946  Ry
     scf convergence threshold =      7.3E-08
     mixing beta               =       0.0500
     number of iterations used =            8  plain     mixing
     Exchange-correlation= BEEF-VDW
                           (   1   4  43  14   2   0   0)

     celldm(1)=   1.889726  celldm(2)=   0.000000  celldm(3)=   0.000000
     celldm(4)=   0.000000  celldm(5)=   0.000000  celldm(6)=   0.000000

     crystal axes: (cart. coord. in units of alat)
               a(1) = (   6.579727   0.000000   0.000000 )
               a(2) = (  -0.000775   5.961596   0.000000 )
               a(3) = (   0.000000   0.000000  25.155947 )

     reciprocal axes: (cart. coord. in units 2 pi/alat)
               b(1) = (  0.151982  0.000020  0.000000 )
               b(2) = (  0.000000  0.167740  0.000000 )
               b(3) = (  0.000000  0.000000  0.039752 )

     PseudoPot. # 1 for Ti read from file:
     /storage/coda1/p-amedford6/0/shared/rich_project_chbe-medford/medford-share/data/pseudos_module/espresso/nninc/pbe/van/Ti.UPF
     MD5 check sum: 8e4df49b7f0d34bbd5052bf3f5ea0213
     Pseudo is Ultrasoft, Zval = 12.0
     Generated by new atomic code, or converted to UPF format
     Using radial grid of  851 points,  6 beta functions with:
                l(1) =   0
                l(2) =   0
                l(3) =   1
                l(4) =   1
                l(5) =   2
                l(6) =   2
     Q(r) pseudized with  8 coefficients,  rinner =    1.000   1.000   1.000
                                                       1.000   1.000

     PseudoPot. # 2 for O  read from file:
     /storage/coda1/p-amedford6/0/shared/rich_project_chbe-medford/medford-share/data/pseudos_module/espresso/nninc/pbe/van/O.UPF
     MD5 check sum: 78c19812648e8988a0fe644b0f25305e
     Pseudo is Ultrasoft, Zval =  6.0
     Generated by new atomic code, or converted to UPF format
     Using radial grid of  737 points,  4 beta functions with:
                l(1) =   0
                l(2) =   0
                l(3) =   1
                l(4) =   1
     Q(r) pseudized with  8 coefficients,  rinner =    0.800   0.800   0.800

     PseudoPot. # 3 for C  read from file:
     /storage/coda1/p-amedford6/0/shared/rich_project_chbe-medford/medford-share/data/pseudos_module/espresso/nninc/pbe/van/C.UPF
     MD5 check sum: 1a69bf6b8db32088f5b2163dbdb77a27
     Pseudo is Ultrasoft, Zval =  4.0
     Generated by new atomic code, or converted to UPF format
     Using radial grid of  721 points,  4 beta functions with:
                l(1) =   0
                l(2) =   0
                l(3) =   1
                l(4) =   1
     Q(r) pseudized with  8 coefficients,  rinner =    0.800   0.800   0.800

     PseudoPot. # 4 for H  read from file:
     /storage/coda1/p-amedford6/0/shared/rich_project_chbe-medford/medford-share/data/pseudos_module/espresso/nninc/pbe/van/H.UPF
     MD5 check sum: b5ee9d7bfd3a09ee7748110bda690ff7
     Pseudo is Ultrasoft, Zval =  1.0
     Generated by new atomic code, or converted to UPF format
     Using radial grid of  615 points,  1 beta functions with:
                l(1) =   0
     Q(r) pseudized with  8 coefficients,  rinner =    0.800

     atomic species   valence    mass     pseudopotential
        Ti1           12.00    47.86700     Ti( 1.00)
        O1             6.00    15.99900     O ( 1.00)
        C1             4.00    12.01100     C ( 1.00)
        H1             1.00     1.00800     H ( 1.00)

     No symmetry found

   Cartesian axes

     site n.     atom                  positions (alat units)
         1           Ti1 tau(   1) = (   0.0004258   2.9801865   6.0000000  )
         2           Ti1 tau(   2) = (   3.2906075   1.4906267   6.0002472  )
         3           O1  tau(   3) = (   0.0006271   0.0005054   7.9858123  )
         4           O1  tau(   4) = (   3.2906025   0.0005020   7.3038282  )
         5           O1  tau(   5) = (   4.5942328   1.4918067   9.2879030  )
         6           O1  tau(   6) = (   1.9868534   1.4903216   9.2879459  )
         7           Ti1 tau(   7) = (   3.2921849   2.8658251   9.1648892  )
         8           Ti1 tau(   8) = (   0.0073351   1.4983988   9.3831490  )
         9           O1  tau(   9) = (   3.2842540   0.0070318  11.3521760  )
        10           O1  tau(  10) = (   0.0010487   0.0043113  10.5580200  )
        11           O1  tau(  11) = (   1.2736759   1.5124129  12.6486185  )
        12           O1  tau(  12) = (   5.2630300   1.5084811  12.6300625  )
        13           Ti1 tau(  13) = (   0.0799159   2.9885021  12.8537609  )
        14           Ti1 tau(  14) = (   3.3962166   1.4899997  12.4930974  )
        15           O1  tau(  15) = (   6.5670857   5.9608082  14.6055349  )
        16           O1  tau(  16) = (   3.2779887   0.0262294  13.9455360  )
        17           O1  tau(  17) = (   4.5047259   1.5524619  16.1062024  )
        18           O1  tau(  18) = (   2.0328015   1.5482461  16.0993997  )
        19           Ti1 tau(  19) = (   3.2588990   3.0258902  15.7259251  )
        20           Ti1 tau(  20) = (   6.5443225   1.5921241  16.1654916  )
        21           O1  tau(  21) = (   3.2904802   0.0005063   4.7018136  )
        22           O1  tau(  22) = (   6.5577444   0.0567680  17.2452940  )
        23           O1  tau(  23) = (   1.3043587   1.4918075   6.0039043  )
        24           O1  tau(  24) = (   5.2767064   1.4903225   6.0039473  )
        25           Ti1 tau(  25) = (   0.0000382   5.9609847   6.0000000  )
        26           Ti1 tau(  26) = (   3.2902200   4.4714249   6.0002472  )
        27           O1  tau(  27) = (   0.0002396   2.9813036   7.9858123  )
        28           O1  tau(  28) = (   3.2902150   2.9813002   7.3038282  )
        29           O1  tau(  29) = (   4.5938453   4.4726049   9.2879030  )
        30           O1  tau(  30) = (   1.9864658   4.4711199   9.2879459  )
        31           Ti1 tau(  31) = (   3.2960881   5.8478476   9.1648656  )
        32           Ti1 tau(  32) = (   0.0086818   4.4758218   9.3788328  )
        33           O1  tau(  33) = (   3.2854246   2.9850844  11.3450670  )
        34           O1  tau(  34) = (   0.0004502   2.9836692  10.5560002  )
        35           O1  tau(  35) = (   1.2751814   4.4662498  12.6462591  )
        36           O1  tau(  36) = (   5.2612828   4.4711168  12.6263095  )
        37           Ti1 tau(  37) = (   0.0650160   0.0072273  12.8037121  )
        38           Ti1 tau(  38) = (   3.3952379   4.4681493  12.4860303  )
        39           O1  tau(  39) = (   6.5700874   2.9943110  14.6990684  )
        40           O1  tau(  40) = (   3.2774739   3.0059374  13.9302241  )
        41           O1  tau(  41) = (   4.5038310   4.5165569  16.1051355  )
        42           O1  tau(  42) = (   2.0336826   4.5180826  16.0999700  )
        43           Ti1 tau(  43) = (   3.2582433   0.0441072  15.7465997  )
        44           Ti1 tau(  44) = (   6.5393581   4.6163053  16.1595090  )
        45           O1  tau(  45) = (   3.2900926   2.9813045   4.7018136  )
        46           O1  tau(  46) = (   1.3039711   4.4726057   6.0039043  )
        47           O1  tau(  47) = (   5.2763189   4.4711207   6.0039473  )
        48           C1  tau(  48) = (   6.5669965   3.0274956  17.5243990  )
        49           H1  tau(  49) = (   0.0036594   3.1884539  18.5931066  )

     number of k points=    10  Fermi-Dirac smearing, width (Ry)=  0.0073
                       cart. coord. in units 2pi/alat
        k(    1) = (   0.0000000   0.0000000   0.0000000), wk =   0.1250000
        k(    2) = (   0.0000000   0.0419351   0.0000000), wk =   0.2500000
        k(    3) = (   0.0000000  -0.0838702   0.0000000), wk =   0.1250000
        k(    4) = (   0.0379955   0.0000049   0.0000000), wk =   0.2500000
        k(    5) = (   0.0379955   0.0419400   0.0000000), wk =   0.2500000
        k(    6) = (   0.0379955  -0.0838652   0.0000000), wk =   0.2500000
        k(    7) = (   0.0379955  -0.0419301   0.0000000), wk =   0.2500000
        k(    8) = (  -0.0759910  -0.0000099   0.0000000), wk =   0.1250000
        k(    9) = (  -0.0759910   0.0419252   0.0000000), wk =   0.2500000
        k(   10) = (  -0.0759910  -0.0838800   0.0000000), wk =   0.1250000

     Initial potential from superposition of free atoms

     starting charge  366.99920, renormalised to  383.00000

     negative rho (up, down):  2.155E-02 0.000E+00

     %%%%%%%%%%%%%%%%%%%%%%%%%%%%%%%%%%%%%%%%%%%%%%%%%%%%%%%%%%%%%%%%%%%%%%%%
     %                                                                      %
     % You are using vdW-DF, which was implemented by the Thonhauser group. %
     % Please cite the following two papers that made this development      %
     % possible and the two reviews that describe the various versions:     %
     %                                                                      %
     %   T. Thonhauser et al., PRL 115, 136402 (2015).                      %
     %   T. Thonhauser et al., PRB 76, 125112 (2007).                       %
     %   K. Berland et al., Rep. Prog. Phys. 78, 066501 (2015).             %
     %   D.C. Langreth et al., J. Phys.: Condens. Matter 21, 084203 (2009). %
     %                                                                      %
     %                                                                      %
     % If you are calculating the stress with vdW-DF, please also cite:     %
     %                                                                      %
     %   R. Sabatini et al., J. Phys.: Condens. Matter 24, 424209 (2012).   %
     %                                                                      %
     %%%%%%%%%%%%%%%%%%%%%%%%%%%%%%%%%%%%%%%%%%%%%%%%%%%%%%%%%%%%%%%%%%%%%%%%

     Adding external electric field

     Computed dipole along edir(3) :
        Dipole                0.0468 Ry au,          0.1189 Debye
        Dipole field          0.0001 Ry au,

        Potential amp.       -0.0082 Ry
        Total length         46.3494 bohr

     Starting wfcs are  289 atomic wfcs
  @ DRIVER MODE: Message from server: STATUS
  @ DRIVER MODE: Message from server: POSDATA
  @ DRIVER MODE: Reading and sharing cell
  @ DRIVER MODE: Reading and sharing positions
  @ DRIVER MODE: Received positions

     Self-consistent Calculation

     iteration #  1     ecut=    29.40 Ry     beta= 0.05
     Davidson diagonalization with overlap
     c_bands:  1 eigenvalues not converged
     c_bands:  1 eigenvalues not converged
     c_bands:  1 eigenvalues not converged
     c_bands:  1 eigenvalues not converged
     c_bands:  1 eigenvalues not converged
     c_bands:  1 eigenvalues not converged
     c_bands:  1 eigenvalues not converged
     ethr =  1.00E-05,  avg # of iterations = 19.5

[...]

     total energy              =   -2897.81002576 Ry
     estimated scf accuracy    <      11.76196948 Ry

     iteration #  2     ecut=    29.40 Ry     beta= 0.05
     Davidson diagonalization with overlap
     ethr =  3.07E-03,  avg # of iterations =  1.0

[...]

     iteration # 42     ecut=    29.40 Ry     beta= 0.05
     Davidson diagonalization with overlap
     c_bands:  2 eigenvalues not converged
     c_bands:  1 eigenvalues not converged
     ethr =  2.24E-08,  avg # of iterations =  9.9

[...]

     total energy              =   -2896.37496664 Ry
     estimated scf accuracy    <       0.00000016 Ry

     iteration # 60     ecut=    29.40 Ry     beta= 0.05
     Davidson diagonalization with overlap
     ethr =  2.67E-11,  avg # of iterations =  6.0

     negative rho (up, down):  2.069E-02 0.000E+00

     Adding external electric field

     Computed dipole along edir(3) :
        Dipole                0.3672 Ry au,          0.9332 Debye
        Dipole field          0.0007 Ry au,

        Potential amp.       -0.0642 Ry
        Total length         46.3494 bohr

     End of self-consistent calculation

          k = 0.0000 0.0000 0.0000 ( 18029 PWs)   bands (ev):

   -56.6403 -56.6065 -56.3446 -56.3078 -56.2281 -56.1668 -56.0465 -56.0408
   -56.0065 -55.9462 -55.9389 -55.9098 -55.4383 -55.4044 -55.3617 -55.2788
   -33.0687 -32.8878 -32.8868 -32.8584 -32.8323 -32.7410 -32.6955 -32.6809
   -32.6511 -32.5586 -32.5466 -32.5390 -32.5244 -32.5211 -32.5153 -32.4980
   -32.4746 -32.4561 -32.4457 -32.3500 -32.3126 -32.2895 -32.2873 -32.2797
   -32.2661 -32.2600 -32.1981 -32.1954 -32.1707 -32.1647 -32.1552 -32.1312
   -32.1232 -32.1158 -32.0999 -32.0423 -31.9048 -31.8387 -31.7635 -31.7398
   -31.6572 -31.6328 -31.5947 -31.5722 -31.5710 -31.4929 -31.4601 -31.3492
   -16.9990 -16.8097 -16.5781 -16.4429 -16.3542 -16.2804 -16.0122 -16.0109
   -15.9652 -15.8916 -15.8649 -15.8024 -15.7988 -15.7734 -15.7619 -15.7521
   -15.7367 -15.6869 -15.6691 -15.6416 -15.6071 -15.5669 -15.4459 -15.4287
   -15.4096 -15.2948 -15.2457 -15.2069 -15.0278 -13.9309 -13.8169  -7.8113
    -4.4003  -4.3427  -4.1892  -4.1656  -4.0717  -3.8281  -3.7006  -3.4785
    -3.4377  -3.4068  -3.3918  -3.3251  -3.2652  -3.1591  -3.1422  -3.1211
    -3.0817  -3.0726  -3.0499  -3.0366  -3.0120  -2.9712  -2.8885  -2.8501
    -2.8292  -2.7509  -2.7237  -2.6470  -2.6198  -2.5763  -2.5514  -2.4920
    -2.4846  -2.4208  -2.3536  -2.2919  -2.1411  -2.1006  -2.0914  -2.0854
    -2.0136  -1.9039  -1.7645  -1.7300  -1.6626  -1.6612  -1.6436  -1.6079
    -1.5156  -1.4980  -1.4119  -1.3060  -1.2970  -1.2467  -1.1920  -1.1507
    -1.1342  -1.1340  -1.0767  -1.0450  -1.0086  -0.8887  -0.8556  -0.7348
    -0.7178  -0.6828  -0.6452  -0.6400  -0.5893  -0.5314  -0.4787  -0.4476
    -0.4263  -0.3792  -0.3691  -0.3345  -0.3117  -0.2583  -0.1426  -0.1184
    -0.1067  -0.0443   0.1430   0.1679   0.2104   0.3007   0.3486   0.5100
     0.5319   0.5906   0.7986   0.8341   1.1812   1.2613   1.5551   2.2927
     2.6273   2.8220   3.0806   3.1174   3.1351   3.1676   3.3406   3.3752
     3.3936

[...]

          k = 0.0380-0.0419 0.0000 ( 17876 PWs)   bands (ev):

[...]

          k =-0.0760-0.0000 0.0000 ( 17886 PWs)   bands (ev):

[...]

          k =-0.0760-0.0839 0.0000 ( 17948 PWs)   bands (ev):

   -56.6255 -56.6212 -56.3305 -56.3217 -56.2227 -56.1721 -56.0436 -56.0261
   -56.0210 -55.9418 -55.9324 -55.9235 -55.4213 -55.4213 -55.3579 -55.2825
   -32.8879 -32.8843 -32.8749 -32.8696 -32.7868 -32.7831 -32.6955 -32.6887
   -32.6064 -32.5956 -32.5384 -32.5282 -32.5265 -32.5187 -32.4923 -32.4649
   -32.4287 -32.3739 -32.3638 -32.3536 -32.3498 -32.2879 -32.2765 -32.2706
   -32.2698 -32.2600 -32.2540 -32.2460 -32.2323 -32.2269 -32.1866 -32.1779
   -32.1437 -32.1425 -32.1355 -32.1343 -31.8026 -31.7526 -31.7526 -31.6529
   -31.6528 -31.6445 -31.6310 -31.6148 -31.6148 -31.5744 -31.5117 -31.3889
   -16.4546 -16.4360 -16.2215 -16.2123 -16.1132 -16.1127 -16.1120 -16.1098
   -16.0110 -16.0081 -15.9349 -15.9208 -15.8651 -15.8572 -15.8218 -15.8199
   -15.7990 -15.7956 -15.7547 -15.7480 -15.6180 -15.6159 -15.5111 -15.5087
   -15.4683 -15.4283 -15.3873 -15.3782 -15.1640 -13.9193 -13.9189  -7.8139
    -3.7525  -3.7217  -3.4372  -3.4334  -3.2515  -3.2476  -3.2468  -3.2278
    -3.1844  -3.1546  -3.1448  -3.1192  -3.0885  -3.0450  -3.0337  -3.0135
    -3.0091  -3.0031  -2.9912  -2.9896  -2.9667  -2.9581  -2.9053  -2.8835
    -2.8731  -2.8634  -2.8144  -2.8130  -2.7132  -2.5889  -2.5383  -2.5341
    -2.4869  -2.4530  -2.3677  -2.3652  -2.3364  -2.3203  -2.2745  -2.1704
    -2.0386  -2.0361  -1.9909  -1.9613  -1.8953  -1.8204  -1.7172  -1.6533
    -1.6200  -1.5896  -1.5240  -1.4674  -1.4591  -1.4394  -1.4293  -1.4200
    -1.4066  -1.3104  -1.2980  -1.2275  -1.1897  -1.1796  -1.1700  -1.1377
    -1.1114  -1.0486  -0.9523  -0.9496  -0.9374  -0.9094  -0.8081  -0.7618
    -0.7047  -0.6526  -0.6087  -0.3584  -0.3560  -0.2023  -0.0948  -0.0331
     0.0324   0.0570   0.1001   0.1655   0.2270   0.2330   0.2596   0.2614
     0.3580   0.3605   0.9768   0.9772   1.0359   1.0370   1.7897   2.2367
     3.1061   3.1500   3.1677   3.1731   3.1967   3.2252   3.2439   3.2538
     3.5830

     the Fermi energy is     2.1598 ev

!    total energy              =   -2896.37500408 Ry
     estimated scf accuracy    <       0.00000005 Ry
     smearing contrib. (-TS)   =      -0.01057730 Ry
     internal energy E=F+TS    =   -2896.36442679 Ry

     The total energy is F=E-TS. E is the sum of the following terms:
     one-electron contribution =  -24781.36822711 Ry
     hartree contribution      =   12468.70048939 Ry
     xc contribution           =    -472.98160510 Ry
     ewald contribution        =    9889.28466164 Ry
     electric field correction =       0.00025440 Ry

     convergence has been achieved in  60 iterations

     Forces acting on atoms (cartesian axes, Ry/au):

     atom    1 type  1   force =     0.00018955   -0.00055387    0.14914246
     atom    2 type  1   force =    -0.00002636   -0.00030523   -0.17026589
     atom    3 type  2   force =     0.00005908    0.00011858   -0.06117845
     atom    4 type  2   force =     0.00010753   -0.00167493    0.04077856
     atom    5 type  2   force =    -0.02327302    0.00030617    0.00411739
     atom    6 type  2   force =     0.02298968    0.00151368    0.00332316
     atom    7 type  1   force =    -0.00054738    0.00074930    0.00013210
     atom    8 type  1   force =     0.00020614    0.00084727   -0.00028862
     atom    9 type  2   force =    -0.00006380    0.00009570   -0.00048113
     atom   10 type  2   force =    -0.00002750   -0.00050834    0.00040965
     atom   11 type  2   force =    -0.00028162    0.00048373    0.00030927
     atom   12 type  2   force =     0.00040719    0.00012156    0.00025483
     atom   13 type  1   force =     0.00034251    0.00064407   -0.00124488
     atom   14 type  1   force =    -0.00046653    0.00097062   -0.00028318
     atom   15 type  2   force =     0.00011522    0.00009148    0.00043601
     atom   16 type  2   force =     0.00013411   -0.00026234   -0.00013981
     atom   17 type  2   force =     0.00087648    0.00017548    0.00005704
     atom   18 type  2   force =    -0.00077950    0.00027643    0.00004237
     atom   19 type  1   force =     0.00000480   -0.00105235    0.00072546
     atom   20 type  1   force =     0.00011574    0.00188797    0.00381958
     atom   21 type  2   force =     0.00008259   -0.00018333    0.10247499
     atom   22 type  2   force =    -0.00005902    0.00017890   -0.00067558
     atom   23 type  2   force =    -0.07444047    0.00019694   -0.03479489
     atom   24 type  2   force =     0.07439668    0.00062531   -0.03484512
     atom   25 type  1   force =    -0.00003495   -0.00050897    0.15018426
     atom   26 type  1   force =    -0.00002094   -0.00070686   -0.17022577
     atom   27 type  2   force =     0.00007244    0.00063742   -0.06038793
     atom   28 type  2   force =     0.00002743   -0.00162026    0.04022356
     atom   29 type  2   force =    -0.02285015    0.00144171    0.00429242
     atom   30 type  2   force =     0.02311922    0.00223639    0.00349182
     atom   31 type  1   force =    -0.00054866    0.00013358   -0.00084038
     atom   32 type  1   force =     0.00023056   -0.00110624    0.00042904
     atom   33 type  2   force =     0.00025367   -0.00007710    0.00121461
     atom   34 type  2   force =    -0.00004139    0.00059119   -0.00016353
     atom   35 type  2   force =    -0.00102521   -0.00043746    0.00006494
     atom   36 type  2   force =     0.00107901   -0.00022904    0.00013177
     atom   37 type  1   force =    -0.00006952   -0.00007154   -0.00053887
     atom   38 type  1   force =    -0.00071933   -0.00077351    0.00033684
     atom   39 type  2   force =    -0.00005578   -0.00018468    0.00064385
     atom   40 type  2   force =     0.00009493   -0.00015791   -0.00086120
     atom   41 type  2   force =     0.00085718   -0.00037535    0.00043705
     atom   42 type  2   force =    -0.00083401   -0.00046353    0.00046345
     atom   43 type  1   force =    -0.00001622    0.00081321   -0.00082314
     atom   44 type  1   force =     0.00019648   -0.00155019    0.00239809
     atom   45 type  2   force =     0.00007244   -0.00018383    0.10246907
     atom   46 type  2   force =    -0.07443042   -0.00013649   -0.03480075
     atom   47 type  2   force =     0.07438254    0.00030802   -0.03485267
     atom   48 type  3   force =    -0.00025036   -0.00383094   -0.01678961
     atom   49 type  4   force =     0.00044892    0.00150960    0.01167779

     Total force =     0.405123     Total SCF correction =     0.000748
  @ DRIVER MODE: Message from server: STATUS
  @ DRIVER MODE: Message from server: GETFORCE
  @ DRIVER MODE: Returning v,forces,stress,ensemble

     Writing output data file ./calc.save/
  @ DRIVER MODE: Message from server: EXIT
  @ DRIVE MODE: Exiting

     General routines

     Parallel routines

   This run was terminated on:  23:33:40   8Sep2021

   JOB DONE.