     Program PWSCF v.6.7GPU starts on 28Sep2021 at 17: 5: 2

     R & G space division:  proc/nbgrp/npool/nimage =       8
     Reading input from /storage/home/hcoda1/3/ntian30/research/carbon/CxH_vib/H2O_calc/ads_slab/CHHO_a/out_0010/pw.inp
Warning: card &CELL ignored
Warning: card   CELL_DYNAMICS='IPI', ignored
Warning: card / ignored

     Current dimensions of program PWSCF are:
     Max number of different atomic species (ntypx) = 10
     Max number of k-points (npk) =  40000
     Max angular momentum in pseudopotentials (lmaxx) =  3
     Presently no symmetry can be used with electric field

     Message from routine cell_base_init:
     DEPRECATED: use true lattice parameter, not A to a.u. conversion factor

     IMPORTANT: XC functional enforced from input :
     Exchange-correlation= BEEF-VDW
                           (   1   4  43  14   2   0   0)
     Any further DFT definition will be discarded
     Please, verify this is what you really want

  @ DRIVER MODE: Connecting to
 qe_1139763_3011330.sched-torque.pace.gatech.eduvrhpwd69_scratch
  using UNIX socket
  @ DRIVER MODE: Message from server: STATUS
  @ DRIVER MODE: Message from server: INIT
  @ DRIVER MODE: Receiving replica           0          -1
  @ DRIVER MODE: Receiving encoded integer          25
  @ DRIVER MODE:  SCF:  T  FORCE:  T  STRESS:  F  VC:  F  ENSEMBLE:  F
  @ DRIVER MODE:  SCF:  T  FORCE:  T  STRESS:  F  VC:  F  ENSEMBLE:  F

     Using Slab Decomposition

     bravais-lattice index     =            0
     lattice parameter (alat)  =       1.8897  a.u.
     unit-cell volume          =    6658.9804 (a.u.)^3
     number of atoms/cell      =           51
     number of atomic types    =            4
     number of electrons       =       390.00
     number of Kohn-Sham states=          205
     kinetic-energy cutoff     =      29.3995  Ry
     charge density cutoff     =     293.9946  Ry
     scf convergence threshold =      7.3E-08
     mixing beta               =       0.0500
     number of iterations used =            8  plain     mixing
     Exchange-correlation= BEEF-VDW
                           (   1   4  43  14   2   0   0)

     celldm(1)=   1.889726  celldm(2)=   0.000000  celldm(3)=   0.000000
     celldm(4)=   0.000000  celldm(5)=   0.000000  celldm(6)=   0.000000

     crystal axes: (cart. coord. in units of alat)
               a(1) = (   6.579727   0.000000   0.000000 )
               a(2) = (  -0.000775   5.961596   0.000000 )
               a(3) = (   0.000000   0.000000  25.155947 )

     reciprocal axes: (cart. coord. in units 2 pi/alat)
               b(1) = (  0.151982  0.000020  0.000000 )
               b(2) = (  0.000000  0.167740  0.000000 )
               b(3) = (  0.000000  0.000000  0.039752 )

     PseudoPot. # 1 for Ti read from file:
     /storage/coda1/p-amedford6/0/shared/rich_project_chbe-medford/medford-share/data/pseudos_module/espresso/nninc/pbe/van/Ti.UPF
     MD5 check sum: 8e4df49b7f0d34bbd5052bf3f5ea0213
     Pseudo is Ultrasoft, Zval = 12.0
     Generated by new atomic code, or converted to UPF format
     Using radial grid of  851 points,  6 beta functions with:
                l(1) =   0
                l(2) =   0
                l(3) =   1
                l(4) =   1
                l(5) =   2
                l(6) =   2
     Q(r) pseudized with  8 coefficients,  rinner =    1.000   1.000   1.000
                                                       1.000   1.000

     PseudoPot. # 2 for O  read from file:
     /storage/coda1/p-amedford6/0/shared/rich_project_chbe-medford/medford-share/data/pseudos_module/espresso/nninc/pbe/van/O.UPF
     MD5 check sum: 78c19812648e8988a0fe644b0f25305e
     Pseudo is Ultrasoft, Zval =  6.0
     Generated by new atomic code, or converted to UPF format
     Using radial grid of  737 points,  4 beta functions with:
                l(1) =   0
                l(2) =   0
                l(3) =   1
                l(4) =   1
     Q(r) pseudized with  8 coefficients,  rinner =    0.800   0.800   0.800

     PseudoPot. # 3 for C  read from file:
     /storage/coda1/p-amedford6/0/shared/rich_project_chbe-medford/medford-share/data/pseudos_module/espresso/nninc/pbe/van/C.UPF
     MD5 check sum: 1a69bf6b8db32088f5b2163dbdb77a27
     Pseudo is Ultrasoft, Zval =  4.0
     Generated by new atomic code, or converted to UPF format
     Using radial grid of  721 points,  4 beta functions with:
                l(1) =   0
                l(2) =   0
                l(3) =   1
                l(4) =   1
     Q(r) pseudized with  8 coefficients,  rinner =    0.800   0.800   0.800

     PseudoPot. # 4 for H  read from file:
     /storage/coda1/p-amedford6/0/shared/rich_project_chbe-medford/medford-share/data/pseudos_module/espresso/nninc/pbe/van/H.UPF
     MD5 check sum: b5ee9d7bfd3a09ee7748110bda690ff7
     Pseudo is Ultrasoft, Zval =  1.0
     Generated by new atomic code, or converted to UPF format
     Using radial grid of  615 points,  1 beta functions with:
                l(1) =   0
     Q(r) pseudized with  8 coefficients,  rinner =    0.800

     atomic species   valence    mass     pseudopotential
        Ti1           12.00    47.86700     Ti( 1.00)
        O1             6.00    15.99900     O ( 1.00)
        C1             4.00    12.01100     C ( 1.00)
        H1             1.00     1.00800     H ( 1.00)

     No symmetry found

   Cartesian axes

     site n.     atom                  positions (alat units)
         1           Ti1 tau(   1) = (   0.0004258   2.9801865   6.0000000  )
         2           Ti1 tau(   2) = (   3.2906075   1.4906267   6.0002472  )
         3           O1  tau(   3) = (   0.0006271   0.0005054   7.9858123  )
         4           O1  tau(   4) = (   3.2906025   0.0005020   7.3038282  )
         5           O1  tau(   5) = (   4.5942328   1.4918067   9.2879030  )
         6           O1  tau(   6) = (   1.9868534   1.4903216   9.2879459  )
         7           Ti1 tau(   7) = (   3.2576716   2.8711746   9.2039182  )
         8           Ti1 tau(   8) = (   6.5366639   1.4374725   9.3495247  )
         9           O1  tau(   9) = (   3.2654967   5.9220709  11.3209648  )
        10           O1  tau(  10) = (   0.0059489   5.9503157  10.5690854  )
        11           O1  tau(  11) = (   1.2710110   1.4830968  12.6026389  )
        12           O1  tau(  12) = (   5.2956248   1.4563849  12.6219738  )
        13           Ti1 tau(  13) = (   6.4707115   3.0232854  12.7046045  )
        14           Ti1 tau(  14) = (   3.3012427   1.2792539  12.6712786  )
        15           O1  tau(  15) = (   0.1208522   5.9439793  14.6184240  )
        16           O1  tau(  16) = (   3.2955454   0.0555021  13.9474554  )
        17           O1  tau(  17) = (   4.3710900   1.5417649  16.0729971  )
        18           O1  tau(  18) = (   1.7386421   2.0841158  16.4311239  )
        19           Ti1 tau(  19) = (   3.2301957   3.0269898  15.6570758  )
        20           Ti1 tau(  20) = (   6.3022331   1.4673853  15.8568112  )
        21           O1  tau(  21) = (   3.2904802   0.0005063   4.7018136  )
        22           O1  tau(  22) = (   6.3638003   5.9514110  17.1305022  )
        23           O1  tau(  23) = (   1.3043587   1.4918075   6.0039043  )
        24           O1  tau(  24) = (   5.2767064   1.4903225   6.0039473  )
        25           Ti1 tau(  25) = (   0.0000382   5.9609847   6.0000000  )
        26           Ti1 tau(  26) = (   3.2902200   4.4714249   6.0002472  )
        27           O1  tau(  27) = (   0.0002396   2.9813036   7.9858123  )
        28           O1  tau(  28) = (   3.2902150   2.9813002   7.3038282  )
        29           O1  tau(  29) = (   4.5938453   4.4726049   9.2879030  )
        30           O1  tau(  30) = (   1.9864658   4.4711199   9.2879459  )
        31           Ti1 tau(  31) = (   3.2576593   5.8570409   9.1743550  )
        32           Ti1 tau(  32) = (   6.5358986   4.4093296   9.3482377  )
        33           O1  tau(  33) = (   3.2940825   2.9875588  11.2901943  )
        34           O1  tau(  34) = (   6.5570357   2.9690702  10.5578446  )
        35           O1  tau(  35) = (   1.2556184   4.4285683  12.6007990  )
        36           O1  tau(  36) = (   5.2653856   4.4527926  12.6146307  )
        37           Ti1 tau(  37) = (   0.0986422   0.0400065  12.6561080  )
        38           Ti1 tau(  38) = (   3.2648468   4.3768915  12.4074939  )
        39           O1  tau(  39) = (   6.4357771   2.9845043  14.6319670  )
        40           O1  tau(  40) = (   3.2191030   2.9668167  13.8952198  )
        41           O1  tau(  41) = (   4.5664177   4.3244647  16.1555655  )
        42           O1  tau(  42) = (   2.0966903   4.6357478  16.0503417  )
        43           Ti1 tau(  43) = (   3.4732119   5.7943257  16.4097380  )
        44           Ti1 tau(  44) = (   0.0705528   4.5403211  16.0661977  )
        45           O1  tau(  45) = (   3.2900926   2.9813045   4.7018136  )
        46           O1  tau(  46) = (   1.3039711   4.4726057   6.0039043  )
        47           O1  tau(  47) = (   5.2763189   4.4711207   6.0039473  )
        48           C1  tau(  48) = (   0.6899253   2.7405959  17.1512775  )
        49           H1  tau(  49) = (   0.8031679   2.6369330  18.2321311  )
        50           O1  tau(  50) = (   3.3389373   5.9192928  18.2161996  )
        51           H1  tau(  51) = (   4.0498012   0.2866715  18.7870949  )

     number of k points=    10  Fermi-Dirac smearing, width (Ry)=  0.0073
                       cart. coord. in units 2pi/alat
        k(    1) = (   0.0000000   0.0000000   0.0000000), wk =   0.1250000
        k(    2) = (   0.0000000   0.0419351   0.0000000), wk =   0.2500000
        k(    3) = (   0.0000000  -0.0838702   0.0000000), wk =   0.1250000
        k(    4) = (   0.0379955   0.0000049   0.0000000), wk =   0.2500000
        k(    5) = (   0.0379955   0.0419400   0.0000000), wk =   0.2500000
        k(    6) = (   0.0379955  -0.0838652   0.0000000), wk =   0.2500000
        k(    7) = (   0.0379955  -0.0419301   0.0000000), wk =   0.2500000
        k(    8) = (  -0.0759910  -0.0000099   0.0000000), wk =   0.1250000
        k(    9) = (  -0.0759910   0.0419252   0.0000000), wk =   0.2500000
        k(   10) = (  -0.0759910  -0.0838800   0.0000000), wk =   0.1250000

     Initial potential from superposition of free atoms

     starting charge  373.99919, renormalised to  390.00000

     negative rho (up, down):  1.955E-02 0.000E+00

     %%%%%%%%%%%%%%%%%%%%%%%%%%%%%%%%%%%%%%%%%%%%%%%%%%%%%%%%%%%%%%%%%%%%%%%%
     %                                                                      %
     % You are using vdW-DF, which was implemented by the Thonhauser group. %
     % Please cite the following two papers that made this development      %
     % possible and the two reviews that describe the various versions:     %
     %                                                                      %
     %   T. Thonhauser et al., PRL 115, 136402 (2015).                      %
     %   T. Thonhauser et al., PRB 76, 125112 (2007).                       %
     %   K. Berland et al., Rep. Prog. Phys. 78, 066501 (2015).             %
     %   D.C. Langreth et al., J. Phys.: Condens. Matter 21, 084203 (2009). %
     %                                                                      %
     %                                                                      %
     % If you are calculating the stress with vdW-DF, please also cite:     %
     %                                                                      %
     %   R. Sabatini et al., J. Phys.: Condens. Matter 24, 424209 (2012).   %
     %                                                                      %
     %%%%%%%%%%%%%%%%%%%%%%%%%%%%%%%%%%%%%%%%%%%%%%%%%%%%%%%%%%%%%%%%%%%%%%%%

     Adding external electric field

     Computed dipole along edir(3) :
        Dipole               -3.9292 Ry au,         -9.9870 Debye
        Dipole field         -0.0074 Ry au,

        Potential amp.        0.6874 Ry
        Total length         46.3494 bohr

     Starting wfcs are  294 atomic wfcs
  @ DRIVER MODE: Message from server: STATUS
  @ DRIVER MODE: Message from server: POSDATA
  @ DRIVER MODE: Reading and sharing cell
  @ DRIVER MODE: Reading and sharing positions
  @ DRIVER MODE: Received positions

     Self-consistent Calculation

     iteration #  1     ecut=    29.40 Ry     beta= 0.05
     Davidson diagonalization with overlap
     c_bands:  5 eigenvalues not converged
     c_bands:  2 eigenvalues not converged
     c_bands:  4 eigenvalues not converged
     c_bands:  4 eigenvalues not converged
     c_bands:  1 eigenvalues not converged
     c_bands:  4 eigenvalues not converged
     c_bands:  1 eigenvalues not converged
     c_bands:  1 eigenvalues not converged
     c_bands:  3 eigenvalues not converged
     ethr =  1.00E-05,  avg # of iterations = 20.8

[...]

     total energy              =   -2904.76350890 Ry
     estimated scf accuracy    <     308.03796236 Ry

     iteration #  2     ecut=    29.40 Ry     beta= 0.05
     Davidson diagonalization with overlap
     ethr =  1.00E-02,  avg # of iterations = 12.2

[...]

     iteration # 50     ecut=    29.40 Ry     beta= 0.05
     Davidson diagonalization with overlap
     c_bands:  1 eigenvalues not converged
     ethr =  2.82E-07,  avg # of iterations =  4.4

[...]

     total energy              =   -2930.00846526 Ry
     estimated scf accuracy    <       0.00000024 Ry

     iteration # 77     ecut=    29.40 Ry     beta= 0.05
     Davidson diagonalization with overlap
     ethr =  6.19E-11,  avg # of iterations =  5.1

     negative rho (up, down):  1.952E-02 0.000E+00

     Adding external electric field

     Computed dipole along edir(3) :
        Dipole                0.5455 Ry au,          1.3865 Debye
        Dipole field          0.0010 Ry au,

        Potential amp.       -0.0954 Ry
        Total length         46.3494 bohr

     End of self-consistent calculation

          k = 0.0000 0.0000 0.0000 ( 18029 PWs)   bands (ev):

   -56.4306 -56.3956 -56.1688 -55.9775 -55.8978 -55.8728 -55.8597 -55.8297
   -55.7720 -55.7296 -55.7277 -55.5621 -55.4814 -55.4375 -55.1224 -55.0885
   -32.8556 -32.6953 -32.6650 -32.6399 -32.6111 -32.5398 -32.5198 -32.4822
   -32.3959 -32.3832 -32.3824 -32.3772 -32.2637 -32.2449 -32.2252 -32.2014
   -32.1694 -32.1382 -32.1139 -32.0814 -32.0727 -32.0632 -32.0330 -32.0327
   -32.0242 -32.0040 -31.9888 -31.9845 -31.9838 -31.9662 -31.9317 -31.9280
   -31.9188 -31.8864 -31.8313 -31.8177 -31.8014 -31.7957 -31.7719 -31.7140
   -31.6128 -31.5195 -31.4969 -31.4574 -31.4333 -31.3369 -31.2517 -31.1403
   -18.1629 -17.1017 -16.7815 -16.6474 -16.5108 -16.3177 -16.2623 -16.1355
   -15.9521 -15.8526 -15.7845 -15.7445 -15.6657 -15.6632 -15.5826 -15.5313
   -15.5147 -15.4818 -15.4608 -15.4306 -15.3822 -15.3779 -15.3193 -15.2825
   -15.2382 -15.1846 -15.1323 -15.0493 -15.0062 -14.8167 -13.6218 -13.5109
    -8.0295  -4.8199  -4.5598  -4.1555  -4.0533  -4.0142  -3.8916  -3.7546
    -3.7019  -3.6358  -3.4236  -3.4034  -3.3042  -3.2404  -3.2226  -3.1372
    -3.0868  -3.0296  -3.0241  -2.9594  -2.9154  -2.8819  -2.8345  -2.7840
    -2.6959  -2.6890  -2.6650  -2.6010  -2.5885  -2.4853  -2.4763  -2.3775
    -2.3605  -2.3530  -2.3331  -2.3017  -2.2726  -2.1734  -2.1587  -2.1168
    -2.0198  -2.0006  -1.8986  -1.7827  -1.6791  -1.6697  -1.6427  -1.5507
    -1.5057  -1.4933  -1.4568  -1.4101  -1.3854  -1.3273  -1.2795  -1.2223
    -1.1778  -1.0624  -1.0106  -0.9627  -0.8796  -0.8598  -0.7922  -0.7735
    -0.6731  -0.6433  -0.5879  -0.5752  -0.5371  -0.4641  -0.3838  -0.3514
    -0.3250  -0.2727  -0.2366  -0.1793  -0.1615  -0.1525  -0.1129  -0.0753
    -0.0427   0.0408   0.0515   0.1193   0.2053   0.2975   0.3263   0.4273
     0.4601   0.5949   0.6302   0.8689   0.8986   0.9079   1.0921   1.1385
     1.4594   1.5100   2.2001   2.8490   2.9980   3.2802   3.2873   3.3532
     3.4009   3.4939   3.5427   3.6320   3.7367

[...]

          k = 0.0380-0.0419 0.0000 ( 17876 PWs)   bands (ev):

[...]

          k =-0.0760-0.0000 0.0000 ( 17886 PWs)   bands (ev):

[...]

          k =-0.0760-0.0839 0.0000 ( 17948 PWs)   bands (ev):

   -56.4182 -56.4079 -56.1679 -55.9782 -55.8876 -55.8697 -55.8637 -55.8384
   -55.7640 -55.7361 -55.7275 -55.5637 -55.4750 -55.4438 -55.1057 -55.1051
   -32.6859 -32.6773 -32.6735 -32.6681 -32.5929 -32.5679 -32.5598 -32.5246
   -32.4122 -32.3645 -32.3035 -32.2117 -32.2050 -32.2005 -32.1938 -32.1781
   -32.1353 -32.1135 -32.1116 -32.0997 -32.0978 -32.0954 -32.0854 -32.0608
   -32.0479 -32.0302 -32.0186 -32.0094 -31.9852 -31.9822 -31.9645 -31.9409
   -31.9250 -31.9123 -31.8951 -31.8269 -31.8214 -31.8082 -31.7766 -31.7704
   -31.5986 -31.5484 -31.4465 -31.4461 -31.3346 -31.3330 -31.2942 -31.2934
   -18.1243 -17.0892 -16.4813 -16.4508 -16.2414 -16.1387 -15.9674 -15.9442
   -15.9397 -15.9068 -15.8521 -15.8385 -15.8215 -15.6731 -15.6499 -15.6335
   -15.5712 -15.5042 -15.4625 -15.4358 -15.4117 -15.3749 -15.3593 -15.3478
   -15.3462 -15.3307 -15.2768 -15.1985 -15.1833 -14.9370 -13.6145 -13.6137
    -8.0284  -4.8139  -4.3826  -3.7411  -3.5415  -3.4744  -3.4370  -3.2774
    -3.1850  -3.1747  -3.1043  -3.0928  -3.0431  -3.0053  -2.9672  -2.9365
    -2.9182  -2.8683  -2.8574  -2.8213  -2.7948  -2.7723  -2.7640  -2.7527
    -2.7275  -2.7212  -2.7034  -2.6904  -2.6706  -2.6493  -2.6146  -2.5710
    -2.5064  -2.4355  -2.3020  -2.2864  -2.2623  -2.1917  -2.1721  -2.1209
    -2.1051  -2.0850  -2.0657  -2.0177  -1.9834  -1.9552  -1.7031  -1.6818
    -1.6280  -1.5764  -1.5222  -1.4894  -1.4603  -1.4452  -1.3833  -1.2764
    -1.2376  -1.2013  -1.1826  -1.1614  -1.1569  -1.0801  -1.0542  -0.9931
    -0.9460  -0.9148  -0.8383  -0.8021  -0.7717  -0.7513  -0.6954  -0.6308
    -0.6155  -0.5379  -0.4907  -0.4708  -0.4138  -0.2766  -0.2445  -0.1431
    -0.0920  -0.0536   0.0530   0.1741   0.2403   0.2459   0.3573   0.3845
     0.4028   0.5015   0.5538   0.5735   0.6117   0.7589   1.2852   1.2998
     1.3097   1.3112   2.3460   3.3861   3.3988   3.4042   3.4145   3.4339
     3.5447   3.6128   3.6772   3.7543   3.7673

     the Fermi energy is     2.6323 ev

!    total energy              =   -2930.00847240 Ry
     estimated scf accuracy    <       0.00000007 Ry
     smearing contrib. (-TS)   =      -0.00366417 Ry
     internal energy E=F+TS    =   -2930.00480823 Ry

     The total energy is F=E-TS. E is the sum of the following terms:
     one-electron contribution =  -24473.07610816 Ry
     hartree contribution      =   12320.22372426 Ry
     xc contribution           =    -481.34082889 Ry
     ewald contribution        =    9704.18784303 Ry
     electric field correction =       0.00056153 Ry

     convergence has been achieved in  77 iterations

     Forces acting on atoms (cartesian axes, Ry/au):

     atom    1 type  1   force =     0.00045751   -0.00032805    0.13411572
     atom    2 type  1   force =     0.00011232    0.00528353   -0.16227361
     atom    3 type  2   force =    -0.00070466    0.00272782   -0.05105863
     atom    4 type  2   force =    -0.00084182   -0.00120578    0.04169805
     atom    5 type  2   force =    -0.01387626   -0.00296471    0.00212545
     atom    6 type  2   force =     0.01179790   -0.00439164    0.00140138
     atom    7 type  1   force =     0.00051999   -0.00030612   -0.00024834
     atom    8 type  1   force =    -0.00006624   -0.00036497    0.00021145
     atom    9 type  2   force =     0.00018028   -0.00023958   -0.00009296
     atom   10 type  2   force =    -0.00025559    0.00015114   -0.00036402
     atom   11 type  2   force =     0.00017167   -0.00095243    0.00007501
     atom   12 type  2   force =    -0.00073354    0.00010945    0.00013433
     atom   13 type  1   force =     0.00063574    0.00021863    0.00009092
     atom   14 type  1   force =    -0.00003685   -0.00013796    0.00042431
     atom   15 type  2   force =     0.00036484   -0.00006388   -0.00021335
     atom   16 type  2   force =     0.00082405    0.00013076   -0.00025905
     atom   17 type  2   force =     0.00085259   -0.00035246    0.00039753
     atom   18 type  2   force =     0.00029737   -0.00008655    0.00059871
     atom   19 type  1   force =     0.00006360    0.00078321   -0.00004310
     atom   20 type  1   force =     0.00015882    0.00018511    0.00109937
     atom   21 type  2   force =     0.00019614    0.00006050    0.10037358
     atom   22 type  2   force =     0.00007760   -0.00045416   -0.00007646
     atom   23 type  2   force =    -0.07799689    0.00020106   -0.03356774
     atom   24 type  2   force =     0.07804560    0.00071469   -0.03358277
     atom   25 type  1   force =     0.00017487   -0.00022888    0.13669220
     atom   26 type  1   force =     0.00017207   -0.00663718   -0.16252252
     atom   27 type  2   force =     0.00014915    0.00093035   -0.05023485
     atom   28 type  2   force =    -0.00050772   -0.00055280    0.04263084
     atom   29 type  2   force =    -0.01248327    0.00585565    0.00019664
     atom   30 type  2   force =     0.01102136   -0.00027383   -0.00033657
     atom   31 type  1   force =     0.00029841   -0.00026911   -0.00024071
     atom   32 type  1   force =    -0.00023033    0.00016028    0.00016258
     atom   33 type  2   force =    -0.00027422    0.00009218    0.00004448
     atom   34 type  2   force =     0.00036876   -0.00021496   -0.00032980
     atom   35 type  2   force =     0.00136102    0.00038467   -0.00011529
     atom   36 type  2   force =    -0.00058452   -0.00012187   -0.00031868
     atom   37 type  1   force =    -0.00050564    0.00079129   -0.00044166
     atom   38 type  1   force =    -0.00027093    0.00035674   -0.00039752
     atom   39 type  2   force =     0.00059123   -0.00022891   -0.00008248
     atom   40 type  2   force =    -0.00006412    0.00017784   -0.00059461
     atom   41 type  2   force =     0.00104085   -0.00048773    0.00039356
     atom   42 type  2   force =    -0.00027580    0.00033583   -0.00001155
     atom   43 type  1   force =     0.00073298   -0.00057262    0.00177653
     atom   44 type  1   force =     0.00019334    0.00086554    0.00038159
     atom   45 type  2   force =     0.00016248   -0.00002196    0.09988966
     atom   46 type  2   force =    -0.07801489    0.00000583   -0.03357676
     atom   47 type  2   force =     0.07806926    0.00053388   -0.03361216
     atom   48 type  3   force =    -0.00040321    0.00082352   -0.00031493
     atom   49 type  4   force =    -0.00049183   -0.00049813    0.00025774
     atom   50 type  2   force =    -0.00162577   -0.00060798    0.00089022
     atom   51 type  4   force =     0.00115227    0.00068476   -0.00115172

     Total force =     0.384469     Total SCF correction =     0.000590
  @ DRIVER MODE: Message from server: STATUS
  @ DRIVER MODE: Message from server: GETFORCE
  @ DRIVER MODE: Returning v,forces,stress,ensemble

     Writing output data file ./calc.save/
  @ DRIVER MODE: Message from server: EXIT
  @ DRIVE MODE: Exiting

     General routines

     Parallel routines

   This run was terminated on:  17:29: 1  28Sep2021

   JOB DONE.