     Program PWSCF v.6.7GPU starts on 11Sep2021 at  7:54:20

     R & G space division:  proc/nbgrp/npool/nimage =      10
     Reading input from /storage/home/hcoda1/3/ntian30/research/carbon/CxH_vib/CH2_calc/ads_slab/CH2NHNH2_a/out_0039/pw.inp
Warning: card &CELL ignored
Warning: card   CELL_DYNAMICS='IPI', ignored
Warning: card / ignored

     Current dimensions of program PWSCF are:
     Max number of different atomic species (ntypx) = 10
     Max number of k-points (npk) =  40000
     Max angular momentum in pseudopotentials (lmaxx) =  3
     Presently no symmetry can be used with electric field

     Message from routine cell_base_init:
     DEPRECATED: use true lattice parameter, not A to a.u. conversion factor

     IMPORTANT: XC functional enforced from input :
     Exchange-correlation= BEEF-VDW
                           (   1   4  43  14   2   0   0)
     Any further DFT definition will be discarded
     Please, verify this is what you really want

  @ DRIVER MODE: Connecting to
 qe_1139763_2792044.sched-torque.pace.gatech.eduietaah_4_scratch
  using UNIX socket
  @ DRIVER MODE: Message from server: STATUS
  @ DRIVER MODE: Message from server: INIT
  @ DRIVER MODE: Receiving replica           0          -1
  @ DRIVER MODE: Receiving encoded integer          25
  @ DRIVER MODE:  SCF:  T  FORCE:  T  STRESS:  F  VC:  F  ENSEMBLE:  F
  @ DRIVER MODE:  SCF:  T  FORCE:  T  STRESS:  F  VC:  F  ENSEMBLE:  F

     Using Slab Decomposition

     bravais-lattice index     =            0
     lattice parameter (alat)  =       1.8897  a.u.
     unit-cell volume          =    6658.9804 (a.u.)^3
     number of atoms/cell      =           55
     number of atomic types    =            5
     number of electrons       =       397.00
     number of Kohn-Sham states=          208
     kinetic-energy cutoff     =      29.3995  Ry
     charge density cutoff     =     293.9946  Ry
     scf convergence threshold =      7.3E-08
     mixing beta               =       0.0500
     number of iterations used =            8  plain     mixing
     Exchange-correlation= BEEF-VDW
                           (   1   4  43  14   2   0   0)

     celldm(1)=   1.889726  celldm(2)=   0.000000  celldm(3)=   0.000000
     celldm(4)=   0.000000  celldm(5)=   0.000000  celldm(6)=   0.000000

     crystal axes: (cart. coord. in units of alat)
               a(1) = (   6.579727   0.000000   0.000000 )
               a(2) = (  -0.000775   5.961596   0.000000 )
               a(3) = (   0.000000   0.000000  25.155947 )

     reciprocal axes: (cart. coord. in units 2 pi/alat)
               b(1) = (  0.151982  0.000020  0.000000 )
               b(2) = (  0.000000  0.167740  0.000000 )
               b(3) = (  0.000000  0.000000  0.039752 )

     PseudoPot. # 1 for Ti read from file:
     /storage/coda1/p-amedford6/0/shared/rich_project_chbe-medford/medford-share/data/pseudos_module/espresso/nninc/pbe/van/Ti.UPF
     MD5 check sum: 8e4df49b7f0d34bbd5052bf3f5ea0213
     Pseudo is Ultrasoft, Zval = 12.0
     Generated by new atomic code, or converted to UPF format
     Using radial grid of  851 points,  6 beta functions with:
                l(1) =   0
                l(2) =   0
                l(3) =   1
                l(4) =   1
                l(5) =   2
                l(6) =   2
     Q(r) pseudized with  8 coefficients,  rinner =    1.000   1.000   1.000
                                                       1.000   1.000

     PseudoPot. # 2 for O  read from file:
     /storage/coda1/p-amedford6/0/shared/rich_project_chbe-medford/medford-share/data/pseudos_module/espresso/nninc/pbe/van/O.UPF
     MD5 check sum: 78c19812648e8988a0fe644b0f25305e
     Pseudo is Ultrasoft, Zval =  6.0
     Generated by new atomic code, or converted to UPF format
     Using radial grid of  737 points,  4 beta functions with:
                l(1) =   0
                l(2) =   0
                l(3) =   1
                l(4) =   1
     Q(r) pseudized with  8 coefficients,  rinner =    0.800   0.800   0.800

     PseudoPot. # 3 for N  read from file:
     /storage/coda1/p-amedford6/0/shared/rich_project_chbe-medford/medford-share/data/pseudos_module/espresso/nninc/pbe/van/N.UPF
     MD5 check sum: 90d10febe142ad51ac9d5be1deb811c4
     Pseudo is Ultrasoft, Zval =  5.0
     Generated by new atomic code, or converted to UPF format
     Using radial grid of  729 points,  4 beta functions with:
                l(1) =   0
                l(2) =   0
                l(3) =   1
                l(4) =   1
     Q(r) pseudized with  8 coefficients,  rinner =    0.800   0.800   0.800

     PseudoPot. # 4 for C  read from file:
     /storage/coda1/p-amedford6/0/shared/rich_project_chbe-medford/medford-share/data/pseudos_module/espresso/nninc/pbe/van/C.UPF
     MD5 check sum: 1a69bf6b8db32088f5b2163dbdb77a27
     Pseudo is Ultrasoft, Zval =  4.0
     Generated by new atomic code, or converted to UPF format
     Using radial grid of  721 points,  4 beta functions with:
                l(1) =   0
                l(2) =   0
                l(3) =   1
                l(4) =   1
     Q(r) pseudized with  8 coefficients,  rinner =    0.800   0.800   0.800

     PseudoPot. # 5 for H  read from file:
     /storage/coda1/p-amedford6/0/shared/rich_project_chbe-medford/medford-share/data/pseudos_module/espresso/nninc/pbe/van/H.UPF
     MD5 check sum: b5ee9d7bfd3a09ee7748110bda690ff7
     Pseudo is Ultrasoft, Zval =  1.0
     Generated by new atomic code, or converted to UPF format
     Using radial grid of  615 points,  1 beta functions with:
                l(1) =   0
     Q(r) pseudized with  8 coefficients,  rinner =    0.800

     atomic species   valence    mass     pseudopotential
        Ti1           12.00    47.86700     Ti( 1.00)
        O1             6.00    15.99900     O ( 1.00)
        N1             5.00    14.00700     N ( 1.00)
        C1             4.00    12.01100     C ( 1.00)
        H1             1.00     1.00800     H ( 1.00)

     No symmetry found

   Cartesian axes

     site n.     atom                  positions (alat units)
         1           Ti1 tau(   1) = (   0.0004258   2.9801865   6.0000000  )
         2           Ti1 tau(   2) = (   3.2906075   1.4906267   6.0002472  )
         3           O1  tau(   3) = (   0.0006271   0.0005054   7.9858123  )
         4           O1  tau(   4) = (   3.2906025   0.0005020   7.3038282  )
         5           O1  tau(   5) = (   4.5942328   1.4918067   9.2879030  )
         6           O1  tau(   6) = (   1.9868534   1.4903216   9.2879459  )
         7           Ti1 tau(   7) = (   3.2907910   2.8959150   9.1758416  )
         8           Ti1 tau(   8) = (   0.0015273   1.4827037   9.2680791  )
         9           O1  tau(   9) = (   3.2904964   5.9585769  11.3857690  )
        10           O1  tau(  10) = (   0.0116148   5.9584955  10.6183126  )
        11           O1  tau(  11) = (   1.2878431   1.4867815  12.6991744  )
        12           O1  tau(  12) = (   5.2968392   1.4897239  12.6840540  )
        13           Ti1 tau(  13) = (   0.0031652   2.9724310  12.5021289  )
        14           Ti1 tau(  14) = (   3.2974598   1.4750309  12.5411678  )
        15           O1  tau(  15) = (   6.5490940   5.8844369  14.7025010  )
        16           O1  tau(  16) = (   3.3056738   5.9474069  14.0077327  )
        17           O1  tau(  17) = (   4.5358307   1.5199601  16.1809847  )
        18           O1  tau(  18) = (   2.0145668   1.5037208  16.1256758  )
        19           Ti1 tau(  19) = (   3.2722398   2.9952086  15.7861162  )
        20           Ti1 tau(  20) = (   6.5630583   1.3046800  15.8709962  )
        21           O1  tau(  21) = (   3.2904802   0.0005063   4.7018136  )
        22           O1  tau(  22) = (   0.0019326   0.1554656  17.2922311  )
        23           O1  tau(  23) = (   1.3043587   1.4918075   6.0039043  )
        24           O1  tau(  24) = (   5.2767064   1.4903225   6.0039473  )
        25           Ti1 tau(  25) = (   0.0000382   5.9609847   6.0000000  )
        26           Ti1 tau(  26) = (   3.2902200   4.4714249   6.0002472  )
        27           O1  tau(  27) = (   0.0002396   2.9813036   7.9858123  )
        28           O1  tau(  28) = (   3.2902150   2.9813002   7.3038282  )
        29           O1  tau(  29) = (   4.5938453   4.4726049   9.2879030  )
        30           O1  tau(  30) = (   1.9864658   4.4711199   9.2879459  )
        31           Ti1 tau(  31) = (   3.2891106   5.8743827   9.1763621  )
        32           Ti1 tau(  32) = (   0.0006254   4.4649316   9.2693709  )
        33           O1  tau(  33) = (   3.2902589   2.9648534  11.3782866  )
        34           O1  tau(  34) = (   0.0092240   2.9805883  10.6323155  )
        35           O1  tau(  35) = (   1.2907939   4.4579819  12.6664495  )
        36           O1  tau(  36) = (   5.2949113   4.4550998  12.6520156  )
        37           Ti1 tau(  37) = (   0.0082621   5.9437129  12.5015890  )
        38           Ti1 tau(  38) = (   3.2989848   4.4491302  12.5337562  )
        39           O1  tau(  39) = (   6.5545586   3.0159292  14.9830317  )
        40           O1  tau(  40) = (   3.2960925   2.9977268  13.9872472  )
        41           O1  tau(  41) = (   4.5245867   4.4695491  16.2648171  )
        42           O1  tau(  42) = (   2.0004542   4.4779941  16.2115700  )
        43           Ti1 tau(  43) = (   3.2998562   0.0139781  15.8031611  )
        44           Ti1 tau(  44) = (   0.0298651   4.5190837  16.0363964  )
        45           O1  tau(  45) = (   3.2900926   2.9813045   4.7018136  )
        46           O1  tau(  46) = (   1.3039711   4.4726057   6.0039043  )
        47           O1  tau(  47) = (   5.2763189   4.4711207   6.0039473  )
        48           N1  tau(  48) = (   0.7490466   2.5008218  18.8353846  )
        49           N1  tau(  49) = (   6.4369825   3.4131575  18.1751453  )
        50           C1  tau(  50) = (   1.9829018   2.9174465  19.1941100  )
        51           H1  tau(  51) = (   2.1359794   3.9544348  19.4490303  )
        52           H1  tau(  52) = (   2.6935556   2.1521737  19.4548401  )
        53           H1  tau(  53) = (   0.6355624   1.5475814  18.4636284  )
        54           H1  tau(  54) = (   6.4936903   4.3058724  18.6511896  )
        55           H1  tau(  55) = (   5.4890587   3.0624770  18.3097170  )

     number of k points=    10  Fermi-Dirac smearing, width (Ry)=  0.0073
                       cart. coord. in units 2pi/alat
        k(    1) = (   0.0000000   0.0000000   0.0000000), wk =   0.1250000
        k(    2) = (   0.0000000   0.0419351   0.0000000), wk =   0.2500000
        k(    3) = (   0.0000000  -0.0838702   0.0000000), wk =   0.1250000
        k(    4) = (   0.0379955   0.0000049   0.0000000), wk =   0.2500000
        k(    5) = (   0.0379955   0.0419400   0.0000000), wk =   0.2500000
        k(    6) = (   0.0379955  -0.0838652   0.0000000), wk =   0.2500000
        k(    7) = (   0.0379955  -0.0419301   0.0000000), wk =   0.2500000
        k(    8) = (  -0.0759910  -0.0000099   0.0000000), wk =   0.1250000
        k(    9) = (  -0.0759910   0.0419252   0.0000000), wk =   0.2500000
        k(   10) = (  -0.0759910  -0.0838800   0.0000000), wk =   0.1250000

     Initial potential from superposition of free atoms

     starting charge  380.99914, renormalised to  397.00000

     negative rho (up, down):  1.606E-02 0.000E+00

     %%%%%%%%%%%%%%%%%%%%%%%%%%%%%%%%%%%%%%%%%%%%%%%%%%%%%%%%%%%%%%%%%%%%%%%%
     %                                                                      %
     % You are using vdW-DF, which was implemented by the Thonhauser group. %
     % Please cite the following two papers that made this development      %
     % possible and the two reviews that describe the various versions:     %
     %                                                                      %
     %   T. Thonhauser et al., PRL 115, 136402 (2015).                      %
     %   T. Thonhauser et al., PRB 76, 125112 (2007).                       %
     %   K. Berland et al., Rep. Prog. Phys. 78, 066501 (2015).             %
     %   D.C. Langreth et al., J. Phys.: Condens. Matter 21, 084203 (2009). %
     %                                                                      %
     %                                                                      %
     % If you are calculating the stress with vdW-DF, please also cite:     %
     %                                                                      %
     %   R. Sabatini et al., J. Phys.: Condens. Matter 24, 424209 (2012).   %
     %                                                                      %
     %%%%%%%%%%%%%%%%%%%%%%%%%%%%%%%%%%%%%%%%%%%%%%%%%%%%%%%%%%%%%%%%%%%%%%%%

     Adding external electric field

     Computed dipole along edir(3) :
        Dipole              -10.6770 Ry au,        -27.1381 Debye
        Dipole field         -0.0201 Ry au,

        Potential amp.        1.8678 Ry
        Total length         46.3494 bohr

     Starting wfcs are  301 atomic wfcs
  @ DRIVER MODE: Message from server: STATUS
  @ DRIVER MODE: Message from server: POSDATA
  @ DRIVER MODE: Reading and sharing cell
  @ DRIVER MODE: Reading and sharing positions
  @ DRIVER MODE: Received positions

     Self-consistent Calculation

     iteration #  1     ecut=    29.40 Ry     beta= 0.05
     Davidson diagonalization with overlap
     c_bands:  2 eigenvalues not converged
     c_bands:  3 eigenvalues not converged
     c_bands:  3 eigenvalues not converged
     c_bands:  4 eigenvalues not converged
     c_bands:  4 eigenvalues not converged
     c_bands:  4 eigenvalues not converged
     c_bands:  1 eigenvalues not converged
     c_bands:  3 eigenvalues not converged
     c_bands:  2 eigenvalues not converged
     ethr =  1.00E-05,  avg # of iterations = 20.0

[...]

     total energy              =   -2465.28193418 Ry
     estimated scf accuracy    <    5331.53817775 Ry

     iteration #  2     ecut=    29.40 Ry     beta= 0.05
     Davidson diagonalization with overlap
     ethr =  1.00E-02,  avg # of iterations = 23.5

[...]

     iteration # 77     ecut=    29.40 Ry     beta= 0.05
     Davidson diagonalization with overlap
     ethr =  2.88E-11,  avg # of iterations =  6.6

[...]

     total energy              =   -2941.51046949 Ry
     estimated scf accuracy    <       0.00000010 Ry

     iteration # 78     ecut=    29.40 Ry     beta= 0.05
     Davidson diagonalization with overlap
     c_bands:  1 eigenvalues not converged
     ethr =  2.52E-11,  avg # of iterations = 10.5

     negative rho (up, down):  1.515E-02 0.000E+00

     Adding external electric field

     Computed dipole along edir(3) :
        Dipole                1.2045 Ry au,          3.0614 Debye
        Dipole field          0.0023 Ry au,

        Potential amp.       -0.2107 Ry
        Total length         46.3494 bohr

     End of self-consistent calculation

          k = 0.0000 0.0000 0.0000 ( 18029 PWs)   bands (ev):

   -55.3825 -55.3455 -55.3368 -55.3027 -55.2641 -55.2583 -55.2295 -55.2111
   -55.1869 -55.1845 -55.1768 -55.1673 -55.1336 -55.0313 -54.3698 -54.3358
   -31.9453 -31.8301 -31.7772 -31.7514 -31.7002 -31.6898 -31.6841 -31.6738
   -31.6255 -31.6171 -31.5946 -31.5815 -31.5721 -31.5480 -31.5416 -31.5346
   -31.5222 -31.5062 -31.5048 -31.4895 -31.4886 -31.4515 -31.4514 -31.4414
   -31.4414 -31.4134 -31.3945 -31.3940 -31.3934 -31.3889 -31.3728 -31.3661
   -31.3651 -31.3589 -31.3589 -31.3564 -31.3244 -31.3003 -31.2951 -31.2787
   -31.2463 -31.2015 -30.7795 -30.6847 -30.6627 -30.5958 -30.5089 -30.3981
   -18.9134 -16.2146 -15.9610 -15.8138 -15.7063 -15.5890 -15.4802 -15.4254
   -15.3192 -15.2477 -15.1332 -15.0844 -15.0677 -15.0360 -15.0271 -15.0148
   -14.9354 -14.9289 -14.9111 -14.8881 -14.8824 -14.8404 -14.8288 -14.7879
   -14.7629 -14.7575 -14.6355 -14.5496 -14.4749 -14.3449 -14.3109 -12.8726
   -12.7551  -9.8690  -7.4722  -6.2815  -4.9989  -4.0266  -3.5974  -3.5472
    -3.4082  -3.3001  -3.2793  -3.2430  -3.1428  -2.9620  -2.8255  -2.7920
    -2.6758  -2.5952  -2.5819  -2.5513  -2.4265  -2.3893  -2.3504  -2.2857
    -2.2560  -2.1937  -2.1751  -2.1636  -2.1444  -2.1203  -2.0957  -1.9943
    -1.9560  -1.8602  -1.8204  -1.7869  -1.7458  -1.7287  -1.7086  -1.6777
    -1.6676  -1.6133  -1.5996  -1.5856  -1.5368  -1.4190  -1.2981  -1.2644
    -1.1756  -1.0281  -0.9907  -0.9705  -0.9142  -0.8783  -0.8556  -0.8253
    -0.7649  -0.7258  -0.6691  -0.6099  -0.5413  -0.4965  -0.4496  -0.4141
    -0.3780  -0.2932  -0.2111  -0.1678  -0.1546  -0.1369  -0.0379  -0.0019
     0.0531   0.1294   0.1313   0.1436   0.1868   0.2686   0.3458   0.3642
     0.3867   0.4916   0.4965   0.5393   0.5418   0.5620   0.5961   0.6309
     0.6809   0.7080   0.7953   0.8920   1.1187   1.2199   1.2223   1.5456
     1.5565   1.6527   1.8358   2.2294   2.2778   3.7094   3.7798   3.8010
     3.8572   3.8602   3.9300   3.9466   4.1923   4.2178   4.2183   4.2374

[...]

          k = 0.0380-0.0419 0.0000 ( 17876 PWs)   bands (ev):

[...]

          k =-0.0760-0.0000 0.0000 ( 17886 PWs)   bands (ev):

[...]

          k =-0.0760-0.0839 0.0000 ( 17948 PWs)   bands (ev):

   -55.3684 -55.3594 -55.3199 -55.3195 -55.2539 -55.2489 -55.2447 -55.1953
   -55.1921 -55.1899 -55.1834 -55.1509 -55.1502 -55.0334 -54.3529 -54.3526
   -31.7544 -31.7454 -31.6862 -31.6621 -31.6452 -31.6450 -31.6269 -31.6108
   -31.6106 -31.5940 -31.5861 -31.5779 -31.5625 -31.5306 -31.5283 -31.5240
   -31.5234 -31.5223 -31.5108 -31.5066 -31.4774 -31.4651 -31.4613 -31.4513
   -31.4455 -31.4421 -31.4397 -31.4392 -31.4365 -31.4278 -31.4251 -31.4080
   -31.4068 -31.4045 -31.3851 -31.3832 -31.3831 -31.3734 -31.3314 -31.3305
   -31.2953 -31.2480 -30.6754 -30.6752 -30.5920 -30.5918 -30.5524 -30.5523
   -18.9073 -15.7660 -15.5973 -15.5783 -15.4340 -15.3978 -15.3549 -15.3438
   -15.2498 -15.2147 -15.1886 -15.1577 -15.1365 -15.1011 -15.0876 -15.0709
   -15.0136 -14.9912 -14.9856 -14.9657 -14.9066 -14.9023 -14.8946 -14.8917
   -14.8369 -14.8337 -14.8253 -14.7432 -14.7402 -14.6321 -14.2628 -12.8566
   -12.8566  -9.8391  -7.4317  -6.2792  -5.0958  -3.9713  -3.6231  -2.8547
    -2.8482  -2.8350  -2.6501  -2.5671  -2.5445  -2.5389  -2.4489  -2.4116
    -2.3663  -2.3639  -2.3106  -2.3043  -2.2771  -2.2365  -2.2251  -2.2051
    -2.1864  -2.1774  -2.1418  -2.1186  -2.1088  -2.0786  -2.0477  -2.0311
    -2.0241  -2.0025  -1.9717  -1.9523  -1.9399  -1.8869  -1.7750  -1.7597
    -1.6644  -1.5978  -1.5935  -1.5200  -1.4960  -1.4536  -1.4460  -1.4213
    -1.3762  -1.1970  -1.1655  -1.1347  -1.1269  -1.0414  -0.9891  -0.9173
    -0.9120  -0.8860  -0.8515  -0.7573  -0.7208  -0.7017  -0.6267  -0.6029
    -0.5364  -0.4955  -0.4288  -0.3982  -0.3442  -0.3422  -0.3077  -0.2937
    -0.2743  -0.2045  -0.1583  -0.1239  -0.1117  -0.0798   0.1179   0.1271
     0.1427   0.2524   0.2960   0.4434   0.4581   0.5212   0.6269   0.6530
     0.7230   0.7479   0.9046   0.9161   0.9321   0.9846   0.9928   1.0624
     1.0718   2.0088   2.0093   2.0977   2.0980   3.6782   3.8963   3.9676
     3.9827   4.0154   4.1407   4.2089   4.2270   4.2955   4.2984   4.3279

     the Fermi energy is     3.7753 ev

!    total energy              =   -2941.51048541 Ry
     estimated scf accuracy    <       0.00000005 Ry
     smearing contrib. (-TS)   =      -0.04440547 Ry
     internal energy E=F+TS    =   -2941.46607993 Ry

     The total energy is F=E-TS. E is the sum of the following terms:
     one-electron contribution =  -23633.81172167 Ry
     hartree contribution      =   11909.19417126 Ry
     xc contribution           =    -486.89352092 Ry
     ewald contribution        =    9270.04225369 Ry
     electric field correction =       0.00273771 Ry

     convergence has been achieved in  78 iterations

     Forces acting on atoms (cartesian axes, Ry/au):

     atom    1 type  1   force =     0.00013218   -0.00018768    0.09302844
     atom    2 type  1   force =    -0.00008374   -0.00045560   -0.17841298
     atom    3 type  2   force =     0.00004654   -0.00037181   -0.02006203
     atom    4 type  2   force =    -0.00000801   -0.00201681    0.05931292
     atom    5 type  2   force =    -0.01030316   -0.00098777    0.00817791
     atom    6 type  2   force =     0.01173328   -0.00038779    0.00731905
     atom    7 type  1   force =    -0.00038074    0.00239754   -0.01418574
     atom    8 type  1   force =     0.00023163   -0.00123840   -0.00619127
     atom    9 type  2   force =    -0.00023282    0.00021785    0.00013576
     atom   10 type  2   force =    -0.00162437    0.00148247    0.00163157
     atom   11 type  2   force =    -0.00005400   -0.00016246    0.00009787
     atom   12 type  2   force =    -0.00017275   -0.00016238   -0.00001111
     atom   13 type  1   force =     0.00007095   -0.00028020    0.00005795
     atom   14 type  1   force =     0.00018007    0.00019842    0.00028774
     atom   15 type  2   force =    -0.00007065    0.00021615   -0.00031263
     atom   16 type  2   force =     0.00017450   -0.00021847    0.00012885
     atom   17 type  2   force =    -0.00003156    0.00001141    0.00044259
     atom   18 type  2   force =    -0.00022738   -0.00002321   -0.00015141
     atom   19 type  1   force =    -0.00010383   -0.00009619    0.00022638
     atom   20 type  1   force =    -0.00013520   -0.00023814    0.00016034
     atom   21 type  2   force =     0.00005981   -0.00008465    0.10399388
     atom   22 type  2   force =     0.00009215   -0.00006303   -0.00053896
     atom   23 type  2   force =    -0.07032367   -0.00017287   -0.02688004
     atom   24 type  2   force =     0.07020992    0.00027363   -0.02690546
     atom   25 type  1   force =    -0.00001318   -0.00014436    0.09259687
     atom   26 type  1   force =    -0.00006225   -0.00039338   -0.17856699
     atom   27 type  2   force =     0.00009584   -0.00030128   -0.01915195
     atom   28 type  2   force =     0.00003918   -0.00178705    0.05865573
     atom   29 type  2   force =    -0.01079817   -0.00126334    0.00872485
     atom   30 type  2   force =     0.01215103   -0.00086176    0.00782797
     atom   31 type  1   force =    -0.00028593    0.00613508   -0.01442168
     atom   32 type  1   force =     0.00028802    0.00070336   -0.00651385
     atom   33 type  2   force =    -0.00022504   -0.00025009   -0.00000559
     atom   34 type  2   force =    -0.00093451   -0.00222574   -0.00017118
     atom   35 type  2   force =    -0.00040827    0.00023592    0.00014795
     atom   36 type  2   force =     0.00011757    0.00019583   -0.00027462
     atom   37 type  1   force =     0.00017232   -0.00000523    0.00005829
     atom   38 type  1   force =     0.00032551    0.00019379    0.00009837
     atom   39 type  2   force =    -0.00026125    0.00014686   -0.00023469
     atom   40 type  2   force =    -0.00009226   -0.00015566   -0.00007420
     atom   41 type  2   force =    -0.00007512    0.00030122    0.00000665
     atom   42 type  2   force =    -0.00021829    0.00008555    0.00003093
     atom   43 type  1   force =     0.00043137   -0.00000197    0.00020836
     atom   44 type  1   force =     0.00007793    0.00004986   -0.00004085
     atom   45 type  2   force =     0.00004476   -0.00008896    0.10398024
     atom   46 type  2   force =    -0.07030463   -0.00010408   -0.02683710
     atom   47 type  2   force =     0.07018068    0.00031195   -0.02687209
     atom   48 type  3   force =     0.00102037   -0.00132759   -0.00000152
     atom   49 type  3   force =    -0.00030885   -0.01158690   -0.00584430
     atom   50 type  4   force =    -0.00066162    0.00041176   -0.00116167
     atom   51 type  5   force =     0.00045769   -0.00096413    0.00014665
     atom   52 type  5   force =     0.00032265    0.00044938    0.00014685
     atom   53 type  5   force =    -0.00031070    0.00145968    0.00026729
     atom   54 type  5   force =     0.00058879    0.01379531    0.00627215
     atom   55 type  5   force =    -0.00053280   -0.00066405   -0.00034647

     Total force =     0.366973     Total SCF correction =     0.000347
  @ DRIVER MODE: Message from server: STATUS
  @ DRIVER MODE: Message from server: GETFORCE
  @ DRIVER MODE: Returning v,forces,stress,ensemble

     Writing output data file ./calc.save/
  @ DRIVER MODE: Message from server: EXIT
  @ DRIVE MODE: Exiting

     General routines

     Parallel routines

   This run was terminated on:   8:15: 2  11Sep2021

   JOB DONE.