     Program PWSCF v.6.7GPU starts on 23Sep2021 at  2:26:31

     R & G space division:  proc/nbgrp/npool/nimage =      10
     Reading input from /storage/home/hcoda1/3/ntian30/research/carbon/CxH_vib/H2O_calc/ads_slab/CHNHHHO_a/out_0033/pw.inp
Warning: card &CELL ignored
Warning: card   CELL_DYNAMICS='IPI', ignored
Warning: card / ignored

     Current dimensions of program PWSCF are:
     Max number of different atomic species (ntypx) = 10
     Max number of k-points (npk) =  40000
     Max angular momentum in pseudopotentials (lmaxx) =  3
     Presently no symmetry can be used with electric field

     Message from routine cell_base_init:
     DEPRECATED: use true lattice parameter, not A to a.u. conversion factor

     IMPORTANT: XC functional enforced from input :
     Exchange-correlation= BEEF-VDW
                           (   1   4  43  14   2   0   0)
     Any further DFT definition will be discarded
     Please, verify this is what you really want

  @ DRIVER MODE: Connecting to
 qe_1139763_2937313.sched-torque.pace.gatech.edu0ymer_f2_scratch
  using UNIX socket
  @ DRIVER MODE: Message from server: STATUS
  @ DRIVER MODE: Message from server: INIT
  @ DRIVER MODE: Receiving replica           0          -1
  @ DRIVER MODE: Receiving encoded integer          25
  @ DRIVER MODE:  SCF:  T  FORCE:  T  STRESS:  F  VC:  F  ENSEMBLE:  F
  @ DRIVER MODE:  SCF:  T  FORCE:  T  STRESS:  F  VC:  F  ENSEMBLE:  F

     Using Slab Decomposition

     bravais-lattice index     =            0
     lattice parameter (alat)  =       1.8897  a.u.
     unit-cell volume          =    6658.9804 (a.u.)^3
     number of atoms/cell      =           54
     number of atomic types    =            5
     number of electrons       =       397.00
     number of Kohn-Sham states=          208
     kinetic-energy cutoff     =      29.3995  Ry
     charge density cutoff     =     293.9946  Ry
     scf convergence threshold =      7.3E-08
     mixing beta               =       0.0500
     number of iterations used =            8  plain     mixing
     Exchange-correlation= BEEF-VDW
                           (   1   4  43  14   2   0   0)

     celldm(1)=   1.889726  celldm(2)=   0.000000  celldm(3)=   0.000000
     celldm(4)=   0.000000  celldm(5)=   0.000000  celldm(6)=   0.000000

     crystal axes: (cart. coord. in units of alat)
               a(1) = (   6.579727   0.000000   0.000000 )
               a(2) = (  -0.000775   5.961596   0.000000 )
               a(3) = (   0.000000   0.000000  25.155947 )

     reciprocal axes: (cart. coord. in units 2 pi/alat)
               b(1) = (  0.151982  0.000020  0.000000 )
               b(2) = (  0.000000  0.167740  0.000000 )
               b(3) = (  0.000000  0.000000  0.039752 )

     PseudoPot. # 1 for Ti read from file:
     /storage/coda1/p-amedford6/0/shared/rich_project_chbe-medford/medford-share/data/pseudos_module/espresso/nninc/pbe/van/Ti.UPF
     MD5 check sum: 8e4df49b7f0d34bbd5052bf3f5ea0213
     Pseudo is Ultrasoft, Zval = 12.0
     Generated by new atomic code, or converted to UPF format
     Using radial grid of  851 points,  6 beta functions with:
                l(1) =   0
                l(2) =   0
                l(3) =   1
                l(4) =   1
                l(5) =   2
                l(6) =   2
     Q(r) pseudized with  8 coefficients,  rinner =    1.000   1.000   1.000
                                                       1.000   1.000

     PseudoPot. # 2 for O  read from file:
     /storage/coda1/p-amedford6/0/shared/rich_project_chbe-medford/medford-share/data/pseudos_module/espresso/nninc/pbe/van/O.UPF
     MD5 check sum: 78c19812648e8988a0fe644b0f25305e
     Pseudo is Ultrasoft, Zval =  6.0
     Generated by new atomic code, or converted to UPF format
     Using radial grid of  737 points,  4 beta functions with:
                l(1) =   0
                l(2) =   0
                l(3) =   1
                l(4) =   1
     Q(r) pseudized with  8 coefficients,  rinner =    0.800   0.800   0.800

     PseudoPot. # 3 for N  read from file:
     /storage/coda1/p-amedford6/0/shared/rich_project_chbe-medford/medford-share/data/pseudos_module/espresso/nninc/pbe/van/N.UPF
     MD5 check sum: 90d10febe142ad51ac9d5be1deb811c4
     Pseudo is Ultrasoft, Zval =  5.0
     Generated by new atomic code, or converted to UPF format
     Using radial grid of  729 points,  4 beta functions with:
                l(1) =   0
                l(2) =   0
                l(3) =   1
                l(4) =   1
     Q(r) pseudized with  8 coefficients,  rinner =    0.800   0.800   0.800

     PseudoPot. # 4 for C  read from file:
     /storage/coda1/p-amedford6/0/shared/rich_project_chbe-medford/medford-share/data/pseudos_module/espresso/nninc/pbe/van/C.UPF
     MD5 check sum: 1a69bf6b8db32088f5b2163dbdb77a27
     Pseudo is Ultrasoft, Zval =  4.0
     Generated by new atomic code, or converted to UPF format
     Using radial grid of  721 points,  4 beta functions with:
                l(1) =   0
                l(2) =   0
                l(3) =   1
                l(4) =   1
     Q(r) pseudized with  8 coefficients,  rinner =    0.800   0.800   0.800

     PseudoPot. # 5 for H  read from file:
     /storage/coda1/p-amedford6/0/shared/rich_project_chbe-medford/medford-share/data/pseudos_module/espresso/nninc/pbe/van/H.UPF
     MD5 check sum: b5ee9d7bfd3a09ee7748110bda690ff7
     Pseudo is Ultrasoft, Zval =  1.0
     Generated by new atomic code, or converted to UPF format
     Using radial grid of  615 points,  1 beta functions with:
                l(1) =   0
     Q(r) pseudized with  8 coefficients,  rinner =    0.800

     atomic species   valence    mass     pseudopotential
        Ti1           12.00    47.86700     Ti( 1.00)
        O1             6.00    15.99900     O ( 1.00)
        N1             5.00    14.00700     N ( 1.00)
        C1             4.00    12.01100     C ( 1.00)
        H1             1.00     1.00800     H ( 1.00)

     No symmetry found

   Cartesian axes

     site n.     atom                  positions (alat units)
         1           Ti1 tau(   1) = (   0.0004258   2.9801865   6.0000000  )
         2           Ti1 tau(   2) = (   3.2906075   1.4906267   6.0002472  )
         3           O1  tau(   3) = (   0.0006271   0.0005054   7.9858123  )
         4           O1  tau(   4) = (   3.2906025   0.0005020   7.3038282  )
         5           O1  tau(   5) = (   4.5942328   1.4918067   9.2879030  )
         6           O1  tau(   6) = (   1.9868534   1.4903216   9.2879459  )
         7           Ti1 tau(   7) = (   3.2907910   2.8959150   9.1758416  )
         8           Ti1 tau(   8) = (   0.0015273   1.4827037   9.2680791  )
         9           O1  tau(   9) = (   3.2973591   5.9237820  11.3497511  )
        10           O1  tau(  10) = (   0.0116148   5.9584955  10.6183126  )
        11           O1  tau(  11) = (   1.2811460   1.4768824  12.6391447  )
        12           O1  tau(  12) = (   5.3079631   1.4871840  12.6405626  )
        13           Ti1 tau(  13) = (   6.5754896   2.9244875  12.5445406  )
        14           Ti1 tau(  14) = (   3.3102182   1.2813077  12.7057081  )
        15           O1  tau(  15) = (   6.5763362   0.0566486  14.6337039  )
        16           O1  tau(  16) = (   3.2990834   0.0566264  13.9960278  )
        17           O1  tau(  17) = (   4.5749688   1.5338778  16.1314031  )
        18           O1  tau(  18) = (   2.0677763   1.5208417  16.2171153  )
        19           Ti1 tau(  19) = (   3.2830944   2.9922577  15.6820260  )
        20           Ti1 tau(  20) = (   6.5002293   1.4748383  16.0237708  )
        21           O1  tau(  21) = (   3.2904802   0.0005063   4.7018136  )
        22           O1  tau(  22) = (   0.0234767   5.8639946  17.1540191  )
        23           O1  tau(  23) = (   1.3043587   1.4918075   6.0039043  )
        24           O1  tau(  24) = (   5.2767064   1.4903225   6.0039473  )
        25           Ti1 tau(  25) = (   0.0000382   5.9609847   6.0000000  )
        26           Ti1 tau(  26) = (   3.2902200   4.4714249   6.0002472  )
        27           O1  tau(  27) = (   0.0002396   2.9813036   7.9858123  )
        28           O1  tau(  28) = (   3.2902150   2.9813002   7.3038282  )
        29           O1  tau(  29) = (   4.5938453   4.4726049   9.2879030  )
        30           O1  tau(  30) = (   1.9864658   4.4711199   9.2879459  )
        31           Ti1 tau(  31) = (   3.2891106   5.8743827   9.1763621  )
        32           Ti1 tau(  32) = (   0.0006254   4.4649316   9.2693709  )
        33           O1  tau(  33) = (   3.2952530   2.9960894  11.3054589  )
        34           O1  tau(  34) = (   0.0092240   2.9805883  10.6323155  )
        35           O1  tau(  35) = (   1.2848436   4.4566134  12.6628561  )
        36           O1  tau(  36) = (   5.3073415   4.4462911  12.6631571  )
        37           Ti1 tau(  37) = (   0.0411484   5.9123939  12.5136797  )
        38           Ti1 tau(  38) = (   3.3147701   4.3652790  12.4361622  )
        39           O1  tau(  39) = (   0.0290229   2.9306538  14.8412286  )
        40           O1  tau(  40) = (   3.2875986   2.9640914  13.9120161  )
        41           O1  tau(  41) = (   4.5659564   4.3862643  16.1232528  )
        42           O1  tau(  42) = (   2.0245242   4.4195217  16.0560026  )
        43           Ti1 tau(  43) = (   3.2475481   5.9608109  16.2864591  )
        44           Ti1 tau(  44) = (   0.0132903   4.6514137  15.7972829  )
        45           O1  tau(  45) = (   3.2900926   2.9813045   4.7018136  )
        46           O1  tau(  46) = (   1.3039711   4.4726057   6.0039043  )
        47           O1  tau(  47) = (   5.2763189   4.4711207   6.0039473  )
        48           N1  tau(  48) = (   5.7184149   3.3872802  18.6644769  )
        49           C1  tau(  49) = (   6.5536674   2.6142045  18.0347456  )
        50           H1  tau(  50) = (   0.7520291   2.2354638  18.7052436  )
        51           H1  tau(  51) = (   4.9873861   3.8928837  18.1615307  )
        52           H1  tau(  52) = (   5.8197376   3.6397576  19.6419508  )
        53           O1  tau(  53) = (   3.3578172   5.8056178  18.1613732  )
        54           H1  tau(  54) = (   2.9124532   0.5526369  18.6599525  )

     number of k points=    10  Fermi-Dirac smearing, width (Ry)=  0.0073
                       cart. coord. in units 2pi/alat
        k(    1) = (   0.0000000   0.0000000   0.0000000), wk =   0.1250000
        k(    2) = (   0.0000000   0.0419351   0.0000000), wk =   0.2500000
        k(    3) = (   0.0000000  -0.0838702   0.0000000), wk =   0.1250000
        k(    4) = (   0.0379955   0.0000049   0.0000000), wk =   0.2500000
        k(    5) = (   0.0379955   0.0419400   0.0000000), wk =   0.2500000
        k(    6) = (   0.0379955  -0.0838652   0.0000000), wk =   0.2500000
        k(    7) = (   0.0379955  -0.0419301   0.0000000), wk =   0.2500000
        k(    8) = (  -0.0759910  -0.0000099   0.0000000), wk =   0.1250000
        k(    9) = (  -0.0759910   0.0419252   0.0000000), wk =   0.2500000
        k(   10) = (  -0.0759910  -0.0838800   0.0000000), wk =   0.1250000

     Initial potential from superposition of free atoms

     starting charge  380.99916, renormalised to  397.00000

     negative rho (up, down):  1.674E-02 0.000E+00

     %%%%%%%%%%%%%%%%%%%%%%%%%%%%%%%%%%%%%%%%%%%%%%%%%%%%%%%%%%%%%%%%%%%%%%%%
     %                                                                      %
     % You are using vdW-DF, which was implemented by the Thonhauser group. %
     % Please cite the following two papers that made this development      %
     % possible and the two reviews that describe the various versions:     %
     %                                                                      %
     %   T. Thonhauser et al., PRL 115, 136402 (2015).                      %
     %   T. Thonhauser et al., PRB 76, 125112 (2007).                       %
     %   K. Berland et al., Rep. Prog. Phys. 78, 066501 (2015).             %
     %   D.C. Langreth et al., J. Phys.: Condens. Matter 21, 084203 (2009). %
     %                                                                      %
     %                                                                      %
     % If you are calculating the stress with vdW-DF, please also cite:     %
     %                                                                      %
     %   R. Sabatini et al., J. Phys.: Condens. Matter 24, 424209 (2012).   %
     %                                                                      %
     %%%%%%%%%%%%%%%%%%%%%%%%%%%%%%%%%%%%%%%%%%%%%%%%%%%%%%%%%%%%%%%%%%%%%%%%

     Adding external electric field

     Computed dipole along edir(3) :
        Dipole               -9.3089 Ry au,        -23.6608 Debye
        Dipole field         -0.0176 Ry au,

        Potential amp.        1.6284 Ry
        Total length         46.3494 bohr

     Starting wfcs are  300 atomic wfcs
  @ DRIVER MODE: Message from server: STATUS
  @ DRIVER MODE: Message from server: POSDATA
  @ DRIVER MODE: Reading and sharing cell
  @ DRIVER MODE: Reading and sharing positions
  @ DRIVER MODE: Received positions

     Self-consistent Calculation

     iteration #  1     ecut=    29.40 Ry     beta= 0.05
     Davidson diagonalization with overlap
     c_bands:  1 eigenvalues not converged
     c_bands:  2 eigenvalues not converged
     c_bands:  1 eigenvalues not converged
     c_bands:  1 eigenvalues not converged
     c_bands:  1 eigenvalues not converged
     c_bands:  2 eigenvalues not converged
     c_bands:  1 eigenvalues not converged
     c_bands:  1 eigenvalues not converged
     c_bands:  2 eigenvalues not converged
     ethr =  1.00E-05,  avg # of iterations = 19.6

[...]

     total energy              =   -2539.09608164 Ry
     estimated scf accuracy    <    4593.62731252 Ry

     iteration #  2     ecut=    29.40 Ry     beta= 0.05
     Davidson diagonalization with overlap
     ethr =  1.00E-02,  avg # of iterations = 24.1

[...]

     iteration # 41     ecut=    29.40 Ry     beta= 0.05
     Davidson diagonalization with overlap
     c_bands:  1 eigenvalues not converged
     ethr =  6.37E-07,  avg # of iterations = 11.0

[...]

     total energy              =   -2952.67087157 Ry
     estimated scf accuracy    <       0.00000010 Ry

     iteration # 64     ecut=    29.40 Ry     beta= 0.05
     Davidson diagonalization with overlap
     ethr =  1.86E-11,  avg # of iterations =  8.1

     negative rho (up, down):  1.682E-02 0.000E+00

     Adding external electric field

     Computed dipole along edir(3) :
        Dipole                1.3052 Ry au,          3.3175 Debye
        Dipole field          0.0025 Ry au,

        Potential amp.       -0.2283 Ry
        Total length         46.3494 bohr

     End of self-consistent calculation

          k = 0.0000 0.0000 0.0000 ( 18029 PWs)   bands (ev):

   -55.6250 -55.5466 -55.5125 -55.3640 -55.3397 -55.3299 -55.3043 -55.2967
   -55.2797 -55.2293 -55.1422 -55.1072 -55.0304 -55.0045 -54.4980 -54.4640
   -32.0279 -31.9578 -31.8660 -31.8480 -31.8384 -31.8260 -31.8235 -31.7914
   -31.7634 -31.7194 -31.6990 -31.6703 -31.6500 -31.6273 -31.6216 -31.6099
   -31.6043 -31.5870 -31.5535 -31.5381 -31.5222 -31.5183 -31.5039 -31.5030
   -31.4919 -31.4813 -31.4769 -31.4766 -31.4477 -31.4364 -31.4268 -31.4040
   -31.3870 -31.3860 -31.3844 -31.3076 -31.2973 -31.2762 -31.2440 -31.2350
   -31.2236 -31.1531 -30.9028 -30.8193 -30.7967 -30.7206 -30.6344 -30.5224
   -17.3039 -16.4426 -16.1314 -15.9662 -15.7696 -15.6654 -15.5961 -15.4074
   -15.3231 -15.2661 -15.0746 -15.0712 -15.0411 -15.0222 -14.9958 -14.9668
   -14.9592 -14.9532 -14.9266 -14.8931 -14.8762 -14.8481 -14.8305 -14.7726
   -14.7450 -14.7281 -14.6678 -14.5723 -14.5086 -14.2957 -14.1475 -12.9960
   -12.8801  -9.6346  -7.3132  -4.7775  -4.0376  -3.5008  -3.4335  -3.3724
    -3.3236  -3.2481  -3.0167  -2.8689  -2.7638  -2.7359  -2.6499  -2.6176
    -2.5702  -2.4925  -2.4251  -2.4018  -2.3560  -2.3184  -2.2874  -2.2650
    -2.2397  -2.2174  -2.1626  -2.1238  -2.0468  -1.9982  -1.9292  -1.9070
    -1.8496  -1.8114  -1.8089  -1.7939  -1.7574  -1.7520  -1.7434  -1.7237
    -1.6160  -1.5852  -1.5352  -1.4924  -1.3279  -1.1391  -1.1203  -1.0254
    -0.9879  -0.9509  -0.9236  -0.9083  -0.8818  -0.8596  -0.7642  -0.7463
    -0.6639  -0.6020  -0.5572  -0.5075  -0.4053  -0.3399  -0.3126  -0.2665
    -0.2612  -0.2301  -0.2143  -0.1257  -0.0487  -0.0016   0.0105   0.0620
     0.1478   0.1666   0.2217   0.2514   0.2939   0.3264   0.4003   0.4265
     0.4488   0.4600   0.4778   0.5345   0.5737   0.6069   0.6767   0.7783
     0.7860   0.8606   0.8624   0.8722   1.0736   1.1619   1.1813   1.2641
     1.4876   1.5287   1.6201   1.7248   2.0932   2.1375   3.5564   3.6999
     3.7177   3.7826   3.8307   3.9431   3.9557   4.0413   4.1697   4.2562

[...]

          k = 0.0380-0.0419 0.0000 ( 17876 PWs)   bands (ev):

[...]

          k =-0.0760-0.0000 0.0000 ( 17886 PWs)   bands (ev):

[...]

          k =-0.0760-0.0839 0.0000 ( 17948 PWs)   bands (ev):

   -55.6243 -55.5298 -55.5292 -55.3471 -55.3466 -55.3261 -55.3177 -55.2972
   -55.2733 -55.2358 -55.1400 -55.1036 -55.0339 -55.0066 -54.4814 -54.4805
   -31.9032 -31.8434 -31.8430 -31.8368 -31.8262 -31.8241 -31.8235 -31.7002
   -31.6722 -31.6658 -31.6497 -31.6491 -31.6434 -31.6346 -31.6216 -31.6028
   -31.5960 -31.5933 -31.5590 -31.5584 -31.5407 -31.5392 -31.5250 -31.5225
   -31.5157 -31.5110 -31.5030 -31.5012 -31.4914 -31.4852 -31.4594 -31.4532
   -31.4079 -31.3894 -31.3813 -31.3642 -31.3115 -31.3010 -31.2838 -31.2446
   -31.2389 -31.2258 -30.8098 -30.8091 -30.7165 -30.7152 -30.6779 -30.6772
   -17.2996 -16.4314 -15.5937 -15.5835 -15.4730 -15.4563 -15.3541 -15.2869
   -15.2534 -15.2294 -15.2092 -15.1781 -15.1727 -15.1264 -15.0804 -15.0646
   -15.0339 -15.0081 -14.9911 -14.9538 -14.9235 -14.9069 -14.8830 -14.8453
   -14.8388 -14.8238 -14.8105 -14.6413 -14.5942 -14.4491 -14.4224 -12.9823
   -12.9819  -9.6363  -7.3127  -4.7724  -4.0339  -2.8586  -2.7995  -2.6828
    -2.6453  -2.5857  -2.5110  -2.4779  -2.4645  -2.3775  -2.3666  -2.3625
    -2.3239  -2.2992  -2.2808  -2.2521  -2.2491  -2.2398  -2.2048  -2.1981
    -2.1806  -2.1596  -2.1431  -2.1277  -2.1132  -2.1043  -2.0813  -2.0584
    -2.0323  -1.9890  -1.8316  -1.7913  -1.7661  -1.6500  -1.6404  -1.6225
    -1.6113  -1.5980  -1.5663  -1.5002  -1.4819  -1.4763  -1.3155  -1.2312
    -1.1907  -1.1257  -1.1045  -1.0766  -0.9872  -0.9744  -0.9455  -0.9086
    -0.8605  -0.7881  -0.6895  -0.6818  -0.6382  -0.5314  -0.4803  -0.4675
    -0.4646  -0.4150  -0.4040  -0.3881  -0.3467  -0.2747  -0.2587  -0.2334
    -0.2012  -0.1867  -0.1438  -0.0766   0.0261   0.1077   0.2136   0.2496
     0.3314   0.3581   0.3728   0.5269   0.5870   0.6273   0.6745   0.6824
     0.7846   0.7956   0.8099   0.8901   0.9890   1.0082   1.0691   1.0861
     1.1057   1.1434   1.8940   1.9020   1.9577   1.9580   3.7438   4.0309
     4.0835   4.0936   4.1143   4.1293   4.1351   4.1638   4.2202   4.2566

     the Fermi energy is     3.5812 ev

!    total energy              =   -2952.67090150 Ry
     estimated scf accuracy    <       0.00000002 Ry
     smearing contrib. (-TS)   =      -0.02000693 Ry
     internal energy E=F+TS    =   -2952.65089457 Ry

     The total energy is F=E-TS. E is the sum of the following terms:
     one-electron contribution =  -23943.24482881 Ry
     hartree contribution      =   12064.55164598 Ry
     xc contribution           =    -487.97079898 Ry
     ewald contribution        =    9414.00987234 Ry
     electric field correction =       0.00321490 Ry

     convergence has been achieved in  64 iterations

     Forces acting on atoms (cartesian axes, Ry/au):

     atom    1 type  1   force =     0.00004019   -0.00030836    0.09543027
     atom    2 type  1   force =    -0.00014009    0.00030597   -0.17425484
     atom    3 type  2   force =    -0.00001801   -0.00015386   -0.02258731
     atom    4 type  2   force =     0.00003716   -0.00185750    0.05177184
     atom    5 type  2   force =    -0.00669425   -0.00270372    0.00168394
     atom    6 type  2   force =     0.00825189   -0.00219286    0.00116238
     atom    7 type  1   force =    -0.00013066   -0.00381163    0.01180560
     atom    8 type  1   force =     0.00015697    0.00376263    0.01273901
     atom    9 type  2   force =     0.00021011    0.00037705    0.00083868
     atom   10 type  2   force =    -0.00197730   -0.00130192   -0.01614784
     atom   11 type  2   force =     0.00116375   -0.00021055   -0.00030087
     atom   12 type  2   force =    -0.00060933    0.00012648   -0.00025557
     atom   13 type  1   force =    -0.00022200   -0.00146115    0.00054354
     atom   14 type  1   force =     0.00009225   -0.00042270   -0.00006194
     atom   15 type  2   force =     0.00009324    0.00040313   -0.00089953
     atom   16 type  2   force =     0.00006475    0.00103036   -0.00052156
     atom   17 type  2   force =    -0.00036944    0.00002086    0.00044188
     atom   18 type  2   force =     0.00022525    0.00008465    0.00016550
     atom   19 type  1   force =    -0.00026504    0.00031678    0.00021861
     atom   20 type  1   force =     0.00026008    0.00023053   -0.00043412
     atom   21 type  2   force =     0.00006008    0.00010371    0.10287495
     atom   22 type  2   force =    -0.00032228    0.00053524    0.00047481
     atom   23 type  2   force =    -0.07251529   -0.00014012   -0.02755372
     atom   24 type  2   force =     0.07242272    0.00027153   -0.02758338
     atom   25 type  1   force =     0.00008778   -0.00014053    0.09504865
     atom   26 type  1   force =    -0.00011433   -0.00127647   -0.17428346
     atom   27 type  2   force =     0.00015766   -0.00025869   -0.02134028
     atom   28 type  2   force =     0.00004893   -0.00015115    0.04738116
     atom   29 type  2   force =    -0.00547025    0.00230226   -0.00004713
     atom   30 type  2   force =     0.00705105    0.00274093   -0.00055615
     atom   31 type  1   force =    -0.00016840    0.00660416    0.00050537
     atom   32 type  1   force =     0.00008473   -0.00557940    0.01179784
     atom   33 type  2   force =    -0.00014441   -0.00038502    0.00012943
     atom   34 type  2   force =    -0.00121684    0.00016202   -0.01568639
     atom   35 type  2   force =    -0.00038365    0.00042902    0.00014280
     atom   36 type  2   force =     0.00103478    0.00058664    0.00040587
     atom   37 type  1   force =    -0.00023789    0.00176934    0.00021983
     atom   38 type  1   force =    -0.00005839    0.00025466    0.00038274
     atom   39 type  2   force =    -0.00011487    0.00002227   -0.00021247
     atom   40 type  2   force =     0.00038070   -0.00033915   -0.00019707
     atom   41 type  2   force =    -0.00042256    0.00023645    0.00004385
     atom   42 type  2   force =     0.00058215    0.00005603   -0.00002637
     atom   43 type  1   force =     0.00021870   -0.00038103    0.00027295
     atom   44 type  1   force =     0.00033641    0.00012901    0.00082512
     atom   45 type  2   force =     0.00006242   -0.00008931    0.10265601
     atom   46 type  2   force =    -0.07256698   -0.00005107   -0.02757726
     atom   47 type  2   force =     0.07249279    0.00040593   -0.02760457
     atom   48 type  3   force =     0.00020437   -0.00053772   -0.00055328
     atom   49 type  4   force =    -0.00007708   -0.00003395   -0.00064217
     atom   50 type  5   force =    -0.00056273   -0.00037470   -0.00013018
     atom   51 type  5   force =     0.00034261    0.00020527    0.00004561
     atom   52 type  5   force =    -0.00025783    0.00057848    0.00033696
     atom   53 type  2   force =    -0.00632240    0.01089280    0.00603279
     atom   54 type  5   force =     0.00521880   -0.01078164   -0.00692052

     Total force =     0.362839     Total SCF correction =     0.000441
  @ DRIVER MODE: Message from server: STATUS
  @ DRIVER MODE: Message from server: GETFORCE
  @ DRIVER MODE: Returning v,forces,stress,ensemble

     Writing output data file ./calc.save/
  @ DRIVER MODE: Message from server: EXIT
  @ DRIVE MODE: Exiting

     General routines

     Parallel routines

   This run was terminated on:   2:44: 0  23Sep2021

   JOB DONE.