     Program PWSCF v.6.7GPU starts on 15Jul2021 at 21:20:51

     R & G space division:  proc/nbgrp/npool/nimage =      16
     Reading input from /storage/home/hcoda1/3/ntian30/research/carbon/15Jul_vib/ads_slab/CH3N2_b/out_0009/pw.inp
Warning: card &CELL ignored
Warning: card   CELL_DYNAMICS='IPI', ignored
Warning: card / ignored

     Current dimensions of program PWSCF are:
     Max number of different atomic species (ntypx) = 10
     Max number of k-points (npk) =  40000
     Max angular momentum in pseudopotentials (lmaxx) =  3
     Presently no symmetry can be used with electric field

     Message from routine cell_base_init:
     DEPRECATED: use true lattice parameter, not A to a.u. conversion factor

     IMPORTANT: XC functional enforced from input :
     Exchange-correlation= BEEF-VDW
                           (   1   4  43  14   2   0   0)
     Any further DFT definition will be discarded
     Please, verify this is what you really want

  @ DRIVER MODE: Connecting to
 qe_1139763_2351645.sched-torque.pace.gatech.eduky_5fk0n_scratch
  using UNIX socket
  @ DRIVER MODE: Message from server: STATUS
  @ DRIVER MODE: Message from server: INIT
  @ DRIVER MODE: Receiving replica           0          -1
  @ DRIVER MODE: Receiving encoded integer          25
  @ DRIVER MODE:  SCF:  T  FORCE:  T  STRESS:  F  VC:  F  ENSEMBLE:  F
  @ DRIVER MODE:  SCF:  T  FORCE:  T  STRESS:  F  VC:  F  ENSEMBLE:  F

     Using Slab Decomposition

     bravais-lattice index     =            0
     lattice parameter (alat)  =       1.8897  a.u.
     unit-cell volume          =    6658.9804 (a.u.)^3
     number of atoms/cell      =           53
     number of atomic types    =            5
     number of electrons       =       395.00
     number of Kohn-Sham states=          207
     kinetic-energy cutoff     =      29.3995  Ry
     charge density cutoff     =     293.9946  Ry
     scf convergence threshold =      7.3E-08
     mixing beta               =       0.0500
     number of iterations used =            8  plain     mixing
     Exchange-correlation= BEEF-VDW
                           (   1   4  43  14   2   0   0)

     celldm(1)=   1.889726  celldm(2)=   0.000000  celldm(3)=   0.000000
     celldm(4)=   0.000000  celldm(5)=   0.000000  celldm(6)=   0.000000

     crystal axes: (cart. coord. in units of alat)
               a(1) = (   6.579727   0.000000   0.000000 )
               a(2) = (  -0.000775   5.961596   0.000000 )
               a(3) = (   0.000000   0.000000  25.155947 )

     reciprocal axes: (cart. coord. in units 2 pi/alat)
               b(1) = (  0.151982  0.000020  0.000000 )
               b(2) = (  0.000000  0.167740  0.000000 )
               b(3) = (  0.000000  0.000000  0.039752 )

     PseudoPot. # 1 for Ti read from file:
     /storage/coda1/p-amedford6/0/shared/rich_project_chbe-medford/medford-share/data/pseudos_module/espresso/nninc/pbe/van/Ti.UPF
     MD5 check sum: 8e4df49b7f0d34bbd5052bf3f5ea0213
     Pseudo is Ultrasoft, Zval = 12.0
     Generated by new atomic code, or converted to UPF format
     Using radial grid of  851 points,  6 beta functions with:
                l(1) =   0
                l(2) =   0
                l(3) =   1
                l(4) =   1
                l(5) =   2
                l(6) =   2
     Q(r) pseudized with  8 coefficients,  rinner =    1.000   1.000   1.000
                                                       1.000   1.000

     PseudoPot. # 2 for O  read from file:
     /storage/coda1/p-amedford6/0/shared/rich_project_chbe-medford/medford-share/data/pseudos_module/espresso/nninc/pbe/van/O.UPF
     MD5 check sum: 78c19812648e8988a0fe644b0f25305e
     Pseudo is Ultrasoft, Zval =  6.0
     Generated by new atomic code, or converted to UPF format
     Using radial grid of  737 points,  4 beta functions with:
                l(1) =   0
                l(2) =   0
                l(3) =   1
                l(4) =   1
     Q(r) pseudized with  8 coefficients,  rinner =    0.800   0.800   0.800

     PseudoPot. # 3 for N  read from file:
     /storage/coda1/p-amedford6/0/shared/rich_project_chbe-medford/medford-share/data/pseudos_module/espresso/nninc/pbe/van/N.UPF
     MD5 check sum: 90d10febe142ad51ac9d5be1deb811c4
     Pseudo is Ultrasoft, Zval =  5.0
     Generated by new atomic code, or converted to UPF format
     Using radial grid of  729 points,  4 beta functions with:
                l(1) =   0
                l(2) =   0
                l(3) =   1
                l(4) =   1
     Q(r) pseudized with  8 coefficients,  rinner =    0.800   0.800   0.800

     PseudoPot. # 4 for C  read from file:
     /storage/coda1/p-amedford6/0/shared/rich_project_chbe-medford/medford-share/data/pseudos_module/espresso/nninc/pbe/van/C.UPF
     MD5 check sum: 1a69bf6b8db32088f5b2163dbdb77a27
     Pseudo is Ultrasoft, Zval =  4.0
     Generated by new atomic code, or converted to UPF format
     Using radial grid of  721 points,  4 beta functions with:
                l(1) =   0
                l(2) =   0
                l(3) =   1
                l(4) =   1
     Q(r) pseudized with  8 coefficients,  rinner =    0.800   0.800   0.800

     PseudoPot. # 5 for H  read from file:
     /storage/coda1/p-amedford6/0/shared/rich_project_chbe-medford/medford-share/data/pseudos_module/espresso/nninc/pbe/van/H.UPF
     MD5 check sum: b5ee9d7bfd3a09ee7748110bda690ff7
     Pseudo is Ultrasoft, Zval =  1.0
     Generated by new atomic code, or converted to UPF format
     Using radial grid of  615 points,  1 beta functions with:
                l(1) =   0
     Q(r) pseudized with  8 coefficients,  rinner =    0.800

     atomic species   valence    mass     pseudopotential
        Ti1           12.00    47.86700     Ti( 1.00)
        O1             6.00    15.99900     O ( 1.00)
        N1             5.00    14.00700     N ( 1.00)
        C1             4.00    12.01100     C ( 1.00)
        H1             1.00     1.00800     H ( 1.00)

     Starting magnetic structure
     atomic species   magnetization
        Ti1          0.000
        O1           0.000
        N1           0.000
        C1           0.025
        H1           0.000

     No symmetry found

   Cartesian axes

     site n.     atom                  positions (alat units)
         1           Ti1 tau(   1) = (   0.0004258   2.9801865   6.0000000  )
         2           Ti1 tau(   2) = (   3.2906075   1.4906267   6.0002472  )
         3           O1  tau(   3) = (   0.0006271   0.0005054   7.9858123  )
         4           O1  tau(   4) = (   3.2906025   0.0005020   7.3038282  )
         5           O1  tau(   5) = (   4.5942328   1.4918067   9.2879030  )
         6           O1  tau(   6) = (   1.9868534   1.4903216   9.2879459  )
         7           Ti1 tau(   7) = (   3.2907910   2.8959150   9.1758416  )
         8           Ti1 tau(   8) = (   0.0015273   1.4827037   9.2680791  )
         9           O1  tau(   9) = (   3.3037365   0.0094216  11.3222111  )
        10           O1  tau(  10) = (   0.0116148   5.9584955  10.6183126  )
        11           O1  tau(  11) = (   1.3152514   1.5075076  12.6320051  )
        12           O1  tau(  12) = (   5.3186361   1.4995162  12.6508707  )
        13           Ti1 tau(  13) = (   6.5540705   2.9956815  12.5884341  )
        14           Ti1 tau(  14) = (   3.2234832   1.4927074  12.4921739  )
        15           O1  tau(  15) = (   0.0610261   5.9052480  14.6017706  )
        16           O1  tau(  16) = (   3.2936532   0.0132264  13.8830087  )
        17           O1  tau(  17) = (   4.5722397   1.5061520  16.0138922  )
        18           O1  tau(  18) = (   2.0767725   1.5295127  16.0808449  )
        19           Ti1 tau(  19) = (   3.3650854   3.0251465  15.6907462  )
        20           Ti1 tau(  20) = (   0.0387768   1.3037779  15.7216176  )
        21           O1  tau(  21) = (   3.2904802   0.0005063   4.7018136  )
        22           O1  tau(  22) = (   0.0189486   0.1070799  17.1824039  )
        23           O1  tau(  23) = (   1.3043587   1.4918075   6.0039043  )
        24           O1  tau(  24) = (   5.2767064   1.4903225   6.0039473  )
        25           Ti1 tau(  25) = (   0.0000382   5.9609847   6.0000000  )
        26           Ti1 tau(  26) = (   3.2902200   4.4714249   6.0002472  )
        27           O1  tau(  27) = (   0.0002396   2.9813036   7.9858123  )
        28           O1  tau(  28) = (   3.2902150   2.9813002   7.3038282  )
        29           O1  tau(  29) = (   4.5938453   4.4726049   9.2879030  )
        30           O1  tau(  30) = (   1.9864658   4.4711199   9.2879459  )
        31           Ti1 tau(  31) = (   3.2891106   5.8743827   9.1763621  )
        32           Ti1 tau(  32) = (   0.0006254   4.4649316   9.2693709  )
        33           O1  tau(  33) = (   3.3043114   2.9829305  11.3227053  )
        34           O1  tau(  34) = (   0.0092240   2.9805883  10.6323155  )
        35           O1  tau(  35) = (   1.3131995   4.4620516  12.6081187  )
        36           O1  tau(  36) = (   5.3117129   4.4692194  12.6284301  )
        37           Ti1 tau(  37) = (   6.5303063   5.9583428  12.5400172  )
        38           Ti1 tau(  38) = (   3.2255477   4.4746212  12.4748647  )
        39           O1  tau(  39) = (   0.0377805   3.0059521  14.8845374  )
        40           O1  tau(  40) = (   3.3120027   2.9986483  13.8863452  )
        41           O1  tau(  41) = (   4.5434534   4.5277214  16.0148975  )
        42           O1  tau(  42) = (   2.1165747   4.4940517  16.0783766  )
        43           Ti1 tau(  43) = (   3.3042555   0.0241951  15.7004812  )
        44           Ti1 tau(  44) = (   0.0495666   4.4505358  16.3362958  )
        45           O1  tau(  45) = (   3.2900926   2.9813045   4.7018136  )
        46           O1  tau(  46) = (   1.3039711   4.4726057   6.0039043  )
        47           O1  tau(  47) = (   5.2763189   4.4711207   6.0039473  )
        48           N1  tau(  48) = (   0.5348212   3.4288502  18.0689430  )
        49           C1  tau(  49) = (   1.3556880   2.9979929  19.2215664  )
        50           H1  tau(  50) = (   1.4862090   3.8900195  19.8496782  )
        51           H1  tau(  51) = (   0.8469181   2.2141957  19.7647163  )
        52           H1  tau(  52) = (   2.3296892   2.6851793  18.8624704  )
        53           N1  tau(  53) = (   5.9145885   3.2636146  17.9655992  )

     number of k points=    10  Fermi-Dirac smearing, width (Ry)=  0.0073
                       cart. coord. in units 2pi/alat
        k(    1) = (   0.0000000   0.0000000   0.0000000), wk =   0.0625000
        k(    2) = (   0.0000000   0.0419351   0.0000000), wk =   0.1250000
        k(    3) = (   0.0000000  -0.0838702   0.0000000), wk =   0.0625000
        k(    4) = (   0.0379955   0.0000049   0.0000000), wk =   0.1250000
        k(    5) = (   0.0379955   0.0419400   0.0000000), wk =   0.1250000
        k(    6) = (   0.0379955  -0.0838652   0.0000000), wk =   0.1250000
        k(    7) = (   0.0379955  -0.0419301   0.0000000), wk =   0.1250000
        k(    8) = (  -0.0759910  -0.0000099   0.0000000), wk =   0.0625000
        k(    9) = (  -0.0759910   0.0419252   0.0000000), wk =   0.1250000
        k(   10) = (  -0.0759910  -0.0838800   0.0000000), wk =   0.0625000

     Initial potential from superposition of free atoms

     starting charge  378.99916, renormalised to  395.00000

     negative rho (up, down):  8.047E-03 8.054E-03

     %%%%%%%%%%%%%%%%%%%%%%%%%%%%%%%%%%%%%%%%%%%%%%%%%%%%%%%%%%%%%%%%%%%%%%%%
     %                                                                      %
     % You are using vdW-DF, which was implemented by the Thonhauser group. %
     % Please cite the following two papers that made this development      %
     % possible and the two reviews that describe the various versions:     %
     %                                                                      %
     %   T. Thonhauser et al., PRL 115, 136402 (2015).                      %
     %   T. Thonhauser et al., PRB 76, 125112 (2007).                       %
     %   K. Berland et al., Rep. Prog. Phys. 78, 066501 (2015).             %
     %   D.C. Langreth et al., J. Phys.: Condens. Matter 21, 084203 (2009). %
     %                                                                      %
     %                                                                      %
     % If you are calculating the stress with vdW-DF, please also cite:     %
     %                                                                      %
     %   R. Sabatini et al., J. Phys.: Condens. Matter 24, 424209 (2012).   %
     %                                                                      %
     %%%%%%%%%%%%%%%%%%%%%%%%%%%%%%%%%%%%%%%%%%%%%%%%%%%%%%%%%%%%%%%%%%%%%%%%

     Adding external electric field

     Computed dipole along edir(3) :
        Dipole               -8.5786 Ry au,        -21.8047 Debye
        Dipole field         -0.0162 Ry au,

        Potential amp.        1.5007 Ry
        Total length         46.3494 bohr

[...]

     Starting wfcs are  299 atomic wfcs
  @ DRIVER MODE: Message from server: STATUS
  @ DRIVER MODE: Message from server: POSDATA
  @ DRIVER MODE: Reading and sharing cell
  @ DRIVER MODE: Reading and sharing positions
  @ DRIVER MODE: Received positions

     Self-consistent Calculation

     iteration #  1     ecut=    29.40 Ry     beta= 0.05
     Davidson diagonalization with overlap
     c_bands:  1 eigenvalues not converged
     c_bands:  1 eigenvalues not converged
     c_bands:  1 eigenvalues not converged
     c_bands:  3 eigenvalues not converged
     c_bands:  1 eigenvalues not converged
     c_bands:  3 eigenvalues not converged
     c_bands:  1 eigenvalues not converged
     c_bands:  2 eigenvalues not converged
     c_bands:  1 eigenvalues not converged
     c_bands:  1 eigenvalues not converged
     c_bands:  1 eigenvalues not converged
     c_bands:  3 eigenvalues not converged
     c_bands:  1 eigenvalues not converged
     c_bands:  3 eigenvalues not converged
     c_bands:  1 eigenvalues not converged
     c_bands:  2 eigenvalues not converged
     ethr =  1.00E-05,  avg # of iterations = 19.2

[...]

     total energy              =   -2599.53498964 Ry
     estimated scf accuracy    <    3761.80864608 Ry

     total magnetization       =     0.00 Bohr mag/cell
     absolute magnetization    =     0.02 Bohr mag/cell

     iteration #  2     ecut=    29.40 Ry     beta= 0.05
     Davidson diagonalization with overlap
     ethr =  1.00E-02,  avg # of iterations = 22.4

[...]

     iteration #121     ecut=    29.40 Ry     beta= 0.05
     Davidson diagonalization with overlap
     ethr =  2.33E-11,  avg # of iterations =  8.3

[...]

     total energy              =   -2939.12575122 Ry
     estimated scf accuracy    <       0.00000010 Ry

[...]

     iteration #123     ecut=    29.40 Ry     beta= 0.05
     Davidson diagonalization with overlap
     c_bands:  1 eigenvalues not converged
     ethr =  2.02E-11,  avg # of iterations = 15.3

     negative rho (up, down):  8.118E-03 8.122E-03

[...]

     Adding external electric field

     Computed dipole along edir(3) :
        Dipole                0.9135 Ry au,          2.3220 Debye
        Dipole field          0.0017 Ry au,

        Potential amp.       -0.1598 Ry
        Total length         46.3494 bohr

     Magnetic moment per site  (integrated on atomic sphere of radius R)
     atom   1 (R=0.727)  charge=  7.9485  magn=  0.0249
     atom   2 (R=0.727)  charge=  7.9315  magn=  0.0012
     atom   3 (R=0.727)  charge=  4.9369  magn= -0.0025
     atom   4 (R=0.727)  charge=  4.9738  magn= -0.0003
     atom   5 (R=0.727)  charge=  4.9424  magn= -0.0004
     atom   6 (R=0.727)  charge=  4.9431  magn= -0.0004
     atom   7 (R=0.727)  charge=  7.9299  magn=  0.0011
     atom   8 (R=0.727)  charge=  7.9249  magn=  0.0113
     atom   9 (R=0.727)  charge=  4.9562  magn= -0.0001
     atom  10 (R=0.727)  charge=  4.9398  magn= -0.0009
     atom  11 (R=0.727)  charge=  4.9438  magn= -0.0003
     atom  12 (R=0.727)  charge=  4.9403  magn= -0.0003
     atom  13 (R=0.727)  charge=  7.9199  magn=  0.0024
     atom  14 (R=0.727)  charge=  7.9286  magn=  0.0006
     atom  15 (R=0.727)  charge=  4.9367  magn= -0.0001
     atom  16 (R=0.727)  charge=  4.9585  magn= -0.0000
     atom  17 (R=0.727)  charge=  4.9269  magn= -0.0000
     atom  18 (R=0.727)  charge=  4.9196  magn= -0.0000
     atom  19 (R=0.727)  charge=  7.9516  magn=  0.0001
     atom  20 (R=0.727)  charge=  7.9765  magn=  0.0002
     atom  21 (R=0.727)  charge=  4.8266  magn= -0.0011
     atom  22 (R=0.727)  charge=  4.9096  magn=  0.0000
     atom  23 (R=0.727)  charge=  4.9340  magn= -0.0029
     atom  24 (R=0.727)  charge=  4.9341  magn= -0.0029
     atom  25 (R=0.727)  charge=  7.9486  magn=  0.0248
     atom  26 (R=0.727)  charge=  7.9315  magn=  0.0012
     atom  27 (R=0.727)  charge=  4.9364  magn= -0.0025
     atom  28 (R=0.727)  charge=  4.9740  magn= -0.0003
     atom  29 (R=0.727)  charge=  4.9433  magn= -0.0004
     atom  30 (R=0.727)  charge=  4.9439  magn= -0.0004
     atom  31 (R=0.727)  charge=  7.9304  magn=  0.0011
     atom  32 (R=0.727)  charge=  7.9251  magn=  0.0112
     atom  33 (R=0.727)  charge=  4.9554  magn= -0.0001
     atom  34 (R=0.727)  charge=  4.9242  magn= -0.0010
     atom  35 (R=0.727)  charge=  4.9447  magn= -0.0003
     atom  36 (R=0.727)  charge=  4.9438  magn= -0.0003
     atom  37 (R=0.727)  charge=  7.9230  magn=  0.0022
     atom  38 (R=0.727)  charge=  7.9295  magn=  0.0006
     atom  39 (R=0.727)  charge=  4.9078  magn= -0.0001
     atom  40 (R=0.727)  charge=  4.9610  magn= -0.0000
     atom  41 (R=0.727)  charge=  4.9355  magn= -0.0000
     atom  42 (R=0.727)  charge=  4.9347  magn= -0.0000
     atom  43 (R=0.727)  charge=  7.9537  magn=  0.0001
     atom  44 (R=0.727)  charge=  7.9725  magn=  0.0000
     atom  45 (R=0.727)  charge=  4.8266  magn= -0.0010
     atom  46 (R=0.727)  charge=  4.9340  magn= -0.0029
     atom  47 (R=0.727)  charge=  4.9341  magn= -0.0029
     atom  48 (R=0.501)  charge=  1.9970  magn= -0.0000
     atom  49 (R=0.446)  charge=  0.8347  magn=  0.0000
     atom  50 (R=0.446)  charge=  0.4883  magn= -0.0000
     atom  51 (R=0.446)  charge=  0.5018  magn= -0.0000
     atom  52 (R=0.446)  charge=  0.5000  magn= -0.0000
     atom  53 (R=0.501)  charge=  1.9557  magn=  0.0000

     End of self-consistent calculation

 ------ SPIN UP ------------

          k = 0.0000 0.0000 0.0000 ( 18029 PWs)   bands (ev):

   -55.7965 -55.7700 -55.7625 -55.7340 -55.6855 -55.6370 -55.6065 -55.5725
   -55.5557 -55.5220 -55.5193 -55.4463 -54.9564 -54.8080 -54.7557 -54.7216
   -32.3185 -32.2673 -32.1754 -32.1090 -32.0916 -32.0564 -32.0472 -32.0423
   -32.0067 -31.9699 -31.9527 -31.9402 -31.9220 -31.9047 -31.8894 -31.8866
   -31.8823 -31.8781 -31.8667 -31.8581 -31.8374 -31.8237 -31.8010 -31.7992
   -31.7951 -31.7831 -31.7820 -31.7556 -31.7407 -31.7392 -31.7360 -31.7172
   -31.7109 -31.6694 -31.6359 -31.5635 -31.4928 -31.3382 -31.1674 -31.1619
   -31.1054 -31.0748 -31.0667 -31.0521 -30.9794 -30.9138 -30.8929 -30.7811
   -19.4323 -16.5164 -16.2502 -15.9644 -15.9145 -15.8404 -15.7471 -15.6228
   -15.5259 -15.4097 -15.3709 -15.3112 -15.3068 -15.2625 -15.2357 -15.2314
   -15.2055 -15.1943 -15.1326 -15.1250 -15.0753 -15.0636 -15.0146 -14.9811
   -14.9692 -14.9113 -14.8441 -14.8044 -14.6853 -14.1599 -13.2549 -13.1384
   -12.2932  -7.2568  -4.9452  -4.7548  -3.8993  -3.7568  -3.7130  -3.6844
    -3.6408  -3.4416  -3.3610  -3.2835  -3.0440  -2.9525  -2.9280  -2.9167
    -2.8681  -2.7104  -2.6567  -2.6065  -2.5890  -2.5619  -2.5395  -2.5312
    -2.4969  -2.4860  -2.4683  -2.4186  -2.3244  -2.2128  -2.1843  -2.1069
    -2.0905  -2.0740  -2.0442  -2.0344  -2.0245  -2.0147  -1.9956  -1.9589
    -1.8986  -1.8516  -1.7873  -1.7024  -1.5604  -1.5377  -1.4601  -1.3839
    -1.3051  -1.2616  -1.2405  -1.2117  -1.1716  -1.0926  -1.0662  -0.9200
    -0.8233  -0.7898  -0.7730  -0.7311  -0.6945  -0.5925  -0.5707  -0.5409
    -0.5299  -0.5038  -0.4311  -0.3746  -0.2411  -0.2112  -0.2076  -0.1700
    -0.0994  -0.0457   0.0076   0.0572   0.0649   0.1018   0.1611   0.1867
     0.1925   0.2341   0.2759   0.3502   0.3765   0.4508   0.4551   0.5188
     0.5625   0.6442   0.7530   0.8750   1.0179   1.1546   1.2001   1.2693
     1.3638   1.4611   1.8404   1.8851   2.1431   3.3238   3.4186   3.4639
     3.4736   3.5832   3.7841   3.8180   3.8664   3.8856   3.8950

[...]

          k =-0.0760-0.0000 0.0000 ( 17886 PWs)   bands (ev):

[...]

 ------ SPIN DOWN ----------

[...]

          k = 0.0380-0.0419 0.0000 ( 17876 PWs)   bands (ev):

[...]

          k =-0.0760-0.0839 0.0000 ( 17948 PWs)   bands (ev):

   -55.7515 -55.7499 -55.7333 -55.7332 -55.6736 -55.6399 -55.5679 -55.5675
   -55.5371 -55.5366 -55.5147 -55.4505 -54.9546 -54.8091 -54.7364 -54.7363
   -32.1214 -32.1178 -32.0632 -32.0631 -32.0245 -32.0244 -32.0181 -32.0038
   -31.9975 -31.9886 -31.9197 -31.9142 -31.8945 -31.8876 -31.8793 -31.8771
   -31.8763 -31.8714 -31.8511 -31.8480 -31.8479 -31.8464 -31.8450 -31.8132
   -31.7838 -31.7756 -31.7739 -31.7662 -31.7660 -31.7541 -31.7530 -31.7472
   -31.7461 -31.7360 -31.7114 -31.6605 -31.4393 -31.3204 -31.1690 -31.1590
   -31.0839 -31.0623 -31.0622 -30.9735 -30.9733 -30.9339 -30.9339 -30.9166
   -19.4300 -15.9173 -15.9111 -15.7501 -15.7157 -15.6494 -15.6406 -15.5734
   -15.5063 -15.4615 -15.4565 -15.3414 -15.3391 -15.3248 -15.3029 -15.2485
   -15.2323 -15.2309 -15.2281 -15.2202 -15.2080 -15.1805 -15.1499 -15.0988
   -15.0938 -15.0733 -15.0635 -14.9417 -14.5316 -14.4703 -13.2425 -13.2424
   -12.2956  -7.2437  -4.9464  -4.7522  -3.6427  -3.2064  -3.1900  -3.0006
    -2.9186  -2.9074  -2.8904  -2.7450  -2.7297  -2.7101  -2.6558  -2.6471
    -2.6364  -2.5991  -2.5826  -2.5592  -2.5199  -2.5139  -2.4657  -2.4621
    -2.4473  -2.4275  -2.4067  -2.4012  -2.3881  -2.3734  -2.3353  -2.2797
    -2.2415  -2.2149  -2.1868  -2.0905  -2.0294  -1.9937  -1.9257  -1.9171
    -1.8661  -1.8409  -1.8267  -1.7632  -1.6910  -1.6621  -1.5771  -1.4856
    -1.4667  -1.4517  -1.3331  -1.3191  -1.2447  -1.2203  -1.1366  -1.1194
    -1.0800  -0.9694  -0.9463  -0.9149  -0.8804  -0.8360  -0.7725  -0.7357
    -0.7337  -0.6851  -0.6407  -0.5844  -0.5224  -0.5107  -0.4960  -0.4874
    -0.4236  -0.3905  -0.3685  -0.2860  -0.2707  -0.1889  -0.0453  -0.0124
     0.1447   0.1939   0.3029   0.3307   0.4215   0.4431   0.5361   0.5391
     0.5730   0.7022   0.7205   0.7382   0.7547   0.7744   0.7982   0.9369
     1.6324   1.6326   1.7043   1.7043   2.0812   3.6734   3.7105   3.7617
     3.7852   3.8990   3.9017   3.9035   3.9122   4.0305   4.0350

     the Fermi energy is     3.3517 ev

!    total energy              =   -2939.12575162 Ry
     estimated scf accuracy    <       0.00000007 Ry
     smearing contrib. (-TS)   =      -0.02045467 Ry
     internal energy E=F+TS    =   -2939.10529695 Ry

     The total energy is F=E-TS. E is the sum of the following terms:
     one-electron contribution =  -24213.34373272 Ry
     hartree contribution      =   12195.42308629 Ry
     xc contribution           =    -485.19968825 Ry
     ewald contribution        =    9564.01346281 Ry
     electric field correction =       0.00157491 Ry

     total magnetization       =     0.11 Bohr mag/cell
     absolute magnetization    =     0.16 Bohr mag/cell

     convergence has been achieved in 123 iterations

     Forces acting on atoms (cartesian axes, Ry/au):

     atom    1 type  1   force =     0.00008506   -0.00021109    0.09572722
     atom    2 type  1   force =     0.00007703   -0.00062914   -0.17552418
     atom    3 type  2   force =     0.00017869   -0.00019331   -0.02295895
     atom    4 type  2   force =     0.00004092   -0.00128748    0.05266367
     atom    5 type  2   force =    -0.00978309   -0.00031561    0.00255205
     atom    6 type  2   force =     0.01166139    0.00022429    0.00293535
     atom    7 type  1   force =     0.00088513   -0.00001659   -0.00993571
     atom    8 type  1   force =     0.00000758    0.00530587    0.01809367
     atom    9 type  2   force =    -0.00001435   -0.00028857   -0.00009018
     atom   10 type  2   force =    -0.00253695    0.00216179   -0.01345129
     atom   11 type  2   force =    -0.00097241    0.00010934    0.00019016
     atom   12 type  2   force =     0.00038437   -0.00025522    0.00050474
     atom   13 type  1   force =     0.00009028   -0.00007788    0.00051223
     atom   14 type  1   force =    -0.00003383   -0.00013971   -0.00017863
     atom   15 type  2   force =    -0.00060519    0.00021438    0.00044171
     atom   16 type  2   force =    -0.00043850    0.00008127    0.00019772
     atom   17 type  2   force =    -0.00013717   -0.00007579   -0.00032672
     atom   18 type  2   force =     0.00028482    0.00022879    0.00005642
     atom   19 type  1   force =    -0.00057945   -0.00055691    0.00068644
     atom   20 type  1   force =    -0.00025373    0.00034053   -0.00073402
     atom   21 type  2   force =     0.00006707   -0.00005540    0.10321638
     atom   22 type  2   force =     0.00011596   -0.00005425   -0.00048673
     atom   23 type  2   force =    -0.07152647   -0.00018997   -0.02752950
     atom   24 type  2   force =     0.07150606    0.00031399   -0.02758727
     atom   25 type  1   force =     0.00011970   -0.00027583    0.09510749
     atom   26 type  1   force =     0.00008907   -0.00049337   -0.17567235
     atom   27 type  2   force =     0.00016031   -0.00011620   -0.02170873
     atom   28 type  2   force =     0.00008260   -0.00106125    0.05253701
     atom   29 type  2   force =    -0.01016113    0.00023423    0.00292679
     atom   30 type  2   force =     0.01197752    0.00052004    0.00330743
     atom   31 type  1   force =     0.00088724    0.00413239   -0.01181247
     atom   32 type  1   force =     0.00014071   -0.00634032    0.01823748
     atom   33 type  2   force =     0.00016121    0.00041918   -0.00008385
     atom   34 type  2   force =    -0.00308342   -0.00010371   -0.00863660
     atom   35 type  2   force =    -0.00020834    0.00006946    0.00002795
     atom   36 type  2   force =    -0.00003691    0.00028137   -0.00004739
     atom   37 type  1   force =     0.00042770   -0.00094873    0.00017204
     atom   38 type  1   force =    -0.00031695    0.00009783    0.00034010
     atom   39 type  2   force =     0.00010033   -0.00023477    0.00055971
     atom   40 type  2   force =    -0.00008281    0.00027036    0.00015634
     atom   41 type  2   force =     0.00001999   -0.00015689   -0.00024700
     atom   42 type  2   force =    -0.00044973    0.00011614   -0.00042548
     atom   43 type  1   force =     0.00026991    0.00050503    0.00013042
     atom   44 type  1   force =    -0.00030278   -0.00051802   -0.00072413
     atom   45 type  2   force =     0.00007407   -0.00005906    0.10317404
     atom   46 type  2   force =    -0.07153949   -0.00009586   -0.02752257
     atom   47 type  2   force =     0.07152372    0.00025562   -0.02758137
     atom   48 type  3   force =     0.00106038   -0.00368923    0.00214040
     atom   49 type  4   force =     0.00166199    0.02041639   -0.00010673
     atom   50 type  5   force =    -0.00055781   -0.00786322   -0.00444672
     atom   51 type  5   force =    -0.00448936   -0.00742312    0.00342839
     atom   52 type  5   force =     0.00284685   -0.00340985   -0.00156822
     atom   53 type  3   force =     0.00112217    0.00083804   -0.00063657

     Total force =     0.365553     Total SCF correction =     0.000304
  @ DRIVER MODE: Message from server: STATUS
  @ DRIVER MODE: Message from server: GETFORCE
  @ DRIVER MODE: Returning v,forces,stress,ensemble

     Writing output data file ./calc.save/
  @ DRIVER MODE: Message from server: EXIT
  @ DRIVE MODE: Exiting

     General routines

     Parallel routines

   This run was terminated on:  22:15:42  15Jul2021

   JOB DONE.