     Program PWSCF v.6.7GPU starts on 23Sep2021 at  1:30:48

     R & G space division:  proc/nbgrp/npool/nimage =      10
     Reading input from /storage/home/hcoda1/3/ntian30/research/carbon/CxH_vib/H2O_calc/ads_slab/CHON2HO_d/out_0028/pw.inp
Warning: card &CELL ignored
Warning: card   CELL_DYNAMICS='IPI', ignored
Warning: card / ignored

     Current dimensions of program PWSCF are:
     Max number of different atomic species (ntypx) = 10
     Max number of k-points (npk) =  40000
     Max angular momentum in pseudopotentials (lmaxx) =  3
     Presently no symmetry can be used with electric field

     Message from routine cell_base_init:
     DEPRECATED: use true lattice parameter, not A to a.u. conversion factor

     IMPORTANT: XC functional enforced from input :
     Exchange-correlation= BEEF-VDW
                           (   1   4  43  14   2   0   0)
     Any further DFT definition will be discarded
     Please, verify this is what you really want

  @ DRIVER MODE: Connecting to
 qe_1139763_2937317.sched-torque.pace.gatech.eduzef90wjx_scratch
  using UNIX socket
  @ DRIVER MODE: Message from server: STATUS
  @ DRIVER MODE: Message from server: INIT
  @ DRIVER MODE: Receiving replica           0          -1
  @ DRIVER MODE: Receiving encoded integer          25
  @ DRIVER MODE:  SCF:  T  FORCE:  T  STRESS:  F  VC:  F  ENSEMBLE:  F
  @ DRIVER MODE:  SCF:  T  FORCE:  T  STRESS:  F  VC:  F  ENSEMBLE:  F

     Using Slab Decomposition

     bravais-lattice index     =            0
     lattice parameter (alat)  =       1.8897  a.u.
     unit-cell volume          =    6658.9804 (a.u.)^3
     number of atoms/cell      =           54
     number of atomic types    =            5
     number of electrons       =       406.00
     number of Kohn-Sham states=          213
     kinetic-energy cutoff     =      29.3995  Ry
     charge density cutoff     =     293.9946  Ry
     scf convergence threshold =      7.3E-08
     mixing beta               =       0.0500
     number of iterations used =            8  plain     mixing
     Exchange-correlation= BEEF-VDW
                           (   1   4  43  14   2   0   0)

     celldm(1)=   1.889726  celldm(2)=   0.000000  celldm(3)=   0.000000
     celldm(4)=   0.000000  celldm(5)=   0.000000  celldm(6)=   0.000000

     crystal axes: (cart. coord. in units of alat)
               a(1) = (   6.579727   0.000000   0.000000 )
               a(2) = (  -0.000775   5.961596   0.000000 )
               a(3) = (   0.000000   0.000000  25.155947 )

     reciprocal axes: (cart. coord. in units 2 pi/alat)
               b(1) = (  0.151982  0.000020  0.000000 )
               b(2) = (  0.000000  0.167740  0.000000 )
               b(3) = (  0.000000  0.000000  0.039752 )

     PseudoPot. # 1 for O  read from file:
     /storage/coda1/p-amedford6/0/shared/rich_project_chbe-medford/medford-share/data/pseudos_module/espresso/nninc/pbe/van/O.UPF
     MD5 check sum: 78c19812648e8988a0fe644b0f25305e
     Pseudo is Ultrasoft, Zval =  6.0
     Generated by new atomic code, or converted to UPF format
     Using radial grid of  737 points,  4 beta functions with:
                l(1) =   0
                l(2) =   0
                l(3) =   1
                l(4) =   1
     Q(r) pseudized with  8 coefficients,  rinner =    0.800   0.800   0.800

     PseudoPot. # 2 for Ti read from file:
     /storage/coda1/p-amedford6/0/shared/rich_project_chbe-medford/medford-share/data/pseudos_module/espresso/nninc/pbe/van/Ti.UPF
     MD5 check sum: 8e4df49b7f0d34bbd5052bf3f5ea0213
     Pseudo is Ultrasoft, Zval = 12.0
     Generated by new atomic code, or converted to UPF format
     Using radial grid of  851 points,  6 beta functions with:
                l(1) =   0
                l(2) =   0
                l(3) =   1
                l(4) =   1
                l(5) =   2
                l(6) =   2
     Q(r) pseudized with  8 coefficients,  rinner =    1.000   1.000   1.000
                                                       1.000   1.000

     PseudoPot. # 3 for C  read from file:
     /storage/coda1/p-amedford6/0/shared/rich_project_chbe-medford/medford-share/data/pseudos_module/espresso/nninc/pbe/van/C.UPF
     MD5 check sum: 1a69bf6b8db32088f5b2163dbdb77a27
     Pseudo is Ultrasoft, Zval =  4.0
     Generated by new atomic code, or converted to UPF format
     Using radial grid of  721 points,  4 beta functions with:
                l(1) =   0
                l(2) =   0
                l(3) =   1
                l(4) =   1
     Q(r) pseudized with  8 coefficients,  rinner =    0.800   0.800   0.800

     PseudoPot. # 4 for H  read from file:
     /storage/coda1/p-amedford6/0/shared/rich_project_chbe-medford/medford-share/data/pseudos_module/espresso/nninc/pbe/van/H.UPF
     MD5 check sum: b5ee9d7bfd3a09ee7748110bda690ff7
     Pseudo is Ultrasoft, Zval =  1.0
     Generated by new atomic code, or converted to UPF format
     Using radial grid of  615 points,  1 beta functions with:
                l(1) =   0
     Q(r) pseudized with  8 coefficients,  rinner =    0.800

     PseudoPot. # 5 for N  read from file:
     /storage/coda1/p-amedford6/0/shared/rich_project_chbe-medford/medford-share/data/pseudos_module/espresso/nninc/pbe/van/N.UPF
     MD5 check sum: 90d10febe142ad51ac9d5be1deb811c4
     Pseudo is Ultrasoft, Zval =  5.0
     Generated by new atomic code, or converted to UPF format
     Using radial grid of  729 points,  4 beta functions with:
                l(1) =   0
                l(2) =   0
                l(3) =   1
                l(4) =   1
     Q(r) pseudized with  8 coefficients,  rinner =    0.800   0.800   0.800

     atomic species   valence    mass     pseudopotential
        O1             6.00    15.99900     O ( 1.00)
        Ti1           12.00    47.86700     Ti( 1.00)
        C1             4.00    12.01100     C ( 1.00)
        H1             1.00     1.00800     H ( 1.00)
        N1             5.00    14.00700     N ( 1.00)

     No symmetry found

   Cartesian axes

     site n.     atom                  positions (alat units)
         1           O1  tau(   1) = (   3.2904802   0.0005063   4.7018136  )
         2           O1  tau(   2) = (   3.2900926   2.9813045   4.7018136  )
         3           Ti1 tau(   3) = (   0.0004258   2.9801865   6.0000000  )
         4           Ti1 tau(   4) = (   0.0000382   5.9609847   6.0000000  )
         5           Ti1 tau(   5) = (   3.2906075   1.4906267   6.0002472  )
         6           Ti1 tau(   6) = (   3.2902200   4.4714249   6.0002472  )
         7           O1  tau(   7) = (   1.3043587   1.4918075   6.0039043  )
         8           O1  tau(   8) = (   1.3039711   4.4726057   6.0039043  )
         9           O1  tau(   9) = (   5.2767064   1.4903225   6.0039473  )
        10           O1  tau(  10) = (   5.2763189   4.4711207   6.0039473  )
        11           O1  tau(  11) = (   3.2906025   0.0005020   7.3038282  )
        12           O1  tau(  12) = (   3.2902150   2.9813002   7.3038282  )
        13           O1  tau(  13) = (   0.0006271   0.0005054   7.9858123  )
        14           O1  tau(  14) = (   0.0002396   2.9813036   7.9858123  )
        15           Ti1 tau(  15) = (   3.2350752   0.0608747   9.1773017  )
        16           Ti1 tau(  16) = (   3.2297482   3.0449837   9.2258248  )
        17           Ti1 tau(  17) = (   6.5035314   4.4790947   9.3419400  )
        18           O1  tau(  18) = (   4.5942328   1.4918067   9.2879030  )
        19           O1  tau(  19) = (   4.5938453   4.4726049   9.2879030  )
        20           O1  tau(  20) = (   1.9868534   1.4903216   9.2879459  )
        21           O1  tau(  21) = (   1.9864658   4.4711199   9.2879459  )
        22           Ti1 tau(  22) = (   6.5047199   1.5482117   9.3251357  )
        23           O1  tau(  23) = (   6.5709586   2.9893791  10.5365161  )
        24           O1  tau(  24) = (   6.5791863   0.0068326  10.5847705  )
        25           O1  tau(  25) = (   3.2737170   2.9471243  11.2864913  )
        26           O1  tau(  26) = (   3.2757665   0.0160177  11.3056520  )
        27           Ti1 tau(  27) = (   3.3024496   1.5456137  12.4328335  )
        28           Ti1 tau(  28) = (   0.0381823   0.0558990  12.5328616  )
        29           Ti1 tau(  29) = (   3.2867454   4.6490159  12.6676011  )
        30           O1  tau(  30) = (   1.2579511   1.4933188  12.6274103  )
        31           O1  tau(  31) = (   5.2930440   1.4968169  12.6131059  )
        32           O1  tau(  32) = (   1.2503383   4.4760527  12.6363980  )
        33           O1  tau(  33) = (   5.2887019   4.4660859  12.6249461  )
        34           Ti1 tau(  34) = (   6.5320965   3.0346479  12.8073368  )
        35           O1  tau(  35) = (   3.2762579   2.9735537  13.8874883  )
        36           O1  tau(  36) = (   3.2793791   5.9387796  13.8789893  )
        37           O1  tau(  37) = (   6.5412754   2.9812497  14.6926498  )
        38           O1  tau(  38) = (   6.5531526   0.0082392  14.6823945  )
        39           Ti1 tau(  39) = (   3.2668636   2.9663550  15.6683660  )
        40           Ti1 tau(  40) = (   3.2982107   5.9440960  16.3508785  )
        41           Ti1 tau(  41) = (   0.0141158   4.5598071  15.9269461  )
        42           O1  tau(  42) = (   4.5124726   4.4172202  16.0573870  )
        43           O1  tau(  43) = (   1.9821766   4.4208814  16.0404589  )
        44           O1  tau(  44) = (   4.4954461   1.5000296  16.1066544  )
        45           O1  tau(  45) = (   1.9782815   1.5221889  16.0619205  )
        46           Ti1 tau(  46) = (   0.0269324   1.3869748  16.0447141  )
        47           O1  tau(  47) = (   6.5379229   5.9414530  17.1901000  )
        48           O1  tau(  48) = (   6.5175113   2.9840192  17.3772383  )
        49           C1  tau(  49) = (   5.9742390   3.1768082  18.5865123  )
        50           H1  tau(  50) = (   5.8341806   4.1706531  18.9840957  )
        51           N1  tau(  51) = (   5.5886240   2.1683037  19.3003467  )
        52           N1  tau(  52) = (   5.2398892   1.2494158  19.8970451  )
        53           O1  tau(  53) = (   3.2183551   5.8834210  18.1446619  )
        54           H1  tau(  54) = (   3.7026433   0.4006729  18.8445816  )

     number of k points=    10  Fermi-Dirac smearing, width (Ry)=  0.0073
                       cart. coord. in units 2pi/alat
        k(    1) = (   0.0000000   0.0000000   0.0000000), wk =   0.1250000
        k(    2) = (   0.0000000   0.0419351   0.0000000), wk =   0.2500000
        k(    3) = (   0.0000000  -0.0838702   0.0000000), wk =   0.1250000
        k(    4) = (   0.0379955   0.0000049   0.0000000), wk =   0.2500000
        k(    5) = (   0.0379955   0.0419400   0.0000000), wk =   0.2500000
        k(    6) = (   0.0379955  -0.0838652   0.0000000), wk =   0.2500000
        k(    7) = (   0.0379955  -0.0419301   0.0000000), wk =   0.2500000
        k(    8) = (  -0.0759910  -0.0000099   0.0000000), wk =   0.1250000
        k(    9) = (  -0.0759910   0.0419252   0.0000000), wk =   0.2500000
        k(   10) = (  -0.0759910  -0.0838800   0.0000000), wk =   0.1250000

     Initial potential from superposition of free atoms

     starting charge  389.99917, renormalised to  406.00000

     negative rho (up, down):  1.659E-02 0.000E+00

     %%%%%%%%%%%%%%%%%%%%%%%%%%%%%%%%%%%%%%%%%%%%%%%%%%%%%%%%%%%%%%%%%%%%%%%%
     %                                                                      %
     % You are using vdW-DF, which was implemented by the Thonhauser group. %
     % Please cite the following two papers that made this development      %
     % possible and the two reviews that describe the various versions:     %
     %                                                                      %
     %   T. Thonhauser et al., PRL 115, 136402 (2015).                      %
     %   T. Thonhauser et al., PRB 76, 125112 (2007).                       %
     %   K. Berland et al., Rep. Prog. Phys. 78, 066501 (2015).             %
     %   D.C. Langreth et al., J. Phys.: Condens. Matter 21, 084203 (2009). %
     %                                                                      %
     %                                                                      %
     % If you are calculating the stress with vdW-DF, please also cite:     %
     %                                                                      %
     %   R. Sabatini et al., J. Phys.: Condens. Matter 24, 424209 (2012).   %
     %                                                                      %
     %%%%%%%%%%%%%%%%%%%%%%%%%%%%%%%%%%%%%%%%%%%%%%%%%%%%%%%%%%%%%%%%%%%%%%%%

     Adding external electric field

     Computed dipole along edir(3) :
        Dipole              -13.7787 Ry au,        -35.0219 Debye
        Dipole field         -0.0260 Ry au,

        Potential amp.        2.4104 Ry
        Total length         46.3494 bohr

     Starting wfcs are  306 atomic wfcs
  @ DRIVER MODE: Message from server: STATUS
  @ DRIVER MODE: Message from server: POSDATA
  @ DRIVER MODE: Reading and sharing cell
  @ DRIVER MODE: Reading and sharing positions
  @ DRIVER MODE: Received positions

     Self-consistent Calculation

     iteration #  1     ecut=    29.40 Ry     beta= 0.05
     Davidson diagonalization with overlap
     c_bands:  1 eigenvalues not converged
     c_bands:  1 eigenvalues not converged
     c_bands:  5 eigenvalues not converged
     c_bands:  5 eigenvalues not converged
     ethr =  1.00E-05,  avg # of iterations = 30.9

[...]

     total energy              =   -2308.85265896 Ry
     estimated scf accuracy    <    7885.05722873 Ry

     iteration #  2     ecut=    29.40 Ry     beta= 0.05
     Davidson diagonalization with overlap
     ethr =  1.00E-02,  avg # of iterations = 26.0

[...]

     iteration # 42     ecut=    29.40 Ry     beta= 0.05
     Davidson diagonalization with overlap
     c_bands:  1 eigenvalues not converged
     c_bands:  1 eigenvalues not converged
     ethr =  3.81E-07,  avg # of iterations =  8.1

[...]

     total energy              =   -3002.64615451 Ry
     estimated scf accuracy    <       0.00000053 Ry

     iteration # 69     ecut=    29.40 Ry     beta= 0.05
     Davidson diagonalization with overlap
     ethr =  7.65E-11,  avg # of iterations =  6.0

     negative rho (up, down):  1.647E-02 0.000E+00

     Adding external electric field

     Computed dipole along edir(3) :
        Dipole                0.4268 Ry au,          1.0847 Debye
        Dipole field          0.0008 Ry au,

        Potential amp.       -0.0747 Ry
        Total length         46.3494 bohr

     End of self-consistent calculation

          k = 0.0000 0.0000 0.0000 ( 18029 PWs)   bands (ev):

   -56.2422 -56.1855 -55.7573 -55.7093 -55.6976 -55.6833 -55.6500 -55.6438
   -55.6148 -55.6037 -55.5630 -55.5493 -55.4823 -55.3122 -54.8933 -54.8593
   -32.6573 -32.5183 -32.4529 -32.4124 -32.3139 -32.2819 -32.2393 -32.2085
   -32.1940 -32.0905 -32.0639 -31.9983 -31.9946 -31.9882 -31.9818 -31.9565
   -31.9501 -31.9407 -31.9207 -31.9146 -31.8613 -31.8557 -31.8520 -31.8514
   -31.8476 -31.8307 -31.8261 -31.8098 -31.8064 -31.8017 -31.7940 -31.7651
   -31.7621 -31.7609 -31.7386 -31.7260 -31.7195 -31.7107 -31.6840 -31.5720
   -31.5305 -31.5222 -31.2899 -31.2312 -31.2070 -31.1064 -31.0212 -30.9100
   -20.6842 -18.6966 -16.5087 -16.4584 -16.3014 -16.0960 -15.9382 -15.8637
   -15.6719 -15.5818 -15.5272 -15.4948 -15.4604 -15.3815 -15.3455 -15.2952
   -15.2487 -15.2339 -15.2144 -15.1942 -15.1861 -15.1801 -15.1748 -15.1472
   -15.1057 -15.0076 -14.9409 -14.9056 -14.8849 -14.8755 -14.8338 -14.5262
   -13.5676 -13.3953 -13.2857  -6.9363  -5.9167  -4.9697  -4.3977  -3.9508
    -3.7782  -3.6854  -3.6462  -3.5729  -3.5220  -3.3619  -3.3305  -3.1418
    -3.0199  -2.9376  -2.8665  -2.8516  -2.8222  -2.7868  -2.7300  -2.6927
    -2.6619  -2.6330  -2.5752  -2.5338  -2.5087  -2.4768  -2.4606  -2.4233
    -2.4059  -2.3980  -2.2606  -2.2139  -2.1698  -2.1662  -2.1418  -2.1205
    -2.0995  -2.0624  -2.0488  -2.0044  -1.9227  -1.8367  -1.8193  -1.7414
    -1.7050  -1.5303  -1.4647  -1.3906  -1.3604  -1.1980  -1.1699  -1.1606
    -1.1396  -1.1200  -0.9987  -0.9639  -0.9313  -0.9203  -0.8834  -0.8580
    -0.8360  -0.7269  -0.6639  -0.6258  -0.6086  -0.5430  -0.4471  -0.3777
    -0.3459  -0.3152  -0.2838  -0.1784  -0.1458  -0.1053  -0.0972  -0.0358
    -0.0040   0.0201   0.0780   0.1042   0.1572   0.1707   0.1933   0.2308
     0.2418   0.2886   0.3552   0.4206   0.5174   0.5366   0.5602   0.5998
     0.6789   0.7548   0.8366   1.0155   1.1247   1.1643   1.3271   1.3747
     1.6754   1.7230   2.5403   3.0483   3.2000   3.4622   3.5147   3.5493
     3.5867   3.6451   3.7758   3.8849   3.9415

[...]

          k = 0.0380-0.0419 0.0000 ( 17876 PWs)   bands (ev):

[...]

          k =-0.0760-0.0000 0.0000 ( 17886 PWs)   bands (ev):

[...]

          k =-0.0760-0.0839 0.0000 ( 17948 PWs)   bands (ev):

   -56.2366 -56.1910 -55.7547 -55.7080 -55.6900 -55.6789 -55.6574 -55.6462
   -55.6192 -55.5947 -55.5721 -55.5502 -55.4806 -55.3137 -54.8765 -54.8760
   -32.5147 -32.4928 -32.4554 -32.4540 -32.3806 -32.3426 -32.1430 -32.0591
   -32.0489 -32.0124 -32.0103 -31.9776 -31.9712 -31.9666 -31.9441 -31.9371
   -31.9310 -31.9278 -31.9223 -31.9131 -31.9055 -31.8974 -31.8740 -31.8675
   -31.8666 -31.8596 -31.8584 -31.8532 -31.8339 -31.8309 -31.8165 -31.8114
   -31.8077 -31.7977 -31.7927 -31.7659 -31.7535 -31.7167 -31.6876 -31.6460
   -31.5709 -31.5249 -31.2201 -31.2199 -31.1055 -31.1033 -31.0632 -31.0621
   -20.6830 -18.6848 -16.4892 -15.8236 -15.8160 -15.7805 -15.7405 -15.6927
   -15.6799 -15.6133 -15.6035 -15.5765 -15.4954 -15.4324 -15.3814 -15.3572
   -15.3531 -15.3299 -15.3024 -15.2606 -15.2399 -15.2296 -15.2209 -15.1645
   -15.1434 -15.1414 -15.1126 -15.0925 -15.0727 -15.0246 -14.8891 -14.6849
   -13.5748 -13.3901 -13.3882  -6.9098  -5.9314  -4.9689  -4.3849  -3.6223
    -3.3517  -3.0848  -3.0538  -2.9724  -2.9155  -2.8199  -2.8029  -2.7839
    -2.7644  -2.7528  -2.7249  -2.6971  -2.6483  -2.6180  -2.5842  -2.5723
    -2.5653  -2.5447  -2.5386  -2.5063  -2.4901  -2.4717  -2.4534  -2.4358
    -2.4241  -2.4083  -2.3375  -2.3056  -2.2738  -2.1053  -2.0903  -2.0871
    -2.0639  -2.0477  -2.0386  -1.9766  -1.9134  -1.9033  -1.8530  -1.8371
    -1.7649  -1.6929  -1.5333  -1.4942  -1.4644  -1.3904  -1.3293  -1.2980
    -1.2748  -1.2415  -1.2091  -1.2006  -1.1553  -1.1053  -1.0252  -1.0054
    -0.9511  -0.9448  -0.9352  -0.8585  -0.7831  -0.7661  -0.7195  -0.7009
    -0.6774  -0.6409  -0.5844  -0.5494  -0.5371  -0.5250  -0.4278  -0.3771
    -0.3228  -0.2241  -0.1842  -0.1250  -0.0166   0.0702   0.0794   0.1784
     0.2201   0.3209   0.3565   0.4104   0.4496   0.4777   0.5061   0.6240
     0.6429   0.6890   0.7669   0.7848   0.8117   0.8635   1.5135   1.5210
     1.5314   1.5330   2.4592   3.5703   3.5978   3.6165   3.6551   3.8507
     3.8813   3.9004   3.9283   3.9468   3.9993

     the Fermi energy is     2.8510 ev

!    total energy              =   -3002.64617377 Ry
     estimated scf accuracy    <       0.00000007 Ry
     smearing contrib. (-TS)   =      -0.00429022 Ry
     internal energy E=F+TS    =   -3002.64188355 Ry

     The total energy is F=E-TS. E is the sum of the following terms:
     one-electron contribution =  -23370.69275022 Ry
     hartree contribution      =   11779.26289292 Ry
     xc contribution           =    -498.80541175 Ry
     ewald contribution        =    9087.59304180 Ry
     electric field correction =       0.00034370 Ry

     convergence has been achieved in  69 iterations

     Forces acting on atoms (cartesian axes, Ry/au):

     atom    1 type  1   force =     0.00016759    0.00010216    0.09961779
     atom    2 type  1   force =     0.00014832    0.00020743    0.09912413
     atom    3 type  2   force =     0.00019184    0.00034178    0.12384785
     atom    4 type  2   force =     0.00044135    0.00005124    0.13842899
     atom    5 type  2   force =    -0.00010148    0.00964554   -0.16003152
     atom    6 type  2   force =     0.00008751   -0.00872979   -0.15981934
     atom    7 type  1   force =    -0.07908401    0.00145878   -0.03323537
     atom    8 type  1   force =    -0.07911595   -0.00181430   -0.03327391
     atom    9 type  1   force =     0.07904291    0.00178863   -0.03331363
     atom   10 type  1   force =     0.07907248   -0.00146866   -0.03329099
     atom   11 type  1   force =    -0.00114370    0.00063043    0.04298112
     atom   12 type  1   force =    -0.00115146    0.00003685    0.04563730
     atom   13 type  1   force =    -0.00039752   -0.00174133   -0.05057389
     atom   14 type  1   force =    -0.00086280    0.00123141   -0.04777941
     atom   15 type  2   force =    -0.00033898   -0.00004073    0.00001026
     atom   16 type  2   force =    -0.00033434    0.00005750   -0.00028385
     atom   17 type  2   force =     0.00023149   -0.00040136   -0.00023633
     atom   18 type  1   force =    -0.01155944   -0.00689852   -0.00022226
     atom   19 type  1   force =    -0.01368613    0.00097896    0.00213437
     atom   20 type  1   force =     0.01285425   -0.00248105   -0.00224000
     atom   21 type  1   force =     0.01410776    0.00576500    0.00038646
     atom   22 type  2   force =     0.00031913    0.00007041    0.00017360
     atom   23 type  1   force =    -0.00009958   -0.00008892   -0.00001249
     atom   24 type  1   force =    -0.00025431    0.00000340    0.00044820
     atom   25 type  1   force =     0.00023608    0.00030421   -0.00008629
     atom   26 type  1   force =     0.00035227    0.00012104   -0.00026138
     atom   27 type  2   force =    -0.00030912   -0.00044495    0.00025822
     atom   28 type  2   force =     0.00051456   -0.00029548   -0.00013383
     atom   29 type  2   force =    -0.00015184    0.00025267    0.00009231
     atom   30 type  1   force =    -0.00031229   -0.00034101   -0.00024639
     atom   31 type  1   force =     0.00047511   -0.00002979    0.00012453
     atom   32 type  1   force =    -0.00028396    0.00038754    0.00000753
     atom   33 type  1   force =     0.00021943    0.00033414    0.00010673
     atom   34 type  2   force =     0.00041772    0.00016570   -0.00040425
     atom   35 type  1   force =     0.00005666   -0.00011879   -0.00033383
     atom   36 type  1   force =     0.00008478   -0.00001451    0.00037946
     atom   37 type  1   force =     0.00002532   -0.00020696    0.00059454
     atom   38 type  1   force =     0.00002719    0.00043157   -0.00005425
     atom   39 type  2   force =    -0.00002153    0.00040470    0.00022540
     atom   40 type  2   force =    -0.00008690   -0.00019867   -0.00111286
     atom   41 type  2   force =    -0.00028842    0.00009437   -0.00013568
     atom   42 type  1   force =     0.00015752    0.00027973   -0.00003993
     atom   43 type  1   force =    -0.00028157    0.00020010   -0.00005149
     atom   44 type  1   force =     0.00035073   -0.00011723    0.00059873
     atom   45 type  1   force =    -0.00051210   -0.00004462    0.00044504
     atom   46 type  2   force =    -0.00009339    0.00071207   -0.00026551
     atom   47 type  1   force =    -0.00005675    0.00027708    0.00044582
     atom   48 type  1   force =     0.00058924   -0.00038896   -0.00122167
     atom   49 type  3   force =     0.00072492    0.00214516   -0.00095442
     atom   50 type  4   force =    -0.00018611    0.00003651    0.00070849
     atom   51 type  5   force =     0.00841852    0.02302938   -0.01460196
     atom   52 type  5   force =    -0.00883826   -0.02547808    0.01613457
     atom   53 type  1   force =     0.00073993    0.00061603    0.00161243
     atom   54 type  4   force =    -0.00050266   -0.00081782   -0.00030712

     Total force =     0.382638     Total SCF correction =     0.000974
  @ DRIVER MODE: Message from server: STATUS
  @ DRIVER MODE: Message from server: GETFORCE
  @ DRIVER MODE: Returning v,forces,stress,ensemble

     Writing output data file ./calc.save/
  @ DRIVER MODE: Message from server: EXIT
  @ DRIVE MODE: Exiting

     General routines

     Parallel routines

   This run was terminated on:   1:49:50  23Sep2021

   JOB DONE.