     Program PWSCF v.6.7GPU starts on 30Jun2021 at 16: 1:28

     R & G space division:  proc/nbgrp/npool/nimage =      16
     Reading input from /storage/home/hcoda1/3/ntian30/research/carbon/30Jun_spin_polarized/ads_slab/CH3N2_b/30Jun.log/pw.inp
Warning: card &CELL ignored
Warning: card   CELL_DYNAMICS='IPI', ignored
Warning: card / ignored

     Current dimensions of program PWSCF are:
     Max number of different atomic species (ntypx) = 10
     Max number of k-points (npk) =  40000
     Max angular momentum in pseudopotentials (lmaxx) =  3
     Presently no symmetry can be used with electric field

     Message from routine cell_base_init:
     DEPRECATED: use true lattice parameter, not A to a.u. conversion factor

     IMPORTANT: XC functional enforced from input :
     Exchange-correlation= BEEF-VDW
                           (   1   4  43  14   2   0   0)
     Any further DFT definition will be discarded
     Please, verify this is what you really want

  @ DRIVER MODE: Connecting to
 qe_1139763_2240211.sched-torque.pace.gatech.eduj6chsm7i_scratch
  using UNIX socket
  @ DRIVER MODE: Message from server: STATUS
  @ DRIVER MODE: Message from server: INIT
  @ DRIVER MODE: Receiving replica           0          -1
  @ DRIVER MODE: Receiving encoded integer          25
  @ DRIVER MODE:  SCF:  T  FORCE:  T  STRESS:  F  VC:  F  ENSEMBLE:  F
  @ DRIVER MODE:  SCF:  T  FORCE:  T  STRESS:  F  VC:  F  ENSEMBLE:  F

     Using Slab Decomposition

     bravais-lattice index     =            0
     lattice parameter (alat)  =       1.8897  a.u.
     unit-cell volume          =    6658.9804 (a.u.)^3
     number of atoms/cell      =           53
     number of atomic types    =            5
     number of electrons       =       395.00
     number of Kohn-Sham states=          207
     kinetic-energy cutoff     =      29.3995  Ry
     charge density cutoff     =     293.9946  Ry
     scf convergence threshold =      7.3E-08
     mixing beta               =       0.0500
     number of iterations used =            8  plain     mixing
     Exchange-correlation= BEEF-VDW
                           (   1   4  43  14   2   0   0)

     celldm(1)=   1.889726  celldm(2)=   0.000000  celldm(3)=   0.000000
     celldm(4)=   0.000000  celldm(5)=   0.000000  celldm(6)=   0.000000

     crystal axes: (cart. coord. in units of alat)
               a(1) = (   6.579727   0.000000   0.000000 )
               a(2) = (  -0.000775   5.961596   0.000000 )
               a(3) = (   0.000000   0.000000  25.155947 )

     reciprocal axes: (cart. coord. in units 2 pi/alat)
               b(1) = (  0.151982  0.000020  0.000000 )
               b(2) = (  0.000000  0.167740  0.000000 )
               b(3) = (  0.000000  0.000000  0.039752 )

     PseudoPot. # 1 for Ti read from file:
     /storage/coda1/p-amedford6/0/shared/rich_project_chbe-medford/medford-share/data/pseudos_module/espresso/nninc/pbe/van/Ti.UPF
     MD5 check sum: 8e4df49b7f0d34bbd5052bf3f5ea0213
     Pseudo is Ultrasoft, Zval = 12.0
     Generated by new atomic code, or converted to UPF format
     Using radial grid of  851 points,  6 beta functions with:
                l(1) =   0
                l(2) =   0
                l(3) =   1
                l(4) =   1
                l(5) =   2
                l(6) =   2
     Q(r) pseudized with  8 coefficients,  rinner =    1.000   1.000   1.000
                                                       1.000   1.000

     PseudoPot. # 2 for O  read from file:
     /storage/coda1/p-amedford6/0/shared/rich_project_chbe-medford/medford-share/data/pseudos_module/espresso/nninc/pbe/van/O.UPF
     MD5 check sum: 78c19812648e8988a0fe644b0f25305e
     Pseudo is Ultrasoft, Zval =  6.0
     Generated by new atomic code, or converted to UPF format
     Using radial grid of  737 points,  4 beta functions with:
                l(1) =   0
                l(2) =   0
                l(3) =   1
                l(4) =   1
     Q(r) pseudized with  8 coefficients,  rinner =    0.800   0.800   0.800

     PseudoPot. # 3 for N  read from file:
     /storage/coda1/p-amedford6/0/shared/rich_project_chbe-medford/medford-share/data/pseudos_module/espresso/nninc/pbe/van/N.UPF
     MD5 check sum: 90d10febe142ad51ac9d5be1deb811c4
     Pseudo is Ultrasoft, Zval =  5.0
     Generated by new atomic code, or converted to UPF format
     Using radial grid of  729 points,  4 beta functions with:
                l(1) =   0
                l(2) =   0
                l(3) =   1
                l(4) =   1
     Q(r) pseudized with  8 coefficients,  rinner =    0.800   0.800   0.800

     PseudoPot. # 4 for C  read from file:
     /storage/coda1/p-amedford6/0/shared/rich_project_chbe-medford/medford-share/data/pseudos_module/espresso/nninc/pbe/van/C.UPF
     MD5 check sum: 1a69bf6b8db32088f5b2163dbdb77a27
     Pseudo is Ultrasoft, Zval =  4.0
     Generated by new atomic code, or converted to UPF format
     Using radial grid of  721 points,  4 beta functions with:
                l(1) =   0
                l(2) =   0
                l(3) =   1
                l(4) =   1
     Q(r) pseudized with  8 coefficients,  rinner =    0.800   0.800   0.800

     PseudoPot. # 5 for H  read from file:
     /storage/coda1/p-amedford6/0/shared/rich_project_chbe-medford/medford-share/data/pseudos_module/espresso/nninc/pbe/van/H.UPF
     MD5 check sum: b5ee9d7bfd3a09ee7748110bda690ff7
     Pseudo is Ultrasoft, Zval =  1.0
     Generated by new atomic code, or converted to UPF format
     Using radial grid of  615 points,  1 beta functions with:
                l(1) =   0
     Q(r) pseudized with  8 coefficients,  rinner =    0.800

     atomic species   valence    mass     pseudopotential
        Ti1           12.00    47.86700     Ti( 1.00)
        O1             6.00    15.99900     O ( 1.00)
        N1             5.00    14.00700     N ( 1.00)
        C1             4.00    12.01100     C ( 1.00)
        H1             1.00     1.00800     H ( 1.00)

     Starting magnetic structure
     atomic species   magnetization
        Ti1          0.000
        O1           0.000
        N1           0.000
        C1           0.025
        H1           0.000

     No symmetry found

   Cartesian axes

     site n.     atom                  positions (alat units)
         1           Ti1 tau(   1) = (   0.0004258   2.9801865   6.0000000  )
         2           Ti1 tau(   2) = (   3.2906075   1.4906267   6.0002472  )
         3           O1  tau(   3) = (   0.0006271   0.0005054   7.9858123  )
         4           O1  tau(   4) = (   3.2906025   0.0005020   7.3038282  )
         5           O1  tau(   5) = (   4.5942328   1.4918067   9.2879030  )
         6           O1  tau(   6) = (   1.9868534   1.4903216   9.2879459  )
         7           Ti1 tau(   7) = (   3.2907910   2.8959150   9.1758416  )
         8           Ti1 tau(   8) = (   0.0015273   1.4827037   9.2680791  )
         9           O1  tau(   9) = (   3.3037365   0.0094216  11.3222111  )
        10           O1  tau(  10) = (   0.0116148   5.9584955  10.6183126  )
        11           O1  tau(  11) = (   1.3152514   1.5075076  12.6320051  )
        12           O1  tau(  12) = (   5.3186361   1.4995162  12.6508707  )
        13           Ti1 tau(  13) = (   6.5540705   2.9956815  12.5884341  )
        14           Ti1 tau(  14) = (   3.2234832   1.4927074  12.4921739  )
        15           O1  tau(  15) = (   0.0610261   5.9052480  14.6017706  )
        16           O1  tau(  16) = (   3.2936532   0.0132264  13.8830087  )
        17           O1  tau(  17) = (   4.5722397   1.5061520  16.0138922  )
        18           O1  tau(  18) = (   2.0767725   1.5295127  16.0808449  )
        19           Ti1 tau(  19) = (   3.3650854   3.0251465  15.6907462  )
        20           Ti1 tau(  20) = (   0.0387768   1.3037779  15.7216176  )
        21           O1  tau(  21) = (   3.2904802   0.0005063   4.7018136  )
        22           O1  tau(  22) = (   0.0189486   0.1070799  17.1824039  )
        23           O1  tau(  23) = (   1.3043587   1.4918075   6.0039043  )
        24           O1  tau(  24) = (   5.2767064   1.4903225   6.0039473  )
        25           Ti1 tau(  25) = (   0.0000382   5.9609847   6.0000000  )
        26           Ti1 tau(  26) = (   3.2902200   4.4714249   6.0002472  )
        27           O1  tau(  27) = (   0.0002396   2.9813036   7.9858123  )
        28           O1  tau(  28) = (   3.2902150   2.9813002   7.3038282  )
        29           O1  tau(  29) = (   4.5938453   4.4726049   9.2879030  )
        30           O1  tau(  30) = (   1.9864658   4.4711199   9.2879459  )
        31           Ti1 tau(  31) = (   3.2891106   5.8743827   9.1763621  )
        32           Ti1 tau(  32) = (   0.0006254   4.4649316   9.2693709  )
        33           O1  tau(  33) = (   3.3043114   2.9829305  11.3227053  )
        34           O1  tau(  34) = (   0.0092240   2.9805883  10.6323155  )
        35           O1  tau(  35) = (   1.3131995   4.4620516  12.6081187  )
        36           O1  tau(  36) = (   5.3117129   4.4692194  12.6284301  )
        37           Ti1 tau(  37) = (   6.5303063   5.9583428  12.5400172  )
        38           Ti1 tau(  38) = (   3.2255477   4.4746212  12.4748647  )
        39           O1  tau(  39) = (   0.0377805   3.0059521  14.8845374  )
        40           O1  tau(  40) = (   3.3120027   2.9986483  13.8863452  )
        41           O1  tau(  41) = (   4.5434534   4.5277214  16.0148975  )
        42           O1  tau(  42) = (   2.1165747   4.4940517  16.0783766  )
        43           Ti1 tau(  43) = (   3.3042555   0.0241951  15.7004812  )
        44           Ti1 tau(  44) = (   0.0495666   4.4505358  16.3362958  )
        45           O1  tau(  45) = (   3.2900926   2.9813045   4.7018136  )
        46           O1  tau(  46) = (   1.3039711   4.4726057   6.0039043  )
        47           O1  tau(  47) = (   5.2763189   4.4711207   6.0039473  )
        48           N1  tau(  48) = (   0.5348212   3.4288502  18.0689430  )
        49           C1  tau(  49) = (   1.3556880   3.0079929  19.2215664  )
        50           H1  tau(  50) = (   1.4862090   3.8900195  19.8496782  )
        51           H1  tau(  51) = (   0.8469181   2.2141957  19.7647163  )
        52           H1  tau(  52) = (   2.3296892   2.6851793  18.8624704  )
        53           N1  tau(  53) = (   5.9145885   3.2636146  17.9655992  )

     number of k points=    10  Fermi-Dirac smearing, width (Ry)=  0.0073
                       cart. coord. in units 2pi/alat
        k(    1) = (   0.0000000   0.0000000   0.0000000), wk =   0.0625000
        k(    2) = (   0.0000000   0.0419351   0.0000000), wk =   0.1250000
        k(    3) = (   0.0000000  -0.0838702   0.0000000), wk =   0.0625000
        k(    4) = (   0.0379955   0.0000049   0.0000000), wk =   0.1250000
        k(    5) = (   0.0379955   0.0419400   0.0000000), wk =   0.1250000
        k(    6) = (   0.0379955  -0.0838652   0.0000000), wk =   0.1250000
        k(    7) = (   0.0379955  -0.0419301   0.0000000), wk =   0.1250000
        k(    8) = (  -0.0759910  -0.0000099   0.0000000), wk =   0.0625000
[...]
     %                                                                      %
     %   R. Sabatini et al., J. Phys.: Condens. Matter 24, 424209 (2012).   %
     %                                                                      %
     %%%%%%%%%%%%%%%%%%%%%%%%%%%%%%%%%%%%%%%%%%%%%%%%%%%%%%%%%%%%%%%%%%%%%%%%

[...]

     Starting wfcs are  299 atomic wfcs
  @ DRIVER MODE: Message from server: STATUS
  @ DRIVER MODE: Message from server: POSDATA
  @ DRIVER MODE: Reading and sharing cell
  @ DRIVER MODE: Reading and sharing positions
  @ DRIVER MODE: Received positions

     Self-consistent Calculation

[...]

     iteration # 67     ecut=    29.40 Ry     beta= 0.05
     Davidson diagonalization with overlap
     c_bands:  1 eigenvalues not converged
     ethr =  9.46E-11,  avg # of iterations = 12.8

[...]

     total energy              =   -2939.12593155 Ry
     estimated scf accuracy    <       0.00000015 Ry

[...]

     iteration # 71     ecut=    29.40 Ry     beta= 0.05
     Davidson diagonalization with overlap
     ethr =  2.04E-11,  avg # of iterations =  8.9

[...]

     Magnetic moment per site  (integrated on atomic sphere of radius R)
     atom   1 (R=0.727)  charge=  7.9485  magn=  0.0062
     atom   2 (R=0.727)  charge=  7.9316  magn=  0.0003
     atom   3 (R=0.727)  charge=  4.9369  magn= -0.0006
     atom   4 (R=0.727)  charge=  4.9738  magn= -0.0001
     atom   5 (R=0.727)  charge=  4.9424  magn= -0.0001
     atom   6 (R=0.727)  charge=  4.9431  magn= -0.0001
     atom   7 (R=0.727)  charge=  7.9299  magn=  0.0003
     atom   8 (R=0.727)  charge=  7.9249  magn=  0.0028
     atom   9 (R=0.727)  charge=  4.9562  magn= -0.0000
     atom  10 (R=0.727)  charge=  4.9398  magn= -0.0002
     atom  11 (R=0.727)  charge=  4.9438  magn= -0.0000
     atom  12 (R=0.727)  charge=  4.9403  magn= -0.0001
     atom  13 (R=0.727)  charge=  7.9199  magn=  0.0006
     atom  14 (R=0.727)  charge=  7.9286  magn=  0.0001
     atom  15 (R=0.727)  charge=  4.9367  magn=  0.0000
     atom  16 (R=0.727)  charge=  4.9586  magn= -0.0000
     atom  17 (R=0.727)  charge=  4.9269  magn=  0.0000
     atom  18 (R=0.727)  charge=  4.9196  magn=  0.0000
     atom  19 (R=0.727)  charge=  7.9516  magn= -0.0000
     atom  20 (R=0.727)  charge=  7.9765  magn= -0.0000
     atom  21 (R=0.727)  charge=  4.8265  magn= -0.0003
     atom  22 (R=0.727)  charge=  4.9096  magn=  0.0002
     atom  23 (R=0.727)  charge=  4.9340  magn= -0.0007
     atom  24 (R=0.727)  charge=  4.9340  magn= -0.0007
     atom  25 (R=0.727)  charge=  7.9485  magn=  0.0062
     atom  26 (R=0.727)  charge=  7.9316  magn=  0.0003
     atom  27 (R=0.727)  charge=  4.9363  magn= -0.0006
     atom  28 (R=0.727)  charge=  4.9740  magn= -0.0001
     atom  29 (R=0.727)  charge=  4.9433  magn= -0.0001
     atom  30 (R=0.727)  charge=  4.9439  magn= -0.0001
     atom  31 (R=0.727)  charge=  7.9304  magn=  0.0003
     atom  32 (R=0.727)  charge=  7.9251  magn=  0.0027
     atom  33 (R=0.727)  charge=  4.9554  magn= -0.0000
     atom  34 (R=0.727)  charge=  4.9242  magn= -0.0002
     atom  35 (R=0.727)  charge=  4.9448  magn= -0.0001
     atom  36 (R=0.727)  charge=  4.9438  magn= -0.0001
     atom  37 (R=0.727)  charge=  7.9230  magn=  0.0005
     atom  38 (R=0.727)  charge=  7.9295  magn=  0.0001
     atom  39 (R=0.727)  charge=  4.9078  magn=  0.0001
     atom  40 (R=0.727)  charge=  4.9611  magn= -0.0000
     atom  41 (R=0.727)  charge=  4.9355  magn=  0.0000
     atom  42 (R=0.727)  charge=  4.9347  magn=  0.0000
     atom  43 (R=0.727)  charge=  7.9537  magn= -0.0000
     atom  44 (R=0.727)  charge=  7.9726  magn= -0.0002
     atom  45 (R=0.727)  charge=  4.8265  magn= -0.0003
     atom  46 (R=0.727)  charge=  4.9340  magn= -0.0007
     atom  47 (R=0.727)  charge=  4.9341  magn= -0.0007
     atom  48 (R=0.501)  charge=  1.9976  magn= -0.0001
     atom  49 (R=0.448)  charge=  0.8479  magn= -0.0000
     atom  50 (R=0.448)  charge=  0.4992  magn=  0.0000
     atom  51 (R=0.448)  charge=  0.5029  magn=  0.0000
     atom  52 (R=0.448)  charge=  0.5041  magn=  0.0000
     atom  53 (R=0.501)  charge=  1.9556  magn=  0.0002

     End of self-consistent calculation

 ------ SPIN UP ------------

[...]

 ------ SPIN DOWN ----------

[...]

          k = 0.0380-0.0419 0.0000 ( 17876 PWs)   bands (ev):

[...]

          k =-0.0760-0.0839 0.0000 ( 17948 PWs)   bands (ev):

   -55.7524 -55.7523 -55.7516 -55.7501 -55.6750 -55.6411 -55.5761 -55.5757
   -55.5379 -55.5375 -55.5144 -55.4502 -54.9542 -54.8083 -54.7379 -54.7378
   -32.1213 -32.1177 -32.0719 -32.0718 -32.0462 -32.0460 -32.0186 -32.0039
   -31.9976 -31.9889 -31.9200 -31.9147 -31.9018 -31.8953 -31.8807 -31.8785
   -31.8777 -31.8715 -31.8704 -31.8703 -31.8526 -31.8496 -31.8482 -31.8129
   -31.7835 -31.7803 -31.7785 -31.7672 -31.7669 -31.7554 -31.7550 -31.7545
   -31.7534 -31.7357 -31.7111 -31.6602 -31.4389 -31.3197 -31.1685 -31.1584
   -31.0832 -31.0640 -31.0638 -30.9746 -30.9744 -30.9354 -30.9354 -30.9159
   -19.4359 -15.9170 -15.9109 -15.7497 -15.7152 -15.6492 -15.6404 -15.5728
   -15.5057 -15.4611 -15.4561 -15.3409 -15.3387 -15.3244 -15.3025 -15.2482
   -15.2320 -15.2306 -15.2275 -15.2196 -15.2076 -15.1800 -15.1495 -15.0989
   -15.0938 -15.0729 -15.0629 -14.9412 -14.5310 -14.4694 -13.2424 -13.2423
   -12.3108  -7.2470  -4.9389  -4.7805  -3.6281  -3.2062  -3.1898  -3.0017
    -2.9186  -2.9074  -2.8917  -2.7397  -2.7278  -2.7105  -2.6529  -2.6459
    -2.6363  -2.5996  -2.5835  -2.5596  -2.5192  -2.5139  -2.4659  -2.4635
    -2.4480  -2.4328  -2.4077  -2.4024  -2.3887  -2.3740  -2.3364  -2.2802
    -2.2419  -2.2148  -2.1866  -2.0902  -2.0293  -1.9935  -1.9263  -1.9177
    -1.8668  -1.8421  -1.8276  -1.7609  -1.6907  -1.6612  -1.5770  -1.4855
    -1.4671  -1.4517  -1.3330  -1.3191  -1.2443  -1.2206  -1.1368  -1.1197
    -1.0801  -0.9694  -0.9461  -0.9148  -0.8801  -0.8362  -0.7726  -0.7359
    -0.7339  -0.6851  -0.6408  -0.5847  -0.5233  -0.5115  -0.4963  -0.4876
    -0.4239  -0.3902  -0.3683  -0.2859  -0.2708  -0.1891  -0.0453  -0.0124
     0.1451   0.1942   0.3031   0.3305   0.4215   0.4432   0.5368   0.5399
     0.5733   0.7023   0.7210   0.7387   0.7547   0.7747   0.7986   0.9375
     1.6322   1.6324   1.7038   1.7038   2.0819   3.6719   3.7090   3.7595
     3.7818   3.8882   3.8924   3.8948   3.9029   4.0233   4.0269

     the Fermi energy is     3.3520 ev

!    total energy              =   -2939.12594931 Ry
     estimated scf accuracy    <       0.00000004 Ry
     smearing contrib. (-TS)   =      -0.02052058 Ry
     internal energy E=F+TS    =   -2939.10542872 Ry

     The total energy is F=E-TS. E is the sum of the following terms:
     one-electron contribution =  -24213.39418696 Ry
     hartree contribution      =   12195.44845859 Ry
     xc contribution           =    -485.20012427 Ry
     ewald contribution        =    9564.03885346 Ry
     electric field correction =       0.00157045 Ry

     total magnetization       =     0.03 Bohr mag/cell
     absolute magnetization    =     0.04 Bohr mag/cell

     convergence has been achieved in  71 iterations

     Forces acting on atoms (cartesian axes, Ry/au):

     atom    1 type  1   force =     0.00009158   -0.00020963    0.09580894
     atom    2 type  1   force =     0.00007371   -0.00063225   -0.17549831
     atom    3 type  2   force =     0.00017843   -0.00019337   -0.02305241
     atom    4 type  2   force =     0.00004092   -0.00128606    0.05262910
     atom    5 type  2   force =    -0.00977773   -0.00031546    0.00253433
     atom    6 type  2   force =     0.01165748    0.00022603    0.00291660
     atom    7 type  1   force =     0.00088289   -0.00000332   -0.00990024
     atom    8 type  1   force =     0.00000599    0.00530527    0.01815922
     atom    9 type  2   force =    -0.00001587   -0.00028992   -0.00010169
     atom   10 type  2   force =    -0.00253872    0.00216354   -0.01348282
     atom   11 type  2   force =    -0.00097404    0.00010925    0.00018065
     atom   12 type  2   force =     0.00039302   -0.00025498    0.00049494
     atom   13 type  1   force =     0.00009795   -0.00008164    0.00054466
     atom   14 type  1   force =    -0.00004066   -0.00013702   -0.00015760
     atom   15 type  2   force =    -0.00059533    0.00024014    0.00044297
     atom   16 type  2   force =    -0.00043616    0.00007866    0.00019576
     atom   17 type  2   force =    -0.00015120   -0.00008856   -0.00032322
     atom   18 type  2   force =     0.00028994    0.00022053    0.00007454
     atom   19 type  1   force =    -0.00058261   -0.00056460    0.00071619
     atom   20 type  1   force =    -0.00024916    0.00039277   -0.00074261
     atom   21 type  2   force =     0.00006867   -0.00006025    0.10323043
     atom   22 type  2   force =     0.00009210   -0.00005712   -0.00042665
     atom   23 type  2   force =    -0.07155612   -0.00019243   -0.02754431
     atom   24 type  2   force =     0.07153570    0.00031119   -0.02760588
     atom   25 type  1   force =     0.00012017   -0.00028195    0.09519161
     atom   26 type  1   force =     0.00008740   -0.00048337   -0.17565164
     atom   27 type  2   force =     0.00016016   -0.00012208   -0.02180227
     atom   28 type  2   force =     0.00008079   -0.00106135    0.05250691
     atom   29 type  2   force =    -0.01016037    0.00023402    0.00291165
     atom   30 type  2   force =     0.01197654    0.00052072    0.00328961
     atom   31 type  1   force =     0.00088625    0.00414069   -0.01177253
     atom   32 type  1   force =     0.00013701   -0.00633773    0.01829779
     atom   33 type  2   force =     0.00016160    0.00041762   -0.00009632
     atom   34 type  2   force =    -0.00308469   -0.00010730   -0.00866574
     atom   35 type  2   force =    -0.00021219    0.00006815    0.00001776
     atom   36 type  2   force =    -0.00003135    0.00027908   -0.00005895
     atom   37 type  1   force =     0.00043370   -0.00094788    0.00019150
     atom   38 type  1   force =    -0.00032113    0.00009797    0.00035075
     atom   39 type  2   force =     0.00011148   -0.00027147    0.00054012
     atom   40 type  2   force =    -0.00008270    0.00026688    0.00015844
     atom   41 type  2   force =     0.00002493   -0.00014396   -0.00018894
     atom   42 type  2   force =    -0.00044384    0.00013714   -0.00041433
     atom   43 type  1   force =     0.00025459    0.00051646    0.00013459
     atom   44 type  1   force =    -0.00021261   -0.00083894   -0.00091708
     atom   45 type  2   force =     0.00007561   -0.00005987    0.10318507
     atom   46 type  2   force =    -0.07157012   -0.00009350   -0.02753762
     atom   47 type  2   force =     0.07155343    0.00025729   -0.02760147
     atom   48 type  3   force =     0.00061540   -0.00064110    0.00067660
     atom   49 type  4   force =     0.00030787    0.00017471   -0.00063726
     atom   50 type  5   force =     0.00033282    0.00021616   -0.00009301
     atom   51 type  5   force =    -0.00081776   -0.00025257   -0.00010085
     atom   52 type  5   force =     0.00021905   -0.00080878   -0.00063730
     atom   53 type  3   force =     0.00090717    0.00044417   -0.00036965

     Total force =     0.364759     Total SCF correction =     0.000246
  @ DRIVER MODE: Message from server: STATUS
  @ DRIVER MODE: Message from server: GETFORCE
  @ DRIVER MODE: Returning v,forces,stress,ensemble

     Writing output data file ./calc.save/
  @ DRIVER MODE: Message from server: STATUS
  @ DRIVER MODE: Message from server: INIT
  @ DRIVER MODE: Receiving replica           0           0
  @ DRIVER MODE: Receiving encoded integer           2
  @ DRIVER MODE:  SCF:  T  FORCE:  T  STRESS:  F  VC:  F  ENSEMBLE:  F
  @ DRIVER MODE:  SCF:  F  FORCE:  F  STRESS:  F  VC:  F  ENSEMBLE:  T
  @ DRIVER MODE: Message from server: STATUS
  @ DRIVER MODE: Message from server: POSDATA
  @ DRIVER MODE: Reading and sharing positions
  @ DRIVER MODE: Received positions
     NEW-OLD atomic charge density approx. for the potential

[...]

     Adding external electric field

     Computed dipole along edir(3) :
        Dipole                0.9122 Ry au,          2.3187 Debye
        Dipole field          0.0017 Ry au,

        Potential amp.       -0.1596 Ry
        Total length         46.3494 bohr

     Generating pointlists ...
  @ DRIVER MODE: BEEF-vdw

[...]

     negative rho (up, down):  8.119E-03 8.119E-03

     negative rho (up, down):  8.119E-03 8.119E-03
 BEEFens 2000 ensemble energies
             -0.348177073968055E+02
             -0.202543213650378E+01
             -0.717927742617641E+01
              0.241632088368611E+02
             -0.119620017803414E+02
             -0.925787915439903E+01
             -0.241448581465261E+02
             -0.505149093374047E+02
             -0.215596298012159E+02
             -0.227132965146362E+02
             -0.210799275100596E+02
              0.424826739692766E+01
              0.200313350623709E+01
             -0.105409561052026E+01
              0.173724399498978E+01
              0.266166759363217E+02
             -0.102640771188953E+02
             -0.725651752603939E+01
              0.118063031593247E+02
             -0.621735891577382E+02
              0.311707574146632E+02
             -0.133836399157451E+02
             -0.241905477840765E+01
             -0.561996780452651E+01
             -0.983487449753682E+00
             -0.214732119230793E+01
              0.482247186576303E+02
             -0.150771639376373E+02
             -0.403386533436969E+01
             -0.305058272310918E+02
              0.394412443022286E+02
             -0.437464543941660E+01
             -0.214643940092605E+02
              0.112697080676076E+02
             -0.205849753870623E+01
              0.130758460215257E+02
             -0.551672386426077E+00
              0.273257771889413E+01
              0.190144757932336E+02
             -0.548870673655717E+02
              0.305798660266075E+02
              0.815459096825700E+01
             -0.626928745408088E+01
             -0.175509837681999E+02
              0.693096182380501E+01
             -0.109710336918380E+02
              0.250114272940615E+02
              0.199711228219281E+02
             -0.128861534620982E+02
             -0.164465359196420E+02
             -0.173896129000831E+02
             -0.208773577692369E+02
              0.105991668717531E+02
             -0.272033502747514E+02
              0.832446763611449E+01
              0.347423679465608E+02
              0.400562734335255E+02
              0.186572694424948E+02
              0.833776623474303E+01
              0.174066095080332E+02
[...]
             -0.409720188015015E+02
              0.278112658551663E+01
             -0.145255713602584E+01
             -0.570646822198347E+01
              0.517025002982052E-01
             -0.364811244996887E+02
             -0.705656049551006E+01
              0.494019082704281E+01
              0.743430317864579E+01
              0.273388340538322E+02
             -0.238977471332797E+02
              0.311856318674984E+02
             -0.223295772048796E+02
              0.143445615547325E+02
              0.225906018100807E+02

 BEEF-vdW xc energy contributions
           1 :   -411.096258007238
           2 :    358.220094993826
           3 :   -272.892272805422
           4 :    183.794706841000
           5 :   -113.765628776390
           6 :    71.8604675767225
           7 :   -54.3364056955488
           8 :    51.1152570487695
           9 :   -52.7311523946500
          10 :    53.9206031454557
          11 :   -53.4501074763273
          12 :    51.8744188848735
          13 :   -49.6301352844253
          14 :    46.4707924430994
          15 :   -42.0435758398504
          16 :    36.5522496162498
          17 :   -30.9138091051485
          18 :    26.2988899200042
          19 :   -23.5395917282128
          20 :    22.7628715846186
          21 :   -23.4827648728787
          22 :    24.9374329272418
          23 :   -26.4372107929783
          24 :    27.4866545941019
          25 :   -27.7631056816980
          26 :    27.0585296644495
          27 :   -25.3266794569481
          28 :    22.7644023057882
          29 :   -19.8517754719709
          30 :    17.2271090072020
          31 :   -48.3473410968447
          32 :   -32.8487961936673
  @ DRIVER MODE: Message from server: STATUS
  @ DRIVER MODE: Message from server: GETFORCE
  @ DRIVER MODE: Returning v,forces,stress,ensemble
  @ DRIVE MODE: Returning Ensemble Energies

     Writing output data file ./calc.save/
  @ DRIVER MODE: Message from server: EXIT
  @ DRIVE MODE: Exiting

     General routines

     Parallel routines

   This run was terminated on:  15:28:51  21Jul2021

   JOB DONE.