     Program PWSCF v.6.7GPU starts on 14Sep2021 at 17: 4:52

     R & G space division:  proc/nbgrp/npool/nimage =      10
     Reading input from /storage/home/hcoda1/3/ntian30/research/carbon/CxH_vib/CH_calc/ads_slab/CHOHN2_a/out_0010/pw.inp
Warning: card &CELL ignored
Warning: card   CELL_DYNAMICS='IPI', ignored
Warning: card / ignored

     Current dimensions of program PWSCF are:
     Max number of different atomic species (ntypx) = 10
     Max number of k-points (npk) =  40000
     Max angular momentum in pseudopotentials (lmaxx) =  3
     Presently no symmetry can be used with electric field

     Message from routine cell_base_init:
     DEPRECATED: use true lattice parameter, not A to a.u. conversion factor

     IMPORTANT: XC functional enforced from input :
     Exchange-correlation= BEEF-VDW
                           (   1   4  43  14   2   0   0)
     Any further DFT definition will be discarded
     Please, verify this is what you really want

  @ DRIVER MODE: Connecting to
 qe_1139763_2840439.sched-torque.pace.gatech.edu7k8stkds_scratch
  using UNIX socket
  @ DRIVER MODE: Message from server: STATUS
  @ DRIVER MODE: Message from server: INIT
  @ DRIVER MODE: Receiving replica           0          -1
  @ DRIVER MODE: Receiving encoded integer          25
  @ DRIVER MODE:  SCF:  T  FORCE:  T  STRESS:  F  VC:  F  ENSEMBLE:  F
  @ DRIVER MODE:  SCF:  T  FORCE:  T  STRESS:  F  VC:  F  ENSEMBLE:  F

     Using Slab Decomposition

     bravais-lattice index     =            0
     lattice parameter (alat)  =       1.8897  a.u.
     unit-cell volume          =    6658.9804 (a.u.)^3
     number of atoms/cell      =           53
     number of atomic types    =            5
     number of electrons       =       400.00
     number of Kohn-Sham states=          210
     kinetic-energy cutoff     =      29.3995  Ry
     charge density cutoff     =     293.9946  Ry
     scf convergence threshold =      7.3E-08
     mixing beta               =       0.0500
     number of iterations used =            8  plain     mixing
     Exchange-correlation= BEEF-VDW
                           (   1   4  43  14   2   0   0)

     celldm(1)=   1.889726  celldm(2)=   0.000000  celldm(3)=   0.000000
     celldm(4)=   0.000000  celldm(5)=   0.000000  celldm(6)=   0.000000

     crystal axes: (cart. coord. in units of alat)
               a(1) = (   6.579727   0.000000   0.000000 )
               a(2) = (  -0.000775   5.961596   0.000000 )
               a(3) = (   0.000000   0.000000  25.155947 )

     reciprocal axes: (cart. coord. in units 2 pi/alat)
               b(1) = (  0.151982  0.000020  0.000000 )
               b(2) = (  0.000000  0.167740  0.000000 )
               b(3) = (  0.000000  0.000000  0.039752 )

     PseudoPot. # 1 for C  read from file:
     /storage/coda1/p-amedford6/0/shared/rich_project_chbe-medford/medford-share/data/pseudos_module/espresso/nninc/pbe/van/C.UPF
     MD5 check sum: 1a69bf6b8db32088f5b2163dbdb77a27
     Pseudo is Ultrasoft, Zval =  4.0
     Generated by new atomic code, or converted to UPF format
     Using radial grid of  721 points,  4 beta functions with:
                l(1) =   0
                l(2) =   0
                l(3) =   1
                l(4) =   1
     Q(r) pseudized with  8 coefficients,  rinner =    0.800   0.800   0.800

     PseudoPot. # 2 for H  read from file:
     /storage/coda1/p-amedford6/0/shared/rich_project_chbe-medford/medford-share/data/pseudos_module/espresso/nninc/pbe/van/H.UPF
     MD5 check sum: b5ee9d7bfd3a09ee7748110bda690ff7
     Pseudo is Ultrasoft, Zval =  1.0
     Generated by new atomic code, or converted to UPF format
     Using radial grid of  615 points,  1 beta functions with:
                l(1) =   0
     Q(r) pseudized with  8 coefficients,  rinner =    0.800

     PseudoPot. # 3 for O  read from file:
     /storage/coda1/p-amedford6/0/shared/rich_project_chbe-medford/medford-share/data/pseudos_module/espresso/nninc/pbe/van/O.UPF
     MD5 check sum: 78c19812648e8988a0fe644b0f25305e
     Pseudo is Ultrasoft, Zval =  6.0
     Generated by new atomic code, or converted to UPF format
     Using radial grid of  737 points,  4 beta functions with:
                l(1) =   0
                l(2) =   0
                l(3) =   1
                l(4) =   1
     Q(r) pseudized with  8 coefficients,  rinner =    0.800   0.800   0.800

     PseudoPot. # 4 for Ti read from file:
     /storage/coda1/p-amedford6/0/shared/rich_project_chbe-medford/medford-share/data/pseudos_module/espresso/nninc/pbe/van/Ti.UPF
     MD5 check sum: 8e4df49b7f0d34bbd5052bf3f5ea0213
     Pseudo is Ultrasoft, Zval = 12.0
     Generated by new atomic code, or converted to UPF format
     Using radial grid of  851 points,  6 beta functions with:
                l(1) =   0
                l(2) =   0
                l(3) =   1
                l(4) =   1
                l(5) =   2
                l(6) =   2
     Q(r) pseudized with  8 coefficients,  rinner =    1.000   1.000   1.000
                                                       1.000   1.000

     PseudoPot. # 5 for N  read from file:
     /storage/coda1/p-amedford6/0/shared/rich_project_chbe-medford/medford-share/data/pseudos_module/espresso/nninc/pbe/van/N.UPF
     MD5 check sum: 90d10febe142ad51ac9d5be1deb811c4
     Pseudo is Ultrasoft, Zval =  5.0
     Generated by new atomic code, or converted to UPF format
     Using radial grid of  729 points,  4 beta functions with:
                l(1) =   0
                l(2) =   0
                l(3) =   1
                l(4) =   1
     Q(r) pseudized with  8 coefficients,  rinner =    0.800   0.800   0.800

     atomic species   valence    mass     pseudopotential
        C1             4.00    12.01100     C ( 1.00)
        H1             1.00     1.00800     H ( 1.00)
        O1             6.00    15.99900     O ( 1.00)
        Ti1           12.00    47.86700     Ti( 1.00)
        N1             5.00    14.00700     N ( 1.00)

     No symmetry found

   Cartesian axes

     site n.     atom                  positions (alat units)
         1           C1  tau(   1) = (   5.6818245   3.0934261  18.8613826  )
         2           H1  tau(   2) = (   0.9295697   3.0331078  18.1055300  )
         3           H1  tau(   3) = (   5.3049293   4.0639705  19.1352297  )
         4           O1  tau(   4) = (   3.2904802   0.0005063   4.7018136  )
         5           O1  tau(   5) = (   3.2900926   2.9813045   4.7018136  )
         6           O1  tau(   6) = (   1.3043587   1.4918075   6.0039043  )
         7           O1  tau(   7) = (   1.3039711   4.4726057   6.0039043  )
         8           O1  tau(   8) = (   5.2767064   1.4903225   6.0039473  )
         9           O1  tau(   9) = (   5.2763189   4.4711207   6.0039473  )
        10           O1  tau(  10) = (   3.2906025   0.0005020   7.3038282  )
        11           O1  tau(  11) = (   3.2902150   2.9813002   7.3038282  )
        12           O1  tau(  12) = (   0.0006271   0.0005054   7.9858123  )
        13           O1  tau(  13) = (   0.0002396   2.9813036   7.9858123  )
        14           O1  tau(  14) = (   4.5942328   1.4918067   9.2879030  )
        15           O1  tau(  15) = (   4.5938453   4.4726049   9.2879030  )
        16           O1  tau(  16) = (   1.9868534   1.4903216   9.2879459  )
        17           O1  tau(  17) = (   1.9864658   4.4711199   9.2879459  )
        18           O1  tau(  18) = (   6.5737290   0.0025997  10.6073112  )
        19           O1  tau(  19) = (   6.5745157   2.9846488  10.6292520  )
        20           O1  tau(  20) = (   3.2733922   2.9888808  11.3669225  )
        21           O1  tau(  21) = (   3.2734535   0.0083669  11.3733985  )
        22           O1  tau(  22) = (   1.2686495   4.4776606  12.6533150  )
        23           O1  tau(  23) = (   1.2691242   1.4995788  12.6525255  )
        24           O1  tau(  24) = (   5.2697113   4.4789153  12.6558726  )
        25           O1  tau(  25) = (   5.2698035   1.4991558  12.6558074  )
        26           O1  tau(  26) = (   3.2614338   2.9920807  13.9552461  )
        27           O1  tau(  27) = (   3.2541646   0.0113981  14.0020514  )
        28           O1  tau(  28) = (   6.5688946   0.0096870  14.6775192  )
        29           O1  tau(  29) = (   6.5667413   2.9928499  14.8718366  )
        30           O1  tau(  30) = (   4.5340645   4.4751187  16.1466513  )
        31           O1  tau(  31) = (   4.5349815   1.5188077  16.1513287  )
        32           O1  tau(  32) = (   2.0116004   1.5352794  16.1924295  )
        33           O1  tau(  33) = (   2.0125852   4.4566501  16.1924965  )
        34           O1  tau(  34) = (   6.5583959   0.0051910  17.1951124  )
        35           O1  tau(  35) = (   0.0128280   2.9917589  17.7791131  )
        36           Ti1 tau(  36) = (   0.0004258   2.9801865   6.0000000  )
        37           Ti1 tau(  37) = (   0.0000382   5.9609847   6.0000000  )
        38           Ti1 tau(  38) = (   3.2906075   1.4906267   6.0002472  )
        39           Ti1 tau(  39) = (   3.2902200   4.4714249   6.0002472  )
        40           Ti1 tau(  40) = (   3.3204229   0.0006979   9.1540291  )
        41           Ti1 tau(  41) = (   3.3226256   2.9815539   9.1563990  )
        42           Ti1 tau(  42) = (   0.0414996   4.4578595   9.2720048  )
        43           Ti1 tau(  43) = (   0.0419130   1.4910583   9.2667342  )
        44           Ti1 tau(  44) = (   6.5463313   0.0151476  12.4833176  )
        45           Ti1 tau(  45) = (   3.2510826   4.4792010  12.5152252  )
        46           Ti1 tau(  46) = (   3.2519543   1.5009035  12.5151888  )
        47           Ti1 tau(  47) = (   6.5510796   2.9946678  12.5453677  )
        48           Ti1 tau(  48) = (   3.2768179   2.9983465  15.7429562  )
        49           Ti1 tau(  49) = (   3.2517467   0.0279395  15.7976682  )
        50           Ti1 tau(  50) = (   6.5407926   4.5826425  15.9111250  )
        51           Ti1 tau(  51) = (   6.5448107   1.3670631  15.9596882  )
        52           N1  tau(  52) = (   4.6962475   1.0170953  19.6889386  )
        53           N1  tau(  53) = (   5.1479752   2.0001232  19.2934520  )

     number of k points=    10  Fermi-Dirac smearing, width (Ry)=  0.0073
                       cart. coord. in units 2pi/alat
        k(    1) = (   0.0000000   0.0000000   0.0000000), wk =   0.1250000
        k(    2) = (   0.0000000   0.0419351   0.0000000), wk =   0.2500000
        k(    3) = (   0.0000000  -0.0838702   0.0000000), wk =   0.1250000
        k(    4) = (   0.0379955   0.0000049   0.0000000), wk =   0.2500000
        k(    5) = (   0.0379955   0.0419400   0.0000000), wk =   0.2500000
        k(    6) = (   0.0379955  -0.0838652   0.0000000), wk =   0.2500000
        k(    7) = (   0.0379955  -0.0419301   0.0000000), wk =   0.2500000
        k(    8) = (  -0.0759910  -0.0000099   0.0000000), wk =   0.1250000
        k(    9) = (  -0.0759910   0.0419252   0.0000000), wk =   0.2500000
        k(   10) = (  -0.0759910  -0.0838800   0.0000000), wk =   0.1250000

     Initial potential from superposition of free atoms

     starting charge  383.99917, renormalised to  400.00000

     negative rho (up, down):  1.647E-02 0.000E+00

     %%%%%%%%%%%%%%%%%%%%%%%%%%%%%%%%%%%%%%%%%%%%%%%%%%%%%%%%%%%%%%%%%%%%%%%%
     %                                                                      %
     % You are using vdW-DF, which was implemented by the Thonhauser group. %
     % Please cite the following two papers that made this development      %
     % possible and the two reviews that describe the various versions:     %
     %                                                                      %
     %   T. Thonhauser et al., PRL 115, 136402 (2015).                      %
     %   T. Thonhauser et al., PRB 76, 125112 (2007).                       %
     %   K. Berland et al., Rep. Prog. Phys. 78, 066501 (2015).             %
     %   D.C. Langreth et al., J. Phys.: Condens. Matter 21, 084203 (2009). %
     %                                                                      %
     %                                                                      %
     % If you are calculating the stress with vdW-DF, please also cite:     %
     %                                                                      %
     %   R. Sabatini et al., J. Phys.: Condens. Matter 24, 424209 (2012).   %
     %                                                                      %
     %%%%%%%%%%%%%%%%%%%%%%%%%%%%%%%%%%%%%%%%%%%%%%%%%%%%%%%%%%%%%%%%%%%%%%%%

     Adding external electric field

     Computed dipole along edir(3) :
        Dipole              -12.5100 Ry au,        -31.7972 Debye
        Dipole field         -0.0236 Ry au,

        Potential amp.        2.1884 Ry
        Total length         46.3494 bohr

     Starting wfcs are  302 atomic wfcs
  @ DRIVER MODE: Message from server: STATUS
  @ DRIVER MODE: Message from server: POSDATA
  @ DRIVER MODE: Reading and sharing cell
  @ DRIVER MODE: Reading and sharing positions
  @ DRIVER MODE: Received positions

     Self-consistent Calculation

     iteration #  1     ecut=    29.40 Ry     beta= 0.05
     Davidson diagonalization with overlap
     c_bands:  3 eigenvalues not converged
     c_bands:  1 eigenvalues not converged
     c_bands:  4 eigenvalues not converged
     c_bands:  3 eigenvalues not converged
     c_bands:  5 eigenvalues not converged
     c_bands:  5 eigenvalues not converged
     c_bands:  2 eigenvalues not converged
     c_bands:  1 eigenvalues not converged
     ethr =  1.00E-05,  avg # of iterations = 20.9

[...]

     total energy              =   -2397.09697041 Ry
     estimated scf accuracy    <    6493.77630922 Ry

     iteration #  2     ecut=    29.40 Ry     beta= 0.05
     Davidson diagonalization with overlap
     ethr =  1.00E-02,  avg # of iterations = 24.2

[...]

     iteration # 71     ecut=    29.40 Ry     beta= 0.05
     Davidson diagonalization with overlap
     c_bands:  1 eigenvalues not converged
     c_bands:  1 eigenvalues not converged
     c_bands:  1 eigenvalues not converged
     c_bands:  1 eigenvalues not converged
     ethr =  1.75E-09,  avg # of iterations = 18.2

[...]

     total energy              =   -2970.16555767 Ry
     estimated scf accuracy    <       0.00000011 Ry

     iteration # 80     ecut=    29.40 Ry     beta= 0.05
     Davidson diagonalization with overlap
     ethr =  2.76E-11,  avg # of iterations = 14.3

     negative rho (up, down):  1.635E-02 0.000E+00

     Adding external electric field

     Computed dipole along edir(3) :
        Dipole                0.8234 Ry au,          2.0929 Debye
        Dipole field          0.0016 Ry au,

        Potential amp.       -0.1440 Ry
        Total length         46.3494 bohr

     End of self-consistent calculation

          k = 0.0000 0.0000 0.0000 ( 18029 PWs)   bands (ev):

   -55.5646 -55.5344 -55.5286 -55.5000 -55.4606 -55.4545 -55.4415 -55.4079
   -55.4026 -55.3885 -55.3684 -55.3600 -55.3475 -55.3137 -54.6273 -54.5932
   -32.1347 -32.0659 -32.0298 -31.9383 -31.8849 -31.8780 -31.8738 -31.8571
   -31.8227 -31.8130 -31.7770 -31.7758 -31.7687 -31.7490 -31.7404 -31.7182
   -31.7152 -31.6997 -31.6911 -31.6884 -31.6867 -31.6797 -31.6593 -31.6506
   -31.6497 -31.6313 -31.6301 -31.5999 -31.5965 -31.5916 -31.5758 -31.5535
   -31.5532 -31.5514 -31.5430 -31.5320 -31.5280 -31.5015 -31.4914 -31.4827
   -31.4711 -31.4582 -31.0396 -30.9365 -30.9150 -30.8559 -30.7695 -30.6585
   -21.0978 -20.3001 -16.3895 -16.1335 -15.9864 -15.8877 -15.7822 -15.6461
   -15.6098 -15.5033 -15.3736 -15.2907 -15.2372 -15.2261 -15.2122 -15.2015
   -15.1829 -15.1796 -15.1217 -15.0919 -15.0672 -15.0529 -15.0448 -15.0095
   -14.9542 -14.9474 -14.9296 -14.7936 -14.7258 -14.6662 -14.3624 -14.2541
   -13.1278 -13.0083  -8.5290  -6.8007  -5.6623  -4.5342  -4.0279  -3.7458
    -3.7173  -3.5722  -3.4975  -3.4793  -3.4284  -3.3091  -3.1569  -2.9957
    -2.9111  -2.8480  -2.8200  -2.7698  -2.7306  -2.6999  -2.5250  -2.5124
    -2.4810  -2.4562  -2.4385  -2.4326  -2.4023  -2.3342  -2.3127  -2.3080
    -2.2799  -2.1481  -2.1299  -2.0335  -1.9904  -1.9618  -1.9029  -1.8885
    -1.8836  -1.8532  -1.8327  -1.8190  -1.8147  -1.7757  -1.5918  -1.5904
    -1.4704  -1.4279  -1.3454  -1.2953  -1.1244  -1.1222  -1.0678  -1.0505
    -1.0098  -0.9698  -0.9649  -0.9228  -0.8077  -0.7214  -0.6741  -0.6032
    -0.5652  -0.5002  -0.4653  -0.3620  -0.3527  -0.3396  -0.3224  -0.2024
    -0.1352  -0.0951  -0.0632  -0.0184  -0.0056   0.0939   0.1120   0.1931
     0.2004   0.2581   0.2601   0.3640   0.3808   0.3825   0.4081   0.4277
     0.5149   0.5868   0.5913   0.6066   0.7759   0.9662   0.9934   1.0362
     1.2861   1.3885   1.3989   1.5349   1.5578   1.9857   2.0412   3.5312
     3.5994   3.6386   3.6560   3.6711   3.7382   3.9942   4.0208   4.0390
     4.0528   4.0627

[...]

          k = 0.0380-0.0419 0.0000 ( 17876 PWs)   bands (ev):

[...]

          k =-0.0760-0.0000 0.0000 ( 17886 PWs)   bands (ev):

[...]

          k =-0.0760-0.0839 0.0000 ( 17948 PWs)   bands (ev):

   -55.5472 -55.5458 -55.5191 -55.5151 -55.4572 -55.4470 -55.4349 -55.4153
   -55.3955 -55.3864 -55.3843 -55.3629 -55.3315 -55.3297 -54.6102 -54.6102
   -31.9868 -31.9386 -31.9368 -31.8573 -31.8466 -31.8428 -31.8239 -31.8119
   -31.8042 -31.7839 -31.7674 -31.7651 -31.7603 -31.7207 -31.7173 -31.7085
   -31.7030 -31.7020 -31.6927 -31.6874 -31.6865 -31.6858 -31.6723 -31.6505
   -31.6478 -31.6468 -31.6447 -31.6418 -31.6379 -31.6356 -31.6331 -31.6073
   -31.6050 -31.5959 -31.5848 -31.5843 -31.5729 -31.5568 -31.5553 -31.5441
   -31.5177 -31.5149 -30.9276 -30.9275 -30.8523 -30.8522 -30.8128 -30.8127
   -21.0957 -20.2997 -15.9424 -15.8053 -15.7452 -15.5686 -15.5606 -15.5533
   -15.5283 -15.3920 -15.3819 -15.3567 -15.3284 -15.3158 -15.3006 -15.2923
   -15.2575 -15.1573 -15.1554 -15.1469 -15.1437 -15.0821 -15.0789 -15.0641
   -15.0476 -15.0078 -15.0072 -14.9941 -14.9902 -14.8245 -14.7259 -14.2616
   -13.1096 -13.1088  -8.5190  -6.8047  -5.6697  -4.5144  -3.9986  -3.6483
    -3.0828  -3.0390  -3.0071  -2.7825  -2.7669  -2.7281  -2.6937  -2.6365
    -2.5616  -2.5509  -2.5470  -2.4797  -2.4712  -2.4607  -2.4572  -2.4443
    -2.3915  -2.3886  -2.3507  -2.3458  -2.3006  -2.2727  -2.2614  -2.2374
    -2.2269  -2.2265  -2.2058  -2.1889  -2.1737  -2.1680  -2.0599  -2.0061
    -1.9229  -1.8953  -1.8056  -1.7908  -1.7760  -1.6986  -1.6629  -1.6403
    -1.5780  -1.5750  -1.5039  -1.3813  -1.3623  -1.3549  -1.2816  -1.2263
    -1.1970  -1.1517  -1.1014  -1.0432  -1.0319  -0.9456  -0.8922  -0.8735
    -0.7676  -0.7559  -0.7040  -0.5941  -0.5609  -0.5589  -0.5543  -0.5407
    -0.4656  -0.4483  -0.3988  -0.3584  -0.3096  -0.2847  -0.2642  -0.0650
    -0.0507   0.0199   0.1212   0.1598   0.3267   0.3573   0.3851   0.4576
     0.5026   0.5137   0.5971   0.7069   0.7128   0.7490   0.8226   0.8615
     0.8698   0.9085   1.4876   1.7506   1.7513   1.8548   1.8580   3.6811
     3.7712   3.7847   3.8159   3.8635   3.9543   4.0399   4.0570   4.0841
     4.0926   4.1709

     the Fermi energy is     3.5871 ev

!    total energy              =   -2970.16556465 Ry
     estimated scf accuracy    <       0.00000005 Ry
     smearing contrib. (-TS)   =      -0.03780023 Ry
     internal energy E=F+TS    =   -2970.12776443 Ry

     The total energy is F=E-TS. E is the sum of the following terms:
     one-electron contribution =  -23546.56527003 Ry
     hartree contribution      =   11865.03539200 Ry
     xc contribution           =    -491.70534130 Ry
     ewald contribution        =    9203.10617541 Ry
     electric field correction =       0.00127949 Ry

     convergence has been achieved in  80 iterations

     Forces acting on atoms (cartesian axes, Ry/au):

     atom    1 type  1   force =     0.00048915    0.00001068    0.00076424
     atom    2 type  2   force =     0.00067799   -0.00006360    0.00024187
     atom    3 type  2   force =     0.00004124   -0.00034545   -0.00027915
     atom    4 type  3   force =     0.00006371   -0.00000621    0.10503638
     atom    5 type  3   force =     0.00004529    0.00001668    0.10503776
     atom    6 type  3   force =    -0.06776626   -0.00001777   -0.02683189
     atom    7 type  3   force =    -0.06780342   -0.00059658   -0.02686808
     atom    8 type  3   force =     0.06764505    0.00042817   -0.02689008
     atom    9 type  3   force =     0.06767856   -0.00016478   -0.02692654
     atom   10 type  3   force =     0.00072169    0.00002027    0.05053441
     atom   11 type  3   force =     0.00077590    0.00000877    0.05060761
     atom   12 type  3   force =     0.00061168   -0.00003579   -0.02309197
     atom   13 type  3   force =     0.00057415   -0.00017302   -0.02182080
     atom   14 type  3   force =    -0.01558391   -0.00017993    0.00500831
     atom   15 type  3   force =    -0.01565012    0.00007887    0.00497571
     atom   16 type  3   force =     0.01436117    0.00025441    0.00478327
     atom   17 type  3   force =     0.01443953    0.00059301    0.00479244
     atom   18 type  3   force =    -0.00006964    0.00001101   -0.00007239
     atom   19 type  3   force =    -0.00013464   -0.00001266   -0.00021052
     atom   20 type  3   force =    -0.00012191    0.00013941   -0.00007062
     atom   21 type  3   force =     0.00004464   -0.00012094    0.00011973
     atom   22 type  3   force =     0.00026427    0.00026213    0.00001016
     atom   23 type  3   force =     0.00001864    0.00003926    0.00008784
     atom   24 type  3   force =    -0.00017331    0.00012747    0.00018945
     atom   25 type  3   force =     0.00006233   -0.00012893    0.00011647
     atom   26 type  3   force =     0.00023334   -0.00034835   -0.00001174
     atom   27 type  3   force =    -0.00009211    0.00104440   -0.00012720
     atom   28 type  3   force =    -0.00008703    0.00055846   -0.00003245
     atom   29 type  3   force =     0.00031638   -0.00050695    0.00019689
     atom   30 type  3   force =    -0.00003641    0.00014867   -0.00049271
     atom   31 type  3   force =     0.00041786    0.00030443    0.00027847
     atom   32 type  3   force =    -0.00037899    0.00020051    0.00030868
     atom   33 type  3   force =     0.00038562    0.00021796   -0.00039547
     atom   34 type  3   force =     0.00001077    0.00059973    0.00005380
     atom   35 type  3   force =    -0.00087971   -0.00002266   -0.00093891
     atom   36 type  4   force =    -0.00022025    0.00010680    0.09293807
     atom   37 type  4   force =    -0.00015445   -0.00012685    0.09679544
     atom   38 type  4   force =    -0.00010671    0.00036684   -0.18353579
     atom   39 type  4   force =    -0.00003804   -0.00058757   -0.18366844
     atom   40 type  4   force =     0.00001885    0.00004735    0.00014837
     atom   41 type  4   force =     0.00018133   -0.00002156    0.00005564
     atom   42 type  4   force =    -0.00037929    0.00013690   -0.00012338
     atom   43 type  4   force =    -0.00022466    0.00028718    0.00012470
     atom   44 type  4   force =     0.00018554    0.00013075    0.00035183
     atom   45 type  4   force =    -0.00007222    0.00001534    0.00040397
     atom   46 type  4   force =    -0.00009746    0.00006537    0.00009255
     atom   47 type  4   force =    -0.00008609   -0.00007712   -0.00015009
     atom   48 type  4   force =    -0.00007308    0.00446755   -0.00021942
     atom   49 type  4   force =    -0.00014511   -0.00679956    0.00002354
     atom   50 type  4   force =    -0.00016467   -0.00048479   -0.00014495
     atom   51 type  4   force =     0.00025492   -0.00065341   -0.00056466
     atom   52 type  5   force =    -0.00108968   -0.00064950   -0.00082087
     atom   53 type  5   force =     0.00110955    0.00143559    0.00021054

     Total force =     0.368693     Total SCF correction =     0.000629
  @ DRIVER MODE: Message from server: STATUS
  @ DRIVER MODE: Message from server: GETFORCE
  @ DRIVER MODE: Returning v,forces,stress,ensemble

     Writing output data file ./calc.save/
  @ DRIVER MODE: Message from server: EXIT
  @ DRIVE MODE: Exiting

     General routines

     Parallel routines

   This run was terminated on:  17:26:13  14Sep2021

   JOB DONE.