     Program PWSCF v.6.7GPU starts on 11Oct2021 at 19: 1:23

     R & G space division:  proc/nbgrp/npool/nimage =       8
     Reading input from /storage/home/hcoda1/3/ntian30/research/carbon/CxH_vib/CH2_calc/ads_slab/CH2NHH_b/out_0006/pw.inp
Warning: card &CELL ignored
Warning: card   CELL_DYNAMICS='IPI', ignored
Warning: card / ignored

     Current dimensions of program PWSCF are:
     Max number of different atomic species (ntypx) = 10
     Max number of k-points (npk) =  40000
     Max angular momentum in pseudopotentials (lmaxx) =  3
     Presently no symmetry can be used with electric field

     Message from routine cell_base_init:
     DEPRECATED: use true lattice parameter, not A to a.u. conversion factor

     IMPORTANT: XC functional enforced from input :
     Exchange-correlation= BEEF-VDW
                           (   1   4  43  14   2   0   0)
     Any further DFT definition will be discarded
     Please, verify this is what you really want

  @ DRIVER MODE: Connecting to
 qe_1139763_3171005.sched-torque.pace.gatech.eduxxis1ncm_scratch
  using UNIX socket
  @ DRIVER MODE: Message from server: STATUS
  @ DRIVER MODE: Message from server: INIT
  @ DRIVER MODE: Receiving replica           0          -1
  @ DRIVER MODE: Receiving encoded integer          25
  @ DRIVER MODE:  SCF:  T  FORCE:  T  STRESS:  F  VC:  F  ENSEMBLE:  F
  @ DRIVER MODE:  SCF:  T  FORCE:  T  STRESS:  F  VC:  F  ENSEMBLE:  F

     Using Slab Decomposition

     bravais-lattice index     =            0
     lattice parameter (alat)  =       1.8897  a.u.
     unit-cell volume          =    6658.9804 (a.u.)^3
     number of atoms/cell      =           53
     number of atomic types    =            5
     number of electrons       =       391.00
     number of Kohn-Sham states=          205
     kinetic-energy cutoff     =      29.3995  Ry
     charge density cutoff     =     293.9946  Ry
     scf convergence threshold =      7.3E-08
     mixing beta               =       0.0500
     number of iterations used =            8  plain     mixing
     Exchange-correlation= BEEF-VDW
                           (   1   4  43  14   2   0   0)

     celldm(1)=   1.889726  celldm(2)=   0.000000  celldm(3)=   0.000000
     celldm(4)=   0.000000  celldm(5)=   0.000000  celldm(6)=   0.000000

     crystal axes: (cart. coord. in units of alat)
               a(1) = (   6.579727   0.000000   0.000000 )
               a(2) = (  -0.000775   5.961596   0.000000 )
               a(3) = (   0.000000   0.000000  25.155947 )

     reciprocal axes: (cart. coord. in units 2 pi/alat)
               b(1) = (  0.151982  0.000020  0.000000 )
               b(2) = (  0.000000  0.167740  0.000000 )
               b(3) = (  0.000000  0.000000  0.039752 )

     PseudoPot. # 1 for Ti read from file:
     /storage/coda1/p-amedford6/0/shared/rich_project_chbe-medford/medford-share/data/pseudos_module/espresso/nninc/pbe/van/Ti.UPF
     MD5 check sum: 8e4df49b7f0d34bbd5052bf3f5ea0213
     Pseudo is Ultrasoft, Zval = 12.0
     Generated by new atomic code, or converted to UPF format
     Using radial grid of  851 points,  6 beta functions with:
                l(1) =   0
                l(2) =   0
                l(3) =   1
                l(4) =   1
                l(5) =   2
                l(6) =   2
     Q(r) pseudized with  8 coefficients,  rinner =    1.000   1.000   1.000
                                                       1.000   1.000

     PseudoPot. # 2 for O  read from file:
     /storage/coda1/p-amedford6/0/shared/rich_project_chbe-medford/medford-share/data/pseudos_module/espresso/nninc/pbe/van/O.UPF
     MD5 check sum: 78c19812648e8988a0fe644b0f25305e
     Pseudo is Ultrasoft, Zval =  6.0
     Generated by new atomic code, or converted to UPF format
     Using radial grid of  737 points,  4 beta functions with:
                l(1) =   0
                l(2) =   0
                l(3) =   1
                l(4) =   1
     Q(r) pseudized with  8 coefficients,  rinner =    0.800   0.800   0.800

     PseudoPot. # 3 for H  read from file:
     /storage/coda1/p-amedford6/0/shared/rich_project_chbe-medford/medford-share/data/pseudos_module/espresso/nninc/pbe/van/H.UPF
     MD5 check sum: b5ee9d7bfd3a09ee7748110bda690ff7
     Pseudo is Ultrasoft, Zval =  1.0
     Generated by new atomic code, or converted to UPF format
     Using radial grid of  615 points,  1 beta functions with:
                l(1) =   0
     Q(r) pseudized with  8 coefficients,  rinner =    0.800

     PseudoPot. # 4 for N  read from file:
     /storage/coda1/p-amedford6/0/shared/rich_project_chbe-medford/medford-share/data/pseudos_module/espresso/nninc/pbe/van/N.UPF
     MD5 check sum: 90d10febe142ad51ac9d5be1deb811c4
     Pseudo is Ultrasoft, Zval =  5.0
     Generated by new atomic code, or converted to UPF format
     Using radial grid of  729 points,  4 beta functions with:
                l(1) =   0
                l(2) =   0
                l(3) =   1
                l(4) =   1
     Q(r) pseudized with  8 coefficients,  rinner =    0.800   0.800   0.800

     PseudoPot. # 5 for C  read from file:
     /storage/coda1/p-amedford6/0/shared/rich_project_chbe-medford/medford-share/data/pseudos_module/espresso/nninc/pbe/van/C.UPF
     MD5 check sum: 1a69bf6b8db32088f5b2163dbdb77a27
     Pseudo is Ultrasoft, Zval =  4.0
     Generated by new atomic code, or converted to UPF format
     Using radial grid of  721 points,  4 beta functions with:
                l(1) =   0
                l(2) =   0
                l(3) =   1
                l(4) =   1
     Q(r) pseudized with  8 coefficients,  rinner =    0.800   0.800   0.800

     atomic species   valence    mass     pseudopotential
        Ti1           12.00    47.86700     Ti( 1.00)
        O1             6.00    15.99900     O ( 1.00)
        H1             1.00     1.00800     H ( 1.00)
        N1             5.00    14.00700     N ( 1.00)
        C1             4.00    12.01100     C ( 1.00)

     No symmetry found

   Cartesian axes

     site n.     atom                  positions (alat units)
         1           Ti1 tau(   1) = (   0.0004258   2.9801865   6.0000000  )
         2           Ti1 tau(   2) = (   3.2906075   1.4906267   6.0002472  )
         3           O1  tau(   3) = (   0.0006271   0.0005054   7.9858123  )
         4           O1  tau(   4) = (   3.2906025   0.0005020   7.3038282  )
         5           O1  tau(   5) = (   4.5942328   1.4918067   9.2879030  )
         6           O1  tau(   6) = (   1.9868534   1.4903216   9.2879459  )
         7           Ti1 tau(   7) = (   3.2907910   2.8959150   9.1758416  )
         8           Ti1 tau(   8) = (   0.0015273   1.4827037   9.2680791  )
         9           O1  tau(   9) = (   3.3750462   0.0034689  11.3324641  )
        10           O1  tau(  10) = (   0.0116148   5.9584955  10.6183126  )
        11           O1  tau(  11) = (   1.3977860   1.4758343  12.6375763  )
        12           O1  tau(  12) = (   5.4232152   1.4913549  12.6657899  )
        13           Ti1 tau(  13) = (   0.0691229   2.9530050  12.5389017  )
        14           Ti1 tau(  14) = (   3.3643908   1.4039863  12.4577757  )
        15           O1  tau(  15) = (   0.1477665   0.0132832  14.6652528  )
        16           O1  tau(  16) = (   3.5189244   0.0045933  13.9158019  )
        17           O1  tau(  17) = (   4.7861523   1.5333885  16.1913275  )
        18           O1  tau(  18) = (   2.2541876   1.4026900  15.9427082  )
        19           Ti1 tau(  19) = (   3.5811307   2.9972434  16.0687679  )
        20           Ti1 tau(  20) = (   0.2998503   1.4255696  15.8726171  )
        21           O1  tau(  21) = (   3.2904802   0.0005063   4.7018136  )
        22           O1  tau(  22) = (   0.2643450   0.0038197  17.1846268  )
        23           O1  tau(  23) = (   1.3043587   1.4918075   6.0039043  )
        24           O1  tau(  24) = (   5.2767064   1.4903225   6.0039473  )
        25           Ti1 tau(  25) = (   0.0000382   5.9609847   6.0000000  )
        26           Ti1 tau(  26) = (   3.2902200   4.4714249   6.0002472  )
        27           O1  tau(  27) = (   0.0002396   2.9813036   7.9858123  )
        28           O1  tau(  28) = (   3.2902150   2.9813002   7.3038282  )
        29           O1  tau(  29) = (   4.5938453   4.4726049   9.2879030  )
        30           O1  tau(  30) = (   1.9864658   4.4711199   9.2879459  )
        31           Ti1 tau(  31) = (   3.2891106   5.8743827   9.1763621  )
        32           Ti1 tau(  32) = (   0.0006254   4.4649316   9.2693709  )
        33           O1  tau(  33) = (   3.3836021   2.9593565  11.3526375  )
        34           O1  tau(  34) = (   0.0092240   2.9805883  10.6323155  )
        35           O1  tau(  35) = (   1.3957467   4.4736095  12.6396340  )
        36           O1  tau(  36) = (   5.4261019   4.4541359  12.6685409  )
        37           Ti1 tau(  37) = (   0.0939275   5.9312067  12.4916740  )
        38           Ti1 tau(  38) = (   3.3665170   4.3046527  12.6650499  )
        39           O1  tau(  39) = (   0.1734719   2.9828917  14.8532074  )
        40           O1  tau(  40) = (   3.4150578   3.0309863  13.9715028  )
        41           O1  tau(  41) = (   4.7877001   4.4493464  16.1994792  )
        42           O1  tau(  42) = (   2.2536850   4.5881152  15.9586447  )
        43           Ti1 tau(  43) = (   3.5332629   0.0183730  15.6991940  )
        44           Ti1 tau(  44) = (   0.2986595   4.6220906  15.9451660  )
        45           O1  tau(  45) = (   3.2900926   2.9813045   4.7018136  )
        46           O1  tau(  46) = (   1.3039711   4.4726057   6.0039043  )
        47           O1  tau(  47) = (   5.2763189   4.4711207   6.0039473  )
        48           H1  tau(  48) = (   0.6716682   3.7174429  18.3717054  )
        49           H1  tau(  49) = (   0.7299512   2.1188458  18.2939656  )
        50           N1  tau(  50) = (   1.0883034   2.9530349  17.8291855  )
        51           C1  tau(  51) = (   2.6610371   2.9951180  18.0825860  )
        52           H1  tau(  52) = (   2.6895649   3.8224559  18.7561578  )
        53           H1  tau(  53) = (   2.7295784   2.2142559  18.8115579  )

     number of k points=    10  Fermi-Dirac smearing, width (Ry)=  0.0073
                       cart. coord. in units 2pi/alat
        k(    1) = (   0.0000000   0.0000000   0.0000000), wk =   0.1250000
        k(    2) = (   0.0000000   0.0419351   0.0000000), wk =   0.2500000
        k(    3) = (   0.0000000  -0.0838702   0.0000000), wk =   0.1250000
        k(    4) = (   0.0379955   0.0000049   0.0000000), wk =   0.2500000
        k(    5) = (   0.0379955   0.0419400   0.0000000), wk =   0.2500000
        k(    6) = (   0.0379955  -0.0838652   0.0000000), wk =   0.2500000
        k(    7) = (   0.0379955  -0.0419301   0.0000000), wk =   0.2500000
        k(    8) = (  -0.0759910  -0.0000099   0.0000000), wk =   0.1250000
        k(    9) = (  -0.0759910   0.0419252   0.0000000), wk =   0.2500000
        k(   10) = (  -0.0759910  -0.0838800   0.0000000), wk =   0.1250000

     Initial potential from superposition of free atoms

     starting charge  374.99916, renormalised to  391.00000

     negative rho (up, down):  1.819E-02 0.000E+00

     %%%%%%%%%%%%%%%%%%%%%%%%%%%%%%%%%%%%%%%%%%%%%%%%%%%%%%%%%%%%%%%%%%%%%%%%
     %                                                                      %
     % You are using vdW-DF, which was implemented by the Thonhauser group. %
     % Please cite the following two papers that made this development      %
     % possible and the two reviews that describe the various versions:     %
     %                                                                      %
     %   T. Thonhauser et al., PRL 115, 136402 (2015).                      %
     %   T. Thonhauser et al., PRB 76, 125112 (2007).                       %
     %   K. Berland et al., Rep. Prog. Phys. 78, 066501 (2015).             %
     %   D.C. Langreth et al., J. Phys.: Condens. Matter 21, 084203 (2009). %
     %                                                                      %
     %                                                                      %
     % If you are calculating the stress with vdW-DF, please also cite:     %
     %                                                                      %
     %   R. Sabatini et al., J. Phys.: Condens. Matter 24, 424209 (2012).   %
     %                                                                      %
     %%%%%%%%%%%%%%%%%%%%%%%%%%%%%%%%%%%%%%%%%%%%%%%%%%%%%%%%%%%%%%%%%%%%%%%%

     Adding external electric field

     Computed dipole along edir(3) :
        Dipole               -5.7430 Ry au,        -14.5972 Debye
        Dipole field         -0.0108 Ry au,

        Potential amp.        1.0046 Ry
        Total length         46.3494 bohr

     Starting wfcs are  296 atomic wfcs
  @ DRIVER MODE: Message from server: STATUS
  @ DRIVER MODE: Message from server: POSDATA
  @ DRIVER MODE: Reading and sharing cell
  @ DRIVER MODE: Reading and sharing positions
  @ DRIVER MODE: Received positions

     Self-consistent Calculation

     iteration #  1     ecut=    29.40 Ry     beta= 0.05
     Davidson diagonalization with overlap
     c_bands:  3 eigenvalues not converged
     c_bands:  1 eigenvalues not converged
     c_bands:  5 eigenvalues not converged
     c_bands:  2 eigenvalues not converged
     c_bands:  2 eigenvalues not converged
     c_bands:  2 eigenvalues not converged
     c_bands:  2 eigenvalues not converged
     ethr =  1.00E-05,  avg # of iterations = 20.9

[...]

     total energy              =   -2766.68219739 Ry
     estimated scf accuracy    <    1686.27646868 Ry

[...]

     iteration #  3     ecut=    29.40 Ry     beta= 0.05
     Davidson diagonalization with overlap
     ethr =  1.00E-02,  avg # of iterations = 14.5

[...]

     iteration # 46     ecut=    29.40 Ry     beta= 0.05
     Davidson diagonalization with overlap
     c_bands:  2 eigenvalues not converged
     ethr =  1.43E-10,  avg # of iterations = 10.9

[...]

     total energy              =   -2920.27061303 Ry
     estimated scf accuracy    <       0.00000008 Ry

     iteration # 51     ecut=    29.40 Ry     beta= 0.05
     Davidson diagonalization with overlap
     ethr =  2.01E-11,  avg # of iterations = 10.3

     negative rho (up, down):  1.844E-02 0.000E+00

     Adding external electric field

     Computed dipole along edir(3) :
        Dipole                0.8714 Ry au,          2.2149 Debye
        Dipole field          0.0016 Ry au,

        Potential amp.       -0.1524 Ry
        Total length         46.3494 bohr

     End of self-consistent calculation

          k = 0.0000 0.0000 0.0000 ( 18029 PWs)   bands (ev):

   -55.8829 -55.8488 -55.7533 -55.7149 -55.7096 -55.7075 -55.6963 -55.6757
   -55.6685 -55.6314 -55.6293 -55.6261 -55.5927 -55.5619 -54.8634 -54.8294
   -32.3687 -32.2801 -32.2432 -32.2121 -32.1763 -32.1736 -32.1554 -32.1549
   -32.1285 -32.0766 -32.0356 -32.0177 -32.0084 -31.9949 -31.9936 -31.9905
   -31.9784 -31.9474 -31.9405 -31.9298 -31.9211 -31.9092 -31.8985 -31.8900
   -31.8785 -31.8746 -31.8532 -31.8528 -31.8461 -31.8445 -31.8376 -31.8283
   -31.8217 -31.8215 -31.8193 -31.8045 -31.7913 -31.7798 -31.7783 -31.7669
   -31.7114 -31.6255 -31.2699 -31.1826 -31.1602 -31.0873 -31.0009 -30.8891
   -16.5726 -16.4016 -16.1947 -16.0679 -16.0502 -15.8568 -15.7640 -15.6864
   -15.4923 -15.4526 -15.4243 -15.4087 -15.3977 -15.3958 -15.3789 -15.3595
   -15.3392 -15.3296 -15.3081 -15.2556 -15.2490 -15.2348 -15.2159 -15.2126
   -15.0282 -15.0156 -14.9797 -14.9436 -14.8652 -14.5644 -13.3626 -13.2461
    -8.9148  -5.5989  -3.9592  -3.8899  -3.8159  -3.7903  -3.7765  -3.6561
    -3.4830  -3.2954  -3.2070  -3.1728  -3.0572  -3.0113  -2.9154  -2.8375
    -2.8235  -2.7615  -2.7205  -2.6980  -2.6713  -2.6596  -2.6063  -2.5835
    -2.5766  -2.4424  -2.3850  -2.3653  -2.3026  -2.2768  -2.2495  -2.2057
    -2.1999  -2.1861  -2.1694  -2.1324  -2.1035  -2.0867  -2.0055  -1.9347
    -1.8949  -1.8555  -1.6270  -1.5249  -1.4991  -1.4643  -1.4102  -1.3785
    -1.3338  -1.2952  -1.2791  -1.2605  -1.1921  -1.1025  -1.0213  -1.0135
    -0.9120  -0.8870  -0.8005  -0.7250  -0.7079  -0.6446  -0.6218  -0.6176
    -0.6132  -0.5219  -0.4700  -0.3872  -0.3380  -0.3001  -0.2345  -0.1683
    -0.1122  -0.1004  -0.0621  -0.0191   0.0233   0.0342   0.0591   0.0890
     0.1271   0.1650   0.2044   0.2860   0.3279   0.3621   0.4090   0.4214
     0.5238   0.7343   0.7744   0.9131   1.0937   1.1626   1.1877   1.2069
     1.3541   1.7308   1.7765   3.1989   3.3437   3.3614   3.4330   3.4630
     3.5155   3.6867   3.7729   3.8139   3.8702

[...]

          k = 0.0380-0.0419 0.0000 ( 17876 PWs)   bands (ev):

[...]

          k =-0.0760-0.0000 0.0000 ( 17886 PWs)   bands (ev):

[...]

          k =-0.0760-0.0839 0.0000 ( 17948 PWs)   bands (ev):

   -55.8660 -55.8656 -55.7421 -55.7258 -55.7050 -55.6926 -55.6923 -55.6918
   -55.6602 -55.6345 -55.6343 -55.6217 -55.6023 -55.5636 -54.8466 -54.8461
   -32.2043 -32.1840 -32.1838 -32.1593 -32.1589 -32.0992 -32.0665 -32.0484
   -32.0329 -32.0260 -32.0231 -32.0161 -32.0003 -31.9862 -31.9855 -31.9837
   -31.9759 -31.9682 -31.9608 -31.9469 -31.9452 -31.9359 -31.9325 -31.9244
   -31.9112 -31.9022 -31.8981 -31.8935 -31.8814 -31.8768 -31.8690 -31.8681
   -31.8675 -31.8599 -31.8562 -31.8463 -31.8432 -31.8311 -31.8124 -31.8122
   -31.7969 -31.6258 -31.1730 -31.1727 -31.0830 -31.0823 -31.0444 -31.0439
   -16.1454 -15.9765 -15.8673 -15.8525 -15.7892 -15.6791 -15.6661 -15.6395
   -15.6202 -15.5837 -15.5640 -15.5506 -15.5024 -15.4633 -15.4264 -15.4019
   -15.3982 -15.3515 -15.3471 -15.3373 -15.3151 -15.2809 -15.2722 -15.2077
   -15.1991 -15.0979 -15.0825 -15.0674 -15.0145 -14.8961 -13.3480 -13.3478
    -8.9208  -5.5694  -3.8130  -3.3035  -3.2058  -3.0691  -3.0013  -2.9612
    -2.9128  -2.8799  -2.8585  -2.8399  -2.7898  -2.7758  -2.7444  -2.7011
    -2.6828  -2.6656  -2.6454  -2.6189  -2.5978  -2.5862  -2.5675  -2.5497
    -2.5172  -2.5019  -2.4754  -2.4605  -2.4503  -2.4385  -2.4299  -2.4184
    -2.2340  -2.1425  -2.0506  -2.0417  -2.0319  -2.0063  -1.9791  -1.9640
    -1.9468  -1.9251  -1.8994  -1.8702  -1.8400  -1.5865  -1.5575  -1.5225
    -1.4646  -1.4267  -1.3793  -1.3652  -1.3330  -1.3037  -1.2226  -1.1862
    -1.1592  -1.0814  -1.0091  -0.9451  -0.8996  -0.8622  -0.8315  -0.8197
    -0.7802  -0.7415  -0.7326  -0.7082  -0.6922  -0.5854  -0.5834  -0.5806
    -0.4358  -0.3991  -0.3783  -0.2857  -0.2660  -0.0866  -0.0276   0.0032
     0.1367   0.1475   0.1838   0.2940   0.3213   0.3666   0.4232   0.4443
     0.5307   0.5828   0.6246   0.6642   0.6879   0.7046   1.1651   1.5249
     1.5307   1.5967   1.5969   3.5995   3.6404   3.7070   3.7328   3.7527
     3.7884   3.8108   3.8221   3.8674   3.8772

     the Fermi energy is     3.2376 ev

!    total energy              =   -2920.27071393 Ry
     estimated scf accuracy    <       0.00000004 Ry
     smearing contrib. (-TS)   =      -0.01953385 Ry
     internal energy E=F+TS    =   -2920.25118008 Ry

     The total energy is F=E-TS. E is the sum of the following terms:
     one-electron contribution =  -24543.16304265 Ry
     hartree contribution      =   12357.39413316 Ry
     xc contribution           =    -480.80835378 Ry
     ewald contribution        =    9746.32465019 Ry
     electric field correction =       0.00143301 Ry

     convergence has been achieved in  51 iterations

     Forces acting on atoms (cartesian axes, Ry/au):

     atom    1 type  1   force =     0.00006025   -0.00038337    0.09444813
     atom    2 type  1   force =    -0.00007034   -0.00123157   -0.17582956
     atom    3 type  2   force =     0.00046540   -0.00020881   -0.02135421
     atom    4 type  2   force =     0.00017763   -0.00092952    0.05145292
     atom    5 type  2   force =    -0.00541175    0.00100328   -0.00036154
     atom    6 type  2   force =     0.00990404    0.00143391    0.00527294
     atom    7 type  1   force =     0.00311392    0.00407785   -0.00384148
     atom    8 type  1   force =    -0.00264654    0.00537114    0.00462087
     atom    9 type  2   force =     0.00031736    0.00018503    0.00041964
     atom   10 type  2   force =     0.00290211    0.00077467   -0.01335820
     atom   11 type  2   force =     0.00010211    0.00028194   -0.00001624
     atom   12 type  2   force =    -0.00017014   -0.00005271   -0.00009232
     atom   13 type  1   force =    -0.00027129   -0.00028980    0.00135428
     atom   14 type  1   force =    -0.00061709    0.00041717   -0.00124731
     atom   15 type  2   force =     0.00027231    0.00006718   -0.00002590
     atom   16 type  2   force =     0.00004149   -0.00015556    0.00022350
     atom   17 type  2   force =     0.00029700   -0.00087985    0.00071293
     atom   18 type  2   force =     0.00008116    0.00017993   -0.00012665
     atom   19 type  1   force =    -0.00015044    0.00037194   -0.00091136
     atom   20 type  1   force =    -0.00018439    0.00166770   -0.00044030
     atom   21 type  2   force =     0.00004877   -0.00009754    0.10313759
     atom   22 type  2   force =    -0.00065035    0.00087830    0.00074923
     atom   23 type  2   force =    -0.07170178   -0.00014089   -0.02720015
     atom   24 type  2   force =     0.07176413    0.00034886   -0.02734673
     atom   25 type  1   force =    -0.00008886   -0.00021545    0.09392090
     atom   26 type  1   force =     0.00003837    0.00039865   -0.17579458
     atom   27 type  2   force =     0.00046609   -0.00026319   -0.02044943
     atom   28 type  2   force =     0.00023834   -0.00170856    0.05407987
     atom   29 type  2   force =    -0.00646430   -0.00169896    0.00027846
     atom   30 type  2   force =     0.01070508   -0.00156018    0.00559259
     atom   31 type  1   force =     0.00345179    0.00045666    0.00534916
     atom   32 type  1   force =    -0.00266826   -0.00669751    0.00503245
     atom   33 type  2   force =     0.00024519    0.00031136    0.00055623
     atom   34 type  2   force =     0.00503845   -0.00078912   -0.00877786
     atom   35 type  2   force =     0.00012172   -0.00001516   -0.00000201
     atom   36 type  2   force =    -0.00012995   -0.00002927   -0.00002609
     atom   37 type  1   force =     0.00074914   -0.00040844    0.00086041
     atom   38 type  1   force =    -0.00028455   -0.00120354   -0.00000378
     atom   39 type  2   force =    -0.00073570   -0.00015979    0.00046170
     atom   40 type  2   force =     0.00036856    0.00040224   -0.00007053
     atom   41 type  2   force =     0.00017068    0.00156000    0.00070996
     atom   42 type  2   force =     0.00059243    0.00037651    0.00002505
     atom   43 type  1   force =     0.00079444    0.00000828    0.00011150
     atom   44 type  1   force =     0.00004666   -0.00192398   -0.00016535
     atom   45 type  2   force =     0.00005460   -0.00002275    0.10331568
     atom   46 type  2   force =    -0.07169146   -0.00015280   -0.02722652
     atom   47 type  2   force =     0.07172858    0.00030071   -0.02733978
     atom   48 type  3   force =     0.00315157   -0.00557219   -0.00552823
     atom   49 type  3   force =     0.00045073   -0.00153116   -0.00042497
     atom   50 type  4   force =    -0.00344526    0.00721932    0.00538330
     atom   51 type  5   force =    -0.08507285   -0.00395299   -0.00037843
     atom   52 type  3   force =     0.03118381    0.05164515    0.00002866
     atom   53 type  3   force =     0.03331144   -0.04746310    0.00024153

     Total force =     0.382339     Total SCF correction =     0.000770
  @ DRIVER MODE: Message from server: STATUS
  @ DRIVER MODE: Message from server: GETFORCE
  @ DRIVER MODE: Returning v,forces,stress,ensemble

     Writing output data file ./calc.save/
  @ DRIVER MODE: Message from server: EXIT
  @ DRIVE MODE: Exiting

     General routines

     Parallel routines

   This run was terminated on:  19:19:53  11Oct2021

   JOB DONE.