     Program PWSCF v.6.7GPU starts on 23Aug2021 at 20:36:18

     R & G space division:  proc/nbgrp/npool/nimage =       6
     Reading input from /storage/home/hcoda1/3/ntian30/research/carbon/CH_vib/ads_slab/CHN2_b/out_0016/pw.inp
Warning: card &CELL ignored
Warning: card   CELL_DYNAMICS='IPI', ignored
Warning: card / ignored

     Current dimensions of program PWSCF are:
     Max number of different atomic species (ntypx) = 10
     Max number of k-points (npk) =  40000
     Max angular momentum in pseudopotentials (lmaxx) =  3
     Presently no symmetry can be used with electric field

     Message from routine cell_base_init:
     DEPRECATED: use true lattice parameter, not A to a.u. conversion factor

     IMPORTANT: XC functional enforced from input :
     Exchange-correlation= BEEF-VDW
                           (   1   4  43  14   2   0   0)
     Any further DFT definition will be discarded
     Please, verify this is what you really want

  @ DRIVER MODE: Connecting to
 qe_1139763_2632794.sched-torque.pace.gatech.edubooohc_k_scratch
  using UNIX socket
  @ DRIVER MODE: Message from server: STATUS
  @ DRIVER MODE: Message from server: INIT
  @ DRIVER MODE: Receiving replica           0          -1
  @ DRIVER MODE: Receiving encoded integer          25
  @ DRIVER MODE:  SCF:  T  FORCE:  T  STRESS:  F  VC:  F  ENSEMBLE:  F
  @ DRIVER MODE:  SCF:  T  FORCE:  T  STRESS:  F  VC:  F  ENSEMBLE:  F

     Using Slab Decomposition

     bravais-lattice index     =            0
     lattice parameter (alat)  =       1.8897  a.u.
     unit-cell volume          =    6658.9804 (a.u.)^3
     number of atoms/cell      =           51
     number of atomic types    =            5
     number of electrons       =       393.00
     number of Kohn-Sham states=          206
     kinetic-energy cutoff     =      29.3995  Ry
     charge density cutoff     =     293.9946  Ry
     scf convergence threshold =      7.3E-08
     mixing beta               =       0.0500
     number of iterations used =            8  plain     mixing
     Exchange-correlation= BEEF-VDW
                           (   1   4  43  14   2   0   0)

     celldm(1)=   1.889726  celldm(2)=   0.000000  celldm(3)=   0.000000
     celldm(4)=   0.000000  celldm(5)=   0.000000  celldm(6)=   0.000000

     crystal axes: (cart. coord. in units of alat)
               a(1) = (   6.579727   0.000000   0.000000 )
               a(2) = (  -0.000775   5.961596   0.000000 )
               a(3) = (   0.000000   0.000000  25.155947 )

     reciprocal axes: (cart. coord. in units 2 pi/alat)
               b(1) = (  0.151982  0.000020  0.000000 )
               b(2) = (  0.000000  0.167740  0.000000 )
               b(3) = (  0.000000  0.000000  0.039752 )

     PseudoPot. # 1 for Ti read from file:
     /storage/coda1/p-amedford6/0/shared/rich_project_chbe-medford/medford-share/data/pseudos_module/espresso/nninc/pbe/van/Ti.UPF
     MD5 check sum: 8e4df49b7f0d34bbd5052bf3f5ea0213
     Pseudo is Ultrasoft, Zval = 12.0
     Generated by new atomic code, or converted to UPF format
     Using radial grid of  851 points,  6 beta functions with:
                l(1) =   0
                l(2) =   0
                l(3) =   1
                l(4) =   1
                l(5) =   2
                l(6) =   2
     Q(r) pseudized with  8 coefficients,  rinner =    1.000   1.000   1.000
                                                       1.000   1.000

     PseudoPot. # 2 for O  read from file:
     /storage/coda1/p-amedford6/0/shared/rich_project_chbe-medford/medford-share/data/pseudos_module/espresso/nninc/pbe/van/O.UPF
     MD5 check sum: 78c19812648e8988a0fe644b0f25305e
     Pseudo is Ultrasoft, Zval =  6.0
     Generated by new atomic code, or converted to UPF format
     Using radial grid of  737 points,  4 beta functions with:
                l(1) =   0
                l(2) =   0
                l(3) =   1
                l(4) =   1
     Q(r) pseudized with  8 coefficients,  rinner =    0.800   0.800   0.800

     PseudoPot. # 3 for N  read from file:
     /storage/coda1/p-amedford6/0/shared/rich_project_chbe-medford/medford-share/data/pseudos_module/espresso/nninc/pbe/van/N.UPF
     MD5 check sum: 90d10febe142ad51ac9d5be1deb811c4
     Pseudo is Ultrasoft, Zval =  5.0
     Generated by new atomic code, or converted to UPF format
     Using radial grid of  729 points,  4 beta functions with:
                l(1) =   0
                l(2) =   0
                l(3) =   1
                l(4) =   1
     Q(r) pseudized with  8 coefficients,  rinner =    0.800   0.800   0.800

     PseudoPot. # 4 for C  read from file:
     /storage/coda1/p-amedford6/0/shared/rich_project_chbe-medford/medford-share/data/pseudos_module/espresso/nninc/pbe/van/C.UPF
     MD5 check sum: 1a69bf6b8db32088f5b2163dbdb77a27
     Pseudo is Ultrasoft, Zval =  4.0
     Generated by new atomic code, or converted to UPF format
     Using radial grid of  721 points,  4 beta functions with:
                l(1) =   0
                l(2) =   0
                l(3) =   1
                l(4) =   1
     Q(r) pseudized with  8 coefficients,  rinner =    0.800   0.800   0.800

     PseudoPot. # 5 for H  read from file:
     /storage/coda1/p-amedford6/0/shared/rich_project_chbe-medford/medford-share/data/pseudos_module/espresso/nninc/pbe/van/H.UPF
     MD5 check sum: b5ee9d7bfd3a09ee7748110bda690ff7
     Pseudo is Ultrasoft, Zval =  1.0
     Generated by new atomic code, or converted to UPF format
     Using radial grid of  615 points,  1 beta functions with:
                l(1) =   0
     Q(r) pseudized with  8 coefficients,  rinner =    0.800

     atomic species   valence    mass     pseudopotential
        Ti1           12.00    47.86700     Ti( 1.00)
        O1             6.00    15.99900     O ( 1.00)
        N1             5.00    14.00700     N ( 1.00)
        C1             4.00    12.01100     C ( 1.00)
        H1             1.00     1.00800     H ( 1.00)

     No symmetry found

   Cartesian axes

     site n.     atom                  positions (alat units)
         1           Ti1 tau(   1) = (   0.0004258   2.9801865   6.0000000  )
         2           Ti1 tau(   2) = (   3.2906075   1.4906267   6.0002472  )
         3           O1  tau(   3) = (   0.0006271   0.0005054   7.9858123  )
         4           O1  tau(   4) = (   3.2906025   0.0005020   7.3038282  )
         5           O1  tau(   5) = (   4.5942328   1.4918067   9.2879030  )
         6           O1  tau(   6) = (   1.9868534   1.4903216   9.2879459  )
         7           Ti1 tau(   7) = (   3.2907910   2.8959150   9.1758416  )
         8           Ti1 tau(   8) = (   0.0015273   1.4827037   9.2680791  )
         9           O1  tau(   9) = (   3.2950996   0.0139504  11.3317891  )
        10           O1  tau(  10) = (   0.0116148   5.9584955  10.6183126  )
        11           O1  tau(  11) = (   1.2919129   1.4990403  12.6236220  )
        12           O1  tau(  12) = (   5.2764399   1.5074276  12.6212280  )
        13           Ti1 tau(  13) = (   0.0528816   2.9532107  12.6238214  )
        14           Ti1 tau(  14) = (   3.3640876   1.5054642  12.4823551  )
        15           O1  tau(  15) = (   0.0126464   0.0517330  14.6735668  )
        16           O1  tau(  16) = (   3.2893787   0.0313947  13.9162352  )
        17           O1  tau(  17) = (   4.5455072   1.5470193  16.0571763  )
        18           O1  tau(  18) = (   2.0683839   1.5479149  16.0688871  )
        19           Ti1 tau(  19) = (   3.3004933   3.0285056  15.7062229  )
        20           Ti1 tau(  20) = (   6.5748692   1.5544668  15.8636821  )
        21           O1  tau(  21) = (   3.2904802   0.0005063   4.7018136  )
        22           O1  tau(  22) = (   0.0156978   0.0568370  17.2307755  )
        23           O1  tau(  23) = (   1.3043587   1.4918075   6.0039043  )
        24           O1  tau(  24) = (   5.2767064   1.4903225   6.0039473  )
        25           Ti1 tau(  25) = (   0.0000382   5.9609847   6.0000000  )
        26           Ti1 tau(  26) = (   3.2902200   4.4714249   6.0002472  )
        27           O1  tau(  27) = (   0.0002396   2.9813036   7.9858123  )
        28           O1  tau(  28) = (   3.2902150   2.9813002   7.3038282  )
        29           O1  tau(  29) = (   4.5938453   4.4726049   9.2879030  )
        30           O1  tau(  30) = (   1.9864658   4.4711199   9.2879459  )
        31           Ti1 tau(  31) = (   3.2891106   5.8743827   9.1763621  )
        32           Ti1 tau(  32) = (   0.0006254   4.4649316   9.2693709  )
        33           O1  tau(  33) = (   3.2930415   3.0011583  11.3325650  )
        34           O1  tau(  34) = (   0.0092240   2.9805883  10.6323155  )
        35           O1  tau(  35) = (   1.2898468   4.4882246  12.6384491  )
        36           O1  tau(  36) = (   5.2806636   4.4975927  12.6358184  )
        37           Ti1 tau(  37) = (   0.0525728   5.9296047  12.5528222  )
        38           Ti1 tau(  38) = (   3.3636738   4.4864912  12.4891182  )
        39           O1  tau(  39) = (   0.0107234   2.9627607  14.6747216  )
        40           O1  tau(  40) = (   3.2927234   3.0099296  13.9079960  )
        41           O1  tau(  41) = (   4.5395255   4.5218754  16.0742521  )
        42           O1  tau(  42) = (   2.0629885   4.5199598  16.0715304  )
        43           Ti1 tau(  43) = (   3.2878121   0.0461507  15.7166771  )
        44           Ti1 tau(  44) = (   0.0020781   4.6962996  16.1098215  )
        45           O1  tau(  45) = (   3.2900926   2.9813045   4.7018136  )
        46           O1  tau(  46) = (   1.3039711   4.4726057   6.0039043  )
        47           O1  tau(  47) = (   5.2763189   4.4711207   6.0039473  )
        48           N1  tau(  48) = (   0.1203982   2.9607606  18.6152809  )
        49           N1  tau(  49) = (   0.0157770   3.0106383  17.4001577  )
        50           C1  tau(  50) = (   0.0651646   2.9176078  19.8026698  )
        51           H1  tau(  51) = (   0.7310076   2.8879977  20.6380856  )

     number of k points=    10  Fermi-Dirac smearing, width (Ry)=  0.0073
                       cart. coord. in units 2pi/alat
        k(    1) = (   0.0000000   0.0000000   0.0000000), wk =   0.1250000
        k(    2) = (   0.0000000   0.0419351   0.0000000), wk =   0.2500000
        k(    3) = (   0.0000000  -0.0838702   0.0000000), wk =   0.1250000
        k(    4) = (   0.0379955   0.0000049   0.0000000), wk =   0.2500000
        k(    5) = (   0.0379955   0.0419400   0.0000000), wk =   0.2500000
        k(    6) = (   0.0379955  -0.0838652   0.0000000), wk =   0.2500000
        k(    7) = (   0.0379955  -0.0419301   0.0000000), wk =   0.2500000
        k(    8) = (  -0.0759910  -0.0000099   0.0000000), wk =   0.1250000
        k(    9) = (  -0.0759910   0.0419252   0.0000000), wk =   0.2500000
        k(   10) = (  -0.0759910  -0.0838800   0.0000000), wk =   0.1250000

     Initial potential from superposition of free atoms

     starting charge  376.99918, renormalised to  393.00000

     negative rho (up, down):  1.565E-02 0.000E+00

     %%%%%%%%%%%%%%%%%%%%%%%%%%%%%%%%%%%%%%%%%%%%%%%%%%%%%%%%%%%%%%%%%%%%%%%%
     %                                                                      %
     % You are using vdW-DF, which was implemented by the Thonhauser group. %
     % Please cite the following two papers that made this development      %
     % possible and the two reviews that describe the various versions:     %
     %                                                                      %
     %   T. Thonhauser et al., PRL 115, 136402 (2015).                      %
     %   T. Thonhauser et al., PRB 76, 125112 (2007).                       %
     %   K. Berland et al., Rep. Prog. Phys. 78, 066501 (2015).             %
     %   D.C. Langreth et al., J. Phys.: Condens. Matter 21, 084203 (2009). %
     %                                                                      %
     %                                                                      %
     % If you are calculating the stress with vdW-DF, please also cite:     %
     %                                                                      %
     %   R. Sabatini et al., J. Phys.: Condens. Matter 24, 424209 (2012).   %
     %                                                                      %
     %%%%%%%%%%%%%%%%%%%%%%%%%%%%%%%%%%%%%%%%%%%%%%%%%%%%%%%%%%%%%%%%%%%%%%%%

     Adding external electric field

     Computed dipole along edir(3) :
        Dipole               -7.5501 Ry au,        -19.1904 Debye
        Dipole field         -0.0142 Ry au,

        Potential amp.        1.3208 Ry
        Total length         46.3494 bohr

     Starting wfcs are  297 atomic wfcs
  @ DRIVER MODE: Message from server: STATUS
  @ DRIVER MODE: Message from server: POSDATA
  @ DRIVER MODE: Reading and sharing cell
  @ DRIVER MODE: Reading and sharing positions
  @ DRIVER MODE: Received positions

     Self-consistent Calculation

     iteration #  1     ecut=    29.40 Ry     beta= 0.05
     Davidson diagonalization with overlap
     c_bands:  1 eigenvalues not converged
     c_bands:  1 eigenvalues not converged
     c_bands:  1 eigenvalues not converged
     ethr =  1.00E-05,  avg # of iterations = 18.4

[...]

     total energy              =   -2707.50788361 Ry
     estimated scf accuracy    <    2541.58579283 Ry

[...]

     iteration #  3     ecut=    29.40 Ry     beta= 0.05
     Davidson diagonalization with overlap
     ethr =  1.00E-02,  avg # of iterations = 17.0

[...]

     iteration # 70     ecut=    29.40 Ry     beta= 0.05
     Davidson diagonalization with overlap
     c_bands:  1 eigenvalues not converged
     ethr =  2.01E-11,  avg # of iterations =  9.5

[...]

     total energy              =   -2936.63953676 Ry
     estimated scf accuracy    <       0.00000015 Ry

     iteration # 71     ecut=    29.40 Ry     beta= 0.05
     Davidson diagonalization with overlap
     ethr =  2.01E-11,  avg # of iterations =  5.8

     negative rho (up, down):  1.607E-02 0.000E+00

     Adding external electric field

     Computed dipole along edir(3) :
        Dipole                0.7493 Ry au,          1.9045 Debye
        Dipole field          0.0014 Ry au,

        Potential amp.       -0.1311 Ry
        Total length         46.3494 bohr

     End of self-consistent calculation

          k = 0.0000 0.0000 0.0000 ( 18029 PWs)   bands (ev):

   -55.9098 -55.9078 -55.8757 -55.8711 -55.7683 -55.7546 -55.7331 -55.7185
   -55.7169 -55.6846 -55.6844 -55.6507 -55.4676 -55.2233 -54.8880 -54.8540
   -32.4617 -32.3926 -32.2655 -32.2178 -32.2150 -32.2088 -32.2025 -32.1749
   -32.1524 -32.1266 -32.0956 -32.0861 -32.0811 -32.0620 -32.0540 -32.0475
   -32.0145 -32.0011 -31.9931 -31.9723 -31.9699 -31.9669 -31.9475 -31.9221
   -31.9154 -31.9076 -31.9048 -31.8957 -31.8934 -31.8864 -31.8810 -31.8595
   -31.8494 -31.8376 -31.8252 -31.8220 -31.7965 -31.6887 -31.6814 -31.5010
   -31.4533 -31.4523 -31.2952 -31.2068 -31.1844 -31.1119 -31.0254 -30.9144
   -19.2709 -16.6485 -16.3838 -16.1380 -16.0569 -16.0274 -15.9117 -15.7500
   -15.6329 -15.5717 -15.4715 -15.4657 -15.4462 -15.4128 -15.3826 -15.3576
   -15.3528 -15.3430 -15.3268 -15.2941 -15.2703 -15.2488 -15.2249 -15.1358
   -15.0786 -15.0439 -14.9833 -14.9756 -14.9661 -14.5046 -13.9356 -13.3906
   -13.2741  -6.6584  -5.3162  -4.2243  -4.0230  -3.9237  -3.8642  -3.8161
    -3.7604  -3.6565  -3.5196  -3.4501  -3.1369  -3.0846  -3.0726  -3.0478
    -3.0233  -2.8102  -2.7448  -2.7221  -2.6883  -2.6831  -2.6803  -2.6717
    -2.6549  -2.6222  -2.5009  -2.4449  -2.3728  -2.3328  -2.3037  -2.2960
    -2.2220  -2.1824  -2.1713  -2.1465  -2.1448  -2.1208  -2.1118  -2.0946
    -1.9571  -1.8903  -1.7682  -1.7032  -1.6693  -1.5182  -1.4908  -1.3868
    -1.3614  -1.3381  -1.3022  -1.2705  -1.2118  -1.0780  -1.0699  -1.0592
    -1.0274  -0.9287  -0.8758  -0.8029  -0.7469  -0.7282  -0.6782  -0.6663
    -0.6627  -0.6184  -0.4595  -0.3839  -0.3244  -0.3149  -0.2700  -0.2094
    -0.1796  -0.1013  -0.0590  -0.0290  -0.0154   0.0276   0.0644   0.0886
     0.0990   0.1088   0.1224   0.3080   0.3503   0.3684   0.4264   0.4440
     0.6162   0.6619   0.7462   0.8415   1.0595   1.1340   1.2182   1.3261
     1.3347   1.5834   1.7053   1.7509   3.2219   3.3115   3.3484   3.3570
     3.4642   3.5369   3.6784   3.6911   3.7114   3.7545

[...]

          k = 0.0380-0.0419 0.0000 ( 17876 PWs)   bands (ev):

[...]

          k =-0.0760-0.0000 0.0000 ( 17886 PWs)   bands (ev):

[...]

          k =-0.0760-0.0839 0.0000 ( 17948 PWs)   bands (ev):

   -55.8931 -55.8931 -55.8923 -55.8856 -55.7548 -55.7465 -55.7431 -55.7282
   -55.7024 -55.7001 -55.6693 -55.6661 -55.4664 -55.2243 -54.8710 -54.8709
   -32.2678 -32.2608 -32.2081 -32.2076 -32.1883 -32.1875 -32.1591 -32.1545
   -32.1149 -32.1073 -32.0811 -32.0790 -32.0399 -32.0325 -32.0238 -32.0220
   -32.0148 -32.0139 -32.0126 -32.0117 -32.0074 -32.0044 -31.9710 -31.9601
   -31.9511 -31.9454 -31.9312 -31.9276 -31.9027 -31.9019 -31.9002 -31.8977
   -31.8838 -31.8819 -31.8783 -31.8760 -31.8447 -31.6914 -31.6770 -31.5713
   -31.4744 -31.4550 -31.1971 -31.1970 -31.1080 -31.1079 -31.0687 -31.0687
   -19.2684 -16.0765 -16.0631 -15.8594 -15.8258 -15.8130 -15.8057 -15.6896
   -15.6104 -15.6024 -15.6013 -15.4993 -15.4874 -15.4793 -15.4473 -15.4372
   -15.4176 -15.4163 -15.3777 -15.3710 -15.3649 -15.3479 -15.3402 -15.2541
   -15.2280 -15.2238 -15.1923 -15.0788 -14.9441 -14.6848 -13.9414 -13.3760
   -13.3759  -6.6573  -5.2845  -4.1875  -3.9240  -3.3660  -3.3496  -3.0950
    -3.0633  -3.0542  -2.9992  -2.8269  -2.8095  -2.7858  -2.7638  -2.7333
    -2.7269  -2.7192  -2.7125  -2.6936  -2.6492  -2.6249  -2.5945  -2.5802
    -2.5657  -2.5653  -2.5349  -2.5220  -2.4806  -2.4661  -2.4559  -2.4330
    -2.4082  -2.3984  -2.2451  -2.1521  -2.1207  -2.0483  -2.0417  -2.0005
    -1.9745  -1.9594  -1.9355  -1.9004  -1.7582  -1.6437  -1.6079  -1.5932
    -1.5130  -1.4692  -1.3927  -1.3337  -1.2897  -1.2831  -1.2267  -1.1773
    -1.1166  -1.1053  -1.0419  -1.0090  -0.9715  -0.9386  -0.8983  -0.8684
    -0.8631  -0.7770  -0.7265  -0.7185  -0.6673  -0.6634  -0.6335  -0.5766
    -0.5573  -0.5293  -0.4065  -0.3866  -0.2791  -0.1971  -0.1357   0.0585
     0.1399   0.1645   0.2184   0.2885   0.3785   0.3922   0.4073   0.4132
     0.4616   0.5134   0.6198   0.6308   0.6692   0.7996   1.2547   1.4668
     1.4976   1.4984   1.5706   1.5708   3.5357   3.5454   3.5635   3.5797
     3.7351   3.7379   3.7573   3.7586   3.8930   3.9054

     the Fermi energy is     3.2236 ev

!    total energy              =   -2936.63955120 Ry
     estimated scf accuracy    <       0.00000007 Ry
     smearing contrib. (-TS)   =      -0.02145713 Ry
     internal energy E=F+TS    =   -2936.61809407 Ry

     The total energy is F=E-TS. E is the sum of the following terms:
     one-electron contribution =  -24291.83457219 Ry
     hartree contribution      =   12231.48975811 Ry
     xc contribution           =    -483.56676204 Ry
     ewald contribution        =    9607.29242254 Ry
     electric field correction =       0.00105951 Ry

     convergence has been achieved in  71 iterations

     Forces acting on atoms (cartesian axes, Ry/au):

     atom    1 type  1   force =     0.00009552   -0.00015300    0.09654247
     atom    2 type  1   force =    -0.00015314   -0.00057611   -0.17551136
     atom    3 type  2   force =    -0.00000254    0.00006372   -0.02461998
     atom    4 type  2   force =     0.00005186   -0.00130150    0.05295684
     atom    5 type  2   force =    -0.01198063    0.00010041    0.00366974
     atom    6 type  2   force =     0.01362802    0.00068920    0.00267708
     atom    7 type  1   force =    -0.00091631    0.00090127   -0.01118862
     atom    8 type  1   force =     0.00035885    0.00992347    0.02722029
     atom    9 type  2   force =    -0.00018682   -0.00023882    0.00014128
     atom   10 type  2   force =    -0.00142672    0.00227527   -0.01252198
     atom   11 type  2   force =    -0.00012682    0.00025715   -0.00027378
     atom   12 type  2   force =     0.00033379    0.00000304   -0.00057808
     atom   13 type  1   force =     0.00035244   -0.00122858   -0.00057739
     atom   14 type  1   force =     0.00042048    0.00000875    0.00000525
     atom   15 type  2   force =    -0.00002349   -0.00081008   -0.00040723
     atom   16 type  2   force =     0.00009641   -0.00047567    0.00004864
     atom   17 type  2   force =    -0.00052540   -0.00058064    0.00003791
     atom   18 type  2   force =    -0.00030401   -0.00068622   -0.00016173
     atom   19 type  1   force =     0.00004362   -0.00032538    0.00001599
     atom   20 type  1   force =     0.00011597   -0.00004671   -0.00002735
     atom   21 type  2   force =     0.00003583   -0.00003929    0.10325285
     atom   22 type  2   force =    -0.00033741   -0.00088837   -0.00093305
     atom   23 type  2   force =    -0.07149938   -0.00010173   -0.02767290
     atom   24 type  2   force =     0.07141506    0.00032172   -0.02767934
     atom   25 type  1   force =     0.00006759   -0.00013233    0.09604829
     atom   26 type  1   force =    -0.00022750   -0.00021752   -0.17567187
     atom   27 type  2   force =     0.00006150   -0.00012911   -0.02364360
     atom   28 type  2   force =     0.00005702   -0.00109149    0.05314095
     atom   29 type  2   force =    -0.01210725    0.00087280    0.00328287
     atom   30 type  2   force =     0.01366271    0.00134264    0.00233681
     atom   31 type  1   force =    -0.00082391    0.00331295   -0.01189125
     atom   32 type  1   force =     0.00043334   -0.01207660    0.02754628
     atom   33 type  2   force =     0.00022094    0.00016512    0.00009876
     atom   34 type  2   force =    -0.00107236    0.00252778   -0.02035396
     atom   35 type  2   force =     0.00016047   -0.00086956   -0.00030395
     atom   36 type  2   force =     0.00038480   -0.00059435   -0.00060178
     atom   37 type  1   force =     0.00006250    0.00116687   -0.00031060
     atom   38 type  1   force =     0.00033189    0.00032474   -0.00011609
     atom   39 type  2   force =    -0.00004938    0.00039121   -0.00084150
     atom   40 type  2   force =    -0.00001485    0.00005863   -0.00055736
     atom   41 type  2   force =     0.00047784   -0.00007913   -0.00008092
     atom   42 type  2   force =    -0.00050130    0.00012460    0.00082333
     atom   43 type  1   force =    -0.00010723   -0.00034354    0.00023964
     atom   44 type  1   force =    -0.00005625   -0.00022469   -0.00004731
     atom   45 type  2   force =     0.00004583   -0.00005374    0.10325816
     atom   46 type  2   force =    -0.07149775   -0.00006887   -0.02767406
     atom   47 type  2   force =     0.07142643    0.00034087   -0.02768511
     atom   48 type  3   force =     0.00010957    0.00061166   -0.00278116
     atom   49 type  3   force =     0.00010586   -0.00092858    0.00004094
     atom   50 type  4   force =    -0.00088403   -0.00126590    0.00167138
     atom   51 type  5   force =     0.00026837   -0.00025637   -0.00034244

     Total force =     0.367643     Total SCF correction =     0.000820
  @ DRIVER MODE: Message from server: STATUS
  @ DRIVER MODE: Message from server: GETFORCE
  @ DRIVER MODE: Returning v,forces,stress,ensemble

     Writing output data file ./calc.save/
  @ DRIVER MODE: Message from server: EXIT
  @ DRIVE MODE: Exiting

     General routines

     Parallel routines

   This run was terminated on:  21: 7:21  23Aug2021

   JOB DONE.