     Program PWSCF v.6.7GPU starts on  8Sep2021 at 23:10:54

     R & G space division:  proc/nbgrp/npool/nimage =      10
     Reading input from /storage/home/hcoda1/3/ntian30/research/carbon/CxH_vib/CH3_calc/ads_slab/CH3N2H_a/out_0004/pw.inp
Warning: card &CELL ignored
Warning: card   CELL_DYNAMICS='IPI', ignored
Warning: card / ignored

     Current dimensions of program PWSCF are:
     Max number of different atomic species (ntypx) = 10
     Max number of k-points (npk) =  40000
     Max angular momentum in pseudopotentials (lmaxx) =  3
     Presently no symmetry can be used with electric field

     Message from routine cell_base_init:
     DEPRECATED: use true lattice parameter, not A to a.u. conversion factor

     IMPORTANT: XC functional enforced from input :
     Exchange-correlation= BEEF-VDW
                           (   1   4  43  14   2   0   0)
     Any further DFT definition will be discarded
     Please, verify this is what you really want

  @ DRIVER MODE: Connecting to
 qe_1139763_2767396.sched-torque.pace.gatech.eduteadtruk_scratch
  using UNIX socket
  @ DRIVER MODE: Message from server: STATUS
  @ DRIVER MODE: Message from server: INIT
  @ DRIVER MODE: Receiving replica           0          -1
  @ DRIVER MODE: Receiving encoded integer          25
  @ DRIVER MODE:  SCF:  T  FORCE:  T  STRESS:  F  VC:  F  ENSEMBLE:  F
  @ DRIVER MODE:  SCF:  T  FORCE:  T  STRESS:  F  VC:  F  ENSEMBLE:  F

     Using Slab Decomposition

     bravais-lattice index     =            0
     lattice parameter (alat)  =       1.8897  a.u.
     unit-cell volume          =    6658.9804 (a.u.)^3
     number of atoms/cell      =           54
     number of atomic types    =            5
     number of electrons       =       396.00
     number of Kohn-Sham states=          208
     kinetic-energy cutoff     =      29.3995  Ry
     charge density cutoff     =     293.9946  Ry
     scf convergence threshold =      7.3E-08
     mixing beta               =       0.0500
     number of iterations used =            8  plain     mixing
     Exchange-correlation= BEEF-VDW
                           (   1   4  43  14   2   0   0)

     celldm(1)=   1.889726  celldm(2)=   0.000000  celldm(3)=   0.000000
     celldm(4)=   0.000000  celldm(5)=   0.000000  celldm(6)=   0.000000

     crystal axes: (cart. coord. in units of alat)
               a(1) = (   6.579727   0.000000   0.000000 )
               a(2) = (  -0.000775   5.961596   0.000000 )
               a(3) = (   0.000000   0.000000  25.155947 )

     reciprocal axes: (cart. coord. in units 2 pi/alat)
               b(1) = (  0.151982  0.000020  0.000000 )
               b(2) = (  0.000000  0.167740  0.000000 )
               b(3) = (  0.000000  0.000000  0.039752 )

     PseudoPot. # 1 for Ti read from file:
     /storage/coda1/p-amedford6/0/shared/rich_project_chbe-medford/medford-share/data/pseudos_module/espresso/nninc/pbe/van/Ti.UPF
     MD5 check sum: 8e4df49b7f0d34bbd5052bf3f5ea0213
     Pseudo is Ultrasoft, Zval = 12.0
     Generated by new atomic code, or converted to UPF format
     Using radial grid of  851 points,  6 beta functions with:
                l(1) =   0
                l(2) =   0
                l(3) =   1
                l(4) =   1
                l(5) =   2
                l(6) =   2
     Q(r) pseudized with  8 coefficients,  rinner =    1.000   1.000   1.000
                                                       1.000   1.000

     PseudoPot. # 2 for O  read from file:
     /storage/coda1/p-amedford6/0/shared/rich_project_chbe-medford/medford-share/data/pseudos_module/espresso/nninc/pbe/van/O.UPF
     MD5 check sum: 78c19812648e8988a0fe644b0f25305e
     Pseudo is Ultrasoft, Zval =  6.0
     Generated by new atomic code, or converted to UPF format
     Using radial grid of  737 points,  4 beta functions with:
                l(1) =   0
                l(2) =   0
                l(3) =   1
                l(4) =   1
     Q(r) pseudized with  8 coefficients,  rinner =    0.800   0.800   0.800

     PseudoPot. # 3 for N  read from file:
     /storage/coda1/p-amedford6/0/shared/rich_project_chbe-medford/medford-share/data/pseudos_module/espresso/nninc/pbe/van/N.UPF
     MD5 check sum: 90d10febe142ad51ac9d5be1deb811c4
     Pseudo is Ultrasoft, Zval =  5.0
     Generated by new atomic code, or converted to UPF format
     Using radial grid of  729 points,  4 beta functions with:
                l(1) =   0
                l(2) =   0
                l(3) =   1
                l(4) =   1
     Q(r) pseudized with  8 coefficients,  rinner =    0.800   0.800   0.800

     PseudoPot. # 4 for C  read from file:
     /storage/coda1/p-amedford6/0/shared/rich_project_chbe-medford/medford-share/data/pseudos_module/espresso/nninc/pbe/van/C.UPF
     MD5 check sum: 1a69bf6b8db32088f5b2163dbdb77a27
     Pseudo is Ultrasoft, Zval =  4.0
     Generated by new atomic code, or converted to UPF format
     Using radial grid of  721 points,  4 beta functions with:
                l(1) =   0
                l(2) =   0
                l(3) =   1
                l(4) =   1
     Q(r) pseudized with  8 coefficients,  rinner =    0.800   0.800   0.800

     PseudoPot. # 5 for H  read from file:
     /storage/coda1/p-amedford6/0/shared/rich_project_chbe-medford/medford-share/data/pseudos_module/espresso/nninc/pbe/van/H.UPF
     MD5 check sum: b5ee9d7bfd3a09ee7748110bda690ff7
     Pseudo is Ultrasoft, Zval =  1.0
     Generated by new atomic code, or converted to UPF format
     Using radial grid of  615 points,  1 beta functions with:
                l(1) =   0
     Q(r) pseudized with  8 coefficients,  rinner =    0.800

     atomic species   valence    mass     pseudopotential
        Ti1           12.00    47.86700     Ti( 1.00)
        O1             6.00    15.99900     O ( 1.00)
        N1             5.00    14.00700     N ( 1.00)
        C1             4.00    12.01100     C ( 1.00)
        H1             1.00     1.00800     H ( 1.00)

     No symmetry found

   Cartesian axes

     site n.     atom                  positions (alat units)
         1           Ti1 tau(   1) = (   0.0004258   2.9801865   6.0000000  )
         2           Ti1 tau(   2) = (   3.2906075   1.4906267   6.0002472  )
         3           O1  tau(   3) = (   0.0006271   0.0005054   7.9858123  )
         4           O1  tau(   4) = (   3.2906025   0.0005020   7.3038282  )
         5           O1  tau(   5) = (   4.5942328   1.4918067   9.2879030  )
         6           O1  tau(   6) = (   1.9868534   1.4903216   9.2879459  )
         7           Ti1 tau(   7) = (   3.2907910   2.8959150   9.1758416  )
         8           Ti1 tau(   8) = (   0.0015273   1.4827037   9.2680791  )
         9           O1  tau(   9) = (   3.2896288   0.0042867  11.3205077  )
        10           O1  tau(  10) = (   0.0116148   5.9584955  10.6183126  )
        11           O1  tau(  11) = (   1.2848067   1.4985890  12.6232755  )
        12           O1  tau(  12) = (   5.2688617   1.4893877  12.6055203  )
        13           Ti1 tau(  13) = (   0.0799559   3.0171279  12.6206390  )
        14           Ti1 tau(  14) = (   3.4009582   1.4891986  12.4726338  )
        15           O1  tau(  15) = (   6.5707323   0.0080309  14.6263129  )
        16           O1  tau(  16) = (   3.2902489   0.0120312  13.8979102  )
        17           O1  tau(  17) = (   4.5126121   1.5346005  16.0500440  )
        18           O1  tau(  18) = (   2.0453867   1.5362785  16.0447169  )
        19           Ti1 tau(  19) = (   3.2767562   3.0203775  15.6892921  )
        20           Ti1 tau(  20) = (   6.5596632   1.5778499  15.8310978  )
        21           O1  tau(  21) = (   3.2904802   0.0005063   4.7018136  )
        22           O1  tau(  22) = (   6.5709656   0.0671247  17.2345223  )
        23           O1  tau(  23) = (   1.3043587   1.4918075   6.0039043  )
        24           O1  tau(  24) = (   5.2767064   1.4903225   6.0039473  )
        25           Ti1 tau(  25) = (   0.0000382   5.9609847   6.0000000  )
        26           Ti1 tau(  26) = (   3.2902200   4.4714249   6.0002472  )
        27           O1  tau(  27) = (   0.0002396   2.9813036   7.9858123  )
        28           O1  tau(  28) = (   3.2902150   2.9813002   7.3038282  )
        29           O1  tau(  29) = (   4.5938453   4.4726049   9.2879030  )
        30           O1  tau(  30) = (   1.9864658   4.4711199   9.2879459  )
        31           Ti1 tau(  31) = (   3.2891106   5.8743827   9.1763621  )
        32           Ti1 tau(  32) = (   0.0006254   4.4649316   9.2693709  )
        33           O1  tau(  33) = (   3.2919429   2.9835650  11.3172650  )
        34           O1  tau(  34) = (   0.0092240   2.9805883  10.6323155  )
        35           O1  tau(  35) = (   1.2842535   4.4799506  12.6241420  )
        36           O1  tau(  36) = (   5.2755836   4.4732255  12.6042992  )
        37           Ti1 tau(  37) = (   0.0783641   0.0295629  12.6394962  )
        38           Ti1 tau(  38) = (   3.4022659   4.4693352  12.4708195  )
        39           O1  tau(  39) = (   6.5693815   2.9799975  14.6326336  )
        40           O1  tau(  40) = (   3.2899495   3.0014797  13.8849495  )
        41           O1  tau(  41) = (   4.5062741   4.5069571  16.0893315  )
        42           O1  tau(  42) = (   2.0480812   4.5060041  16.0753496  )
        43           Ti1 tau(  43) = (   3.2742444   0.0367023  15.7020416  )
        44           Ti1 tau(  44) = (   6.5658628   4.6518251  16.1481936  )
        45           O1  tau(  45) = (   3.2900926   2.9813045   4.7018136  )
        46           O1  tau(  46) = (   1.3039711   4.4726057   6.0039043  )
        47           O1  tau(  47) = (   5.2763189   4.4711207   6.0039473  )
        48           N1  tau(  48) = (   6.5201982   2.6697193  18.5868863  )
        49           N1  tau(  49) = (   6.5663212   2.9659568  17.3251533  )
        50           C1  tau(  50) = (   0.1092964   3.6297355  19.6533281  )
        51           H1  tau(  51) = (   6.1365678   4.5355971  19.4091500  )
        52           H1  tau(  52) = (   6.3142024   3.1981282  20.5813133  )
        53           H1  tau(  53) = (   1.1661384   3.8973747  19.7839464  )
        54           H1  tau(  54) = (   6.5756389   1.6632157  18.8047554  )

     number of k points=    10  Fermi-Dirac smearing, width (Ry)=  0.0073
                       cart. coord. in units 2pi/alat
        k(    1) = (   0.0000000   0.0000000   0.0000000), wk =   0.1250000
        k(    2) = (   0.0000000   0.0419351   0.0000000), wk =   0.2500000
        k(    3) = (   0.0000000  -0.0838702   0.0000000), wk =   0.1250000
        k(    4) = (   0.0379955   0.0000049   0.0000000), wk =   0.2500000
        k(    5) = (   0.0379955   0.0419400   0.0000000), wk =   0.2500000
        k(    6) = (   0.0379955  -0.0838652   0.0000000), wk =   0.2500000
        k(    7) = (   0.0379955  -0.0419301   0.0000000), wk =   0.2500000
        k(    8) = (  -0.0759910  -0.0000099   0.0000000), wk =   0.1250000
        k(    9) = (  -0.0759910   0.0419252   0.0000000), wk =   0.2500000
        k(   10) = (  -0.0759910  -0.0838800   0.0000000), wk =   0.1250000

     Initial potential from superposition of free atoms

     starting charge  379.99915, renormalised to  396.00000

     negative rho (up, down):  1.474E-02 0.000E+00

     %%%%%%%%%%%%%%%%%%%%%%%%%%%%%%%%%%%%%%%%%%%%%%%%%%%%%%%%%%%%%%%%%%%%%%%%
     %                                                                      %
     % You are using vdW-DF, which was implemented by the Thonhauser group. %
     % Please cite the following two papers that made this development      %
     % possible and the two reviews that describe the various versions:     %
     %                                                                      %
     %   T. Thonhauser et al., PRL 115, 136402 (2015).                      %
     %   T. Thonhauser et al., PRB 76, 125112 (2007).                       %
     %   K. Berland et al., Rep. Prog. Phys. 78, 066501 (2015).             %
     %   D.C. Langreth et al., J. Phys.: Condens. Matter 21, 084203 (2009). %
     %                                                                      %
     %                                                                      %
     % If you are calculating the stress with vdW-DF, please also cite:     %
     %                                                                      %
     %   R. Sabatini et al., J. Phys.: Condens. Matter 24, 424209 (2012).   %
     %                                                                      %
     %%%%%%%%%%%%%%%%%%%%%%%%%%%%%%%%%%%%%%%%%%%%%%%%%%%%%%%%%%%%%%%%%%%%%%%%

     Adding external electric field

     Computed dipole along edir(3) :
        Dipole               -9.2704 Ry au,        -23.5631 Debye
        Dipole field         -0.0175 Ry au,

        Potential amp.        1.6217 Ry
        Total length         46.3494 bohr

     Starting wfcs are  300 atomic wfcs
  @ DRIVER MODE: Message from server: STATUS
  @ DRIVER MODE: Message from server: POSDATA
  @ DRIVER MODE: Reading and sharing cell
  @ DRIVER MODE: Reading and sharing positions
  @ DRIVER MODE: Received positions

     Self-consistent Calculation

     iteration #  1     ecut=    29.40 Ry     beta= 0.05
     Davidson diagonalization with overlap
     c_bands:  1 eigenvalues not converged
     c_bands:  1 eigenvalues not converged
     c_bands:  1 eigenvalues not converged
     ethr =  1.00E-05,  avg # of iterations = 17.9

[...]

     total energy              =   -2585.77483961 Ry
     estimated scf accuracy    <    3942.12147177 Ry

     iteration #  2     ecut=    29.40 Ry     beta= 0.05
     Davidson diagonalization with overlap
     ethr =  1.00E-02,  avg # of iterations = 23.4

[...]

     iteration # 63     ecut=    29.40 Ry     beta= 0.05
     Davidson diagonalization with overlap
     c_bands:  1 eigenvalues not converged
     ethr =  2.81E-07,  avg # of iterations = 16.0

[...]

     total energy              =   -2940.39746015 Ry
     estimated scf accuracy    <       0.00000014 Ry

     iteration # 86     ecut=    29.40 Ry     beta= 0.05
     Davidson diagonalization with overlap
     ethr =  3.57E-11,  avg # of iterations =  5.5

     negative rho (up, down):  1.568E-02 0.000E+00

     Adding external electric field

     Computed dipole along edir(3) :
        Dipole                1.1359 Ry au,          2.8871 Debye
        Dipole field          0.0021 Ry au,

        Potential amp.       -0.1987 Ry
        Total length         46.3494 bohr

     End of self-consistent calculation

          k = 0.0000 0.0000 0.0000 ( 18029 PWs)   bands (ev):

   -55.6389 -55.6049 -55.5473 -55.5096 -55.4028 -55.3811 -55.3690 -55.3454
   -55.3388 -55.3334 -55.3115 -55.2635 -54.7243 -54.5809 -54.5554 -54.5469
   -32.1134 -32.0909 -31.9330 -31.9200 -31.8907 -31.8594 -31.8420 -31.8349
   -31.7921 -31.7775 -31.7752 -31.7357 -31.7272 -31.7093 -31.6975 -31.6898
   -31.6779 -31.6685 -31.6373 -31.6238 -31.6018 -31.5811 -31.5739 -31.5620
   -31.5467 -31.5409 -31.5340 -31.5320 -31.5262 -31.5090 -31.5004 -31.4984
   -31.4951 -31.4576 -31.4452 -31.3778 -31.2221 -30.9867 -30.9475 -30.9324
   -30.9019 -30.8936 -30.8792 -30.8035 -30.7639 -30.7352 -30.7172 -30.6062
   -18.0394 -16.2739 -16.0457 -15.7687 -15.6693 -15.6446 -15.5239 -15.3908
   -15.2899 -15.1958 -15.1546 -15.1007 -15.0965 -15.0670 -15.0361 -15.0003
   -14.9732 -14.9332 -14.9181 -14.8957 -14.8729 -14.8642 -14.7507 -14.7387
   -14.7134 -14.6215 -14.6112 -14.5411 -14.5132 -14.0867 -13.0831 -12.9674
   -12.0742  -8.8726  -5.7476  -4.4793  -4.1854  -3.6567  -3.5304  -3.5004
    -3.3990  -3.2261  -3.1340  -3.0749  -2.9465  -2.7604  -2.7262  -2.7160
    -2.6960  -2.6386  -2.4397  -2.4140  -2.3838  -2.3431  -2.3332  -2.3316
    -2.3168  -2.2554  -2.1908  -2.1243  -2.0289  -2.0246  -1.9651  -1.9515
    -1.9335  -1.9005  -1.8570  -1.8165  -1.7948  -1.7539  -1.7338  -1.7285
    -1.6887  -1.6054  -1.5026  -1.3456  -1.3321  -1.2979  -1.2505  -1.1931
    -1.0283  -1.0148  -0.9759  -0.9694  -0.9385  -0.8623  -0.7987  -0.7101
    -0.6767  -0.5983  -0.5814  -0.5536  -0.4791  -0.3931  -0.3706  -0.3555
    -0.3476  -0.3321  -0.2758  -0.1621  -0.0644  -0.0355   0.0856   0.0906
     0.1261   0.1711   0.1861   0.2686   0.3058   0.3192   0.3712   0.3716
     0.3830   0.4264   0.4495   0.5107   0.5663   0.6516   0.7245   0.7905
     0.8269   0.9440   1.0152   1.0807   1.1102   1.2402   1.3628   1.3791
     1.4408   1.6357   1.6388   2.0093   2.0536   3.5325   3.5535   3.6464
     3.6898   3.7873   3.8262   3.9709   4.0234   4.0629   4.1765   4.2079

[...]

          k = 0.0380-0.0419 0.0000 ( 17876 PWs)   bands (ev):

[...]

          k =-0.0760-0.0000 0.0000 ( 17886 PWs)   bands (ev):

[...]

          k =-0.0760-0.0839 0.0000 ( 17948 PWs)   bands (ev):

   -55.6219 -55.6217 -55.5342 -55.5225 -55.3859 -55.3856 -55.3721 -55.3478
   -55.3299 -55.3287 -55.3271 -55.2681 -54.7227 -54.5639 -54.5638 -54.5568
   -31.9289 -31.9289 -31.9183 -31.9182 -31.8987 -31.8894 -31.7920 -31.7823
   -31.7583 -31.7456 -31.7428 -31.7424 -31.6978 -31.6949 -31.6839 -31.6803
   -31.6705 -31.6672 -31.6665 -31.6429 -31.5972 -31.5970 -31.5817 -31.5787
   -31.5743 -31.5728 -31.5714 -31.5608 -31.5583 -31.5546 -31.5447 -31.5418
   -31.5371 -31.5250 -31.4990 -31.4658 -31.1314 -30.9677 -30.9334 -30.9211
   -30.8920 -30.8919 -30.7997 -30.7995 -30.7829 -30.7651 -30.7604 -30.7604
   -18.0337 -15.6971 -15.6858 -15.5057 -15.5005 -15.4409 -15.4347 -15.2813
   -15.2804 -15.2626 -15.2543 -15.1304 -15.1266 -15.0966 -15.0927 -15.0505
   -15.0427 -15.0225 -15.0141 -15.0123 -15.0060 -14.9813 -14.9311 -14.8942
   -14.8887 -14.7130 -14.7113 -14.5913 -14.5595 -14.2224 -13.0694 -13.0694
   -12.0752  -8.8827  -5.7394  -4.4191  -4.1881  -2.9870  -2.9750  -2.9634
    -2.7011  -2.6960  -2.6710  -2.6606  -2.4559  -2.4431  -2.4219  -2.4163
    -2.3891  -2.3831  -2.3684  -2.3612  -2.2787  -2.2683  -2.2566  -2.2338
    -2.2309  -2.2241  -2.2080  -2.2003  -2.1904  -2.1567  -2.1232  -2.0932
    -2.0584  -2.0367  -1.9175  -1.8075  -1.7278  -1.7209  -1.6901  -1.6842
    -1.6781  -1.6717  -1.6394  -1.5351  -1.4839  -1.4275  -1.2884  -1.2609
    -1.2453  -1.1986  -1.1102  -1.0301  -0.9658  -0.9498  -0.9017  -0.8583
    -0.8335  -0.7494  -0.7254  -0.7177  -0.6507  -0.6175  -0.5724  -0.5662
    -0.5533  -0.4876  -0.4401  -0.3898  -0.3653  -0.3347  -0.2898  -0.2689
    -0.2062  -0.1578  -0.1065  -0.1009  -0.0526  -0.0447   0.0191   0.1695
     0.2193   0.4728   0.4880   0.5171   0.6417   0.7146   0.7201   0.7470
     0.7783   0.8298   0.8413   0.9760   0.9870   0.9900   1.1562   1.1804
     1.2607   1.8092   1.8094   1.8727   1.8730   3.4356   3.9237   3.9412
     3.9666   3.9818   4.0538   4.0547   4.0626   4.0701   4.2511   4.2686

     the Fermi energy is     3.5097 ev

!    total energy              =   -2940.39746597 Ry
     estimated scf accuracy    <       0.00000007 Ry
     smearing contrib. (-TS)   =      -0.02306537 Ry
     internal energy E=F+TS    =   -2940.37440059 Ry

     The total energy is F=E-TS. E is the sum of the following terms:
     one-electron contribution =  -24109.49629859 Ry
     hartree contribution      =   12146.00392215 Ry
     xc contribution           =    -486.04660933 Ry
     ewald contribution        =    9509.16215040 Ry
     electric field correction =       0.00243478 Ry

     convergence has been achieved in  86 iterations

     Forces acting on atoms (cartesian axes, Ry/au):

     atom    1 type  1   force =     0.00016049   -0.00013102    0.09933712
     atom    2 type  1   force =    -0.00012182   -0.00046288   -0.17359043
     atom    3 type  2   force =    -0.00005054   -0.00000203   -0.02878747
     atom    4 type  2   force =     0.00007373   -0.00125128    0.04997877
     atom    5 type  2   force =    -0.01305515    0.00057599    0.00122030
     atom    6 type  2   force =     0.01460395    0.00138306   -0.00010624
     atom    7 type  1   force =    -0.00144613   -0.00060746   -0.00837986
     atom    8 type  1   force =     0.00088014   -0.00412728    0.04509681
     atom    9 type  2   force =    -0.00002812   -0.00065920   -0.00023321
     atom   10 type  2   force =    -0.00128924    0.00227676   -0.02835681
     atom   11 type  2   force =     0.00020126    0.00061559   -0.00000778
     atom   12 type  2   force =     0.00027642    0.00040957    0.00013871
     atom   13 type  1   force =     0.00036379    0.00021038   -0.00073531
     atom   14 type  1   force =     0.00001916    0.00047859    0.00024200
     atom   15 type  2   force =     0.00033307    0.00008945    0.00011294
     atom   16 type  2   force =    -0.00041160   -0.00023482   -0.00005452
     atom   17 type  2   force =    -0.00096651    0.00016662   -0.00044879
     atom   18 type  2   force =     0.00084596    0.00022306    0.00031145
     atom   19 type  1   force =     0.00022955   -0.00010466   -0.00016651
     atom   20 type  1   force =    -0.00049424   -0.00100718    0.00020192
     atom   21 type  2   force =     0.00008883   -0.00006930    0.10275251
     atom   22 type  2   force =     0.00010960    0.00027604    0.00043797
     atom   23 type  2   force =    -0.07213934   -0.00015226   -0.02832680
     atom   24 type  2   force =     0.07213665    0.00030618   -0.02832347
     atom   25 type  1   force =     0.00012334   -0.00019773    0.09865106
     atom   26 type  1   force =    -0.00011050   -0.00046850   -0.17379936
     atom   27 type  2   force =     0.00001119   -0.00002465   -0.02807317
     atom   28 type  2   force =     0.00011479   -0.00100072    0.04942975
     atom   29 type  2   force =    -0.01337408    0.00005137    0.00128046
     atom   30 type  2   force =     0.01483059    0.00041524   -0.00006411
     atom   31 type  1   force =    -0.00139931    0.00250207   -0.00866930
     atom   32 type  1   force =     0.00106290    0.00238173    0.04543619
     atom   33 type  2   force =    -0.00012710    0.00104204    0.00058866
     atom   34 type  2   force =    -0.00071532    0.00120493   -0.03109745
     atom   35 type  2   force =     0.00069322   -0.00050533   -0.00015272
     atom   36 type  2   force =    -0.00160848   -0.00010660    0.00009350
     atom   37 type  1   force =    -0.00019141   -0.00152890    0.00002605
     atom   38 type  1   force =     0.00077244   -0.00005431    0.00043351
     atom   39 type  2   force =     0.00032445    0.00019560   -0.00043354
     atom   40 type  2   force =    -0.00040317    0.00033190    0.00007132
     atom   41 type  2   force =     0.00052415   -0.00062531    0.00013404
     atom   42 type  2   force =    -0.00049284   -0.00074389    0.00061880
     atom   43 type  1   force =     0.00036047   -0.00030506   -0.00069921
     atom   44 type  1   force =    -0.00033776   -0.00030805   -0.00090256
     atom   45 type  2   force =     0.00010845   -0.00007036    0.10278409
     atom   46 type  2   force =    -0.07216237   -0.00010657   -0.02832237
     atom   47 type  2   force =     0.07214577    0.00033581   -0.02829873
     atom   48 type  3   force =    -0.00025584   -0.02623919    0.00027396
     atom   49 type  3   force =     0.00014691    0.00371972   -0.00272888
     atom   50 type  4   force =     0.00150331    0.00664024    0.00300971
     atom   51 type  5   force =     0.00006738    0.00060899    0.00119796
     atom   52 type  5   force =     0.00026000   -0.00023927   -0.00086306
     atom   53 type  5   force =    -0.00074026    0.00097396   -0.00039432
     atom   54 type  5   force =    -0.00145081    0.01391892   -0.00184355

     Total force =     0.373478     Total SCF correction =     0.000694
  @ DRIVER MODE: Message from server: STATUS
  @ DRIVER MODE: Message from server: GETFORCE
  @ DRIVER MODE: Returning v,forces,stress,ensemble

     Writing output data file ./calc.save/
  @ DRIVER MODE: Message from server: EXIT
  @ DRIVE MODE: Exiting

     General routines

     Parallel routines

   This run was terminated on:  23:31:23   8Sep2021

   JOB DONE.