     Program PWSCF v.6.7GPU starts on 23Sep2021 at  2:52: 9

     R & G space division:  proc/nbgrp/npool/nimage =       8
     Reading input from /storage/home/hcoda1/3/ntian30/research/carbon/CxH_vib/H2O_calc/ads_slab/CH2NHHO_a/out_0012/pw.inp
Warning: card &CELL ignored
Warning: card   CELL_DYNAMICS='IPI', ignored
Warning: card / ignored

     Current dimensions of program PWSCF are:
     Max number of different atomic species (ntypx) = 10
     Max number of k-points (npk) =  40000
     Max angular momentum in pseudopotentials (lmaxx) =  3
     Presently no symmetry can be used with electric field

     Message from routine cell_base_init:
     DEPRECATED: use true lattice parameter, not A to a.u. conversion factor

     IMPORTANT: XC functional enforced from input :
     Exchange-correlation= BEEF-VDW
                           (   1   4  43  14   2   0   0)
     Any further DFT definition will be discarded
     Please, verify this is what you really want

  @ DRIVER MODE: Connecting to
 qe_1139763_2941012.sched-torque.pace.gatech.eduivf5ty7z_scratch
  using UNIX socket
  @ DRIVER MODE: Message from server: STATUS
  @ DRIVER MODE: Message from server: INIT
  @ DRIVER MODE: Receiving replica           0          -1
  @ DRIVER MODE: Receiving encoded integer          25
  @ DRIVER MODE:  SCF:  T  FORCE:  T  STRESS:  F  VC:  F  ENSEMBLE:  F
  @ DRIVER MODE:  SCF:  T  FORCE:  T  STRESS:  F  VC:  F  ENSEMBLE:  F

     Using Slab Decomposition

     bravais-lattice index     =            0
     lattice parameter (alat)  =       1.8897  a.u.
     unit-cell volume          =    6658.9804 (a.u.)^3
     number of atoms/cell      =           54
     number of atomic types    =            5
     number of electrons       =       397.00
     number of Kohn-Sham states=          208
     kinetic-energy cutoff     =      29.3995  Ry
     charge density cutoff     =     293.9946  Ry
     scf convergence threshold =      7.3E-08
     mixing beta               =       0.0500
     number of iterations used =            8  plain     mixing
     Exchange-correlation= BEEF-VDW
                           (   1   4  43  14   2   0   0)

     celldm(1)=   1.889726  celldm(2)=   0.000000  celldm(3)=   0.000000
     celldm(4)=   0.000000  celldm(5)=   0.000000  celldm(6)=   0.000000

     crystal axes: (cart. coord. in units of alat)
               a(1) = (   6.579727   0.000000   0.000000 )
               a(2) = (  -0.000775   5.961596   0.000000 )
               a(3) = (   0.000000   0.000000  25.155947 )

     reciprocal axes: (cart. coord. in units 2 pi/alat)
               b(1) = (  0.151982  0.000020  0.000000 )
               b(2) = (  0.000000  0.167740  0.000000 )
               b(3) = (  0.000000  0.000000  0.039752 )

     PseudoPot. # 1 for Ti read from file:
     /storage/coda1/p-amedford6/0/shared/rich_project_chbe-medford/medford-share/data/pseudos_module/espresso/nninc/pbe/van/Ti.UPF
     MD5 check sum: 8e4df49b7f0d34bbd5052bf3f5ea0213
     Pseudo is Ultrasoft, Zval = 12.0
     Generated by new atomic code, or converted to UPF format
     Using radial grid of  851 points,  6 beta functions with:
                l(1) =   0
                l(2) =   0
                l(3) =   1
                l(4) =   1
                l(5) =   2
                l(6) =   2
     Q(r) pseudized with  8 coefficients,  rinner =    1.000   1.000   1.000
                                                       1.000   1.000

     PseudoPot. # 2 for O  read from file:
     /storage/coda1/p-amedford6/0/shared/rich_project_chbe-medford/medford-share/data/pseudos_module/espresso/nninc/pbe/van/O.UPF
     MD5 check sum: 78c19812648e8988a0fe644b0f25305e
     Pseudo is Ultrasoft, Zval =  6.0
     Generated by new atomic code, or converted to UPF format
     Using radial grid of  737 points,  4 beta functions with:
                l(1) =   0
                l(2) =   0
                l(3) =   1
                l(4) =   1
     Q(r) pseudized with  8 coefficients,  rinner =    0.800   0.800   0.800

     PseudoPot. # 3 for N  read from file:
     /storage/coda1/p-amedford6/0/shared/rich_project_chbe-medford/medford-share/data/pseudos_module/espresso/nninc/pbe/van/N.UPF
     MD5 check sum: 90d10febe142ad51ac9d5be1deb811c4
     Pseudo is Ultrasoft, Zval =  5.0
     Generated by new atomic code, or converted to UPF format
     Using radial grid of  729 points,  4 beta functions with:
                l(1) =   0
                l(2) =   0
                l(3) =   1
                l(4) =   1
     Q(r) pseudized with  8 coefficients,  rinner =    0.800   0.800   0.800

     PseudoPot. # 4 for C  read from file:
     /storage/coda1/p-amedford6/0/shared/rich_project_chbe-medford/medford-share/data/pseudos_module/espresso/nninc/pbe/van/C.UPF
     MD5 check sum: 1a69bf6b8db32088f5b2163dbdb77a27
     Pseudo is Ultrasoft, Zval =  4.0
     Generated by new atomic code, or converted to UPF format
     Using radial grid of  721 points,  4 beta functions with:
                l(1) =   0
                l(2) =   0
                l(3) =   1
                l(4) =   1
     Q(r) pseudized with  8 coefficients,  rinner =    0.800   0.800   0.800

     PseudoPot. # 5 for H  read from file:
     /storage/coda1/p-amedford6/0/shared/rich_project_chbe-medford/medford-share/data/pseudos_module/espresso/nninc/pbe/van/H.UPF
     MD5 check sum: b5ee9d7bfd3a09ee7748110bda690ff7
     Pseudo is Ultrasoft, Zval =  1.0
     Generated by new atomic code, or converted to UPF format
     Using radial grid of  615 points,  1 beta functions with:
                l(1) =   0
     Q(r) pseudized with  8 coefficients,  rinner =    0.800

     atomic species   valence    mass     pseudopotential
        Ti1           12.00    47.86700     Ti( 1.00)
        O1             6.00    15.99900     O ( 1.00)
        N1             5.00    14.00700     N ( 1.00)
        C1             4.00    12.01100     C ( 1.00)
        H1             1.00     1.00800     H ( 1.00)

     No symmetry found

   Cartesian axes

     site n.     atom                  positions (alat units)
         1           Ti1 tau(   1) = (   0.0004258   2.9801865   6.0000000  )
         2           Ti1 tau(   2) = (   3.2906075   1.4906267   6.0002472  )
         3           O1  tau(   3) = (   0.0006271   0.0005054   7.9858123  )
         4           O1  tau(   4) = (   3.2906025   0.0005020   7.3038282  )
         5           O1  tau(   5) = (   4.5942328   1.4918067   9.2879030  )
         6           O1  tau(   6) = (   1.9868534   1.4903216   9.2879459  )
         7           Ti1 tau(   7) = (   3.2907910   2.8959150   9.1758416  )
         8           Ti1 tau(   8) = (   0.0015273   1.4827037   9.2680791  )
         9           O1  tau(   9) = (   3.2872377   5.9372537  11.3619719  )
        10           O1  tau(  10) = (   0.0116148   5.9584955  10.6183126  )
        11           O1  tau(  11) = (   1.2678424   1.4880610  12.6451974  )
        12           O1  tau(  12) = (   5.2928823   1.5036634  12.6399001  )
        13           Ti1 tau(  13) = (   6.5521701   2.9315368  12.5404127  )
        14           Ti1 tau(  14) = (   3.2895327   1.2997526  12.7137971  )
        15           O1  tau(  15) = (   6.5477037   0.0845492  14.6505624  )
        16           O1  tau(  16) = (   3.2827468   0.0880329  14.0175491  )
        17           O1  tau(  17) = (   4.5427558   1.5765460  16.1196870  )
        18           O1  tau(  18) = (   1.9971221   1.5491956  16.2097298  )
        19           Ti1 tau(  19) = (   3.2670693   3.0250103  15.6873951  )
        20           Ti1 tau(  20) = (   6.4806419   1.4532933  16.0069425  )
        21           O1  tau(  21) = (   3.2904802   0.0005063   4.7018136  )
        22           O1  tau(  22) = (   6.5100566   5.8635464  17.1664964  )
        23           O1  tau(  23) = (   1.3043587   1.4918075   6.0039043  )
        24           O1  tau(  24) = (   5.2767064   1.4903225   6.0039473  )
        25           Ti1 tau(  25) = (   0.0000382   5.9609847   6.0000000  )
        26           Ti1 tau(  26) = (   3.2902200   4.4714249   6.0002472  )
        27           O1  tau(  27) = (   0.0002396   2.9813036   7.9858123  )
        28           O1  tau(  28) = (   3.2902150   2.9813002   7.3038282  )
        29           O1  tau(  29) = (   4.5938453   4.4726049   9.2879030  )
        30           O1  tau(  30) = (   1.9864658   4.4711199   9.2879459  )
        31           Ti1 tau(  31) = (   3.2891106   5.8743827   9.1763621  )
        32           Ti1 tau(  32) = (   0.0006254   4.4649316   9.2693709  )
        33           O1  tau(  33) = (   3.2826969   3.0075535  11.3127327  )
        34           O1  tau(  34) = (   0.0092240   2.9805883  10.6323155  )
        35           O1  tau(  35) = (   1.2713698   4.4757098  12.6731835  )
        36           O1  tau(  36) = (   5.2977781   4.4601507  12.6712348  )
        37           Ti1 tau(  37) = (   0.0330522   5.9225719  12.5042524  )
        38           Ti1 tau(  38) = (   3.2990360   4.3766664  12.4405836  )
        39           O1  tau(  39) = (   0.0150134   2.9421642  14.8567636  )
        40           O1  tau(  40) = (   3.2596324   2.9836344  13.9148061  )
        41           O1  tau(  41) = (   4.5490916   4.3969069  16.0525170  )
        42           O1  tau(  42) = (   1.9960638   4.4622821  16.0939853  )
        43           Ti1 tau(  43) = (   3.1777156   0.0378257  16.2738330  )
        44           Ti1 tau(  44) = (   6.5243348   4.6462111  15.7996153  )
        45           O1  tau(  45) = (   3.2900926   2.9813045   4.7018136  )
        46           O1  tau(  46) = (   1.3039711   4.4726057   6.0039043  )
        47           O1  tau(  47) = (   5.2763189   4.4711207   6.0039473  )
        48           N1  tau(  48) = (   6.4646383   2.7559932  17.9272311  )
        49           C1  tau(  49) = (   0.7552072   2.7164238  18.8702713  )
        50           H1  tau(  50) = (   0.5916026   3.1878006  19.8266510  )
        51           H1  tau(  51) = (   1.6887153   2.1901376  18.6919226  )
        52           H1  tau(  52) = (   5.6107037   3.2511282  18.1874541  )
        53           O1  tau(  53) = (   3.4589997   5.9358250  18.1144358  )
        54           H1  tau(  54) = (   4.3999295   5.9567086  18.3589960  )

     number of k points=    10  Fermi-Dirac smearing, width (Ry)=  0.0073
                       cart. coord. in units 2pi/alat
        k(    1) = (   0.0000000   0.0000000   0.0000000), wk =   0.1250000
        k(    2) = (   0.0000000   0.0419351   0.0000000), wk =   0.2500000
        k(    3) = (   0.0000000  -0.0838702   0.0000000), wk =   0.1250000
        k(    4) = (   0.0379955   0.0000049   0.0000000), wk =   0.2500000
        k(    5) = (   0.0379955   0.0419400   0.0000000), wk =   0.2500000
        k(    6) = (   0.0379955  -0.0838652   0.0000000), wk =   0.2500000
        k(    7) = (   0.0379955  -0.0419301   0.0000000), wk =   0.2500000
        k(    8) = (  -0.0759910  -0.0000099   0.0000000), wk =   0.1250000
        k(    9) = (  -0.0759910   0.0419252   0.0000000), wk =   0.2500000
        k(   10) = (  -0.0759910  -0.0838800   0.0000000), wk =   0.1250000

     Initial potential from superposition of free atoms

     starting charge  380.99916, renormalised to  397.00000

     negative rho (up, down):  1.653E-02 0.000E+00

     %%%%%%%%%%%%%%%%%%%%%%%%%%%%%%%%%%%%%%%%%%%%%%%%%%%%%%%%%%%%%%%%%%%%%%%%
     %                                                                      %
     % You are using vdW-DF, which was implemented by the Thonhauser group. %
     % Please cite the following two papers that made this development      %
     % possible and the two reviews that describe the various versions:     %
     %                                                                      %
     %   T. Thonhauser et al., PRL 115, 136402 (2015).                      %
     %   T. Thonhauser et al., PRB 76, 125112 (2007).                       %
     %   K. Berland et al., Rep. Prog. Phys. 78, 066501 (2015).             %
     %   D.C. Langreth et al., J. Phys.: Condens. Matter 21, 084203 (2009). %
     %                                                                      %
     %                                                                      %
     % If you are calculating the stress with vdW-DF, please also cite:     %
     %                                                                      %
     %   R. Sabatini et al., J. Phys.: Condens. Matter 24, 424209 (2012).   %
     %                                                                      %
     %%%%%%%%%%%%%%%%%%%%%%%%%%%%%%%%%%%%%%%%%%%%%%%%%%%%%%%%%%%%%%%%%%%%%%%%

     Adding external electric field

     Computed dipole along edir(3) :
        Dipole               -9.3030 Ry au,        -23.6459 Debye
        Dipole field         -0.0176 Ry au,

        Potential amp.        1.6274 Ry
        Total length         46.3494 bohr

     Starting wfcs are  300 atomic wfcs
  @ DRIVER MODE: Message from server: STATUS
  @ DRIVER MODE: Message from server: POSDATA
  @ DRIVER MODE: Reading and sharing cell
  @ DRIVER MODE: Reading and sharing positions
  @ DRIVER MODE: Received positions

     Self-consistent Calculation

     iteration #  1     ecut=    29.40 Ry     beta= 0.05
     Davidson diagonalization with overlap
     c_bands:  1 eigenvalues not converged
     c_bands:  1 eigenvalues not converged
     c_bands:  2 eigenvalues not converged
     c_bands:  1 eigenvalues not converged
     c_bands:  1 eigenvalues not converged
     c_bands:  2 eigenvalues not converged
     c_bands:  1 eigenvalues not converged
     c_bands:  1 eigenvalues not converged
     c_bands:  3 eigenvalues not converged
     ethr =  1.00E-05,  avg # of iterations = 19.6

[...]

     total energy              =   -2534.83180594 Ry
     estimated scf accuracy    <    4639.15987010 Ry

     iteration #  2     ecut=    29.40 Ry     beta= 0.05
     Davidson diagonalization with overlap
     ethr =  1.00E-02,  avg # of iterations = 24.9

[...]

     iteration # 53     ecut=    29.40 Ry     beta= 0.05
     Davidson diagonalization with overlap
     c_bands:  1 eigenvalues not converged
     ethr =  1.16E-06,  avg # of iterations =  3.8

[...]

     total energy              =   -2952.74674043 Ry
     estimated scf accuracy    <       0.00000009 Ry

     iteration # 76     ecut=    29.40 Ry     beta= 0.05
     Davidson diagonalization with overlap
     ethr =  2.18E-11,  avg # of iterations =  7.1

     negative rho (up, down):  1.672E-02 0.000E+00

     Adding external electric field

     Computed dipole along edir(3) :
        Dipole                1.0821 Ry au,          2.7505 Debye
        Dipole field          0.0020 Ry au,

        Potential amp.       -0.1893 Ry
        Total length         46.3494 bohr

     End of self-consistent calculation

          k = 0.0000 0.0000 0.0000 ( 18029 PWs)   bands (ev):

   -55.6634 -55.6447 -55.6107 -55.4728 -55.4668 -55.4375 -55.4336 -55.4335
   -55.4124 -55.4056 -55.3563 -55.2460 -55.2241 -55.1777 -54.6102 -54.5762
   -32.1283 -31.9916 -31.9699 -31.9612 -31.9515 -31.9359 -31.9327 -31.8901
   -31.8893 -31.8684 -31.8366 -31.7973 -31.7575 -31.7503 -31.7419 -31.7377
   -31.7195 -31.7024 -31.6778 -31.6687 -31.6654 -31.6624 -31.6394 -31.6303
   -31.6187 -31.6141 -31.6017 -31.5970 -31.5956 -31.5814 -31.5764 -31.5762
   -31.5703 -31.5525 -31.5251 -31.5120 -31.4377 -31.4341 -31.4204 -31.3906
   -31.3834 -31.3784 -31.0158 -30.9305 -30.9080 -30.8335 -30.7472 -30.6352
   -16.6404 -16.4307 -16.2596 -16.0840 -15.8700 -15.7966 -15.7591 -15.5639
   -15.4770 -15.4139 -15.1773 -15.1763 -15.1606 -15.1432 -15.1160 -15.1033
   -15.0942 -15.0619 -15.0599 -15.0372 -15.0107 -14.9786 -14.9695 -14.9212
   -14.8714 -14.8511 -14.7754 -14.7023 -14.6548 -14.4520 -14.3208 -13.1087
   -12.9925  -9.3301  -6.3345  -4.6863  -3.9515  -3.6296  -3.5440  -3.5087
    -3.4288  -3.3836  -3.1470  -3.0100  -2.9595  -2.8777  -2.7636  -2.7362
    -2.6637  -2.6222  -2.5569  -2.5328  -2.4884  -2.4324  -2.4104  -2.3791
    -2.3705  -2.3365  -2.2893  -2.2177  -2.1651  -2.1385  -2.0773  -2.0026
    -1.9577  -1.9488  -1.9462  -1.9249  -1.9006  -1.8791  -1.8553  -1.8448
    -1.7402  -1.6850  -1.6681  -1.6158  -1.5699  -1.3182  -1.2389  -1.2256
    -1.1575  -1.1031  -1.0747  -1.0566  -1.0290  -0.9812  -0.9270  -0.8942
    -0.8146  -0.7604  -0.6997  -0.6899  -0.6439  -0.5622  -0.4839  -0.4245
    -0.4091  -0.3520  -0.3442  -0.3163  -0.1958  -0.1567  -0.1452  -0.0915
    -0.0645   0.0375   0.0811   0.1215   0.1520   0.2417   0.2618   0.3015
     0.3117   0.3374   0.3457   0.4351   0.4455   0.4700   0.5326   0.5602
     0.6368   0.7083   0.7160   0.8762   0.9219   1.0133   1.0409   1.1326
     1.3669   1.4162   1.4749   1.6099   1.9825   2.0275   3.4485   3.5938
     3.6110   3.7069   3.7077   3.8150   3.9219   3.9762   4.0123   4.1284

[...]

          k = 0.0380-0.0419 0.0000 ( 17876 PWs)   bands (ev):

[...]

          k =-0.0760-0.0000 0.0000 ( 17886 PWs)   bands (ev):

[...]

          k =-0.0760-0.0839 0.0000 ( 17948 PWs)   bands (ev):

   -55.6626 -55.6279 -55.6273 -55.4567 -55.4537 -55.4502 -55.4496 -55.4320
   -55.4132 -55.3989 -55.3630 -55.2418 -55.2255 -55.1818 -54.5935 -54.5927
   -31.9438 -31.9434 -31.9273 -31.9216 -31.9211 -31.9187 -31.8755 -31.8682
   -31.8065 -31.7811 -31.7801 -31.7716 -31.7658 -31.7479 -31.7473 -31.7420
   -31.7211 -31.7193 -31.7058 -31.6856 -31.6730 -31.6584 -31.6575 -31.6523
   -31.6477 -31.6421 -31.6396 -31.6230 -31.6188 -31.6174 -31.6165 -31.6153
   -31.5969 -31.5858 -31.5826 -31.5247 -31.5092 -31.4586 -31.4410 -31.4376
   -31.4289 -31.3876 -30.9210 -30.9204 -30.8293 -30.8281 -30.7907 -30.7901
   -16.6144 -16.4148 -15.8231 -15.7160 -15.5979 -15.5896 -15.4764 -15.4041
   -15.3662 -15.3385 -15.3202 -15.3078 -15.2868 -15.2445 -15.2008 -15.1774
   -15.1474 -15.1299 -15.1175 -15.0773 -15.0614 -15.0514 -15.0332 -14.9889
   -14.9745 -14.9460 -14.9332 -14.7957 -14.7471 -14.6326 -14.5677 -13.0946
   -13.0942  -9.3351  -6.3312  -4.6704  -3.9332  -3.0295  -2.9337  -2.8050
    -2.7094  -2.6681  -2.6330  -2.5927  -2.5727  -2.5434  -2.5276  -2.4798
    -2.4328  -2.4184  -2.4048  -2.3753  -2.3714  -2.3616  -2.3321  -2.3086
    -2.3052  -2.2908  -2.2670  -2.2570  -2.2389  -2.2143  -2.2016  -2.1769
    -2.1544  -2.1055  -1.9961  -1.9381  -1.9138  -1.7883  -1.7767  -1.7544
    -1.7383  -1.7254  -1.7050  -1.6845  -1.6182  -1.5974  -1.5715  -1.3934
    -1.3739  -1.2855  -1.2566  -1.2104  -1.1446  -1.1316  -1.0827  -1.0546
    -0.9969  -0.9719  -0.8791  -0.8280  -0.7991  -0.7613  -0.6373  -0.5866
    -0.5815  -0.5705  -0.5411  -0.5207  -0.4760  -0.4554  -0.4253  -0.3596
    -0.3317  -0.3147  -0.2669  -0.2533  -0.1304  -0.0125   0.0733   0.1156
     0.1758   0.1986   0.2370   0.3447   0.4171   0.4992   0.5383   0.5561
     0.5882   0.6779   0.6936   0.8412   0.8674   0.8760   0.9079   0.9396
     0.9681   1.0154   1.7794   1.7874   1.8477   1.8480   3.6936   3.8281
     3.9568   3.9763   3.9892   4.0208   4.0260   4.0491   4.0979   4.1326

     the Fermi energy is     3.4799 ev

!    total energy              =   -2952.74675260 Ry
     estimated scf accuracy    <       0.00000006 Ry
     smearing contrib. (-TS)   =      -0.02001417 Ry
     internal energy E=F+TS    =   -2952.72673843 Ry

     The total energy is F=E-TS. E is the sum of the following terms:
     one-electron contribution =  -23989.49236516 Ry
     hartree contribution      =   12086.21356095 Ry
     xc contribution           =    -488.02320538 Ry
     ewald contribution        =    9438.57306136 Ry
     electric field correction =       0.00220981 Ry

     convergence has been achieved in  76 iterations

     Forces acting on atoms (cartesian axes, Ry/au):

     atom    1 type  1   force =     0.00015959   -0.00027951    0.09471257
     atom    2 type  1   force =    -0.00000715    0.00039790   -0.17492697
     atom    3 type  2   force =    -0.00001451   -0.00013353   -0.02194983
     atom    4 type  2   force =     0.00006383   -0.00191862    0.05344144
     atom    5 type  2   force =    -0.00736291   -0.00241399    0.00308474
     atom    6 type  2   force =     0.00862927   -0.00199186    0.00179991
     atom    7 type  1   force =    -0.00058564   -0.00347787    0.00963861
     atom    8 type  1   force =     0.00060663    0.00471070    0.00867920
     atom    9 type  2   force =     0.00009106    0.00014705   -0.00024450
     atom   10 type  2   force =    -0.00268925   -0.00030926   -0.01313157
     atom   11 type  2   force =    -0.00041309   -0.00035738   -0.00015413
     atom   12 type  2   force =     0.00019296   -0.00017103    0.00026494
     atom   13 type  1   force =     0.00039229    0.00016298   -0.00044530
     atom   14 type  1   force =    -0.00014256    0.00009321    0.00012613
     atom   15 type  2   force =     0.00026505   -0.00019628   -0.00061231
     atom   16 type  2   force =     0.00040358    0.00014793   -0.00019764
     atom   17 type  2   force =    -0.00028265   -0.00002985    0.00018011
     atom   18 type  2   force =     0.00026266   -0.00097664   -0.00031245
     atom   19 type  1   force =     0.00028295    0.00054640    0.00047618
     atom   20 type  1   force =     0.00012209    0.00017589    0.00092387
     atom   21 type  2   force =     0.00009828    0.00007878    0.10309735
     atom   22 type  2   force =     0.00008502   -0.00050206   -0.00023086
     atom   23 type  2   force =    -0.07211718   -0.00013828   -0.02736758
     atom   24 type  2   force =     0.07206932    0.00027259   -0.02739212
     atom   25 type  1   force =     0.00003744   -0.00009518    0.09447378
     atom   26 type  1   force =    -0.00007581   -0.00131559   -0.17510184
     atom   27 type  2   force =     0.00014880   -0.00019435   -0.02071691
     atom   28 type  2   force =     0.00002406   -0.00018738    0.04903111
     atom   29 type  2   force =    -0.00618575    0.00258236    0.00153372
     atom   30 type  2   force =     0.00740964    0.00320516    0.00009170
     atom   31 type  1   force =    -0.00054773    0.00715844   -0.00086474
     atom   32 type  1   force =     0.00055744   -0.00649273    0.00792878
     atom   33 type  2   force =     0.00025621   -0.00027653   -0.00043138
     atom   34 type  2   force =    -0.00212307    0.00147032   -0.01195386
     atom   35 type  2   force =    -0.00008924    0.00001815    0.00013940
     atom   36 type  2   force =    -0.00023085    0.00012086    0.00026167
     atom   37 type  1   force =     0.00054685   -0.00011512   -0.00003878
     atom   38 type  1   force =    -0.00018968   -0.00016073    0.00043455
     atom   39 type  2   force =     0.00011629    0.00040637   -0.00064837
     atom   40 type  2   force =    -0.00015258    0.00028941   -0.00062666
     atom   41 type  2   force =     0.00000258    0.00038889   -0.00036977
     atom   42 type  2   force =     0.00006828    0.00046126    0.00011107
     atom   43 type  1   force =    -0.00012325   -0.00095715    0.00009165
     atom   44 type  1   force =     0.00017559    0.00052584    0.00084417
     atom   45 type  2   force =     0.00009802   -0.00009199    0.10290471
     atom   46 type  2   force =    -0.07213456   -0.00005548   -0.02738461
     atom   47 type  2   force =     0.07213891    0.00039934   -0.02741861
     atom   48 type  3   force =     0.00917824   -0.00032595    0.01214108
     atom   49 type  4   force =    -0.00512429   -0.00578968   -0.02572224
     atom   50 type  5   force =    -0.00202446    0.00407969    0.00963539
     atom   51 type  5   force =    -0.00122697    0.00113768    0.00228356
     atom   52 type  5   force =    -0.00026173   -0.00006777   -0.00010755
     atom   53 type  2   force =    -0.00006509    0.00008300    0.00127441
     atom   54 type  5   force =    -0.00031292   -0.00003845   -0.00125520

     Total force =     0.363863     Total SCF correction =     0.000609
  @ DRIVER MODE: Message from server: STATUS
  @ DRIVER MODE: Message from server: GETFORCE
  @ DRIVER MODE: Returning v,forces,stress,ensemble

     Writing output data file ./calc.save/
  @ DRIVER MODE: Message from server: EXIT
  @ DRIVE MODE: Exiting

     General routines

     Parallel routines

   This run was terminated on:   3:18:13  23Sep2021

   JOB DONE.