     Program PWSCF v.6.7GPU starts on 16Sep2021 at 13:41: 3

     R & G space division:  proc/nbgrp/npool/nimage =      10
     Reading input from /storage/home/hcoda1/3/ntian30/research/carbon/CxH_vib/H2O_calc/ads_slab/CH2NNHHHH2O_a/out_0061/pw.inp
Warning: card &CELL ignored
Warning: card   CELL_DYNAMICS='IPI', ignored
Warning: card / ignored

     Current dimensions of program PWSCF are:
     Max number of different atomic species (ntypx) = 10
     Max number of k-points (npk) =  40000
     Max angular momentum in pseudopotentials (lmaxx) =  3
     Presently no symmetry can be used with electric field

     Message from routine cell_base_init:
     DEPRECATED: use true lattice parameter, not A to a.u. conversion factor

     IMPORTANT: XC functional enforced from input :
     Exchange-correlation= BEEF-VDW
                           (   1   4  43  14   2   0   0)
     Any further DFT definition will be discarded
     Please, verify this is what you really want

  @ DRIVER MODE: Connecting to
 qe_1139763_2852612.sched-torque.pace.gatech.eduweo5xcpe_scratch
  using UNIX socket
  @ DRIVER MODE: Message from server: STATUS
  @ DRIVER MODE: Message from server: INIT
  @ DRIVER MODE: Receiving replica           0          -1
  @ DRIVER MODE: Receiving encoded integer          25
  @ DRIVER MODE:  SCF:  T  FORCE:  T  STRESS:  F  VC:  F  ENSEMBLE:  F
  @ DRIVER MODE:  SCF:  T  FORCE:  T  STRESS:  F  VC:  F  ENSEMBLE:  F

     Using Slab Decomposition

     bravais-lattice index     =            0
     lattice parameter (alat)  =       1.8897  a.u.
     unit-cell volume          =    6658.9804 (a.u.)^3
     number of atoms/cell      =           58
     number of atomic types    =            5
     number of electrons       =       405.00
     number of Kohn-Sham states=          212
     kinetic-energy cutoff     =      29.3995  Ry
     charge density cutoff     =     293.9946  Ry
     scf convergence threshold =      7.3E-08
     mixing beta               =       0.0500
     number of iterations used =            8  plain     mixing
     Exchange-correlation= BEEF-VDW
                           (   1   4  43  14   2   0   0)

     celldm(1)=   1.889726  celldm(2)=   0.000000  celldm(3)=   0.000000
     celldm(4)=   0.000000  celldm(5)=   0.000000  celldm(6)=   0.000000

     crystal axes: (cart. coord. in units of alat)
               a(1) = (   6.579727   0.000000   0.000000 )
               a(2) = (  -0.000775   5.961596   0.000000 )
               a(3) = (   0.000000   0.000000  25.155947 )

     reciprocal axes: (cart. coord. in units 2 pi/alat)
               b(1) = (  0.151982  0.000020  0.000000 )
               b(2) = (  0.000000  0.167740  0.000000 )
               b(3) = (  0.000000  0.000000  0.039752 )

     PseudoPot. # 1 for Ti read from file:
     /storage/coda1/p-amedford6/0/shared/rich_project_chbe-medford/medford-share/data/pseudos_module/espresso/nninc/pbe/van/Ti.UPF
     MD5 check sum: 8e4df49b7f0d34bbd5052bf3f5ea0213
     Pseudo is Ultrasoft, Zval = 12.0
     Generated by new atomic code, or converted to UPF format
     Using radial grid of  851 points,  6 beta functions with:
                l(1) =   0
                l(2) =   0
                l(3) =   1
                l(4) =   1
                l(5) =   2
                l(6) =   2
     Q(r) pseudized with  8 coefficients,  rinner =    1.000   1.000   1.000
                                                       1.000   1.000

     PseudoPot. # 2 for O  read from file:
     /storage/coda1/p-amedford6/0/shared/rich_project_chbe-medford/medford-share/data/pseudos_module/espresso/nninc/pbe/van/O.UPF
     MD5 check sum: 78c19812648e8988a0fe644b0f25305e
     Pseudo is Ultrasoft, Zval =  6.0
     Generated by new atomic code, or converted to UPF format
     Using radial grid of  737 points,  4 beta functions with:
                l(1) =   0
                l(2) =   0
                l(3) =   1
                l(4) =   1
     Q(r) pseudized with  8 coefficients,  rinner =    0.800   0.800   0.800

     PseudoPot. # 3 for N  read from file:
     /storage/coda1/p-amedford6/0/shared/rich_project_chbe-medford/medford-share/data/pseudos_module/espresso/nninc/pbe/van/N.UPF
     MD5 check sum: 90d10febe142ad51ac9d5be1deb811c4
     Pseudo is Ultrasoft, Zval =  5.0
     Generated by new atomic code, or converted to UPF format
     Using radial grid of  729 points,  4 beta functions with:
                l(1) =   0
                l(2) =   0
                l(3) =   1
                l(4) =   1
     Q(r) pseudized with  8 coefficients,  rinner =    0.800   0.800   0.800

     PseudoPot. # 4 for C  read from file:
     /storage/coda1/p-amedford6/0/shared/rich_project_chbe-medford/medford-share/data/pseudos_module/espresso/nninc/pbe/van/C.UPF
     MD5 check sum: 1a69bf6b8db32088f5b2163dbdb77a27
     Pseudo is Ultrasoft, Zval =  4.0
     Generated by new atomic code, or converted to UPF format
     Using radial grid of  721 points,  4 beta functions with:
                l(1) =   0
                l(2) =   0
                l(3) =   1
                l(4) =   1
     Q(r) pseudized with  8 coefficients,  rinner =    0.800   0.800   0.800

     PseudoPot. # 5 for H  read from file:
     /storage/coda1/p-amedford6/0/shared/rich_project_chbe-medford/medford-share/data/pseudos_module/espresso/nninc/pbe/van/H.UPF
     MD5 check sum: b5ee9d7bfd3a09ee7748110bda690ff7
     Pseudo is Ultrasoft, Zval =  1.0
     Generated by new atomic code, or converted to UPF format
     Using radial grid of  615 points,  1 beta functions with:
                l(1) =   0
     Q(r) pseudized with  8 coefficients,  rinner =    0.800

     atomic species   valence    mass     pseudopotential
        Ti1           12.00    47.86700     Ti( 1.00)
        O1             6.00    15.99900     O ( 1.00)
        N1             5.00    14.00700     N ( 1.00)
        C1             4.00    12.01100     C ( 1.00)
        H1             1.00     1.00800     H ( 1.00)

     No symmetry found

   Cartesian axes

     site n.     atom                  positions (alat units)
         1           Ti1 tau(   1) = (   0.0004258   2.9801865   6.0000000  )
         2           Ti1 tau(   2) = (   3.2906075   1.4906267   6.0002472  )
         3           O1  tau(   3) = (   0.0006271   0.0005054   7.9858123  )
         4           O1  tau(   4) = (   3.2906025   0.0005020   7.3038282  )
         5           O1  tau(   5) = (   4.5942328   1.4918067   9.2879030  )
         6           O1  tau(   6) = (   1.9868534   1.4903216   9.2879459  )
         7           Ti1 tau(   7) = (   3.2907910   2.8959150   9.1758416  )
         8           Ti1 tau(   8) = (   0.0015273   1.4827037   9.2680791  )
         9           O1  tau(   9) = (   3.2987819   5.9401718  11.3551833  )
        10           O1  tau(  10) = (   0.0116148   5.9584955  10.6183126  )
        11           O1  tau(  11) = (   1.3094369   1.4889762  12.6418845  )
        12           O1  tau(  12) = (   5.3041503   1.4933078  12.6143371  )
        13           Ti1 tau(  13) = (   0.0302489   2.9730182  12.5448133  )
        14           Ti1 tau(  14) = (   3.3273137   1.4751619  12.4920661  )
        15           O1  tau(  15) = (   6.5331299   0.0759724  14.6728253  )
        16           O1  tau(  16) = (   3.3443954   0.0128112  13.9985917  )
        17           O1  tau(  17) = (   4.5384157   1.5150964  16.2525342  )
        18           O1  tau(  18) = (   2.0107438   1.5096167  16.1239609  )
        19           Ti1 tau(  19) = (   3.2468703   2.9375149  15.6823127  )
        20           Ti1 tau(  20) = (   6.5402329   1.3810098  16.1103674  )
        21           O1  tau(  21) = (   3.2904802   0.0005063   4.7018136  )
        22           O1  tau(  22) = (   0.0855018   5.8309792  17.2460454  )
        23           O1  tau(  23) = (   1.3043587   1.4918075   6.0039043  )
        24           O1  tau(  24) = (   5.2767064   1.4903225   6.0039473  )
        25           Ti1 tau(  25) = (   0.0000382   5.9609847   6.0000000  )
        26           Ti1 tau(  26) = (   3.2902200   4.4714249   6.0002472  )
        27           O1  tau(  27) = (   0.0002396   2.9813036   7.9858123  )
        28           O1  tau(  28) = (   3.2902150   2.9813002   7.3038282  )
        29           O1  tau(  29) = (   4.5938453   4.4726049   9.2879030  )
        30           O1  tau(  30) = (   1.9864658   4.4711199   9.2879459  )
        31           Ti1 tau(  31) = (   3.2891106   5.8743827   9.1763621  )
        32           Ti1 tau(  32) = (   0.0006254   4.4649316   9.2693709  )
        33           O1  tau(  33) = (   3.2978634   2.9839445  11.3486163  )
        34           O1  tau(  34) = (   0.0092240   2.9805883  10.6323155  )
        35           O1  tau(  35) = (   1.3057425   4.4725738  12.6940039  )
        36           O1  tau(  36) = (   5.3035974   4.4670288  12.6562451  )
        37           Ti1 tau(  37) = (   0.0240142   0.0094741  12.5095027  )
        38           Ti1 tau(  38) = (   3.3290383   4.4615466  12.5202027  )
        39           O1  tau(  39) = (   6.5484913   2.9337383  14.8377676  )
        40           O1  tau(  40) = (   3.3243726   2.9440003  13.9069550  )
        41           O1  tau(  41) = (   4.5478640   4.3999133  16.1372545  )
        42           O1  tau(  42) = (   2.0209518   4.4226222  15.9786897  )
        43           Ti1 tau(  43) = (   3.3220059   5.9437776  15.8132296  )
        44           Ti1 tau(  44) = (   0.0730556   4.5544523  15.7304118  )
        45           O1  tau(  45) = (   3.2900926   2.9813045   4.7018136  )
        46           O1  tau(  46) = (   1.3039711   4.4726057   6.0039043  )
        47           O1  tau(  47) = (   5.2763189   4.4711207   6.0039473  )
        48           N1  tau(  48) = (   0.0453545   2.8788619  17.9090770  )
        49           C1  tau(  49) = (   1.0089482   2.8008358  18.8431878  )
        50           H1  tau(  50) = (   1.0080222   3.4413729  19.7168629  )
        51           H1  tau(  51) = (   1.8954070   2.2543435  18.5800802  )
        52           N1  tau(  52) = (   5.5320326   3.6725468  18.4365114  )
        53           H1  tau(  53) = (   5.8975581   4.6271042  18.6377988  )
        54           H1  tau(  54) = (   4.8553295   3.8628436  17.6443034  )
        55           H1  tau(  55) = (   5.1025442   3.2364756  19.2632064  )
        56           O1  tau(  56) = (   2.8928424   5.6518753  18.2681889  )
        57           H1  tau(  57) = (   3.0708471   0.5134993  18.7460362  )
        58           H1  tau(  58) = (   1.9080978   5.6479514  18.1114729  )

     number of k points=    10  Fermi-Dirac smearing, width (Ry)=  0.0073
                       cart. coord. in units 2pi/alat
        k(    1) = (   0.0000000   0.0000000   0.0000000), wk =   0.1250000
        k(    2) = (   0.0000000   0.0419351   0.0000000), wk =   0.2500000
        k(    3) = (   0.0000000  -0.0838702   0.0000000), wk =   0.1250000
        k(    4) = (   0.0379955   0.0000049   0.0000000), wk =   0.2500000
        k(    5) = (   0.0379955   0.0419400   0.0000000), wk =   0.2500000
        k(    6) = (   0.0379955  -0.0838652   0.0000000), wk =   0.2500000
        k(    7) = (   0.0379955  -0.0419301   0.0000000), wk =   0.2500000
        k(    8) = (  -0.0759910  -0.0000099   0.0000000), wk =   0.1250000
        k(    9) = (  -0.0759910   0.0419252   0.0000000), wk =   0.2500000
        k(   10) = (  -0.0759910  -0.0838800   0.0000000), wk =   0.1250000

     Initial potential from superposition of free atoms

     starting charge  388.99913, renormalised to  405.00000

     negative rho (up, down):  1.580E-02 0.000E+00

     %%%%%%%%%%%%%%%%%%%%%%%%%%%%%%%%%%%%%%%%%%%%%%%%%%%%%%%%%%%%%%%%%%%%%%%%
     %                                                                      %
     % You are using vdW-DF, which was implemented by the Thonhauser group. %
     % Please cite the following two papers that made this development      %
     % possible and the two reviews that describe the various versions:     %
     %                                                                      %
     %   T. Thonhauser et al., PRL 115, 136402 (2015).                      %
     %   T. Thonhauser et al., PRB 76, 125112 (2007).                       %
     %   K. Berland et al., Rep. Prog. Phys. 78, 066501 (2015).             %
     %   D.C. Langreth et al., J. Phys.: Condens. Matter 21, 084203 (2009). %
     %                                                                      %
     %                                                                      %
     % If you are calculating the stress with vdW-DF, please also cite:     %
     %                                                                      %
     %   R. Sabatini et al., J. Phys.: Condens. Matter 24, 424209 (2012).   %
     %                                                                      %
     %%%%%%%%%%%%%%%%%%%%%%%%%%%%%%%%%%%%%%%%%%%%%%%%%%%%%%%%%%%%%%%%%%%%%%%%

     Adding external electric field

     Computed dipole along edir(3) :
        Dipole              -14.4816 Ry au,        -36.8086 Debye
        Dipole field         -0.0273 Ry au,

        Potential amp.        2.5333 Ry
        Total length         46.3494 bohr

     Starting wfcs are  307 atomic wfcs
  @ DRIVER MODE: Message from server: STATUS
  @ DRIVER MODE: Message from server: POSDATA
  @ DRIVER MODE: Reading and sharing cell
  @ DRIVER MODE: Reading and sharing positions
  @ DRIVER MODE: Received positions

     Self-consistent Calculation

     iteration #  1     ecut=    29.40 Ry     beta= 0.05
     Davidson diagonalization with overlap
     c_bands:  2 eigenvalues not converged
     c_bands:  5 eigenvalues not converged
     c_bands:  1 eigenvalues not converged
     c_bands:  3 eigenvalues not converged
     c_bands:  3 eigenvalues not converged
     c_bands:  4 eigenvalues not converged
     ethr =  1.00E-05,  avg # of iterations = 27.0

[...]

     total energy              =   -2173.32121946 Ry
     estimated scf accuracy    <    9121.10264360 Ry

     iteration #  2     ecut=    29.40 Ry     beta= 0.05
     Davidson diagonalization with overlap
     ethr =  1.00E-02,  avg # of iterations = 27.1

[...]

     iteration # 73     ecut=    29.40 Ry     beta= 0.05
     Davidson diagonalization with overlap
     c_bands:  2 eigenvalues not converged
     ethr =  2.62E-11,  avg # of iterations = 14.0

[...]

     total energy              =   -2976.32708962 Ry
     estimated scf accuracy    <       0.00000008 Ry

     iteration # 74     ecut=    29.40 Ry     beta= 0.05
     Davidson diagonalization with overlap
     ethr =  2.04E-11,  avg # of iterations =  9.1

     negative rho (up, down):  1.317E-02 0.000E+00

     Adding external electric field

     Computed dipole along edir(3) :
        Dipole                1.3391 Ry au,          3.4036 Debye
        Dipole field          0.0025 Ry au,

        Potential amp.       -0.2343 Ry
        Total length         46.3494 bohr

     End of self-consistent calculation

          k = 0.0000 0.0000 0.0000 ( 18029 PWs)   bands (ev):

   -55.1723 -55.1429 -55.1313 -55.1088 -55.0927 -55.0495 -55.0084 -54.9820
   -54.9711 -54.9558 -54.9465 -54.9383 -54.8731 -54.7259 -54.1550 -54.1209
   -31.7390 -31.6326 -31.5369 -31.5031 -31.4817 -31.4743 -31.4711 -31.4328
   -31.4093 -31.3880 -31.3820 -31.3796 -31.3681 -31.3466 -31.3202 -31.3172
   -31.3072 -31.2956 -31.2900 -31.2852 -31.2542 -31.2372 -31.2307 -31.2112
   -31.1998 -31.1822 -31.1802 -31.1796 -31.1707 -31.1680 -31.1513 -31.1422
   -31.1321 -31.1310 -31.1089 -31.1013 -31.0973 -31.0796 -31.0543 -31.0178
   -31.0026 -30.8721 -30.5635 -30.4714 -30.4492 -30.3800 -30.2933 -30.1823
   -19.0894 -18.7366 -16.0090 -15.7511 -15.6239 -15.4467 -15.3668 -15.2131
   -15.1433 -15.0605 -15.0329 -14.9689 -14.9297 -14.8997 -14.7870 -14.7797
   -14.7068 -14.7065 -14.6982 -14.6653 -14.6616 -14.6576 -14.6018 -14.5987
   -14.5593 -14.5482 -14.5360 -14.3939 -14.3188 -14.2618 -14.0921 -13.9786
   -12.6573 -12.5402  -9.0022  -7.6887  -6.9444  -6.4884  -5.7618  -3.8002
    -3.3465  -3.2110  -3.1759  -3.1143  -3.0723  -2.9782  -2.8943  -2.7722
    -2.5551  -2.4778  -2.4377  -2.3885  -2.3803  -2.3333  -2.2445  -2.1614
    -2.1284  -2.0928  -2.0429  -2.0280  -1.9872  -1.9608  -1.9414  -1.9002
    -1.8902  -1.7447  -1.6846  -1.6300  -1.5816  -1.5608  -1.5591  -1.5010
    -1.4873  -1.4665  -1.4636  -1.4529  -1.4217  -1.3865  -1.3781  -1.3243
    -1.2902  -1.1647  -1.0906  -0.9749  -0.9157  -0.8825  -0.8008  -0.7323
    -0.7159  -0.6438  -0.5794  -0.5600  -0.5027  -0.4627  -0.3739  -0.3386
    -0.2912  -0.2649  -0.1566  -0.1435  -0.1278  -0.0582   0.0323   0.0412
     0.0651   0.1102   0.1953   0.2302   0.2834   0.3100   0.4097   0.4408
     0.4829   0.4997   0.5262   0.6073   0.6779   0.7155   0.7762   0.7855
     0.8204   0.8253   0.8478   0.9421   0.9728   0.9781   1.0263   1.1931
     1.2471   1.4496   1.4517   1.7819   1.8176   1.8680   2.0543   2.4418
     2.4891   3.9268   3.9931   4.0419   4.0587   4.0770   4.1350   4.1696
     4.3974   4.4201   4.4344   4.4480

[...]

          k = 0.0380-0.0419 0.0000 ( 17876 PWs)   bands (ev):

[...]

          k =-0.0760-0.0000 0.0000 ( 17886 PWs)   bands (ev):

[...]

          k =-0.0760-0.0839 0.0000 ( 17948 PWs)   bands (ev):

   -55.1615 -55.1418 -55.1258 -55.1257 -55.0905 -55.0403 -55.0176 -54.9664
   -54.9607 -54.9578 -54.9562 -54.9542 -54.8713 -54.7276 -54.1379 -54.1378
   -31.5501 -31.5351 -31.4479 -31.4477 -31.4472 -31.4380 -31.4182 -31.4182
   -31.3838 -31.3782 -31.3687 -31.3669 -31.3368 -31.3087 -31.3011 -31.2991
   -31.2965 -31.2929 -31.2904 -31.2857 -31.2766 -31.2627 -31.2487 -31.2451
   -31.2450 -31.2431 -31.2406 -31.2144 -31.1997 -31.1917 -31.1807 -31.1763
   -31.1757 -31.1752 -31.1569 -31.1552 -31.1361 -31.1335 -31.0721 -31.0103
   -31.0065 -30.9460 -30.4619 -30.4618 -30.3761 -30.3760 -30.3367 -30.3366
   -19.0826 -18.7389 -15.5108 -15.3750 -15.3359 -15.2455 -15.1640 -15.1479
   -15.1400 -15.1058 -15.0533 -14.9938 -14.9489 -14.9140 -14.8736 -14.8721
   -14.8591 -14.7590 -14.7478 -14.7404 -14.7235 -14.6753 -14.6655 -14.6487
   -14.6235 -14.6218 -14.5967 -14.5161 -14.5151 -14.4170 -14.3159 -14.0380
   -12.6418 -12.6417  -8.9897  -7.7041  -6.9016  -6.4779  -5.7756  -3.8815
    -2.9915  -2.7688  -2.5743  -2.5451  -2.4269  -2.3749  -2.3292  -2.3079
    -2.2214  -2.1813  -2.1644  -2.1580  -2.1386  -2.0812  -2.0606  -2.0212
    -2.0016  -1.9875  -1.9786  -1.9546  -1.9497  -1.9179  -1.9012  -1.8832
    -1.8773  -1.8402  -1.8019  -1.7904  -1.7533  -1.7323  -1.7243  -1.6650
    -1.5669  -1.5344  -1.4904  -1.4259  -1.3618  -1.3580  -1.2830  -1.2682
    -1.2492  -1.2317  -1.1962  -1.1840  -1.0710  -1.0148  -0.9099  -0.8973
    -0.8914  -0.7848  -0.7525  -0.7115  -0.6807  -0.6437  -0.5865  -0.5107
    -0.5023  -0.4269  -0.3885  -0.3780  -0.3593  -0.2168  -0.1874  -0.1539
    -0.1303  -0.1254  -0.0713  -0.0288   0.0015   0.0391   0.0660   0.0987
     0.1149   0.1909   0.3280   0.3598   0.4009   0.5331   0.5615   0.6771
     0.7027   0.8229   0.8963   0.9410   0.9612   1.0390   1.1135   1.1372
     1.1431   1.2543   1.3051   1.3071   1.3245   2.2267   2.2283   2.3090
     2.3092   3.7806   4.0727   4.1978   4.2146   4.2553   4.3791   4.4444
     4.4797   4.5014   4.5042   4.5882

     the Fermi energy is     3.9758 ev

!    total energy              =   -2976.32710830 Ry
     estimated scf accuracy    <       0.00000006 Ry
     smearing contrib. (-TS)   =      -0.04069478 Ry
     internal energy E=F+TS    =   -2976.28641352 Ry

     The total energy is F=E-TS. E is the sum of the following terms:
     one-electron contribution =  -23820.60012050 Ry
     hartree contribution      =   12009.14436682 Ry
     xc contribution           =    -495.75018095 Ry
     ewald contribution        =    9330.91613715 Ry
     electric field correction =       0.00338396 Ry

     convergence has been achieved in  74 iterations

     Forces acting on atoms (cartesian axes, Ry/au):

     atom    1 type  1   force =     0.00015832   -0.00020360    0.09425728
     atom    2 type  1   force =    -0.00011030   -0.00035557   -0.17723003
     atom    3 type  2   force =     0.00008595    0.00004034   -0.02133107
     atom    4 type  2   force =     0.00001935   -0.00173809    0.05670109
     atom    5 type  2   force =    -0.01044287   -0.00127916    0.00672830
     atom    6 type  2   force =     0.01220285   -0.00072294    0.00624062
     atom    7 type  1   force =    -0.00028277    0.00287604   -0.01265571
     atom    8 type  1   force =    -0.00014731    0.00438391    0.00453264
     atom    9 type  2   force =    -0.00036244    0.00009237    0.00075462
     atom   10 type  2   force =    -0.00008412   -0.00089012   -0.00640315
     atom   11 type  2   force =    -0.00041886   -0.00033034    0.00006758
     atom   12 type  2   force =    -0.00032199   -0.00042426    0.00015660
     atom   13 type  1   force =    -0.00034696   -0.00016709   -0.00034558
     atom   14 type  1   force =     0.00003629   -0.00044306   -0.00033558
     atom   15 type  2   force =    -0.00020557   -0.00008832    0.00009487
     atom   16 type  2   force =    -0.00065667    0.00023534   -0.00037293
     atom   17 type  2   force =    -0.00002875    0.00005975    0.00014976
     atom   18 type  2   force =     0.00028166   -0.00001875    0.00021890
     atom   19 type  1   force =     0.00018901   -0.00097432    0.00009002
     atom   20 type  1   force =     0.00018205    0.00016148    0.00039109
     atom   21 type  2   force =     0.00004942    0.00001605    0.10360835
     atom   22 type  2   force =     0.00019608   -0.00006385    0.00118857
     atom   23 type  2   force =    -0.07080988   -0.00010918   -0.02716081
     atom   24 type  2   force =     0.07070675    0.00032975   -0.02718890
     atom   25 type  1   force =    -0.00006484   -0.00022746    0.09367952
     atom   26 type  1   force =    -0.00013149   -0.00042471   -0.17736411
     atom   27 type  2   force =     0.00014816   -0.00039667   -0.02028370
     atom   28 type  2   force =     0.00005361   -0.00138303    0.05585131
     atom   29 type  2   force =    -0.01031213   -0.00029991    0.00538036
     atom   30 type  2   force =     0.01198400    0.00009753    0.00501876
     atom   31 type  1   force =    -0.00017225    0.00358673   -0.01531682
     atom   32 type  1   force =    -0.00018940   -0.00484483    0.00437836
     atom   33 type  2   force =    -0.00006694   -0.00017242    0.00031252
     atom   34 type  2   force =     0.00120542    0.00258532   -0.00430010
     atom   35 type  2   force =    -0.00071282   -0.00016248    0.00018355
     atom   36 type  2   force =    -0.00001116   -0.00002993    0.00046407
     atom   37 type  1   force =     0.00038660    0.00041421   -0.00032587
     atom   38 type  1   force =    -0.00000125    0.00053736   -0.00156774
     atom   39 type  2   force =     0.00027638   -0.00043723   -0.00014938
     atom   40 type  2   force =     0.00004939    0.00004730    0.00059367
     atom   41 type  2   force =    -0.00014601   -0.00026167   -0.00019632
     atom   42 type  2   force =     0.00038752   -0.00041795   -0.00006344
     atom   43 type  1   force =    -0.00080564    0.00065601    0.00106294
     atom   44 type  1   force =    -0.00006024   -0.00023336   -0.00031447
     atom   45 type  2   force =     0.00004048   -0.00002820    0.10361233
     atom   46 type  2   force =    -0.07084807   -0.00006346   -0.02715952
     atom   47 type  2   force =     0.07074670    0.00034114   -0.02718891
     atom   48 type  3   force =     0.00043028    0.00032435   -0.00018296
     atom   49 type  4   force =     0.00068676   -0.00053317    0.00045332
     atom   50 type  5   force =     0.00115716   -0.00013554   -0.00028001
     atom   51 type  5   force =    -0.00081510    0.00075003   -0.00045745
     atom   52 type  3   force =     0.00058996   -0.00011754    0.00018403
     atom   53 type  5   force =    -0.00140426   -0.00013817    0.00039482
     atom   54 type  5   force =     0.00023001   -0.00036531    0.00055045
     atom   55 type  5   force =    -0.00061973   -0.00000409    0.00019167
     atom   56 type  2   force =    -0.01515947    0.00066265   -0.00308505
     atom   57 type  5   force =    -0.00051888   -0.00057119    0.00046003
     atom   58 type  5   force =     0.01377802    0.00085933    0.00330762

     Total force =     0.365890     Total SCF correction =     0.000639
  @ DRIVER MODE: Message from server: STATUS
  @ DRIVER MODE: Message from server: GETFORCE
  @ DRIVER MODE: Returning v,forces,stress,ensemble

     Writing output data file ./calc.save/
  @ DRIVER MODE: Message from server: EXIT
  @ DRIVE MODE: Exiting

     General routines

     Parallel routines

   This run was terminated on:  14: 1:17  16Sep2021

   JOB DONE.