     Program PWSCF v.6.7GPU starts on 28Sep2021 at  2:19:56

     R & G space division:  proc/nbgrp/npool/nimage =       8
     Reading input from /storage/home/hcoda1/3/ntian30/research/carbon/CxH_vib/H2O_calc/ads_slab/CHNHO_a/out_0011/pw.inp
Warning: card &CELL ignored
Warning: card   CELL_DYNAMICS='IPI', ignored
Warning: card / ignored

     Current dimensions of program PWSCF are:
     Max number of different atomic species (ntypx) = 10
     Max number of k-points (npk) =  40000
     Max angular momentum in pseudopotentials (lmaxx) =  3
     Presently no symmetry can be used with electric field

     Message from routine cell_base_init:
     DEPRECATED: use true lattice parameter, not A to a.u. conversion factor

     IMPORTANT: XC functional enforced from input :
     Exchange-correlation= BEEF-VDW
                           (   1   4  43  14   2   0   0)
     Any further DFT definition will be discarded
     Please, verify this is what you really want

  @ DRIVER MODE: Connecting to
 qe_1139763_3003541.sched-torque.pace.gatech.eduzezhyn3a_scratch
  using UNIX socket
  @ DRIVER MODE: Message from server: STATUS
  @ DRIVER MODE: Message from server: INIT
  @ DRIVER MODE: Receiving replica           0          -1
  @ DRIVER MODE: Receiving encoded integer          25
  @ DRIVER MODE:  SCF:  T  FORCE:  T  STRESS:  F  VC:  F  ENSEMBLE:  F
  @ DRIVER MODE:  SCF:  T  FORCE:  T  STRESS:  F  VC:  F  ENSEMBLE:  F

     Using Slab Decomposition

     bravais-lattice index     =            0
     lattice parameter (alat)  =       1.8897  a.u.
     unit-cell volume          =    6658.9804 (a.u.)^3
     number of atoms/cell      =           52
     number of atomic types    =            5
     number of electrons       =       395.00
     number of Kohn-Sham states=          207
     kinetic-energy cutoff     =      29.3995  Ry
     charge density cutoff     =     293.9946  Ry
     scf convergence threshold =      7.3E-08
     mixing beta               =       0.0500
     number of iterations used =            8  plain     mixing
     Exchange-correlation= BEEF-VDW
                           (   1   4  43  14   2   0   0)

     celldm(1)=   1.889726  celldm(2)=   0.000000  celldm(3)=   0.000000
     celldm(4)=   0.000000  celldm(5)=   0.000000  celldm(6)=   0.000000

     crystal axes: (cart. coord. in units of alat)
               a(1) = (   6.579727   0.000000   0.000000 )
               a(2) = (  -0.000775   5.961596   0.000000 )
               a(3) = (   0.000000   0.000000  25.155947 )

     reciprocal axes: (cart. coord. in units 2 pi/alat)
               b(1) = (  0.151982  0.000020  0.000000 )
               b(2) = (  0.000000  0.167740  0.000000 )
               b(3) = (  0.000000  0.000000  0.039752 )

     PseudoPot. # 1 for Ti read from file:
     /storage/coda1/p-amedford6/0/shared/rich_project_chbe-medford/medford-share/data/pseudos_module/espresso/nninc/pbe/van/Ti.UPF
     MD5 check sum: 8e4df49b7f0d34bbd5052bf3f5ea0213
     Pseudo is Ultrasoft, Zval = 12.0
     Generated by new atomic code, or converted to UPF format
     Using radial grid of  851 points,  6 beta functions with:
                l(1) =   0
                l(2) =   0
                l(3) =   1
                l(4) =   1
                l(5) =   2
                l(6) =   2
     Q(r) pseudized with  8 coefficients,  rinner =    1.000   1.000   1.000
                                                       1.000   1.000

     PseudoPot. # 2 for O  read from file:
     /storage/coda1/p-amedford6/0/shared/rich_project_chbe-medford/medford-share/data/pseudos_module/espresso/nninc/pbe/van/O.UPF
     MD5 check sum: 78c19812648e8988a0fe644b0f25305e
     Pseudo is Ultrasoft, Zval =  6.0
     Generated by new atomic code, or converted to UPF format
     Using radial grid of  737 points,  4 beta functions with:
                l(1) =   0
                l(2) =   0
                l(3) =   1
                l(4) =   1
     Q(r) pseudized with  8 coefficients,  rinner =    0.800   0.800   0.800

     PseudoPot. # 3 for N  read from file:
     /storage/coda1/p-amedford6/0/shared/rich_project_chbe-medford/medford-share/data/pseudos_module/espresso/nninc/pbe/van/N.UPF
     MD5 check sum: 90d10febe142ad51ac9d5be1deb811c4
     Pseudo is Ultrasoft, Zval =  5.0
     Generated by new atomic code, or converted to UPF format
     Using radial grid of  729 points,  4 beta functions with:
                l(1) =   0
                l(2) =   0
                l(3) =   1
                l(4) =   1
     Q(r) pseudized with  8 coefficients,  rinner =    0.800   0.800   0.800

     PseudoPot. # 4 for C  read from file:
     /storage/coda1/p-amedford6/0/shared/rich_project_chbe-medford/medford-share/data/pseudos_module/espresso/nninc/pbe/van/C.UPF
     MD5 check sum: 1a69bf6b8db32088f5b2163dbdb77a27
     Pseudo is Ultrasoft, Zval =  4.0
     Generated by new atomic code, or converted to UPF format
     Using radial grid of  721 points,  4 beta functions with:
                l(1) =   0
                l(2) =   0
                l(3) =   1
                l(4) =   1
     Q(r) pseudized with  8 coefficients,  rinner =    0.800   0.800   0.800

     PseudoPot. # 5 for H  read from file:
     /storage/coda1/p-amedford6/0/shared/rich_project_chbe-medford/medford-share/data/pseudos_module/espresso/nninc/pbe/van/H.UPF
     MD5 check sum: b5ee9d7bfd3a09ee7748110bda690ff7
     Pseudo is Ultrasoft, Zval =  1.0
     Generated by new atomic code, or converted to UPF format
     Using radial grid of  615 points,  1 beta functions with:
                l(1) =   0
     Q(r) pseudized with  8 coefficients,  rinner =    0.800

     atomic species   valence    mass     pseudopotential
        Ti1           12.00    47.86700     Ti( 1.00)
        O1             6.00    15.99900     O ( 1.00)
        N1             5.00    14.00700     N ( 1.00)
        C1             4.00    12.01100     C ( 1.00)
        H1             1.00     1.00800     H ( 1.00)

     No symmetry found

   Cartesian axes

     site n.     atom                  positions (alat units)
         1           Ti1 tau(   1) = (   0.0004258   2.9801865   6.0000000  )
         2           Ti1 tau(   2) = (   3.2906075   1.4906267   6.0002472  )
         3           O1  tau(   3) = (   0.0006271   0.0005054   7.9858123  )
         4           O1  tau(   4) = (   3.2906025   0.0005020   7.3038282  )
         5           O1  tau(   5) = (   4.5942328   1.4918067   9.2879030  )
         6           O1  tau(   6) = (   1.9868534   1.4903216   9.2879459  )
         7           Ti1 tau(   7) = (   3.2907910   2.8959150   9.1758416  )
         8           Ti1 tau(   8) = (   0.0015273   1.4827037   9.2680791  )
         9           O1  tau(   9) = (   3.2959632   0.0395795  11.3506057  )
        10           O1  tau(  10) = (   0.0116148   5.9584955  10.6183126  )
        11           O1  tau(  11) = (   1.2788542   1.5152540  12.6826201  )
        12           O1  tau(  12) = (   5.3118026   1.5181145  12.6771052  )
        13           Ti1 tau(  13) = (   6.5565567   2.9614743  12.5245697  )
        14           Ti1 tau(  14) = (   3.2956814   1.5864178  12.4516600  )
        15           O1  tau(  15) = (   0.0252471   5.9065102  14.6673769  )
        16           O1  tau(  16) = (   3.3061784   5.9134112  13.9760755  )
        17           O1  tau(  17) = (   4.5493393   1.5513651  16.1111979  )
        18           O1  tau(  18) = (   2.0154464   1.5530992  16.0877549  )
        19           Ti1 tau(  19) = (   3.2773477   2.9896638  15.7021987  )
        20           Ti1 tau(  20) = (   0.0480268   1.3694702  15.7882682  )
        21           O1  tau(  21) = (   3.2904802   0.0005063   4.7018136  )
        22           O1  tau(  22) = (   6.5727385   0.1062933  17.1740559  )
        23           O1  tau(  23) = (   1.3043587   1.4918075   6.0039043  )
        24           O1  tau(  24) = (   5.2767064   1.4903225   6.0039473  )
        25           Ti1 tau(  25) = (   0.0000382   5.9609847   6.0000000  )
        26           Ti1 tau(  26) = (   3.2902200   4.4714249   6.0002472  )
        27           O1  tau(  27) = (   0.0002396   2.9813036   7.9858123  )
        28           O1  tau(  28) = (   3.2902150   2.9813002   7.3038282  )
        29           O1  tau(  29) = (   4.5938453   4.4726049   9.2879030  )
        30           O1  tau(  30) = (   1.9864658   4.4711199   9.2879459  )
        31           Ti1 tau(  31) = (   3.2891106   5.8743827   9.1763621  )
        32           Ti1 tau(  32) = (   0.0006254   4.4649316   9.2693709  )
        33           O1  tau(  33) = (   3.2965180   2.9598593  11.3174316  )
        34           O1  tau(  34) = (   0.0092240   2.9805883  10.6323155  )
        35           O1  tau(  35) = (   1.2824442   4.4846720  12.6503842  )
        36           O1  tau(  36) = (   5.3188658   4.4853930  12.6478368  )
        37           Ti1 tau(  37) = (   0.0485215   5.9261111  12.5025588  )
        38           Ti1 tau(  38) = (   3.3111372   4.6778342  12.7091208  )
        39           O1  tau(  39) = (   6.5585416   3.0335453  14.9077256  )
        40           O1  tau(  40) = (   3.2962521   3.0064119  13.9315977  )
        41           O1  tau(  41) = (   4.5433468   4.4479239  16.1972702  )
        42           O1  tau(  42) = (   2.0131479   4.4365031  16.1967174  )
        43           Ti1 tau(  43) = (   3.3705753   0.0290894  16.3529554  )
        44           Ti1 tau(  44) = (   0.0540424   4.5922997  16.0496824  )
        45           O1  tau(  45) = (   3.2900926   2.9813045   4.7018136  )
        46           O1  tau(  46) = (   1.3039711   4.4726057   6.0039043  )
        47           O1  tau(  47) = (   5.2763189   4.4711207   6.0039473  )
        48           N1  tau(  48) = (   6.5754701   3.2032128  17.9785674  )
        49           C1  tau(  49) = (   6.5468619   2.3444050  18.7339128  )
        50           H1  tau(  50) = (   6.5191205   1.5204410  19.4189644  )
        51           O1  tau(  51) = (   3.3183073   0.1146119  18.2142577  )
        52           H1  tau(  52) = (   3.2686675   5.2273609  18.6755658  )

     number of k points=    10  Fermi-Dirac smearing, width (Ry)=  0.0073
                       cart. coord. in units 2pi/alat
        k(    1) = (   0.0000000   0.0000000   0.0000000), wk =   0.1250000
        k(    2) = (   0.0000000   0.0419351   0.0000000), wk =   0.2500000
        k(    3) = (   0.0000000  -0.0838702   0.0000000), wk =   0.1250000
        k(    4) = (   0.0379955   0.0000049   0.0000000), wk =   0.2500000
        k(    5) = (   0.0379955   0.0419400   0.0000000), wk =   0.2500000
        k(    6) = (   0.0379955  -0.0838652   0.0000000), wk =   0.2500000
        k(    7) = (   0.0379955  -0.0419301   0.0000000), wk =   0.2500000
        k(    8) = (  -0.0759910  -0.0000099   0.0000000), wk =   0.1250000
        k(    9) = (  -0.0759910   0.0419252   0.0000000), wk =   0.2500000
        k(   10) = (  -0.0759910  -0.0838800   0.0000000), wk =   0.1250000

     Initial potential from superposition of free atoms

     starting charge  378.99918, renormalised to  395.00000

     negative rho (up, down):  1.719E-02 0.000E+00

     %%%%%%%%%%%%%%%%%%%%%%%%%%%%%%%%%%%%%%%%%%%%%%%%%%%%%%%%%%%%%%%%%%%%%%%%
     %                                                                      %
     % You are using vdW-DF, which was implemented by the Thonhauser group. %
     % Please cite the following two papers that made this development      %
     % possible and the two reviews that describe the various versions:     %
     %                                                                      %
     %   T. Thonhauser et al., PRL 115, 136402 (2015).                      %
     %   T. Thonhauser et al., PRB 76, 125112 (2007).                       %
     %   K. Berland et al., Rep. Prog. Phys. 78, 066501 (2015).             %
     %   D.C. Langreth et al., J. Phys.: Condens. Matter 21, 084203 (2009). %
     %                                                                      %
     %                                                                      %
     % If you are calculating the stress with vdW-DF, please also cite:     %
     %                                                                      %
     %   R. Sabatini et al., J. Phys.: Condens. Matter 24, 424209 (2012).   %
     %                                                                      %
     %%%%%%%%%%%%%%%%%%%%%%%%%%%%%%%%%%%%%%%%%%%%%%%%%%%%%%%%%%%%%%%%%%%%%%%%

     Adding external electric field

     Computed dipole along edir(3) :
        Dipole               -8.1464 Ry au,        -20.7062 Debye
        Dipole field         -0.0154 Ry au,

        Potential amp.        1.4251 Ry
        Total length         46.3494 bohr

     Starting wfcs are  298 atomic wfcs
  @ DRIVER MODE: Message from server: STATUS
  @ DRIVER MODE: Message from server: POSDATA
  @ DRIVER MODE: Reading and sharing cell
  @ DRIVER MODE: Reading and sharing positions
  @ DRIVER MODE: Received positions

     Self-consistent Calculation

     iteration #  1     ecut=    29.40 Ry     beta= 0.05
     Davidson diagonalization with overlap
     c_bands:  1 eigenvalues not converged
     c_bands:  2 eigenvalues not converged
     c_bands:  2 eigenvalues not converged
     c_bands:  3 eigenvalues not converged
     c_bands:  3 eigenvalues not converged
     c_bands:  1 eigenvalues not converged
     c_bands:  1 eigenvalues not converged
     ethr =  1.00E-05,  avg # of iterations = 19.3

[...]

     total energy              =   -2615.10307720 Ry
     estimated scf accuracy    <    3704.49781627 Ry

     iteration #  2     ecut=    29.40 Ry     beta= 0.05
     Davidson diagonalization with overlap
     ethr =  1.00E-02,  avg # of iterations = 22.9

[...]

     iteration # 58     ecut=    29.40 Ry     beta= 0.05
     Davidson diagonalization with overlap
     c_bands:  1 eigenvalues not converged
     ethr =  3.30E-10,  avg # of iterations = 13.7

[...]

     total energy              =   -2950.24092201 Ry
     estimated scf accuracy    <       0.00000008 Ry

     iteration # 63     ecut=    29.40 Ry     beta= 0.05
     Davidson diagonalization with overlap
     ethr =  2.13E-11,  avg # of iterations =  9.7

     negative rho (up, down):  1.737E-02 0.000E+00

     Adding external electric field

     Computed dipole along edir(3) :
        Dipole                1.2395 Ry au,          3.1505 Debye
        Dipole field          0.0023 Ry au,

        Potential amp.       -0.2168 Ry
        Total length         46.3494 bohr

     End of self-consistent calculation

          k = 0.0000 0.0000 0.0000 ( 18029 PWs)   bands (ev):

   -55.6678 -55.6156 -55.5815 -55.4448 -55.4425 -55.4398 -55.4085 -55.4082
   -55.4069 -55.3666 -55.3235 -55.2887 -55.2047 -55.0963 -54.5785 -54.5444
   -32.0992 -32.0176 -32.0123 -31.9439 -31.9323 -31.9066 -31.8906 -31.8809
   -31.8613 -31.8534 -31.8189 -31.7681 -31.7292 -31.7213 -31.7126 -31.7070
   -31.6973 -31.6899 -31.6732 -31.6531 -31.6500 -31.6408 -31.6360 -31.6198
   -31.6176 -31.5903 -31.5887 -31.5854 -31.5683 -31.5636 -31.5561 -31.5414
   -31.5402 -31.5196 -31.4904 -31.4771 -31.4744 -31.4204 -31.3983 -31.3477
   -31.3156 -31.3067 -30.9838 -30.8991 -30.8765 -30.8016 -30.7153 -30.6033
   -17.3276 -16.5963 -16.2416 -16.0788 -15.8597 -15.7796 -15.7476 -15.5609
   -15.4493 -15.4006 -15.1923 -15.1470 -15.1319 -15.1126 -15.0895 -15.0860
   -15.0704 -15.0304 -15.0304 -15.0134 -14.9941 -14.9598 -14.9429 -14.8943
   -14.8165 -14.8078 -14.7452 -14.6709 -14.6249 -14.3560 -14.3318 -13.0768
   -12.9607  -8.6778  -4.4656  -4.1525  -3.5967  -3.5133  -3.4859  -3.4595
    -3.3668  -3.2851  -3.1255  -3.0975  -2.9783  -2.9217  -2.8135  -2.7150
    -2.6445  -2.5981  -2.5404  -2.5070  -2.4719  -2.4270  -2.3900  -2.3511
    -2.3252  -2.3158  -2.2559  -2.2274  -2.1293  -2.1235  -2.0875  -1.9924
    -1.9759  -1.9275  -1.9199  -1.9161  -1.8626  -1.8473  -1.8309  -1.7964
    -1.6763  -1.6525  -1.6467  -1.5866  -1.5233  -1.2120  -1.2015  -1.1425
    -1.0678  -1.0354  -1.0092  -0.9909  -0.9301  -0.8930  -0.8790  -0.8611
    -0.7872  -0.6916  -0.6591  -0.6109  -0.4579  -0.4521  -0.3970  -0.3774
    -0.3503  -0.3112  -0.2601  -0.1900  -0.1627  -0.1397  -0.0090   0.0121
     0.0600   0.0738   0.1184   0.1674   0.2016   0.2677   0.3193   0.3406
     0.3579   0.3695   0.4012   0.4215   0.5137   0.5459   0.5957   0.6595
     0.7198   0.7370   0.7898   0.9463   1.0420   1.0716   1.1812   1.4012
     1.4481   1.4999   1.6440   2.0136   2.0585   3.4735   3.6227   3.6399
     3.7278   3.7406   3.8258   3.9609   4.0545   4.1646   4.1763

[...]

          k = 0.0380-0.0419 0.0000 ( 17876 PWs)   bands (ev):

[...]

          k =-0.0760-0.0000 0.0000 ( 17886 PWs)   bands (ev):

[...]

          k =-0.0760-0.0839 0.0000 ( 17948 PWs)   bands (ev):

   -55.6670 -55.5986 -55.5983 -55.4405 -55.4298 -55.4249 -55.4233 -55.4211
   -55.4091 -55.3585 -55.3316 -55.2907 -55.2022 -55.0987 -54.5614 -54.5613
   -31.9553 -31.9444 -31.9146 -31.9144 -31.8929 -31.8923 -31.8919 -31.8691
   -31.7990 -31.7557 -31.7538 -31.7462 -31.7338 -31.7186 -31.7182 -31.7060
   -31.7022 -31.6998 -31.6920 -31.6705 -31.6696 -31.6581 -31.6418 -31.6286
   -31.6252 -31.6221 -31.6135 -31.6048 -31.6044 -31.5965 -31.5936 -31.5782
   -31.5717 -31.5547 -31.5479 -31.5076 -31.4948 -31.4671 -31.4360 -31.4022
   -31.3536 -31.3111 -30.8893 -30.8893 -30.7969 -30.7966 -30.7586 -30.7583
   -17.3209 -16.5875 -15.8703 -15.6495 -15.5788 -15.5736 -15.4387 -15.3685
   -15.3465 -15.3169 -15.3020 -15.2648 -15.2409 -15.2254 -15.1825 -15.1576
   -15.1242 -15.1058 -15.0911 -15.0520 -15.0416 -15.0162 -15.0069 -14.9905
   -14.9336 -14.9113 -14.9023 -14.7717 -14.7384 -14.6631 -14.4721 -13.0626
   -13.0625  -8.6755  -4.4461  -4.1655  -3.3384  -3.1405  -3.0210  -2.8615
    -2.7943  -2.6728  -2.6482  -2.6119  -2.5456  -2.5285  -2.4983  -2.4526
    -2.3928  -2.3721  -2.3665  -2.3412  -2.3308  -2.3003  -2.2869  -2.2744
    -2.2693  -2.2447  -2.2285  -2.2170  -2.1909  -2.1608  -2.1582  -2.1417
    -2.1267  -2.0524  -1.9897  -1.9409  -1.8163  -1.7616  -1.7502  -1.7353
    -1.7202  -1.6825  -1.6761  -1.6375  -1.6121  -1.5008  -1.4217  -1.3783
    -1.3071  -1.1955  -1.1770  -1.1675  -1.1053  -1.0735  -1.0384  -1.0364
    -0.9323  -0.9016  -0.8157  -0.7617  -0.7272  -0.6616  -0.5699  -0.5545
    -0.5448  -0.5227  -0.5023  -0.4870  -0.4607  -0.4230  -0.3413  -0.3036
    -0.2989  -0.2983  -0.2474  -0.1732  -0.1094   0.0764   0.1650   0.1727
     0.2200   0.2584   0.4516   0.4864   0.5149   0.5291   0.5779   0.6299
     0.6940   0.7103   0.7578   0.8214   0.9135   0.9395   0.9721   0.9829
     1.0298   1.8124   1.8200   1.8788   1.8789   3.6436   3.9534   3.9894
     4.0066   4.0149   4.0533   4.0571   4.0768   4.1545   4.1658

     the Fermi energy is     3.5073 ev

!    total energy              =   -2950.24095416 Ry
     estimated scf accuracy    <       0.00000006 Ry
     smearing contrib. (-TS)   =      -0.01957062 Ry
     internal energy E=F+TS    =   -2950.22138353 Ry

     The total energy is F=E-TS. E is the sum of the following terms:
     one-electron contribution =  -23962.84305772 Ry
     hartree contribution      =   12072.41421530 Ry
     xc contribution           =    -486.33561948 Ry
     ewald contribution        =    9426.54017911 Ry
     electric field correction =       0.00289925 Ry

     convergence has been achieved in  63 iterations

     Forces acting on atoms (cartesian axes, Ry/au):

     atom    1 type  1   force =     0.00007441   -0.00023241    0.09444455
     atom    2 type  1   force =     0.00000539    0.00017474   -0.17484629
     atom    3 type  2   force =     0.00002745   -0.00043480   -0.02142898
     atom    4 type  2   force =     0.00004063   -0.00080044    0.05273023
     atom    5 type  2   force =    -0.00430999   -0.00229196    0.00044622
     atom    6 type  2   force =     0.00597424   -0.00164167    0.00007977
     atom    7 type  1   force =    -0.00012584    0.00326630    0.01147744
     atom    8 type  1   force =     0.00013977    0.00254564    0.00474793
     atom    9 type  2   force =    -0.00017539    0.00026855   -0.00020308
     atom   10 type  2   force =    -0.00077757    0.00345350   -0.01159914
     atom   11 type  2   force =     0.00054597   -0.00040926    0.00029809
     atom   12 type  2   force =    -0.00004274   -0.00025648    0.00013563
     atom   13 type  1   force =    -0.00102333   -0.00038661   -0.00006360
     atom   14 type  1   force =     0.00081301    0.00050234   -0.00020442
     atom   15 type  2   force =     0.00021865   -0.00005655   -0.00054686
     atom   16 type  2   force =    -0.00033028   -0.00071326    0.00091033
     atom   17 type  2   force =     0.00079434    0.00007865   -0.00052657
     atom   18 type  2   force =    -0.00044935   -0.00017419    0.00022799
     atom   19 type  1   force =     0.00054973    0.00089054    0.00018648
     atom   20 type  1   force =     0.00010278   -0.00033781   -0.00051246
     atom   21 type  2   force =     0.00008910    0.00000466    0.10301786
     atom   22 type  2   force =     0.00007867    0.00088084   -0.00023023
     atom   23 type  2   force =    -0.07226686   -0.00016769   -0.02736658
     atom   24 type  2   force =     0.07224137    0.00024546   -0.02741579
     atom   25 type  1   force =     0.00014403   -0.00025333    0.09436152
     atom   26 type  1   force =    -0.00008920   -0.00123679   -0.17483080
     atom   27 type  2   force =     0.00020600   -0.00006412   -0.02021499
     atom   28 type  2   force =     0.00009447   -0.00095982    0.04853139
     atom   29 type  2   force =    -0.00684371    0.00192966    0.00270698
     atom   30 type  2   force =     0.00839404    0.00226637    0.00216988
     atom   31 type  1   force =     0.00004340    0.00104815    0.00135059
     atom   32 type  1   force =     0.00010113   -0.00336192    0.00509775
     atom   33 type  2   force =    -0.00015898   -0.00021906    0.00014094
     atom   34 type  2   force =    -0.00192559   -0.00084287   -0.01108003
     atom   35 type  2   force =     0.00069121   -0.00018972    0.00003576
     atom   36 type  2   force =    -0.00006435    0.00011884    0.00003207
     atom   37 type  1   force =    -0.00124643   -0.00009314   -0.00045737
     atom   38 type  1   force =     0.00068353    0.00013896    0.00062015
     atom   39 type  2   force =     0.00025591   -0.00075451    0.00013699
     atom   40 type  2   force =    -0.00035646   -0.00014979    0.00028383
     atom   41 type  2   force =    -0.00082982   -0.00047724    0.00022840
     atom   42 type  2   force =     0.00036652   -0.00051097   -0.00017539
     atom   43 type  1   force =     0.00023622   -0.00015425   -0.00014737
     atom   44 type  1   force =    -0.00085012   -0.00048151    0.00008925
     atom   45 type  2   force =     0.00008165    0.00003924    0.10287427
     atom   46 type  2   force =    -0.07220089   -0.00009193   -0.02729852
     atom   47 type  2   force =     0.07219716    0.00037150   -0.02735097
     atom   48 type  3   force =     0.00081972    0.02413759   -0.02327615
     atom   49 type  4   force =    -0.00112267   -0.03138643    0.02997893
     atom   50 type  5   force =    -0.00005901    0.00722199   -0.00684165
     atom   51 type  2   force =    -0.00024444    0.00073245   -0.00125688
     atom   52 type  5   force =    -0.00051749   -0.00118542    0.00053290

     Total force =     0.365841     Total SCF correction =     0.000862
  @ DRIVER MODE: Message from server: STATUS
  @ DRIVER MODE: Message from server: GETFORCE
  @ DRIVER MODE: Returning v,forces,stress,ensemble

     Writing output data file ./calc.save/
  @ DRIVER MODE: Message from server: EXIT
  @ DRIVE MODE: Exiting

     General routines

     Parallel routines

   This run was terminated on:   2:40:56  28Sep2021

   JOB DONE.