     Program PWSCF v.6.7GPU starts on 16Sep2021 at 15:28: 9

     R & G space division:  proc/nbgrp/npool/nimage =      10
     Reading input from /storage/home/hcoda1/3/ntian30/research/carbon/CxH_vib/H2O_calc/ads_slab/CH3NHNH2H2O_a/out_0068/pw.inp
Warning: card &CELL ignored
Warning: card   CELL_DYNAMICS='IPI', ignored
Warning: card / ignored

     Current dimensions of program PWSCF are:
     Max number of different atomic species (ntypx) = 10
     Max number of k-points (npk) =  40000
     Max angular momentum in pseudopotentials (lmaxx) =  3
     Presently no symmetry can be used with electric field

     Message from routine cell_base_init:
     DEPRECATED: use true lattice parameter, not A to a.u. conversion factor

     IMPORTANT: XC functional enforced from input :
     Exchange-correlation= BEEF-VDW
                           (   1   4  43  14   2   0   0)
     Any further DFT definition will be discarded
     Please, verify this is what you really want

  @ DRIVER MODE: Connecting to
 qe_1139763_2852619.sched-torque.pace.gatech.edu1w6umhme_scratch
  using UNIX socket
  @ DRIVER MODE: Message from server: STATUS
  @ DRIVER MODE: Message from server: INIT
  @ DRIVER MODE: Receiving replica           0          -1
  @ DRIVER MODE: Receiving encoded integer          25
  @ DRIVER MODE:  SCF:  T  FORCE:  T  STRESS:  F  VC:  F  ENSEMBLE:  F
  @ DRIVER MODE:  SCF:  T  FORCE:  T  STRESS:  F  VC:  F  ENSEMBLE:  F

     Using Slab Decomposition

     bravais-lattice index     =            0
     lattice parameter (alat)  =       1.8897  a.u.
     unit-cell volume          =    6658.9804 (a.u.)^3
     number of atoms/cell      =           59
     number of atomic types    =            5
     number of electrons       =       406.00
     number of Kohn-Sham states=          213
     kinetic-energy cutoff     =      29.3995  Ry
     charge density cutoff     =     293.9946  Ry
     scf convergence threshold =      7.3E-08
     mixing beta               =       0.0500
     number of iterations used =            8  plain     mixing
     Exchange-correlation= BEEF-VDW
                           (   1   4  43  14   2   0   0)

     celldm(1)=   1.889726  celldm(2)=   0.000000  celldm(3)=   0.000000
     celldm(4)=   0.000000  celldm(5)=   0.000000  celldm(6)=   0.000000

     crystal axes: (cart. coord. in units of alat)
               a(1) = (   6.579727   0.000000   0.000000 )
               a(2) = (  -0.000775   5.961596   0.000000 )
               a(3) = (   0.000000   0.000000  25.155947 )

     reciprocal axes: (cart. coord. in units 2 pi/alat)
               b(1) = (  0.151982  0.000020  0.000000 )
               b(2) = (  0.000000  0.167740  0.000000 )
               b(3) = (  0.000000  0.000000  0.039752 )

     PseudoPot. # 1 for Ti read from file:
     /storage/coda1/p-amedford6/0/shared/rich_project_chbe-medford/medford-share/data/pseudos_module/espresso/nninc/pbe/van/Ti.UPF
     MD5 check sum: 8e4df49b7f0d34bbd5052bf3f5ea0213
     Pseudo is Ultrasoft, Zval = 12.0
     Generated by new atomic code, or converted to UPF format
     Using radial grid of  851 points,  6 beta functions with:
                l(1) =   0
                l(2) =   0
                l(3) =   1
                l(4) =   1
                l(5) =   2
                l(6) =   2
     Q(r) pseudized with  8 coefficients,  rinner =    1.000   1.000   1.000
                                                       1.000   1.000

     PseudoPot. # 2 for O  read from file:
     /storage/coda1/p-amedford6/0/shared/rich_project_chbe-medford/medford-share/data/pseudos_module/espresso/nninc/pbe/van/O.UPF
     MD5 check sum: 78c19812648e8988a0fe644b0f25305e
     Pseudo is Ultrasoft, Zval =  6.0
     Generated by new atomic code, or converted to UPF format
     Using radial grid of  737 points,  4 beta functions with:
                l(1) =   0
                l(2) =   0
                l(3) =   1
                l(4) =   1
     Q(r) pseudized with  8 coefficients,  rinner =    0.800   0.800   0.800

     PseudoPot. # 3 for N  read from file:
     /storage/coda1/p-amedford6/0/shared/rich_project_chbe-medford/medford-share/data/pseudos_module/espresso/nninc/pbe/van/N.UPF
     MD5 check sum: 90d10febe142ad51ac9d5be1deb811c4
     Pseudo is Ultrasoft, Zval =  5.0
     Generated by new atomic code, or converted to UPF format
     Using radial grid of  729 points,  4 beta functions with:
                l(1) =   0
                l(2) =   0
                l(3) =   1
                l(4) =   1
     Q(r) pseudized with  8 coefficients,  rinner =    0.800   0.800   0.800

     PseudoPot. # 4 for C  read from file:
     /storage/coda1/p-amedford6/0/shared/rich_project_chbe-medford/medford-share/data/pseudos_module/espresso/nninc/pbe/van/C.UPF
     MD5 check sum: 1a69bf6b8db32088f5b2163dbdb77a27
     Pseudo is Ultrasoft, Zval =  4.0
     Generated by new atomic code, or converted to UPF format
     Using radial grid of  721 points,  4 beta functions with:
                l(1) =   0
                l(2) =   0
                l(3) =   1
                l(4) =   1
     Q(r) pseudized with  8 coefficients,  rinner =    0.800   0.800   0.800

     PseudoPot. # 5 for H  read from file:
     /storage/coda1/p-amedford6/0/shared/rich_project_chbe-medford/medford-share/data/pseudos_module/espresso/nninc/pbe/van/H.UPF
     MD5 check sum: b5ee9d7bfd3a09ee7748110bda690ff7
     Pseudo is Ultrasoft, Zval =  1.0
     Generated by new atomic code, or converted to UPF format
     Using radial grid of  615 points,  1 beta functions with:
                l(1) =   0
     Q(r) pseudized with  8 coefficients,  rinner =    0.800

     atomic species   valence    mass     pseudopotential
        Ti1           12.00    47.86700     Ti( 1.00)
        O1             6.00    15.99900     O ( 1.00)
        N1             5.00    14.00700     N ( 1.00)
        C1             4.00    12.01100     C ( 1.00)
        H1             1.00     1.00800     H ( 1.00)

     No symmetry found

   Cartesian axes

     site n.     atom                  positions (alat units)
         1           Ti1 tau(   1) = (   0.0004258   2.9801865   6.0000000  )
         2           Ti1 tau(   2) = (   3.2906075   1.4906267   6.0002472  )
         3           O1  tau(   3) = (   0.0006271   0.0005054   7.9858123  )
         4           O1  tau(   4) = (   3.2906025   0.0005020   7.3038282  )
         5           O1  tau(   5) = (   4.5942328   1.4918067   9.2879030  )
         6           O1  tau(   6) = (   1.9868534   1.4903216   9.2879459  )
         7           Ti1 tau(   7) = (   3.2907910   2.8959150   9.1758416  )
         8           Ti1 tau(   8) = (   0.0015273   1.4827037   9.2680791  )
         9           O1  tau(   9) = (   3.2683845   0.0132936  11.3796717  )
        10           O1  tau(  10) = (   0.0116148   5.9584955  10.6183126  )
        11           O1  tau(  11) = (   1.2681313   1.5011218  12.7194972  )
        12           O1  tau(  12) = (   5.2787963   1.4993765  12.6897032  )
        13           Ti1 tau(  13) = (   6.5560253   2.9823375  12.4990790  )
        14           Ti1 tau(  14) = (   3.2673924   1.4925278  12.5394213  )
        15           O1  tau(  15) = (   6.5345332   5.8735037  14.6996474  )
        16           O1  tau(  16) = (   3.2898196   5.9462848  13.9939205  )
        17           O1  tau(  17) = (   4.4957945   1.5291507  16.1605787  )
        18           O1  tau(  18) = (   1.9883785   1.5110281  16.0762771  )
        19           Ti1 tau(  19) = (   3.2526948   3.0056396  15.7740191  )
        20           Ti1 tau(  20) = (   0.0000763   1.3299063  15.8143521  )
        21           O1  tau(  21) = (   3.2904802   0.0005063   4.7018136  )
        22           O1  tau(  22) = (   6.5205728   0.2065101  17.2442985  )
        23           O1  tau(  23) = (   1.3043587   1.4918075   6.0039043  )
        24           O1  tau(  24) = (   5.2767064   1.4903225   6.0039473  )
        25           Ti1 tau(  25) = (   0.0000382   5.9609847   6.0000000  )
        26           Ti1 tau(  26) = (   3.2902200   4.4714249   6.0002472  )
        27           O1  tau(  27) = (   0.0002396   2.9813036   7.9858123  )
        28           O1  tau(  28) = (   3.2902150   2.9813002   7.3038282  )
        29           O1  tau(  29) = (   4.5938453   4.4726049   9.2879030  )
        30           O1  tau(  30) = (   1.9864658   4.4711199   9.2879459  )
        31           Ti1 tau(  31) = (   3.2891106   5.8743827   9.1763621  )
        32           Ti1 tau(  32) = (   0.0006254   4.4649316   9.2693709  )
        33           O1  tau(  33) = (   3.2688559   2.9716192  11.3757022  )
        34           O1  tau(  34) = (   0.0092240   2.9805883  10.6323155  )
        35           O1  tau(  35) = (   1.2711362   4.4646907  12.6658965  )
        36           O1  tau(  36) = (   5.2748280   4.4660984  12.6332574  )
        37           Ti1 tau(  37) = (   6.5627654   5.9477838  12.5072267  )
        38           Ti1 tau(  38) = (   3.2667511   4.4702655  12.5260729  )
        39           O1  tau(  39) = (   6.5087961   3.0586107  15.0099536  )
        40           O1  tau(  40) = (   3.2849776   3.0149387  13.9815115  )
        41           O1  tau(  41) = (   4.4906635   4.4862850  16.2792570  )
        42           O1  tau(  42) = (   1.9756856   4.4939852  16.2100911  )
        43           Ti1 tau(  43) = (   3.2747729   0.0241646  15.7895078  )
        44           Ti1 tau(  44) = (   6.5697470   4.5456975  16.1185117  )
        45           O1  tau(  45) = (   3.2900926   2.9813045   4.7018136  )
        46           O1  tau(  46) = (   1.3039711   4.4726057   6.0039043  )
        47           O1  tau(  47) = (   5.2763189   4.4711207   6.0039473  )
        48           N1  tau(  48) = (   0.9980056   3.0961469  19.0053282  )
        49           N1  tau(  49) = (   6.4063515   3.4839273  18.2229180  )
        50           C1  tau(  50) = (   1.6570833   4.2684698  19.5811903  )
        51           H1  tau(  51) = (   0.9936588   4.8902639  20.1979557  )
        52           H1  tau(  52) = (   2.4789334   3.9063689  20.1993048  )
        53           H1  tau(  53) = (   2.0598354   4.8861676  18.7819781  )
        54           H1  tau(  54) = (   0.6510520   2.5058952  19.7602174  )
        55           H1  tau(  55) = (   5.8507131   4.1735594  18.7414995  )
        56           H1  tau(  56) = (   5.8147758   2.6545292  18.1916272  )
        57           O1  tau(  57) = (   5.1718451   0.7889162  19.5681371  )
        58           H1  tau(  58) = (   5.5516362   0.5215711  18.6954158  )
        59           H1  tau(  59) = (   4.2199197   0.7512590  19.4668632  )

     number of k points=    10  Fermi-Dirac smearing, width (Ry)=  0.0073
                       cart. coord. in units 2pi/alat
        k(    1) = (   0.0000000   0.0000000   0.0000000), wk =   0.1250000
        k(    2) = (   0.0000000   0.0419351   0.0000000), wk =   0.2500000
        k(    3) = (   0.0000000  -0.0838702   0.0000000), wk =   0.1250000
        k(    4) = (   0.0379955   0.0000049   0.0000000), wk =   0.2500000
        k(    5) = (   0.0379955   0.0419400   0.0000000), wk =   0.2500000
        k(    6) = (   0.0379955  -0.0838652   0.0000000), wk =   0.2500000
        k(    7) = (   0.0379955  -0.0419301   0.0000000), wk =   0.2500000
        k(    8) = (  -0.0759910  -0.0000099   0.0000000), wk =   0.1250000
        k(    9) = (  -0.0759910   0.0419252   0.0000000), wk =   0.2500000
        k(   10) = (  -0.0759910  -0.0838800   0.0000000), wk =   0.1250000

     Initial potential from superposition of free atoms

     starting charge  389.99912, renormalised to  406.00000

     negative rho (up, down):  1.389E-02 0.000E+00

     %%%%%%%%%%%%%%%%%%%%%%%%%%%%%%%%%%%%%%%%%%%%%%%%%%%%%%%%%%%%%%%%%%%%%%%%
     %                                                                      %
     % You are using vdW-DF, which was implemented by the Thonhauser group. %
     % Please cite the following two papers that made this development      %
     % possible and the two reviews that describe the various versions:     %
     %                                                                      %
     %   T. Thonhauser et al., PRL 115, 136402 (2015).                      %
     %   T. Thonhauser et al., PRB 76, 125112 (2007).                       %
     %   K. Berland et al., Rep. Prog. Phys. 78, 066501 (2015).             %
     %   D.C. Langreth et al., J. Phys.: Condens. Matter 21, 084203 (2009). %
     %                                                                      %
     %                                                                      %
     % If you are calculating the stress with vdW-DF, please also cite:     %
     %                                                                      %
     %   R. Sabatini et al., J. Phys.: Condens. Matter 24, 424209 (2012).   %
     %                                                                      %
     %%%%%%%%%%%%%%%%%%%%%%%%%%%%%%%%%%%%%%%%%%%%%%%%%%%%%%%%%%%%%%%%%%%%%%%%

     Adding external electric field

     Computed dipole along edir(3) :
        Dipole              -16.7176 Ry au,        -42.4920 Debye
        Dipole field         -0.0315 Ry au,

        Potential amp.        2.9245 Ry
        Total length         46.3494 bohr

     Starting wfcs are  308 atomic wfcs
  @ DRIVER MODE: Message from server: STATUS
  @ DRIVER MODE: Message from server: POSDATA
  @ DRIVER MODE: Reading and sharing cell
  @ DRIVER MODE: Reading and sharing positions
  @ DRIVER MODE: Received positions

     Self-consistent Calculation

     iteration #  1     ecut=    29.40 Ry     beta= 0.05
     Davidson diagonalization with overlap
     c_bands:  2 eigenvalues not converged
     c_bands:  3 eigenvalues not converged
     c_bands:  2 eigenvalues not converged
     c_bands:  4 eigenvalues not converged
     c_bands:  1 eigenvalues not converged
     c_bands:  4 eigenvalues not converged
     c_bands:  3 eigenvalues not converged
     c_bands:  5 eigenvalues not converged
     c_bands:  3 eigenvalues not converged
     ethr =  1.00E-05,  avg # of iterations = 24.9

[...]

     total energy              =   -2136.61005511 Ry
     estimated scf accuracy    <    9692.92108927 Ry

     iteration #  2     ecut=    29.40 Ry     beta= 0.05
     Davidson diagonalization with overlap
     ethr =  1.00E-02,  avg # of iterations = 32.7

[...]

     iteration # 62     ecut=    29.40 Ry     beta= 0.05
     Davidson diagonalization with overlap
     c_bands:  1 eigenvalues not converged
     c_bands:  1 eigenvalues not converged
     c_bands:  1 eigenvalues not converged
     c_bands:  2 eigenvalues not converged
     ethr =  2.17E-10,  avg # of iterations = 18.1

[...]

     total energy              =   -2977.68365750 Ry
     estimated scf accuracy    <       0.00000015 Ry

     iteration # 68     ecut=    29.40 Ry     beta= 0.05
     Davidson diagonalization with overlap
     ethr =  3.78E-11,  avg # of iterations =  6.5

     negative rho (up, down):  1.439E-02 0.000E+00

     Adding external electric field

     Computed dipole along edir(3) :
        Dipole                1.0201 Ry au,          2.5928 Debye
        Dipole field          0.0019 Ry au,

        Potential amp.       -0.1784 Ry
        Total length         46.3494 bohr

     End of self-consistent calculation

          k = 0.0000 0.0000 0.0000 ( 18029 PWs)   bands (ev):

   -55.3600 -55.3227 -55.3107 -55.2932 -55.2766 -55.2409 -55.2392 -55.2044
   -55.1832 -55.1818 -55.1488 -55.1428 -55.1091 -55.0183 -54.3427 -54.3086
   -31.9264 -31.8089 -31.8038 -31.7279 -31.6763 -31.6724 -31.6723 -31.6492
   -31.5995 -31.5953 -31.5722 -31.5696 -31.5556 -31.5394 -31.5304 -31.5269
   -31.5145 -31.5074 -31.4969 -31.4794 -31.4645 -31.4634 -31.4354 -31.4251
   -31.4176 -31.4137 -31.3930 -31.3857 -31.3694 -31.3680 -31.3630 -31.3542
   -31.3420 -31.3410 -31.3322 -31.3296 -31.2967 -31.2936 -31.2712 -31.2540
   -31.2305 -31.2284 -30.7522 -30.6576 -30.6355 -30.5685 -30.4817 -30.3709
   -18.0598 -17.6380 -16.1937 -15.9330 -15.7876 -15.6591 -15.5616 -15.4333
   -15.4140 -15.2921 -15.2217 -15.1181 -15.0669 -15.0484 -15.0127 -15.0025
   -14.9795 -14.9088 -14.9026 -14.8886 -14.8646 -14.8559 -14.8097 -14.8020
   -14.7607 -14.7364 -14.7120 -14.6132 -14.5232 -14.4484 -14.3412 -13.1530
   -12.8455 -12.7280  -9.4083  -6.3179  -5.9113  -5.7464  -4.2516  -3.5322
    -3.3835  -3.3147  -3.2785  -3.2532  -3.1196  -2.9623  -2.9230  -2.8071
    -2.7890  -2.6889  -2.6449  -2.5737  -2.5569  -2.5419  -2.3957  -2.3738
    -2.3486  -2.2814  -2.2552  -2.1879  -2.1658  -2.1563  -2.1459  -2.1224
    -2.0944  -2.0550  -1.9929  -1.9338  -1.8405  -1.8152  -1.7645  -1.7348
    -1.7141  -1.6970  -1.6515  -1.6405  -1.6010  -1.5865  -1.5668  -1.5522
    -1.3892  -1.3665  -1.2649  -1.2032  -1.1045  -1.0004  -0.9647  -0.9501
    -0.8531  -0.8346  -0.7820  -0.7414  -0.7383  -0.7037  -0.5920  -0.5294
    -0.4770  -0.4135  -0.3907  -0.3506  -0.2826  -0.1999  -0.1436  -0.1297
    -0.1175  -0.1014   0.0128   0.0253   0.0769   0.1518   0.1613   0.1675
     0.2411   0.2977   0.3679   0.3928   0.4106   0.5156   0.5313   0.5636
     0.5693   0.5992   0.6199   0.6450   0.7052   0.7355   0.8186   0.9404
     1.1323   1.2214   1.2488   1.3625   1.5718   1.5843   1.6799   1.8631
     2.2562   2.3046   3.7369   3.8081   3.8828   3.8868   3.9095   3.9732
     4.2101   4.2273   4.2418   4.2455   4.2696

[...]

          k = 0.0380-0.0419 0.0000 ( 17876 PWs)   bands (ev):

[...]

          k =-0.0760-0.0000 0.0000 ( 17886 PWs)   bands (ev):

[...]

          k =-0.0760-0.0839 0.0000 ( 17948 PWs)   bands (ev):

   -55.3463 -55.3362 -55.2939 -55.2934 -55.2919 -55.2336 -55.2288 -55.2165
   -55.1873 -55.1672 -55.1644 -55.1264 -55.1257 -55.0194 -54.3257 -54.3254
   -31.7344 -31.7265 -31.7245 -31.6400 -31.6203 -31.6190 -31.6187 -31.5848
   -31.5846 -31.5735 -31.5594 -31.5582 -31.5515 -31.5316 -31.5199 -31.5065
   -31.5000 -31.4968 -31.4953 -31.4938 -31.4870 -31.4796 -31.4474 -31.4397
   -31.4367 -31.4364 -31.4224 -31.4178 -31.4136 -31.4131 -31.4075 -31.3999
   -31.3976 -31.3803 -31.3772 -31.3749 -31.3602 -31.3569 -31.3072 -31.3069
   -31.3007 -31.2343 -30.6483 -30.6480 -30.5648 -30.5646 -30.5252 -30.5250
   -18.0499 -17.6449 -15.6744 -15.5893 -15.5683 -15.4132 -15.3615 -15.3351
   -15.3241 -15.2088 -15.1663 -15.1472 -15.1326 -15.1108 -15.0726 -15.0630
   -15.0562 -14.9930 -14.9726 -14.9637 -14.9378 -14.8839 -14.8764 -14.8684
   -14.8606 -14.8107 -14.8069 -14.7673 -14.7162 -14.7127 -14.6375 -13.1592
   -12.8295 -12.8295  -9.4133  -6.3448  -5.9260  -5.6726  -4.2294  -2.9349
    -2.8473  -2.8365  -2.8301  -2.6978  -2.6265  -2.5511  -2.5290  -2.5078
    -2.4234  -2.4096  -2.3790  -2.3537  -2.3246  -2.2850  -2.2480  -2.2409
    -2.2050  -2.1964  -2.1804  -2.1638  -2.1420  -2.1268  -2.0929  -2.0821
    -2.0687  -2.0248  -1.9987  -1.9851  -1.9635  -1.9433  -1.9361  -1.9168
    -1.8442  -1.7521  -1.7273  -1.6420  -1.5729  -1.5708  -1.5648  -1.5029
    -1.4595  -1.4211  -1.3961  -1.3790  -1.2395  -1.1685  -1.1243  -1.1100
    -1.0954  -0.9645  -0.9584  -0.8823  -0.8598  -0.8533  -0.7604  -0.7152
    -0.6766  -0.6697  -0.5830  -0.5710  -0.4950  -0.3966  -0.3747  -0.3608
    -0.3158  -0.3140  -0.2765  -0.2635  -0.1672  -0.1321  -0.1161  -0.0978
    -0.0821  -0.0396   0.1111   0.1604   0.1669   0.2998   0.3318   0.4703
     0.5001   0.5644   0.6442   0.6930   0.7454   0.7782   0.8648   0.9395
     0.9426   1.0060   1.0217   1.0877   1.0999   1.3679   2.0361   2.0366
     2.1244   2.1248   3.8849   4.0000   4.0036   4.0328   4.1550   4.1783
     4.2546   4.2822   4.3215   4.3252   4.3856

     the Fermi energy is     3.8010 ev

!    total energy              =   -2977.68369419 Ry
     estimated scf accuracy    <       0.00000007 Ry
     smearing contrib. (-TS)   =      -0.03717711 Ry
     internal energy E=F+TS    =   -2977.64651708 Ry

     The total energy is F=E-TS. E is the sum of the following terms:
     one-electron contribution =  -22681.98100372 Ry
     hartree contribution      =   11438.34469763 Ry
     xc contribution           =    -496.62474841 Ry
     ewald contribution        =    8762.61257372 Ry
     electric field correction =       0.00196371 Ry

     convergence has been achieved in  68 iterations

     Forces acting on atoms (cartesian axes, Ry/au):

     atom    1 type  1   force =     0.00024466   -0.00038010    0.09323541
     atom    2 type  1   force =     0.00001931   -0.00038372   -0.17816952
     atom    3 type  2   force =     0.00004848   -0.00041980   -0.02001379
     atom    4 type  2   force =     0.00001035   -0.00190060    0.05911721
     atom    5 type  2   force =    -0.01035930   -0.00059377    0.00861367
     atom    6 type  2   force =     0.01130653    0.00009648    0.00628125
     atom    7 type  1   force =    -0.00096406    0.00198107   -0.01426169
     atom    8 type  1   force =     0.00097876   -0.00256111   -0.00599485
     atom    9 type  2   force =     0.00016764   -0.00001713    0.00009636
     atom   10 type  2   force =    -0.00231062    0.00309322    0.00262252
     atom   11 type  2   force =     0.00042456   -0.00042948   -0.00056689
     atom   12 type  2   force =     0.00002988   -0.00040982   -0.00057172
     atom   13 type  1   force =     0.00033856   -0.00027969   -0.00020926
     atom   14 type  1   force =     0.00004447   -0.00008772   -0.00006452
     atom   15 type  2   force =    -0.00000033    0.00060330   -0.00005206
     atom   16 type  2   force =     0.00030842    0.00027661   -0.00013634
     atom   17 type  2   force =     0.00040103    0.00023469    0.00039355
     atom   18 type  2   force =    -0.00051004    0.00020118   -0.00011376
     atom   19 type  1   force =    -0.00015830    0.00007358    0.00033064
     atom   20 type  1   force =    -0.00006557   -0.00014258    0.00057442
     atom   21 type  2   force =     0.00011953   -0.00011202    0.10401368
     atom   22 type  2   force =     0.00013390   -0.00027727    0.00053200
     atom   23 type  2   force =    -0.07028570   -0.00019604   -0.02687226
     atom   24 type  2   force =     0.07026621    0.00024749   -0.02687380
     atom   25 type  1   force =     0.00017301   -0.00030421    0.09242682
     atom   26 type  1   force =     0.00005499   -0.00054545   -0.17849631
     atom   27 type  2   force =     0.00008188   -0.00021067   -0.01907399
     atom   28 type  2   force =     0.00006027   -0.00173237    0.05853808
     atom   29 type  2   force =    -0.01102148   -0.00114273    0.00945024
     atom   30 type  2   force =     0.01187776   -0.00069833    0.00723200
     atom   31 type  1   force =    -0.00087824    0.00647209   -0.01492485
     atom   32 type  1   force =     0.00102065    0.00220933   -0.00639955
     atom   33 type  2   force =     0.00025971    0.00009600    0.00002472
     atom   34 type  2   force =    -0.00214687   -0.00243609   -0.00030964
     atom   35 type  2   force =     0.00028516    0.00012619   -0.00000667
     atom   36 type  2   force =     0.00024980    0.00003636    0.00051288
     atom   37 type  1   force =    -0.00009665    0.00003216   -0.00004653
     atom   38 type  1   force =     0.00014668   -0.00006859   -0.00000614
     atom   39 type  2   force =    -0.00011460   -0.00021367    0.00040654
     atom   40 type  2   force =    -0.00014133    0.00008180    0.00005318
     atom   41 type  2   force =    -0.00042880    0.00014935    0.00027909
     atom   42 type  2   force =     0.00025461   -0.00009871   -0.00016427
     atom   43 type  1   force =     0.00036534    0.00029353   -0.00006713
     atom   44 type  1   force =    -0.00000892   -0.00015521   -0.00000964
     atom   45 type  2   force =     0.00012209   -0.00011181    0.10394876
     atom   46 type  2   force =    -0.07025035   -0.00013040   -0.02681214
     atom   47 type  2   force =     0.07024057    0.00027662   -0.02687918
     atom   48 type  3   force =    -0.00026226   -0.00003092   -0.00031976
     atom   49 type  3   force =     0.00027174    0.00004360   -0.00075180
     atom   50 type  4   force =    -0.00030813   -0.00008985   -0.00029085
     atom   51 type  5   force =    -0.00068544    0.00035239    0.00038439
     atom   52 type  5   force =     0.00041377   -0.00003083    0.00036886
     atom   53 type  5   force =    -0.00002300    0.00020951   -0.00044945
     atom   54 type  5   force =     0.00009019   -0.00016075   -0.00004013
     atom   55 type  5   force =     0.00032461    0.00035729   -0.00028053
     atom   56 type  5   force =    -0.00032850   -0.00078804    0.00056042
     atom   57 type  2   force =     0.01881300   -0.00018193    0.00186806
     atom   58 type  5   force =     0.00080042   -0.00013308    0.00024746
     atom   59 type  5   force =    -0.01940003   -0.00008939   -0.00288319

     Total force =     0.367279     Total SCF correction =     0.000576
  @ DRIVER MODE: Message from server: STATUS
  @ DRIVER MODE: Message from server: GETFORCE
  @ DRIVER MODE: Returning v,forces,stress,ensemble

     Writing output data file ./calc.save/
  @ DRIVER MODE: Message from server: EXIT
  @ DRIVE MODE: Exiting

     General routines

     Parallel routines

   This run was terminated on:  15:48:13  16Sep2021

   JOB DONE.