     Program PWSCF v.6.7GPU starts on 16Jul2021 at  9: 2:19

     R & G space division:  proc/nbgrp/npool/nimage =      16
     Reading input from /storage/home/hcoda1/3/ntian30/research/carbon/15Jul_vib/ads_slab/CH3NH_b/out_0033/pw.inp
Warning: card &CELL ignored
Warning: card   CELL_DYNAMICS='IPI', ignored
Warning: card / ignored

     Current dimensions of program PWSCF are:
     Max number of different atomic species (ntypx) = 10
     Max number of k-points (npk) =  40000
     Max angular momentum in pseudopotentials (lmaxx) =  3
     Presently no symmetry can be used with electric field

     Message from routine cell_base_init:
     DEPRECATED: use true lattice parameter, not A to a.u. conversion factor

     IMPORTANT: XC functional enforced from input :
     Exchange-correlation= BEEF-VDW
                           (   1   4  43  14   2   0   0)
     Any further DFT definition will be discarded
     Please, verify this is what you really want

  @ DRIVER MODE: Connecting to
 qe_1139763_2351649.sched-torque.pace.gatech.edu2fk4ddbs_scratch
  using UNIX socket
  @ DRIVER MODE: Message from server: STATUS
  @ DRIVER MODE: Message from server: INIT
  @ DRIVER MODE: Receiving replica           0          -1
  @ DRIVER MODE: Receiving encoded integer          25
  @ DRIVER MODE:  SCF:  T  FORCE:  T  STRESS:  F  VC:  F  ENSEMBLE:  F
  @ DRIVER MODE:  SCF:  T  FORCE:  T  STRESS:  F  VC:  F  ENSEMBLE:  F

     Using Slab Decomposition

     bravais-lattice index     =            0
     lattice parameter (alat)  =       1.8897  a.u.
     unit-cell volume          =    6658.9804 (a.u.)^3
     number of atoms/cell      =           53
     number of atomic types    =            5
     number of electrons       =       391.00
     number of Kohn-Sham states=          205
     kinetic-energy cutoff     =      29.3995  Ry
     charge density cutoff     =     293.9946  Ry
     scf convergence threshold =      7.3E-08
     mixing beta               =       0.0500
     number of iterations used =            8  plain     mixing
     Exchange-correlation= BEEF-VDW
                           (   1   4  43  14   2   0   0)

     celldm(1)=   1.889726  celldm(2)=   0.000000  celldm(3)=   0.000000
     celldm(4)=   0.000000  celldm(5)=   0.000000  celldm(6)=   0.000000

     crystal axes: (cart. coord. in units of alat)
               a(1) = (   6.579727   0.000000   0.000000 )
               a(2) = (  -0.000775   5.961596   0.000000 )
               a(3) = (   0.000000   0.000000  25.155947 )

     reciprocal axes: (cart. coord. in units 2 pi/alat)
               b(1) = (  0.151982  0.000020  0.000000 )
               b(2) = (  0.000000  0.167740  0.000000 )
               b(3) = (  0.000000  0.000000  0.039752 )

     PseudoPot. # 1 for Ti read from file:
     /storage/coda1/p-amedford6/0/shared/rich_project_chbe-medford/medford-share/data/pseudos_module/espresso/nninc/pbe/van/Ti.UPF
     MD5 check sum: 8e4df49b7f0d34bbd5052bf3f5ea0213
     Pseudo is Ultrasoft, Zval = 12.0
     Generated by new atomic code, or converted to UPF format
     Using radial grid of  851 points,  6 beta functions with:
                l(1) =   0
                l(2) =   0
                l(3) =   1
                l(4) =   1
                l(5) =   2
                l(6) =   2
     Q(r) pseudized with  8 coefficients,  rinner =    1.000   1.000   1.000
                                                       1.000   1.000

     PseudoPot. # 2 for O  read from file:
     /storage/coda1/p-amedford6/0/shared/rich_project_chbe-medford/medford-share/data/pseudos_module/espresso/nninc/pbe/van/O.UPF
     MD5 check sum: 78c19812648e8988a0fe644b0f25305e
     Pseudo is Ultrasoft, Zval =  6.0
     Generated by new atomic code, or converted to UPF format
     Using radial grid of  737 points,  4 beta functions with:
                l(1) =   0
                l(2) =   0
                l(3) =   1
                l(4) =   1
     Q(r) pseudized with  8 coefficients,  rinner =    0.800   0.800   0.800

     PseudoPot. # 3 for H  read from file:
     /storage/coda1/p-amedford6/0/shared/rich_project_chbe-medford/medford-share/data/pseudos_module/espresso/nninc/pbe/van/H.UPF
     MD5 check sum: b5ee9d7bfd3a09ee7748110bda690ff7
     Pseudo is Ultrasoft, Zval =  1.0
     Generated by new atomic code, or converted to UPF format
     Using radial grid of  615 points,  1 beta functions with:
                l(1) =   0
     Q(r) pseudized with  8 coefficients,  rinner =    0.800

     PseudoPot. # 4 for N  read from file:
     /storage/coda1/p-amedford6/0/shared/rich_project_chbe-medford/medford-share/data/pseudos_module/espresso/nninc/pbe/van/N.UPF
     MD5 check sum: 90d10febe142ad51ac9d5be1deb811c4
     Pseudo is Ultrasoft, Zval =  5.0
     Generated by new atomic code, or converted to UPF format
     Using radial grid of  729 points,  4 beta functions with:
                l(1) =   0
                l(2) =   0
                l(3) =   1
                l(4) =   1
     Q(r) pseudized with  8 coefficients,  rinner =    0.800   0.800   0.800

     PseudoPot. # 5 for C  read from file:
     /storage/coda1/p-amedford6/0/shared/rich_project_chbe-medford/medford-share/data/pseudos_module/espresso/nninc/pbe/van/C.UPF
     MD5 check sum: 1a69bf6b8db32088f5b2163dbdb77a27
     Pseudo is Ultrasoft, Zval =  4.0
     Generated by new atomic code, or converted to UPF format
     Using radial grid of  721 points,  4 beta functions with:
                l(1) =   0
                l(2) =   0
                l(3) =   1
                l(4) =   1
     Q(r) pseudized with  8 coefficients,  rinner =    0.800   0.800   0.800

     atomic species   valence    mass     pseudopotential
        Ti1           12.00    47.86700     Ti( 1.00)
        O1             6.00    15.99900     O ( 1.00)
        H1             1.00     1.00800     H ( 1.00)
        N1             5.00    14.00700     N ( 1.00)
        C1             4.00    12.01100     C ( 1.00)

     Starting magnetic structure
     atomic species   magnetization
        Ti1          0.000
        O1           0.000
        H1           0.000
        N1           0.000
        C1           0.025

     No symmetry found

   Cartesian axes

     site n.     atom                  positions (alat units)
         1           Ti1 tau(   1) = (   0.0004258   2.9801865   6.0000000  )
         2           Ti1 tau(   2) = (   3.2906075   1.4906267   6.0002472  )
         3           O1  tau(   3) = (   0.0006271   0.0005054   7.9858123  )
         4           O1  tau(   4) = (   3.2906025   0.0005020   7.3038282  )
         5           O1  tau(   5) = (   4.5942328   1.4918067   9.2879030  )
         6           O1  tau(   6) = (   1.9868534   1.4903216   9.2879459  )
         7           Ti1 tau(   7) = (   3.2907910   2.8959150   9.1758416  )
         8           Ti1 tau(   8) = (   0.0015273   1.4827037   9.2680791  )
         9           O1  tau(   9) = (   3.2906183   5.9580730  11.3246990  )
        10           O1  tau(  10) = (   0.0116148   5.9584955  10.6183126  )
        11           O1  tau(  11) = (   1.3160896   1.4863360  12.6200149  )
        12           O1  tau(  12) = (   5.2947061   1.4800608  12.6053981  )
        13           Ti1 tau(  13) = (   6.5224157   2.9421717  12.6196007  )
        14           Ti1 tau(  14) = (   3.2076970   1.4879367  12.4696142  )
        15           O1  tau(  15) = (   6.5517659   0.0158556  14.6493665  )
        16           O1  tau(  16) = (   3.3109316   0.0069331  13.9179417  )
        17           O1  tau(  17) = (   4.5083530   1.5297238  16.0872293  )
        18           O1  tau(  18) = (   2.0274073   1.5273405  16.0409094  )
        19           Ti1 tau(  19) = (   3.2920608   3.0081397  15.6838061  )
        20           Ti1 tau(  20) = (   0.0536170   1.5416865  15.8648894  )
        21           O1  tau(  21) = (   3.2904802   0.0005063   4.7018136  )
        22           O1  tau(  22) = (   0.0122827   0.0301012  17.2134340  )
        23           O1  tau(  23) = (   1.3043587   1.4918075   6.0039043  )
        24           O1  tau(  24) = (   5.2767064   1.4903225   6.0039473  )
        25           Ti1 tau(  25) = (   0.0000382   5.9609847   6.0000000  )
        26           Ti1 tau(  26) = (   3.2902200   4.4714249   6.0002472  )
        27           O1  tau(  27) = (   0.0002396   2.9813036   7.9858123  )
        28           O1  tau(  28) = (   3.2902150   2.9813002   7.3038282  )
        29           O1  tau(  29) = (   4.5938453   4.4726049   9.2879030  )
        30           O1  tau(  30) = (   1.9864658   4.4711199   9.2879459  )
        31           Ti1 tau(  31) = (   3.2891106   5.8743827   9.1763621  )
        32           Ti1 tau(  32) = (   0.0006254   4.4649316   9.2693709  )
        33           O1  tau(  33) = (   3.2866862   2.9837957  11.3234553  )
        34           O1  tau(  34) = (   0.0092240   2.9805883  10.6323155  )
        35           O1  tau(  35) = (   1.3095649   4.4762946  12.6335636  )
        36           O1  tau(  36) = (   5.2963019   4.4650584  12.6194355  )
        37           Ti1 tau(  37) = (   6.5192018   5.9199268  12.5733442  )
        38           Ti1 tau(  38) = (   3.2055211   4.4685508  12.4747853  )
        39           O1  tau(  39) = (   6.5624772   2.9349094  14.6472044  )
        40           O1  tau(  40) = (   3.3065106   2.9879112  13.8942307  )
        41           O1  tau(  41) = (   4.5199725   4.4841037  16.0899424  )
        42           O1  tau(  42) = (   2.0389375   4.4882992  16.0664246  )
        43           Ti1 tau(  43) = (   3.3279474   0.0221627  15.7114356  )
        44           Ti1 tau(  44) = (   0.0314192   4.6578676  16.1055029  )
        45           O1  tau(  45) = (   3.2900926   2.9813045   4.7018136  )
        46           O1  tau(  46) = (   1.3039711   4.4726057   6.0039043  )
        47           O1  tau(  47) = (   5.2763189   4.4711207   6.0039473  )
        48           H1  tau(  48) = (   5.5751926   2.9245997  17.7795037  )
        49           N1  tau(  49) = (   6.5345126   2.9709300  17.4463781  )
        50           C1  tau(  50) = (   0.8205834   2.9192471  18.6315588  )
        51           H1  tau(  51) = (   0.6379014   3.7726647  19.2931901  )
        52           H1  tau(  52) = (   0.6616828   1.9903841  19.1881566  )
        53           H1  tau(  53) = (   1.8691752   2.9430840  18.3388921  )

     number of k points=    10  Fermi-Dirac smearing, width (Ry)=  0.0073
                       cart. coord. in units 2pi/alat
        k(    1) = (   0.0000000   0.0000000   0.0000000), wk =   0.0625000
        k(    2) = (   0.0000000   0.0419351   0.0000000), wk =   0.1250000
        k(    3) = (   0.0000000  -0.0838702   0.0000000), wk =   0.0625000
        k(    4) = (   0.0379955   0.0000049   0.0000000), wk =   0.1250000
        k(    5) = (   0.0379955   0.0419400   0.0000000), wk =   0.1250000
        k(    6) = (   0.0379955  -0.0838652   0.0000000), wk =   0.1250000
        k(    7) = (   0.0379955  -0.0419301   0.0000000), wk =   0.1250000
        k(    8) = (  -0.0759910  -0.0000099   0.0000000), wk =   0.0625000
[...]

     Initial potential from superposition of free atoms

     starting charge  374.99916, renormalised to  391.00000

     negative rho (up, down):  8.890E-03 8.897E-03

     %%%%%%%%%%%%%%%%%%%%%%%%%%%%%%%%%%%%%%%%%%%%%%%%%%%%%%%%%%%%%%%%%%%%%%%%
     %                                                                      %
     % You are using vdW-DF, which was implemented by the Thonhauser group. %
     % Please cite the following two papers that made this development      %
     % possible and the two reviews that describe the various versions:     %
     %                                                                      %
     %   T. Thonhauser et al., PRL 115, 136402 (2015).                      %
     %   T. Thonhauser et al., PRB 76, 125112 (2007).                       %
     %   K. Berland et al., Rep. Prog. Phys. 78, 066501 (2015).             %
     %   D.C. Langreth et al., J. Phys.: Condens. Matter 21, 084203 (2009). %
     %                                                                      %
     %                                                                      %
     % If you are calculating the stress with vdW-DF, please also cite:     %
     %                                                                      %
     %   R. Sabatini et al., J. Phys.: Condens. Matter 24, 424209 (2012).   %
     %                                                                      %
     %%%%%%%%%%%%%%%%%%%%%%%%%%%%%%%%%%%%%%%%%%%%%%%%%%%%%%%%%%%%%%%%%%%%%%%%

     Adding external electric field

     Computed dipole along edir(3) :
        Dipole               -5.8162 Ry au,        -14.7834 Debye
        Dipole field         -0.0110 Ry au,

        Potential amp.        1.0175 Ry
        Total length         46.3494 bohr

[...]

     Starting wfcs are  296 atomic wfcs
  @ DRIVER MODE: Message from server: STATUS
  @ DRIVER MODE: Message from server: POSDATA
  @ DRIVER MODE: Reading and sharing cell
  @ DRIVER MODE: Reading and sharing positions
  @ DRIVER MODE: Received positions

     Self-consistent Calculation

     iteration #  1     ecut=    29.40 Ry     beta= 0.05
     Davidson diagonalization with overlap
     c_bands:  2 eigenvalues not converged
     c_bands:  2 eigenvalues not converged
     c_bands:  1 eigenvalues not converged
     c_bands:  3 eigenvalues not converged
     c_bands:  4 eigenvalues not converged
     c_bands:  2 eigenvalues not converged
     c_bands:  1 eigenvalues not converged
     c_bands:  1 eigenvalues not converged
     c_bands:  2 eigenvalues not converged
     c_bands:  3 eigenvalues not converged
     c_bands:  1 eigenvalues not converged
     c_bands:  1 eigenvalues not converged
     c_bands:  3 eigenvalues not converged
     c_bands:  4 eigenvalues not converged
     c_bands:  3 eigenvalues not converged
     c_bands:  1 eigenvalues not converged
     c_bands:  1 eigenvalues not converged
     c_bands:  2 eigenvalues not converged
     ethr =  1.00E-05,  avg # of iterations = 19.6

[...]

     total energy              =   -2770.80533065 Ry
     estimated scf accuracy    <    1640.00126610 Ry

     total magnetization       =     0.01 Bohr mag/cell
     absolute magnetization    =     0.02 Bohr mag/cell

[...]

     iteration #  3     ecut=    29.40 Ry     beta= 0.05
     Davidson diagonalization with overlap
     ethr =  1.00E-02,  avg # of iterations = 15.6

[...]

     iteration # 65     ecut=    29.40 Ry     beta= 0.05
     Davidson diagonalization with overlap
     c_bands:  1 eigenvalues not converged
     ethr =  2.93E-11,  avg # of iterations = 10.2

[...]

     total energy              =   -2920.42461978 Ry
     estimated scf accuracy    <       0.00000010 Ry

[...]

     iteration # 66     ecut=    29.40 Ry     beta= 0.05
     Davidson diagonalization with overlap
     ethr =  2.56E-11,  avg # of iterations =  2.3

     negative rho (up, down):  9.093E-03 9.093E-03

[...]

     Adding external electric field

     Computed dipole along edir(3) :
        Dipole                0.6843 Ry au,          1.7392 Debye
        Dipole field          0.0013 Ry au,

        Potential amp.       -0.1197 Ry
        Total length         46.3494 bohr

     Magnetic moment per site  (integrated on atomic sphere of radius R)
     atom   1 (R=0.715)  charge=  7.8451  magn= -0.0032
     atom   2 (R=0.715)  charge=  7.8288  magn=  0.0001
     atom   3 (R=0.715)  charge=  4.8552  magn=  0.0002
     atom   4 (R=0.715)  charge=  4.8904  magn= -0.0000
     atom   5 (R=0.715)  charge=  4.8609  magn= -0.0000
     atom   6 (R=0.715)  charge=  4.8616  magn= -0.0000
     atom   7 (R=0.715)  charge=  7.8276  magn=  0.0000
     atom   8 (R=0.715)  charge=  7.8194  magn= -0.0006
     atom   9 (R=0.715)  charge=  4.8766  magn= -0.0000
     atom  10 (R=0.715)  charge=  4.8485  magn=  0.0000
     atom  11 (R=0.715)  charge=  4.8624  magn= -0.0000
     atom  12 (R=0.715)  charge=  4.8618  magn= -0.0000
     atom  13 (R=0.715)  charge=  7.8170  magn= -0.0001
     atom  14 (R=0.715)  charge=  7.8304  magn=  0.0000
     atom  15 (R=0.715)  charge=  4.8497  magn=  0.0000
     atom  16 (R=0.715)  charge=  4.8722  magn= -0.0000
     atom  17 (R=0.715)  charge=  4.8476  magn= -0.0000
     atom  18 (R=0.715)  charge=  4.8546  magn=  0.0000
     atom  19 (R=0.715)  charge=  7.8557  magn= -0.0000
     atom  20 (R=0.715)  charge=  7.8308  magn= -0.0000
     atom  21 (R=0.715)  charge=  4.7477  magn= -0.0003
     atom  22 (R=0.715)  charge=  4.8259  magn=  0.0000
     atom  23 (R=0.715)  charge=  4.8532  magn=  0.0004
     atom  24 (R=0.715)  charge=  4.8532  magn=  0.0004
     atom  25 (R=0.715)  charge=  7.8451  magn= -0.0031
     atom  26 (R=0.715)  charge=  7.8288  magn=  0.0001
     atom  27 (R=0.715)  charge=  4.8545  magn=  0.0002
     atom  28 (R=0.715)  charge=  4.8906  magn= -0.0000
     atom  29 (R=0.715)  charge=  4.8616  magn= -0.0000
     atom  30 (R=0.715)  charge=  4.8623  magn= -0.0000
     atom  31 (R=0.715)  charge=  7.8277  magn=  0.0000
     atom  32 (R=0.715)  charge=  7.8195  magn= -0.0006
     atom  33 (R=0.715)  charge=  4.8755  magn= -0.0000
     atom  34 (R=0.715)  charge=  4.8372  magn=  0.0000
     atom  35 (R=0.715)  charge=  4.8621  magn= -0.0000
     atom  36 (R=0.715)  charge=  4.8623  magn= -0.0000
     atom  37 (R=0.715)  charge=  7.8196  magn= -0.0001
     atom  38 (R=0.715)  charge=  7.8303  magn=  0.0000
     atom  39 (R=0.715)  charge=  4.8445  magn=  0.0000
     atom  40 (R=0.715)  charge=  4.8783  magn= -0.0000
     atom  41 (R=0.715)  charge=  4.8510  magn= -0.0000
     atom  42 (R=0.715)  charge=  4.8518  magn= -0.0000
     atom  43 (R=0.715)  charge=  7.8536  magn= -0.0000
     atom  44 (R=0.715)  charge=  7.8555  magn= -0.0000
     atom  45 (R=0.715)  charge=  4.7477  magn= -0.0004
     atom  46 (R=0.715)  charge=  4.8532  magn=  0.0004
     atom  47 (R=0.715)  charge=  4.8532  magn=  0.0004
     atom  48 (R=0.419)  charge=  0.4545  magn=  0.0000
     atom  49 (R=0.419)  charge=  1.3288  magn= -0.0000
     atom  50 (R=0.449)  charge=  0.8454  magn=  0.0000
     atom  51 (R=0.419)  charge=  0.4419  magn= -0.0000
     atom  52 (R=0.419)  charge=  0.4412  magn= -0.0000
     atom  53 (R=0.419)  charge=  0.4479  magn= -0.0000

     End of self-consistent calculation

 ------ SPIN UP ------------

          k = 0.0000 0.0000 0.0000 ( 18029 PWs)   bands (ev):

   -55.9923 -55.9878 -55.9582 -55.9516 -55.9025 -55.8379 -55.8377 -55.8033
   -55.7985 -55.7645 -55.7594 -55.7257 -55.5392 -55.2717 -54.9680 -54.9340
   -32.5466 -32.4753 -32.3496 -32.3394 -32.3151 -32.2968 -32.2847 -32.2503
   -32.2355 -32.2334 -32.2115 -32.2041 -32.1703 -32.1436 -32.1397 -32.1337
   -32.1301 -32.0972 -32.0770 -32.0486 -32.0481 -32.0404 -32.0253 -31.9981
   -31.9911 -31.9905 -31.9847 -31.9770 -31.9625 -31.9570 -31.9534 -31.9433
   -31.9354 -31.9283 -31.9125 -31.9056 -31.8718 -31.8084 -31.7102 -31.5464
   -31.5414 -31.4666 -31.3747 -31.2868 -31.2644 -31.1913 -31.1048 -30.9939
   -16.7555 -16.4722 -16.2927 -16.1497 -16.1175 -16.0320 -15.8311 -15.7044
   -15.6922 -15.5885 -15.5555 -15.5294 -15.5226 -15.4961 -15.4911 -15.4301
   -15.4281 -15.4146 -15.4054 -15.3483 -15.3237 -15.2705 -15.1911 -15.1580
   -15.1527 -15.1252 -15.0430 -15.0380 -14.5844 -14.1756 -13.4689 -13.3526
    -8.9298  -4.3602  -4.1266  -3.9522  -3.9131  -3.8972  -3.8474  -3.5932
    -3.5784  -3.3283  -3.2317  -3.1924  -3.1777  -3.1682  -3.1485  -3.1375
    -2.8910  -2.8247  -2.8091  -2.7869  -2.7794  -2.7732  -2.7611  -2.7606
    -2.7210  -2.6587  -2.5326  -2.4978  -2.4195  -2.3824  -2.3516  -2.3042
    -2.2604  -2.2532  -2.2422  -2.2238  -2.2109  -2.1873  -2.1708  -2.0369
    -1.9707  -1.8358  -1.8009  -1.7809  -1.5954  -1.5373  -1.4722  -1.4333
    -1.4201  -1.4130  -1.3812  -1.2995  -1.2080  -1.1519  -1.1419  -1.0854
    -1.0081  -0.9966  -0.8891  -0.8839  -0.8570  -0.7660  -0.7556  -0.7445
    -0.7253  -0.6574  -0.5561  -0.4798  -0.4347  -0.4047  -0.3737  -0.3043
    -0.2742  -0.1721  -0.1563  -0.1077  -0.1031  -0.0615  -0.0164  -0.0069
     0.0020   0.0098   0.0351   0.1775   0.2885   0.3433   0.3838   0.3898
     0.5441   0.5716   0.6689   0.7571   0.9824   1.0553   1.1479   1.2479
     1.3229   1.6261   1.6716   3.1496   3.2308   3.2814   3.2896   3.3925
     3.3977   3.5996   3.6078   3.6209   3.6880

[...]

          k =-0.0760-0.0000 0.0000 ( 17886 PWs)   bands (ev):

[...]

 ------ SPIN DOWN ----------

[...]

          k = 0.0380-0.0419 0.0000 ( 17876 PWs)   bands (ev):

[...]

          k =-0.0760-0.0839 0.0000 ( 17948 PWs)   bands (ev):

   -55.9815 -55.9809 -55.9709 -55.9682 -55.8975 -55.8429 -55.8213 -55.8198
   -55.7832 -55.7813 -55.7430 -55.7420 -55.5383 -55.2726 -54.9503 -54.9502
   -32.3515 -32.3479 -32.2931 -32.2927 -32.2810 -32.2772 -32.2766 -32.2601
   -32.1982 -32.1971 -32.1921 -32.1878 -32.1644 -32.1333 -32.1184 -32.1142
   -32.1013 -32.1013 -32.1008 -32.0996 -32.0943 -32.0827 -32.0804 -32.0488
   -32.0409 -32.0398 -32.0103 -31.9992 -31.9799 -31.9795 -31.9756 -31.9746
   -31.9578 -31.9571 -31.9559 -31.9529 -31.8775 -31.8109 -31.7057 -31.6109
   -31.5434 -31.4912 -31.2766 -31.2765 -31.1867 -31.1866 -31.1475 -31.1475
   -16.2093 -16.1741 -15.9374 -15.9260 -15.9194 -15.9037 -15.7580 -15.7112
   -15.6994 -15.6923 -15.6696 -15.6464 -15.5889 -15.5598 -15.5311 -15.5222
   -15.5162 -15.5142 -15.4525 -15.4473 -15.4241 -15.4172 -15.3037 -15.2999
   -15.2905 -15.2144 -15.1600 -15.0202 -14.7461 -14.1990 -13.4558 -13.4558
    -8.9346  -4.3720  -3.5033  -3.4632  -3.2891  -3.2372  -3.1781  -3.1615
    -3.1377  -3.0689  -2.9049  -2.8880  -2.8768  -2.8613  -2.8193  -2.8130
    -2.8027  -2.7905  -2.7835  -2.7644  -2.7311  -2.6984  -2.6595  -2.6523
    -2.6437  -2.6188  -2.6077  -2.5863  -2.5743  -2.5434  -2.5344  -2.5167
    -2.4873  -2.2256  -2.2058  -2.1949  -2.1237  -2.1171  -2.0834  -2.0658
    -2.0558  -2.0426  -1.9856  -1.8819  -1.7249  -1.6934  -1.6841  -1.6682
    -1.5849  -1.5755  -1.4222  -1.4007  -1.3808  -1.3438  -1.2896  -1.2671
    -1.2266  -1.1675  -1.1504  -1.0868  -1.0694  -1.0107  -0.9553  -0.9534
    -0.9325  -0.8571  -0.7758  -0.7602  -0.7469  -0.7077  -0.6977  -0.6108
    -0.5870  -0.4938  -0.4796  -0.4222  -0.3968  -0.2949  -0.1348  -0.0109
     0.0428   0.0687   0.1262   0.2248   0.2692   0.2809   0.3252   0.3314
     0.3929   0.4332   0.5463   0.5522   0.6270   0.7183   1.2602   1.4187
     1.4194   1.4901   1.4901   3.4113   3.4165   3.4638   3.4931   3.6464
     3.6511   3.6737   3.6748   3.8000   3.8162

     the Fermi energy is     3.1412 ev

!    total energy              =   -2920.42464311 Ry
     estimated scf accuracy    <       0.00000007 Ry
     smearing contrib. (-TS)   =      -0.02203286 Ry
     internal energy E=F+TS    =   -2920.40261026 Ry

     The total energy is F=E-TS. E is the sum of the following terms:
     one-electron contribution =  -24701.78070686 Ry
     hartree contribution      =   12435.50799372 Ry
     xc contribution           =    -480.87227403 Ry
     ewald contribution        =    9826.74149330 Ry
     electric field correction =       0.00088360 Ry

     total magnetization       =    -0.01 Bohr mag/cell
     absolute magnetization    =     0.02 Bohr mag/cell

     convergence has been achieved in  66 iterations

     Forces acting on atoms (cartesian axes, Ry/au):

     atom    1 type  1   force =     0.00010844   -0.00026444    0.09689269
     atom    2 type  1   force =     0.00001763   -0.00055619   -0.17509571
     atom    3 type  2   force =     0.00013470   -0.00007783   -0.02546421
     atom    4 type  2   force =    -0.00000644   -0.00137096    0.05230943
     atom    5 type  2   force =    -0.01236483   -0.00013349    0.00302533
     atom    6 type  2   force =     0.01378248    0.00023172    0.00238809
     atom    7 type  1   force =     0.00059828    0.00033419   -0.01266398
     atom    8 type  1   force =     0.00047336    0.00594025    0.03105525
     atom    9 type  2   force =    -0.00033346    0.00024291    0.00042229
     atom   10 type  2   force =    -0.00269535    0.00069475   -0.01624761
     atom   11 type  2   force =    -0.00040464    0.00012654    0.00017406
     atom   12 type  2   force =     0.00013664    0.00013698    0.00019997
     atom   13 type  1   force =    -0.00013936    0.00022497    0.00024839
     atom   14 type  1   force =    -0.00002414   -0.00021167   -0.00013617
     atom   15 type  2   force =     0.00020943    0.00010933    0.00033658
     atom   16 type  2   force =    -0.00006534    0.00027716    0.00022987
     atom   17 type  2   force =    -0.00009329   -0.00021424   -0.00022865
     atom   18 type  2   force =     0.00034571   -0.00010700    0.00025287
     atom   19 type  1   force =    -0.00004369    0.00027536   -0.00003819
     atom   20 type  1   force =    -0.00006265   -0.00002850   -0.00037693
     atom   21 type  2   force =     0.00006595   -0.00005676    0.10312137
     atom   22 type  2   force =    -0.00011996    0.00000133    0.00026116
     atom   23 type  2   force =    -0.07164178   -0.00015891   -0.02785733
     atom   24 type  2   force =     0.07156664    0.00032485   -0.02791784
     atom   25 type  1   force =     0.00011618   -0.00023992    0.09667703
     atom   26 type  1   force =     0.00012135   -0.00031923   -0.17526292
     atom   27 type  2   force =     0.00013461   -0.00023259   -0.02454352
     atom   28 type  2   force =     0.00002727   -0.00112893    0.05222584
     atom   29 type  2   force =    -0.01248654    0.00014741    0.00268177
     atom   30 type  2   force =     0.01379321    0.00069233    0.00202599
     atom   31 type  1   force =     0.00050127    0.00289516   -0.01338051
     atom   32 type  1   force =     0.00030337   -0.00821243    0.03147218
     atom   33 type  2   force =    -0.00005647   -0.00006427   -0.00008983
     atom   34 type  2   force =    -0.00184000    0.00055869   -0.02456408
     atom   35 type  2   force =    -0.00013667    0.00010110    0.00005401
     atom   36 type  2   force =    -0.00024564    0.00020321    0.00012697
     atom   37 type  1   force =    -0.00007802    0.00027658    0.00024114
     atom   38 type  1   force =    -0.00023158   -0.00003566   -0.00014675
     atom   39 type  2   force =     0.00006061    0.00021107   -0.00015293
     atom   40 type  2   force =    -0.00016877    0.00026969   -0.00014984
     atom   41 type  2   force =     0.00004052    0.00007103    0.00022751
     atom   42 type  2   force =    -0.00008005   -0.00001081    0.00036949
     atom   43 type  1   force =    -0.00019306   -0.00023996    0.00049735
     atom   44 type  1   force =     0.00035560   -0.00024884    0.00015271
     atom   45 type  2   force =     0.00004902   -0.00006359    0.10313135
     atom   46 type  2   force =    -0.07165166   -0.00008608   -0.02785244
     atom   47 type  2   force =     0.07158407    0.00033565   -0.02792829
     atom   48 type  3   force =    -0.00050395    0.00021726    0.00001525
     atom   49 type  4   force =     0.00045418   -0.00047009   -0.00037156
     atom   50 type  5   force =     0.00115847   -0.00133317   -0.00008127
     atom   51 type  3   force =     0.00036193   -0.00117486   -0.00066979
     atom   52 type  3   force =    -0.00071064    0.00065876    0.00024698
     atom   53 type  3   force =    -0.00012292    0.00148212    0.00015741

     Total force =     0.368424     Total SCF correction =     0.000776
  @ DRIVER MODE: Message from server: STATUS
  @ DRIVER MODE: Message from server: GETFORCE
  @ DRIVER MODE: Returning v,forces,stress,ensemble

     Writing output data file ./calc.save/
  @ DRIVER MODE: Message from server: EXIT
  @ DRIVE MODE: Exiting

     General routines

     Parallel routines

   This run was terminated on:   9:34: 3  16Jul2021

   JOB DONE.