     Program PWSCF v.6.7GPU starts on 23Aug2021 at 14: 7:16

     R & G space division:  proc/nbgrp/npool/nimage =       6
     Reading input from /storage/home/hcoda1/3/ntian30/research/carbon/CH_vib/ads_slab/CHNHH_a/out_0003/pw.inp
Warning: card &CELL ignored
Warning: card   CELL_DYNAMICS='IPI', ignored
Warning: card / ignored

     Current dimensions of program PWSCF are:
     Max number of different atomic species (ntypx) = 10
     Max number of k-points (npk) =  40000
     Max angular momentum in pseudopotentials (lmaxx) =  3
     Presently no symmetry can be used with electric field

     Message from routine cell_base_init:
     DEPRECATED: use true lattice parameter, not A to a.u. conversion factor

     IMPORTANT: XC functional enforced from input :
     Exchange-correlation= BEEF-VDW
                           (   1   4  43  14   2   0   0)
     Any further DFT definition will be discarded
     Please, verify this is what you really want

  @ DRIVER MODE: Connecting to
 qe_1139763_2632797.sched-torque.pace.gatech.edupo61fens_scratch
  using UNIX socket
  @ DRIVER MODE: Message from server: STATUS
  @ DRIVER MODE: Message from server: INIT
  @ DRIVER MODE: Receiving replica           0          -1
  @ DRIVER MODE: Receiving encoded integer          25
  @ DRIVER MODE:  SCF:  T  FORCE:  T  STRESS:  F  VC:  F  ENSEMBLE:  F
  @ DRIVER MODE:  SCF:  T  FORCE:  T  STRESS:  F  VC:  F  ENSEMBLE:  F

     Using Slab Decomposition

     bravais-lattice index     =            0
     lattice parameter (alat)  =       1.8897  a.u.
     unit-cell volume          =    6658.9804 (a.u.)^3
     number of atoms/cell      =           52
     number of atomic types    =            5
     number of electrons       =       390.00
     number of Kohn-Sham states=          205
     kinetic-energy cutoff     =      29.3995  Ry
     charge density cutoff     =     293.9946  Ry
     scf convergence threshold =      7.3E-08
     mixing beta               =       0.0500
     number of iterations used =            8  plain     mixing
     Exchange-correlation= BEEF-VDW
                           (   1   4  43  14   2   0   0)

     celldm(1)=   1.889726  celldm(2)=   0.000000  celldm(3)=   0.000000
     celldm(4)=   0.000000  celldm(5)=   0.000000  celldm(6)=   0.000000

     crystal axes: (cart. coord. in units of alat)
               a(1) = (   6.579727   0.000000   0.000000 )
               a(2) = (  -0.000775   5.961596   0.000000 )
               a(3) = (   0.000000   0.000000  25.155947 )

     reciprocal axes: (cart. coord. in units 2 pi/alat)
               b(1) = (  0.151982  0.000020  0.000000 )
               b(2) = (  0.000000  0.167740  0.000000 )
               b(3) = (  0.000000  0.000000  0.039752 )

     PseudoPot. # 1 for Ti read from file:
     /storage/coda1/p-amedford6/0/shared/rich_project_chbe-medford/medford-share/data/pseudos_module/espresso/nninc/pbe/van/Ti.UPF
     MD5 check sum: 8e4df49b7f0d34bbd5052bf3f5ea0213
     Pseudo is Ultrasoft, Zval = 12.0
     Generated by new atomic code, or converted to UPF format
     Using radial grid of  851 points,  6 beta functions with:
                l(1) =   0
                l(2) =   0
                l(3) =   1
                l(4) =   1
                l(5) =   2
                l(6) =   2
     Q(r) pseudized with  8 coefficients,  rinner =    1.000   1.000   1.000
                                                       1.000   1.000

     PseudoPot. # 2 for O  read from file:
     /storage/coda1/p-amedford6/0/shared/rich_project_chbe-medford/medford-share/data/pseudos_module/espresso/nninc/pbe/van/O.UPF
     MD5 check sum: 78c19812648e8988a0fe644b0f25305e
     Pseudo is Ultrasoft, Zval =  6.0
     Generated by new atomic code, or converted to UPF format
     Using radial grid of  737 points,  4 beta functions with:
                l(1) =   0
                l(2) =   0
                l(3) =   1
                l(4) =   1
     Q(r) pseudized with  8 coefficients,  rinner =    0.800   0.800   0.800

     PseudoPot. # 3 for N  read from file:
     /storage/coda1/p-amedford6/0/shared/rich_project_chbe-medford/medford-share/data/pseudos_module/espresso/nninc/pbe/van/N.UPF
     MD5 check sum: 90d10febe142ad51ac9d5be1deb811c4
     Pseudo is Ultrasoft, Zval =  5.0
     Generated by new atomic code, or converted to UPF format
     Using radial grid of  729 points,  4 beta functions with:
                l(1) =   0
                l(2) =   0
                l(3) =   1
                l(4) =   1
     Q(r) pseudized with  8 coefficients,  rinner =    0.800   0.800   0.800

     PseudoPot. # 4 for C  read from file:
     /storage/coda1/p-amedford6/0/shared/rich_project_chbe-medford/medford-share/data/pseudos_module/espresso/nninc/pbe/van/C.UPF
     MD5 check sum: 1a69bf6b8db32088f5b2163dbdb77a27
     Pseudo is Ultrasoft, Zval =  4.0
     Generated by new atomic code, or converted to UPF format
     Using radial grid of  721 points,  4 beta functions with:
                l(1) =   0
                l(2) =   0
                l(3) =   1
                l(4) =   1
     Q(r) pseudized with  8 coefficients,  rinner =    0.800   0.800   0.800

     PseudoPot. # 5 for H  read from file:
     /storage/coda1/p-amedford6/0/shared/rich_project_chbe-medford/medford-share/data/pseudos_module/espresso/nninc/pbe/van/H.UPF
     MD5 check sum: b5ee9d7bfd3a09ee7748110bda690ff7
     Pseudo is Ultrasoft, Zval =  1.0
     Generated by new atomic code, or converted to UPF format
     Using radial grid of  615 points,  1 beta functions with:
                l(1) =   0
     Q(r) pseudized with  8 coefficients,  rinner =    0.800

     atomic species   valence    mass     pseudopotential
        Ti1           12.00    47.86700     Ti( 1.00)
        O1             6.00    15.99900     O ( 1.00)
        N1             5.00    14.00700     N ( 1.00)
        C1             4.00    12.01100     C ( 1.00)
        H1             1.00     1.00800     H ( 1.00)

     No symmetry found

   Cartesian axes

     site n.     atom                  positions (alat units)
         1           Ti1 tau(   1) = (   0.0004258   2.9801865   6.0000000  )
         2           Ti1 tau(   2) = (   3.2906075   1.4906267   6.0002472  )
         3           O1  tau(   3) = (   0.0006271   0.0005054   7.9858123  )
         4           O1  tau(   4) = (   3.2906025   0.0005020   7.3038282  )
         5           O1  tau(   5) = (   4.5942328   1.4918067   9.2879030  )
         6           O1  tau(   6) = (   1.9868534   1.4903216   9.2879459  )
         7           Ti1 tau(   7) = (   3.2907910   2.8959150   9.1758416  )
         8           Ti1 tau(   8) = (   0.0015273   1.4827037   9.2680791  )
         9           O1  tau(   9) = (   3.2768318   5.9518058  11.3501096  )
        10           O1  tau(  10) = (   0.0116148   5.9584955  10.6183126  )
        11           O1  tau(  11) = (   1.2820894   1.4890407  12.6429483  )
        12           O1  tau(  12) = (   5.2701592   1.4861355  12.6244956  )
        13           Ti1 tau(  13) = (   0.0263608   2.9732685  12.5725065  )
        14           Ti1 tau(  14) = (   3.3311081   1.4825583  12.4934812  )
        15           O1  tau(  15) = (   6.5448050   0.0382128  14.6485099  )
        16           O1  tau(  16) = (   3.2835306   5.9556129  13.9684075  )
        17           O1  tau(  17) = (   4.5065730   1.5084740  16.1486978  )
        18           O1  tau(  18) = (   2.0110176   1.4968469  16.1316129  )
        19           Ti1 tau(  19) = (   3.2365874   2.9692752  15.7101938  )
        20           Ti1 tau(  20) = (   6.5183500   1.5288441  15.9766389  )
        21           O1  tau(  21) = (   3.2904802   0.0005063   4.7018136  )
        22           O1  tau(  22) = (   6.5552815   5.8936090  17.2115513  )
        23           O1  tau(  23) = (   1.3043587   1.4918075   6.0039043  )
        24           O1  tau(  24) = (   5.2767064   1.4903225   6.0039473  )
        25           Ti1 tau(  25) = (   0.0000382   5.9609847   6.0000000  )
        26           Ti1 tau(  26) = (   3.2902200   4.4714249   6.0002472  )
        27           O1  tau(  27) = (   0.0002396   2.9813036   7.9858123  )
        28           O1  tau(  28) = (   3.2902150   2.9813002   7.3038282  )
        29           O1  tau(  29) = (   4.5938453   4.4726049   9.2879030  )
        30           O1  tau(  30) = (   1.9864658   4.4711199   9.2879459  )
        31           Ti1 tau(  31) = (   3.2891106   5.8743827   9.1763621  )
        32           Ti1 tau(  32) = (   0.0006254   4.4649316   9.2693709  )
        33           O1  tau(  33) = (   3.2825058   2.9767457  11.3441782  )
        34           O1  tau(  34) = (   0.0092240   2.9805883  10.6323155  )
        35           O1  tau(  35) = (   1.2778777   4.4660374  12.6604661  )
        36           O1  tau(  36) = (   5.2710664   4.4675109  12.6369154  )
        37           Ti1 tau(  37) = (   0.0243246   5.9574881  12.5203091  )
        38           Ti1 tau(  38) = (   3.3318591   4.4611298  12.5006215  )
        39           O1  tau(  39) = (   6.5359656   2.9584677  14.7835642  )
        40           O1  tau(  40) = (   3.2771955   2.9708399  13.9242642  )
        41           O1  tau(  41) = (   4.4981441   4.4410618  16.1740548  )
        42           O1  tau(  42) = (   2.0042129   4.4512231  16.1075086  )
        43           Ti1 tau(  43) = (   3.2538698   5.9555144  15.7617387  )
        44           Ti1 tau(  44) = (   6.5531130   4.6830099  15.9084494  )
        45           O1  tau(  45) = (   3.2900926   2.9813045   4.7018136  )
        46           O1  tau(  46) = (   1.3039711   4.4726057   6.0039043  )
        47           O1  tau(  47) = (   5.2763189   4.4711207   6.0039473  )
        48           N1  tau(  48) = (   5.6690603   3.2468973  18.6585782  )
        49           C1  tau(  49) = (   0.0091554   2.6844975  17.9068455  )
        50           H1  tau(  50) = (   0.8805123   2.3964943  18.5001670  )
        51           H1  tau(  51) = (   4.8619660   3.6873350  18.2178346  )
        52           H1  tau(  52) = (   5.8095507   3.4768026  19.6356901  )

     number of k points=    10  Fermi-Dirac smearing, width (Ry)=  0.0073
                       cart. coord. in units 2pi/alat
        k(    1) = (   0.0000000   0.0000000   0.0000000), wk =   0.1250000
        k(    2) = (   0.0000000   0.0419351   0.0000000), wk =   0.2500000
        k(    3) = (   0.0000000  -0.0838702   0.0000000), wk =   0.1250000
        k(    4) = (   0.0379955   0.0000049   0.0000000), wk =   0.2500000
        k(    5) = (   0.0379955   0.0419400   0.0000000), wk =   0.2500000
        k(    6) = (   0.0379955  -0.0838652   0.0000000), wk =   0.2500000
        k(    7) = (   0.0379955  -0.0419301   0.0000000), wk =   0.2500000
        k(    8) = (  -0.0759910  -0.0000099   0.0000000), wk =   0.1250000
        k(    9) = (  -0.0759910   0.0419252   0.0000000), wk =   0.2500000
        k(   10) = (  -0.0759910  -0.0838800   0.0000000), wk =   0.1250000

     Initial potential from superposition of free atoms

     starting charge  373.99917, renormalised to  390.00000

     negative rho (up, down):  1.782E-02 0.000E+00

     %%%%%%%%%%%%%%%%%%%%%%%%%%%%%%%%%%%%%%%%%%%%%%%%%%%%%%%%%%%%%%%%%%%%%%%%
     %                                                                      %
     % You are using vdW-DF, which was implemented by the Thonhauser group. %
     % Please cite the following two papers that made this development      %
     % possible and the two reviews that describe the various versions:     %
     %                                                                      %
     %   T. Thonhauser et al., PRL 115, 136402 (2015).                      %
     %   T. Thonhauser et al., PRB 76, 125112 (2007).                       %
     %   K. Berland et al., Rep. Prog. Phys. 78, 066501 (2015).             %
     %   D.C. Langreth et al., J. Phys.: Condens. Matter 21, 084203 (2009). %
     %                                                                      %
     %                                                                      %
     % If you are calculating the stress with vdW-DF, please also cite:     %
     %                                                                      %
     %   R. Sabatini et al., J. Phys.: Condens. Matter 24, 424209 (2012).   %
     %                                                                      %
     %%%%%%%%%%%%%%%%%%%%%%%%%%%%%%%%%%%%%%%%%%%%%%%%%%%%%%%%%%%%%%%%%%%%%%%%

     Adding external electric field

     Computed dipole along edir(3) :
        Dipole               -5.8555 Ry au,        -14.8831 Debye
        Dipole field         -0.0111 Ry au,

        Potential amp.        1.0243 Ry
        Total length         46.3494 bohr

     Starting wfcs are  295 atomic wfcs
  @ DRIVER MODE: Message from server: STATUS
  @ DRIVER MODE: Message from server: POSDATA
  @ DRIVER MODE: Reading and sharing cell
  @ DRIVER MODE: Reading and sharing positions
  @ DRIVER MODE: Received positions

     Self-consistent Calculation

     iteration #  1     ecut=    29.40 Ry     beta= 0.05
     Davidson diagonalization with overlap
     c_bands:  4 eigenvalues not converged
     c_bands:  1 eigenvalues not converged
     c_bands:  2 eigenvalues not converged
     c_bands:  2 eigenvalues not converged
     c_bands:  3 eigenvalues not converged
     c_bands:  3 eigenvalues not converged
     c_bands:  3 eigenvalues not converged
     c_bands:  3 eigenvalues not converged
     c_bands:  3 eigenvalues not converged
     c_bands:  5 eigenvalues not converged
     ethr =  1.00E-05,  avg # of iterations = 20.0

[...]

     total energy              =   -2777.21958741 Ry
     estimated scf accuracy    <    1561.70074877 Ry

[...]

     iteration #  3     ecut=    29.40 Ry     beta= 0.05
     Davidson diagonalization with overlap
     ethr =  1.00E-02,  avg # of iterations = 15.1

[...]

     iteration # 65     ecut=    29.40 Ry     beta= 0.05
     Davidson diagonalization with overlap
     c_bands:  1 eigenvalues not converged
     ethr =  3.43E-11,  avg # of iterations =  9.3

[...]

     total energy              =   -2919.04276515 Ry
     estimated scf accuracy    <       0.00000014 Ry

     iteration # 67     ecut=    29.40 Ry     beta= 0.05
     Davidson diagonalization with overlap
     ethr =  2.16E-11,  avg # of iterations =  7.9

     negative rho (up, down):  1.801E-02 0.000E+00

     Adding external electric field

     Computed dipole along edir(3) :
        Dipole                1.3828 Ry au,          3.5147 Debye
        Dipole field          0.0026 Ry au,

        Potential amp.       -0.2419 Ry
        Total length         46.3494 bohr

     End of self-consistent calculation

          k = 0.0000 0.0000 0.0000 ( 18029 PWs)   bands (ev):

   -55.5067 -55.4813 -55.4703 -55.4473 -55.4208 -55.3757 -55.3338 -55.3258
   -55.3063 -55.2994 -55.2699 -55.2679 -55.0529 -54.9456 -54.4846 -54.4506
   -32.0736 -31.9690 -31.8673 -31.8454 -31.8351 -31.8018 -31.7942 -31.7718
   -31.7618 -31.7252 -31.7213 -31.7166 -31.6832 -31.6581 -31.6483 -31.6461
   -31.6342 -31.6095 -31.5994 -31.5906 -31.5791 -31.5645 -31.5387 -31.5347
   -31.5343 -31.5143 -31.5112 -31.5065 -31.5052 -31.4962 -31.4822 -31.4666
   -31.4560 -31.4553 -31.4322 -31.4212 -31.4056 -31.3560 -31.2895 -31.1906
   -31.1801 -31.0918 -30.8929 -30.8017 -30.7795 -30.7095 -30.6229 -30.5118
   -17.0512 -16.3063 -16.0223 -15.8589 -15.7150 -15.6839 -15.5735 -15.3982
   -15.3207 -15.2455 -15.2261 -15.1463 -15.1308 -15.1161 -15.0950 -15.0361
   -15.0281 -14.9830 -14.9782 -14.9442 -14.9240 -14.8925 -14.8750 -14.8675
   -14.8136 -14.7729 -14.7091 -14.6429 -14.5877 -14.1196 -12.9872 -12.8703
    -9.4662  -7.2039  -4.6147  -3.6635  -3.4938  -3.4132  -3.4037  -3.3831
    -3.1935  -3.1174  -2.8425  -2.7482  -2.7133  -2.7071  -2.6803  -2.6216
    -2.5600  -2.4490  -2.3808  -2.3482  -2.3280  -2.3228  -2.3124  -2.2945
    -2.2841  -2.2529  -2.1812  -2.1252  -2.0507  -1.9679  -1.8926  -1.8775
    -1.8165  -1.7886  -1.7738  -1.7674  -1.7605  -1.7360  -1.7298  -1.6386
    -1.5511  -1.5098  -1.4098  -1.3871  -1.2929  -1.1591  -1.1283  -1.0246
    -1.0175  -0.9615  -0.9370  -0.8932  -0.8451  -0.8353  -0.8182  -0.6743
    -0.6076  -0.5465  -0.4880  -0.4615  -0.4428  -0.3588  -0.2898  -0.2817
    -0.2643  -0.2435  -0.0683  -0.0362  -0.0165   0.0067   0.0217   0.1111
     0.1431   0.2175   0.2972   0.3118   0.3171   0.3947   0.4179   0.4614
     0.4636   0.4908   0.4963   0.6674   0.6781   0.7043   0.7336   0.8133
     0.8991   1.1030   1.1274   1.1674   1.4532   1.5194   1.5378   1.7254
     2.1112   2.1581   3.5837   3.6885   3.7210   3.7367   3.7647   3.8343
     3.9013   4.0793   4.0865   4.1175   4.1226

[...]

          k = 0.0380-0.0419 0.0000 ( 17876 PWs)   bands (ev):

[...]

          k =-0.0760-0.0000 0.0000 ( 17886 PWs)   bands (ev):

[...]

          k =-0.0760-0.0839 0.0000 ( 17948 PWs)   bands (ev):

   -55.4909 -55.4859 -55.4645 -55.4640 -55.4175 -55.3668 -55.3427 -55.3289
   -55.2877 -55.2861 -55.2857 -55.2839 -55.0501 -54.9484 -54.4676 -54.4675
   -31.8791 -31.8751 -31.8099 -31.7843 -31.7840 -31.7728 -31.7574 -31.7570
   -31.7173 -31.7120 -31.7104 -31.7031 -31.6740 -31.6369 -31.6279 -31.6239
   -31.6234 -31.6208 -31.6169 -31.6152 -31.6050 -31.5842 -31.5837 -31.5711
   -31.5678 -31.5571 -31.5447 -31.5289 -31.5209 -31.5184 -31.5024 -31.5015
   -31.5010 -31.4999 -31.4767 -31.4645 -31.4611 -31.3605 -31.2848 -31.2093
   -31.1831 -31.1757 -30.7922 -30.7921 -30.7055 -30.7054 -30.6662 -30.6662
   -17.0463 -15.7640 -15.7022 -15.5669 -15.4854 -15.4635 -15.4513 -15.4279
   -15.2902 -15.2740 -15.2558 -15.2058 -15.2019 -15.1992 -15.1606 -15.1040
   -15.0698 -15.0672 -15.0586 -15.0328 -14.9975 -14.9923 -14.9581 -14.9495
   -14.9360 -14.8464 -14.8410 -14.8387 -14.6680 -14.3442 -12.9720 -12.9719
    -9.4709  -7.2053  -4.5965  -3.0468  -2.9733  -2.8131  -2.7107  -2.6807
    -2.6487  -2.5067  -2.4707  -2.4616  -2.4525  -2.4186  -2.4016  -2.3810
    -2.3515  -2.3374  -2.3329  -2.3154  -2.3039  -2.2914  -2.2485  -2.2055
    -2.2041  -2.1942  -2.1638  -2.1433  -2.1311  -2.1023  -2.0830  -2.0674
    -2.0537  -2.0069  -1.8317  -1.7999  -1.7008  -1.6790  -1.6699  -1.6511
    -1.5818  -1.5547  -1.5226  -1.4842  -1.4335  -1.3104  -1.2428  -1.2215
    -1.1929  -1.1834  -1.1315  -1.0086  -0.9729  -0.9502  -0.9037  -0.8672
    -0.8239  -0.8121  -0.6925  -0.6878  -0.6419  -0.5996  -0.4858  -0.4683
    -0.4590  -0.4473  -0.4330  -0.3033  -0.2936  -0.2870  -0.2695  -0.2257
    -0.2085  -0.1034  -0.0055   0.0113   0.1135   0.1643   0.2906   0.3533
     0.4491   0.4957   0.5200   0.6098   0.6466   0.7282   0.7493   0.8052
     0.8168   0.9099   0.9668   0.9856   0.9936   1.0613   1.8978   1.8986
     1.9781   1.9782   3.7443   3.8391   3.8778   3.9000   3.9460   4.1039
     4.1204   4.1681   4.1711   4.1854   4.2669

     the Fermi energy is     3.6414 ev

!    total energy              =   -2919.04278632 Ry
     estimated scf accuracy    <       0.00000005 Ry
     smearing contrib. (-TS)   =      -0.03613230 Ry
     internal energy E=F+TS    =   -2919.00665402 Ry

     The total energy is F=E-TS. E is the sum of the following terms:
     one-electron contribution =  -24479.33301190 Ry
     hartree contribution      =   12327.85746038 Ry
     xc contribution           =    -479.99914868 Ry
     ewald contribution        =    9712.46443784 Ry
     electric field correction =       0.00360834 Ry

     convergence has been achieved in  67 iterations

     Forces acting on atoms (cartesian axes, Ry/au):

     atom    1 type  1   force =     0.00009242   -0.00020461    0.09492800
     atom    2 type  1   force =    -0.00022799   -0.00036074   -0.17676952
     atom    3 type  2   force =    -0.00004482   -0.00006782   -0.02290837
     atom    4 type  2   force =    -0.00004468   -0.00167910    0.05579219
     atom    5 type  2   force =    -0.01135360   -0.00123027    0.00624654
     atom    6 type  2   force =     0.01253301   -0.00034737    0.00440886
     atom    7 type  1   force =    -0.00114175    0.00152272   -0.01377480
     atom    8 type  1   force =     0.00062562    0.00694712    0.01264699
     atom    9 type  2   force =     0.00020275   -0.00005195    0.00012416
     atom   10 type  2   force =    -0.00163745    0.00010099   -0.00996281
     atom   11 type  2   force =    -0.00021392    0.00002484    0.00015790
     atom   12 type  2   force =     0.00025150    0.00011340   -0.00006531
     atom   13 type  1   force =     0.00007221   -0.00001257    0.00026105
     atom   14 type  1   force =     0.00000460   -0.00014894    0.00020502
     atom   15 type  2   force =     0.00001445    0.00000516    0.00008758
     atom   16 type  2   force =     0.00025825    0.00028175    0.00001527
     atom   17 type  2   force =     0.00004276   -0.00019896    0.00031035
     atom   18 type  2   force =     0.00028191    0.00010480    0.00019105
     atom   19 type  1   force =     0.00034675   -0.00003027   -0.00025375
     atom   20 type  1   force =     0.00030583   -0.00010189   -0.00032964
     atom   21 type  2   force =     0.00004757   -0.00004341    0.10363749
     atom   22 type  2   force =    -0.00004721   -0.00002664    0.00057990
     atom   23 type  2   force =    -0.07098795   -0.00016964   -0.02734004
     atom   24 type  2   force =     0.07084243    0.00031094   -0.02735605
     atom   25 type  1   force =    -0.00012558   -0.00020382    0.09461356
     atom   26 type  1   force =    -0.00019390   -0.00045987   -0.17692615
     atom   27 type  2   force =     0.00006998   -0.00035538   -0.02192923
     atom   28 type  2   force =     0.00003766   -0.00139151    0.05534359
     atom   29 type  2   force =    -0.01157733   -0.00008790    0.00585405
     atom   30 type  2   force =     0.01264927    0.00013317    0.00407221
     atom   31 type  1   force =    -0.00124971    0.00417672   -0.01464913
     atom   32 type  1   force =     0.00055703   -0.00777343    0.01250422
     atom   33 type  2   force =    -0.00001177    0.00009412    0.00003656
     atom   34 type  2   force =    -0.00127138    0.00082907   -0.00836812
     atom   35 type  2   force =     0.00011405    0.00020103   -0.00001047
     atom   36 type  2   force =     0.00013180    0.00004356    0.00018795
     atom   37 type  1   force =     0.00003618    0.00000738   -0.00005055
     atom   38 type  1   force =    -0.00004923   -0.00015720   -0.00017850
     atom   39 type  2   force =    -0.00016869   -0.00015591    0.00001120
     atom   40 type  2   force =     0.00023408   -0.00002403   -0.00011935
     atom   41 type  2   force =     0.00042678   -0.00011490    0.00036427
     atom   42 type  2   force =    -0.00019231    0.00009602   -0.00030696
     atom   43 type  1   force =    -0.00028545    0.00006052    0.00010594
     atom   44 type  1   force =     0.00052111   -0.00019126   -0.00023162
     atom   45 type  2   force =     0.00003347   -0.00004957    0.10360762
     atom   46 type  2   force =    -0.07098907   -0.00006560   -0.02733140
     atom   47 type  2   force =     0.07084987    0.00033247   -0.02736219
     atom   48 type  3   force =    -0.01131342    0.01075049    0.00352454
     atom   49 type  4   force =     0.00508484   -0.00425172   -0.00293650
     atom   50 type  5   force =     0.00081584   -0.00023278   -0.00084937
     atom   51 type  5   force =     0.00533486   -0.00398819    0.00180189
     atom   52 type  5   force =     0.00030834   -0.00195904   -0.00161011

     Total force =     0.366564     Total SCF correction =     0.000776
  @ DRIVER MODE: Message from server: STATUS
  @ DRIVER MODE: Message from server: GETFORCE
  @ DRIVER MODE: Returning v,forces,stress,ensemble

     Writing output data file ./calc.save/
  @ DRIVER MODE: Message from server: EXIT
  @ DRIVE MODE: Exiting

     General routines

     Parallel routines

   This run was terminated on:  14:35:12  23Aug2021

   JOB DONE.