     Program PWSCF v.6.7GPU starts on  8Sep2021 at 22:46:47

     R & G space division:  proc/nbgrp/npool/nimage =      10
     Reading input from /storage/home/hcoda1/3/ntian30/research/carbon/CxH_vib/CH_calc/ads_slab/CHN2H_a/out_0003/pw.inp
Warning: card &CELL ignored
Warning: card   CELL_DYNAMICS='IPI', ignored
Warning: card / ignored

     Current dimensions of program PWSCF are:
     Max number of different atomic species (ntypx) = 10
     Max number of k-points (npk) =  40000
     Max angular momentum in pseudopotentials (lmaxx) =  3
     Presently no symmetry can be used with electric field

     Message from routine cell_base_init:
     DEPRECATED: use true lattice parameter, not A to a.u. conversion factor

     IMPORTANT: XC functional enforced from input :
     Exchange-correlation= BEEF-VDW
                           (   1   4  43  14   2   0   0)
     Any further DFT definition will be discarded
     Please, verify this is what you really want

  @ DRIVER MODE: Connecting to
 qe_1139763_2767376.sched-torque.pace.gatech.edu8gcva_st_scratch
  using UNIX socket
  @ DRIVER MODE: Message from server: STATUS
  @ DRIVER MODE: Message from server: INIT
  @ DRIVER MODE: Receiving replica           0          -1
  @ DRIVER MODE: Receiving encoded integer          25
  @ DRIVER MODE:  SCF:  T  FORCE:  T  STRESS:  F  VC:  F  ENSEMBLE:  F
  @ DRIVER MODE:  SCF:  T  FORCE:  T  STRESS:  F  VC:  F  ENSEMBLE:  F

     Using Slab Decomposition

     bravais-lattice index     =            0
     lattice parameter (alat)  =       1.8897  a.u.
     unit-cell volume          =    6658.9804 (a.u.)^3
     number of atoms/cell      =           52
     number of atomic types    =            5
     number of electrons       =       394.00
     number of Kohn-Sham states=          207
     kinetic-energy cutoff     =      29.3995  Ry
     charge density cutoff     =     293.9946  Ry
     scf convergence threshold =      7.3E-08
     mixing beta               =       0.0500
     number of iterations used =            8  plain     mixing
     Exchange-correlation= BEEF-VDW
                           (   1   4  43  14   2   0   0)

     celldm(1)=   1.889726  celldm(2)=   0.000000  celldm(3)=   0.000000
     celldm(4)=   0.000000  celldm(5)=   0.000000  celldm(6)=   0.000000

     crystal axes: (cart. coord. in units of alat)
               a(1) = (   6.579727   0.000000   0.000000 )
               a(2) = (  -0.000775   5.961596   0.000000 )
               a(3) = (   0.000000   0.000000  25.155947 )

     reciprocal axes: (cart. coord. in units 2 pi/alat)
               b(1) = (  0.151982  0.000020  0.000000 )
               b(2) = (  0.000000  0.167740  0.000000 )
               b(3) = (  0.000000  0.000000  0.039752 )

     PseudoPot. # 1 for Ti read from file:
     /storage/coda1/p-amedford6/0/shared/rich_project_chbe-medford/medford-share/data/pseudos_module/espresso/nninc/pbe/van/Ti.UPF
     MD5 check sum: 8e4df49b7f0d34bbd5052bf3f5ea0213
     Pseudo is Ultrasoft, Zval = 12.0
     Generated by new atomic code, or converted to UPF format
     Using radial grid of  851 points,  6 beta functions with:
                l(1) =   0
                l(2) =   0
                l(3) =   1
                l(4) =   1
                l(5) =   2
                l(6) =   2
     Q(r) pseudized with  8 coefficients,  rinner =    1.000   1.000   1.000
                                                       1.000   1.000

     PseudoPot. # 2 for O  read from file:
     /storage/coda1/p-amedford6/0/shared/rich_project_chbe-medford/medford-share/data/pseudos_module/espresso/nninc/pbe/van/O.UPF
     MD5 check sum: 78c19812648e8988a0fe644b0f25305e
     Pseudo is Ultrasoft, Zval =  6.0
     Generated by new atomic code, or converted to UPF format
     Using radial grid of  737 points,  4 beta functions with:
                l(1) =   0
                l(2) =   0
                l(3) =   1
                l(4) =   1
     Q(r) pseudized with  8 coefficients,  rinner =    0.800   0.800   0.800

     PseudoPot. # 3 for N  read from file:
     /storage/coda1/p-amedford6/0/shared/rich_project_chbe-medford/medford-share/data/pseudos_module/espresso/nninc/pbe/van/N.UPF
     MD5 check sum: 90d10febe142ad51ac9d5be1deb811c4
     Pseudo is Ultrasoft, Zval =  5.0
     Generated by new atomic code, or converted to UPF format
     Using radial grid of  729 points,  4 beta functions with:
                l(1) =   0
                l(2) =   0
                l(3) =   1
                l(4) =   1
     Q(r) pseudized with  8 coefficients,  rinner =    0.800   0.800   0.800

     PseudoPot. # 4 for C  read from file:
     /storage/coda1/p-amedford6/0/shared/rich_project_chbe-medford/medford-share/data/pseudos_module/espresso/nninc/pbe/van/C.UPF
     MD5 check sum: 1a69bf6b8db32088f5b2163dbdb77a27
     Pseudo is Ultrasoft, Zval =  4.0
     Generated by new atomic code, or converted to UPF format
     Using radial grid of  721 points,  4 beta functions with:
                l(1) =   0
                l(2) =   0
                l(3) =   1
                l(4) =   1
     Q(r) pseudized with  8 coefficients,  rinner =    0.800   0.800   0.800

     PseudoPot. # 5 for H  read from file:
     /storage/coda1/p-amedford6/0/shared/rich_project_chbe-medford/medford-share/data/pseudos_module/espresso/nninc/pbe/van/H.UPF
     MD5 check sum: b5ee9d7bfd3a09ee7748110bda690ff7
     Pseudo is Ultrasoft, Zval =  1.0
     Generated by new atomic code, or converted to UPF format
     Using radial grid of  615 points,  1 beta functions with:
                l(1) =   0
     Q(r) pseudized with  8 coefficients,  rinner =    0.800

     atomic species   valence    mass     pseudopotential
        Ti1           12.00    47.86700     Ti( 1.00)
        O1             6.00    15.99900     O ( 1.00)
        N1             5.00    14.00700     N ( 1.00)
        C1             4.00    12.01100     C ( 1.00)
        H1             1.00     1.00800     H ( 1.00)

     No symmetry found

   Cartesian axes

     site n.     atom                  positions (alat units)
         1           Ti1 tau(   1) = (   0.0004258   2.9801865   6.0000000  )
         2           Ti1 tau(   2) = (   3.2906075   1.4906267   6.0002472  )
         3           O1  tau(   3) = (   0.0006271   0.0005054   7.9858123  )
         4           O1  tau(   4) = (   3.2906025   0.0005020   7.3038282  )
         5           O1  tau(   5) = (   4.5942328   1.4918067   9.2879030  )
         6           O1  tau(   6) = (   1.9868534   1.4903216   9.2879459  )
         7           Ti1 tau(   7) = (   3.2907910   2.8959150   9.1758416  )
         8           Ti1 tau(   8) = (   0.0015273   1.4827037   9.2680791  )
         9           O1  tau(   9) = (   3.3079035   5.9465650  11.3667630  )
        10           O1  tau(  10) = (   0.0116148   5.9584955  10.6183126  )
        11           O1  tau(  11) = (   1.3159687   1.4802111  12.6598234  )
        12           O1  tau(  12) = (   5.3141237   1.4785834  12.6569702  )
        13           Ti1 tau(  13) = (   0.0356438   2.9569522  12.5500042  )
        14           Ti1 tau(  14) = (   3.3321116   1.4682926  12.5176941  )
        15           O1  tau(  15) = (   0.0287262   5.9365737  14.6848071  )
        16           O1  tau(  16) = (   3.3260766   5.9477468  13.9918032  )
        17           O1  tau(  17) = (   4.5788076   1.5006004  16.1778977  )
        18           O1  tau(  18) = (   2.0653823   1.4932191  16.1519216  )
        19           Ti1 tau(  19) = (   3.3252840   2.9629899  15.7366588  )
        20           Ti1 tau(  20) = (   0.0567170   1.3280226  15.9864722  )
        21           O1  tau(  21) = (   3.2904802   0.0005063   4.7018136  )
        22           O1  tau(  22) = (   0.0395201   5.9563027  17.2132275  )
        23           O1  tau(  23) = (   1.3043587   1.4918075   6.0039043  )
        24           O1  tau(  24) = (   5.2767064   1.4903225   6.0039473  )
        25           Ti1 tau(  25) = (   0.0000382   5.9609847   6.0000000  )
        26           Ti1 tau(  26) = (   3.2902200   4.4714249   6.0002472  )
        27           O1  tau(  27) = (   0.0002396   2.9813036   7.9858123  )
        28           O1  tau(  28) = (   3.2902150   2.9813002   7.3038282  )
        29           O1  tau(  29) = (   4.5938453   4.4726049   9.2879030  )
        30           O1  tau(  30) = (   1.9864658   4.4711199   9.2879459  )
        31           Ti1 tau(  31) = (   3.2891106   5.8743827   9.1763621  )
        32           Ti1 tau(  32) = (   0.0006254   4.4649316   9.2693709  )
        33           O1  tau(  33) = (   3.3109971   2.9638951  11.3609806  )
        34           O1  tau(  34) = (   0.0092240   2.9805883  10.6323155  )
        35           O1  tau(  35) = (   1.3172493   4.4579999  12.6547637  )
        36           O1  tau(  36) = (   5.3123203   4.4599931  12.6537913  )
        37           Ti1 tau(  37) = (   0.0349292   5.9384232  12.5038109  )
        38           Ti1 tau(  38) = (   3.3308216   4.4462378  12.5132791  )
        39           O1  tau(  39) = (   0.0262156   2.9786664  14.8481040  )
        40           O1  tau(  40) = (   3.3240488   2.9673873  13.9486158  )
        41           O1  tau(  41) = (   4.5778164   4.4375445  16.1741249  )
        42           O1  tau(  42) = (   2.0647505   4.4412733  16.1578575  )
        43           Ti1 tau(  43) = (   3.3314326   5.9455663  15.7867969  )
        44           Ti1 tau(  44) = (   0.0345939   4.5236910  15.9072353  )
        45           O1  tau(  45) = (   3.2900926   2.9813045   4.7018136  )
        46           O1  tau(  46) = (   1.3039711   4.4726057   6.0039043  )
        47           O1  tau(  47) = (   5.2763189   4.4711207   6.0039473  )
        48           N1  tau(  48) = (   0.8843530   3.1295628  18.6524426  )
        49           C1  tau(  49) = (   1.8908588   3.1194352  19.2834450  )
        50           H1  tau(  50) = (   2.4245030   3.8971110  19.8100181  )
        51           N1  tau(  51) = (   6.5588057   2.9807634  17.7841789  )
        52           H1  tau(  52) = (   5.6432114   2.8891999  18.2270943  )

     number of k points=    10  Fermi-Dirac smearing, width (Ry)=  0.0073
                       cart. coord. in units 2pi/alat
        k(    1) = (   0.0000000   0.0000000   0.0000000), wk =   0.1250000
        k(    2) = (   0.0000000   0.0419351   0.0000000), wk =   0.2500000
        k(    3) = (   0.0000000  -0.0838702   0.0000000), wk =   0.1250000
        k(    4) = (   0.0379955   0.0000049   0.0000000), wk =   0.2500000
        k(    5) = (   0.0379955   0.0419400   0.0000000), wk =   0.2500000
        k(    6) = (   0.0379955  -0.0838652   0.0000000), wk =   0.2500000
        k(    7) = (   0.0379955  -0.0419301   0.0000000), wk =   0.2500000
        k(    8) = (  -0.0759910  -0.0000099   0.0000000), wk =   0.1250000
        k(    9) = (  -0.0759910   0.0419252   0.0000000), wk =   0.2500000
        k(   10) = (  -0.0759910  -0.0838800   0.0000000), wk =   0.1250000

     Initial potential from superposition of free atoms

     starting charge  377.99917, renormalised to  394.00000

     negative rho (up, down):  1.653E-02 0.000E+00

     %%%%%%%%%%%%%%%%%%%%%%%%%%%%%%%%%%%%%%%%%%%%%%%%%%%%%%%%%%%%%%%%%%%%%%%%
     %                                                                      %
     % You are using vdW-DF, which was implemented by the Thonhauser group. %
     % Please cite the following two papers that made this development      %
     % possible and the two reviews that describe the various versions:     %
     %                                                                      %
     %   T. Thonhauser et al., PRL 115, 136402 (2015).                      %
     %   T. Thonhauser et al., PRB 76, 125112 (2007).                       %
     %   K. Berland et al., Rep. Prog. Phys. 78, 066501 (2015).             %
     %   D.C. Langreth et al., J. Phys.: Condens. Matter 21, 084203 (2009). %
     %                                                                      %
     %                                                                      %
     % If you are calculating the stress with vdW-DF, please also cite:     %
     %                                                                      %
     %   R. Sabatini et al., J. Phys.: Condens. Matter 24, 424209 (2012).   %
     %                                                                      %
     %%%%%%%%%%%%%%%%%%%%%%%%%%%%%%%%%%%%%%%%%%%%%%%%%%%%%%%%%%%%%%%%%%%%%%%%

     Adding external electric field

     Computed dipole along edir(3) :
        Dipole               -8.4995 Ry au,        -21.6035 Debye
        Dipole field         -0.0160 Ry au,

        Potential amp.        1.4869 Ry
        Total length         46.3494 bohr

     Starting wfcs are  298 atomic wfcs
  @ DRIVER MODE: Message from server: STATUS
  @ DRIVER MODE: Message from server: POSDATA
  @ DRIVER MODE: Reading and sharing cell
  @ DRIVER MODE: Reading and sharing positions
  @ DRIVER MODE: Received positions

     Self-consistent Calculation

     iteration #  1     ecut=    29.40 Ry     beta= 0.05
     Davidson diagonalization with overlap
     c_bands:  1 eigenvalues not converged
     c_bands:  1 eigenvalues not converged
     c_bands:  2 eigenvalues not converged
     c_bands:  2 eigenvalues not converged
     c_bands:  2 eigenvalues not converged
     c_bands:  1 eigenvalues not converged
     ethr =  1.00E-05,  avg # of iterations = 19.0

[...]

     total energy              =   -2624.26794482 Ry
     estimated scf accuracy    <    3488.40051550 Ry

[...]

     iteration #  3     ecut=    29.40 Ry     beta= 0.05
     Davidson diagonalization with overlap
     ethr =  1.00E-02,  avg # of iterations = 14.7

[...]

     iteration # 72     ecut=    29.40 Ry     beta= 0.05
     Davidson diagonalization with overlap
     c_bands:  1 eigenvalues not converged
     c_bands:  1 eigenvalues not converged
     ethr =  6.00E-11,  avg # of iterations = 13.2

[...]

     total energy              =   -2937.80855600 Ry
     estimated scf accuracy    <       0.00000011 Ry

     iteration # 74     ecut=    29.40 Ry     beta= 0.05
     Davidson diagonalization with overlap
     ethr =  2.69E-11,  avg # of iterations = 10.7

     negative rho (up, down):  1.627E-02 0.000E+00

     Adding external electric field

     Computed dipole along edir(3) :
        Dipole                1.3001 Ry au,          3.3045 Debye
        Dipole field          0.0025 Ry au,

        Potential amp.       -0.2274 Ry
        Total length         46.3494 bohr

     End of self-consistent calculation

          k = 0.0000 0.0000 0.0000 ( 18029 PWs)   bands (ev):

   -55.4292 -55.3932 -55.3931 -55.3589 -55.3227 -55.3069 -55.2638 -55.2423
   -55.2396 -55.2270 -55.2196 -55.2078 -55.1863 -55.1615 -54.4114 -54.3773
   -31.9983 -31.8836 -31.8252 -31.7927 -31.7488 -31.7408 -31.7315 -31.7225
   -31.6828 -31.6761 -31.6384 -31.6377 -31.6304 -31.6030 -31.5837 -31.5654
   -31.5614 -31.5554 -31.5464 -31.5409 -31.5078 -31.5051 -31.4957 -31.4870
   -31.4726 -31.4501 -31.4448 -31.4445 -31.4386 -31.4336 -31.4306 -31.4164
   -31.4084 -31.4023 -31.3964 -31.3914 -31.3712 -31.3568 -31.3547 -31.3490
   -31.3283 -31.2689 -30.8203 -30.7273 -30.7052 -30.6367 -30.5500 -30.4391
   -20.2605 -16.2444 -15.9723 -15.8294 -15.7053 -15.6199 -15.4932 -15.4571
   -15.3607 -15.3353 -15.2217 -15.1461 -15.0801 -15.0778 -15.0613 -15.0324
   -14.9838 -14.9646 -14.9621 -14.9198 -14.9177 -14.8757 -14.8561 -14.8220
   -14.8043 -14.7854 -14.7701 -14.6456 -14.5760 -14.5173 -14.1596 -12.9140
   -12.7968  -8.8289  -7.1841  -5.4503  -4.7440  -3.5892  -3.4293  -3.3428
    -3.3260  -3.3256  -3.1575  -3.0299  -2.8023  -2.7675  -2.6909  -2.6365
    -2.6185  -2.5968  -2.4193  -2.3948  -2.3356  -2.3087  -2.2705  -2.2397
    -2.2148  -2.1981  -2.1878  -2.1689  -2.1564  -1.9945  -1.8959  -1.8670
    -1.8303  -1.8153  -1.7557  -1.7229  -1.7171  -1.7147  -1.7057  -1.6627
    -1.6446  -1.5953  -1.4946  -1.4706  -1.4443  -1.3151  -1.2956  -1.1495
    -1.0620  -0.9776  -0.9702  -0.9035  -0.9001  -0.8656  -0.8132  -0.7906
    -0.7648  -0.6315  -0.5621  -0.5082  -0.4901  -0.4447  -0.3988  -0.3634
    -0.2713  -0.2051  -0.1977  -0.1856  -0.0214  -0.0081   0.0400   0.0895
     0.1125   0.1633   0.1862   0.2575   0.2906   0.3369   0.3670   0.4641
     0.5025   0.5242   0.5374   0.5572   0.5699   0.6289   0.6971   0.7158
     0.7638   0.8172   0.9315   1.1270   1.1916   1.2036   1.5209   1.5548
     1.6112   1.7964   2.1862   2.2339   3.6707   3.7422   3.8061   3.8210
     3.8291   3.9063   4.0863   4.1540   4.1696   4.1763   4.1874

[...]

          k = 0.0380-0.0419 0.0000 ( 17876 PWs)   bands (ev):

[...]

          k =-0.0760-0.0000 0.0000 ( 17886 PWs)   bands (ev):

[...]

          k =-0.0760-0.0839 0.0000 ( 17948 PWs)   bands (ev):

   -55.4123 -55.4099 -55.3762 -55.3757 -55.3195 -55.2985 -55.2723 -55.2352
   -55.2301 -55.2258 -55.2235 -55.2033 -55.2030 -55.1657 -54.3944 -54.3942
   -31.8032 -31.8003 -31.7437 -31.7221 -31.6989 -31.6985 -31.6869 -31.6684
   -31.6679 -31.6399 -31.6305 -31.6250 -31.6219 -31.5816 -31.5598 -31.5565
   -31.5564 -31.5485 -31.5480 -31.5375 -31.5246 -31.5154 -31.5053 -31.5014
   -31.4970 -31.4956 -31.4951 -31.4919 -31.4666 -31.4604 -31.4590 -31.4563
   -31.4396 -31.4379 -31.4368 -31.4276 -31.4261 -31.4211 -31.3835 -31.3830
   -31.3792 -31.3603 -30.7179 -30.7178 -30.6329 -30.6327 -30.5934 -30.5933
   -20.2593 -15.7010 -15.6796 -15.6207 -15.4178 -15.4138 -15.4003 -15.3873
   -15.3829 -15.2283 -15.2107 -15.1931 -15.1745 -15.1319 -15.1289 -15.1150
   -15.1047 -15.0030 -15.0008 -14.9987 -14.9974 -14.9348 -14.9269 -14.9131
   -14.8786 -14.8754 -14.8464 -14.7764 -14.7735 -14.6430 -14.4809 -12.8984
   -12.8983  -8.8142  -7.2037  -5.4489  -4.7275  -2.9548  -2.8846  -2.8420
    -2.6318  -2.6090  -2.5942  -2.5121  -2.4627  -2.4003  -2.3928  -2.3875
    -2.3271  -2.2926  -2.2788  -2.2604  -2.2520  -2.2356  -2.2131  -2.2029
    -2.1573  -2.1447  -2.1350  -2.1016  -2.0872  -2.0685  -2.0467  -2.0304
    -2.0104  -2.0046  -1.9856  -1.8249  -1.7739  -1.7282  -1.6800  -1.6682
    -1.6213  -1.6138  -1.5199  -1.4852  -1.4566  -1.4301  -1.4209  -1.2312
    -1.2150  -1.1609  -1.1566  -1.1336  -0.9790  -0.9576  -0.9438  -0.9243
    -0.8788  -0.7978  -0.7907  -0.7522  -0.6470  -0.6152  -0.6102  -0.5586
    -0.4386  -0.4155  -0.3928  -0.3865  -0.3807  -0.2892  -0.2714  -0.2647
    -0.2301  -0.1957  -0.1454  -0.1387  -0.0864   0.0964   0.1397   0.2060
     0.2855   0.4516   0.4917   0.5194   0.5615   0.6227   0.6961   0.7105
     0.7767   0.8709   0.8859   0.9131   0.9879   1.0411   1.0490   1.0731
     1.9692   1.9700   2.0538   2.0539   3.8403   3.8532   3.9144   3.9515
     4.0006   4.0883   4.1899   4.2050   4.2498   4.2505   4.3319

     the Fermi energy is     3.7247 ev

!    total energy              =   -2937.80856936 Ry
     estimated scf accuracy    <       0.00000005 Ry
     smearing contrib. (-TS)   =      -0.03814049 Ry
     internal energy E=F+TS    =   -2937.77042887 Ry

     The total energy is F=E-TS. E is the sum of the following terms:
     one-electron contribution =  -24092.41779725 Ry
     hartree contribution      =   12136.32634035 Ry
     xc contribution           =    -484.38724993 Ry
     ewald contribution        =    9502.70508822 Ry
     electric field correction =       0.00318974 Ry

     convergence has been achieved in  74 iterations

     Forces acting on atoms (cartesian axes, Ry/au):

     atom    1 type  1   force =     0.00005082   -0.00013060    0.09404715
     atom    2 type  1   force =    -0.00015014   -0.00022551   -0.17762825
     atom    3 type  2   force =     0.00010888   -0.00021667   -0.02137077
     atom    4 type  2   force =     0.00002762   -0.00184470    0.05753823
     atom    5 type  2   force =    -0.01069113   -0.00139267    0.00632331
     atom    6 type  2   force =     0.01276219   -0.00074566    0.00660789
     atom    7 type  1   force =     0.00011131    0.00196984   -0.01406144
     atom    8 type  1   force =    -0.00047406    0.00585153    0.00396045
     atom    9 type  2   force =     0.00036355    0.00022144   -0.00008004
     atom   10 type  2   force =    -0.00024015    0.00020338   -0.00512645
     atom   11 type  2   force =     0.00003591   -0.00015651   -0.00043895
     atom   12 type  2   force =    -0.00027642    0.00000706    0.00009599
     atom   13 type  1   force =    -0.00025941    0.00001954   -0.00036970
     atom   14 type  1   force =    -0.00009190    0.00014390   -0.00019760
     atom   15 type  2   force =    -0.00049068   -0.00044232   -0.00005931
     atom   16 type  2   force =    -0.00018733    0.00018221    0.00008482
     atom   17 type  2   force =     0.00005949   -0.00016961   -0.00003260
     atom   18 type  2   force =    -0.00054963   -0.00008002   -0.00034737
     atom   19 type  1   force =    -0.00019200    0.00010185   -0.00047470
     atom   20 type  1   force =    -0.00042198   -0.00021949    0.00015952
     atom   21 type  2   force =     0.00002052    0.00001830    0.10382148
     atom   22 type  2   force =     0.00004456    0.00006353    0.00016823
     atom   23 type  2   force =    -0.07064654   -0.00008985   -0.02703844
     atom   24 type  2   force =     0.07053701    0.00035307   -0.02709256
     atom   25 type  1   force =     0.00000483   -0.00008986    0.09369240
     atom   26 type  1   force =    -0.00011928   -0.00016679   -0.17769452
     atom   27 type  2   force =     0.00013348   -0.00023628   -0.02036736
     atom   28 type  2   force =     0.00007027   -0.00155526    0.05700942
     atom   29 type  2   force =    -0.01102399   -0.00053774    0.00634838
     atom   30 type  2   force =     0.01294990   -0.00027364    0.00664285
     atom   31 type  1   force =     0.00029581    0.00520586   -0.01483028
     atom   32 type  1   force =    -0.00039783   -0.00659508    0.00412259
     atom   33 type  2   force =     0.00015819    0.00008380   -0.00031414
     atom   34 type  2   force =     0.00035878   -0.00102238   -0.00201736
     atom   35 type  2   force =    -0.00032317    0.00014570   -0.00020406
     atom   36 type  2   force =    -0.00002858   -0.00000584    0.00012503
     atom   37 type  1   force =    -0.00007228    0.00024907   -0.00018773
     atom   38 type  1   force =     0.00005927    0.00025345    0.00018578
     atom   39 type  2   force =    -0.00006204    0.00019213    0.00025374
     atom   40 type  2   force =    -0.00029986    0.00009824   -0.00017769
     atom   41 type  2   force =    -0.00002374   -0.00014988    0.00027117
     atom   42 type  2   force =    -0.00036487    0.00008329    0.00000136
     atom   43 type  1   force =    -0.00013492    0.00016920   -0.00026132
     atom   44 type  1   force =     0.00003839   -0.00017638   -0.00043297
     atom   45 type  2   force =     0.00001443   -0.00000782    0.10381903
     atom   46 type  2   force =    -0.07066475   -0.00003360   -0.02705407
     atom   47 type  2   force =     0.07054359    0.00040456   -0.02708821
     atom   48 type  3   force =     0.00456579    0.00323846    0.00306060
     atom   49 type  4   force =    -0.00294840   -0.00093974   -0.00131140
     atom   50 type  5   force =    -0.00046564   -0.00020192   -0.00059805
     atom   51 type  3   force =    -0.00128767   -0.00160326   -0.00138813
     atom   52 type  5   force =    -0.00042622    0.00004966   -0.00009394

     Total force =     0.366066     Total SCF correction =     0.000476
  @ DRIVER MODE: Message from server: STATUS
  @ DRIVER MODE: Message from server: GETFORCE
  @ DRIVER MODE: Returning v,forces,stress,ensemble

     Writing output data file ./calc.save/
  @ DRIVER MODE: Message from server: EXIT
  @ DRIVE MODE: Exiting

     General routines

     Parallel routines

   This run was terminated on:  23: 5:56   8Sep2021

   JOB DONE.