     Program PWSCF v.6.7GPU starts on 15Sep2021 at  0:45:34

     R & G space division:  proc/nbgrp/npool/nimage =      10
     Reading input from /storage/home/hcoda1/3/ntian30/research/carbon/CxH_vib/CH_calc/ads_slab/CHOHN2_a/out_0033/pw.inp
Warning: card &CELL ignored
Warning: card   CELL_DYNAMICS='IPI', ignored
Warning: card / ignored

     Current dimensions of program PWSCF are:
     Max number of different atomic species (ntypx) = 10
     Max number of k-points (npk) =  40000
     Max angular momentum in pseudopotentials (lmaxx) =  3
     Presently no symmetry can be used with electric field

     Message from routine cell_base_init:
     DEPRECATED: use true lattice parameter, not A to a.u. conversion factor

     IMPORTANT: XC functional enforced from input :
     Exchange-correlation= BEEF-VDW
                           (   1   4  43  14   2   0   0)
     Any further DFT definition will be discarded
     Please, verify this is what you really want

  @ DRIVER MODE: Connecting to
 qe_1139763_2840439.sched-torque.pace.gatech.eduu5l0t078_scratch
  using UNIX socket
  @ DRIVER MODE: Message from server: STATUS
  @ DRIVER MODE: Message from server: INIT
  @ DRIVER MODE: Receiving replica           0          -1
  @ DRIVER MODE: Receiving encoded integer          25
  @ DRIVER MODE:  SCF:  T  FORCE:  T  STRESS:  F  VC:  F  ENSEMBLE:  F
  @ DRIVER MODE:  SCF:  T  FORCE:  T  STRESS:  F  VC:  F  ENSEMBLE:  F

     Using Slab Decomposition

     bravais-lattice index     =            0
     lattice parameter (alat)  =       1.8897  a.u.
     unit-cell volume          =    6658.9804 (a.u.)^3
     number of atoms/cell      =           53
     number of atomic types    =            5
     number of electrons       =       400.00
     number of Kohn-Sham states=          210
     kinetic-energy cutoff     =      29.3995  Ry
     charge density cutoff     =     293.9946  Ry
     scf convergence threshold =      7.3E-08
     mixing beta               =       0.0500
     number of iterations used =            8  plain     mixing
     Exchange-correlation= BEEF-VDW
                           (   1   4  43  14   2   0   0)

     celldm(1)=   1.889726  celldm(2)=   0.000000  celldm(3)=   0.000000
     celldm(4)=   0.000000  celldm(5)=   0.000000  celldm(6)=   0.000000

     crystal axes: (cart. coord. in units of alat)
               a(1) = (   6.579727   0.000000   0.000000 )
               a(2) = (  -0.000775   5.961596   0.000000 )
               a(3) = (   0.000000   0.000000  25.155947 )

     reciprocal axes: (cart. coord. in units 2 pi/alat)
               b(1) = (  0.151982  0.000020  0.000000 )
               b(2) = (  0.000000  0.167740  0.000000 )
               b(3) = (  0.000000  0.000000  0.039752 )

     PseudoPot. # 1 for C  read from file:
     /storage/coda1/p-amedford6/0/shared/rich_project_chbe-medford/medford-share/data/pseudos_module/espresso/nninc/pbe/van/C.UPF
     MD5 check sum: 1a69bf6b8db32088f5b2163dbdb77a27
     Pseudo is Ultrasoft, Zval =  4.0
     Generated by new atomic code, or converted to UPF format
     Using radial grid of  721 points,  4 beta functions with:
                l(1) =   0
                l(2) =   0
                l(3) =   1
                l(4) =   1
     Q(r) pseudized with  8 coefficients,  rinner =    0.800   0.800   0.800

     PseudoPot. # 2 for H  read from file:
     /storage/coda1/p-amedford6/0/shared/rich_project_chbe-medford/medford-share/data/pseudos_module/espresso/nninc/pbe/van/H.UPF
     MD5 check sum: b5ee9d7bfd3a09ee7748110bda690ff7
     Pseudo is Ultrasoft, Zval =  1.0
     Generated by new atomic code, or converted to UPF format
     Using radial grid of  615 points,  1 beta functions with:
                l(1) =   0
     Q(r) pseudized with  8 coefficients,  rinner =    0.800

     PseudoPot. # 3 for O  read from file:
     /storage/coda1/p-amedford6/0/shared/rich_project_chbe-medford/medford-share/data/pseudos_module/espresso/nninc/pbe/van/O.UPF
     MD5 check sum: 78c19812648e8988a0fe644b0f25305e
     Pseudo is Ultrasoft, Zval =  6.0
     Generated by new atomic code, or converted to UPF format
     Using radial grid of  737 points,  4 beta functions with:
                l(1) =   0
                l(2) =   0
                l(3) =   1
                l(4) =   1
     Q(r) pseudized with  8 coefficients,  rinner =    0.800   0.800   0.800

     PseudoPot. # 4 for Ti read from file:
     /storage/coda1/p-amedford6/0/shared/rich_project_chbe-medford/medford-share/data/pseudos_module/espresso/nninc/pbe/van/Ti.UPF
     MD5 check sum: 8e4df49b7f0d34bbd5052bf3f5ea0213
     Pseudo is Ultrasoft, Zval = 12.0
     Generated by new atomic code, or converted to UPF format
     Using radial grid of  851 points,  6 beta functions with:
                l(1) =   0
                l(2) =   0
                l(3) =   1
                l(4) =   1
                l(5) =   2
                l(6) =   2
     Q(r) pseudized with  8 coefficients,  rinner =    1.000   1.000   1.000
                                                       1.000   1.000

     PseudoPot. # 5 for N  read from file:
     /storage/coda1/p-amedford6/0/shared/rich_project_chbe-medford/medford-share/data/pseudos_module/espresso/nninc/pbe/van/N.UPF
     MD5 check sum: 90d10febe142ad51ac9d5be1deb811c4
     Pseudo is Ultrasoft, Zval =  5.0
     Generated by new atomic code, or converted to UPF format
     Using radial grid of  729 points,  4 beta functions with:
                l(1) =   0
                l(2) =   0
                l(3) =   1
                l(4) =   1
     Q(r) pseudized with  8 coefficients,  rinner =    0.800   0.800   0.800

     atomic species   valence    mass     pseudopotential
        C1             4.00    12.01100     C ( 1.00)
        H1             1.00     1.00800     H ( 1.00)
        O1             6.00    15.99900     O ( 1.00)
        Ti1           12.00    47.86700     Ti( 1.00)
        N1             5.00    14.00700     N ( 1.00)

     No symmetry found

   Cartesian axes

     site n.     atom                  positions (alat units)
         1           C1  tau(   1) = (   5.6818245   3.0934261  18.8613826  )
         2           H1  tau(   2) = (   0.9295697   3.0331078  18.1055300  )
         3           H1  tau(   3) = (   5.3049293   4.0639705  19.1352297  )
         4           O1  tau(   4) = (   3.2904802   0.0005063   4.7018136  )
         5           O1  tau(   5) = (   3.2900926   2.9813045   4.7018136  )
         6           O1  tau(   6) = (   1.3043587   1.4918075   6.0039043  )
         7           O1  tau(   7) = (   1.3039711   4.4726057   6.0039043  )
         8           O1  tau(   8) = (   5.2767064   1.4903225   6.0039473  )
         9           O1  tau(   9) = (   5.2763189   4.4711207   6.0039473  )
        10           O1  tau(  10) = (   3.2906025   0.0005020   7.3038282  )
        11           O1  tau(  11) = (   3.2902150   2.9813002   7.3038282  )
        12           O1  tau(  12) = (   0.0006271   0.0005054   7.9858123  )
        13           O1  tau(  13) = (   0.0002396   2.9813036   7.9858123  )
        14           O1  tau(  14) = (   4.5942328   1.4918067   9.2879030  )
        15           O1  tau(  15) = (   4.5938453   4.4726049   9.2879030  )
        16           O1  tau(  16) = (   1.9868534   1.4903216   9.2879459  )
        17           O1  tau(  17) = (   1.9864658   4.4711199   9.2879459  )
        18           O1  tau(  18) = (   6.5737290   0.0025997  10.6073112  )
        19           O1  tau(  19) = (   6.5745157   2.9846488  10.6292520  )
        20           O1  tau(  20) = (   3.2733922   2.9888808  11.3669225  )
        21           O1  tau(  21) = (   3.2734535   0.0083669  11.3733985  )
        22           O1  tau(  22) = (   1.2686495   4.4776606  12.6533150  )
        23           O1  tau(  23) = (   1.2691242   1.4995788  12.6525255  )
        24           O1  tau(  24) = (   5.2697113   4.4789153  12.6558726  )
        25           O1  tau(  25) = (   5.2698035   1.4991558  12.6558074  )
        26           O1  tau(  26) = (   3.2614338   2.9920807  13.9552461  )
        27           O1  tau(  27) = (   3.2541646   0.0113981  14.0020514  )
        28           O1  tau(  28) = (   6.5688946   0.0096870  14.6775192  )
        29           O1  tau(  29) = (   6.5667413   2.9928499  14.8718366  )
        30           O1  tau(  30) = (   4.5340645   4.4751187  16.1466513  )
        31           O1  tau(  31) = (   4.5349815   1.5188077  16.1513287  )
        32           O1  tau(  32) = (   2.0116004   1.5352794  16.1924295  )
        33           O1  tau(  33) = (   2.0125852   4.4566501  16.1924965  )
        34           O1  tau(  34) = (   6.5583959   0.0051910  17.1951124  )
        35           O1  tau(  35) = (   0.0128280   2.9917589  17.7791131  )
        36           Ti1 tau(  36) = (   0.0004258   2.9801865   6.0000000  )
        37           Ti1 tau(  37) = (   0.0000382   5.9609847   6.0000000  )
        38           Ti1 tau(  38) = (   3.2906075   1.4906267   6.0002472  )
        39           Ti1 tau(  39) = (   3.2902200   4.4714249   6.0002472  )
        40           Ti1 tau(  40) = (   3.3204229   0.0006979   9.1540291  )
        41           Ti1 tau(  41) = (   3.3226256   2.9815539   9.1563990  )
        42           Ti1 tau(  42) = (   0.0414996   4.4578595   9.2720048  )
        43           Ti1 tau(  43) = (   0.0419130   1.4910583   9.2667342  )
        44           Ti1 tau(  44) = (   6.5463313   0.0151476  12.4833176  )
        45           Ti1 tau(  45) = (   3.2510826   4.4792010  12.5152252  )
        46           Ti1 tau(  46) = (   3.2519543   1.5009035  12.5151888  )
        47           Ti1 tau(  47) = (   6.5510796   2.9946678  12.5453677  )
        48           Ti1 tau(  48) = (   3.2768179   2.9983465  15.7429562  )
        49           Ti1 tau(  49) = (   3.2517467   0.0179395  15.7976682  )
        50           Ti1 tau(  50) = (   6.5407926   4.5826425  15.9111250  )
        51           Ti1 tau(  51) = (   6.5448107   1.3670631  15.9596882  )
        52           N1  tau(  52) = (   4.6962475   1.0170953  19.6889386  )
        53           N1  tau(  53) = (   5.1479752   1.9901232  19.2934520  )

     number of k points=    10  Fermi-Dirac smearing, width (Ry)=  0.0073
                       cart. coord. in units 2pi/alat
        k(    1) = (   0.0000000   0.0000000   0.0000000), wk =   0.1250000
        k(    2) = (   0.0000000   0.0419351   0.0000000), wk =   0.2500000
        k(    3) = (   0.0000000  -0.0838702   0.0000000), wk =   0.1250000
        k(    4) = (   0.0379955   0.0000049   0.0000000), wk =   0.2500000
        k(    5) = (   0.0379955   0.0419400   0.0000000), wk =   0.2500000
        k(    6) = (   0.0379955  -0.0838652   0.0000000), wk =   0.2500000
        k(    7) = (   0.0379955  -0.0419301   0.0000000), wk =   0.2500000
        k(    8) = (  -0.0759910  -0.0000099   0.0000000), wk =   0.1250000
        k(    9) = (  -0.0759910   0.0419252   0.0000000), wk =   0.2500000
        k(   10) = (  -0.0759910  -0.0838800   0.0000000), wk =   0.1250000

     Initial potential from superposition of free atoms

     starting charge  383.99917, renormalised to  400.00000

     negative rho (up, down):  1.646E-02 0.000E+00

     %%%%%%%%%%%%%%%%%%%%%%%%%%%%%%%%%%%%%%%%%%%%%%%%%%%%%%%%%%%%%%%%%%%%%%%%
     %                                                                      %
     % You are using vdW-DF, which was implemented by the Thonhauser group. %
     % Please cite the following two papers that made this development      %
     % possible and the two reviews that describe the various versions:     %
     %                                                                      %
     %   T. Thonhauser et al., PRL 115, 136402 (2015).                      %
     %   T. Thonhauser et al., PRB 76, 125112 (2007).                       %
     %   K. Berland et al., Rep. Prog. Phys. 78, 066501 (2015).             %
     %   D.C. Langreth et al., J. Phys.: Condens. Matter 21, 084203 (2009). %
     %                                                                      %
     %                                                                      %
     % If you are calculating the stress with vdW-DF, please also cite:     %
     %                                                                      %
     %   R. Sabatini et al., J. Phys.: Condens. Matter 24, 424209 (2012).   %
     %                                                                      %
     %%%%%%%%%%%%%%%%%%%%%%%%%%%%%%%%%%%%%%%%%%%%%%%%%%%%%%%%%%%%%%%%%%%%%%%%

     Adding external electric field

     Computed dipole along edir(3) :
        Dipole              -12.5100 Ry au,        -31.7972 Debye
        Dipole field         -0.0236 Ry au,

        Potential amp.        2.1884 Ry
        Total length         46.3494 bohr

     Starting wfcs are  302 atomic wfcs
  @ DRIVER MODE: Message from server: STATUS
  @ DRIVER MODE: Message from server: POSDATA
  @ DRIVER MODE: Reading and sharing cell
  @ DRIVER MODE: Reading and sharing positions
  @ DRIVER MODE: Received positions

     Self-consistent Calculation

     iteration #  1     ecut=    29.40 Ry     beta= 0.05
     Davidson diagonalization with overlap
     c_bands:  3 eigenvalues not converged
     c_bands:  2 eigenvalues not converged
     c_bands:  4 eigenvalues not converged
     c_bands:  3 eigenvalues not converged
     c_bands:  5 eigenvalues not converged
     c_bands:  5 eigenvalues not converged
     c_bands:  1 eigenvalues not converged
     c_bands:  2 eigenvalues not converged
     c_bands:  4 eigenvalues not converged
     ethr =  1.00E-05,  avg # of iterations = 20.9

[...]

     total energy              =   -2397.09175308 Ry
     estimated scf accuracy    <    6493.56676729 Ry

     iteration #  2     ecut=    29.40 Ry     beta= 0.05
     Davidson diagonalization with overlap
     ethr =  1.00E-02,  avg # of iterations = 23.4

[...]

     iteration # 64     ecut=    29.40 Ry     beta= 0.05
     Davidson diagonalization with overlap
     c_bands:  1 eigenvalues not converged
     ethr =  1.15E-10,  avg # of iterations = 14.5

[...]

     total energy              =   -2970.16518397 Ry
     estimated scf accuracy    <       0.00000008 Ry

     iteration # 66     ecut=    29.40 Ry     beta= 0.05
     Davidson diagonalization with overlap
     ethr =  2.08E-11,  avg # of iterations = 12.4

     negative rho (up, down):  1.634E-02 0.000E+00

     Adding external electric field

     Computed dipole along edir(3) :
        Dipole                0.8468 Ry au,          2.1523 Debye
        Dipole field          0.0016 Ry au,

        Potential amp.       -0.1481 Ry
        Total length         46.3494 bohr

     End of self-consistent calculation

          k = 0.0000 0.0000 0.0000 ( 18029 PWs)   bands (ev):

   -55.5490 -55.5184 -55.5129 -55.4840 -55.4452 -55.4387 -55.4281 -55.3922
   -55.3874 -55.3748 -55.3532 -55.3446 -55.3319 -55.2981 -54.6121 -54.5780
   -32.1192 -32.0527 -32.0137 -31.9226 -31.8689 -31.8627 -31.8588 -31.8415
   -31.8069 -31.7979 -31.7612 -31.7601 -31.7537 -31.7357 -31.7247 -31.7027
   -31.7003 -31.6840 -31.6758 -31.6729 -31.6725 -31.6644 -31.6441 -31.6345
   -31.6340 -31.6161 -31.6143 -31.5879 -31.5800 -31.5756 -31.5600 -31.5380
   -31.5375 -31.5358 -31.5278 -31.5166 -31.5126 -31.4862 -31.4761 -31.4671
   -31.4580 -31.4426 -31.0244 -30.9213 -30.8997 -30.8406 -30.7543 -30.6432
   -21.2078 -20.3708 -16.3748 -16.1189 -15.9725 -15.8737 -15.7670 -15.6315
   -15.5951 -15.4883 -15.3582 -15.2758 -15.2235 -15.2128 -15.1974 -15.1876
   -15.1700 -15.1660 -15.1061 -15.0768 -15.0520 -15.0376 -15.0294 -14.9940
   -14.9388 -14.9320 -14.9207 -14.7785 -14.7102 -14.6507 -14.3525 -14.2249
   -13.1124 -12.9928  -8.5292  -6.8137  -5.6789  -4.6218  -4.0780  -3.8383
    -3.7064  -3.5569  -3.4819  -3.4643  -3.4242  -3.2941  -3.1427  -2.9825
    -2.8987  -2.8332  -2.8056  -2.7550  -2.7159  -2.6921  -2.5108  -2.4980
    -2.4692  -2.4412  -2.4242  -2.4172  -2.3920  -2.3206  -2.3001  -2.2921
    -2.2718  -2.1346  -2.1180  -2.0184  -1.9757  -1.9464  -1.8875  -1.8728
    -1.8681  -1.8388  -1.8175  -1.8039  -1.7997  -1.7628  -1.5773  -1.5762
    -1.4568  -1.4143  -1.3302  -1.2821  -1.1090  -1.1069  -1.0569  -1.0371
    -0.9943  -0.9544  -0.9524  -0.9076  -0.7931  -0.7087  -0.6604  -0.5891
    -0.5503  -0.4868  -0.4536  -0.3472  -0.3376  -0.3273  -0.3074  -0.1877
    -0.1199  -0.0826  -0.0490  -0.0032   0.0093   0.1078   0.1251   0.2065
     0.2146   0.2716   0.2754   0.3779   0.3959   0.3980   0.4233   0.4410
     0.5299   0.5987   0.6067   0.6212   0.7899   0.9764   1.0087   1.0500
     1.3015   1.4036   1.4143   1.5262   1.5732   2.0013   2.0567   3.5467
     3.6148   3.6540   3.6716   3.6856   3.7537   4.0154   4.0365   4.0544
     4.0675   4.0783

[...]

          k = 0.0380-0.0419 0.0000 ( 17876 PWs)   bands (ev):

[...]

          k =-0.0760-0.0000 0.0000 ( 17886 PWs)   bands (ev):

[...]

          k =-0.0760-0.0839 0.0000 ( 17948 PWs)   bands (ev):

   -55.5313 -55.5304 -55.5031 -55.4991 -55.4417 -55.4312 -55.4216 -55.3996
   -55.3817 -55.3711 -55.3691 -55.3475 -55.3159 -55.3141 -54.5950 -54.5950
   -31.9735 -31.9229 -31.9215 -31.8423 -31.8305 -31.8267 -31.8085 -31.7961
   -31.7883 -31.7682 -31.7517 -31.7494 -31.7448 -31.7051 -31.7043 -31.6941
   -31.6877 -31.6867 -31.6771 -31.6720 -31.6711 -31.6702 -31.6580 -31.6349
   -31.6322 -31.6317 -31.6288 -31.6265 -31.6220 -31.6196 -31.6175 -31.5919
   -31.5905 -31.5816 -31.5697 -31.5691 -31.5597 -31.5413 -31.5398 -31.5290
   -31.5021 -31.4993 -30.9123 -30.9122 -30.8371 -30.8369 -30.7975 -30.7974
   -21.2059 -20.3701 -15.9291 -15.7905 -15.7305 -15.5531 -15.5453 -15.5379
   -15.5139 -15.3747 -15.3622 -15.3488 -15.3109 -15.3004 -15.2836 -15.2745
   -15.2610 -15.1421 -15.1402 -15.1315 -15.1287 -15.0667 -15.0635 -15.0487
   -15.0321 -14.9923 -14.9918 -14.9788 -14.9749 -14.8121 -14.7177 -14.2324
   -13.0941 -13.0935  -8.5188  -6.8196  -5.6859  -4.6025  -4.0491  -3.7554
    -3.0679  -3.0252  -2.9924  -2.7673  -2.7521  -2.7129  -2.6791  -2.6234
    -2.5477  -2.5373  -2.5318  -2.4694  -2.4561  -2.4477  -2.4437  -2.4332
    -2.3777  -2.3754  -2.3366  -2.3327  -2.2868  -2.2574  -2.2460  -2.2246
    -2.2113  -2.2111  -2.1919  -2.1740  -2.1584  -2.1541  -2.0473  -1.9922
    -1.9078  -1.8824  -1.7943  -1.7755  -1.7608  -1.6833  -1.6477  -1.6250
    -1.5644  -1.5616  -1.4901  -1.3690  -1.3470  -1.3397  -1.2691  -1.2188
    -1.1822  -1.1366  -1.0868  -1.0310  -1.0169  -0.9305  -0.8779  -0.8597
    -0.7538  -0.7408  -0.6899  -0.5796  -0.5462  -0.5440  -0.5396  -0.5283
    -0.4504  -0.4330  -0.3842  -0.3431  -0.2943  -0.2692  -0.2497  -0.0510
    -0.0358   0.0339   0.1359   0.1709   0.3436   0.3649   0.3995   0.4715
     0.5168   0.5284   0.6115   0.7226   0.7255   0.7612   0.8377   0.8768
     0.8852   0.9235   1.4795   1.7660   1.7667   1.8704   1.8734   3.6971
     3.7842   3.8006   3.8356   3.8795   3.9688   4.0552   4.0722   4.0996
     4.1079   4.1846

     the Fermi energy is     3.6026 ev

!    total energy              =   -2970.16521212 Ry
     estimated scf accuracy    <       0.00000005 Ry
     smearing contrib. (-TS)   =      -0.03776988 Ry
     internal energy E=F+TS    =   -2970.12744224 Ry

     The total energy is F=E-TS. E is the sum of the following terms:
     one-electron contribution =  -23546.90978622 Ry
     hartree contribution      =   11865.35024878 Ry
     xc contribution           =    -491.71117662 Ry
     ewald contribution        =    9203.14191867 Ry
     electric field correction =       0.00135315 Ry

     convergence has been achieved in  66 iterations

     Forces acting on atoms (cartesian axes, Ry/au):

     atom    1 type  1   force =    -0.00238380   -0.01225395    0.00395924
     atom    2 type  2   force =     0.00059611   -0.00020493    0.00012574
     atom    3 type  2   force =    -0.00109835   -0.00164146    0.00027015
     atom    4 type  3   force =     0.00006081   -0.00000301    0.10504620
     atom    5 type  3   force =     0.00004357    0.00002222    0.10503391
     atom    6 type  3   force =    -0.06775433   -0.00002289   -0.02684849
     atom    7 type  3   force =    -0.06779419   -0.00059228   -0.02688216
     atom    8 type  3   force =     0.06763065    0.00042655   -0.02690848
     atom    9 type  3   force =     0.06766125   -0.00015738   -0.02694286
     atom   10 type  3   force =     0.00072059    0.00002183    0.05055194
     atom   11 type  3   force =     0.00077462    0.00000810    0.05062417
     atom   12 type  3   force =     0.00060941   -0.00003766   -0.02311415
     atom   13 type  3   force =     0.00057099   -0.00017041   -0.02183862
     atom   14 type  3   force =    -0.01561143   -0.00017927    0.00501310
     atom   15 type  3   force =    -0.01567614    0.00008099    0.00498508
     atom   16 type  3   force =     0.01438700    0.00025376    0.00479248
     atom   17 type  3   force =     0.01446247    0.00059226    0.00479878
     atom   18 type  3   force =    -0.00007334    0.00000288   -0.00008352
     atom   19 type  3   force =    -0.00013883   -0.00000550   -0.00022276
     atom   20 type  3   force =    -0.00012240    0.00007644   -0.00005083
     atom   21 type  3   force =     0.00004220   -0.00012146    0.00013596
     atom   22 type  3   force =     0.00028399    0.00025980    0.00003577
     atom   23 type  3   force =     0.00003484    0.00004105    0.00007999
     atom   24 type  3   force =    -0.00020236    0.00012566    0.00021339
     atom   25 type  3   force =     0.00004191   -0.00012486    0.00011102
     atom   26 type  3   force =     0.00023588   -0.00015009    0.00008027
     atom   27 type  3   force =    -0.00009305    0.00018723   -0.00006246
     atom   28 type  3   force =    -0.00010197    0.00026374    0.00007764
     atom   29 type  3   force =     0.00031035   -0.00004340    0.00038097
     atom   30 type  3   force =     0.00024077   -0.00008466   -0.00012866
     atom   31 type  3   force =     0.00025258   -0.00008148    0.00036426
     atom   32 type  3   force =    -0.00005843   -0.00018768    0.00033097
     atom   33 type  3   force =    -0.00010399   -0.00013072    0.00004518
     atom   34 type  3   force =    -0.00005093    0.00003254    0.00074833
     atom   35 type  3   force =    -0.00184405   -0.00016072    0.00014978
     atom   36 type  4   force =    -0.00021539    0.00011581    0.09295476
     atom   37 type  4   force =    -0.00015437   -0.00011552    0.09679197
     atom   38 type  4   force =    -0.00010726    0.00036404   -0.18356347
     atom   39 type  4   force =    -0.00005547   -0.00058276   -0.18368564
     atom   40 type  4   force =     0.00000729    0.00003937    0.00014341
     atom   41 type  4   force =     0.00017419   -0.00002172    0.00004831
     atom   42 type  4   force =    -0.00036609    0.00014177   -0.00011802
     atom   43 type  4   force =    -0.00022534    0.00026732    0.00015213
     atom   44 type  4   force =     0.00019834    0.00014251    0.00027509
     atom   45 type  4   force =    -0.00006872    0.00001814    0.00018463
     atom   46 type  4   force =    -0.00010683    0.00009275    0.00018062
     atom   47 type  4   force =    -0.00008116   -0.00013430   -0.00023402
     atom   48 type  4   force =    -0.00006150   -0.00017503   -0.00049261
     atom   49 type  4   force =    -0.00012800   -0.00012398   -0.00040999
     atom   50 type  4   force =    -0.00006207   -0.00042234   -0.00079294
     atom   51 type  4   force =     0.00025994   -0.00024129   -0.00105885
     atom   52 type  5   force =    -0.01309417   -0.02782606    0.01000090
     atom   53 type  5   force =     0.01823423    0.04242005   -0.01524762

     Total force =     0.373461     Total SCF correction =     0.000635
  @ DRIVER MODE: Message from server: STATUS
  @ DRIVER MODE: Message from server: GETFORCE
  @ DRIVER MODE: Returning v,forces,stress,ensemble

     Writing output data file ./calc.save/
  @ DRIVER MODE: Message from server: EXIT
  @ DRIVE MODE: Exiting

     General routines

     Parallel routines

   This run was terminated on:   1: 3:23  15Sep2021

   JOB DONE.