     Program PWSCF v.6.7GPU starts on 17Jul2021 at  0:30:43

     R & G space division:  proc/nbgrp/npool/nimage =      16
     Reading input from /storage/home/hcoda1/3/ntian30/research/carbon/15Jul_vib/ads_slab/CH3NNHH_a/out_0048/pw.inp
Warning: card &CELL ignored
Warning: card   CELL_DYNAMICS='IPI', ignored
Warning: card / ignored

     Current dimensions of program PWSCF are:
     Max number of different atomic species (ntypx) = 10
     Max number of k-points (npk) =  40000
     Max angular momentum in pseudopotentials (lmaxx) =  3
     Presently no symmetry can be used with electric field

     Message from routine cell_base_init:
     DEPRECATED: use true lattice parameter, not A to a.u. conversion factor

     IMPORTANT: XC functional enforced from input :
     Exchange-correlation= BEEF-VDW
                           (   1   4  43  14   2   0   0)
     Any further DFT definition will be discarded
     Please, verify this is what you really want

  @ DRIVER MODE: Connecting to
 qe_1139763_2351651.sched-torque.pace.gatech.edu4w27s25h_scratch
  using UNIX socket
  @ DRIVER MODE: Message from server: STATUS
  @ DRIVER MODE: Message from server: INIT
  @ DRIVER MODE: Receiving replica           0          -1
  @ DRIVER MODE: Receiving encoded integer          25
  @ DRIVER MODE:  SCF:  T  FORCE:  T  STRESS:  F  VC:  F  ENSEMBLE:  F
  @ DRIVER MODE:  SCF:  T  FORCE:  T  STRESS:  F  VC:  F  ENSEMBLE:  F

     Using Slab Decomposition

     bravais-lattice index     =            0
     lattice parameter (alat)  =       1.8897  a.u.
     unit-cell volume          =    6658.9804 (a.u.)^3
     number of atoms/cell      =           55
     number of atomic types    =            5
     number of electrons       =       397.00
     number of Kohn-Sham states=          208
     kinetic-energy cutoff     =      29.3995  Ry
     charge density cutoff     =     293.9946  Ry
     scf convergence threshold =      7.3E-08
     mixing beta               =       0.0500
     number of iterations used =            8  plain     mixing
     Exchange-correlation= BEEF-VDW
                           (   1   4  43  14   2   0   0)

     celldm(1)=   1.889726  celldm(2)=   0.000000  celldm(3)=   0.000000
     celldm(4)=   0.000000  celldm(5)=   0.000000  celldm(6)=   0.000000

     crystal axes: (cart. coord. in units of alat)
               a(1) = (   6.579727   0.000000   0.000000 )
               a(2) = (  -0.000775   5.961596   0.000000 )
               a(3) = (   0.000000   0.000000  25.155947 )

     reciprocal axes: (cart. coord. in units 2 pi/alat)
               b(1) = (  0.151982  0.000020  0.000000 )
               b(2) = (  0.000000  0.167740  0.000000 )
               b(3) = (  0.000000  0.000000  0.039752 )

     PseudoPot. # 1 for Ti read from file:
     /storage/coda1/p-amedford6/0/shared/rich_project_chbe-medford/medford-share/data/pseudos_module/espresso/nninc/pbe/van/Ti.UPF
     MD5 check sum: 8e4df49b7f0d34bbd5052bf3f5ea0213
     Pseudo is Ultrasoft, Zval = 12.0
     Generated by new atomic code, or converted to UPF format
     Using radial grid of  851 points,  6 beta functions with:
                l(1) =   0
                l(2) =   0
                l(3) =   1
                l(4) =   1
                l(5) =   2
                l(6) =   2
     Q(r) pseudized with  8 coefficients,  rinner =    1.000   1.000   1.000
                                                       1.000   1.000

     PseudoPot. # 2 for O  read from file:
     /storage/coda1/p-amedford6/0/shared/rich_project_chbe-medford/medford-share/data/pseudos_module/espresso/nninc/pbe/van/O.UPF
     MD5 check sum: 78c19812648e8988a0fe644b0f25305e
     Pseudo is Ultrasoft, Zval =  6.0
     Generated by new atomic code, or converted to UPF format
     Using radial grid of  737 points,  4 beta functions with:
                l(1) =   0
                l(2) =   0
                l(3) =   1
                l(4) =   1
     Q(r) pseudized with  8 coefficients,  rinner =    0.800   0.800   0.800

     PseudoPot. # 3 for N  read from file:
     /storage/coda1/p-amedford6/0/shared/rich_project_chbe-medford/medford-share/data/pseudos_module/espresso/nninc/pbe/van/N.UPF
     MD5 check sum: 90d10febe142ad51ac9d5be1deb811c4
     Pseudo is Ultrasoft, Zval =  5.0
     Generated by new atomic code, or converted to UPF format
     Using radial grid of  729 points,  4 beta functions with:
                l(1) =   0
                l(2) =   0
                l(3) =   1
                l(4) =   1
     Q(r) pseudized with  8 coefficients,  rinner =    0.800   0.800   0.800

     PseudoPot. # 4 for C  read from file:
     /storage/coda1/p-amedford6/0/shared/rich_project_chbe-medford/medford-share/data/pseudos_module/espresso/nninc/pbe/van/C.UPF
     MD5 check sum: 1a69bf6b8db32088f5b2163dbdb77a27
     Pseudo is Ultrasoft, Zval =  4.0
     Generated by new atomic code, or converted to UPF format
     Using radial grid of  721 points,  4 beta functions with:
                l(1) =   0
                l(2) =   0
                l(3) =   1
                l(4) =   1
     Q(r) pseudized with  8 coefficients,  rinner =    0.800   0.800   0.800

     PseudoPot. # 5 for H  read from file:
     /storage/coda1/p-amedford6/0/shared/rich_project_chbe-medford/medford-share/data/pseudos_module/espresso/nninc/pbe/van/H.UPF
     MD5 check sum: b5ee9d7bfd3a09ee7748110bda690ff7
     Pseudo is Ultrasoft, Zval =  1.0
     Generated by new atomic code, or converted to UPF format
     Using radial grid of  615 points,  1 beta functions with:
                l(1) =   0
     Q(r) pseudized with  8 coefficients,  rinner =    0.800

     atomic species   valence    mass     pseudopotential
        Ti1           12.00    47.86700     Ti( 1.00)
        O1             6.00    15.99900     O ( 1.00)
        N1             5.00    14.00700     N ( 1.00)
        C1             4.00    12.01100     C ( 1.00)
        H1             1.00     1.00800     H ( 1.00)

     Starting magnetic structure
     atomic species   magnetization
        Ti1          0.000
        O1           0.000
        N1           0.000
        C1           0.025
        H1           0.000

     No symmetry found

   Cartesian axes

     site n.     atom                  positions (alat units)
         1           Ti1 tau(   1) = (   0.0004258   2.9801865   6.0000000  )
         2           Ti1 tau(   2) = (   3.2906075   1.4906267   6.0002472  )
         3           O1  tau(   3) = (   0.0006271   0.0005054   7.9858123  )
         4           O1  tau(   4) = (   3.2906025   0.0005020   7.3038282  )
         5           O1  tau(   5) = (   4.5942328   1.4918067   9.2879030  )
         6           O1  tau(   6) = (   1.9868534   1.4903216   9.2879459  )
         7           Ti1 tau(   7) = (   3.2907910   2.8959150   9.1758416  )
         8           Ti1 tau(   8) = (   0.0015273   1.4827037   9.2680791  )
         9           O1  tau(   9) = (   3.3020592   5.9599881  11.3075072  )
        10           O1  tau(  10) = (   0.0116148   5.9584955  10.6183126  )
        11           O1  tau(  11) = (   1.3218652   1.4872367  12.6142461  )
        12           O1  tau(  12) = (   5.3149618   1.4866655  12.6283206  )
        13           Ti1 tau(  13) = (   6.5343381   3.0098038  12.6530281  )
        14           Ti1 tau(  14) = (   3.2132235   1.4912063  12.4551521  )
        15           O1  tau(  15) = (   0.0515422   5.9562953  14.6829507  )
        16           O1  tau(  16) = (   3.3088797   0.0214154  13.8770011  )
        17           O1  tau(  17) = (   4.5726725   1.5412406  16.1224456  )
        18           O1  tau(  18) = (   2.0900022   1.5114086  15.9969863  )
        19           Ti1 tau(  19) = (   3.3311046   3.0200058  15.6476981  )
        20           Ti1 tau(  20) = (   0.0790784   1.4105808  15.8036947  )
        21           O1  tau(  21) = (   3.2904802   0.0005063   4.7018136  )
        22           O1  tau(  22) = (   0.0613336   0.0214447  17.2555488  )
        23           O1  tau(  23) = (   1.3043587   1.4918075   6.0039043  )
        24           O1  tau(  24) = (   5.2767064   1.4903225   6.0039473  )
        25           Ti1 tau(  25) = (   0.0000382   5.9609847   6.0000000  )
        26           Ti1 tau(  26) = (   3.2902200   4.4714249   6.0002472  )
        27           O1  tau(  27) = (   0.0002396   2.9813036   7.9858123  )
        28           O1  tau(  28) = (   3.2902150   2.9813002   7.3038282  )
        29           O1  tau(  29) = (   4.5938453   4.4726049   9.2879030  )
        30           O1  tau(  30) = (   1.9864658   4.4711199   9.2879459  )
        31           Ti1 tau(  31) = (   3.2891106   5.8743827   9.1763621  )
        32           Ti1 tau(  32) = (   0.0006254   4.4649316   9.2693709  )
        33           O1  tau(  33) = (   3.3026341   2.9893090  11.3092672  )
        34           O1  tau(  34) = (   0.0092240   2.9805883  10.6323155  )
        35           O1  tau(  35) = (   1.3182942   4.4670451  12.6271195  )
        36           O1  tau(  36) = (   5.3124783   4.4780259  12.6376329  )
        37           Ti1 tau(  37) = (   6.5365500   0.0194685  12.5464133  )
        38           Ti1 tau(  38) = (   3.2155898   4.4753301  12.4613306  )
        39           O1  tau(  39) = (   0.0167368   2.9407051  14.7244952  )
        40           O1  tau(  40) = (   3.3149560   2.9822459  13.8616979  )
        41           O1  tau(  41) = (   4.5706274   4.5128733  15.9228735  )
        42           O1  tau(  42) = (   2.1262058   4.4922812  16.0793225  )
        43           Ti1 tau(  43) = (   3.3222298   0.0210159  15.6751784  )
        44           Ti1 tau(  44) = (   6.5499002   4.5104744  16.2959303  )
        45           O1  tau(  45) = (   3.2900926   2.9813045   4.7018136  )
        46           O1  tau(  46) = (   1.3039711   4.4726057   6.0039043  )
        47           O1  tau(  47) = (   5.2763189   4.4711207   6.0039473  )
        48           N1  tau(  48) = (   0.3735289   2.9861087  17.6038306  )
        49           C1  tau(  49) = (   1.3580301   2.7301661  18.6431808  )
        50           H1  tau(  50) = (   1.5128655   3.6233449  19.2641712  )
        51           H1  tau(  51) = (   1.0354786   1.8978442  19.2795547  )
        52           H1  tau(  52) = (   2.3065860   2.4473273  18.1987077  )
        53           N1  tau(  53) = (   5.7326324   3.4596218  18.1373629  )
        54           H1  tau(  54) = (   5.8436824   4.0267099  18.9748678  )
        55           H1  tau(  55) = (   5.0375616   2.7244768  18.2655579  )

     number of k points=    10  Fermi-Dirac smearing, width (Ry)=  0.0073
                       cart. coord. in units 2pi/alat
        k(    1) = (   0.0000000   0.0000000   0.0000000), wk =   0.0625000
        k(    2) = (   0.0000000   0.0419351   0.0000000), wk =   0.1250000
        k(    3) = (   0.0000000  -0.0838702   0.0000000), wk =   0.0625000
        k(    4) = (   0.0379955   0.0000049   0.0000000), wk =   0.1250000
        k(    5) = (   0.0379955   0.0419400   0.0000000), wk =   0.1250000
        k(    6) = (   0.0379955  -0.0838652   0.0000000), wk =   0.1250000
[...]
     % Please cite the following two papers that made this development      %
     % possible and the two reviews that describe the various versions:     %
     %                                                                      %
     %   T. Thonhauser et al., PRL 115, 136402 (2015).                      %
     %   T. Thonhauser et al., PRB 76, 125112 (2007).                       %
     %   K. Berland et al., Rep. Prog. Phys. 78, 066501 (2015).             %
     %   D.C. Langreth et al., J. Phys.: Condens. Matter 21, 084203 (2009). %
     %                                                                      %
     %                                                                      %
     % If you are calculating the stress with vdW-DF, please also cite:     %
     %                                                                      %
     %   R. Sabatini et al., J. Phys.: Condens. Matter 24, 424209 (2012).   %
     %                                                                      %
     %%%%%%%%%%%%%%%%%%%%%%%%%%%%%%%%%%%%%%%%%%%%%%%%%%%%%%%%%%%%%%%%%%%%%%%%

     Adding external electric field

     Computed dipole along edir(3) :
        Dipole               -9.2590 Ry au,        -23.5340 Debye
        Dipole field         -0.0175 Ry au,

        Potential amp.        1.6197 Ry
        Total length         46.3494 bohr

[...]

     Starting wfcs are  301 atomic wfcs
  @ DRIVER MODE: Message from server: STATUS
  @ DRIVER MODE: Message from server: POSDATA
  @ DRIVER MODE: Reading and sharing cell
  @ DRIVER MODE: Reading and sharing positions
  @ DRIVER MODE: Received positions

     Self-consistent Calculation

     iteration #  1     ecut=    29.40 Ry     beta= 0.05
     Davidson diagonalization with overlap
     c_bands:  1 eigenvalues not converged
     c_bands:  2 eigenvalues not converged
     c_bands:  1 eigenvalues not converged
     c_bands:  2 eigenvalues not converged
     c_bands:  2 eigenvalues not converged
     c_bands:  2 eigenvalues not converged
     c_bands:  2 eigenvalues not converged
     c_bands:  1 eigenvalues not converged
     c_bands:  4 eigenvalues not converged
     c_bands:  1 eigenvalues not converged
     c_bands:  2 eigenvalues not converged
     c_bands:  1 eigenvalues not converged
     c_bands:  2 eigenvalues not converged
     c_bands:  2 eigenvalues not converged
     c_bands:  2 eigenvalues not converged
     c_bands:  2 eigenvalues not converged
     c_bands:  1 eigenvalues not converged
     c_bands:  4 eigenvalues not converged
     ethr =  1.00E-05,  avg # of iterations = 19.8

[...]

     total energy              =   -2525.30403238 Ry
     estimated scf accuracy    <    4616.18498847 Ry

     total magnetization       =     0.00 Bohr mag/cell
     absolute magnetization    =     0.03 Bohr mag/cell

     iteration #  2     ecut=    29.40 Ry     beta= 0.05
     Davidson diagonalization with overlap
     ethr =  1.00E-02,  avg # of iterations = 23.6

[...]

     iteration #111     ecut=    29.40 Ry     beta= 0.05
     Davidson diagonalization with overlap
     c_bands:  1 eigenvalues not converged
     c_bands:  1 eigenvalues not converged
     c_bands:  1 eigenvalues not converged
     c_bands:  1 eigenvalues not converged
     ethr =  2.09E-11,  avg # of iterations = 16.7

[...]

     total energy              =   -2941.63806377 Ry
     estimated scf accuracy    <       0.00000007 Ry

[...]

     iteration #114     ecut=    29.40 Ry     beta= 0.05
     Davidson diagonalization with overlap
     ethr =  1.87E-11,  avg # of iterations =  4.1

     negative rho (up, down):  8.392E-03 8.394E-03

[...]

     Adding external electric field

     Computed dipole along edir(3) :
        Dipole                1.1491 Ry au,          2.9207 Debye
        Dipole field          0.0022 Ry au,

        Potential amp.       -0.2010 Ry
        Total length         46.3494 bohr

     Magnetic moment per site  (integrated on atomic sphere of radius R)
     atom   1 (R=0.726)  charge=  7.9408  magn=  0.0173
     atom   2 (R=0.726)  charge=  7.9244  magn=  0.0007
     atom   3 (R=0.726)  charge=  4.9319  magn= -0.0015
     atom   4 (R=0.726)  charge=  4.9681  magn= -0.0002
     atom   5 (R=0.726)  charge=  4.9368  magn= -0.0002
     atom   6 (R=0.726)  charge=  4.9376  magn= -0.0002
     atom   7 (R=0.726)  charge=  7.9229  magn=  0.0007
     atom   8 (R=0.726)  charge=  7.9151  magn=  0.0058
     atom   9 (R=0.726)  charge=  4.9562  magn= -0.0002
     atom  10 (R=0.726)  charge=  4.9310  magn= -0.0006
     atom  11 (R=0.726)  charge=  4.9387  magn= -0.0002
     atom  12 (R=0.726)  charge=  4.9369  magn= -0.0003
     atom  13 (R=0.726)  charge=  7.9088  magn=  0.0014
     atom  14 (R=0.726)  charge=  7.9274  magn=  0.0006
     atom  15 (R=0.726)  charge=  4.9165  magn= -0.0001
     atom  16 (R=0.726)  charge=  4.9542  magn= -0.0001
     atom  17 (R=0.726)  charge=  4.9067  magn= -0.0000
     atom  18 (R=0.726)  charge=  4.9387  magn= -0.0000
     atom  19 (R=0.726)  charge=  7.9527  magn=  0.0001
     atom  20 (R=0.726)  charge=  7.9410  magn=  0.0002
     atom  21 (R=0.726)  charge=  4.8211  magn= -0.0006
     atom  22 (R=0.726)  charge=  4.9007  magn= -0.0000
     atom  23 (R=0.726)  charge=  4.9281  magn= -0.0021
     atom  24 (R=0.726)  charge=  4.9282  magn= -0.0020
     atom  25 (R=0.726)  charge=  7.9408  magn=  0.0172
     atom  26 (R=0.726)  charge=  7.9244  magn=  0.0007
     atom  27 (R=0.726)  charge=  4.9305  magn= -0.0016
     atom  28 (R=0.726)  charge=  4.9683  magn= -0.0002
     atom  29 (R=0.726)  charge=  4.9375  magn= -0.0002
     atom  30 (R=0.726)  charge=  4.9382  magn= -0.0002
     atom  31 (R=0.726)  charge=  7.9236  magn=  0.0007
     atom  32 (R=0.726)  charge=  7.9153  magn=  0.0058
     atom  33 (R=0.726)  charge=  4.9540  magn= -0.0002
     atom  34 (R=0.726)  charge=  4.9049  magn= -0.0007
     atom  35 (R=0.726)  charge=  4.9378  magn= -0.0003
     atom  36 (R=0.726)  charge=  4.9369  magn= -0.0003
     atom  37 (R=0.726)  charge=  7.9159  magn=  0.0015
     atom  38 (R=0.726)  charge=  7.9271  magn=  0.0007
     atom  39 (R=0.726)  charge=  4.9088  magn= -0.0001
     atom  40 (R=0.726)  charge=  4.9620  magn= -0.0001
     atom  41 (R=0.726)  charge=  4.9464  magn= -0.0000
     atom  42 (R=0.726)  charge=  4.9157  magn= -0.0000
     atom  43 (R=0.726)  charge=  7.9490  magn=  0.0001
     atom  44 (R=0.726)  charge=  7.9598  magn=  0.0000
     atom  45 (R=0.726)  charge=  4.8212  magn= -0.0006
     atom  46 (R=0.726)  charge=  4.9281  magn= -0.0020
     atom  47 (R=0.726)  charge=  4.9282  magn= -0.0021
     atom  48 (R=0.420)  charge=  1.3151  magn=  0.0000
     atom  49 (R=0.448)  charge=  0.8406  magn= -0.0000
     atom  50 (R=0.420)  charge=  0.4416  magn=  0.0000
     atom  51 (R=0.420)  charge=  0.4406  magn=  0.0000
     atom  52 (R=0.420)  charge=  0.4486  magn=  0.0000
     atom  53 (R=0.420)  charge=  1.3375  magn= -0.0000
     atom  54 (R=0.420)  charge=  0.4535  magn=  0.0000
     atom  55 (R=0.420)  charge=  0.4491  magn= -0.0000

     End of self-consistent calculation

 ------ SPIN UP ------------

          k = 0.0000 0.0000 0.0000 ( 18029 PWs)   bands (ev):

   -55.5853 -55.5745 -55.5513 -55.5366 -55.4618 -55.4246 -55.4226 -55.3871
   -55.3756 -55.3416 -55.3269 -55.2930 -55.0313 -54.8777 -54.5374 -54.5034
   -32.1362 -32.0572 -31.9589 -31.8912 -31.8878 -31.8821 -31.8794 -31.8238
   -31.8190 -31.8061 -31.7838 -31.7587 -31.7544 -31.7404 -31.7265 -31.7154
   -31.6794 -31.6602 -31.6583 -31.6508 -31.6499 -31.6458 -31.6144 -31.5976
   -31.5707 -31.5701 -31.5668 -31.5617 -31.5575 -31.5306 -31.5095 -31.5079
   -31.4956 -31.4914 -31.4812 -31.4790 -31.4403 -31.3058 -31.2560 -31.1563
   -31.1303 -31.0388 -30.9432 -30.8572 -30.8345 -30.7606 -30.6742 -30.5625
   -17.5794 -16.3607 -16.0470 -15.8334 -15.7243 -15.7213 -15.6373 -15.4153
   -15.2943 -15.2788 -15.1649 -15.1611 -15.0989 -15.0595 -15.0521 -15.0460
   -15.0127 -15.0012 -14.9811 -14.9479 -14.9147 -14.8963 -14.8732 -14.7715
   -14.7049 -14.6969 -14.6804 -14.6158 -14.5681 -14.2096 -13.0378 -12.9216
   -12.5366  -9.2064  -6.3214  -5.0943  -4.1927  -3.7393  -3.5498  -3.4734
    -3.4380  -3.3699  -3.3490  -3.1803  -3.1731  -2.7937  -2.7743  -2.7562
    -2.7348  -2.7315  -2.4626  -2.4097  -2.3946  -2.3916  -2.3738  -2.3568
    -2.3359  -2.3251  -2.2973  -2.2867  -2.1531  -2.1089  -2.0308  -2.0047
    -1.9893  -1.8788  -1.8526  -1.8323  -1.8206  -1.8075  -1.7779  -1.7712
    -1.7494  -1.6415  -1.5321  -1.4531  -1.4122  -1.3594  -1.3391  -1.1624
    -1.1093  -1.0502  -1.0261  -1.0018  -0.9873  -0.9536  -0.8793  -0.8553
    -0.7125  -0.6739  -0.6199  -0.5936  -0.5647  -0.5084  -0.4752  -0.4451
    -0.3497  -0.3366  -0.3244  -0.3129  -0.2577  -0.0643  -0.0167   0.0024
     0.0172   0.1165   0.1555   0.1805   0.2145   0.2717   0.2993   0.3642
     0.3927   0.4148   0.4239   0.4519   0.4686   0.6010   0.6265   0.6565
     0.7184   0.7715   0.8463   0.9601   1.0424   1.0994   1.2011   1.4188
     1.4864   1.5706   1.6800   1.7043   2.0565   2.1009   3.5566   3.6367
     3.6916   3.7038   3.8120   3.8677   4.0069   4.0227   4.0603   4.0946

[...]

          k =-0.0760-0.0000 0.0000 ( 17886 PWs)   bands (ev):

[...]

 ------ SPIN DOWN ----------

[...]

          k = 0.0380-0.0419 0.0000 ( 17876 PWs)   bands (ev):

[...]

          k =-0.0760-0.0839 0.0000 ( 17948 PWs)   bands (ev):

   -55.5593 -55.5485 -55.5365 -55.5351 -55.4476 -55.4327 -55.4083 -55.4007
   -55.3485 -55.3453 -55.3105 -55.3068 -55.0295 -54.8789 -54.5190 -54.5189
   -31.9410 -31.9305 -31.8593 -31.8584 -31.8426 -31.8291 -31.8279 -31.8261
   -31.8010 -31.7870 -31.7669 -31.7474 -31.7214 -31.7108 -31.7061 -31.6803
   -31.6738 -31.6638 -31.6606 -31.6530 -31.6513 -31.6506 -31.6472 -31.6445
   -31.6226 -31.6122 -31.6017 -31.5993 -31.5482 -31.5462 -31.5430 -31.5406
   -31.5284 -31.5265 -31.5242 -31.5230 -31.4113 -31.3171 -31.2575 -31.2169
   -31.1358 -31.0501 -30.8456 -30.8456 -30.7554 -30.7553 -30.7160 -30.7160
   -17.5674 -15.8209 -15.7810 -15.5260 -15.5175 -15.5144 -15.4752 -15.3511
   -15.3021 -15.2763 -15.2655 -15.2470 -15.2382 -15.1370 -15.1231 -15.1067
   -15.0968 -15.0692 -15.0265 -15.0213 -15.0116 -15.0036 -14.9917 -14.9247
   -14.8724 -14.8685 -14.7546 -14.6632 -14.5227 -14.4350 -13.0246 -13.0245
   -12.5558  -9.1675  -6.2802  -5.1239  -4.1254  -3.4188  -3.1213  -3.0738
    -2.7859  -2.7663  -2.7504  -2.6367  -2.5183  -2.5091  -2.4830  -2.4613
    -2.4270  -2.4142  -2.4040  -2.3960  -2.3777  -2.3595  -2.3488  -2.3094
    -2.2405  -2.2324  -2.2241  -2.2160  -2.1992  -2.1755  -2.1648  -2.1376
    -2.1131  -2.0785  -2.0194  -1.9884  -1.8391  -1.7954  -1.7335  -1.6948
    -1.6863  -1.6576  -1.6235  -1.6163  -1.5055  -1.4913  -1.4576  -1.3275
    -1.2668  -1.2587  -1.2264  -1.1390  -1.1001  -0.9711  -0.9580  -0.9209
    -0.8655  -0.8577  -0.8208  -0.7828  -0.7317  -0.6794  -0.6356  -0.6133
    -0.5952  -0.5236  -0.5231  -0.4757  -0.4194  -0.3487  -0.3252  -0.3181
    -0.2865  -0.2426  -0.1953  -0.1322  -0.0565  -0.0365  -0.0224   0.0768
     0.1499   0.3688   0.4155   0.5127   0.5348   0.5625   0.6221   0.6719
     0.7402   0.7549   0.7831   0.8576   0.8800   0.9714   0.9827   0.9999
     1.1773   1.6392   1.8512   1.8521   1.9204   1.9208   3.8597   3.8754
     3.8999   3.9235   4.0943   4.0991   4.1082   4.1110   4.2307   4.2604

     the Fermi energy is     3.5643 ev

!    total energy              =   -2941.63806411 Ry
     estimated scf accuracy    <       0.00000007 Ry
     smearing contrib. (-TS)   =      -0.02168484 Ry
     internal energy E=F+TS    =   -2941.61637927 Ry

     The total energy is F=E-TS. E is the sum of the following terms:
     one-electron contribution =  -24387.58104433 Ry
     hartree contribution      =   12285.75586569 Ry
     xc contribution           =    -486.93983442 Ry
     ewald contribution        =    9647.14614205 Ry
     electric field correction =       0.00249174 Ry

     total magnetization       =     0.07 Bohr mag/cell
     absolute magnetization    =     0.11 Bohr mag/cell

     convergence has been achieved in 114 iterations

     Forces acting on atoms (cartesian axes, Ry/au):

     atom    1 type  1   force =    -0.00000880   -0.00019682    0.09680030
     atom    2 type  1   force =     0.00008922   -0.00069219   -0.17463809
     atom    3 type  2   force =     0.00018198   -0.00005948   -0.02508275
     atom    4 type  2   force =     0.00000930   -0.00124804    0.05119017
     atom    5 type  2   force =    -0.01125570   -0.00080464    0.00228561
     atom    6 type  2   force =     0.01309825   -0.00035459    0.00273171
     atom    7 type  1   force =     0.00100170    0.00021168   -0.01341110
     atom    8 type  1   force =    -0.00010253    0.01533251    0.02824703
     atom    9 type  2   force =    -0.00007122   -0.00001286    0.00008865
     atom   10 type  2   force =    -0.00234027    0.00080828   -0.01056920
     atom   11 type  2   force =     0.00035447    0.00005642   -0.00000946
     atom   12 type  2   force =    -0.00044362   -0.00006522    0.00026035
     atom   13 type  1   force =     0.00015143   -0.00018219   -0.00008674
     atom   14 type  1   force =     0.00011178   -0.00022046    0.00003095
     atom   15 type  2   force =    -0.00003072    0.00014209   -0.00008179
     atom   16 type  2   force =    -0.00020396    0.00003295   -0.00020551
     atom   17 type  2   force =    -0.00017389   -0.00003507   -0.00022263
     atom   18 type  2   force =    -0.00021791    0.00002461   -0.00016276
     atom   19 type  1   force =    -0.00014129    0.00010899    0.00021914
     atom   20 type  1   force =    -0.00008504   -0.00039296    0.00021009
     atom   21 type  2   force =     0.00003727   -0.00008914    0.10300672
     atom   22 type  2   force =    -0.00008736    0.00025963    0.00047603
     atom   23 type  2   force =    -0.07178561   -0.00020901   -0.02778192
     atom   24 type  2   force =     0.07174534    0.00024633   -0.02784614
     atom   25 type  1   force =     0.00003537   -0.00025670    0.09640918
     atom   26 type  1   force =    -0.00000958   -0.00030002   -0.17490126
     atom   27 type  2   force =     0.00019288   -0.00025630   -0.02394600
     atom   28 type  2   force =     0.00005296   -0.00100613    0.05146204
     atom   29 type  2   force =    -0.01128525    0.00078350    0.00170077
     atom   30 type  2   force =     0.01297708    0.00111140    0.00210071
     atom   31 type  1   force =     0.00103737    0.00256405   -0.01542845
     atom   32 type  1   force =     0.00005689   -0.01663776    0.02912513
     atom   33 type  2   force =     0.00011797    0.00002787   -0.00012274
     atom   34 type  2   force =    -0.00271037    0.00093356   -0.01867130
     atom   35 type  2   force =     0.00017634   -0.00007288   -0.00008746
     atom   36 type  2   force =    -0.00039120   -0.00007198    0.00013533
     atom   37 type  1   force =    -0.00011920   -0.00019340    0.00011260
     atom   38 type  1   force =     0.00008273    0.00008607   -0.00006106
     atom   39 type  2   force =    -0.00001614    0.00046507    0.00002043
     atom   40 type  2   force =    -0.00038313    0.00015218   -0.00015033
     atom   41 type  2   force =     0.00018614    0.00006104   -0.00017698
     atom   42 type  2   force =    -0.00011848    0.00019394    0.00003837
     atom   43 type  1   force =     0.00026935    0.00011080   -0.00012009
     atom   44 type  1   force =    -0.00039400   -0.00036107   -0.00059076
     atom   45 type  2   force =     0.00005428   -0.00011014    0.10301427
     atom   46 type  2   force =    -0.07181186   -0.00016207   -0.02780244
     atom   47 type  2   force =     0.07175277    0.00022403   -0.02784596
     atom   48 type  3   force =    -0.00130577   -0.00034779    0.00084214
     atom   49 type  4   force =     0.00026755   -0.00023899    0.00004477
     atom   50 type  5   force =    -0.00034203    0.00011003    0.00012020
     atom   51 type  5   force =    -0.00045727   -0.00007188   -0.00024659
     atom   52 type  5   force =     0.00078339   -0.00025407    0.00014510
     atom   53 type  3   force =    -0.00096173   -0.00051124    0.00159165
     atom   54 type  5   force =     0.00122513    0.00065629    0.00099491
     atom   55 type  5   force =     0.00120498    0.00071180   -0.00315485

     Total force =     0.367225     Total SCF correction =     0.000228
  @ DRIVER MODE: Message from server: STATUS
  @ DRIVER MODE: Message from server: GETFORCE
  @ DRIVER MODE: Returning v,forces,stress,ensemble

     Writing output data file ./calc.save/
  @ DRIVER MODE: Message from server: EXIT
  @ DRIVE MODE: Exiting

     General routines

     Parallel routines

   This run was terminated on:   1:21: 7  17Jul2021

   JOB DONE.