     Program PWSCF v.6.7GPU starts on 24Aug2021 at 18:56:18

     R & G space division:  proc/nbgrp/npool/nimage =       6
     Reading input from /storage/home/hcoda1/3/ntian30/research/carbon/CH3_vib_end_on/ads_slab/CH3N2H_a/out_0005/pw.inp
Warning: card &CELL ignored
Warning: card   CELL_DYNAMICS='IPI', ignored
Warning: card / ignored

     Current dimensions of program PWSCF are:
     Max number of different atomic species (ntypx) = 10
     Max number of k-points (npk) =  40000
     Max angular momentum in pseudopotentials (lmaxx) =  3
     Presently no symmetry can be used with electric field

     Message from routine cell_base_init:
     DEPRECATED: use true lattice parameter, not A to a.u. conversion factor

     IMPORTANT: XC functional enforced from input :
     Exchange-correlation= BEEF-VDW
                           (   1   4  43  14   2   0   0)
     Any further DFT definition will be discarded
     Please, verify this is what you really want

  @ DRIVER MODE: Connecting to
 qe_1139763_2643869.sched-torque.pace.gatech.edugqb_5mxe_scratch
  using UNIX socket
  @ DRIVER MODE: Message from server: STATUS
  @ DRIVER MODE: Message from server: INIT
  @ DRIVER MODE: Receiving replica           0          -1
  @ DRIVER MODE: Receiving encoded integer          25
  @ DRIVER MODE:  SCF:  T  FORCE:  T  STRESS:  F  VC:  F  ENSEMBLE:  F
  @ DRIVER MODE:  SCF:  T  FORCE:  T  STRESS:  F  VC:  F  ENSEMBLE:  F

     Using Slab Decomposition

     bravais-lattice index     =            0
     lattice parameter (alat)  =       1.8897  a.u.
     unit-cell volume          =    6658.9804 (a.u.)^3
     number of atoms/cell      =           54
     number of atomic types    =            5
     number of electrons       =       396.00
     number of Kohn-Sham states=          208
     kinetic-energy cutoff     =      29.3995  Ry
     charge density cutoff     =     293.9946  Ry
     scf convergence threshold =      7.3E-08
     mixing beta               =       0.0500
     number of iterations used =            8  plain     mixing
     Exchange-correlation= BEEF-VDW
                           (   1   4  43  14   2   0   0)

     celldm(1)=   1.889726  celldm(2)=   0.000000  celldm(3)=   0.000000
     celldm(4)=   0.000000  celldm(5)=   0.000000  celldm(6)=   0.000000

     crystal axes: (cart. coord. in units of alat)
               a(1) = (   6.579727   0.000000   0.000000 )
               a(2) = (  -0.000775   5.961596   0.000000 )
               a(3) = (   0.000000   0.000000  25.155947 )

     reciprocal axes: (cart. coord. in units 2 pi/alat)
               b(1) = (  0.151982  0.000020  0.000000 )
               b(2) = (  0.000000  0.167740  0.000000 )
               b(3) = (  0.000000  0.000000  0.039752 )

     PseudoPot. # 1 for Ti read from file:
     /storage/coda1/p-amedford6/0/shared/rich_project_chbe-medford/medford-share/data/pseudos_module/espresso/nninc/pbe/van/Ti.UPF
     MD5 check sum: 8e4df49b7f0d34bbd5052bf3f5ea0213
     Pseudo is Ultrasoft, Zval = 12.0
     Generated by new atomic code, or converted to UPF format
     Using radial grid of  851 points,  6 beta functions with:
                l(1) =   0
                l(2) =   0
                l(3) =   1
                l(4) =   1
                l(5) =   2
                l(6) =   2
     Q(r) pseudized with  8 coefficients,  rinner =    1.000   1.000   1.000
                                                       1.000   1.000

     PseudoPot. # 2 for O  read from file:
     /storage/coda1/p-amedford6/0/shared/rich_project_chbe-medford/medford-share/data/pseudos_module/espresso/nninc/pbe/van/O.UPF
     MD5 check sum: 78c19812648e8988a0fe644b0f25305e
     Pseudo is Ultrasoft, Zval =  6.0
     Generated by new atomic code, or converted to UPF format
     Using radial grid of  737 points,  4 beta functions with:
                l(1) =   0
                l(2) =   0
                l(3) =   1
                l(4) =   1
     Q(r) pseudized with  8 coefficients,  rinner =    0.800   0.800   0.800

     PseudoPot. # 3 for N  read from file:
     /storage/coda1/p-amedford6/0/shared/rich_project_chbe-medford/medford-share/data/pseudos_module/espresso/nninc/pbe/van/N.UPF
     MD5 check sum: 90d10febe142ad51ac9d5be1deb811c4
     Pseudo is Ultrasoft, Zval =  5.0
     Generated by new atomic code, or converted to UPF format
     Using radial grid of  729 points,  4 beta functions with:
                l(1) =   0
                l(2) =   0
                l(3) =   1
                l(4) =   1
     Q(r) pseudized with  8 coefficients,  rinner =    0.800   0.800   0.800

     PseudoPot. # 4 for C  read from file:
     /storage/coda1/p-amedford6/0/shared/rich_project_chbe-medford/medford-share/data/pseudos_module/espresso/nninc/pbe/van/C.UPF
     MD5 check sum: 1a69bf6b8db32088f5b2163dbdb77a27
     Pseudo is Ultrasoft, Zval =  4.0
     Generated by new atomic code, or converted to UPF format
     Using radial grid of  721 points,  4 beta functions with:
                l(1) =   0
                l(2) =   0
                l(3) =   1
                l(4) =   1
     Q(r) pseudized with  8 coefficients,  rinner =    0.800   0.800   0.800

     PseudoPot. # 5 for H  read from file:
     /storage/coda1/p-amedford6/0/shared/rich_project_chbe-medford/medford-share/data/pseudos_module/espresso/nninc/pbe/van/H.UPF
     MD5 check sum: b5ee9d7bfd3a09ee7748110bda690ff7
     Pseudo is Ultrasoft, Zval =  1.0
     Generated by new atomic code, or converted to UPF format
     Using radial grid of  615 points,  1 beta functions with:
                l(1) =   0
     Q(r) pseudized with  8 coefficients,  rinner =    0.800

     atomic species   valence    mass     pseudopotential
        Ti1           12.00    47.86700     Ti( 1.00)
        O1             6.00    15.99900     O ( 1.00)
        N1             5.00    14.00700     N ( 1.00)
        C1             4.00    12.01100     C ( 1.00)
        H1             1.00     1.00800     H ( 1.00)

     No symmetry found

   Cartesian axes

     site n.     atom                  positions (alat units)
         1           Ti1 tau(   1) = (   0.0004258   2.9801865   6.0000000  )
         2           Ti1 tau(   2) = (   3.2906075   1.4906267   6.0002472  )
         3           O1  tau(   3) = (   0.0006271   0.0005054   7.9858123  )
         4           O1  tau(   4) = (   3.2906025   0.0005020   7.3038282  )
         5           O1  tau(   5) = (   4.5942328   1.4918067   9.2879030  )
         6           O1  tau(   6) = (   1.9868534   1.4903216   9.2879459  )
         7           Ti1 tau(   7) = (   3.2907910   2.8959150   9.1758416  )
         8           Ti1 tau(   8) = (   0.0015273   1.4827037   9.2680791  )
         9           O1  tau(   9) = (   3.2896288   0.0042867  11.3205077  )
        10           O1  tau(  10) = (   0.0116148   5.9584955  10.6183126  )
        11           O1  tau(  11) = (   1.2848067   1.4985890  12.6232755  )
        12           O1  tau(  12) = (   5.2688617   1.4893877  12.6055203  )
        13           Ti1 tau(  13) = (   0.0799559   3.0171279  12.6206390  )
        14           Ti1 tau(  14) = (   3.4009582   1.4891986  12.4726338  )
        15           O1  tau(  15) = (   6.5707323   0.0080309  14.6263129  )
        16           O1  tau(  16) = (   3.2902489   0.0120312  13.8979102  )
        17           O1  tau(  17) = (   4.5126121   1.5346005  16.0500440  )
        18           O1  tau(  18) = (   2.0453867   1.5362785  16.0447169  )
        19           Ti1 tau(  19) = (   3.2767562   3.0203775  15.6892921  )
        20           Ti1 tau(  20) = (   6.5596632   1.5778499  15.8310978  )
        21           O1  tau(  21) = (   3.2904802   0.0005063   4.7018136  )
        22           O1  tau(  22) = (   6.5709656   0.0671247  17.2345223  )
        23           O1  tau(  23) = (   1.3043587   1.4918075   6.0039043  )
        24           O1  tau(  24) = (   5.2767064   1.4903225   6.0039473  )
        25           Ti1 tau(  25) = (   0.0000382   5.9609847   6.0000000  )
        26           Ti1 tau(  26) = (   3.2902200   4.4714249   6.0002472  )
        27           O1  tau(  27) = (   0.0002396   2.9813036   7.9858123  )
        28           O1  tau(  28) = (   3.2902150   2.9813002   7.3038282  )
        29           O1  tau(  29) = (   4.5938453   4.4726049   9.2879030  )
        30           O1  tau(  30) = (   1.9864658   4.4711199   9.2879459  )
        31           Ti1 tau(  31) = (   3.2891106   5.8743827   9.1763621  )
        32           Ti1 tau(  32) = (   0.0006254   4.4649316   9.2693709  )
        33           O1  tau(  33) = (   3.2919429   2.9835650  11.3172650  )
        34           O1  tau(  34) = (   0.0092240   2.9805883  10.6323155  )
        35           O1  tau(  35) = (   1.2842535   4.4799506  12.6241420  )
        36           O1  tau(  36) = (   5.2755836   4.4732255  12.6042992  )
        37           Ti1 tau(  37) = (   0.0783641   0.0295629  12.6394962  )
        38           Ti1 tau(  38) = (   3.4022659   4.4693352  12.4708195  )
        39           O1  tau(  39) = (   6.5693815   2.9799975  14.6326336  )
        40           O1  tau(  40) = (   3.2899495   3.0014797  13.8849495  )
        41           O1  tau(  41) = (   4.5062741   4.5069571  16.0893315  )
        42           O1  tau(  42) = (   2.0480812   4.5060041  16.0753496  )
        43           Ti1 tau(  43) = (   3.2742444   0.0367023  15.7020416  )
        44           Ti1 tau(  44) = (   6.5658628   4.6518251  16.1481936  )
        45           O1  tau(  45) = (   3.2900926   2.9813045   4.7018136  )
        46           O1  tau(  46) = (   1.3039711   4.4726057   6.0039043  )
        47           O1  tau(  47) = (   5.2763189   4.4711207   6.0039473  )
        48           N1  tau(  48) = (   6.5201982   2.6597193  18.5768863  )
        49           N1  tau(  49) = (   6.5663212   2.9659568  17.3251533  )
        50           C1  tau(  50) = (   0.1092964   3.6297355  19.6533281  )
        51           H1  tau(  51) = (   6.1365678   4.5355971  19.4091500  )
        52           H1  tau(  52) = (   6.3142024   3.1981282  20.5813133  )
        53           H1  tau(  53) = (   1.1661384   3.8973747  19.7839464  )
        54           H1  tau(  54) = (   6.5756389   1.6632157  18.8047554  )

     number of k points=    10  Fermi-Dirac smearing, width (Ry)=  0.0073
                       cart. coord. in units 2pi/alat
        k(    1) = (   0.0000000   0.0000000   0.0000000), wk =   0.1250000
        k(    2) = (   0.0000000   0.0419351   0.0000000), wk =   0.2500000
        k(    3) = (   0.0000000  -0.0838702   0.0000000), wk =   0.1250000
        k(    4) = (   0.0379955   0.0000049   0.0000000), wk =   0.2500000
        k(    5) = (   0.0379955   0.0419400   0.0000000), wk =   0.2500000
        k(    6) = (   0.0379955  -0.0838652   0.0000000), wk =   0.2500000
        k(    7) = (   0.0379955  -0.0419301   0.0000000), wk =   0.2500000
        k(    8) = (  -0.0759910  -0.0000099   0.0000000), wk =   0.1250000
        k(    9) = (  -0.0759910   0.0419252   0.0000000), wk =   0.2500000
        k(   10) = (  -0.0759910  -0.0838800   0.0000000), wk =   0.1250000

     Initial potential from superposition of free atoms

     starting charge  379.99915, renormalised to  396.00000

     negative rho (up, down):  1.473E-02 0.000E+00

     %%%%%%%%%%%%%%%%%%%%%%%%%%%%%%%%%%%%%%%%%%%%%%%%%%%%%%%%%%%%%%%%%%%%%%%%
     %                                                                      %
     % You are using vdW-DF, which was implemented by the Thonhauser group. %
     % Please cite the following two papers that made this development      %
     % possible and the two reviews that describe the various versions:     %
     %                                                                      %
     %   T. Thonhauser et al., PRL 115, 136402 (2015).                      %
     %   T. Thonhauser et al., PRB 76, 125112 (2007).                       %
     %   K. Berland et al., Rep. Prog. Phys. 78, 066501 (2015).             %
     %   D.C. Langreth et al., J. Phys.: Condens. Matter 21, 084203 (2009). %
     %                                                                      %
     %                                                                      %
     % If you are calculating the stress with vdW-DF, please also cite:     %
     %                                                                      %
     %   R. Sabatini et al., J. Phys.: Condens. Matter 24, 424209 (2012).   %
     %                                                                      %
     %%%%%%%%%%%%%%%%%%%%%%%%%%%%%%%%%%%%%%%%%%%%%%%%%%%%%%%%%%%%%%%%%%%%%%%%

     Adding external electric field

     Computed dipole along edir(3) :
        Dipole               -9.2664 Ry au,        -23.5529 Debye
        Dipole field         -0.0175 Ry au,

        Potential amp.        1.6210 Ry
        Total length         46.3494 bohr

     Starting wfcs are  300 atomic wfcs
  @ DRIVER MODE: Message from server: STATUS
  @ DRIVER MODE: Message from server: POSDATA
  @ DRIVER MODE: Reading and sharing cell
  @ DRIVER MODE: Reading and sharing positions
  @ DRIVER MODE: Received positions

     Self-consistent Calculation

     iteration #  1     ecut=    29.40 Ry     beta= 0.05
     Davidson diagonalization with overlap
     c_bands:  1 eigenvalues not converged
     c_bands:  1 eigenvalues not converged
     c_bands:  1 eigenvalues not converged
     ethr =  1.00E-05,  avg # of iterations = 18.1

[...]

     total energy              =   -2584.11644796 Ry
     estimated scf accuracy    <    3958.97314810 Ry

     iteration #  2     ecut=    29.40 Ry     beta= 0.05
     Davidson diagonalization with overlap
     ethr =  1.00E-02,  avg # of iterations = 22.0

[...]

     iteration # 36     ecut=    29.40 Ry     beta= 0.05
     Davidson diagonalization with overlap
     c_bands:  1 eigenvalues not converged
     ethr =  4.20E-06,  avg # of iterations =  4.3

[...]

     total energy              =   -2940.39746962 Ry
     estimated scf accuracy    <       0.00000014 Ry

     iteration # 60     ecut=    29.40 Ry     beta= 0.05
     Davidson diagonalization with overlap
     ethr =  3.33E-11,  avg # of iterations =  6.0

     negative rho (up, down):  1.568E-02 0.000E+00

     Adding external electric field

     Computed dipole along edir(3) :
        Dipole                1.1457 Ry au,          2.9120 Debye
        Dipole field          0.0022 Ry au,

        Potential amp.       -0.2004 Ry
        Total length         46.3494 bohr

     End of self-consistent calculation

          k = 0.0000 0.0000 0.0000 ( 18029 PWs)   bands (ev):

   -55.6298 -55.5957 -55.5398 -55.5021 -55.3937 -55.3737 -55.3598 -55.3365
   -55.3313 -55.3302 -55.3026 -55.2596 -54.7206 -54.5720 -54.5540 -54.5380
   -32.1043 -32.0835 -31.9240 -31.9109 -31.8834 -31.8502 -31.8348 -31.8260
   -31.7830 -31.7739 -31.7678 -31.7266 -31.7199 -31.7018 -31.6885 -31.6860
   -31.6705 -31.6595 -31.6333 -31.6149 -31.5944 -31.5720 -31.5651 -31.5588
   -31.5379 -31.5333 -31.5264 -31.5230 -31.5172 -31.5000 -31.4929 -31.4895
   -31.4876 -31.4487 -31.4415 -31.3744 -31.2193 -30.9777 -30.9456 -30.9283
   -30.8931 -30.8921 -30.8704 -30.7946 -30.7615 -30.7339 -30.7083 -30.5973
   -18.1114 -16.2670 -16.0376 -15.7614 -15.6654 -15.6378 -15.5178 -15.3829
   -15.2811 -15.1893 -15.1456 -15.0927 -15.0895 -15.0599 -15.0272 -14.9915
   -14.9662 -14.9247 -14.9167 -14.8873 -14.8691 -14.8625 -14.7418 -14.7331
   -14.7063 -14.6132 -14.6030 -14.5397 -14.5064 -14.0856 -13.0742 -12.9584
   -12.0379  -8.9479  -5.7414  -4.4773  -4.1734  -3.6495  -3.5218  -3.4924
    -3.3911  -3.2275  -3.1256  -3.0688  -2.9845  -2.7519  -2.7190  -2.7085
    -2.6889  -2.6322  -2.4314  -2.4052  -2.3769  -2.3352  -2.3263  -2.3244
    -2.3088  -2.2483  -2.1873  -2.1165  -2.0407  -2.0233  -1.9593  -1.9445
    -1.9246  -1.8958  -1.8490  -1.8094  -1.7867  -1.7481  -1.7251  -1.7230
    -1.6869  -1.6064  -1.4966  -1.3662  -1.3354  -1.2923  -1.2455  -1.1844
    -1.0195  -1.0114  -0.9684  -0.9607  -0.9323  -0.8542  -0.7981  -0.7019
    -0.6748  -0.5923  -0.5738  -0.5496  -0.4731  -0.3866  -0.3640  -0.3489
    -0.3400  -0.3246  -0.2710  -0.1637  -0.0576  -0.0316   0.0882   0.0963
     0.1321   0.1787   0.1910   0.2750   0.3136   0.3250   0.3793   0.3802
     0.3906   0.4335   0.4565   0.5148   0.5699   0.6574   0.7308   0.7967
     0.8326   0.9511   1.0228   1.0892   1.1129   1.2448   1.3582   1.3879
     1.4497   1.6429   1.6476   2.0183   2.0626   3.5414   3.5630   3.6561
     3.6986   3.7953   3.8341   3.9798   4.0263   4.0701   4.2155   4.2398

[...]

          k = 0.0380-0.0419 0.0000 ( 17876 PWs)   bands (ev):

[...]

          k =-0.0760-0.0000 0.0000 ( 17886 PWs)   bands (ev):

[...]

          k =-0.0760-0.0839 0.0000 ( 17948 PWs)   bands (ev):

   -55.6128 -55.6125 -55.5266 -55.5151 -55.3767 -55.3765 -55.3648 -55.3402
   -55.3256 -55.3209 -55.3182 -55.2641 -54.7190 -54.5555 -54.5550 -54.5549
   -31.9198 -31.9197 -31.9092 -31.9092 -31.8912 -31.8820 -31.7849 -31.7752
   -31.7509 -31.7382 -31.7337 -31.7333 -31.6887 -31.6858 -31.6793 -31.6735
   -31.6616 -31.6597 -31.6577 -31.6389 -31.5937 -31.5898 -31.5729 -31.5697
   -31.5653 -31.5644 -31.5629 -31.5526 -31.5502 -31.5494 -31.5358 -31.5341
   -31.5329 -31.5174 -31.4914 -31.4619 -31.1282 -30.9665 -30.9292 -30.9188
   -30.8832 -30.8831 -30.7908 -30.7906 -30.7823 -30.7628 -30.7515 -30.7515
   -18.1059 -15.6908 -15.6795 -15.4969 -15.4917 -15.4341 -15.4280 -15.2731
   -15.2722 -15.2556 -15.2473 -15.1218 -15.1181 -15.0925 -15.0873 -15.0455
   -15.0391 -15.0143 -15.0062 -15.0039 -14.9982 -14.9777 -14.9289 -14.8855
   -14.8799 -14.7076 -14.7041 -14.5848 -14.5546 -14.2221 -13.0605 -13.0603
   -12.0384  -8.9575  -5.7337  -4.4163  -4.1767  -3.0041  -2.9805  -2.9687
    -2.6938  -2.6886  -2.6630  -2.6520  -2.4486  -2.4355  -2.4141  -2.4083
    -2.3818  -2.3752  -2.3611  -2.3537  -2.2746  -2.2641  -2.2498  -2.2414
    -2.2227  -2.2158  -2.2004  -2.1923  -2.1825  -2.1485  -2.1193  -2.0870
    -2.0527  -2.0326  -1.9142  -1.8063  -1.7206  -1.7134  -1.6820  -1.6758
    -1.6695  -1.6630  -1.6323  -1.5276  -1.5048  -1.4317  -1.2912  -1.2526
    -1.2426  -1.1923  -1.1038  -1.0251  -0.9592  -0.9461  -0.8950  -0.8514
    -0.8266  -0.7456  -0.7204  -0.7118  -0.6487  -0.6112  -0.5652  -0.5577
    -0.5480  -0.4829  -0.4363  -0.3834  -0.3581  -0.3271  -0.2836  -0.2619
    -0.1996  -0.1654  -0.0986  -0.0935  -0.0448  -0.0367   0.0233   0.1748
     0.2238   0.4796   0.4963   0.5225   0.6459   0.7228   0.7287   0.7528
     0.7837   0.8348   0.8456   0.9819   0.9919   0.9976   1.1638   1.1878
     1.2556   1.8181   1.8183   1.8816   1.8820   3.4446   3.9297   3.9474
     3.9733   3.9887   4.0626   4.0636   4.0708   4.0780   4.2570   4.2789

     the Fermi energy is     3.5186 ev

!    total energy              =   -2940.39751419 Ry
     estimated scf accuracy    <       0.00000006 Ry
     smearing contrib. (-TS)   =      -0.02313102 Ry
     internal energy E=F+TS    =   -2940.37438317 Ry

     The total energy is F=E-TS. E is the sum of the following terms:
     one-electron contribution =  -24111.98652606 Ry
     hartree contribution      =   12147.30489023 Ry
     xc contribution           =    -486.05112964 Ry
     ewald contribution        =    9510.35590537 Ry
     electric field correction =       0.00247694 Ry

     convergence has been achieved in  60 iterations

     Forces acting on atoms (cartesian axes, Ry/au):

     atom    1 type  1   force =     0.00016142   -0.00012025    0.09934694
     atom    2 type  1   force =    -0.00012786   -0.00048453   -0.17358898
     atom    3 type  2   force =    -0.00004803   -0.00000469   -0.02877293
     atom    4 type  2   force =     0.00007375   -0.00125256    0.04998942
     atom    5 type  2   force =    -0.01306379    0.00057509    0.00124319
     atom    6 type  2   force =     0.01461185    0.00138308   -0.00007913
     atom    7 type  1   force =    -0.00145206   -0.00058283   -0.00842827
     atom    8 type  1   force =     0.00087920   -0.00413125    0.04503971
     atom    9 type  2   force =    -0.00002969   -0.00065430   -0.00015938
     atom   10 type  2   force =    -0.00128260    0.00227443   -0.02825068
     atom   11 type  2   force =     0.00020991    0.00061724    0.00003614
     atom   12 type  2   force =     0.00027693    0.00040629    0.00018282
     atom   13 type  1   force =     0.00036302    0.00021382   -0.00102044
     atom   14 type  1   force =     0.00001103    0.00048878    0.00007619
     atom   15 type  2   force =     0.00033292   -0.00005769    0.00053011
     atom   16 type  2   force =    -0.00041714   -0.00023151    0.00020448
     atom   17 type  2   force =    -0.00078255    0.00026946   -0.00021317
     atom   18 type  2   force =     0.00067214    0.00032086    0.00053451
     atom   19 type  1   force =     0.00023124   -0.00002344   -0.00057234
     atom   20 type  1   force =    -0.00047086   -0.00155875   -0.00170380
     atom   21 type  2   force =     0.00008904   -0.00007083    0.10275742
     atom   22 type  2   force =     0.00011140    0.00027251    0.00039520
     atom   23 type  2   force =    -0.07215017   -0.00015588   -0.02833517
     atom   24 type  2   force =     0.07215067    0.00030259   -0.02833596
     atom   25 type  1   force =     0.00013402   -0.00020255    0.09864333
     atom   26 type  1   force =    -0.00012118   -0.00044919   -0.17379217
     atom   27 type  2   force =     0.00001277   -0.00002918   -0.02805728
     atom   28 type  2   force =     0.00011231   -0.00100080    0.04944092
     atom   29 type  2   force =    -0.01338272    0.00005587    0.00130448
     atom   30 type  2   force =     0.01483979    0.00042125   -0.00003618
     atom   31 type  1   force =    -0.00139794    0.00252532   -0.00870465
     atom   32 type  1   force =     0.00106640    0.00237706    0.04536485
     atom   33 type  2   force =    -0.00012913    0.00104271    0.00065907
     atom   34 type  2   force =    -0.00070956    0.00120334   -0.03098148
     atom   35 type  2   force =     0.00070719   -0.00051189   -0.00011334
     atom   36 type  2   force =    -0.00161213   -0.00011430    0.00013458
     atom   37 type  1   force =    -0.00018558   -0.00154024   -0.00024310
     atom   38 type  1   force =     0.00075748   -0.00005223    0.00027615
     atom   39 type  2   force =     0.00032684    0.00010045   -0.00010052
     atom   40 type  2   force =    -0.00040925    0.00031559    0.00031536
     atom   41 type  2   force =     0.00062005   -0.00072922    0.00030749
     atom   42 type  2   force =    -0.00059418   -0.00084233    0.00079676
     atom   43 type  1   force =     0.00036287   -0.00034926   -0.00100820
     atom   44 type  1   force =    -0.00032779   -0.00013861   -0.00169248
     atom   45 type  2   force =     0.00011016   -0.00006799    0.10277075
     atom   46 type  2   force =    -0.07217600   -0.00009816   -0.02833495
     atom   47 type  2   force =     0.07215959    0.00033907   -0.02831062
     atom   48 type  3   force =     0.00095439   -0.00225681    0.02262476
     atom   49 type  3   force =     0.00034389    0.00237398   -0.01324014
     atom   50 type  4   force =     0.00045604   -0.00109045   -0.00387180
     atom   51 type  5   force =    -0.00011505   -0.00049341    0.00018309
     atom   52 type  5   force =     0.00011906   -0.00087074   -0.00134410
     atom   53 type  5   force =    -0.00133654    0.00000216   -0.00142104
     atom   54 type  5   force =    -0.00093556    0.00228492   -0.00244544

     Total force =     0.373153     Total SCF correction =     0.000620
  @ DRIVER MODE: Message from server: STATUS
  @ DRIVER MODE: Message from server: GETFORCE
  @ DRIVER MODE: Returning v,forces,stress,ensemble

     Writing output data file ./calc.save/
  @ DRIVER MODE: Message from server: EXIT
  @ DRIVE MODE: Exiting

     General routines

     Parallel routines

   This run was terminated on:  19:21:22  24Aug2021

   JOB DONE.