     Program PWSCF v.6.7GPU starts on 22Sep2021 at 20:41:35

     R & G space division:  proc/nbgrp/npool/nimage =      10
     Reading input from /storage/home/hcoda1/3/ntian30/research/carbon/CxH_vib/H2O_calc/ads_slab/CHNHNHHO_b/out_0014/pw.inp
Warning: card &CELL ignored
Warning: card   CELL_DYNAMICS='IPI', ignored
Warning: card / ignored

     Current dimensions of program PWSCF are:
     Max number of different atomic species (ntypx) = 10
     Max number of k-points (npk) =  40000
     Max angular momentum in pseudopotentials (lmaxx) =  3
     Presently no symmetry can be used with electric field

     Message from routine cell_base_init:
     DEPRECATED: use true lattice parameter, not A to a.u. conversion factor

     IMPORTANT: XC functional enforced from input :
     Exchange-correlation= BEEF-VDW
                           (   1   4  43  14   2   0   0)
     Any further DFT definition will be discarded
     Please, verify this is what you really want

  @ DRIVER MODE: Connecting to
 qe_1139763_2937316.sched-torque.pace.gatech.edu7ku93hfr_scratch
  using UNIX socket
  @ DRIVER MODE: Message from server: STATUS
  @ DRIVER MODE: Message from server: INIT
  @ DRIVER MODE: Receiving replica           0          -1
  @ DRIVER MODE: Receiving encoded integer          25
  @ DRIVER MODE:  SCF:  T  FORCE:  T  STRESS:  F  VC:  F  ENSEMBLE:  F
  @ DRIVER MODE:  SCF:  T  FORCE:  T  STRESS:  F  VC:  F  ENSEMBLE:  F

     Using Slab Decomposition

     bravais-lattice index     =            0
     lattice parameter (alat)  =       1.8897  a.u.
     unit-cell volume          =    6658.9804 (a.u.)^3
     number of atoms/cell      =           55
     number of atomic types    =            5
     number of electrons       =       402.00
     number of Kohn-Sham states=          211
     kinetic-energy cutoff     =      29.3995  Ry
     charge density cutoff     =     293.9946  Ry
     scf convergence threshold =      7.3E-08
     mixing beta               =       0.0500
     number of iterations used =            8  plain     mixing
     Exchange-correlation= BEEF-VDW
                           (   1   4  43  14   2   0   0)

     celldm(1)=   1.889726  celldm(2)=   0.000000  celldm(3)=   0.000000
     celldm(4)=   0.000000  celldm(5)=   0.000000  celldm(6)=   0.000000

     crystal axes: (cart. coord. in units of alat)
               a(1) = (   6.579727   0.000000   0.000000 )
               a(2) = (  -0.000775   5.961596   0.000000 )
               a(3) = (   0.000000   0.000000  25.155947 )

     reciprocal axes: (cart. coord. in units 2 pi/alat)
               b(1) = (  0.151982  0.000020  0.000000 )
               b(2) = (  0.000000  0.167740  0.000000 )
               b(3) = (  0.000000  0.000000  0.039752 )

     PseudoPot. # 1 for Ti read from file:
     /storage/coda1/p-amedford6/0/shared/rich_project_chbe-medford/medford-share/data/pseudos_module/espresso/nninc/pbe/van/Ti.UPF
     MD5 check sum: 8e4df49b7f0d34bbd5052bf3f5ea0213
     Pseudo is Ultrasoft, Zval = 12.0
     Generated by new atomic code, or converted to UPF format
     Using radial grid of  851 points,  6 beta functions with:
                l(1) =   0
                l(2) =   0
                l(3) =   1
                l(4) =   1
                l(5) =   2
                l(6) =   2
     Q(r) pseudized with  8 coefficients,  rinner =    1.000   1.000   1.000
                                                       1.000   1.000

     PseudoPot. # 2 for O  read from file:
     /storage/coda1/p-amedford6/0/shared/rich_project_chbe-medford/medford-share/data/pseudos_module/espresso/nninc/pbe/van/O.UPF
     MD5 check sum: 78c19812648e8988a0fe644b0f25305e
     Pseudo is Ultrasoft, Zval =  6.0
     Generated by new atomic code, or converted to UPF format
     Using radial grid of  737 points,  4 beta functions with:
                l(1) =   0
                l(2) =   0
                l(3) =   1
                l(4) =   1
     Q(r) pseudized with  8 coefficients,  rinner =    0.800   0.800   0.800

     PseudoPot. # 3 for N  read from file:
     /storage/coda1/p-amedford6/0/shared/rich_project_chbe-medford/medford-share/data/pseudos_module/espresso/nninc/pbe/van/N.UPF
     MD5 check sum: 90d10febe142ad51ac9d5be1deb811c4
     Pseudo is Ultrasoft, Zval =  5.0
     Generated by new atomic code, or converted to UPF format
     Using radial grid of  729 points,  4 beta functions with:
                l(1) =   0
                l(2) =   0
                l(3) =   1
                l(4) =   1
     Q(r) pseudized with  8 coefficients,  rinner =    0.800   0.800   0.800

     PseudoPot. # 4 for C  read from file:
     /storage/coda1/p-amedford6/0/shared/rich_project_chbe-medford/medford-share/data/pseudos_module/espresso/nninc/pbe/van/C.UPF
     MD5 check sum: 1a69bf6b8db32088f5b2163dbdb77a27
     Pseudo is Ultrasoft, Zval =  4.0
     Generated by new atomic code, or converted to UPF format
     Using radial grid of  721 points,  4 beta functions with:
                l(1) =   0
                l(2) =   0
                l(3) =   1
                l(4) =   1
     Q(r) pseudized with  8 coefficients,  rinner =    0.800   0.800   0.800

     PseudoPot. # 5 for H  read from file:
     /storage/coda1/p-amedford6/0/shared/rich_project_chbe-medford/medford-share/data/pseudos_module/espresso/nninc/pbe/van/H.UPF
     MD5 check sum: b5ee9d7bfd3a09ee7748110bda690ff7
     Pseudo is Ultrasoft, Zval =  1.0
     Generated by new atomic code, or converted to UPF format
     Using radial grid of  615 points,  1 beta functions with:
                l(1) =   0
     Q(r) pseudized with  8 coefficients,  rinner =    0.800

     atomic species   valence    mass     pseudopotential
        Ti1           12.00    47.86700     Ti( 1.00)
        O1             6.00    15.99900     O ( 1.00)
        N1             5.00    14.00700     N ( 1.00)
        C1             4.00    12.01100     C ( 1.00)
        H1             1.00     1.00800     H ( 1.00)

     No symmetry found

   Cartesian axes

     site n.     atom                  positions (alat units)
         1           Ti1 tau(   1) = (   0.0004258   2.9801865   6.0000000  )
         2           Ti1 tau(   2) = (   3.2906075   1.4906267   6.0002472  )
         3           O1  tau(   3) = (   0.0006271   0.0005054   7.9858123  )
         4           O1  tau(   4) = (   3.2906025   0.0005020   7.3038282  )
         5           O1  tau(   5) = (   4.5942328   1.4918067   9.2879030  )
         6           O1  tau(   6) = (   1.9868534   1.4903216   9.2879459  )
         7           Ti1 tau(   7) = (   3.2907910   2.8959150   9.1758416  )
         8           Ti1 tau(   8) = (   0.0015273   1.4827037   9.2680791  )
         9           O1  tau(   9) = (   3.2644249   0.0086278  11.2869930  )
        10           O1  tau(  10) = (   0.0116148   5.9584955  10.6183126  )
        11           O1  tau(  11) = (   1.2700591   1.4733127  12.6309263  )
        12           O1  tau(  12) = (   5.2751843   1.4954020  12.5848179  )
        13           Ti1 tau(  13) = (   6.5455424   3.1153876  12.7101385  )
        14           Ti1 tau(  14) = (   3.2833704   1.6184148  12.4736748  )
        15           O1  tau(  15) = (   6.4599305   0.0050319  14.6091115  )
        16           O1  tau(  16) = (   3.3300269   5.9263713  13.9180617  )
        17           O1  tau(  17) = (   4.5165145   1.5716339  16.0125648  )
        18           O1  tau(  18) = (   1.9127028   1.4417528  15.8564018  )
        19           Ti1 tau(  19) = (   3.2288969   3.0847727  15.7886749  )
        20           Ti1 tau(  20) = (   6.4478006   1.4606891  15.8161894  )
        21           O1  tau(  21) = (   3.2904802   0.0005063   4.7018136  )
        22           O1  tau(  22) = (   6.4882405   0.0114324  17.1415363  )
        23           O1  tau(  23) = (   1.3043587   1.4918075   6.0039043  )
        24           O1  tau(  24) = (   5.2767064   1.4903225   6.0039473  )
        25           Ti1 tau(  25) = (   0.0000382   5.9609847   6.0000000  )
        26           Ti1 tau(  26) = (   3.2902200   4.4714249   6.0002472  )
        27           O1  tau(  27) = (   0.0002396   2.9813036   7.9858123  )
        28           O1  tau(  28) = (   3.2902150   2.9813002   7.3038282  )
        29           O1  tau(  29) = (   4.5938453   4.4726049   9.2879030  )
        30           O1  tau(  30) = (   1.9864658   4.4711199   9.2879459  )
        31           Ti1 tau(  31) = (   3.2891106   5.8743827   9.1763621  )
        32           Ti1 tau(  32) = (   0.0006254   4.4649316   9.2693709  )
        33           O1  tau(  33) = (   3.2692249   2.9538419  11.2423542  )
        34           O1  tau(  34) = (   0.0092240   2.9805883  10.6323155  )
        35           O1  tau(  35) = (   1.2565178   4.4877289  12.6449601  )
        36           O1  tau(  36) = (   5.2732762   4.4628510  12.5929129  )
        37           Ti1 tau(  37) = (   6.5734634   0.1294159  12.5697125  )
        38           Ti1 tau(  38) = (   3.2704022   4.6437612  12.6513646  )
        39           O1  tau(  39) = (   6.5063912   2.9643141  14.6466205  )
        40           O1  tau(  40) = (   3.2471416   2.9787476  13.8564769  )
        41           O1  tau(  41) = (   4.5405411   4.3625105  16.0593999  )
        42           O1  tau(  42) = (   1.9254132   4.5167653  15.8604027  )
        43           Ti1 tau(  43) = (   3.1528194   0.1083906  16.0566338  )
        44           Ti1 tau(  44) = (   6.5270785   4.6226534  15.9816197  )
        45           O1  tau(  45) = (   3.2900926   2.9813045   4.7018136  )
        46           O1  tau(  46) = (   1.3039711   4.4726057   6.0039043  )
        47           O1  tau(  47) = (   5.2763189   4.4711207   6.0039473  )
        48           N1  tau(  48) = (   1.2829970   2.9130689  18.3045482  )
        49           N1  tau(  49) = (   0.1654257   2.9641015  17.4510142  )
        50           C1  tau(  50) = (   2.5360228   2.9473648  17.9488278  )
        51           H1  tau(  51) = (   3.1619500   2.8785295  18.8336233  )
        52           H1  tau(  52) = (   1.0209804   2.8219014  19.2831343  )
        53           H1  tau(  53) = (   5.9303595   2.9248499  18.0583253  )
        54           O1  tau(  54) = (   3.2854906   0.0173217  17.9285145  )
        55           H1  tau(  55) = (   4.1908827   5.7946650  18.2246816  )

     number of k points=    10  Fermi-Dirac smearing, width (Ry)=  0.0073
                       cart. coord. in units 2pi/alat
        k(    1) = (   0.0000000   0.0000000   0.0000000), wk =   0.1250000
        k(    2) = (   0.0000000   0.0419351   0.0000000), wk =   0.2500000
        k(    3) = (   0.0000000  -0.0838702   0.0000000), wk =   0.1250000
        k(    4) = (   0.0379955   0.0000049   0.0000000), wk =   0.2500000
        k(    5) = (   0.0379955   0.0419400   0.0000000), wk =   0.2500000
        k(    6) = (   0.0379955  -0.0838652   0.0000000), wk =   0.2500000
        k(    7) = (   0.0379955  -0.0419301   0.0000000), wk =   0.2500000
        k(    8) = (  -0.0759910  -0.0000099   0.0000000), wk =   0.1250000
        k(    9) = (  -0.0759910   0.0419252   0.0000000), wk =   0.2500000
        k(   10) = (  -0.0759910  -0.0838800   0.0000000), wk =   0.1250000

     Initial potential from superposition of free atoms

     starting charge  385.99915, renormalised to  402.00000

     negative rho (up, down):  1.797E-02 0.000E+00

     %%%%%%%%%%%%%%%%%%%%%%%%%%%%%%%%%%%%%%%%%%%%%%%%%%%%%%%%%%%%%%%%%%%%%%%%
     %                                                                      %
     % You are using vdW-DF, which was implemented by the Thonhauser group. %
     % Please cite the following two papers that made this development      %
     % possible and the two reviews that describe the various versions:     %
     %                                                                      %
     %   T. Thonhauser et al., PRL 115, 136402 (2015).                      %
     %   T. Thonhauser et al., PRB 76, 125112 (2007).                       %
     %   K. Berland et al., Rep. Prog. Phys. 78, 066501 (2015).             %
     %   D.C. Langreth et al., J. Phys.: Condens. Matter 21, 084203 (2009). %
     %                                                                      %
     %                                                                      %
     % If you are calculating the stress with vdW-DF, please also cite:     %
     %                                                                      %
     %   R. Sabatini et al., J. Phys.: Condens. Matter 24, 424209 (2012).   %
     %                                                                      %
     %%%%%%%%%%%%%%%%%%%%%%%%%%%%%%%%%%%%%%%%%%%%%%%%%%%%%%%%%%%%%%%%%%%%%%%%

     Adding external electric field

     Computed dipole along edir(3) :
        Dipole              -10.6951 Ry au,        -27.1842 Debye
        Dipole field         -0.0202 Ry au,

        Potential amp.        1.8709 Ry
        Total length         46.3494 bohr

     Starting wfcs are  304 atomic wfcs
  @ DRIVER MODE: Message from server: STATUS
  @ DRIVER MODE: Message from server: POSDATA
  @ DRIVER MODE: Reading and sharing cell
  @ DRIVER MODE: Reading and sharing positions
  @ DRIVER MODE: Received positions

     Self-consistent Calculation

     iteration #  1     ecut=    29.40 Ry     beta= 0.05
     Davidson diagonalization with overlap
     c_bands:  2 eigenvalues not converged
     c_bands:  4 eigenvalues not converged
     c_bands:  4 eigenvalues not converged
     c_bands:  3 eigenvalues not converged
     c_bands:  3 eigenvalues not converged
     c_bands:  3 eigenvalues not converged
     c_bands:  2 eigenvalues not converged
     c_bands:  4 eigenvalues not converged
     c_bands:  4 eigenvalues not converged
     ethr =  1.00E-05,  avg # of iterations = 21.7

[...]

     total energy              =   -2413.34869089 Ry
     estimated scf accuracy    <    6236.81522918 Ry

     iteration #  2     ecut=    29.40 Ry     beta= 0.05
     Davidson diagonalization with overlap
     ethr =  1.00E-02,  avg # of iterations = 24.6

[...]

     iteration # 42     ecut=    29.40 Ry     beta= 0.05
     Davidson diagonalization with overlap
     c_bands:  1 eigenvalues not converged
     ethr =  6.06E-07,  avg # of iterations =  6.3

[...]

     total energy              =   -2972.68722198 Ry
     estimated scf accuracy    <       0.00000020 Ry

     iteration # 62     ecut=    29.40 Ry     beta= 0.05
     Davidson diagonalization with overlap
     ethr =  5.07E-11,  avg # of iterations =  4.7

     negative rho (up, down):  1.823E-02 0.000E+00

     Adding external electric field

     Computed dipole along edir(3) :
        Dipole                0.6926 Ry au,          1.7605 Debye
        Dipole field          0.0013 Ry au,

        Potential amp.       -0.1212 Ry
        Total length         46.3494 bohr

     End of self-consistent calculation

          k = 0.0000 0.0000 0.0000 ( 18029 PWs)   bands (ev):

   -56.6081 -56.5746 -55.7195 -55.6858 -55.4160 -55.3721 -55.1442 -55.1104
   -54.9725 -54.9640 -54.9334 -54.8940 -54.8135 -54.7850 -54.7821 -54.7101
   -33.0263 -32.8805 -32.8524 -32.7863 -32.6961 -32.6535 -32.2081 -31.9420
   -31.9041 -31.9026 -31.8663 -31.8549 -31.8298 -31.6450 -31.6356 -31.6080
   -31.5732 -31.5286 -31.5157 -31.4926 -31.4682 -31.4681 -31.4495 -31.3792
   -31.3468 -31.2879 -31.2762 -31.2676 -31.2334 -31.2293 -31.1786 -31.1654
   -31.1560 -31.1140 -31.1089 -31.0956 -31.0688 -31.0628 -31.0610 -31.0246
   -31.0088 -31.0055 -30.9982 -30.9867 -30.9433 -30.9209 -30.9175 -30.9027
   -18.0163 -16.7082 -16.1543 -15.9205 -15.7979 -15.7795 -15.7708 -15.7543
   -15.5616 -15.5114 -15.4083 -15.3303 -15.3065 -15.0738 -15.0484 -14.9765
   -14.8446 -14.8094 -14.7256 -14.7000 -14.6899 -14.6097 -14.5947 -14.5094
   -14.4596 -14.4422 -14.3540 -14.2457 -14.1925 -14.0811 -14.0370 -13.6421
   -13.5356 -12.9208  -8.2468  -6.7698  -4.2821  -3.8397  -3.6195  -3.4616
    -3.3008  -3.2636  -3.1188  -3.0855  -3.0185  -3.0104  -2.9543  -2.9376
    -2.8654  -2.8451  -2.7442  -2.7076  -2.6594  -2.6407  -2.4097  -2.3515
    -2.3157  -2.3135  -2.2094  -2.1342  -2.1116  -2.1071  -2.0377  -1.9673
    -1.9087  -1.8636  -1.8463  -1.8249  -1.8014  -1.7010  -1.6159  -1.6041
    -1.5976  -1.5541  -1.4431  -1.4152  -1.3934  -1.3320  -1.2675  -1.2049
    -1.1749  -1.1522  -1.0533  -1.0435  -0.9378  -0.9117  -0.8759  -0.8213
    -0.7423  -0.7155  -0.5961  -0.5856  -0.4780  -0.4726  -0.4442  -0.4382
    -0.3384  -0.2601  -0.2042  -0.1508  -0.1281  -0.1071  -0.0483  -0.0416
    -0.0047   0.0315   0.1072   0.1998   0.2636   0.2979   0.3412   0.4958
     0.5367   0.5675   0.5814   0.6695   0.7146   0.7357   0.7685   0.8465
     0.8734   0.8765   0.9760   1.0134   1.0526   1.0775   1.1370   1.1738
     1.2021   1.3793   1.4113   1.4328   1.4532   1.5295   1.7592   1.8035
     1.9313   2.6867   2.8601   3.1295   3.2860   3.6523   3.6723   3.6908
     3.6919   3.9703   4.1403

[...]

          k = 0.0380-0.0419 0.0000 ( 17876 PWs)   bands (ev):

[...]

          k =-0.0760-0.0000 0.0000 ( 17886 PWs)   bands (ev):

[...]

          k =-0.0760-0.0839 0.0000 ( 17948 PWs)   bands (ev):

   -56.5916 -56.5910 -55.7043 -55.7008 -55.4079 -55.3800 -55.1273 -55.1272
   -54.9707 -54.9596 -54.9318 -54.8983 -54.8107 -54.7855 -54.7848 -54.7128
   -32.8664 -32.8660 -32.8441 -32.8431 -32.7399 -32.7398 -32.0308 -32.0267
   -31.9016 -31.8938 -31.8781 -31.8771 -31.7208 -31.6993 -31.6328 -31.6248
   -31.6065 -31.6014 -31.4811 -31.4811 -31.3864 -31.3464 -31.3461 -31.3078
   -31.3073 -31.2920 -31.2713 -31.2466 -31.2234 -31.2089 -31.1958 -31.1897
   -31.1733 -31.1470 -31.1443 -31.1335 -31.1196 -31.1007 -31.0789 -31.0623
   -31.0500 -31.0404 -31.0266 -31.0150 -31.0101 -30.9616 -30.9225 -30.9096
   -18.0110 -16.0728 -16.0698 -16.0182 -16.0175 -15.7703 -15.7629 -15.7029
   -15.4597 -15.4544 -15.2668 -15.1540 -15.1319 -15.0738 -15.0698 -14.9371
   -14.9172 -14.8989 -14.8112 -14.7607 -14.7280 -14.7058 -14.6417 -14.5728
   -14.4614 -14.4438 -14.4303 -14.3942 -14.3385 -14.2451 -14.2067 -13.6405
   -13.6395 -12.9418  -8.2377  -6.6887  -3.9918  -3.2856  -3.1365  -3.1355
    -3.1348  -3.1135  -2.9028  -2.8859  -2.8757  -2.7149  -2.6219  -2.6162
    -2.6124  -2.4751  -2.4430  -2.4304  -2.4180  -2.4003  -2.3287  -2.3143
    -2.3103  -2.2751  -2.2521  -2.0982  -2.0898  -2.0408  -1.9724  -1.9631
    -1.9407  -1.9067  -1.8420  -1.8046  -1.7998  -1.7824  -1.7646  -1.7442
    -1.6990  -1.6481  -1.4496  -1.4008  -1.3844  -1.3649  -1.3195  -1.3110
    -1.2917  -1.2339  -1.1957  -1.1866  -1.1613  -1.1341  -1.0630  -1.0421
    -0.9954  -0.8635  -0.8154  -0.7875  -0.7514  -0.6596  -0.6191  -0.5904
    -0.5567  -0.4697  -0.4125  -0.3806  -0.3030  -0.2651  -0.2193  -0.1944
    -0.1707  -0.1249  -0.1050   0.0013   0.0578   0.0898   0.1134   0.1983
     0.3279   0.3434   0.3979   0.4456   0.5384   0.5774   0.6547   0.6974
     0.7795   0.8581   0.9284   1.0792   1.1146   1.1703   1.2356   1.2534
     1.2551   1.2840   1.2935   1.3388   1.3600   1.4454   1.5171   1.6673
     1.7087   3.2816   3.2830   3.3407   3.3442   3.6495   3.6557   3.7585
     3.7655   4.0766   4.1269

     the Fermi energy is     2.3627 ev

!    total energy              =   -2972.68726672 Ry
     estimated scf accuracy    <       0.00000005 Ry
     smearing contrib. (-TS)   =      -0.00150951 Ry
     internal energy E=F+TS    =   -2972.68575722 Ry

     The total energy is F=E-TS. E is the sum of the following terms:
     one-electron contribution =  -24519.39224088 Ry
     hartree contribution      =   12355.99236819 Ry
     xc contribution           =    -493.18469296 Ry
     ewald contribution        =    9683.89790307 Ry
     electric field correction =       0.00090536 Ry

     convergence has been achieved in  62 iterations

     Forces acting on atoms (cartesian axes, Ry/au):

     atom    1 type  1   force =     0.00015682   -0.00061058    0.12521205
     atom    2 type  1   force =     0.00002810    0.00003471   -0.15411151
     atom    3 type  2   force =    -0.00002984   -0.00028135   -0.06551245
     atom    4 type  2   force =    -0.00011390    0.00074295    0.01447103
     atom    5 type  2   force =     0.00023534   -0.00325590   -0.01522563
     atom    6 type  2   force =     0.00027775   -0.00241950   -0.01818870
     atom    7 type  1   force =    -0.00130020   -0.00082390    0.06320990
     atom    8 type  1   force =     0.00164998    0.01846856    0.09184679
     atom    9 type  2   force =     0.00018518   -0.00022067   -0.00011461
     atom   10 type  2   force =    -0.00307644    0.00126179   -0.06786315
     atom   11 type  2   force =    -0.00036459   -0.00021505   -0.00021967
     atom   12 type  2   force =    -0.00027274    0.00041885    0.00014981
     atom   13 type  1   force =     0.00101765    0.00023842   -0.00002761
     atom   14 type  1   force =    -0.00051521    0.00068734   -0.00050950
     atom   15 type  2   force =    -0.00000836    0.00060923    0.00017228
     atom   16 type  2   force =     0.00007741    0.00019540   -0.00016792
     atom   17 type  2   force =    -0.00015441    0.00007759   -0.00026651
     atom   18 type  2   force =     0.00083882   -0.00038643    0.00016419
     atom   19 type  1   force =     0.00021744   -0.00022669   -0.00051224
     atom   20 type  1   force =     0.00054924   -0.00044728   -0.00033492
     atom   21 type  2   force =     0.00008157    0.00004984    0.09748415
     atom   22 type  2   force =    -0.00023987    0.00021561    0.00041912
     atom   23 type  2   force =    -0.08327912    0.00001127   -0.03311200
     atom   24 type  2   force =     0.08319283    0.00045507   -0.03313169
     atom   25 type  1   force =     0.00015225   -0.00036174    0.12543823
     atom   26 type  1   force =    -0.00001825   -0.00122705   -0.15379251
     atom   27 type  2   force =    -0.00002097   -0.00014719   -0.06360308
     atom   28 type  2   force =     0.00000255    0.00071279    0.01022462
     atom   29 type  2   force =    -0.00227847    0.00251170   -0.01351760
     atom   30 type  2   force =     0.00266722    0.00282844   -0.01639957
     atom   31 type  1   force =    -0.00126353   -0.00142752    0.06113985
     atom   32 type  1   force =     0.00158093   -0.01942796    0.09389791
     atom   33 type  2   force =     0.00026128    0.00000276   -0.00024345
     atom   34 type  2   force =    -0.00076017    0.00124478   -0.07930063
     atom   35 type  2   force =     0.00028779   -0.00003166    0.00008649
     atom   36 type  2   force =    -0.00052230    0.00016055    0.00039964
     atom   37 type  1   force =     0.00094329    0.00012938    0.00035254
     atom   38 type  1   force =    -0.00056205   -0.00034799   -0.00001336
     atom   39 type  2   force =     0.00034514    0.00014831   -0.00002239
     atom   40 type  2   force =    -0.00011240    0.00005770    0.00015015
     atom   41 type  2   force =    -0.00011301    0.00002961   -0.00053427
     atom   42 type  2   force =     0.00053505   -0.00051261    0.00044464
     atom   43 type  1   force =    -0.00095234   -0.00036380   -0.00048020
     atom   44 type  1   force =     0.00023148    0.00097558   -0.00031540
     atom   45 type  2   force =     0.00007340    0.00006022    0.09733948
     atom   46 type  2   force =    -0.08322047   -0.00003617   -0.03309689
     atom   47 type  2   force =     0.08317058    0.00037932   -0.03310272
     atom   48 type  3   force =     0.01615906    0.00037014   -0.00453875
     atom   49 type  3   force =     0.00250480   -0.00016963    0.00101665
     atom   50 type  4   force =    -0.02345098   -0.00034605   -0.00068367
     atom   51 type  5   force =     0.00416314   -0.00067644    0.00542069
     atom   52 type  5   force =     0.00087468   -0.00011425   -0.00092194
     atom   53 type  5   force =    -0.00023438   -0.00025476    0.00036313
     atom   54 type  2   force =     0.00011962    0.00047940    0.00057044
     atom   55 type  5   force =     0.00028361    0.00077486   -0.00010923

     Total force =     0.420850     Total SCF correction =     0.000491
  @ DRIVER MODE: Message from server: STATUS
  @ DRIVER MODE: Message from server: GETFORCE
  @ DRIVER MODE: Returning v,forces,stress,ensemble

     Writing output data file ./calc.save/
  @ DRIVER MODE: Message from server: EXIT
  @ DRIVE MODE: Exiting

     General routines

     Parallel routines

   This run was terminated on:  20:59:25  22Sep2021

   JOB DONE.