     Program PWSCF v.6.7GPU starts on 15Sep2021 at 21:11:33

     R & G space division:  proc/nbgrp/npool/nimage =      10
     Reading input from /storage/home/hcoda1/3/ntian30/research/carbon/CxH_vib/H2O_calc/ads_slab/CH3NHNHH2O_a/out_0017/pw.inp
Warning: card &CELL ignored
Warning: card   CELL_DYNAMICS='IPI', ignored
Warning: card / ignored

     Current dimensions of program PWSCF are:
     Max number of different atomic species (ntypx) = 10
     Max number of k-points (npk) =  40000
     Max angular momentum in pseudopotentials (lmaxx) =  3
     Presently no symmetry can be used with electric field

     Message from routine cell_base_init:
     DEPRECATED: use true lattice parameter, not A to a.u. conversion factor

     IMPORTANT: XC functional enforced from input :
     Exchange-correlation= BEEF-VDW
                           (   1   4  43  14   2   0   0)
     Any further DFT definition will be discarded
     Please, verify this is what you really want

  @ DRIVER MODE: Connecting to
 qe_1139763_2852620.sched-torque.pace.gatech.edumxfbrgus_scratch
  using UNIX socket
  @ DRIVER MODE: Message from server: STATUS
  @ DRIVER MODE: Message from server: INIT
  @ DRIVER MODE: Receiving replica           0          -1
  @ DRIVER MODE: Receiving encoded integer          25
  @ DRIVER MODE:  SCF:  T  FORCE:  T  STRESS:  F  VC:  F  ENSEMBLE:  F
  @ DRIVER MODE:  SCF:  T  FORCE:  T  STRESS:  F  VC:  F  ENSEMBLE:  F

     Using Slab Decomposition

     bravais-lattice index     =            0
     lattice parameter (alat)  =       1.8897  a.u.
     unit-cell volume          =    6658.9804 (a.u.)^3
     number of atoms/cell      =           58
     number of atomic types    =            5
     number of electrons       =       405.00
     number of Kohn-Sham states=          212
     kinetic-energy cutoff     =      29.3995  Ry
     charge density cutoff     =     293.9946  Ry
     scf convergence threshold =      7.3E-08
     mixing beta               =       0.0500
     number of iterations used =            8  plain     mixing
     Exchange-correlation= BEEF-VDW
                           (   1   4  43  14   2   0   0)

     celldm(1)=   1.889726  celldm(2)=   0.000000  celldm(3)=   0.000000
     celldm(4)=   0.000000  celldm(5)=   0.000000  celldm(6)=   0.000000

     crystal axes: (cart. coord. in units of alat)
               a(1) = (   6.579727   0.000000   0.000000 )
               a(2) = (  -0.000775   5.961596   0.000000 )
               a(3) = (   0.000000   0.000000  25.155947 )

     reciprocal axes: (cart. coord. in units 2 pi/alat)
               b(1) = (  0.151982  0.000020  0.000000 )
               b(2) = (  0.000000  0.167740  0.000000 )
               b(3) = (  0.000000  0.000000  0.039752 )

     PseudoPot. # 1 for Ti read from file:
     /storage/coda1/p-amedford6/0/shared/rich_project_chbe-medford/medford-share/data/pseudos_module/espresso/nninc/pbe/van/Ti.UPF
     MD5 check sum: 8e4df49b7f0d34bbd5052bf3f5ea0213
     Pseudo is Ultrasoft, Zval = 12.0
     Generated by new atomic code, or converted to UPF format
     Using radial grid of  851 points,  6 beta functions with:
                l(1) =   0
                l(2) =   0
                l(3) =   1
                l(4) =   1
                l(5) =   2
                l(6) =   2
     Q(r) pseudized with  8 coefficients,  rinner =    1.000   1.000   1.000
                                                       1.000   1.000

     PseudoPot. # 2 for O  read from file:
     /storage/coda1/p-amedford6/0/shared/rich_project_chbe-medford/medford-share/data/pseudos_module/espresso/nninc/pbe/van/O.UPF
     MD5 check sum: 78c19812648e8988a0fe644b0f25305e
     Pseudo is Ultrasoft, Zval =  6.0
     Generated by new atomic code, or converted to UPF format
     Using radial grid of  737 points,  4 beta functions with:
                l(1) =   0
                l(2) =   0
                l(3) =   1
                l(4) =   1
     Q(r) pseudized with  8 coefficients,  rinner =    0.800   0.800   0.800

     PseudoPot. # 3 for N  read from file:
     /storage/coda1/p-amedford6/0/shared/rich_project_chbe-medford/medford-share/data/pseudos_module/espresso/nninc/pbe/van/N.UPF
     MD5 check sum: 90d10febe142ad51ac9d5be1deb811c4
     Pseudo is Ultrasoft, Zval =  5.0
     Generated by new atomic code, or converted to UPF format
     Using radial grid of  729 points,  4 beta functions with:
                l(1) =   0
                l(2) =   0
                l(3) =   1
                l(4) =   1
     Q(r) pseudized with  8 coefficients,  rinner =    0.800   0.800   0.800

     PseudoPot. # 4 for C  read from file:
     /storage/coda1/p-amedford6/0/shared/rich_project_chbe-medford/medford-share/data/pseudos_module/espresso/nninc/pbe/van/C.UPF
     MD5 check sum: 1a69bf6b8db32088f5b2163dbdb77a27
     Pseudo is Ultrasoft, Zval =  4.0
     Generated by new atomic code, or converted to UPF format
     Using radial grid of  721 points,  4 beta functions with:
                l(1) =   0
                l(2) =   0
                l(3) =   1
                l(4) =   1
     Q(r) pseudized with  8 coefficients,  rinner =    0.800   0.800   0.800

     PseudoPot. # 5 for H  read from file:
     /storage/coda1/p-amedford6/0/shared/rich_project_chbe-medford/medford-share/data/pseudos_module/espresso/nninc/pbe/van/H.UPF
     MD5 check sum: b5ee9d7bfd3a09ee7748110bda690ff7
     Pseudo is Ultrasoft, Zval =  1.0
     Generated by new atomic code, or converted to UPF format
     Using radial grid of  615 points,  1 beta functions with:
                l(1) =   0
     Q(r) pseudized with  8 coefficients,  rinner =    0.800

     atomic species   valence    mass     pseudopotential
        Ti1           12.00    47.86700     Ti( 1.00)
        O1             6.00    15.99900     O ( 1.00)
        N1             5.00    14.00700     N ( 1.00)
        C1             4.00    12.01100     C ( 1.00)
        H1             1.00     1.00800     H ( 1.00)

     No symmetry found

   Cartesian axes

     site n.     atom                  positions (alat units)
         1           Ti1 tau(   1) = (   0.0004258   2.9801865   6.0000000  )
         2           Ti1 tau(   2) = (   3.2906075   1.4906267   6.0002472  )
         3           O1  tau(   3) = (   0.0006271   0.0005054   7.9858123  )
         4           O1  tau(   4) = (   3.2906025   0.0005020   7.3038282  )
         5           O1  tau(   5) = (   4.5942328   1.4918067   9.2879030  )
         6           O1  tau(   6) = (   1.9868534   1.4903216   9.2879459  )
         7           Ti1 tau(   7) = (   3.2907910   2.8959150   9.1758416  )
         8           Ti1 tau(   8) = (   0.0015273   1.4827037   9.2680791  )
         9           O1  tau(   9) = (   3.2925356   5.9605122  11.3387169  )
        10           O1  tau(  10) = (   0.0116148   5.9584955  10.6183126  )
        11           O1  tau(  11) = (   1.2897729   1.4809555  12.6268520  )
        12           O1  tau(  12) = (   5.2791511   1.4810064  12.6173870  )
        13           Ti1 tau(  13) = (   0.0595640   3.0140846  12.5912772  )
        14           Ti1 tau(  14) = (   3.3761946   1.4800080  12.4968112  )
        15           O1  tau(  15) = (   6.5629824   0.0009262  14.6613707  )
        16           O1  tau(  16) = (   3.3123588   5.9604043  13.9421911  )
        17           O1  tau(  17) = (   4.5376415   1.5680301  16.0260299  )
        18           O1  tau(  18) = (   2.0142527   1.4857506  15.9764776  )
        19           Ti1 tau(  19) = (   3.2467940   3.0138708  15.6952036  )
        20           Ti1 tau(  20) = (   6.5376764   1.5432071  15.7832198  )
        21           O1  tau(  21) = (   3.2904802   0.0005063   4.7018136  )
        22           O1  tau(  22) = (   6.4898080   0.0110182  17.2547379  )
        23           O1  tau(  23) = (   1.3043587   1.4918075   6.0039043  )
        24           O1  tau(  24) = (   5.2767064   1.4903225   6.0039473  )
        25           Ti1 tau(  25) = (   0.0000382   5.9609847   6.0000000  )
        26           Ti1 tau(  26) = (   3.2902200   4.4714249   6.0002472  )
        27           O1  tau(  27) = (   0.0002396   2.9813036   7.9858123  )
        28           O1  tau(  28) = (   3.2902150   2.9813002   7.3038282  )
        29           O1  tau(  29) = (   4.5938453   4.4726049   9.2879030  )
        30           O1  tau(  30) = (   1.9864658   4.4711199   9.2879459  )
        31           Ti1 tau(  31) = (   3.2891106   5.8743827   9.1763621  )
        32           Ti1 tau(  32) = (   0.0006254   4.4649316   9.2693709  )
        33           O1  tau(  33) = (   3.2967638   2.9790471  11.3409087  )
        34           O1  tau(  34) = (   0.0092240   2.9805883  10.6323155  )
        35           O1  tau(  35) = (   1.2869154   4.4778632  12.6304858  )
        36           O1  tau(  36) = (   5.2845859   4.4648683  12.6187650  )
        37           Ti1 tau(  37) = (   0.0627082   0.0241251  12.5486904  )
        38           Ti1 tau(  38) = (   3.3788516   4.4738568  12.4976958  )
        39           O1  tau(  39) = (   6.5772583   2.9562949  14.6416036  )
        40           O1  tau(  40) = (   3.2725681   2.9944745  13.9013672  )
        41           O1  tau(  41) = (   4.5452577   4.4055011  16.0651929  )
        42           O1  tau(  42) = (   2.0228361   4.5129635  16.0417754  )
        43           Ti1 tau(  43) = (   3.2583029   0.0391736  15.7773877  )
        44           Ti1 tau(  44) = (   6.5476622   4.6515957  16.1089089  )
        45           O1  tau(  45) = (   3.2900926   2.9813045   4.7018136  )
        46           O1  tau(  46) = (   1.3039711   4.4726057   6.0039043  )
        47           O1  tau(  47) = (   5.2763189   4.4711207   6.0039473  )
        48           N1  tau(  48) = (   1.2275869   2.8250850  18.3327965  )
        49           N1  tau(  49) = (   0.1007212   2.9268546  17.4424539  )
        50           C1  tau(  50) = (   0.9834745   3.5098297  19.5873225  )
        51           H1  tau(  51) = (   0.0800711   3.1483545  20.1177682  )
        52           H1  tau(  52) = (   1.8428167   3.3484677  20.2521386  )
        53           H1  tau(  53) = (   0.8645268   4.5787652  19.4145101  )
        54           H1  tau(  54) = (   1.4038961   1.8348574  18.5000659  )
        55           H1  tau(  55) = (   5.8167727   2.7947134  17.9807349  )
        56           O1  tau(  56) = (   3.6251350   0.0523402  18.1652986  )
        57           H1  tau(  57) = (   4.6063402   0.0342754  18.1216558  )
        58           H1  tau(  58) = (   3.3562690   5.1322054  18.4688733  )

     number of k points=    10  Fermi-Dirac smearing, width (Ry)=  0.0073
                       cart. coord. in units 2pi/alat
        k(    1) = (   0.0000000   0.0000000   0.0000000), wk =   0.1250000
        k(    2) = (   0.0000000   0.0419351   0.0000000), wk =   0.2500000
        k(    3) = (   0.0000000  -0.0838702   0.0000000), wk =   0.1250000
        k(    4) = (   0.0379955   0.0000049   0.0000000), wk =   0.2500000
        k(    5) = (   0.0379955   0.0419400   0.0000000), wk =   0.2500000
        k(    6) = (   0.0379955  -0.0838652   0.0000000), wk =   0.2500000
        k(    7) = (   0.0379955  -0.0419301   0.0000000), wk =   0.2500000
        k(    8) = (  -0.0759910  -0.0000099   0.0000000), wk =   0.1250000
        k(    9) = (  -0.0759910   0.0419252   0.0000000), wk =   0.2500000
        k(   10) = (  -0.0759910  -0.0838800   0.0000000), wk =   0.1250000

     Initial potential from superposition of free atoms

     starting charge  388.99913, renormalised to  405.00000

     negative rho (up, down):  1.445E-02 0.000E+00

     %%%%%%%%%%%%%%%%%%%%%%%%%%%%%%%%%%%%%%%%%%%%%%%%%%%%%%%%%%%%%%%%%%%%%%%%
     %                                                                      %
     % You are using vdW-DF, which was implemented by the Thonhauser group. %
     % Please cite the following two papers that made this development      %
     % possible and the two reviews that describe the various versions:     %
     %                                                                      %
     %   T. Thonhauser et al., PRL 115, 136402 (2015).                      %
     %   T. Thonhauser et al., PRB 76, 125112 (2007).                       %
     %   K. Berland et al., Rep. Prog. Phys. 78, 066501 (2015).             %
     %   D.C. Langreth et al., J. Phys.: Condens. Matter 21, 084203 (2009). %
     %                                                                      %
     %                                                                      %
     % If you are calculating the stress with vdW-DF, please also cite:     %
     %                                                                      %
     %   R. Sabatini et al., J. Phys.: Condens. Matter 24, 424209 (2012).   %
     %                                                                      %
     %%%%%%%%%%%%%%%%%%%%%%%%%%%%%%%%%%%%%%%%%%%%%%%%%%%%%%%%%%%%%%%%%%%%%%%%

     Adding external electric field

     Computed dipole along edir(3) :
        Dipole              -14.1470 Ry au,        -35.9581 Debye
        Dipole field         -0.0267 Ry au,

        Potential amp.        2.4748 Ry
        Total length         46.3494 bohr

     Starting wfcs are  307 atomic wfcs
  @ DRIVER MODE: Message from server: STATUS
  @ DRIVER MODE: Message from server: POSDATA
  @ DRIVER MODE: Reading and sharing cell
  @ DRIVER MODE: Reading and sharing positions
  @ DRIVER MODE: Received positions

     Self-consistent Calculation

     iteration #  1     ecut=    29.40 Ry     beta= 0.05
     Davidson diagonalization with overlap
     c_bands:  4 eigenvalues not converged
     c_bands:  1 eigenvalues not converged
     c_bands:  1 eigenvalues not converged
     c_bands:  3 eigenvalues not converged
     c_bands:  2 eigenvalues not converged
     ethr =  1.00E-05,  avg # of iterations = 29.4

[...]

     total energy              =   -2232.59698883 Ry
     estimated scf accuracy    <    8442.44504458 Ry

     iteration #  2     ecut=    29.40 Ry     beta= 0.05
     Davidson diagonalization with overlap
     ethr =  1.00E-02,  avg # of iterations = 29.5

[...]

     iteration # 59     ecut=    29.40 Ry     beta= 0.05
     Davidson diagonalization with overlap
     c_bands:  1 eigenvalues not converged
     ethr =  2.30E-10,  avg # of iterations =  6.5

[...]

     total energy              =   -2976.50536246 Ry
     estimated scf accuracy    <       0.00000009 Ry

     iteration # 65     ecut=    29.40 Ry     beta= 0.05
     Davidson diagonalization with overlap
     ethr =  2.24E-11,  avg # of iterations =  5.1

     negative rho (up, down):  1.503E-02 0.000E+00

     Adding external electric field

     Computed dipole along edir(3) :
        Dipole                0.9799 Ry au,          2.4905 Debye
        Dipole field          0.0018 Ry au,

        Potential amp.       -0.1714 Ry
        Total length         46.3494 bohr

     End of self-consistent calculation

          k = 0.0000 0.0000 0.0000 ( 18029 PWs)   bands (ev):

   -55.5141 -55.4835 -55.4800 -55.4503 -55.4474 -55.3623 -55.3316 -55.3297
   -55.3272 -55.2977 -55.2963 -55.2626 -55.0539 -54.8893 -54.4966 -54.4626
   -32.0278 -31.9978 -31.8863 -31.8634 -31.8297 -31.8065 -31.7880 -31.7865
   -31.7585 -31.7150 -31.7036 -31.6841 -31.6809 -31.6662 -31.6605 -31.6387
   -31.6196 -31.6143 -31.6130 -31.5808 -31.5711 -31.5621 -31.5360 -31.5245
   -31.5218 -31.5198 -31.5167 -31.5110 -31.4959 -31.4876 -31.4846 -31.4749
   -31.4726 -31.4611 -31.4497 -31.4406 -31.4086 -31.3097 -31.2642 -31.1527
   -31.1441 -31.0800 -30.9040 -30.8151 -30.7927 -30.7206 -30.6341 -30.5231
   -18.7240 -16.5922 -16.2245 -15.9871 -15.7656 -15.6715 -15.6289 -15.4320
   -15.3378 -15.2531 -15.1328 -15.0817 -15.0560 -15.0483 -15.0348 -15.0092
   -14.9750 -14.9689 -14.9659 -14.9417 -14.9222 -14.8711 -14.8647 -14.8582
   -14.7647 -14.7007 -14.6659 -14.6526 -14.6431 -14.5775 -14.2050 -12.9990
   -12.8825 -11.6597  -8.8568  -6.4622  -5.1748  -4.3155  -3.6916  -3.5977
    -3.4704  -3.4227  -3.3719  -3.3429  -3.1539  -3.0961  -2.9452  -2.7746
    -2.7011  -2.6628  -2.6295  -2.5940  -2.5583  -2.4359  -2.4110  -2.3305
    -2.3213  -2.3098  -2.2796  -2.2693  -2.2547  -2.2288  -2.1603  -2.1516
    -2.0659  -1.9503  -1.9038  -1.8888  -1.8700  -1.8292  -1.7913  -1.7784
    -1.7651  -1.7464  -1.7337  -1.6958  -1.5800  -1.5291  -1.4481  -1.3702
    -1.2992  -1.2108  -1.1349  -1.1038  -1.0383  -1.0135  -0.9541  -0.9294
    -0.9122  -0.9091  -0.7920  -0.6835  -0.6651  -0.5954  -0.5350  -0.4583
    -0.4148  -0.3891  -0.3195  -0.2865  -0.2758  -0.2621  -0.2359  -0.2213
    -0.1654  -0.0177   0.0594   0.0778   0.1365   0.1774   0.2288   0.2540
     0.2822   0.3295   0.3612   0.4011   0.4509   0.4544   0.4665   0.4907
     0.5049   0.6642   0.7195   0.7525   0.7781   0.8268   0.9392   0.9820
     1.1356   1.2040   1.2689   1.4517   1.5256   1.6066   1.7172   2.0618
     2.0971   2.1430   3.6116   3.7040   3.7450   3.7663   3.8533   3.8558
     4.0667   4.1116   4.1196   4.1859

[...]

          k = 0.0380-0.0419 0.0000 ( 17876 PWs)   bands (ev):

[...]

          k =-0.0760-0.0000 0.0000 ( 17886 PWs)   bands (ev):

[...]

          k =-0.0760-0.0839 0.0000 ( 17948 PWs)   bands (ev):

   -55.4973 -55.4966 -55.4675 -55.4632 -55.4477 -55.3480 -55.3415 -55.3321
   -55.3146 -55.3142 -55.2807 -55.2785 -55.0523 -54.8907 -54.4796 -54.4795
   -31.8412 -31.8245 -31.8134 -31.8128 -31.7923 -31.7915 -31.7516 -31.7442
   -31.7361 -31.7080 -31.6971 -31.6780 -31.6625 -31.6607 -31.6354 -31.6332
   -31.6308 -31.6287 -31.6206 -31.6198 -31.6174 -31.6161 -31.6156 -31.5638
   -31.5555 -31.5492 -31.5411 -31.5306 -31.5165 -31.5153 -31.5109 -31.5065
   -31.4961 -31.4935 -31.4884 -31.4863 -31.4150 -31.3124 -31.2596 -31.2140
   -31.1552 -31.1077 -30.8055 -30.8053 -30.7168 -30.7166 -30.6774 -30.6774
   -18.7226 -16.5703 -15.6609 -15.5899 -15.4741 -15.4450 -15.3853 -15.3352
   -15.3175 -15.2484 -15.2124 -15.1999 -15.1480 -15.1453 -15.0978 -15.0737
   -15.0469 -15.0432 -15.0279 -14.9853 -14.9747 -14.9594 -14.9552 -14.9518
   -14.8744 -14.8388 -14.8347 -14.8297 -14.7605 -14.6266 -14.3541 -12.9843
   -12.9842 -11.6669  -8.8657  -6.4580  -5.1779  -4.3105  -3.6266  -3.0836
    -2.9462  -2.7879  -2.7229  -2.6419  -2.6413  -2.5989  -2.4707  -2.4493
    -2.4102  -2.3830  -2.3529  -2.3425  -2.3335  -2.3290  -2.3177  -2.3022
    -2.2894  -2.2499  -2.2054  -2.1898  -2.1815  -2.1761  -2.1617  -2.1443
    -2.1330  -2.1306  -2.0934  -2.0652  -2.0368  -1.9996  -1.9487  -1.7483
    -1.7197  -1.6991  -1.6635  -1.6601  -1.6479  -1.6148  -1.5759  -1.5666
    -1.4929  -1.4059  -1.3175  -1.2400  -1.2069  -1.1942  -1.1244  -1.0390
    -0.9980  -0.9590  -0.9215  -0.8614  -0.8024  -0.7648  -0.7268  -0.6460
    -0.6275  -0.6177  -0.5562  -0.5392  -0.4798  -0.4715  -0.3931  -0.3514
    -0.3142  -0.2683  -0.2408  -0.2349  -0.2158  -0.1817  -0.1739  -0.1192
    -0.0036   0.0050   0.0242   0.1298   0.2185   0.4572   0.5141   0.5465
     0.6269   0.6894   0.7505   0.7719   0.7938   0.7975   0.8336   0.8944
     1.0080   1.0179   1.0566   1.1448   1.1705   1.8889   1.8897   1.9627
     1.9629   2.0649   3.9238   3.9500   3.9759   4.0117   4.1123   4.1295
     4.1519   4.1539   4.2674   4.2976

     the Fermi energy is     3.6169 ev

!    total energy              =   -2976.50541585 Ry
     estimated scf accuracy    <       0.00000005 Ry
     smearing contrib. (-TS)   =      -0.02132704 Ry
     internal energy E=F+TS    =   -2976.48408881 Ry

     The total energy is F=E-TS. E is the sum of the following terms:
     one-electron contribution =  -23894.01427565 Ry
     hartree contribution      =   12043.49963160 Ry
     xc contribution           =    -495.75544954 Ry
     ewald contribution        =    9369.78419290 Ry
     electric field correction =       0.00181187 Ry

     convergence has been achieved in  65 iterations

     Forces acting on atoms (cartesian axes, Ry/au):

     atom    1 type  1   force =     0.00014990   -0.00028506    0.09583046
     atom    2 type  1   force =    -0.00022711   -0.00063343   -0.17568357
     atom    3 type  2   force =     0.00006229   -0.00014969   -0.02383317
     atom    4 type  2   force =     0.00006301   -0.00154304    0.05350248
     atom    5 type  2   force =    -0.01127748   -0.00076208    0.00355885
     atom    6 type  2   force =     0.01297974    0.00005717    0.00268423
     atom    7 type  1   force =    -0.00095640    0.00065684   -0.00792384
     atom    8 type  1   force =     0.00042804    0.00624544    0.02298286
     atom    9 type  2   force =    -0.00005006   -0.00030671   -0.00095944
     atom   10 type  2   force =    -0.00136883    0.00127699   -0.01514870
     atom   11 type  2   force =    -0.00030628    0.00024817   -0.00023793
     atom   12 type  2   force =    -0.00021529    0.00022701   -0.00034087
     atom   13 type  1   force =     0.00074585   -0.00046852    0.00031618
     atom   14 type  1   force =    -0.00019194    0.00042206    0.00152696
     atom   15 type  2   force =     0.00001388   -0.00005592    0.00030999
     atom   16 type  2   force =     0.00025840    0.00005428    0.00010308
     atom   17 type  2   force =     0.00064601   -0.00023029    0.00034741
     atom   18 type  2   force =     0.00012838   -0.00043993    0.00046605
     atom   19 type  1   force =    -0.00119914    0.00019540    0.00055157
     atom   20 type  1   force =     0.00070934   -0.00000680   -0.00008145
     atom   21 type  2   force =     0.00008581   -0.00009068    0.10325317
     atom   22 type  2   force =    -0.00068239   -0.00046125   -0.00070506
     atom   23 type  2   force =    -0.07142169   -0.00018845   -0.02770713
     atom   24 type  2   force =     0.07139053    0.00027422   -0.02770943
     atom   25 type  1   force =     0.00001856   -0.00031090    0.09554362
     atom   26 type  1   force =    -0.00018061   -0.00030705   -0.17597357
     atom   27 type  2   force =     0.00009837   -0.00011702   -0.02293789
     atom   28 type  2   force =     0.00011428   -0.00127242    0.05315374
     atom   29 type  2   force =    -0.01152510    0.00014760    0.00361792
     atom   30 type  2   force =     0.01317631    0.00046071    0.00271008
     atom   31 type  1   force =    -0.00100676    0.00373559   -0.01103369
     atom   32 type  1   force =     0.00051248   -0.00741187    0.02339544
     atom   33 type  2   force =    -0.00023531    0.00031308   -0.00032311
     atom   34 type  2   force =    -0.00033232    0.00025056   -0.02187352
     atom   35 type  2   force =     0.00011050    0.00030003   -0.00037524
     atom   36 type  2   force =    -0.00037348    0.00030105   -0.00029973
     atom   37 type  1   force =     0.00040505    0.00056654   -0.00023984
     atom   38 type  1   force =    -0.00023652   -0.00041749    0.00135459
     atom   39 type  2   force =    -0.00006929   -0.00029807    0.00036684
     atom   40 type  2   force =     0.00032412    0.00008946   -0.00083862
     atom   41 type  2   force =     0.00116620    0.00049632    0.00013194
     atom   42 type  2   force =    -0.00068485    0.00027662    0.00006338
     atom   43 type  1   force =    -0.00090360   -0.00105997   -0.00007126
     atom   44 type  1   force =     0.00072635    0.00052369   -0.00016987
     atom   45 type  2   force =     0.00008588   -0.00010278    0.10325265
     atom   46 type  2   force =    -0.07142888   -0.00013652   -0.02769038
     atom   47 type  2   force =     0.07143114    0.00029944   -0.02772047
     atom   48 type  3   force =    -0.00041501   -0.00335289   -0.00657817
     atom   49 type  3   force =    -0.00070275    0.00009247   -0.00183375
     atom   50 type  4   force =     0.00136941   -0.00106162    0.01765836
     atom   51 type  5   force =     0.00283019    0.00198990   -0.00316080
     atom   52 type  5   force =    -0.00479768    0.00066936   -0.00479881
     atom   53 type  5   force =     0.00020190    0.00130593   -0.00179294
     atom   54 type  5   force =     0.00034358    0.00032073    0.00003474
     atom   55 type  5   force =     0.00024458   -0.00007969    0.00073769
     atom   56 type  2   force =    -0.00079411   -0.00007382   -0.00011879
     atom   57 type  5   force =     0.00074602   -0.00004820    0.00003251
     atom   58 type  5   force =     0.00001677   -0.00012449    0.00067425

     Total force =     0.367314     Total SCF correction =     0.000465
  @ DRIVER MODE: Message from server: STATUS
  @ DRIVER MODE: Message from server: GETFORCE
  @ DRIVER MODE: Returning v,forces,stress,ensemble

     Writing output data file ./calc.save/
  @ DRIVER MODE: Message from server: EXIT
  @ DRIVE MODE: Exiting

     General routines

     Parallel routines

   This run was terminated on:  21:30: 7  15Sep2021

   JOB DONE.