     Program PWSCF v.6.7GPU starts on 18Oct2021 at 21:59:29

     R & G space division:  proc/nbgrp/npool/nimage =       8
     Reading input from /storage/home/hcoda1/3/ntian30/research/carbon/CxH_vib/Thiel_calc/ads_slab/NH2NH2_perslab/out_0024/pw.inp
Warning: card &CELL ignored
Warning: card   CELL_DYNAMICS='IPI', ignored
Warning: card / ignored

     Current dimensions of program PWSCF are:
     Max number of different atomic species (ntypx) = 10
     Max number of k-points (npk) =  40000
     Max angular momentum in pseudopotentials (lmaxx) =  3
     Presently no symmetry can be used with electric field

     Message from routine cell_base_init:
     DEPRECATED: use true lattice parameter, not A to a.u. conversion factor

     IMPORTANT: XC functional enforced from input :
     Exchange-correlation= BEEF-VDW
                           (   1   4  43  14   2   0   0)
     Any further DFT definition will be discarded
     Please, verify this is what you really want

  @ DRIVER MODE: Connecting to
 qe_1139763_3255136.sched-torque.pace.gatech.edurugfqao0_scratch
  using UNIX socket
  @ DRIVER MODE: Message from server: STATUS
  @ DRIVER MODE: Message from server: INIT
  @ DRIVER MODE: Receiving replica           0          -1
  @ DRIVER MODE: Receiving encoded integer          25
  @ DRIVER MODE:  SCF:  T  FORCE:  T  STRESS:  F  VC:  F  ENSEMBLE:  F
  @ DRIVER MODE:  SCF:  T  FORCE:  T  STRESS:  F  VC:  F  ENSEMBLE:  F

     Using Slab Decomposition

     bravais-lattice index     =            0
     lattice parameter (alat)  =       1.8897  a.u.
     unit-cell volume          =    9988.4706 (a.u.)^3
     number of atoms/cell      =           59
     number of atomic types    =            4
     number of electrons       =       440.00
     number of Kohn-Sham states=          230
     kinetic-energy cutoff     =      29.3995  Ry
     charge density cutoff     =     293.9946  Ry
     scf convergence threshold =      7.3E-08
     mixing beta               =       0.0500
     number of iterations used =            8  plain     mixing
     Exchange-correlation= BEEF-VDW
                           (   1   4  43  14   2   0   0)

     celldm(1)=   1.889726  celldm(2)=   0.000000  celldm(3)=   0.000000
     celldm(4)=   0.000000  celldm(5)=   0.000000  celldm(6)=   0.000000

     crystal axes: (cart. coord. in units of alat)
               a(1) = (   6.579727   0.000000   0.000000 )
               a(2) = (  -0.001163   8.942395   0.000000 )
               a(3) = (   0.000000   0.000000  25.155947 )

     reciprocal axes: (cart. coord. in units 2 pi/alat)
               b(1) = (  0.151982  0.000020  0.000000 )
               b(2) = (  0.000000  0.111827  0.000000 )
               b(3) = (  0.000000  0.000000  0.039752 )

     PseudoPot. # 1 for O  read from file:
     /storage/coda1/p-amedford6/0/shared/rich_project_chbe-medford/medford-share/data/pseudos_module/espresso/nninc/pbe/van/O.UPF
     MD5 check sum: 78c19812648e8988a0fe644b0f25305e
     Pseudo is Ultrasoft, Zval =  6.0
     Generated by new atomic code, or converted to UPF format
     Using radial grid of  737 points,  4 beta functions with:
                l(1) =   0
                l(2) =   0
                l(3) =   1
                l(4) =   1
     Q(r) pseudized with  8 coefficients,  rinner =    0.800   0.800   0.800

     PseudoPot. # 2 for Ti read from file:
     /storage/coda1/p-amedford6/0/shared/rich_project_chbe-medford/medford-share/data/pseudos_module/espresso/nninc/pbe/van/Ti.UPF
     MD5 check sum: 8e4df49b7f0d34bbd5052bf3f5ea0213
     Pseudo is Ultrasoft, Zval = 12.0
     Generated by new atomic code, or converted to UPF format
     Using radial grid of  851 points,  6 beta functions with:
                l(1) =   0
                l(2) =   0
                l(3) =   1
                l(4) =   1
                l(5) =   2
                l(6) =   2
     Q(r) pseudized with  8 coefficients,  rinner =    1.000   1.000   1.000
                                                       1.000   1.000

     PseudoPot. # 3 for N  read from file:
     /storage/coda1/p-amedford6/0/shared/rich_project_chbe-medford/medford-share/data/pseudos_module/espresso/nninc/pbe/van/N.UPF
     MD5 check sum: 90d10febe142ad51ac9d5be1deb811c4
     Pseudo is Ultrasoft, Zval =  5.0
     Generated by new atomic code, or converted to UPF format
     Using radial grid of  729 points,  4 beta functions with:
                l(1) =   0
                l(2) =   0
                l(3) =   1
                l(4) =   1
     Q(r) pseudized with  8 coefficients,  rinner =    0.800   0.800   0.800

     PseudoPot. # 4 for H  read from file:
     /storage/coda1/p-amedford6/0/shared/rich_project_chbe-medford/medford-share/data/pseudos_module/espresso/nninc/pbe/van/H.UPF
     MD5 check sum: b5ee9d7bfd3a09ee7748110bda690ff7
     Pseudo is Ultrasoft, Zval =  1.0
     Generated by new atomic code, or converted to UPF format
     Using radial grid of  615 points,  1 beta functions with:
                l(1) =   0
     Q(r) pseudized with  8 coefficients,  rinner =    0.800

     atomic species   valence    mass     pseudopotential
        O1             6.00    15.99900     O ( 1.00)
        Ti1           12.00    47.86700     Ti( 1.00)
        N1             5.00    14.00700     N ( 1.00)
        H1             1.00     1.00800     H ( 1.00)

     No symmetry found

   Cartesian axes

     site n.     atom                  positions (alat units)
         1           O1  tau(   1) = (   0.0007354   0.0005023  10.5931620  )
         2           O1  tau(   2) = (   3.2892726   8.9022636  13.7900476  )
         3           O1  tau(   3) = (  -0.0000012   0.0159539  17.0845323  )
         4           O1  tau(   4) = (   0.0006271   0.0005054   7.9858123  )
         5           O1  tau(   5) = (   3.2903981   0.0001071  11.1466942  )
         6           O1  tau(   6) = (   6.5796972   0.0370899  14.4522764  )
         7           O1  tau(   7) = (   1.9868534   1.4903216   9.2879459  )
         8           O1  tau(   8) = (   5.2071659   1.5879261  12.5336177  )
         9           O1  tau(   9) = (   2.0150580   1.5800225  15.9505780  )
        10           Ti1 tau(  10) = (   0.0007404   1.4906270   9.2895810  )
        11           Ti1 tau(  11) = (   3.2907621   1.2831726  12.4565622  )
        12           Ti1 tau(  12) = (   6.5792216   1.1939559  15.8009323  )
        13           O1  tau(  13) = (   4.5942328   1.4918067   9.2879030  )
        14           O1  tau(  14) = (   1.3733293   1.5875306  12.5337771  )
        15           O1  tau(  15) = (   4.5635363   1.5794237  15.9511286  )
        16           Ti1 tau(  16) = (   3.2902859   2.9801868   9.2893338  )
        17           Ti1 tau(  17) = (   0.0006963   2.7899128  12.4910476  )
        18           Ti1 tau(  18) = (   3.2889055   2.8853182  15.6510148  )
        19           O1  tau(  19) = (   0.0003479   2.9813005  10.5931620  )
        20           O1  tau(  20) = (   3.2901137   2.9323735  13.8075185  )
        21           O1  tau(  21) = (   0.0002396   2.9813036   7.9858123  )
        22           O1  tau(  22) = (   3.2901566   2.9796509  11.1657827  )
        23           O1  tau(  23) = (  -0.0001005   3.0518452  14.6148139  )
        24           O1  tau(  24) = (   1.9864658   4.4711199   9.2879459  )
        25           O1  tau(  25) = (   5.2244327   4.5330399  12.5550231  )
        26           O1  tau(  26) = (   2.0317078   4.4891842  16.0144209  )
        27           Ti1 tau(  27) = (   0.0003529   4.4714252   9.2895810  )
        28           Ti1 tau(  28) = (   3.2908221   4.3047718  12.5439168  )
        29           Ti1 tau(  29) = (   0.0007318   4.2809743  15.9563396  )
        30           O1  tau(  30) = (   4.5938453   4.4726049   9.2879030  )
        31           O1  tau(  31) = (   1.3553747   4.5324408  12.5551093  )
        32           O1  tau(  32) = (   4.5484712   4.4888783  16.0159471  )
        33           Ti1 tau(  33) = (   3.2898983   5.9609850   9.2893338  )
        34           Ti1 tau(  34) = (   0.0004637   5.7541984  12.5654138  )
        35           Ti1 tau(  35) = (   3.2913524   5.8154114  16.2798070  )
        36           O1  tau(  36) = (  -0.0000397   5.9620987  10.5931620  )
        37           O1  tau(  37) = (   3.2897947   5.8994426  13.7907643  )
        38           O1  tau(  38) = (   0.0001798   5.9238570  17.1594641  )
        39           O1  tau(  39) = (  -0.0001480   5.9621018   7.9858123  )
        40           O1  tau(  40) = (   3.2896433   5.9245955  11.1661191  )
        41           O1  tau(  41) = (   0.0000838   5.9808129  14.5563373  )
        42           O1  tau(  42) = (   1.9860782   7.4519181   9.2879459  )
        43           O1  tau(  43) = (   5.2244350   7.5051086  12.5363475  )
        44           O1  tau(  44) = (   2.0177701   7.5673364  15.9764862  )
        45           Ti1 tau(  45) = (  -0.0000347   7.4522234   9.2895810  )
        46           Ti1 tau(  46) = (   3.2896674   7.1828241  12.5854878  )
        47           Ti1 tau(  47) = (   0.0003403   7.2137487  16.0183084  )
        48           O1  tau(  48) = (   4.5934577   7.4534031   9.2879030  )
        49           O1  tau(  49) = (   1.3543201   7.5047529  12.5365769  )
        50           O1  tau(  50) = (   4.5609347   7.5656990  15.9757490  )
        51           Ti1 tau(  51) = (   3.2895107   8.9417832   9.2893338  )
        52           Ti1 tau(  52) = (  -0.0005834   8.7067995  12.4790564  )
        53           Ti1 tau(  53) = (   3.2900135   8.8028796  15.6464995  )
        54           N1  tau(  54) = (   3.2900669   5.9334594  18.1702238  )
        55           H1  tau(  55) = (   3.2900466   5.1481598  18.8081281  )
        56           H1  tau(  56) = (   3.2872703   6.8047138  18.6863891  )
        57           N1  tau(  57) = (   0.0002662   3.1405291  17.5622950  )
        58           H1  tau(  58) = (   0.0007553   2.2326612  18.0099153  )
        59           H1  tau(  59) = (   6.5771877   3.8386968  18.2941669  )

     number of k points=    10  Fermi-Dirac smearing, width (Ry)=  0.0073
                       cart. coord. in units 2pi/alat
        k(    1) = (   0.0000000   0.0000000   0.0000000), wk =   0.1250000
        k(    2) = (   0.0000000   0.0279567   0.0000000), wk =   0.2500000
        k(    3) = (   0.0000000  -0.0559134   0.0000000), wk =   0.1250000
        k(    4) = (   0.0379955   0.0000049   0.0000000), wk =   0.2500000
        k(    5) = (   0.0379955   0.0279617   0.0000000), wk =   0.2500000
        k(    6) = (   0.0379955  -0.0559085   0.0000000), wk =   0.2500000
        k(    7) = (   0.0379955  -0.0279518   0.0000000), wk =   0.2500000
        k(    8) = (  -0.0759910  -0.0000099   0.0000000), wk =   0.1250000
        k(    9) = (  -0.0759910   0.0279468   0.0000000), wk =   0.2500000
        k(   10) = (  -0.0759910  -0.0559233   0.0000000), wk =   0.1250000

     Initial potential from superposition of free atoms

     starting charge  421.99910, renormalised to  440.00000

     negative rho (up, down):  3.741E-02 0.000E+00

     %%%%%%%%%%%%%%%%%%%%%%%%%%%%%%%%%%%%%%%%%%%%%%%%%%%%%%%%%%%%%%%%%%%%%%%%
     %                                                                      %
     % You are using vdW-DF, which was implemented by the Thonhauser group. %
     % Please cite the following two papers that made this development      %
     % possible and the two reviews that describe the various versions:     %
     %                                                                      %
     %   T. Thonhauser et al., PRL 115, 136402 (2015).                      %
     %   T. Thonhauser et al., PRB 76, 125112 (2007).                       %
     %   K. Berland et al., Rep. Prog. Phys. 78, 066501 (2015).             %
     %   D.C. Langreth et al., J. Phys.: Condens. Matter 21, 084203 (2009). %
     %                                                                      %
     %                                                                      %
     % If you are calculating the stress with vdW-DF, please also cite:     %
     %                                                                      %
     %   R. Sabatini et al., J. Phys.: Condens. Matter 24, 424209 (2012).   %
     %                                                                      %
     %%%%%%%%%%%%%%%%%%%%%%%%%%%%%%%%%%%%%%%%%%%%%%%%%%%%%%%%%%%%%%%%%%%%%%%%

     Adding external electric field

     Computed dipole along edir(3) :
        Dipole               -3.9807 Ry au,        -10.1180 Debye
        Dipole field         -0.0050 Ry au,

        Potential amp.        0.4642 Ry
        Total length         46.3494 bohr

     Starting wfcs are  332 atomic wfcs
  @ DRIVER MODE: Message from server: STATUS
  @ DRIVER MODE: Message from server: POSDATA
  @ DRIVER MODE: Reading and sharing cell
  @ DRIVER MODE: Reading and sharing positions
  @ DRIVER MODE: Received positions

     Self-consistent Calculation

     iteration #  1     ecut=    29.40 Ry     beta= 0.05
     Davidson diagonalization with overlap
     c_bands:  1 eigenvalues not converged
     c_bands:  2 eigenvalues not converged
     c_bands:  3 eigenvalues not converged
     c_bands:  3 eigenvalues not converged
     c_bands:  1 eigenvalues not converged
     c_bands:  3 eigenvalues not converged
     c_bands:  4 eigenvalues not converged
     c_bands:  3 eigenvalues not converged
     c_bands:  3 eigenvalues not converged
     ethr =  1.00E-05,  avg # of iterations = 19.2

[...]

     total energy              =   -3293.78118027 Ry
     estimated scf accuracy    <      28.34625159 Ry

     iteration #  2     ecut=    29.40 Ry     beta= 0.05
     Davidson diagonalization with overlap
     ethr =  6.44E-03,  avg # of iterations =  1.2

[...]

     iteration # 21     ecut=    29.40 Ry     beta= 0.05
     Davidson diagonalization with overlap
     c_bands:  1 eigenvalues not converged
     c_bands:  1 eigenvalues not converged
     c_bands:  1 eigenvalues not converged
     ethr =  2.40E-06,  avg # of iterations = 14.4

[...]

     total energy              =   -3293.29539963 Ry
     estimated scf accuracy    <       0.00000009 Ry

     iteration # 48     ecut=    29.40 Ry     beta= 0.05
     Davidson diagonalization with overlap
     ethr =  2.11E-11,  avg # of iterations =  2.0

     negative rho (up, down):  3.610E-02 0.000E+00

     Adding external electric field

     Computed dipole along edir(3) :
        Dipole                0.9402 Ry au,          2.3899 Debye
        Dipole field          0.0012 Ry au,

        Potential amp.       -0.1097 Ry
        Total length         46.3494 bohr

     End of self-consistent calculation

          k = 0.0000 0.0000 0.0000 ( 26871 PWs)   bands (ev):

   -58.4757 -58.4523 -58.4463 -58.4082 -58.3634 -58.0103 -57.9713 -57.9684
   -57.8855 -57.7657 -57.6922 -57.5757 -57.4858 -57.2285 -57.1477 -57.0783
   -57.0381 -57.0253 -34.8761 -34.8408 -34.8137 -34.7974 -34.7940 -34.7875
   -34.7385 -34.6780 -34.6513 -34.6003 -34.5877 -34.5853 -34.5796 -34.5576
   -34.5127 -34.4119 -34.3761 -34.3507 -34.3287 -34.3233 -34.2787 -34.2458
   -34.2334 -34.2304 -34.1949 -34.1917 -34.1601 -34.0632 -34.0517 -33.9931
   -33.9892 -33.9579 -33.9049 -33.8893 -33.8734 -33.8086 -33.7437 -33.7316
   -33.6905 -33.6826 -33.5871 -33.4668 -33.4527 -33.4226 -33.4203 -33.3860
   -33.3802 -33.3758 -33.3603 -33.3505 -33.2822 -33.2177 -33.1966 -33.0766
   -19.0275 -18.5645 -18.5054 -18.3562 -18.3070 -18.2863 -18.2807 -18.1299
   -17.9134 -17.8681 -17.8538 -17.8325 -17.7485 -17.7296 -17.7138 -17.6909
   -17.6768 -17.6559 -17.5669 -17.5602 -17.5407 -17.5151 -17.4963 -17.4416
   -17.3821 -17.3610 -17.2714 -17.1980 -17.1579 -16.9354 -16.6766 -16.5964
   -15.5442 -15.5030 -15.4946 -15.2868 -15.1463  -6.7932  -6.5958  -6.3623
    -6.1684  -5.9562  -5.8188  -5.7020  -5.6487  -5.5677  -5.5018  -5.4639
    -5.4619  -5.4012  -5.3546  -5.2605  -5.2545  -5.1625  -5.1128  -5.0961
    -5.0671  -5.0147  -4.9722  -4.9260  -4.9113  -4.8497  -4.8057  -4.7962
    -4.7457  -4.6843  -4.6806  -4.6583  -4.6573  -4.6246  -4.5799  -4.4682
    -4.4650  -4.4208  -4.3576  -4.3059  -4.2685  -4.2282  -4.1946  -4.1942
    -4.1781  -4.1299  -4.0987  -3.9187  -3.8628  -3.8357  -3.8035  -3.7202
    -3.6563  -3.6004  -3.5633  -3.5196  -3.4342  -3.3644  -3.3574  -3.3475
    -3.2815  -3.2385  -3.1998  -3.1678  -3.1511  -3.0875  -3.0353  -3.0348
    -2.9914  -2.9774  -2.9632  -2.9162  -2.8628  -2.8388  -2.8375  -2.7975
    -2.7905  -2.7482  -2.6502  -2.6216  -2.5608  -2.5225  -2.4681  -2.4200
    -2.4142  -2.3790  -2.3419  -2.2738  -2.1821  -2.1312  -1.9999  -1.9958
    -1.9180  -1.9078  -1.8413  -1.8119  -1.7964  -1.7488  -1.7223  -1.6074
    -1.5320  -1.4122  -1.1998  -0.9961  -0.8340  -0.7709  -0.7563  -0.7124
    -0.5733  -0.5542  -0.4607  -0.4515   0.8003   0.9360   1.0956   1.1135
     1.3136   1.4423   1.4604   1.5027   1.5597   1.7146

[...]

          k = 0.0380-0.0280 0.0000 ( 26873 PWs)   bands (ev):

[...]

          k =-0.0760-0.0000 0.0000 ( 26902 PWs)   bands (ev):

[...]

          k =-0.0760-0.0559 0.0000 ( 26868 PWs)   bands (ev):

   -58.4699 -58.4638 -58.4406 -58.4080 -58.3635 -58.0102 -57.9714 -57.9684
   -57.8853 -57.7660 -57.6920 -57.5757 -57.4858 -57.2286 -57.1476 -57.0770
   -57.0421 -57.0225 -34.9041 -34.8888 -34.8445 -34.8161 -34.7848 -34.6938
   -34.6773 -34.6293 -34.6229 -34.6107 -34.6083 -34.5969 -34.5823 -34.5610
   -34.5597 -34.4400 -34.3840 -34.3654 -34.3497 -34.3294 -34.2615 -34.2276
   -34.2240 -34.1936 -34.1860 -34.1704 -34.1238 -34.0709 -34.0632 -34.0365
   -33.9967 -33.9781 -33.9112 -33.9040 -33.8829 -33.7929 -33.7436 -33.7105
   -33.6940 -33.6638 -33.5753 -33.4865 -33.4576 -33.4555 -33.4242 -33.4213
   -33.3912 -33.3726 -33.3706 -33.2740 -33.2392 -33.1884 -33.1864 -33.1576
   -18.8142 -18.6658 -18.4203 -18.3217 -18.1586 -18.1116 -18.0585 -18.0482
   -18.0424 -17.9463 -17.9292 -17.8840 -17.8771 -17.8284 -17.8035 -17.7910
   -17.7851 -17.7532 -17.6852 -17.6294 -17.5444 -17.4523 -17.4398 -17.4241
   -17.4174 -17.3370 -17.2396 -17.1956 -17.1574 -16.9579 -16.6863 -16.5585
   -15.5560 -15.5429 -15.4333 -15.2819 -15.1472  -6.7910  -6.6047  -6.1261
    -5.9311  -5.8997  -5.8585  -5.5409  -5.4983  -5.3935  -5.3639  -5.3608
    -5.3339  -5.2893  -5.2515  -5.1961  -5.1609  -5.1427  -5.1344  -5.1156
    -5.0895  -5.0421  -5.0161  -4.9743  -4.9690  -4.9542  -4.9224  -4.9003
    -4.8510  -4.8423  -4.7707  -4.7619  -4.7278  -4.5276  -4.4796  -4.4171
    -4.3680  -4.3024  -4.2215  -4.1946  -4.1944  -4.1079  -4.1053  -4.0412
    -3.9835  -3.8959  -3.8154  -3.8091  -3.7865  -3.7580  -3.7253  -3.6925
    -3.6686  -3.6485  -3.6097  -3.5615  -3.5238  -3.4501  -3.4170  -3.4115
    -3.3687  -3.3516  -3.3403  -3.3363  -3.3197  -3.2142  -3.2081  -3.1485
    -3.1144  -3.1099  -3.0398  -3.0322  -2.9811  -2.9554  -2.8866  -2.8475
    -2.8398  -2.7506  -2.7434  -2.7397  -2.6573  -2.6485  -2.5486  -2.5154
    -2.4309  -2.3060  -2.1857  -2.1842  -2.1744  -2.0526  -2.0513  -2.0388
    -1.9951  -1.9333  -1.9068  -1.7256  -1.7214  -1.6764  -1.6055  -1.5848
    -1.5609  -1.5461  -1.4302  -1.4082  -1.0035  -0.6988  -0.6845  -0.6831
    -0.6463  -0.6200  -0.5876  -0.5786   0.8519   1.0127   1.0903   1.1558
     1.1816   1.2253   1.2570   1.4317   1.4941   1.5004

     the Fermi energy is     0.2150 ev

!    total energy              =   -3293.29552912 Ry
     estimated scf accuracy    <       0.00000006 Ry
     smearing contrib. (-TS)   =      -0.00053579 Ry
     internal energy E=F+TS    =   -3293.29499333 Ry

     The total energy is F=E-TS. E is the sum of the following terms:
     one-electron contribution =  -34583.52016536 Ry
     hartree contribution      =   17353.51845384 Ry
     xc contribution           =    -542.08130940 Ry
     ewald contribution        =   14478.78691537 Ry
     electric field correction =       0.00111222 Ry

     convergence has been achieved in  48 iterations

     Forces acting on atoms (cartesian axes, Ry/au):

     atom    1 type  1   force =    -0.00000715    0.00890825    0.04220608
     atom    2 type  1   force =     0.00002340   -0.00247619   -0.00305368
     atom    3 type  1   force =    -0.00003329   -0.00622801   -0.00136041
     atom    4 type  1   force =     0.00004738    0.00395102    0.10168322
     atom    5 type  1   force =     0.00002149   -0.00059096    0.00718501
     atom    6 type  1   force =    -0.00002405    0.00086500    0.00288652
     atom    7 type  1   force =     0.07634748    0.00119596   -0.03509343
     atom    8 type  1   force =     0.00756762   -0.02410184    0.00123917
     atom    9 type  1   force =     0.00778333   -0.02065495    0.00172836
     atom   10 type  2   force =    -0.00002849   -0.00385467   -0.16977111
     atom   11 type  2   force =    -0.00011397    0.02223111   -0.00319126
     atom   12 type  2   force =     0.00000105    0.01989746   -0.00556802
     atom   13 type  1   force =    -0.07644063    0.00074266   -0.03504304
     atom   14 type  1   force =    -0.00764737   -0.02397619    0.00123548
     atom   15 type  1   force =    -0.00773212   -0.02074027    0.00173401
     atom   16 type  2   force =     0.00010209    0.00207735    0.07521666
     atom   17 type  2   force =     0.00020336    0.02907825    0.00174107
     atom   18 type  2   force =    -0.00010001    0.02406740    0.00039550
     atom   19 type  1   force =     0.00000443    0.00221458    0.05611264
     atom   20 type  1   force =     0.00000419   -0.00073705   -0.00277442
     atom   21 type  1   force =     0.00004901   -0.00273842    0.10231992
     atom   22 type  1   force =     0.00000924   -0.00165647    0.00634557
     atom   23 type  1   force =    -0.00001823   -0.00382341    0.00220713
     atom   24 type  1   force =     0.07834377   -0.00055896   -0.03676759
     atom   25 type  1   force =     0.00981766   -0.02948308   -0.00095879
     atom   26 type  1   force =     0.01070470   -0.02701070   -0.00659713
     atom   27 type  2   force =    -0.00006173    0.01459447   -0.15615750
     atom   28 type  2   force =    -0.00013103    0.02622228   -0.00045154
     atom   29 type  2   force =     0.00003892    0.02171371    0.00590147
     atom   30 type  1   force =    -0.07843918   -0.00098739   -0.03671503
     atom   31 type  1   force =    -0.00987979   -0.02933933   -0.00096062
     atom   32 type  1   force =    -0.01057878   -0.02707634   -0.00664917
     atom   33 type  2   force =     0.00009300   -0.00383203    0.07803012
     atom   34 type  2   force =     0.00019589    0.03434716    0.00320720
     atom   35 type  2   force =    -0.00012572    0.03174336    0.00706143
     atom   36 type  1   force =     0.00001977    0.00147720    0.05146708
     atom   37 type  1   force =     0.00002292   -0.00166158   -0.00243448
     atom   38 type  1   force =    -0.00002208   -0.00370778   -0.00006033
     atom   39 type  1   force =     0.00005022    0.00037271    0.09993616
     atom   40 type  1   force =     0.00001612   -0.00069238    0.00654090
     atom   41 type  1   force =    -0.00002510   -0.00115474    0.00436297
     atom   42 type  1   force =     0.07942208    0.00172067   -0.03465928
     atom   43 type  1   force =     0.00608820   -0.02325298    0.00045106
     atom   44 type  1   force =     0.00711309   -0.02148009    0.00384222
     atom   45 type  2   force =    -0.00005711   -0.01583443   -0.15542747
     atom   46 type  2   force =    -0.00010599    0.01696121    0.00088754
     atom   47 type  2   force =     0.00003079    0.02062759   -0.00072675
     atom   48 type  1   force =    -0.07951415    0.00128235   -0.03460476
     atom   49 type  1   force =    -0.00620188   -0.02313940    0.00044199
     atom   50 type  1   force =    -0.00697683   -0.02150723    0.00384096
     atom   51 type  2   force =     0.00008709   -0.00447618    0.06174139
     atom   52 type  2   force =     0.00020005    0.02905958    0.00062216
     atom   53 type  2   force =    -0.00013978    0.02934576    0.00027788
     atom   54 type  3   force =     0.00001587    0.00161724   -0.00143982
     atom   55 type  4   force =     0.00002837   -0.00050016    0.00024662
     atom   56 type  4   force =    -0.00005385   -0.00006636   -0.00007946
     atom   57 type  3   force =     0.00002497   -0.00034962   -0.01611520
     atom   58 type  4   force =     0.00005864   -0.00318724    0.00395682
     atom   59 type  4   force =    -0.00007785    0.00456210    0.00960796

     Total force =     0.439488     Total SCF correction =     0.000710
  @ DRIVER MODE: Message from server: STATUS
  @ DRIVER MODE: Message from server: GETFORCE
  @ DRIVER MODE: Returning v,forces,stress,ensemble

     Writing output data file ./calc.save/
  @ DRIVER MODE: Message from server: EXIT
  @ DRIVE MODE: Exiting

     General routines

     Parallel routines

   This run was terminated on:  22:24:28  18Oct2021

   JOB DONE.