     Program PWSCF v.6.7GPU starts on 30Jun2021 at 16: 1:28

     R & G space division:  proc/nbgrp/npool/nimage =      16
     Reading input from /storage/home/hcoda1/3/ntian30/research/carbon/30Jun_spin_polarized/ads_slab/CH3N2H_a/30Jun.log/pw.inp
Warning: card &CELL ignored
Warning: card   CELL_DYNAMICS='IPI', ignored
Warning: card / ignored

     Current dimensions of program PWSCF are:
     Max number of different atomic species (ntypx) = 10
     Max number of k-points (npk) =  40000
     Max angular momentum in pseudopotentials (lmaxx) =  3
     Presently no symmetry can be used with electric field

     Message from routine cell_base_init:
     DEPRECATED: use true lattice parameter, not A to a.u. conversion factor

     IMPORTANT: XC functional enforced from input :
     Exchange-correlation= BEEF-VDW
                           (   1   4  43  14   2   0   0)
     Any further DFT definition will be discarded
     Please, verify this is what you really want

  @ DRIVER MODE: Connecting to
 qe_1139763_2240212.sched-torque.pace.gatech.edunagc56r4_scratch
  using UNIX socket
  @ DRIVER MODE: Message from server: STATUS
  @ DRIVER MODE: Message from server: INIT
  @ DRIVER MODE: Receiving replica           0          -1
  @ DRIVER MODE: Receiving encoded integer          25
  @ DRIVER MODE:  SCF:  T  FORCE:  T  STRESS:  F  VC:  F  ENSEMBLE:  F
  @ DRIVER MODE:  SCF:  T  FORCE:  T  STRESS:  F  VC:  F  ENSEMBLE:  F

     Using Slab Decomposition

     bravais-lattice index     =            0
     lattice parameter (alat)  =       1.8897  a.u.
     unit-cell volume          =    6658.9804 (a.u.)^3
     number of atoms/cell      =           54
     number of atomic types    =            5
     number of electrons       =       396.00
     number of Kohn-Sham states=          208
     kinetic-energy cutoff     =      29.3995  Ry
     charge density cutoff     =     293.9946  Ry
     scf convergence threshold =      7.3E-08
     mixing beta               =       0.0500
     number of iterations used =            8  plain     mixing
     Exchange-correlation= BEEF-VDW
                           (   1   4  43  14   2   0   0)

     celldm(1)=   1.889726  celldm(2)=   0.000000  celldm(3)=   0.000000
     celldm(4)=   0.000000  celldm(5)=   0.000000  celldm(6)=   0.000000

     crystal axes: (cart. coord. in units of alat)
               a(1) = (   6.579727   0.000000   0.000000 )
               a(2) = (  -0.000775   5.961596   0.000000 )
               a(3) = (   0.000000   0.000000  25.155947 )

     reciprocal axes: (cart. coord. in units 2 pi/alat)
               b(1) = (  0.151982  0.000020  0.000000 )
               b(2) = (  0.000000  0.167740  0.000000 )
               b(3) = (  0.000000  0.000000  0.039752 )

     PseudoPot. # 1 for Ti read from file:
     /storage/coda1/p-amedford6/0/shared/rich_project_chbe-medford/medford-share/data/pseudos_module/espresso/nninc/pbe/van/Ti.UPF
     MD5 check sum: 8e4df49b7f0d34bbd5052bf3f5ea0213
     Pseudo is Ultrasoft, Zval = 12.0
     Generated by new atomic code, or converted to UPF format
     Using radial grid of  851 points,  6 beta functions with:
                l(1) =   0
                l(2) =   0
                l(3) =   1
                l(4) =   1
                l(5) =   2
                l(6) =   2
     Q(r) pseudized with  8 coefficients,  rinner =    1.000   1.000   1.000
                                                       1.000   1.000

     PseudoPot. # 2 for O  read from file:
     /storage/coda1/p-amedford6/0/shared/rich_project_chbe-medford/medford-share/data/pseudos_module/espresso/nninc/pbe/van/O.UPF
     MD5 check sum: 78c19812648e8988a0fe644b0f25305e
     Pseudo is Ultrasoft, Zval =  6.0
     Generated by new atomic code, or converted to UPF format
     Using radial grid of  737 points,  4 beta functions with:
                l(1) =   0
                l(2) =   0
                l(3) =   1
                l(4) =   1
     Q(r) pseudized with  8 coefficients,  rinner =    0.800   0.800   0.800

     PseudoPot. # 3 for N  read from file:
     /storage/coda1/p-amedford6/0/shared/rich_project_chbe-medford/medford-share/data/pseudos_module/espresso/nninc/pbe/van/N.UPF
     MD5 check sum: 90d10febe142ad51ac9d5be1deb811c4
     Pseudo is Ultrasoft, Zval =  5.0
     Generated by new atomic code, or converted to UPF format
     Using radial grid of  729 points,  4 beta functions with:
                l(1) =   0
                l(2) =   0
                l(3) =   1
                l(4) =   1
     Q(r) pseudized with  8 coefficients,  rinner =    0.800   0.800   0.800

     PseudoPot. # 4 for C  read from file:
     /storage/coda1/p-amedford6/0/shared/rich_project_chbe-medford/medford-share/data/pseudos_module/espresso/nninc/pbe/van/C.UPF
     MD5 check sum: 1a69bf6b8db32088f5b2163dbdb77a27
     Pseudo is Ultrasoft, Zval =  4.0
     Generated by new atomic code, or converted to UPF format
     Using radial grid of  721 points,  4 beta functions with:
                l(1) =   0
                l(2) =   0
                l(3) =   1
                l(4) =   1
     Q(r) pseudized with  8 coefficients,  rinner =    0.800   0.800   0.800

     PseudoPot. # 5 for H  read from file:
     /storage/coda1/p-amedford6/0/shared/rich_project_chbe-medford/medford-share/data/pseudos_module/espresso/nninc/pbe/van/H.UPF
     MD5 check sum: b5ee9d7bfd3a09ee7748110bda690ff7
     Pseudo is Ultrasoft, Zval =  1.0
     Generated by new atomic code, or converted to UPF format
     Using radial grid of  615 points,  1 beta functions with:
                l(1) =   0
     Q(r) pseudized with  8 coefficients,  rinner =    0.800

     atomic species   valence    mass     pseudopotential
        Ti1           12.00    47.86700     Ti( 1.00)
        O1             6.00    15.99900     O ( 1.00)
        N1             5.00    14.00700     N ( 1.00)
        C1             4.00    12.01100     C ( 1.00)
        H1             1.00     1.00800     H ( 1.00)

     Starting magnetic structure
     atomic species   magnetization
        Ti1          0.000
        O1           0.000
        N1           0.000
        C1           0.025
        H1           0.000

     No symmetry found

   Cartesian axes

     site n.     atom                  positions (alat units)
         1           Ti1 tau(   1) = (   0.0004258   2.9801865   6.0000000  )
         2           Ti1 tau(   2) = (   3.2906075   1.4906267   6.0002472  )
         3           O1  tau(   3) = (   0.0006271   0.0005054   7.9858123  )
         4           O1  tau(   4) = (   3.2906025   0.0005020   7.3038282  )
         5           O1  tau(   5) = (   4.5942328   1.4918067   9.2879030  )
         6           O1  tau(   6) = (   1.9868534   1.4903216   9.2879459  )
         7           Ti1 tau(   7) = (   3.2907910   2.8959150   9.1758416  )
         8           Ti1 tau(   8) = (   0.0015273   1.4827037   9.2680791  )
         9           O1  tau(   9) = (   3.3106937   0.0084137  11.2927479  )
        10           O1  tau(  10) = (   0.0116148   5.9584955  10.6183126  )
        11           O1  tau(  11) = (   1.3255326   1.5151957  12.5859258  )
        12           O1  tau(  12) = (   5.3246634   1.4871208  12.6441624  )
        13           Ti1 tau(  13) = (   6.5358624   2.9940264  12.7507449  )
        14           Ti1 tau(  14) = (   3.1828407   1.5032771  12.4528579  )
        15           O1  tau(  15) = (   0.1336207   0.0073438  14.6266748  )
        16           O1  tau(  16) = (   3.2550344   0.0288700  13.8306396  )
        17           O1  tau(  17) = (   4.6334483   1.5013943  15.9792279  )
        18           O1  tau(  18) = (   2.1409664   1.5470880  15.9954950  )
        19           Ti1 tau(  19) = (   3.4798582   3.0305884  15.6593850  )
        20           Ti1 tau(  20) = (   0.1386493   1.3724552  15.8613965  )
        21           O1  tau(  21) = (   3.2904802   0.0005063   4.7018136  )
        22           O1  tau(  22) = (   0.1429122   0.0333940  17.1908172  )
        23           O1  tau(  23) = (   1.3043587   1.4918075   6.0039043  )
        24           O1  tau(  24) = (   5.2767064   1.4903225   6.0039473  )
        25           Ti1 tau(  25) = (   0.0000382   5.9609847   6.0000000  )
        26           Ti1 tau(  26) = (   3.2902200   4.4714249   6.0002472  )
        27           O1  tau(  27) = (   0.0002396   2.9813036   7.9858123  )
        28           O1  tau(  28) = (   3.2902150   2.9813002   7.3038282  )
        29           O1  tau(  29) = (   4.5938453   4.4726049   9.2879030  )
        30           O1  tau(  30) = (   1.9864658   4.4711199   9.2879459  )
        31           Ti1 tau(  31) = (   3.2891106   5.8743827   9.1763621  )
        32           Ti1 tau(  32) = (   0.0006254   4.4649316   9.2693709  )
        33           O1  tau(  33) = (   3.3137399   2.9960163  11.2943833  )
        34           O1  tau(  34) = (   0.0092240   2.9805883  10.6323155  )
        35           O1  tau(  35) = (   1.3234708   4.4688006  12.5930975  )
        36           O1  tau(  36) = (   5.3222282   4.4932535  12.6449723  )
        37           Ti1 tau(  37) = (   6.5041614   0.0053836  12.5833808  )
        38           Ti1 tau(  38) = (   3.1843229   4.4812189  12.4522442  )
        39           O1  tau(  39) = (   0.0584892   2.9792810  14.6723703  )
        40           O1  tau(  40) = (   3.3232524   2.9928384  13.8523860  )
        41           O1  tau(  41) = (   4.6237859   4.5837569  15.7472905  )
        42           O1  tau(  42) = (   2.1882403   4.4693611  16.1038286  )
        43           Ti1 tau(  43) = (   3.3015484   0.0242660  15.6383815  )
        44           Ti1 tau(  44) = (   0.0181797   4.4930750  16.1931172  )
        45           O1  tau(  45) = (   3.2900926   2.9813045   4.7018136  )
        46           O1  tau(  46) = (   1.3039711   4.4726057   6.0039043  )
        47           O1  tau(  47) = (   5.2763189   4.4711207   6.0039473  )
        48           N1  tau(  48) = (   0.2677213   2.8760844  17.5655548  )
        49           C1  tau(  49) = (   1.2271684   2.7639891  18.6598760  )
        50           H1  tau(  50) = (   1.2930054   3.7106696  19.2072709  )
        51           H1  tau(  51) = (   0.8976878   1.9730418  19.3402421  )
        52           H1  tau(  52) = (   2.2102292   2.4972526  18.2850250  )
        53           N1  tau(  53) = (   5.6732178   3.4927010  17.8452151  )
        54           H1  tau(  54) = (   5.7345573   4.0058295  18.7343860  )

     number of k points=    10  Fermi-Dirac smearing, width (Ry)=  0.0073
                       cart. coord. in units 2pi/alat
        k(    1) = (   0.0000000   0.0000000   0.0000000), wk =   0.0625000
        k(    2) = (   0.0000000   0.0419351   0.0000000), wk =   0.1250000
        k(    3) = (   0.0000000  -0.0838702   0.0000000), wk =   0.0625000
        k(    4) = (   0.0379955   0.0000049   0.0000000), wk =   0.1250000
        k(    5) = (   0.0379955   0.0419400   0.0000000), wk =   0.1250000
        k(    6) = (   0.0379955  -0.0838652   0.0000000), wk =   0.1250000
        k(    7) = (   0.0379955  -0.0419301   0.0000000), wk =   0.1250000
[...]
     atom  20 (R=0.746)  charge=  8.0960  magn=  0.0000
     atom  21 (R=0.746)  charge=  4.9490  magn=  0.0002
     atom  22 (R=0.746)  charge=  5.0409  magn=  0.0001
     atom  23 (R=0.746)  charge=  5.0611  magn=  0.0005
     atom  24 (R=0.746)  charge=  5.0612  magn=  0.0005
     atom  25 (R=0.746)  charge=  8.1022  magn= -0.0037
     atom  26 (R=0.746)  charge=  8.0882  magn= -0.0002
     atom  27 (R=0.746)  charge=  5.0670  magn=  0.0003
     atom  28 (R=0.746)  charge=  5.1052  magn=  0.0000
     atom  29 (R=0.746)  charge=  5.0714  magn=  0.0000
     atom  30 (R=0.746)  charge=  5.0726  magn=  0.0000
     atom  31 (R=0.746)  charge=  8.0844  magn= -0.0001
     atom  32 (R=0.746)  charge=  8.0704  magn= -0.0006
     atom  33 (R=0.746)  charge=  5.0889  magn=  0.0000
     atom  34 (R=0.746)  charge=  5.0199  magn=  0.0000
     atom  35 (R=0.746)  charge=  5.0760  magn= -0.0000
     atom  36 (R=0.746)  charge=  5.0724  magn=  0.0000
     atom  37 (R=0.746)  charge=  8.0776  magn= -0.0001
     atom  38 (R=0.746)  charge=  8.0890  magn= -0.0000
     atom  39 (R=0.746)  charge=  5.0527  magn=  0.0000
     atom  40 (R=0.746)  charge=  5.0891  magn= -0.0000
     atom  41 (R=0.746)  charge=  5.0851  magn=  0.0000
     atom  42 (R=0.746)  charge=  5.0438  magn=  0.0000
     atom  43 (R=0.746)  charge=  8.1144  magn=  0.0000
     atom  44 (R=0.746)  charge=  8.1352  magn=  0.0007
     atom  45 (R=0.746)  charge=  4.9490  magn=  0.0002
     atom  46 (R=0.746)  charge=  5.0611  magn=  0.0005
     atom  47 (R=0.746)  charge=  5.0612  magn=  0.0005
     atom  48 (R=0.424)  charge=  1.3499  magn=  0.0005
     atom  49 (R=0.448)  charge=  0.8422  magn=  0.0000
     atom  50 (R=0.424)  charge=  0.4506  magn=  0.0000
     atom  51 (R=0.424)  charge=  0.4492  magn=  0.0000
     atom  52 (R=0.424)  charge=  0.4559  magn= -0.0000
     atom  53 (R=0.424)  charge=  1.3504  magn=  0.0005
     atom  54 (R=0.424)  charge=  0.4593  magn=  0.0000

     End of self-consistent calculation

 ------ SPIN UP ------------

          k = 0.0000 0.0000 0.0000 ( 18029 PWs)   bands (ev):

   -56.0188 -55.9848 -55.8039 -55.7650 -55.7237 -55.6893 -55.6630 -55.6386
   -55.6288 -55.6039 -55.5756 -55.4958 -55.2408 -54.9184 -54.8844 -54.7890
   -32.4873 -32.3459 -32.3123 -32.2891 -32.1902 -32.1727 -32.1657 -32.1281
   -32.1100 -32.0986 -32.0787 -32.0447 -32.0212 -31.9814 -31.9746 -31.9727
   -31.9405 -31.9305 -31.9196 -31.8949 -31.8864 -31.8687 -31.8625 -31.8587
   -31.8387 -31.8368 -31.8283 -31.8242 -31.8180 -31.8014 -31.7936 -31.7926
   -31.7756 -31.7512 -31.6920 -31.6647 -31.6163 -31.4673 -31.4642 -31.3218
   -31.2424 -31.2195 -31.2060 -31.1389 -31.0530 -30.9933 -30.9418 -30.9133
   -17.3096 -16.5585 -16.3679 -16.0779 -15.9268 -15.9074 -15.7879 -15.6909
   -15.6133 -15.5139 -15.4604 -15.4059 -15.3941 -15.3682 -15.3096 -15.2876
   -15.2463 -15.2288 -15.1863 -15.1755 -15.1298 -15.1077 -15.0850 -15.0511
   -14.9859 -14.9156 -14.9029 -14.7468 -14.6071 -14.4547 -13.4198 -13.3049
   -11.5518  -8.3370  -5.0143  -4.0113  -3.9451  -3.8751  -3.8418  -3.7735
    -3.6922  -3.4412  -3.4180  -3.3574  -3.0700  -3.0226  -2.9986  -2.9941
    -2.8962  -2.7567  -2.7260  -2.6661  -2.6603  -2.6396  -2.6199  -2.6029
    -2.5458  -2.4901  -2.4734  -2.4318  -2.2970  -2.2711  -2.2669  -2.2449
    -2.1748  -2.1656  -2.1011  -2.0835  -2.0609  -2.0423  -2.0054  -1.8724
    -1.8389  -1.7740  -1.6927  -1.6036  -1.5238  -1.4881  -1.4005  -1.3858
    -1.3386  -1.2602  -1.2540  -1.1779  -1.1452  -1.0699  -1.0441  -1.0066
    -0.8979  -0.8704  -0.8122  -0.7550  -0.7101  -0.6969  -0.6555  -0.6311
    -0.6256  -0.6108  -0.5979  -0.4036  -0.3736  -0.2309  -0.1850  -0.1605
    -0.1198  -0.0970  -0.0385  -0.0151  -0.0097   0.0299   0.0481   0.0911
     0.1468   0.1614   0.1876   0.2811   0.3134   0.3682   0.4946   0.5082
     0.5960   0.6631   0.7691   0.7818   0.8332   0.9645   1.0605   1.0823
     1.1037   1.3090   1.4140   1.6676   1.7102   3.0242   3.1738   3.2713
     3.3761   3.4960   3.5708   3.6114   3.7840   3.8217   3.8644   3.9244

[...]

          k =-0.0760-0.0000 0.0000 ( 17886 PWs)   bands (ev):

[...]

 ------ SPIN DOWN ----------

[...]

          k = 0.0380-0.0419 0.0000 ( 17876 PWs)   bands (ev):

[...]

          k =-0.0760-0.0839 0.0000 ( 17948 PWs)   bands (ev):

   -56.0098 -56.0080 -55.7918 -55.7769 -55.7113 -55.7038 -55.6477 -55.6444
   -55.6254 -55.6174 -55.5716 -55.4996 -55.2403 -54.9018 -54.9017 -54.7887
   -32.3073 -32.3067 -32.3050 -32.3041 -32.1534 -32.1412 -32.1334 -32.1315
   -32.0498 -32.0370 -32.0268 -32.0235 -32.0165 -32.0134 -31.9701 -31.9646
   -31.9552 -31.9431 -31.9127 -31.9022 -31.8900 -31.8856 -31.8810 -31.8798
   -31.8752 -31.8711 -31.8550 -31.8495 -31.8437 -31.8400 -31.8349 -31.8164
   -31.7971 -31.7939 -31.7645 -31.7059 -31.6065 -31.4698 -31.4636 -31.2559
   -31.2328 -31.2327 -31.1354 -31.1352 -31.0965 -31.0964 -31.0045 -30.9164
   -17.2893 -15.9756 -15.9473 -15.8397 -15.8202 -15.7319 -15.7186 -15.6036
   -15.5959 -15.5831 -15.5168 -15.4710 -15.4604 -15.3784 -15.3516 -15.3401
   -15.3156 -15.3058 -15.2994 -15.2885 -15.2761 -15.1963 -15.1911 -15.1888
   -15.1136 -15.0908 -14.9049 -14.8615 -14.6638 -14.6178 -13.4068 -13.4065
   -11.5544  -8.3161  -5.0201  -3.9102  -3.8354  -3.2778  -3.2417  -3.0260
    -3.0001  -2.9796  -2.9504  -2.7656  -2.7518  -2.7455  -2.7281  -2.7151
    -2.6780  -2.6589  -2.6461  -2.5803  -2.5707  -2.5502  -2.5453  -2.5353
    -2.5165  -2.5012  -2.4934  -2.4738  -2.4592  -2.4146  -2.3601  -2.3375
    -2.2873  -2.1931  -2.0883  -2.0428  -2.0291  -2.0210  -1.9980  -1.9889
    -1.9483  -1.9356  -1.8496  -1.6655  -1.6179  -1.5567  -1.5507  -1.5418
    -1.4836  -1.4275  -1.3859  -1.3098  -1.2442  -1.1914  -1.1624  -1.1381
    -1.1031  -1.0367  -0.9707  -0.9510  -0.9384  -0.9092  -0.9059  -0.8877
    -0.8095  -0.7261  -0.6853  -0.6551  -0.6324  -0.6184  -0.6026  -0.5799
    -0.4730  -0.4047  -0.3569  -0.3115  -0.2693  -0.2270  -0.1086  -0.0936
     0.1010   0.1669   0.1921   0.2708   0.3677   0.3933   0.4038   0.4681
     0.5433   0.6059   0.6406   0.6952   0.7104   0.7317   0.7987   1.0141
     1.0693   1.4781   1.4797   1.5288   1.5297   2.9911   3.6706   3.6771
     3.6808   3.6905   3.7123   3.7361   3.7880   3.8230   3.9244   3.9451

     the Fermi energy is     3.1358 ev

!    total energy              =   -2940.35276294 Ry
     estimated scf accuracy    <       0.00000007 Ry
     smearing contrib. (-TS)   =      -0.01868786 Ry
     internal energy E=F+TS    =   -2940.33407508 Ry

     The total energy is F=E-TS. E is the sum of the following terms:
     one-electron contribution =  -24661.69769474 Ry
     hartree contribution      =   12419.99001439 Ry
     xc contribution           =    -486.05116900 Ry
     ewald contribution        =    9787.42374220 Ry
     electric field correction =       0.00103207 Ry

     total magnetization       =    -0.01 Bohr mag/cell
     absolute magnetization    =     0.02 Bohr mag/cell

     convergence has been achieved in  95 iterations

     Forces acting on atoms (cartesian axes, Ry/au):

     atom    1 type  1   force =     0.00023524   -0.00036590    0.10154030
     atom    2 type  1   force =     0.00001547   -0.00086240   -0.17140179
     atom    3 type  2   force =     0.00029087    0.00021794   -0.03326077
     atom    4 type  2   force =     0.00003261   -0.00078749    0.04482567
     atom    5 type  2   force =    -0.01194398   -0.00021373   -0.00231654
     atom    6 type  2   force =     0.01437743    0.00038046   -0.00111861
     atom    7 type  1   force =     0.00140281   -0.00131052   -0.00428809
     atom    8 type  1   force =    -0.00077097    0.02219710    0.05620592
     atom    9 type  2   force =     0.00002863   -0.00032743    0.00046796
     atom   10 type  2   force =    -0.00266617    0.00207181   -0.02592765
     atom   11 type  2   force =     0.00003671    0.00024583   -0.00006514
     atom   12 type  2   force =     0.00009042    0.00073484    0.00001307
     atom   13 type  1   force =    -0.00004083    0.00014330    0.00022136
     atom   14 type  1   force =     0.00028473    0.00030189   -0.00001168
     atom   15 type  2   force =     0.00019321   -0.00022720   -0.00001578
     atom   16 type  2   force =    -0.00002120   -0.00013516    0.00075833
     atom   17 type  2   force =    -0.00011638   -0.00078003    0.00003583
     atom   18 type  2   force =     0.00051369   -0.00071991    0.00029042
     atom   19 type  1   force =    -0.00011492   -0.00049448    0.00019793
     atom   20 type  1   force =     0.00000109    0.00011555   -0.00018465
     atom   21 type  2   force =     0.00006395   -0.00001031    0.10209470
     atom   22 type  2   force =    -0.00001084   -0.00028937    0.00035393
     atom   23 type  2   force =    -0.07328876   -0.00015886   -0.02887392
     atom   24 type  2   force =     0.07323980    0.00033495   -0.02892166
     atom   25 type  1   force =    -0.00027106   -0.00029904    0.10197950
     atom   26 type  1   force =     0.00003391   -0.00020231   -0.17140243
     atom   27 type  2   force =     0.00036480   -0.00023009   -0.03197454
     atom   28 type  2   force =     0.00009266   -0.00057414    0.04544409
     atom   29 type  2   force =    -0.01209152    0.00212872   -0.00287326
     atom   30 type  2   force =     0.01440349    0.00228976   -0.00161663
     atom   31 type  1   force =     0.00158561    0.00092839   -0.00559035
     atom   32 type  1   force =    -0.00059752   -0.02475994    0.05723691
     atom   33 type  2   force =     0.00015180    0.00036002    0.00062764
     atom   34 type  2   force =    -0.00420745    0.00211939   -0.04831509
     atom   35 type  2   force =     0.00062682   -0.00058520    0.00000516
     atom   36 type  2   force =    -0.00040367   -0.00074805    0.00013271
     atom   37 type  1   force =     0.00005657    0.00061894   -0.00005609
     atom   38 type  1   force =     0.00004228   -0.00011720   -0.00014599
     atom   39 type  2   force =     0.00018700   -0.00003125   -0.00068169
     atom   40 type  2   force =    -0.00008173   -0.00003372   -0.00034627
     atom   41 type  2   force =     0.00004599    0.00048264   -0.00005985
     atom   42 type  2   force =     0.00002660    0.00036914    0.00070805
     atom   43 type  1   force =    -0.00024466   -0.00010594    0.00014957
     atom   44 type  1   force =     0.00000516    0.00012571    0.00022462
     atom   45 type  2   force =     0.00004651   -0.00004907    0.10214899
     atom   46 type  2   force =    -0.07329646   -0.00009316   -0.02884451
     atom   47 type  2   force =     0.07324801    0.00028112   -0.02888205
     atom   48 type  3   force =    -0.00040911    0.00060394    0.00061393
     atom   49 type  4   force =    -0.00031860   -0.00050776   -0.00006001
     atom   50 type  5   force =    -0.00005146   -0.00021141   -0.00011492
     atom   51 type  5   force =    -0.00051249   -0.00045704    0.00051531
     atom   52 type  5   force =    -0.00020784   -0.00044771    0.00016568
     atom   53 type  3   force =    -0.00003057   -0.00052649    0.00079141
     atom   54 type  5   force =    -0.00002567   -0.00038908   -0.00039900

     Total force =     0.377785     Total SCF correction =     0.000677
  @ DRIVER MODE: Message from server: STATUS
  @ DRIVER MODE: Message from server: GETFORCE
  @ DRIVER MODE: Returning v,forces,stress,ensemble

     Writing output data file ./calc.save/
  @ DRIVER MODE: Message from server: STATUS
  @ DRIVER MODE: Message from server: INIT
  @ DRIVER MODE: Receiving replica           0           0
  @ DRIVER MODE: Receiving encoded integer           2
  @ DRIVER MODE:  SCF:  T  FORCE:  T  STRESS:  F  VC:  F  ENSEMBLE:  F
  @ DRIVER MODE:  SCF:  F  FORCE:  F  STRESS:  F  VC:  F  ENSEMBLE:  T
  @ DRIVER MODE: Message from server: STATUS
  @ DRIVER MODE: Message from server: POSDATA
  @ DRIVER MODE: Reading and sharing positions
  @ DRIVER MODE: Received positions
     NEW-OLD atomic charge density approx. for the potential

[...]

     Adding external electric field

     Computed dipole along edir(3) :
        Dipole                0.7395 Ry au,          1.8797 Debye
        Dipole field          0.0014 Ry au,

        Potential amp.       -0.1294 Ry
        Total length         46.3494 bohr

     Generating pointlists ...
  @ DRIVER MODE: BEEF-vdw

[...]

     negative rho (up, down):  8.758E-03 8.758E-03

     negative rho (up, down):  8.758E-03 8.758E-03
 BEEFens 2000 ensemble energies
             -0.348755443131390E+02
             -0.203326719494129E+01
             -0.718507881510607E+01
              0.242052805314916E+02
             -0.119737246507200E+02
             -0.927140370528224E+01
             -0.241800678036867E+02
             -0.505884266743665E+02
             -0.215705509996141E+02
             -0.227443494081333E+02
             -0.211343202727279E+02
              0.425869814558166E+01
              0.200854264371077E+01
             -0.106240255804505E+01
              0.173637267401774E+01
              0.266598913995459E+02
             -0.102737399105654E+02
             -0.726143411821694E+01
              0.118485141576083E+02
             -0.622638930059352E+02
              0.312341650291066E+02
             -0.134101072677172E+02
             -0.242015007279945E+01
             -0.561870229420988E+01
             -0.991883816548182E+00
             -0.213809209863523E+01
              0.482911897311696E+02
             -0.151184102266353E+02
             -0.402758724356841E+01
             -0.305726136464408E+02
              0.395007993715310E+02
             -0.436845913075240E+01
             -0.215064204401926E+02
              0.112780414937475E+02
             -0.206039914631288E+01
              0.131181708863951E+02
             -0.547445012498031E+00
              0.272570759701452E+01
              0.190693640341711E+02
             -0.549605389145507E+02
              0.306175223186080E+02
              0.816727153980625E+01
             -0.628215611639732E+01
             -0.175682867184435E+02
              0.694187097508504E+01
             -0.109853344348406E+02
              0.250628640449638E+02
              0.200007397659060E+02
             -0.128972863715098E+02
             -0.164802644255759E+02
             -0.174400232092258E+02
             -0.209051596583220E+02
              0.106228257239162E+02
             -0.272442415640784E+02
              0.833517562172210E+01
              0.347924561259152E+02
              0.401357342847187E+02
              0.186783766198763E+02
              0.833589172419067E+01
              0.174322230688654E+02
[...]
             -0.410460033167869E+02
              0.278758195728068E+01
             -0.146760170974943E+01
             -0.571848972110621E+01
              0.595036797832904E-01
             -0.365414758242681E+02
             -0.705607146327050E+01
              0.494633681028362E+01
              0.745051244009930E+01
              0.273934122885691E+02
             -0.239511396454652E+02
              0.312137748206454E+02
             -0.223602588952820E+02
              0.143705907157308E+02
              0.226319815874812E+02

 BEEF-vdW xc energy contributions
           1 :   -411.814749507470
           2 :    358.934000860584
           3 :   -273.489849234541
           4 :    184.139512039211
           5 :   -113.836181283371
           6 :    71.7697555190195
           7 :   -54.2322144313913
           8 :    51.0753343730451
           9 :   -52.7430861979504
          10 :    53.9351376752527
          11 :   -53.4397519634968
          12 :    51.8472001002768
          13 :   -49.6131040889218
          14 :    46.4917681340048
          15 :   -42.1245174968165
          16 :    36.7080297967985
          17 :   -31.1517564014924
          18 :    26.6128680935641
          19 :   -23.9069026554462
          20 :    23.1491395004817
          21 :   -23.8513729264828
          22 :    25.2533721263251
          23 :   -26.6672106117192
          24 :    27.6042190140847
          25 :   -27.7644822931573
          26 :    26.9739034496636
          27 :   -25.2063876018731
          28 :    22.6452786658787
          29 :   -19.7356188939216
          30 :    17.0872535685512
          31 :   -48.4590513544870
          32 :   -32.9468779951132
  @ DRIVER MODE: Message from server: STATUS
  @ DRIVER MODE: Message from server: GETFORCE
  @ DRIVER MODE: Returning v,forces,stress,ensemble
  @ DRIVE MODE: Returning Ensemble Energies

     Writing output data file ./calc.save/
  @ DRIVER MODE: Message from server: EXIT
  @ DRIVE MODE: Exiting

     General routines

     Parallel routines

   This run was terminated on:  16:34:20  30Jun2021

   JOB DONE.