     Program PWSCF v.6.7GPU starts on 30Sep2021 at 16:49:10

     R & G space division:  proc/nbgrp/npool/nimage =       8
     Reading input from /storage/home/hcoda1/3/ntian30/research/carbon/CxH_vib/pristine/ads_slab/CH2N2_h/out_0013/pw.inp
Warning: card &CELL ignored
Warning: card   CELL_DYNAMICS='IPI', ignored
Warning: card / ignored

     Current dimensions of program PWSCF are:
     Max number of different atomic species (ntypx) = 10
     Max number of k-points (npk) =  40000
     Max angular momentum in pseudopotentials (lmaxx) =  3
     Presently no symmetry can be used with electric field

     Message from routine cell_base_init:
     DEPRECATED: use true lattice parameter, not A to a.u. conversion factor

     IMPORTANT: XC functional enforced from input :
     Exchange-correlation= BEEF-VDW
                           (   1   4  43  14   2   0   0)
     Any further DFT definition will be discarded
     Please, verify this is what you really want

  @ DRIVER MODE: Connecting to
 qe_1139763_3035237.sched-torque.pace.gatech.edutch16c4j_scratch
  using UNIX socket
  @ DRIVER MODE: Message from server: STATUS
  @ DRIVER MODE: Message from server: INIT
  @ DRIVER MODE: Receiving replica           0          -1
  @ DRIVER MODE: Receiving encoded integer          25
  @ DRIVER MODE:  SCF:  T  FORCE:  T  STRESS:  F  VC:  F  ENSEMBLE:  F
  @ DRIVER MODE:  SCF:  T  FORCE:  T  STRESS:  F  VC:  F  ENSEMBLE:  F

     Using Slab Decomposition

     bravais-lattice index     =            0
     lattice parameter (alat)  =       1.8897  a.u.
     unit-cell volume          =    6658.9804 (a.u.)^3
     number of atoms/cell      =           53
     number of atomic types    =            5
     number of electrons       =       400.00
     number of Kohn-Sham states=          210
     kinetic-energy cutoff     =      29.3995  Ry
     charge density cutoff     =     293.9946  Ry
     scf convergence threshold =      7.3E-08
     mixing beta               =       0.0500
     number of iterations used =            8  plain     mixing
     Exchange-correlation= BEEF-VDW
                           (   1   4  43  14   2   0   0)

     celldm(1)=   1.889726  celldm(2)=   0.000000  celldm(3)=   0.000000
     celldm(4)=   0.000000  celldm(5)=   0.000000  celldm(6)=   0.000000

     crystal axes: (cart. coord. in units of alat)
               a(1) = (   6.579727   0.000000   0.000000 )
               a(2) = (  -0.000775   5.961596   0.000000 )
               a(3) = (   0.000000   0.000000  25.155947 )

     reciprocal axes: (cart. coord. in units 2 pi/alat)
               b(1) = (  0.151982  0.000020  0.000000 )
               b(2) = (  0.000000  0.167740  0.000000 )
               b(3) = (  0.000000  0.000000  0.039752 )

     PseudoPot. # 1 for Ti read from file:
     /storage/coda1/p-amedford6/0/shared/rich_project_chbe-medford/medford-share/data/pseudos_module/espresso/nninc/pbe/van/Ti.UPF
     MD5 check sum: 8e4df49b7f0d34bbd5052bf3f5ea0213
     Pseudo is Ultrasoft, Zval = 12.0
     Generated by new atomic code, or converted to UPF format
     Using radial grid of  851 points,  6 beta functions with:
                l(1) =   0
                l(2) =   0
                l(3) =   1
                l(4) =   1
                l(5) =   2
                l(6) =   2
     Q(r) pseudized with  8 coefficients,  rinner =    1.000   1.000   1.000
                                                       1.000   1.000

     PseudoPot. # 2 for O  read from file:
     /storage/coda1/p-amedford6/0/shared/rich_project_chbe-medford/medford-share/data/pseudos_module/espresso/nninc/pbe/van/O.UPF
     MD5 check sum: 78c19812648e8988a0fe644b0f25305e
     Pseudo is Ultrasoft, Zval =  6.0
     Generated by new atomic code, or converted to UPF format
     Using radial grid of  737 points,  4 beta functions with:
                l(1) =   0
                l(2) =   0
                l(3) =   1
                l(4) =   1
     Q(r) pseudized with  8 coefficients,  rinner =    0.800   0.800   0.800

     PseudoPot. # 3 for N  read from file:
     /storage/coda1/p-amedford6/0/shared/rich_project_chbe-medford/medford-share/data/pseudos_module/espresso/nninc/pbe/van/N.UPF
     MD5 check sum: 90d10febe142ad51ac9d5be1deb811c4
     Pseudo is Ultrasoft, Zval =  5.0
     Generated by new atomic code, or converted to UPF format
     Using radial grid of  729 points,  4 beta functions with:
                l(1) =   0
                l(2) =   0
                l(3) =   1
                l(4) =   1
     Q(r) pseudized with  8 coefficients,  rinner =    0.800   0.800   0.800

     PseudoPot. # 4 for C  read from file:
     /storage/coda1/p-amedford6/0/shared/rich_project_chbe-medford/medford-share/data/pseudos_module/espresso/nninc/pbe/van/C.UPF
     MD5 check sum: 1a69bf6b8db32088f5b2163dbdb77a27
     Pseudo is Ultrasoft, Zval =  4.0
     Generated by new atomic code, or converted to UPF format
     Using radial grid of  721 points,  4 beta functions with:
                l(1) =   0
                l(2) =   0
                l(3) =   1
                l(4) =   1
     Q(r) pseudized with  8 coefficients,  rinner =    0.800   0.800   0.800

     PseudoPot. # 5 for H  read from file:
     /storage/coda1/p-amedford6/0/shared/rich_project_chbe-medford/medford-share/data/pseudos_module/espresso/nninc/pbe/van/H.UPF
     MD5 check sum: b5ee9d7bfd3a09ee7748110bda690ff7
     Pseudo is Ultrasoft, Zval =  1.0
     Generated by new atomic code, or converted to UPF format
     Using radial grid of  615 points,  1 beta functions with:
                l(1) =   0
     Q(r) pseudized with  8 coefficients,  rinner =    0.800

     atomic species   valence    mass     pseudopotential
        Ti1           12.00    47.86700     Ti( 1.00)
        O1             6.00    15.99900     O ( 1.00)
        N1             5.00    14.00700     N ( 1.00)
        C1             4.00    12.01100     C ( 1.00)
        H1             1.00     1.00800     H ( 1.00)

     No symmetry found

   Cartesian axes

     site n.     atom                  positions (alat units)
         1           Ti1 tau(   1) = (   0.0004258   2.9801865   6.0000000  )
         2           Ti1 tau(   2) = (   3.2906075   1.4906267   6.0002472  )
         3           O1  tau(   3) = (   0.0006271   0.0005054   7.9858123  )
         4           O1  tau(   4) = (   3.2906025   0.0005020   7.3038282  )
         5           O1  tau(   5) = (   4.5942328   1.4918067   9.2879030  )
         6           O1  tau(   6) = (   1.9868534   1.4903216   9.2879459  )
         7           Ti1 tau(   7) = (   3.2940346   2.8698074   9.1684565  )
         8           Ti1 tau(   8) = (   0.0030225   1.4329613   9.3767462  )
         9           O1  tau(   9) = (   3.2994152   5.9581457  11.3549906  )
        10           O1  tau(  10) = (   6.5730281   5.9481945  10.5612412  )
        11           O1  tau(  11) = (   1.2782729   1.4799297  12.6138410  )
        12           O1  tau(  12) = (   5.2754995   1.4800591  12.6632238  )
        13           Ti1 tau(  13) = (   0.0766946   2.9556037  12.8068061  )
        14           Ti1 tau(  14) = (   3.3903493   1.4788161  12.4952579  )
        15           O1  tau(  15) = (   0.0876507   5.9454885  14.6519752  )
        16           O1  tau(  16) = (   3.2436869   5.9606251  13.9358461  )
        17           O1  tau(  17) = (   4.5879952   1.4894255  15.9985222  )
        18           O1  tau(  18) = (   2.0927145   1.4923104  16.0778241  )
        19           Ti1 tau(  19) = (   3.3818532   2.9747944  15.7863222  )
        20           Ti1 tau(  20) = (   0.1331232   1.5076923  16.1442520  )
        21           O1  tau(  21) = (   3.2904802   0.0005063   4.7018136  )
        22           O1  tau(  22) = (   6.5571263   5.9613239  17.2084283  )
        23           O1  tau(  23) = (   1.3043587   1.4918075   6.0039043  )
        24           O1  tau(  24) = (   5.2767064   1.4903225   6.0039473  )
        25           Ti1 tau(  25) = (   0.0000382   5.9609847   6.0000000  )
        26           Ti1 tau(  26) = (   3.2902200   4.4714249   6.0002472  )
        27           O1  tau(  27) = (   0.0002396   2.9813036   7.9858123  )
        28           O1  tau(  28) = (   3.2902150   2.9813002   7.3038282  )
        29           O1  tau(  29) = (   4.5938453   4.4726049   9.2879030  )
        30           O1  tau(  30) = (   1.9864658   4.4711199   9.2879459  )
        31           Ti1 tau(  31) = (   3.2881238   5.8488574   9.1742270  )
        32           Ti1 tau(  32) = (   0.0015652   4.4122313   9.3797820  )
        33           O1  tau(  33) = (   3.3067820   2.9727102  11.3461643  )
        34           O1  tau(  34) = (   6.5709248   2.9657579  10.5611975  )
        35           O1  tau(  35) = (   1.2701395   4.4574477  12.6080355  )
        36           O1  tau(  36) = (   5.2774107   4.4662555  12.6593532  )
        37           Ti1 tau(  37) = (   0.0866433   5.9395267  12.8007823  )
        38           Ti1 tau(  38) = (   3.3983582   4.4424157  12.5219168  )
        39           O1  tau(  39) = (   0.0671811   2.9517497  14.6463865  )
        40           O1  tau(  40) = (   3.2450650   3.0047677  13.9292835  )
        41           O1  tau(  41) = (   4.5850435   4.4841338  15.8299482  )
        42           O1  tau(  42) = (   2.0023688   4.4342503  16.0865826  )
        43           Ti1 tau(  43) = (   3.3875004   0.1080243  15.7411054  )
        44           Ti1 tau(  44) = (   6.4704293   4.4893485  16.1236300  )
        45           O1  tau(  45) = (   3.2900926   2.9813045   4.7018136  )
        46           O1  tau(  46) = (   6.5000697   2.9773305  17.2009514  )
        47           O1  tau(  47) = (   1.3039711   4.4726057   6.0039043  )
        48           O1  tau(  48) = (   5.2763189   4.4711207   6.0039473  )
        49           N1  tau(  49) = (   3.1734193   5.1894584  17.8228359  )
        50           N1  tau(  50) = (   2.5368264   4.0434087  17.4457212  )
        51           C1  tau(  51) = (   3.6185828   5.3156434  19.0144592  )
        52           H1  tau(  52) = (   3.4938138   4.5389551  19.7603617  )
        53           H1  tau(  53) = (   4.1761532   0.2557294  19.2464809  )

     number of k points=    10  Fermi-Dirac smearing, width (Ry)=  0.0073
                       cart. coord. in units 2pi/alat
        k(    1) = (   0.0000000   0.0000000   0.0000000), wk =   0.1250000
        k(    2) = (   0.0000000   0.0419351   0.0000000), wk =   0.2500000
        k(    3) = (   0.0000000  -0.0838702   0.0000000), wk =   0.1250000
        k(    4) = (   0.0379955   0.0000049   0.0000000), wk =   0.2500000
        k(    5) = (   0.0379955   0.0419400   0.0000000), wk =   0.2500000
        k(    6) = (   0.0379955  -0.0838652   0.0000000), wk =   0.2500000
        k(    7) = (   0.0379955  -0.0419301   0.0000000), wk =   0.2500000
        k(    8) = (  -0.0759910  -0.0000099   0.0000000), wk =   0.1250000
        k(    9) = (  -0.0759910   0.0419252   0.0000000), wk =   0.2500000
        k(   10) = (  -0.0759910  -0.0838800   0.0000000), wk =   0.1250000

     Initial potential from superposition of free atoms

     starting charge  383.99917, renormalised to  400.00000

     negative rho (up, down):  1.731E-02 0.000E+00

     %%%%%%%%%%%%%%%%%%%%%%%%%%%%%%%%%%%%%%%%%%%%%%%%%%%%%%%%%%%%%%%%%%%%%%%%
     %                                                                      %
     % You are using vdW-DF, which was implemented by the Thonhauser group. %
     % Please cite the following two papers that made this development      %
     % possible and the two reviews that describe the various versions:     %
     %                                                                      %
     %   T. Thonhauser et al., PRL 115, 136402 (2015).                      %
     %   T. Thonhauser et al., PRB 76, 125112 (2007).                       %
     %   K. Berland et al., Rep. Prog. Phys. 78, 066501 (2015).             %
     %   D.C. Langreth et al., J. Phys.: Condens. Matter 21, 084203 (2009). %
     %                                                                      %
     %                                                                      %
     % If you are calculating the stress with vdW-DF, please also cite:     %
     %                                                                      %
     %   R. Sabatini et al., J. Phys.: Condens. Matter 24, 424209 (2012).   %
     %                                                                      %
     %%%%%%%%%%%%%%%%%%%%%%%%%%%%%%%%%%%%%%%%%%%%%%%%%%%%%%%%%%%%%%%%%%%%%%%%

     Adding external electric field

     Computed dipole along edir(3) :
        Dipole               -9.1452 Ry au,        -23.2449 Debye
        Dipole field         -0.0173 Ry au,

        Potential amp.        1.5998 Ry
        Total length         46.3494 bohr

     Starting wfcs are  302 atomic wfcs
  @ DRIVER MODE: Message from server: STATUS
  @ DRIVER MODE: Message from server: POSDATA
  @ DRIVER MODE: Reading and sharing cell
  @ DRIVER MODE: Reading and sharing positions
  @ DRIVER MODE: Received positions

     Self-consistent Calculation

     iteration #  1     ecut=    29.40 Ry     beta= 0.05
     Davidson diagonalization with overlap
     c_bands:  1 eigenvalues not converged
     c_bands:  1 eigenvalues not converged
     c_bands:  2 eigenvalues not converged
     c_bands:  2 eigenvalues not converged
     c_bands:  1 eigenvalues not converged
     c_bands:  2 eigenvalues not converged
     c_bands:  1 eigenvalues not converged
     c_bands:  2 eigenvalues not converged
     ethr =  1.00E-05,  avg # of iterations = 20.0

[...]

     total energy              =   -2546.88724901 Ry
     estimated scf accuracy    <    4698.39221232 Ry

     iteration #  2     ecut=    29.40 Ry     beta= 0.05
     Davidson diagonalization with overlap
     ethr =  1.00E-02,  avg # of iterations = 23.1

[...]

     iteration # 41     ecut=    29.40 Ry     beta= 0.05
     Davidson diagonalization with overlap
     c_bands:  1 eigenvalues not converged
     ethr =  1.60E-07,  avg # of iterations =  7.4

[...]

     total energy              =   -2970.21525811 Ry
     estimated scf accuracy    <       0.00000015 Ry

     iteration # 60     ecut=    29.40 Ry     beta= 0.05
     Davidson diagonalization with overlap
     ethr =  3.75E-11,  avg # of iterations =  5.0

     negative rho (up, down):  1.738E-02 0.000E+00

     Adding external electric field

     Computed dipole along edir(3) :
        Dipole                0.6257 Ry au,          1.5904 Debye
        Dipole field          0.0012 Ry au,

        Potential amp.       -0.1095 Ry
        Total length         46.3494 bohr

     End of self-consistent calculation

          k = 0.0000 0.0000 0.0000 ( 18029 PWs)   bands (ev):

   -56.1818 -56.1482 -55.8551 -55.7944 -55.7560 -55.7293 -55.5838 -55.5563
   -55.5483 -55.5223 -55.4851 -55.4685 -55.4499 -55.4101 -54.9471 -54.9131
   -32.6084 -32.4303 -32.4024 -32.4022 -32.3727 -32.3193 -32.2817 -32.2354
   -32.1553 -32.1231 -32.0855 -32.0520 -32.0450 -32.0172 -32.0137 -31.9899
   -31.9729 -31.9599 -31.9551 -31.9520 -31.9169 -31.9077 -31.8319 -31.8210
   -31.8114 -31.7947 -31.7660 -31.7646 -31.7519 -31.7503 -31.7354 -31.7289
   -31.7137 -31.7061 -31.6935 -31.6709 -31.6625 -31.6573 -31.6423 -31.6215
   -31.5890 -31.5234 -31.3465 -31.2749 -31.2510 -31.1645 -31.0795 -30.9678
   -19.5633 -16.7513 -16.4714 -16.3459 -16.2344 -15.9714 -15.8532 -15.8243
   -15.6548 -15.5440 -15.5221 -15.5073 -15.4715 -15.4232 -15.3797 -15.3231
   -15.3055 -15.2655 -15.2323 -15.2039 -15.1835 -15.1612 -15.1385 -15.0812
   -15.0768 -14.9398 -14.8215 -14.8070 -14.7908 -14.7127 -14.7053 -13.4416
   -13.3284 -11.7771  -7.3011  -5.5442  -5.0067  -4.4878  -3.9219  -3.8304
    -3.7300  -3.6645  -3.5467  -3.3100  -3.2638  -3.1693  -3.0069  -2.9805
    -2.9018  -2.8694  -2.8369  -2.8152  -2.7583  -2.7135  -2.6805  -2.6506
    -2.6151  -2.5896  -2.5745  -2.5413  -2.4943  -2.4314  -2.4022  -2.3626
    -2.3249  -2.2557  -2.1768  -2.1351  -2.1207  -2.0913  -2.0525  -1.9975
    -1.9712  -1.9621  -1.8836  -1.8640  -1.7454  -1.7172  -1.6180  -1.6120
    -1.5157  -1.4605  -1.4349  -1.3881  -1.2303  -1.1847  -1.1410  -1.1111
    -1.0951  -1.0140  -0.9905  -0.9581  -0.7926  -0.7755  -0.7401  -0.7170
    -0.6724  -0.6313  -0.5905  -0.5622  -0.5113  -0.4518  -0.3800  -0.3330
    -0.2215  -0.1696  -0.0985  -0.0741  -0.0575  -0.0177   0.0377   0.0473
     0.0781   0.0787   0.1126   0.1598   0.1730   0.2399   0.2536   0.3257
     0.3536   0.3840   0.4607   0.5935   0.6370   0.6817   0.7804   0.7934
     0.9390   1.0382   1.0797   1.2963   1.3013   1.6635   1.7355   1.8600
     3.0913   3.2723   3.3304   3.5756   3.5985   3.6740   3.7096   3.8401
     3.9060   3.9605

[...]

          k = 0.0380-0.0419 0.0000 ( 17876 PWs)   bands (ev):

[...]

          k =-0.0760-0.0000 0.0000 ( 17886 PWs)   bands (ev):

[...]

          k =-0.0760-0.0839 0.0000 ( 17948 PWs)   bands (ev):

   -56.1654 -56.1644 -55.8524 -55.7827 -55.7676 -55.7318 -55.5699 -55.5621
   -55.5403 -55.5379 -55.4696 -55.4655 -55.4622 -55.4162 -54.9301 -54.9300
   -32.4263 -32.4256 -32.4166 -32.4152 -32.3260 -32.3250 -32.2808 -32.1397
   -32.1375 -32.1100 -32.0966 -32.0841 -32.0407 -32.0229 -32.0026 -31.9944
   -31.9781 -31.9182 -31.8852 -31.8781 -31.8695 -31.8657 -31.8107 -31.8091
   -31.7981 -31.7893 -31.7880 -31.7833 -31.7814 -31.7768 -31.7737 -31.7684
   -31.7511 -31.7483 -31.7289 -31.7246 -31.6847 -31.6816 -31.6739 -31.6691
   -31.6651 -31.6338 -31.2640 -31.2639 -31.1607 -31.1605 -31.1222 -31.1220
   -19.5350 -16.7218 -16.0220 -15.9420 -15.8878 -15.8137 -15.7930 -15.6853
   -15.6730 -15.6467 -15.6454 -15.5387 -15.5282 -15.5169 -15.4843 -15.3501
   -15.3423 -15.3080 -15.2988 -15.2441 -15.2334 -15.1259 -15.1231 -15.1149
   -15.1144 -15.0230 -15.0186 -14.9598 -14.9551 -14.8702 -14.8686 -13.4313
   -13.4304 -11.7763  -7.2945  -5.5368  -4.9165  -4.1361  -3.2386  -3.1541
    -3.0825  -3.0370  -2.9874  -2.9158  -2.8869  -2.8576  -2.7918  -2.7787
    -2.7612  -2.7532  -2.6709  -2.6646  -2.6374  -2.6262  -2.5951  -2.5833
    -2.5522  -2.5467  -2.5438  -2.5081  -2.4951  -2.4940  -2.4811  -2.4709
    -2.4005  -2.3974  -2.3674  -2.3535  -2.3266  -2.0916  -2.0625  -2.0602
    -1.9832  -1.9334  -1.8769  -1.8749  -1.8633  -1.8456  -1.6639  -1.5966
    -1.5643  -1.5405  -1.5091  -1.4809  -1.4494  -1.3358  -1.2968  -1.2255
    -1.2212  -1.1528  -1.0877  -1.0399  -1.0221  -0.9626  -0.9582  -0.9405
    -0.9205  -0.8919  -0.8688  -0.7992  -0.7729  -0.7108  -0.6469  -0.6336
    -0.5287  -0.4805  -0.4677  -0.4544  -0.4371  -0.4071  -0.2963  -0.2898
    -0.0688  -0.0130   0.0581   0.1182   0.1264   0.1781   0.2035   0.3028
     0.3429   0.5067   0.5144   0.5501   0.5864   0.7091   0.7121   0.7435
     0.7567   0.8292   0.8360   1.4665   1.4684   1.5173   1.5181   1.7775
     3.6012   3.6348   3.6384   3.6528   3.6883   3.6925   3.7347   3.7601
     3.9719   4.0208

     the Fermi energy is     2.5481 ev

!    total energy              =   -2970.21530469 Ry
     estimated scf accuracy    <       0.00000005 Ry
     smearing contrib. (-TS)   =      -0.00022219 Ry
     internal energy E=F+TS    =   -2970.21508250 Ry

     The total energy is F=E-TS. E is the sum of the following terms:
     one-electron contribution =  -24504.63464329 Ry
     hartree contribution      =   12342.86608799 Ry
     xc contribution           =    -491.70222844 Ry
     ewald contribution        =    9683.25496242 Ry
     electric field correction =       0.00073882 Ry

     convergence has been achieved in  60 iterations

     Forces acting on atoms (cartesian axes, Ry/au):

     atom    1 type  1   force =     0.00007343   -0.00004717    0.14747402
     atom    2 type  1   force =    -0.00008287   -0.00167913   -0.16800773
     atom    3 type  2   force =    -0.00002633    0.00211914   -0.05938274
     atom    4 type  2   force =    -0.00002350   -0.00154649    0.04196543
     atom    5 type  2   force =    -0.02139160    0.00022934    0.00301330
     atom    6 type  2   force =     0.02081048    0.00096923    0.00408304
     atom    7 type  1   force =    -0.00000214   -0.00126902    0.00046528
     atom    8 type  1   force =     0.00009083   -0.00084878   -0.00048035
     atom    9 type  2   force =     0.00001231   -0.00051352   -0.00024521
     atom   10 type  2   force =     0.00011694   -0.00020356    0.00034326
     atom   11 type  2   force =    -0.00081518   -0.00064651   -0.00052347
     atom   12 type  2   force =    -0.00006513   -0.00028110   -0.00077881
     atom   13 type  1   force =     0.00031226    0.00041977   -0.00050716
     atom   14 type  1   force =    -0.00072446   -0.00042836    0.00021147
     atom   15 type  2   force =    -0.00048392    0.00032059   -0.00103834
     atom   16 type  2   force =     0.00034350    0.00049843   -0.00071672
     atom   17 type  2   force =     0.00016063    0.00009346   -0.00001861
     atom   18 type  2   force =    -0.00071499   -0.00015388    0.00000359
     atom   19 type  1   force =     0.00109997   -0.00004119   -0.00088473
     atom   20 type  1   force =    -0.00050212   -0.00042981    0.00010965
     atom   21 type  2   force =     0.00004559   -0.00007273    0.10178754
     atom   22 type  2   force =     0.00040633    0.00067300    0.00066195
     atom   23 type  2   force =    -0.07552276    0.00024276   -0.03472173
     atom   24 type  2   force =     0.07548839    0.00069963   -0.03478057
     atom   25 type  1   force =     0.00006964   -0.00021080    0.14777543
     atom   26 type  1   force =    -0.00002392    0.00032667   -0.16804277
     atom   27 type  2   force =     0.00003527    0.00240463   -0.05905703
     atom   28 type  2   force =     0.00011342   -0.00132679    0.04060833
     atom   29 type  2   force =    -0.02167263    0.00009485    0.00330497
     atom   30 type  2   force =     0.02041801    0.00022658    0.00436188
     atom   31 type  1   force =     0.00003010    0.00073575    0.00050662
     atom   32 type  1   force =    -0.00015675    0.00037034   -0.00037107
     atom   33 type  2   force =    -0.00004658    0.00040344   -0.00034083
     atom   34 type  2   force =     0.00021342    0.00005272   -0.00003947
     atom   35 type  2   force =     0.00009355    0.00080711    0.00034766
     atom   36 type  2   force =    -0.00058348   -0.00004772   -0.00046633
     atom   37 type  1   force =     0.00028823   -0.00056841    0.00050789
     atom   38 type  1   force =    -0.00056666   -0.00054664    0.00011683
     atom   39 type  2   force =     0.00022660   -0.00039076    0.00092365
     atom   40 type  2   force =     0.00021653    0.00007166    0.00001903
     atom   41 type  2   force =     0.00046774   -0.00050026   -0.00003100
     atom   42 type  2   force =     0.00074452   -0.00001247    0.00126989
     atom   43 type  1   force =     0.00159282   -0.00047113   -0.00084839
     atom   44 type  1   force =     0.00036856    0.00056704   -0.00024151
     atom   45 type  2   force =     0.00004243   -0.00007861    0.10188506
     atom   46 type  2   force =     0.00006648   -0.00058051   -0.00001547
     atom   47 type  2   force =    -0.07554452    0.00003096   -0.03470542
     atom   48 type  2   force =     0.07549537    0.00045289   -0.03481018
     atom   49 type  3   force =    -0.00536652   -0.00152703   -0.00584983
     atom   50 type  3   force =    -0.00024993    0.00003210   -0.00129183
     atom   51 type  4   force =     0.01049223    0.00809744    0.00580224
     atom   52 type  5   force =    -0.00137533   -0.00180455    0.00075206
     atom   53 type  5   force =    -0.00399423   -0.00471260   -0.00010275

     Total force =     0.401316     Total SCF correction =     0.000711
  @ DRIVER MODE: Message from server: STATUS
  @ DRIVER MODE: Message from server: GETFORCE
  @ DRIVER MODE: Returning v,forces,stress,ensemble

     Writing output data file ./calc.save/
  @ DRIVER MODE: Message from server: EXIT
  @ DRIVE MODE: Exiting

     General routines

     Parallel routines

   This run was terminated on:  17: 9:19  30Sep2021

   JOB DONE.