     Program PWSCF v.6.7GPU starts on 23Aug2021 at 21:10: 0

     R & G space division:  proc/nbgrp/npool/nimage =       6
     Reading input from /storage/home/hcoda1/3/ntian30/research/carbon/CH2_vib/ads_slab/CH2N2H_a/out_0016/pw.inp
Warning: card &CELL ignored
Warning: card   CELL_DYNAMICS='IPI', ignored
Warning: card / ignored

     Current dimensions of program PWSCF are:
     Max number of different atomic species (ntypx) = 10
     Max number of k-points (npk) =  40000
     Max angular momentum in pseudopotentials (lmaxx) =  3
     Presently no symmetry can be used with electric field

     Message from routine cell_base_init:
     DEPRECATED: use true lattice parameter, not A to a.u. conversion factor

     IMPORTANT: XC functional enforced from input :
     Exchange-correlation= BEEF-VDW
                           (   1   4  43  14   2   0   0)
     Any further DFT definition will be discarded
     Please, verify this is what you really want

  @ DRIVER MODE: Connecting to
 qe_1139763_2632802.sched-torque.pace.gatech.eduo62o2fn5_scratch
  using UNIX socket
  @ DRIVER MODE: Message from server: STATUS
  @ DRIVER MODE: Message from server: INIT
  @ DRIVER MODE: Receiving replica           0          -1
  @ DRIVER MODE: Receiving encoded integer          25
  @ DRIVER MODE:  SCF:  T  FORCE:  T  STRESS:  F  VC:  F  ENSEMBLE:  F
  @ DRIVER MODE:  SCF:  T  FORCE:  T  STRESS:  F  VC:  F  ENSEMBLE:  F

     Using Slab Decomposition

     bravais-lattice index     =            0
     lattice parameter (alat)  =       1.8897  a.u.
     unit-cell volume          =    6658.9804 (a.u.)^3
     number of atoms/cell      =           53
     number of atomic types    =            5
     number of electrons       =       395.00
     number of Kohn-Sham states=          207
     kinetic-energy cutoff     =      29.3995  Ry
     charge density cutoff     =     293.9946  Ry
     scf convergence threshold =      7.3E-08
     mixing beta               =       0.0500
     number of iterations used =            8  plain     mixing
     Exchange-correlation= BEEF-VDW
                           (   1   4  43  14   2   0   0)

     celldm(1)=   1.889726  celldm(2)=   0.000000  celldm(3)=   0.000000
     celldm(4)=   0.000000  celldm(5)=   0.000000  celldm(6)=   0.000000

     crystal axes: (cart. coord. in units of alat)
               a(1) = (   6.579727   0.000000   0.000000 )
               a(2) = (  -0.000775   5.961596   0.000000 )
               a(3) = (   0.000000   0.000000  25.155947 )

     reciprocal axes: (cart. coord. in units 2 pi/alat)
               b(1) = (  0.151982  0.000020  0.000000 )
               b(2) = (  0.000000  0.167740  0.000000 )
               b(3) = (  0.000000  0.000000  0.039752 )

     PseudoPot. # 1 for Ti read from file:
     /storage/coda1/p-amedford6/0/shared/rich_project_chbe-medford/medford-share/data/pseudos_module/espresso/nninc/pbe/van/Ti.UPF
     MD5 check sum: 8e4df49b7f0d34bbd5052bf3f5ea0213
     Pseudo is Ultrasoft, Zval = 12.0
     Generated by new atomic code, or converted to UPF format
     Using radial grid of  851 points,  6 beta functions with:
                l(1) =   0
                l(2) =   0
                l(3) =   1
                l(4) =   1
                l(5) =   2
                l(6) =   2
     Q(r) pseudized with  8 coefficients,  rinner =    1.000   1.000   1.000
                                                       1.000   1.000

     PseudoPot. # 2 for O  read from file:
     /storage/coda1/p-amedford6/0/shared/rich_project_chbe-medford/medford-share/data/pseudos_module/espresso/nninc/pbe/van/O.UPF
     MD5 check sum: 78c19812648e8988a0fe644b0f25305e
     Pseudo is Ultrasoft, Zval =  6.0
     Generated by new atomic code, or converted to UPF format
     Using radial grid of  737 points,  4 beta functions with:
                l(1) =   0
                l(2) =   0
                l(3) =   1
                l(4) =   1
     Q(r) pseudized with  8 coefficients,  rinner =    0.800   0.800   0.800

     PseudoPot. # 3 for N  read from file:
     /storage/coda1/p-amedford6/0/shared/rich_project_chbe-medford/medford-share/data/pseudos_module/espresso/nninc/pbe/van/N.UPF
     MD5 check sum: 90d10febe142ad51ac9d5be1deb811c4
     Pseudo is Ultrasoft, Zval =  5.0
     Generated by new atomic code, or converted to UPF format
     Using radial grid of  729 points,  4 beta functions with:
                l(1) =   0
                l(2) =   0
                l(3) =   1
                l(4) =   1
     Q(r) pseudized with  8 coefficients,  rinner =    0.800   0.800   0.800

     PseudoPot. # 4 for C  read from file:
     /storage/coda1/p-amedford6/0/shared/rich_project_chbe-medford/medford-share/data/pseudos_module/espresso/nninc/pbe/van/C.UPF
     MD5 check sum: 1a69bf6b8db32088f5b2163dbdb77a27
     Pseudo is Ultrasoft, Zval =  4.0
     Generated by new atomic code, or converted to UPF format
     Using radial grid of  721 points,  4 beta functions with:
                l(1) =   0
                l(2) =   0
                l(3) =   1
                l(4) =   1
     Q(r) pseudized with  8 coefficients,  rinner =    0.800   0.800   0.800

     PseudoPot. # 5 for H  read from file:
     /storage/coda1/p-amedford6/0/shared/rich_project_chbe-medford/medford-share/data/pseudos_module/espresso/nninc/pbe/van/H.UPF
     MD5 check sum: b5ee9d7bfd3a09ee7748110bda690ff7
     Pseudo is Ultrasoft, Zval =  1.0
     Generated by new atomic code, or converted to UPF format
     Using radial grid of  615 points,  1 beta functions with:
                l(1) =   0
     Q(r) pseudized with  8 coefficients,  rinner =    0.800

     atomic species   valence    mass     pseudopotential
        Ti1           12.00    47.86700     Ti( 1.00)
        O1             6.00    15.99900     O ( 1.00)
        N1             5.00    14.00700     N ( 1.00)
        C1             4.00    12.01100     C ( 1.00)
        H1             1.00     1.00800     H ( 1.00)

     No symmetry found

   Cartesian axes

     site n.     atom                  positions (alat units)
         1           Ti1 tau(   1) = (   0.0004258   2.9801865   6.0000000  )
         2           Ti1 tau(   2) = (   3.2906075   1.4906267   6.0002472  )
         3           O1  tau(   3) = (   0.0006271   0.0005054   7.9858123  )
         4           O1  tau(   4) = (   3.2906025   0.0005020   7.3038282  )
         5           O1  tau(   5) = (   4.5942328   1.4918067   9.2879030  )
         6           O1  tau(   6) = (   1.9868534   1.4903216   9.2879459  )
         7           Ti1 tau(   7) = (   3.2907910   2.8959150   9.1758416  )
         8           Ti1 tau(   8) = (   0.0015273   1.4827037   9.2680791  )
         9           O1  tau(   9) = (   3.3007851   0.0027079  11.3193151  )
        10           O1  tau(  10) = (   0.0116148   5.9584955  10.6183126  )
        11           O1  tau(  11) = (   1.3147357   1.5019762  12.6210215  )
        12           O1  tau(  12) = (   5.3120411   1.4917641  12.6342566  )
        13           Ti1 tau(  13) = (   6.5359925   2.9538565  12.6086018  )
        14           Ti1 tau(  14) = (   3.2189980   1.4905645  12.4770757  )
        15           O1  tau(  15) = (   0.0426301   5.9606301  14.6312846  )
        16           O1  tau(  16) = (   3.3149351   0.0098317  13.8848037  )
        17           O1  tau(  17) = (   4.5523768   1.5206755  16.0744300  )
        18           O1  tau(  18) = (   2.0715852   1.4807026  15.9918588  )
        19           Ti1 tau(  19) = (   3.2935730   2.9941335  15.6827836  )
        20           Ti1 tau(  20) = (   0.0200723   1.3023755  15.9747514  )
        21           O1  tau(  21) = (   3.2904802   0.0005063   4.7018136  )
        22           O1  tau(  22) = (   6.5179923   0.0002674  17.1556216  )
        23           O1  tau(  23) = (   1.3043587   1.4918075   6.0039043  )
        24           O1  tau(  24) = (   5.2767064   1.4903225   6.0039473  )
        25           Ti1 tau(  25) = (   0.0000382   5.9609847   6.0000000  )
        26           Ti1 tau(  26) = (   3.2902200   4.4714249   6.0002472  )
        27           O1  tau(  27) = (   0.0002396   2.9813036   7.9858123  )
        28           O1  tau(  28) = (   3.2902150   2.9813002   7.3038282  )
        29           O1  tau(  29) = (   4.5938453   4.4726049   9.2879030  )
        30           O1  tau(  30) = (   1.9864658   4.4711199   9.2879459  )
        31           Ti1 tau(  31) = (   3.2891106   5.8743827   9.1763621  )
        32           Ti1 tau(  32) = (   0.0006254   4.4649316   9.2693709  )
        33           O1  tau(  33) = (   3.3053585   2.9833221  11.3185053  )
        34           O1  tau(  34) = (   0.0092240   2.9805883  10.6323155  )
        35           O1  tau(  35) = (   1.3157767   4.4721532  12.6203727  )
        36           O1  tau(  36) = (   5.3104355   4.4689601  12.6331991  )
        37           Ti1 tau(  37) = (   6.5385524   5.9338372  12.5465384  )
        38           Ti1 tau(  38) = (   3.2200853   4.4710709  12.4725482  )
        39           O1  tau(  39) = (   0.0068575   2.9964749  14.7765288  )
        40           O1  tau(  40) = (   3.3021705   2.9848394  13.8818356  )
        41           O1  tau(  41) = (   4.5334443   4.4765196  15.9883447  )
        42           O1  tau(  42) = (   2.0816803   4.4801587  16.0471567  )
        43           Ti1 tau(  43) = (   3.3155128   0.0116264  15.6901768  )
        44           Ti1 tau(  44) = (   6.5575601   4.4671909  15.9479714  )
        45           O1  tau(  45) = (   3.2900926   2.9813045   4.7018136  )
        46           O1  tau(  46) = (   1.3039711   4.4726057   6.0039043  )
        47           O1  tau(  47) = (   5.2763189   4.4711207   6.0039473  )
        48           N1  tau(  48) = (   0.4270260   2.3853988  17.9668900  )
        49           C1  tau(  49) = (   0.9469377   1.9340014  19.0583692  )
        50           H1  tau(  50) = (   1.0789317   2.5869861  19.9249762  )
        51           H1  tau(  51) = (   1.2326487   0.8959138  19.0941702  )
        52           N1  tau(  52) = (   0.0025679   3.6232397  17.7996529  )
        53           H1  tau(  53) = (   0.1020252   4.2324666  18.6151602  )

     number of k points=    10  Fermi-Dirac smearing, width (Ry)=  0.0073
                       cart. coord. in units 2pi/alat
        k(    1) = (   0.0000000   0.0000000   0.0000000), wk =   0.1250000
        k(    2) = (   0.0000000   0.0419351   0.0000000), wk =   0.2500000
        k(    3) = (   0.0000000  -0.0838702   0.0000000), wk =   0.1250000
        k(    4) = (   0.0379955   0.0000049   0.0000000), wk =   0.2500000
        k(    5) = (   0.0379955   0.0419400   0.0000000), wk =   0.2500000
        k(    6) = (   0.0379955  -0.0838652   0.0000000), wk =   0.2500000
        k(    7) = (   0.0379955  -0.0419301   0.0000000), wk =   0.2500000
        k(    8) = (  -0.0759910  -0.0000099   0.0000000), wk =   0.1250000
        k(    9) = (  -0.0759910   0.0419252   0.0000000), wk =   0.2500000
        k(   10) = (  -0.0759910  -0.0838800   0.0000000), wk =   0.1250000

     Initial potential from superposition of free atoms

     starting charge  378.99916, renormalised to  395.00000

     negative rho (up, down):  1.649E-02 0.000E+00

     %%%%%%%%%%%%%%%%%%%%%%%%%%%%%%%%%%%%%%%%%%%%%%%%%%%%%%%%%%%%%%%%%%%%%%%%
     %                                                                      %
     % You are using vdW-DF, which was implemented by the Thonhauser group. %
     % Please cite the following two papers that made this development      %
     % possible and the two reviews that describe the various versions:     %
     %                                                                      %
     %   T. Thonhauser et al., PRL 115, 136402 (2015).                      %
     %   T. Thonhauser et al., PRB 76, 125112 (2007).                       %
     %   K. Berland et al., Rep. Prog. Phys. 78, 066501 (2015).             %
     %   D.C. Langreth et al., J. Phys.: Condens. Matter 21, 084203 (2009). %
     %                                                                      %
     %                                                                      %
     % If you are calculating the stress with vdW-DF, please also cite:     %
     %                                                                      %
     %   R. Sabatini et al., J. Phys.: Condens. Matter 24, 424209 (2012).   %
     %                                                                      %
     %%%%%%%%%%%%%%%%%%%%%%%%%%%%%%%%%%%%%%%%%%%%%%%%%%%%%%%%%%%%%%%%%%%%%%%%

     Adding external electric field

     Computed dipole along edir(3) :
        Dipole               -8.3970 Ry au,        -21.3430 Debye
        Dipole field         -0.0158 Ry au,

        Potential amp.        1.4689 Ry
        Total length         46.3494 bohr

     Starting wfcs are  299 atomic wfcs
  @ DRIVER MODE: Message from server: STATUS
  @ DRIVER MODE: Message from server: POSDATA
  @ DRIVER MODE: Reading and sharing cell
  @ DRIVER MODE: Reading and sharing positions
  @ DRIVER MODE: Received positions

     Self-consistent Calculation

     iteration #  1     ecut=    29.40 Ry     beta= 0.05
     Davidson diagonalization with overlap
     c_bands:  2 eigenvalues not converged
     c_bands:  1 eigenvalues not converged
     c_bands:  2 eigenvalues not converged
     c_bands:  3 eigenvalues not converged
     c_bands:  3 eigenvalues not converged
     c_bands:  2 eigenvalues not converged
     c_bands:  1 eigenvalues not converged
     ethr =  1.00E-05,  avg # of iterations = 19.3

[...]

     total energy              =   -2613.95529787 Ry
     estimated scf accuracy    <    3601.32669580 Ry

[...]

     iteration #  3     ecut=    29.40 Ry     beta= 0.05
     Davidson diagonalization with overlap
     ethr =  1.00E-02,  avg # of iterations = 14.6

[...]

     iteration # 64     ecut=    29.40 Ry     beta= 0.05
     Davidson diagonalization with overlap
     c_bands:  1 eigenvalues not converged
     ethr =  2.02E-10,  avg # of iterations = 11.1

[...]

     total energy              =   -2939.13536777 Ry
     estimated scf accuracy    <       0.00000010 Ry

     iteration # 69     ecut=    29.40 Ry     beta= 0.05
     Davidson diagonalization with overlap
     ethr =  2.44E-11,  avg # of iterations =  9.4

     negative rho (up, down):  1.680E-02 0.000E+00

     Adding external electric field

     Computed dipole along edir(3) :
        Dipole                0.7860 Ry au,          1.9978 Debye
        Dipole field          0.0015 Ry au,

        Potential amp.       -0.1375 Ry
        Total length         46.3494 bohr

     End of self-consistent calculation

          k = 0.0000 0.0000 0.0000 ( 18029 PWs)   bands (ev):

   -55.8533 -55.8522 -55.8193 -55.8162 -55.7465 -55.7034 -55.6658 -55.6639
   -55.6308 -55.6300 -55.6253 -55.5916 -55.1907 -55.1448 -54.8288 -54.7948
   -32.4063 -32.3362 -32.2422 -32.1639 -32.1500 -32.1455 -32.1317 -32.1171
   -32.0964 -32.0832 -32.0303 -32.0125 -32.0057 -32.0040 -31.9940 -31.9903
   -31.9581 -31.9463 -31.9403 -31.9376 -31.9107 -31.9083 -31.8924 -31.8903
   -31.8595 -31.8553 -31.8530 -31.8519 -31.8268 -31.8119 -31.8042 -31.7940
   -31.7820 -31.7798 -31.7721 -31.7387 -31.7322 -31.4552 -31.4178 -31.3906
   -31.3380 -31.3030 -31.2357 -31.1480 -31.1256 -31.0527 -30.9662 -30.8549
   -17.9130 -16.6126 -16.3324 -16.0770 -16.0018 -15.9980 -15.8644 -15.7015
   -15.5887 -15.5218 -15.4416 -15.4118 -15.3898 -15.3542 -15.3479 -15.3102
   -15.3012 -15.2757 -15.2724 -15.2100 -15.2066 -15.1992 -15.1894 -15.1053
   -15.0476 -14.9961 -14.9884 -14.9150 -14.8810 -14.3532 -13.3307 -13.2144
   -12.1619  -7.8647  -5.3418  -4.5406  -3.9893  -3.8300  -3.7603  -3.7258
    -3.6492  -3.4895  -3.4107  -3.1288  -3.0802  -3.0244  -3.0150  -2.9785
    -2.9341  -2.7821  -2.7045  -2.6776  -2.6620  -2.6397  -2.6246  -2.6125
    -2.5967  -2.5772  -2.4960  -2.4150  -2.3710  -2.2943  -2.2806  -2.2454
    -2.1655  -2.1652  -2.1250  -2.1048  -2.0865  -2.0703  -2.0619  -2.0465
    -1.9065  -1.8485  -1.8353  -1.6544  -1.6376  -1.5890  -1.4621  -1.4558
    -1.3394  -1.3240  -1.2838  -1.2461  -1.1734  -1.1516  -1.0401  -0.9989
    -0.9371  -0.8902  -0.8748  -0.7993  -0.7346  -0.6960  -0.6829  -0.6179
    -0.6111  -0.5981  -0.4635  -0.3868  -0.3335  -0.2775  -0.2552  -0.1993
    -0.1597  -0.1165  -0.0292  -0.0020   0.0097   0.0678   0.0896   0.1151
     0.1268   0.1464   0.1754   0.2309   0.3491   0.3807   0.4566   0.4710
     0.5315   0.6659   0.8039   0.8709   0.9236   1.0191   1.1244   1.1939
     1.2671   1.3863   1.7641   1.8095   2.1377   3.2664   3.3684   3.4012
     3.4122   3.5153   3.6642   3.7255   3.7407   3.7821   3.8160

[...]

          k = 0.0380-0.0419 0.0000 ( 17876 PWs)   bands (ev):

[...]

          k =-0.0760-0.0000 0.0000 ( 17886 PWs)   bands (ev):

[...]

          k =-0.0760-0.0839 0.0000 ( 17948 PWs)   bands (ev):

   -55.8364 -55.8360 -55.8346 -55.8335 -55.7379 -55.7120 -55.6490 -55.6474
   -55.6472 -55.6462 -55.6091 -55.6079 -55.1828 -55.1526 -54.8119 -54.8117
   -32.2085 -32.2069 -32.1516 -32.1513 -32.1311 -32.1307 -32.0971 -32.0941
   -32.0849 -32.0683 -32.0027 -32.0000 -31.9945 -31.9927 -31.9706 -31.9630
   -31.9562 -31.9557 -31.9505 -31.9493 -31.9474 -31.9358 -31.9301 -31.9232
   -31.9111 -31.9061 -31.8613 -31.8511 -31.8491 -31.8483 -31.8400 -31.8393
   -31.8261 -31.8254 -31.8249 -31.8236 -31.6847 -31.4505 -31.4167 -31.4122
   -31.3942 -31.3390 -31.1384 -31.1382 -31.0485 -31.0483 -31.0096 -31.0095
   -17.8995 -16.0277 -16.0249 -15.8172 -15.7783 -15.7591 -15.7533 -15.6635
   -15.5778 -15.5442 -15.5412 -15.4542 -15.4282 -15.4121 -15.3959 -15.3904
   -15.3816 -15.3520 -15.3169 -15.3093 -15.2953 -15.2896 -15.2777 -15.2208
   -15.1694 -15.1652 -15.1428 -15.0707 -14.8319 -14.6934 -13.3163 -13.3161
   -12.1227  -7.8051  -5.3874  -4.6014  -3.3222  -3.3127  -3.0664  -3.0235
    -3.0196  -2.9939  -2.9513  -2.7904  -2.7779  -2.7584  -2.7507  -2.7060
    -2.6824  -2.6621  -2.6425  -2.6373  -2.6083  -2.5822  -2.5671  -2.5301
    -2.5232  -2.5143  -2.4827  -2.4720  -2.4254  -2.4201  -2.3993  -2.3719
    -2.3625  -2.3284  -2.1801  -2.1080  -2.0798  -1.9949  -1.9880  -1.9484
    -1.9253  -1.9041  -1.8956  -1.8692  -1.8312  -1.6952  -1.6127  -1.5509
    -1.5423  -1.4578  -1.4303  -1.3687  -1.2788  -1.2533  -1.2324  -1.1607
    -1.0850  -1.0468  -0.9955  -0.9824  -0.9148  -0.9061  -0.8486  -0.8117
    -0.8097  -0.7328  -0.7024  -0.6552  -0.6188  -0.6019  -0.5789  -0.5522
    -0.5366  -0.5136  -0.4378  -0.3535  -0.3019  -0.2411  -0.1482  -0.0190
     0.1015   0.2142   0.2362   0.2804   0.3330   0.3672   0.4606   0.4644
     0.5277   0.5511   0.5925   0.6701   0.6814   0.7058   0.8169   0.8474
     1.5584   1.5588   1.6294   1.6296   2.0783   3.5892   3.6181   3.6373
     3.6690   3.7985   3.8045   3.8148   3.8156   3.9506   3.9542

     the Fermi energy is     3.2763 ev

!    total energy              =   -2939.13538680 Ry
     estimated scf accuracy    <       0.00000005 Ry
     smearing contrib. (-TS)   =      -0.02099028 Ry
     internal energy E=F+TS    =   -2939.11439652 Ry

     The total energy is F=E-TS. E is the sum of the following terms:
     one-electron contribution =  -24492.29789155 Ry
     hartree contribution      =   12334.09142547 Ry
     xc contribution           =    -485.36656435 Ry
     ewald contribution        =    9704.45746810 Ry
     electric field correction =       0.00116580 Ry

     convergence has been achieved in  69 iterations

     Forces acting on atoms (cartesian axes, Ry/au):

     atom    1 type  1   force =     0.00007708   -0.00023967    0.09634771
     atom    2 type  1   force =     0.00005149   -0.00057157   -0.17516511
     atom    3 type  2   force =     0.00015009   -0.00013063   -0.02408349
     atom    4 type  2   force =    -0.00000505   -0.00124904    0.05221854
     atom    5 type  2   force =    -0.01056038   -0.00047513    0.00250931
     atom    6 type  2   force =     0.01237752    0.00022570    0.00288184
     atom    7 type  1   force =     0.00098481    0.00026423   -0.01174157
     atom    8 type  1   force =    -0.00013751    0.00774912    0.02263578
     atom    9 type  2   force =    -0.00019818   -0.00015395   -0.00027008
     atom   10 type  2   force =    -0.00262312    0.00115231   -0.01267827
     atom   11 type  2   force =     0.00005995   -0.00012188    0.00004905
     atom   12 type  2   force =     0.00011021    0.00018594   -0.00039227
     atom   13 type  1   force =     0.00044123   -0.00035215    0.00022683
     atom   14 type  1   force =     0.00015446    0.00032553   -0.00014533
     atom   15 type  2   force =    -0.00022611    0.00014867    0.00002706
     atom   16 type  2   force =     0.00011054   -0.00021333    0.00034214
     atom   17 type  2   force =     0.00048569   -0.00002290    0.00036022
     atom   18 type  2   force =     0.00066371   -0.00017289    0.00027728
     atom   19 type  1   force =    -0.00116929   -0.00002405    0.00023314
     atom   20 type  1   force =     0.00027862   -0.00039128   -0.00054174
     atom   21 type  2   force =     0.00004762    0.00000419    0.10311406
     atom   22 type  2   force =     0.00015302   -0.00028077    0.00002043
     atom   23 type  2   force =    -0.07162859   -0.00015296   -0.02765004
     atom   24 type  2   force =     0.07156715    0.00034596   -0.02771346
     atom   25 type  1   force =     0.00015747   -0.00023423    0.09587443
     atom   26 type  1   force =     0.00009691   -0.00040771   -0.17542918
     atom   27 type  2   force =     0.00017625   -0.00021534   -0.02291277
     atom   28 type  2   force =     0.00006276   -0.00101523    0.05217914
     atom   29 type  2   force =    -0.01086029    0.00048372    0.00243151
     atom   30 type  2   force =     0.01255494    0.00064435    0.00277755
     atom   31 type  1   force =     0.00087261    0.00348029   -0.01292452
     atom   32 type  1   force =     0.00002813   -0.00925243    0.02306617
     atom   33 type  2   force =    -0.00048352    0.00013603    0.00023315
     atom   34 type  2   force =    -0.00302621    0.00022814   -0.01289925
     atom   35 type  2   force =     0.00008510    0.00008981   -0.00008784
     atom   36 type  2   force =     0.00011569    0.00033497   -0.00040214
     atom   37 type  1   force =     0.00033691    0.00036311    0.00007068
     atom   38 type  1   force =     0.00002598   -0.00043484    0.00015156
     atom   39 type  2   force =     0.00015435    0.00044592    0.00054211
     atom   40 type  2   force =     0.00035481    0.00013211   -0.00038958
     atom   41 type  2   force =     0.00042111    0.00003807    0.00028796
     atom   42 type  2   force =     0.00093282    0.00003461    0.00051096
     atom   43 type  1   force =    -0.00155135   -0.00036957   -0.00032491
     atom   44 type  1   force =     0.00069113   -0.00030726   -0.00076074
     atom   45 type  2   force =     0.00005958   -0.00004020    0.10309135
     atom   46 type  2   force =    -0.07165132   -0.00006985   -0.02766546
     atom   47 type  2   force =     0.07159155    0.00032704   -0.02773239
     atom   48 type  3   force =    -0.00080664   -0.00138273   -0.00069062
     atom   49 type  4   force =    -0.00048963    0.00573309    0.00431798
     atom   50 type  5   force =    -0.00138569   -0.00489080   -0.00432742
     atom   51 type  5   force =     0.00061338   -0.00029139    0.00090173
     atom   52 type  3   force =    -0.00014799    0.00061537   -0.00159619
     atom   53 type  5   force =    -0.00009378   -0.00002452    0.00084468

     Total force =     0.365881     Total SCF correction =     0.000568
  @ DRIVER MODE: Message from server: STATUS
  @ DRIVER MODE: Message from server: GETFORCE
  @ DRIVER MODE: Returning v,forces,stress,ensemble

     Writing output data file ./calc.save/
  @ DRIVER MODE: Message from server: EXIT
  @ DRIVE MODE: Exiting

     General routines

     Parallel routines

   This run was terminated on:  21:41:58  23Aug2021

   JOB DONE.