     Program PWSCF v.6.7GPU starts on  9Sep2021 at  9: 1: 2

     R & G space division:  proc/nbgrp/npool/nimage =      10
     Reading input from /storage/home/hcoda1/3/ntian30/research/carbon/CxH_vib/CH3_calc/ads_slab/CH3NNH3_a/out_0034/pw.inp
Warning: card &CELL ignored
Warning: card   CELL_DYNAMICS='IPI', ignored
Warning: card / ignored

     Current dimensions of program PWSCF are:
     Max number of different atomic species (ntypx) = 10
     Max number of k-points (npk) =  40000
     Max angular momentum in pseudopotentials (lmaxx) =  3
     Presently no symmetry can be used with electric field

     Message from routine cell_base_init:
     DEPRECATED: use true lattice parameter, not A to a.u. conversion factor

     IMPORTANT: XC functional enforced from input :
     Exchange-correlation= BEEF-VDW
                           (   1   4  43  14   2   0   0)
     Any further DFT definition will be discarded
     Please, verify this is what you really want

  @ DRIVER MODE: Connecting to
 qe_1139763_2767402.sched-torque.pace.gatech.edu5bb8yn7g_scratch
  using UNIX socket
  @ DRIVER MODE: Message from server: STATUS
  @ DRIVER MODE: Message from server: INIT
  @ DRIVER MODE: Receiving replica           0          -1
  @ DRIVER MODE: Receiving encoded integer          25
  @ DRIVER MODE:  SCF:  T  FORCE:  T  STRESS:  F  VC:  F  ENSEMBLE:  F
  @ DRIVER MODE:  SCF:  T  FORCE:  T  STRESS:  F  VC:  F  ENSEMBLE:  F

     Using Slab Decomposition

     bravais-lattice index     =            0
     lattice parameter (alat)  =       1.8897  a.u.
     unit-cell volume          =    6658.9804 (a.u.)^3
     number of atoms/cell      =           56
     number of atomic types    =            5
     number of electrons       =       398.00
     number of Kohn-Sham states=          209
     kinetic-energy cutoff     =      29.3995  Ry
     charge density cutoff     =     293.9946  Ry
     scf convergence threshold =      7.3E-08
     mixing beta               =       0.0500
     number of iterations used =            8  plain     mixing
     Exchange-correlation= BEEF-VDW
                           (   1   4  43  14   2   0   0)

     celldm(1)=   1.889726  celldm(2)=   0.000000  celldm(3)=   0.000000
     celldm(4)=   0.000000  celldm(5)=   0.000000  celldm(6)=   0.000000

     crystal axes: (cart. coord. in units of alat)
               a(1) = (   6.579727   0.000000   0.000000 )
               a(2) = (  -0.000775   5.961596   0.000000 )
               a(3) = (   0.000000   0.000000  25.155947 )

     reciprocal axes: (cart. coord. in units 2 pi/alat)
               b(1) = (  0.151982  0.000020  0.000000 )
               b(2) = (  0.000000  0.167740  0.000000 )
               b(3) = (  0.000000  0.000000  0.039752 )

     PseudoPot. # 1 for Ti read from file:
     /storage/coda1/p-amedford6/0/shared/rich_project_chbe-medford/medford-share/data/pseudos_module/espresso/nninc/pbe/van/Ti.UPF
     MD5 check sum: 8e4df49b7f0d34bbd5052bf3f5ea0213
     Pseudo is Ultrasoft, Zval = 12.0
     Generated by new atomic code, or converted to UPF format
     Using radial grid of  851 points,  6 beta functions with:
                l(1) =   0
                l(2) =   0
                l(3) =   1
                l(4) =   1
                l(5) =   2
                l(6) =   2
     Q(r) pseudized with  8 coefficients,  rinner =    1.000   1.000   1.000
                                                       1.000   1.000

     PseudoPot. # 2 for O  read from file:
     /storage/coda1/p-amedford6/0/shared/rich_project_chbe-medford/medford-share/data/pseudos_module/espresso/nninc/pbe/van/O.UPF
     MD5 check sum: 78c19812648e8988a0fe644b0f25305e
     Pseudo is Ultrasoft, Zval =  6.0
     Generated by new atomic code, or converted to UPF format
     Using radial grid of  737 points,  4 beta functions with:
                l(1) =   0
                l(2) =   0
                l(3) =   1
                l(4) =   1
     Q(r) pseudized with  8 coefficients,  rinner =    0.800   0.800   0.800

     PseudoPot. # 3 for N  read from file:
     /storage/coda1/p-amedford6/0/shared/rich_project_chbe-medford/medford-share/data/pseudos_module/espresso/nninc/pbe/van/N.UPF
     MD5 check sum: 90d10febe142ad51ac9d5be1deb811c4
     Pseudo is Ultrasoft, Zval =  5.0
     Generated by new atomic code, or converted to UPF format
     Using radial grid of  729 points,  4 beta functions with:
                l(1) =   0
                l(2) =   0
                l(3) =   1
                l(4) =   1
     Q(r) pseudized with  8 coefficients,  rinner =    0.800   0.800   0.800

     PseudoPot. # 4 for C  read from file:
     /storage/coda1/p-amedford6/0/shared/rich_project_chbe-medford/medford-share/data/pseudos_module/espresso/nninc/pbe/van/C.UPF
     MD5 check sum: 1a69bf6b8db32088f5b2163dbdb77a27
     Pseudo is Ultrasoft, Zval =  4.0
     Generated by new atomic code, or converted to UPF format
     Using radial grid of  721 points,  4 beta functions with:
                l(1) =   0
                l(2) =   0
                l(3) =   1
                l(4) =   1
     Q(r) pseudized with  8 coefficients,  rinner =    0.800   0.800   0.800

     PseudoPot. # 5 for H  read from file:
     /storage/coda1/p-amedford6/0/shared/rich_project_chbe-medford/medford-share/data/pseudos_module/espresso/nninc/pbe/van/H.UPF
     MD5 check sum: b5ee9d7bfd3a09ee7748110bda690ff7
     Pseudo is Ultrasoft, Zval =  1.0
     Generated by new atomic code, or converted to UPF format
     Using radial grid of  615 points,  1 beta functions with:
                l(1) =   0
     Q(r) pseudized with  8 coefficients,  rinner =    0.800

     atomic species   valence    mass     pseudopotential
        Ti1           12.00    47.86700     Ti( 1.00)
        O1             6.00    15.99900     O ( 1.00)
        N1             5.00    14.00700     N ( 1.00)
        C1             4.00    12.01100     C ( 1.00)
        H1             1.00     1.00800     H ( 1.00)

     No symmetry found

   Cartesian axes

     site n.     atom                  positions (alat units)
         1           Ti1 tau(   1) = (   0.0004258   2.9801865   6.0000000  )
         2           Ti1 tau(   2) = (   3.2906075   1.4906267   6.0002472  )
         3           O1  tau(   3) = (   0.0006271   0.0005054   7.9858123  )
         4           O1  tau(   4) = (   3.2906025   0.0005020   7.3038282  )
         5           O1  tau(   5) = (   4.5942328   1.4918067   9.2879030  )
         6           O1  tau(   6) = (   1.9868534   1.4903216   9.2879459  )
         7           Ti1 tau(   7) = (   3.2907910   2.8959150   9.1758416  )
         8           Ti1 tau(   8) = (   0.0015273   1.4827037   9.2680791  )
         9           O1  tau(   9) = (   3.2915376   0.0135470  11.3011085  )
        10           O1  tau(  10) = (   0.0116148   5.9584955  10.6183126  )
        11           O1  tau(  11) = (   1.3264285   1.5112823  12.6233503  )
        12           O1  tau(  12) = (   5.3038506   1.5117067  12.6402039  )
        13           Ti1 tau(  13) = (   6.4820107   2.9926285  12.7699842  )
        14           Ti1 tau(  14) = (   3.1705855   1.5046985  12.4703807  )
        15           O1  tau(  15) = (   0.0265921   0.0018185  14.6022993  )
        16           O1  tau(  16) = (   3.3077976   0.0231332  13.8844522  )
        17           O1  tau(  17) = (   4.5431088   1.5356983  16.0582573  )
        18           O1  tau(  18) = (   2.0919096   1.5355568  16.0602035  )
        19           Ti1 tau(  19) = (   3.3160089   3.0194793  15.6930983  )
        20           Ti1 tau(  20) = (   0.0166562   1.5958061  16.1043543  )
        21           O1  tau(  21) = (   3.2904802   0.0005063   4.7018136  )
        22           O1  tau(  22) = (   0.0292894   0.0555714  17.2141426  )
        23           O1  tau(  23) = (   1.3043587   1.4918075   6.0039043  )
        24           O1  tau(  24) = (   5.2767064   1.4903225   6.0039473  )
        25           Ti1 tau(  25) = (   0.0000382   5.9609847   6.0000000  )
        26           Ti1 tau(  26) = (   3.2902200   4.4714249   6.0002472  )
        27           O1  tau(  27) = (   0.0002396   2.9813036   7.9858123  )
        28           O1  tau(  28) = (   3.2902150   2.9813002   7.3038282  )
        29           O1  tau(  29) = (   4.5938453   4.4726049   9.2879030  )
        30           O1  tau(  30) = (   1.9864658   4.4711199   9.2879459  )
        31           Ti1 tau(  31) = (   3.2891106   5.8743827   9.1763621  )
        32           Ti1 tau(  32) = (   0.0006254   4.4649316   9.2693709  )
        33           O1  tau(  33) = (   3.2938734   2.9940915  11.3014364  )
        34           O1  tau(  34) = (   0.0092240   2.9805883  10.6323155  )
        35           O1  tau(  35) = (   1.3265148   4.4779228  12.6213786  )
        36           O1  tau(  36) = (   5.3043665   4.4729268  12.6387898  )
        37           Ti1 tau(  37) = (   6.5102921   0.0103953  12.7821347  )
        38           Ti1 tau(  38) = (   3.1702703   4.4844908  12.4724723  )
        39           O1  tau(  39) = (   0.0044238   2.9856840  14.6711682  )
        40           O1  tau(  40) = (   3.3052367   3.0047533  13.8869641  )
        41           O1  tau(  41) = (   4.5463945   4.5179403  16.0573015  )
        42           O1  tau(  42) = (   2.0913021   4.5186677  16.0620504  )
        43           Ti1 tau(  43) = (   3.3128124   0.0388915  15.6953448  )
        44           Ti1 tau(  44) = (   0.0191476   4.5695365  16.1495174  )
        45           O1  tau(  45) = (   3.2900926   2.9813045   4.7018136  )
        46           O1  tau(  46) = (   1.3039711   4.4726057   6.0039043  )
        47           O1  tau(  47) = (   5.2763189   4.4711207   6.0039473  )
        48           N1  tau(  48) = (   0.0657769   3.0188755  17.3428317  )
        49           N1  tau(  49) = (   6.3710133   2.5762042  22.6422586  )
        50           C1  tau(  50) = (   0.3130180   3.0007025  18.7658599  )
        51           H1  tau(  51) = (   0.2928038   4.0066326  19.1970245  )
        52           H1  tau(  52) = (   6.1505335   2.3845869  19.2855718  )
        53           H1  tau(  53) = (   1.2957935   2.5655442  18.9776258  )
        54           H1  tau(  54) = (   5.9555952   3.1943721  23.3306195  )
        55           H1  tau(  55) = (   0.0098814   1.7053999  23.1148127  )
        56           H1  tau(  56) = (   0.6724875   2.9916800  22.3598805  )

     number of k points=    10  Fermi-Dirac smearing, width (Ry)=  0.0073
                       cart. coord. in units 2pi/alat
        k(    1) = (   0.0000000   0.0000000   0.0000000), wk =   0.1250000
        k(    2) = (   0.0000000   0.0419351   0.0000000), wk =   0.2500000
        k(    3) = (   0.0000000  -0.0838702   0.0000000), wk =   0.1250000
        k(    4) = (   0.0379955   0.0000049   0.0000000), wk =   0.2500000
        k(    5) = (   0.0379955   0.0419400   0.0000000), wk =   0.2500000
        k(    6) = (   0.0379955  -0.0838652   0.0000000), wk =   0.2500000
        k(    7) = (   0.0379955  -0.0419301   0.0000000), wk =   0.2500000
        k(    8) = (  -0.0759910  -0.0000099   0.0000000), wk =   0.1250000
        k(    9) = (  -0.0759910   0.0419252   0.0000000), wk =   0.2500000
        k(   10) = (  -0.0759910  -0.0838800   0.0000000), wk =   0.1250000

     Initial potential from superposition of free atoms

     starting charge  381.99914, renormalised to  398.00000

     negative rho (up, down):  7.227E-03 0.000E+00

     %%%%%%%%%%%%%%%%%%%%%%%%%%%%%%%%%%%%%%%%%%%%%%%%%%%%%%%%%%%%%%%%%%%%%%%%
     %                                                                      %
     % You are using vdW-DF, which was implemented by the Thonhauser group. %
     % Please cite the following two papers that made this development      %
     % possible and the two reviews that describe the various versions:     %
     %                                                                      %
     %   T. Thonhauser et al., PRL 115, 136402 (2015).                      %
     %   T. Thonhauser et al., PRB 76, 125112 (2007).                       %
     %   K. Berland et al., Rep. Prog. Phys. 78, 066501 (2015).             %
     %   D.C. Langreth et al., J. Phys.: Condens. Matter 21, 084203 (2009). %
     %                                                                      %
     %                                                                      %
     % If you are calculating the stress with vdW-DF, please also cite:     %
     %                                                                      %
     %   R. Sabatini et al., J. Phys.: Condens. Matter 24, 424209 (2012).   %
     %                                                                      %
     %%%%%%%%%%%%%%%%%%%%%%%%%%%%%%%%%%%%%%%%%%%%%%%%%%%%%%%%%%%%%%%%%%%%%%%%

     Adding external electric field

     Computed dipole along edir(3) :
        Dipole              -12.0378 Ry au,        -30.5970 Debye
        Dipole field         -0.0227 Ry au,

        Potential amp.        2.1058 Ry
        Total length         46.3494 bohr

     Starting wfcs are  302 atomic wfcs
  @ DRIVER MODE: Message from server: STATUS
  @ DRIVER MODE: Message from server: POSDATA
  @ DRIVER MODE: Reading and sharing cell
  @ DRIVER MODE: Reading and sharing positions
  @ DRIVER MODE: Received positions

     Self-consistent Calculation

     iteration #  1     ecut=    29.40 Ry     beta= 0.05
     Davidson diagonalization with overlap
     c_bands:  1 eigenvalues not converged
     c_bands:  1 eigenvalues not converged
     c_bands:  1 eigenvalues not converged
     c_bands:  1 eigenvalues not converged
     c_bands:  1 eigenvalues not converged
     c_bands:  1 eigenvalues not converged
     c_bands:  1 eigenvalues not converged
     c_bands:  2 eigenvalues not converged
     c_bands:  1 eigenvalues not converged
     ethr =  1.00E-05,  avg # of iterations = 19.6

[...]

     total energy              =   -2520.03492641 Ry
     estimated scf accuracy    <    4725.43152701 Ry

[...]

     iteration #  3     ecut=    29.40 Ry     beta= 0.05
     Davidson diagonalization with overlap
     ethr =  1.00E-02,  avg # of iterations = 16.5

[...]

     iteration # 51     ecut=    29.40 Ry     beta= 0.05
     Davidson diagonalization with overlap
     c_bands:  1 eigenvalues not converged
     ethr =  6.13E-07,  avg # of iterations = 12.5

[...]

     total energy              =   -2942.90434758 Ry
     estimated scf accuracy    <       0.00000009 Ry

     iteration # 72     ecut=    29.40 Ry     beta= 0.05
     Davidson diagonalization with overlap
     ethr =  2.18E-11,  avg # of iterations =  4.1

     negative rho (up, down):  9.748E-03 0.000E+00

     Adding external electric field

     Computed dipole along edir(3) :
        Dipole                0.6796 Ry au,          1.7273 Debye
        Dipole field          0.0013 Ry au,

        Potential amp.       -0.1189 Ry
        Total length         46.3494 bohr

     End of self-consistent calculation

          k = 0.0000 0.0000 0.0000 ( 18029 PWs)   bands (ev):

   -56.5059 -56.4723 -55.6136 -55.6048 -55.5783 -55.5724 -55.4751 -55.4396
   -55.2600 -55.2248 -55.1692 -55.1619 -55.1353 -55.0492 -54.6091 -54.5656
   -32.9333 -32.7796 -32.7515 -32.6827 -32.5917 -32.5593 -32.0928 -32.0714
   -32.0165 -31.9015 -31.8603 -31.8211 -31.8187 -31.7853 -31.7563 -31.7550
   -31.7539 -31.7362 -31.7246 -31.7213 -31.7003 -31.6836 -31.6574 -31.6435
   -31.6306 -31.6104 -31.6036 -31.5797 -31.5614 -31.5077 -31.4915 -31.4835
   -31.4037 -31.3988 -31.3800 -31.3352 -31.3271 -31.2965 -31.2791 -31.2552
   -31.2361 -31.1858 -31.1361 -30.8534 -30.8298 -30.8123 -30.7872 -30.6671
   -16.6671 -16.2247 -15.9965 -15.8670 -15.7933 -15.7451 -15.6921 -15.5748
   -15.4981 -15.4958 -15.4590 -15.4215 -15.3525 -15.2099 -15.1121 -15.0550
   -15.0128 -14.8981 -14.8327 -14.8053 -14.7953 -14.7638 -14.7463 -14.5478
   -14.5042 -14.4135 -14.4048 -14.2679 -14.0649 -13.9957 -13.6678 -13.5577
   -12.6986  -7.4369  -4.2342  -4.0910  -4.0718  -3.7209  -3.4787  -3.3928
    -3.2895  -3.2777  -3.2036  -3.0848  -3.0315  -2.9857  -2.8710  -2.8680
    -2.7255  -2.6980  -2.6806  -2.6697  -2.6309  -2.5963  -2.5556  -2.5126
    -2.5029  -2.4942  -2.3421  -2.2431  -2.1758  -2.1482  -2.1327  -2.1038
    -2.0277  -2.0029  -1.9925  -1.9845  -1.8952  -1.7471  -1.7410  -1.7122
    -1.6680  -1.6670  -1.6244  -1.6117  -1.4705  -1.3957  -1.2855  -1.2802
    -1.2441  -1.1773  -1.1753  -1.0721  -1.0022  -0.9499  -0.9118  -0.8060
    -0.7616  -0.7351  -0.6495  -0.5792  -0.5455  -0.5291  -0.5062  -0.4094
    -0.3923  -0.3690  -0.2856  -0.2762  -0.2282  -0.1404  -0.1200  -0.1163
    -0.0280  -0.0197   0.0827   0.1186   0.1611   0.1889   0.2792   0.3077
     0.4089   0.4524   0.4685   0.5902   0.6077   0.6672   0.7426   0.8040
     0.8242   0.8523   0.8852   0.8956   0.9782   1.0972   1.1029   1.1377
     1.2056   1.2520   1.4062   1.4451   1.7332   1.7423   2.4136   2.7695
     2.9311   3.2297   3.4309   3.5376   3.7466   3.7603   3.7660   3.9428
     3.9937

[...]

          k = 0.0380-0.0419 0.0000 ( 17876 PWs)   bands (ev):

[...]

          k =-0.0760-0.0000 0.0000 ( 17886 PWs)   bands (ev):

[...]

          k =-0.0760-0.0839 0.0000 ( 17948 PWs)   bands (ev):

   -56.4892 -56.4888 -55.5955 -55.5947 -55.5921 -55.5865 -55.4593 -55.4552
   -55.2449 -55.2398 -55.1591 -55.1522 -55.1521 -55.0519 -54.6000 -54.5745
   -32.7655 -32.7652 -32.7502 -32.7500 -32.6358 -32.6355 -31.9216 -31.9192
   -31.8960 -31.8897 -31.8508 -31.8500 -31.8077 -31.8054 -31.8051 -31.8044
   -31.7823 -31.7804 -31.7789 -31.7753 -31.7105 -31.7070 -31.6616 -31.6560
   -31.5955 -31.5870 -31.5272 -31.5225 -31.4966 -31.4965 -31.4882 -31.4436
   -31.4426 -31.4113 -31.3778 -31.3777 -31.3726 -31.3385 -31.3384 -31.3307
   -31.2949 -31.2568 -30.9984 -30.9256 -30.8261 -30.7986 -30.7946 -30.7524
   -16.0139 -16.0120 -15.9822 -15.9819 -15.7075 -15.7040 -15.6561 -15.6540
   -15.4846 -15.4783 -15.2687 -15.2603 -15.2560 -15.2519 -15.1237 -15.1172
   -15.0585 -15.0410 -14.9575 -14.9535 -14.8918 -14.8815 -14.8457 -14.8272
   -14.5061 -14.4852 -14.3671 -14.3487 -14.2130 -13.9950 -13.6612 -13.6612
   -12.7150  -7.4276  -4.1018  -4.0757  -3.1141  -3.1135  -3.0427  -3.0417
    -2.9188  -2.9137  -2.8461  -2.8453  -2.7344  -2.7320  -2.6673  -2.6035
    -2.5984  -2.5959  -2.5763  -2.5697  -2.4444  -2.4372  -2.4247  -2.4062
    -2.3611  -2.3581  -2.3475  -2.2670  -2.2530  -2.2169  -2.1770  -2.0708
    -2.0588  -2.0435  -2.0141  -1.9533  -1.9437  -1.9281  -1.8789  -1.8635
    -1.7781  -1.7228  -1.6597  -1.5531  -1.5489  -1.5392  -1.5268  -1.3722
    -1.3329  -1.3046  -1.2987  -1.2894  -1.2450  -1.1470  -1.1395  -0.9971
    -0.9967  -0.9242  -0.8441  -0.8286  -0.7983  -0.6677  -0.6250  -0.5844
    -0.5778  -0.5555  -0.5312  -0.5115  -0.4784  -0.3325  -0.3203  -0.2897
    -0.2492  -0.2414  -0.1955  -0.1276  -0.0400   0.0230   0.0245   0.0893
     0.1525   0.2119   0.2930   0.3078   0.3126   0.5941   0.6769   0.7651
     0.8415   0.9093   0.9735   0.9957   1.0644   1.0965   1.1370   1.2327
     1.2367   1.2536   1.2539   1.3258   1.3277   1.7102   2.3055   3.3435
     3.3439   3.4119   3.4124   3.7362   3.7417   3.8521   3.8624   3.9730
     3.9770

     the Fermi energy is     2.6019 ev

!    total energy              =   -2942.90438104 Ry
     estimated scf accuracy    <       0.00000006 Ry
     smearing contrib. (-TS)   =      -0.00454276 Ry
     internal energy E=F+TS    =   -2942.89983829 Ry

     The total energy is F=E-TS. E is the sum of the following terms:
     one-electron contribution =  -23043.01324718 Ry
     hartree contribution      =   11612.12778135 Ry
     xc contribution           =    -487.44476517 Ry
     ewald contribution        =    8975.42952119 Ry
     electric field correction =       0.00087153 Ry

     convergence has been achieved in  72 iterations

     Forces acting on atoms (cartesian axes, Ry/au):

     atom    1 type  1   force =     0.00001224   -0.00049989    0.12498516
     atom    2 type  1   force =    -0.00013444   -0.00063428   -0.16061788
     atom    3 type  2   force =     0.00017020   -0.00022472   -0.06936772
     atom    4 type  2   force =    -0.00004113   -0.00027731    0.02762099
     atom    5 type  2   force =    -0.01719606    0.00222403   -0.00888414
     atom    6 type  2   force =     0.01887535    0.00287454   -0.00920576
     atom    7 type  1   force =     0.00088039   -0.00375581    0.02235598
     atom    8 type  1   force =    -0.00036708   -0.00327928    0.11355545
     atom    9 type  2   force =     0.00050339   -0.00039824    0.00003633
     atom   10 type  2   force =    -0.00234570    0.00260029   -0.07319781
     atom   11 type  2   force =     0.00013826   -0.00095205   -0.00010795
     atom   12 type  2   force =     0.00000688   -0.00057967   -0.00002999
     atom   13 type  1   force =     0.00019751   -0.00019422   -0.00024853
     atom   14 type  1   force =    -0.00007711   -0.00053811   -0.00001637
     atom   15 type  2   force =    -0.00034911   -0.00099368    0.00081624
     atom   16 type  2   force =    -0.00013363   -0.00017001    0.00045361
     atom   17 type  2   force =     0.00086835   -0.00043111   -0.00036376
     atom   18 type  2   force =    -0.00054994   -0.00046265   -0.00033551
     atom   19 type  1   force =    -0.00024688    0.00004590   -0.00052780
     atom   20 type  1   force =     0.00055240   -0.00082670   -0.00086254
     atom   21 type  2   force =     0.00005265   -0.00006273    0.09967066
     atom   22 type  2   force =     0.00014417   -0.00037885   -0.00097429
     atom   23 type  2   force =    -0.07922571   -0.00006136   -0.03252215
     atom   24 type  2   force =     0.07908321    0.00037039   -0.03255105
     atom   25 type  1   force =     0.00002446   -0.00049467    0.12432632
     atom   26 type  1   force =    -0.00012649   -0.00048443   -0.16062989
     atom   27 type  2   force =     0.00028081   -0.00044628   -0.06837275
     atom   28 type  2   force =     0.00000381   -0.00013465    0.02747740
     atom   29 type  2   force =    -0.01765431    0.00173210   -0.00895758
     atom   30 type  2   force =     0.01922551    0.00199565   -0.00929497
     atom   31 type  1   force =     0.00080378   -0.00116564    0.02197493
     atom   32 type  1   force =    -0.00029628    0.00070926    0.11419719
     atom   33 type  2   force =    -0.00007727    0.00003888   -0.00058525
     atom   34 type  2   force =    -0.00201551    0.00206114   -0.07186190
     atom   35 type  2   force =     0.00002689   -0.00021194    0.00012451
     atom   36 type  2   force =    -0.00051269    0.00020302    0.00021659
     atom   37 type  1   force =     0.00085714    0.00095144   -0.00017329
     atom   38 type  1   force =    -0.00020382    0.00026925   -0.00015847
     atom   39 type  2   force =    -0.00002309   -0.00029411   -0.00003711
     atom   40 type  2   force =    -0.00001494   -0.00019481   -0.00025235
     atom   41 type  2   force =     0.00022087   -0.00042711   -0.00033613
     atom   42 type  2   force =     0.00000742   -0.00038966   -0.00037406
     atom   43 type  1   force =    -0.00036145    0.00008724   -0.00040778
     atom   44 type  1   force =     0.00006467    0.00091079    0.00035901
     atom   45 type  2   force =     0.00004032   -0.00007582    0.09969100
     atom   46 type  2   force =    -0.07922796   -0.00002917   -0.03252731
     atom   47 type  2   force =     0.07908347    0.00041564   -0.03252970
     atom   48 type  3   force =    -0.00032209    0.00093510   -0.00121903
     atom   49 type  3   force =    -0.00074108   -0.00085590    0.00016364
     atom   50 type  4   force =    -0.00338452    0.00369855    0.00103149
     atom   51 type  5   force =    -0.00152433   -0.00004605   -0.00061724
     atom   52 type  5   force =     0.00062959   -0.00005561   -0.00006954
     atom   53 type  5   force =     0.00351299   -0.00280624    0.00051479
     atom   54 type  5   force =     0.00050863   -0.00007815   -0.00011561
     atom   55 type  5   force =     0.00031598    0.00095920   -0.00053900
     atom   56 type  5   force =     0.00006126   -0.00017148   -0.00069905

     Total force =     0.426727     Total SCF correction =     0.000390
  @ DRIVER MODE: Message from server: STATUS
  @ DRIVER MODE: Message from server: GETFORCE
  @ DRIVER MODE: Returning v,forces,stress,ensemble

     Writing output data file ./calc.save/
  @ DRIVER MODE: Message from server: EXIT
  @ DRIVE MODE: Exiting

     General routines

     Parallel routines

   This run was terminated on:   9:21:40   9Sep2021

   JOB DONE.