     Program PWSCF v.6.7GPU starts on 27Sep2021 at  8:22:46

     R & G space division:  proc/nbgrp/npool/nimage =       8
     Reading input from /storage/home/hcoda1/3/ntian30/research/carbon/CxH_vib/H2O_calc/ads_slab/CH2NHNHHO_b/out_0050/pw.inp
Warning: card &CELL ignored
Warning: card   CELL_DYNAMICS='IPI', ignored
Warning: card / ignored

     Current dimensions of program PWSCF are:
     Max number of different atomic species (ntypx) = 10
     Max number of k-points (npk) =  40000
     Max angular momentum in pseudopotentials (lmaxx) =  3
     Presently no symmetry can be used with electric field

     Message from routine cell_base_init:
     DEPRECATED: use true lattice parameter, not A to a.u. conversion factor

     IMPORTANT: XC functional enforced from input :
     Exchange-correlation= BEEF-VDW
                           (   1   4  43  14   2   0   0)
     Any further DFT definition will be discarded
     Please, verify this is what you really want

  @ DRIVER MODE: Connecting to
 qe_1139763_2971671.sched-torque.pace.gatech.eduf6ie95xi_scratch
  using UNIX socket
  @ DRIVER MODE: Message from server: STATUS
  @ DRIVER MODE: Message from server: INIT
  @ DRIVER MODE: Receiving replica           0          -1
  @ DRIVER MODE: Receiving encoded integer          25
  @ DRIVER MODE:  SCF:  T  FORCE:  T  STRESS:  F  VC:  F  ENSEMBLE:  F
  @ DRIVER MODE:  SCF:  T  FORCE:  T  STRESS:  F  VC:  F  ENSEMBLE:  F

     Using Slab Decomposition

     bravais-lattice index     =            0
     lattice parameter (alat)  =       1.8897  a.u.
     unit-cell volume          =    6658.9804 (a.u.)^3
     number of atoms/cell      =           56
     number of atomic types    =            5
     number of electrons       =       403.00
     number of Kohn-Sham states=          211
     kinetic-energy cutoff     =      29.3995  Ry
     charge density cutoff     =     293.9946  Ry
     scf convergence threshold =      7.3E-08
     mixing beta               =       0.0500
     number of iterations used =            8  plain     mixing
     Exchange-correlation= BEEF-VDW
                           (   1   4  43  14   2   0   0)

     celldm(1)=   1.889726  celldm(2)=   0.000000  celldm(3)=   0.000000
     celldm(4)=   0.000000  celldm(5)=   0.000000  celldm(6)=   0.000000

     crystal axes: (cart. coord. in units of alat)
               a(1) = (   6.579727   0.000000   0.000000 )
               a(2) = (  -0.000775   5.961596   0.000000 )
               a(3) = (   0.000000   0.000000  25.155947 )

     reciprocal axes: (cart. coord. in units 2 pi/alat)
               b(1) = (  0.151982  0.000020  0.000000 )
               b(2) = (  0.000000  0.167740  0.000000 )
               b(3) = (  0.000000  0.000000  0.039752 )

     PseudoPot. # 1 for Ti read from file:
     /storage/coda1/p-amedford6/0/shared/rich_project_chbe-medford/medford-share/data/pseudos_module/espresso/nninc/pbe/van/Ti.UPF
     MD5 check sum: 8e4df49b7f0d34bbd5052bf3f5ea0213
     Pseudo is Ultrasoft, Zval = 12.0
     Generated by new atomic code, or converted to UPF format
     Using radial grid of  851 points,  6 beta functions with:
                l(1) =   0
                l(2) =   0
                l(3) =   1
                l(4) =   1
                l(5) =   2
                l(6) =   2
     Q(r) pseudized with  8 coefficients,  rinner =    1.000   1.000   1.000
                                                       1.000   1.000

     PseudoPot. # 2 for O  read from file:
     /storage/coda1/p-amedford6/0/shared/rich_project_chbe-medford/medford-share/data/pseudos_module/espresso/nninc/pbe/van/O.UPF
     MD5 check sum: 78c19812648e8988a0fe644b0f25305e
     Pseudo is Ultrasoft, Zval =  6.0
     Generated by new atomic code, or converted to UPF format
     Using radial grid of  737 points,  4 beta functions with:
                l(1) =   0
                l(2) =   0
                l(3) =   1
                l(4) =   1
     Q(r) pseudized with  8 coefficients,  rinner =    0.800   0.800   0.800

     PseudoPot. # 3 for N  read from file:
     /storage/coda1/p-amedford6/0/shared/rich_project_chbe-medford/medford-share/data/pseudos_module/espresso/nninc/pbe/van/N.UPF
     MD5 check sum: 90d10febe142ad51ac9d5be1deb811c4
     Pseudo is Ultrasoft, Zval =  5.0
     Generated by new atomic code, or converted to UPF format
     Using radial grid of  729 points,  4 beta functions with:
                l(1) =   0
                l(2) =   0
                l(3) =   1
                l(4) =   1
     Q(r) pseudized with  8 coefficients,  rinner =    0.800   0.800   0.800

     PseudoPot. # 4 for C  read from file:
     /storage/coda1/p-amedford6/0/shared/rich_project_chbe-medford/medford-share/data/pseudos_module/espresso/nninc/pbe/van/C.UPF
     MD5 check sum: 1a69bf6b8db32088f5b2163dbdb77a27
     Pseudo is Ultrasoft, Zval =  4.0
     Generated by new atomic code, or converted to UPF format
     Using radial grid of  721 points,  4 beta functions with:
                l(1) =   0
                l(2) =   0
                l(3) =   1
                l(4) =   1
     Q(r) pseudized with  8 coefficients,  rinner =    0.800   0.800   0.800

     PseudoPot. # 5 for H  read from file:
     /storage/coda1/p-amedford6/0/shared/rich_project_chbe-medford/medford-share/data/pseudos_module/espresso/nninc/pbe/van/H.UPF
     MD5 check sum: b5ee9d7bfd3a09ee7748110bda690ff7
     Pseudo is Ultrasoft, Zval =  1.0
     Generated by new atomic code, or converted to UPF format
     Using radial grid of  615 points,  1 beta functions with:
                l(1) =   0
     Q(r) pseudized with  8 coefficients,  rinner =    0.800

     atomic species   valence    mass     pseudopotential
        Ti1           12.00    47.86700     Ti( 1.00)
        O1             6.00    15.99900     O ( 1.00)
        N1             5.00    14.00700     N ( 1.00)
        C1             4.00    12.01100     C ( 1.00)
        H1             1.00     1.00800     H ( 1.00)

     No symmetry found

   Cartesian axes

     site n.     atom                  positions (alat units)
         1           Ti1 tau(   1) = (   0.0004258   2.9801865   6.0000000  )
         2           Ti1 tau(   2) = (   3.2906075   1.4906267   6.0002472  )
         3           O1  tau(   3) = (   0.0006271   0.0005054   7.9858123  )
         4           O1  tau(   4) = (   3.2906025   0.0005020   7.3038282  )
         5           O1  tau(   5) = (   4.5942328   1.4918067   9.2879030  )
         6           O1  tau(   6) = (   1.9868534   1.4903216   9.2879459  )
         7           Ti1 tau(   7) = (   3.2907910   2.8959150   9.1758416  )
         8           Ti1 tau(   8) = (   0.0015273   1.4827037   9.2680791  )
         9           O1  tau(   9) = (   3.2987294   5.9443783  11.3578989  )
        10           O1  tau(  10) = (   0.0116148   5.9584955  10.6183126  )
        11           O1  tau(  11) = (   1.2795512   1.4821507  12.6386044  )
        12           O1  tau(  12) = (   5.2980455   1.5005163  12.6536529  )
        13           Ti1 tau(  13) = (   6.5652885   2.9238251  12.5528928  )
        14           Ti1 tau(  14) = (   3.2988635   1.2998061  12.7048432  )
        15           O1  tau(  15) = (   0.0127057   0.0339484  14.6761273  )
        16           O1  tau(  16) = (   3.2875936   0.0940603  14.0290633  )
        17           O1  tau(  17) = (   4.5650748   1.6033894  16.0357995  )
        18           O1  tau(  18) = (   2.0190796   1.5896112  16.2175902  )
        19           Ti1 tau(  19) = (   3.3013862   3.0422678  15.6649453  )
        20           Ti1 tau(  20) = (   6.4815444   1.5191555  15.8288377  )
        21           O1  tau(  21) = (   3.2904802   0.0005063   4.7018136  )
        22           O1  tau(  22) = (   6.5172723   5.9480513  17.2191950  )
        23           O1  tau(  23) = (   1.3043587   1.4918075   6.0039043  )
        24           O1  tau(  24) = (   5.2767064   1.4903225   6.0039473  )
        25           Ti1 tau(  25) = (   0.0000382   5.9609847   6.0000000  )
        26           Ti1 tau(  26) = (   3.2902200   4.4714249   6.0002472  )
        27           O1  tau(  27) = (   0.0002396   2.9813036   7.9858123  )
        28           O1  tau(  28) = (   3.2902150   2.9813002   7.3038282  )
        29           O1  tau(  29) = (   4.5938453   4.4726049   9.2879030  )
        30           O1  tau(  30) = (   1.9864658   4.4711199   9.2879459  )
        31           Ti1 tau(  31) = (   3.2891106   5.8743827   9.1763621  )
        32           Ti1 tau(  32) = (   0.0006254   4.4649316   9.2693709  )
        33           O1  tau(  33) = (   3.2945946   2.9940555  11.3077331  )
        34           O1  tau(  34) = (   0.0092240   2.9805883  10.6323155  )
        35           O1  tau(  35) = (   1.2876619   4.4781899  12.6403949  )
        36           O1  tau(  36) = (   5.3010724   4.4646845  12.6541769  )
        37           Ti1 tau(  37) = (   0.0424196   5.9023569  12.5123361  )
        38           Ti1 tau(  38) = (   3.3119368   4.3729351  12.4217702  )
        39           O1  tau(  39) = (   0.0401333   2.9740317  14.7512036  )
        40           O1  tau(  40) = (   3.2576645   3.0028392  13.8982547  )
        41           O1  tau(  41) = (   4.5666544   4.4234537  16.0705803  )
        42           O1  tau(  42) = (   2.0215446   4.4756893  16.1430302  )
        43           Ti1 tau(  43) = (   3.2259990   0.0392177  16.2341362  )
        44           Ti1 tau(  44) = (   6.5723990   4.6710500  15.9980081  )
        45           O1  tau(  45) = (   3.2900926   2.9813045   4.7018136  )
        46           O1  tau(  46) = (   1.3039711   4.4726057   6.0039043  )
        47           O1  tau(  47) = (   5.2763189   4.4711207   6.0039473  )
        48           N1  tau(  48) = (   0.9334729   2.5913682  18.4753943  )
        49           N1  tau(  49) = (   6.5156687   2.9055835  17.6419879  )
        50           C1  tau(  50) = (   1.0224037   2.6952286  19.7617917  )
        51           H1  tau(  51) = (   1.9166829   2.3177709  20.2270220  )
        52           H1  tau(  52) = (   0.2162702   3.1370440  20.3260263  )
        53           H1  tau(  53) = (   1.6995924   2.1399843  17.9426691  )
        54           H1  tau(  54) = (   5.6785098   3.1284051  18.1783837  )
        55           O1  tau(  55) = (   3.5318048   0.0910060  18.0897867  )
        56           H1  tau(  56) = (   4.4997960   0.0680733  18.2655997  )

     number of k points=    10  Fermi-Dirac smearing, width (Ry)=  0.0073
                       cart. coord. in units 2pi/alat
        k(    1) = (   0.0000000   0.0000000   0.0000000), wk =   0.1250000
        k(    2) = (   0.0000000   0.0419351   0.0000000), wk =   0.2500000
        k(    3) = (   0.0000000  -0.0838702   0.0000000), wk =   0.1250000
        k(    4) = (   0.0379955   0.0000049   0.0000000), wk =   0.2500000
        k(    5) = (   0.0379955   0.0419400   0.0000000), wk =   0.2500000
        k(    6) = (   0.0379955  -0.0838652   0.0000000), wk =   0.2500000
        k(    7) = (   0.0379955  -0.0419301   0.0000000), wk =   0.2500000
        k(    8) = (  -0.0759910  -0.0000099   0.0000000), wk =   0.1250000
        k(    9) = (  -0.0759910   0.0419252   0.0000000), wk =   0.2500000
        k(   10) = (  -0.0759910  -0.0838800   0.0000000), wk =   0.1250000

     Initial potential from superposition of free atoms

     starting charge  386.99914, renormalised to  403.00000

     negative rho (up, down):  1.427E-02 0.000E+00

     %%%%%%%%%%%%%%%%%%%%%%%%%%%%%%%%%%%%%%%%%%%%%%%%%%%%%%%%%%%%%%%%%%%%%%%%
     %                                                                      %
     % You are using vdW-DF, which was implemented by the Thonhauser group. %
     % Please cite the following two papers that made this development      %
     % possible and the two reviews that describe the various versions:     %
     %                                                                      %
     %   T. Thonhauser et al., PRL 115, 136402 (2015).                      %
     %   T. Thonhauser et al., PRB 76, 125112 (2007).                       %
     %   K. Berland et al., Rep. Prog. Phys. 78, 066501 (2015).             %
     %   D.C. Langreth et al., J. Phys.: Condens. Matter 21, 084203 (2009). %
     %                                                                      %
     %                                                                      %
     % If you are calculating the stress with vdW-DF, please also cite:     %
     %                                                                      %
     %   R. Sabatini et al., J. Phys.: Condens. Matter 24, 424209 (2012).   %
     %                                                                      %
     %%%%%%%%%%%%%%%%%%%%%%%%%%%%%%%%%%%%%%%%%%%%%%%%%%%%%%%%%%%%%%%%%%%%%%%%

     Adding external electric field

     Computed dipole along edir(3) :
        Dipole              -12.9683 Ry au,        -32.9621 Debye
        Dipole field         -0.0245 Ry au,

        Potential amp.        2.2686 Ry
        Total length         46.3494 bohr

     Starting wfcs are  305 atomic wfcs
  @ DRIVER MODE: Message from server: STATUS
  @ DRIVER MODE: Message from server: POSDATA
  @ DRIVER MODE: Reading and sharing cell
  @ DRIVER MODE: Reading and sharing positions
  @ DRIVER MODE: Received positions

     Self-consistent Calculation

     iteration #  1     ecut=    29.40 Ry     beta= 0.05
     Davidson diagonalization with overlap
     c_bands:  4 eigenvalues not converged
     c_bands:  4 eigenvalues not converged
     c_bands:  3 eigenvalues not converged
     c_bands:  1 eigenvalues not converged
     c_bands:  3 eigenvalues not converged
     c_bands:  2 eigenvalues not converged
     ethr =  1.00E-05,  avg # of iterations = 25.6

[...]

     total energy              =   -2352.67470158 Ry
     estimated scf accuracy    <    7059.92306473 Ry

     iteration #  2     ecut=    29.40 Ry     beta= 0.05
     Davidson diagonalization with overlap
     ethr =  1.00E-02,  avg # of iterations = 22.2

[...]

     iteration # 67     ecut=    29.40 Ry     beta= 0.05
     Davidson diagonalization with overlap
     c_bands:  2 eigenvalues not converged
     ethr =  3.71E-11,  avg # of iterations = 13.9

[...]

     total energy              =   -2973.99828030 Ry
     estimated scf accuracy    <       0.00000010 Ry

     iteration # 68     ecut=    29.40 Ry     beta= 0.05
     Davidson diagonalization with overlap
     ethr =  2.55E-11,  avg # of iterations =  9.9

     negative rho (up, down):  1.505E-02 0.000E+00

     Adding external electric field

     Computed dipole along edir(3) :
        Dipole                1.3505 Ry au,          3.4326 Debye
        Dipole field          0.0025 Ry au,

        Potential amp.       -0.2362 Ry
        Total length         46.3494 bohr

     End of self-consistent calculation

          k = 0.0000 0.0000 0.0000 ( 18029 PWs)   bands (ev):

   -55.4211 -55.3273 -55.2932 -55.1482 -55.1447 -55.1333 -55.1126 -55.1106
   -55.0837 -55.0562 -55.0337 -54.9568 -54.9561 -54.9101 -54.2906 -54.2566
   -31.8103 -31.7438 -31.6783 -31.6481 -31.6368 -31.6242 -31.6190 -31.5987
   -31.5723 -31.5712 -31.5670 -31.4824 -31.4795 -31.4323 -31.4185 -31.4045
   -31.3983 -31.3846 -31.3615 -31.3469 -31.3387 -31.3384 -31.3291 -31.3148
   -31.3034 -31.2908 -31.2790 -31.2754 -31.2741 -31.2627 -31.2593 -31.2491
   -31.2332 -31.2292 -31.2278 -31.1896 -31.1801 -31.1503 -31.1383 -31.1299
   -31.1160 -31.1117 -30.6962 -30.6110 -30.5885 -30.5137 -30.4274 -30.3156
   -19.6150 -16.1291 -15.9441 -15.7919 -15.6119 -15.4910 -15.4331 -15.2200
   -15.1524 -15.0812 -15.0007 -14.9356 -14.8581 -14.8445 -14.8193 -14.8035
   -14.7790 -14.7410 -14.7394 -14.7350 -14.6925 -14.6859 -14.6554 -14.6058
   -14.6003 -14.5782 -14.4561 -14.3825 -14.3364 -14.2022 -14.0852 -13.9504
   -12.7894 -12.6732 -10.1664  -7.0154  -6.6895  -4.2774  -4.0192  -3.6141
    -3.3295  -3.2529  -3.2222  -3.1812  -3.0571  -2.8761  -2.7590  -2.6854
    -2.5820  -2.4579  -2.4407  -2.3398  -2.3152  -2.2475  -2.2118  -2.1722
    -2.1516  -2.1284  -2.1051  -2.1013  -1.9896  -1.9852  -1.8600  -1.8419
    -1.7940  -1.7346  -1.6864  -1.6394  -1.6278  -1.6093  -1.5936  -1.5847
    -1.5542  -1.5408  -1.5176  -1.4649  -1.4039  -1.3558  -1.3195  -1.2069
    -1.0167  -0.9193  -0.8671  -0.8255  -0.7925  -0.7437  -0.7169  -0.7092
    -0.6789  -0.6419  -0.5077  -0.5004  -0.4543  -0.3784  -0.3387  -0.3181
    -0.1923  -0.1791  -0.1062  -0.0499  -0.0472  -0.0359   0.0579   0.1163
     0.1451   0.1739   0.2249   0.2819   0.3547   0.3835   0.4168   0.4761
     0.5365   0.5655   0.6250   0.6441   0.6559   0.7378   0.7590   0.7837
     0.8064   0.8761   0.9241   0.9586   0.9997   1.0912   1.1176   1.1670
     1.2051   1.3603   1.4148   1.6842   1.7355   1.7999   1.9294   2.3019
     2.3467   3.7746   3.9105   3.9300   3.9341   4.0315   4.1344   4.2474
     4.2962   4.3307   4.3770

[...]

          k = 0.0380-0.0419 0.0000 ( 17876 PWs)   bands (ev):

[...]

          k =-0.0760-0.0000 0.0000 ( 17886 PWs)   bands (ev):

[...]

          k =-0.0760-0.0839 0.0000 ( 17948 PWs)   bands (ev):

   -55.4204 -55.3105 -55.3098 -55.1338 -55.1335 -55.1302 -55.1286 -55.1233
   -55.0772 -55.0533 -55.0402 -54.9589 -54.9502 -54.9166 -54.2741 -54.2730
   -31.6773 -31.6702 -31.6258 -31.6258 -31.6255 -31.6047 -31.6041 -31.5448
   -31.5066 -31.4591 -31.4515 -31.4508 -31.4443 -31.4434 -31.4302 -31.4294
   -31.4197 -31.3979 -31.3770 -31.3682 -31.3573 -31.3424 -31.3415 -31.3298
   -31.3284 -31.3187 -31.3092 -31.3008 -31.2981 -31.2972 -31.2941 -31.2854
   -31.2727 -31.2622 -31.2585 -31.2490 -31.2198 -31.2110 -31.1839 -31.1590
   -31.1430 -31.1164 -30.6016 -30.6009 -30.5097 -30.5085 -30.4710 -30.4702
   -19.6132 -16.0807 -15.4849 -15.4168 -15.2675 -15.2582 -15.1868 -15.1456
   -15.1396 -15.0882 -15.0819 -15.0135 -14.9890 -14.9805 -14.9405 -14.8894
   -14.8393 -14.8094 -14.8039 -14.7557 -14.7458 -14.7343 -14.6979 -14.6780
   -14.6293 -14.6258 -14.6104 -14.5318 -14.4756 -14.3197 -14.3037 -13.9631
   -12.7754 -12.7748 -10.1696  -7.0113  -6.6866  -4.2673  -4.0077  -3.5657
    -2.6916  -2.6871  -2.6256  -2.4706  -2.4263  -2.3264  -2.3153  -2.2563
    -2.2425  -2.1945  -2.1739  -2.1626  -2.1261  -2.1060  -2.1027  -2.0759
    -2.0563  -2.0461  -2.0201  -1.9841  -1.9818  -1.9517  -1.9434  -1.9264
    -1.9062  -1.8847  -1.8651  -1.8597  -1.8082  -1.7744  -1.6175  -1.5983
    -1.4598  -1.4574  -1.4431  -1.4216  -1.3881  -1.3765  -1.3371  -1.3033
    -1.2335  -1.1900  -1.0959  -1.0609  -0.9533  -0.9251  -0.8551  -0.8069
    -0.7678  -0.7443  -0.7338  -0.7046  -0.6325  -0.5559  -0.5106  -0.4690
    -0.3695  -0.2936  -0.2696  -0.2650  -0.2578  -0.2247  -0.1545  -0.1527
    -0.1121  -0.0960  -0.0137  -0.0030   0.0111   0.0304   0.1646   0.1957
     0.2925   0.3578   0.4066   0.4616   0.4945   0.5449   0.6583   0.7890
     0.8424   0.8673   0.8811   0.9423   0.9907   1.0064   1.0519   1.1269
     1.1966   1.2456   1.2652   1.2887   1.3398   2.0985   2.1072   2.1668
     2.1672   4.0372   4.1382   4.2534   4.2877   4.3033   4.3227   4.3400
     4.3646   4.4092   4.4520

     the Fermi energy is     3.8001 ev

!    total energy              =   -2973.99830472 Ry
     estimated scf accuracy    <       0.00000004 Ry
     smearing contrib. (-TS)   =      -0.02052478 Ry
     internal energy E=F+TS    =   -2973.97777994 Ry

     The total energy is F=E-TS. E is the sum of the following terms:
     one-electron contribution =  -23635.37285509 Ry
     hartree contribution      =   11914.59692478 Ry
     xc contribution           =    -494.10931982 Ry
     ewald contribution        =    9240.90402842 Ry
     electric field correction =       0.00344178 Ry

     convergence has been achieved in  68 iterations

     Forces acting on atoms (cartesian axes, Ry/au):

     atom    1 type  1   force =    -0.00006018   -0.00028304    0.09520747
     atom    2 type  1   force =    -0.00010934    0.00042861   -0.17494476
     atom    3 type  2   force =     0.00000908   -0.00028208   -0.02254639
     atom    4 type  2   force =     0.00005277   -0.00195582    0.05326674
     atom    5 type  2   force =    -0.00764349   -0.00251462    0.00195841
     atom    6 type  2   force =     0.00923507   -0.00207361    0.00147952
     atom    7 type  1   force =    -0.00022563   -0.00467742    0.00731944
     atom    8 type  1   force =     0.00013858    0.00535767    0.01281068
     atom    9 type  2   force =    -0.00010795   -0.00003078    0.00020875
     atom   10 type  2   force =    -0.00275471    0.00061142   -0.01378697
     atom   11 type  2   force =    -0.00016617    0.00022463    0.00000202
     atom   12 type  2   force =     0.00015809   -0.00003231    0.00025656
     atom   13 type  1   force =     0.00024973    0.00018795    0.00027063
     atom   14 type  1   force =     0.00002164   -0.00003373    0.00020747
     atom   15 type  2   force =     0.00037355   -0.00007707    0.00016696
     atom   16 type  2   force =    -0.00036540   -0.00007225    0.00000136
     atom   17 type  2   force =     0.00036733   -0.00020517   -0.00010028
     atom   18 type  2   force =    -0.00000808    0.00007066    0.00025482
     atom   19 type  1   force =     0.00029979   -0.00003560   -0.00005642
     atom   20 type  1   force =     0.00008011    0.00002831   -0.00018112
     atom   21 type  2   force =     0.00005672    0.00003704    0.10299664
     atom   22 type  2   force =    -0.00009957    0.00021909    0.00022212
     atom   23 type  2   force =    -0.07219985   -0.00020486   -0.02750703
     atom   24 type  2   force =     0.07210349    0.00020654   -0.02757479
     atom   25 type  1   force =     0.00010844   -0.00024637    0.09494737
     atom   26 type  1   force =    -0.00022873   -0.00136266   -0.17516320
     atom   27 type  2   force =     0.00015780   -0.00013683   -0.02138370
     atom   28 type  2   force =     0.00004797   -0.00025234    0.04861187
     atom   29 type  2   force =    -0.00690433    0.00262109    0.00145058
     atom   30 type  2   force =     0.00848702    0.00314227    0.00087556
     atom   31 type  1   force =    -0.00009944    0.00787983   -0.00301369
     atom   32 type  1   force =     0.00038577   -0.00772409    0.01219683
     atom   33 type  2   force =     0.00008404   -0.00003974   -0.00015016
     atom   34 type  2   force =    -0.00196001    0.00048755   -0.01635745
     atom   35 type  2   force =    -0.00013292    0.00002574    0.00001147
     atom   36 type  2   force =    -0.00004481    0.00031874    0.00000254
     atom   37 type  1   force =    -0.00014272    0.00017797    0.00000018
     atom   38 type  1   force =    -0.00009314    0.00006566    0.00015840
     atom   39 type  2   force =    -0.00005429   -0.00027773    0.00006681
     atom   40 type  2   force =     0.00011963    0.00000394    0.00021820
     atom   41 type  2   force =     0.00019312   -0.00016942   -0.00009967
     atom   42 type  2   force =     0.00014336   -0.00016537   -0.00005923
     atom   43 type  1   force =     0.00001407    0.00000985    0.00011679
     atom   44 type  1   force =     0.00024418   -0.00029928   -0.00033760
     atom   45 type  2   force =     0.00008604   -0.00013992    0.10279145
     atom   46 type  2   force =    -0.07219066   -0.00008781   -0.02755793
     atom   47 type  2   force =     0.07211834    0.00036890   -0.02758500
     atom   48 type  3   force =    -0.00004191    0.00020001    0.00005084
     atom   49 type  3   force =     0.00043481    0.00003592   -0.00002217
     atom   50 type  4   force =    -0.00017077    0.00024106   -0.00006581
     atom   51 type  5   force =     0.00023938    0.00024489    0.00035936
     atom   52 type  5   force =    -0.00056148   -0.00017723    0.00017368
     atom   53 type  5   force =     0.00057089    0.00003340   -0.00015041
     atom   54 type  5   force =     0.00004009    0.00009785   -0.00001981
     atom   55 type  2   force =     0.01640101   -0.00051728    0.00339532
     atom   56 type  5   force =    -0.01665636    0.00074779   -0.00339326

     Total force =     0.363960     Total SCF correction =     0.000533
  @ DRIVER MODE: Message from server: STATUS
  @ DRIVER MODE: Message from server: GETFORCE
  @ DRIVER MODE: Returning v,forces,stress,ensemble

     Writing output data file ./calc.save/
  @ DRIVER MODE: Message from server: EXIT
  @ DRIVE MODE: Exiting

     General routines

     Parallel routines

   This run was terminated on:   8:48: 9  27Sep2021

   JOB DONE.