     Program PWSCF v.6.7GPU starts on  2Aug2021 at 12: 4:13

     R & G space division:  proc/nbgrp/npool/nimage =      16
     Reading input from /storage/home/hcoda1/3/ntian30/research/carbon/02Aug_vib_paired/ads_slab/CH3NH3_a/out_0000/pw.inp
Warning: card &CELL ignored
Warning: card   CELL_DYNAMICS='IPI', ignored
Warning: card / ignored

     Current dimensions of program PWSCF are:
     Max number of different atomic species (ntypx) = 10
     Max number of k-points (npk) =  40000
     Max angular momentum in pseudopotentials (lmaxx) =  3
     Presently no symmetry can be used with electric field

     Message from routine cell_base_init:
     DEPRECATED: use true lattice parameter, not A to a.u. conversion factor

     IMPORTANT: XC functional enforced from input :
     Exchange-correlation= BEEF-VDW
                           (   1   4  43  14   2   0   0)
     Any further DFT definition will be discarded
     Please, verify this is what you really want

  @ DRIVER MODE: Connecting to
 qe_1139763_2482539.sched-torque.pace.gatech.eduoxgsuyb5_scratch
  using UNIX socket
  @ DRIVER MODE: Message from server: STATUS
  @ DRIVER MODE: Message from server: INIT
  @ DRIVER MODE: Receiving replica           0          -1
  @ DRIVER MODE: Receiving encoded integer          25
  @ DRIVER MODE:  SCF:  T  FORCE:  T  STRESS:  F  VC:  F  ENSEMBLE:  F
  @ DRIVER MODE:  SCF:  T  FORCE:  T  STRESS:  F  VC:  F  ENSEMBLE:  F

     Using Slab Decomposition

     bravais-lattice index     =            0
     lattice parameter (alat)  =       1.8897  a.u.
     unit-cell volume          =    6658.9804 (a.u.)^3
     number of atoms/cell      =           55
     number of atomic types    =            5
     number of electrons       =       393.00
     number of Kohn-Sham states=          206
     kinetic-energy cutoff     =      29.3995  Ry
     charge density cutoff     =     293.9946  Ry
     scf convergence threshold =      7.3E-08
     mixing beta               =       0.0500
     number of iterations used =            8  plain     mixing
     Exchange-correlation= BEEF-VDW
                           (   1   4  43  14   2   0   0)

     celldm(1)=   1.889726  celldm(2)=   0.000000  celldm(3)=   0.000000
     celldm(4)=   0.000000  celldm(5)=   0.000000  celldm(6)=   0.000000

     crystal axes: (cart. coord. in units of alat)
               a(1) = (   6.579727   0.000000   0.000000 )
               a(2) = (  -0.000775   5.961596   0.000000 )
               a(3) = (   0.000000   0.000000  25.155947 )

     reciprocal axes: (cart. coord. in units 2 pi/alat)
               b(1) = (  0.151982  0.000020  0.000000 )
               b(2) = (  0.000000  0.167740  0.000000 )
               b(3) = (  0.000000  0.000000  0.039752 )

     PseudoPot. # 1 for Ti read from file:
     /storage/coda1/p-amedford6/0/shared/rich_project_chbe-medford/medford-share/data/pseudos_module/espresso/nninc/pbe/van/Ti.UPF
     MD5 check sum: 8e4df49b7f0d34bbd5052bf3f5ea0213
     Pseudo is Ultrasoft, Zval = 12.0
     Generated by new atomic code, or converted to UPF format
     Using radial grid of  851 points,  6 beta functions with:
                l(1) =   0
                l(2) =   0
                l(3) =   1
                l(4) =   1
                l(5) =   2
                l(6) =   2
     Q(r) pseudized with  8 coefficients,  rinner =    1.000   1.000   1.000
                                                       1.000   1.000

     PseudoPot. # 2 for O  read from file:
     /storage/coda1/p-amedford6/0/shared/rich_project_chbe-medford/medford-share/data/pseudos_module/espresso/nninc/pbe/van/O.UPF
     MD5 check sum: 78c19812648e8988a0fe644b0f25305e
     Pseudo is Ultrasoft, Zval =  6.0
     Generated by new atomic code, or converted to UPF format
     Using radial grid of  737 points,  4 beta functions with:
                l(1) =   0
                l(2) =   0
                l(3) =   1
                l(4) =   1
     Q(r) pseudized with  8 coefficients,  rinner =    0.800   0.800   0.800

     PseudoPot. # 3 for C  read from file:
     /storage/coda1/p-amedford6/0/shared/rich_project_chbe-medford/medford-share/data/pseudos_module/espresso/nninc/pbe/van/C.UPF
     MD5 check sum: 1a69bf6b8db32088f5b2163dbdb77a27
     Pseudo is Ultrasoft, Zval =  4.0
     Generated by new atomic code, or converted to UPF format
     Using radial grid of  721 points,  4 beta functions with:
                l(1) =   0
                l(2) =   0
                l(3) =   1
                l(4) =   1
     Q(r) pseudized with  8 coefficients,  rinner =    0.800   0.800   0.800

     PseudoPot. # 4 for H  read from file:
     /storage/coda1/p-amedford6/0/shared/rich_project_chbe-medford/medford-share/data/pseudos_module/espresso/nninc/pbe/van/H.UPF
     MD5 check sum: b5ee9d7bfd3a09ee7748110bda690ff7
     Pseudo is Ultrasoft, Zval =  1.0
     Generated by new atomic code, or converted to UPF format
     Using radial grid of  615 points,  1 beta functions with:
                l(1) =   0
     Q(r) pseudized with  8 coefficients,  rinner =    0.800

     PseudoPot. # 5 for N  read from file:
     /storage/coda1/p-amedford6/0/shared/rich_project_chbe-medford/medford-share/data/pseudos_module/espresso/nninc/pbe/van/N.UPF
     MD5 check sum: 90d10febe142ad51ac9d5be1deb811c4
     Pseudo is Ultrasoft, Zval =  5.0
     Generated by new atomic code, or converted to UPF format
     Using radial grid of  729 points,  4 beta functions with:
                l(1) =   0
                l(2) =   0
                l(3) =   1
                l(4) =   1
     Q(r) pseudized with  8 coefficients,  rinner =    0.800   0.800   0.800

     atomic species   valence    mass     pseudopotential
        Ti1           12.00    47.86700     Ti( 1.00)
        O1             6.00    15.99900     O ( 1.00)
        C1             4.00    12.01100     C ( 1.00)
        H1             1.00     1.00800     H ( 1.00)
        N1             5.00    14.00700     N ( 1.00)

     No symmetry found

   Cartesian axes

     site n.     atom                  positions (alat units)
         1           Ti1 tau(   1) = (   0.0004258   2.9801865   6.0000000  )
         2           Ti1 tau(   2) = (   3.2906075   1.4906267   6.0002472  )
         3           O1  tau(   3) = (   0.0006271   0.0005054   7.9858123  )
         4           O1  tau(   4) = (   3.2906025   0.0005020   7.3038282  )
         5           O1  tau(   5) = (   4.5942328   1.4918067   9.2879030  )
         6           O1  tau(   6) = (   1.9868534   1.4903216   9.2879459  )
         7           Ti1 tau(   7) = (   3.2907910   2.8959150   9.1758416  )
         8           Ti1 tau(   8) = (   0.0015273   1.4827037   9.2680791  )
         9           O1  tau(   9) = (   3.2981156   0.0012339  11.3300471  )
        10           O1  tau(  10) = (   0.0116148   5.9584955  10.6183126  )
        11           O1  tau(  11) = (   1.3033605   1.5036236  12.6199488  )
        12           O1  tau(  12) = (   5.2811161   1.5074500  12.6162500  )
        13           Ti1 tau(  13) = (   0.0407500   2.9455431  12.6352795  )
        14           Ti1 tau(  14) = (   3.3444429   1.4910927  12.4779025  )
        15           O1  tau(  15) = (   0.0052662   0.0451097  14.6026341  )
        16           O1  tau(  16) = (   3.2946143   0.0124870  13.9210852  )
        17           O1  tau(  17) = (   4.5465206   1.5046604  16.0624161  )
        18           O1  tau(  18) = (   2.0546879   1.5048301  16.0609706  )
        19           Ti1 tau(  19) = (   3.2991624   2.9918142  15.6995589  )
        20           Ti1 tau(  20) = (   6.5707204   1.4025535  15.8059435  )
        21           O1  tau(  21) = (   3.2904802   0.0005063   4.7018136  )
        22           O1  tau(  22) = (   0.0164654   0.0145536  17.1360041  )
        23           O1  tau(  23) = (   1.3043587   1.4918075   6.0039043  )
        24           O1  tau(  24) = (   5.2767064   1.4903225   6.0039473  )
        25           Ti1 tau(  25) = (   0.0000382   5.9609847   6.0000000  )
        26           Ti1 tau(  26) = (   3.2902200   4.4714249   6.0002472  )
        27           O1  tau(  27) = (   0.0002396   2.9813036   7.9858123  )
        28           O1  tau(  28) = (   3.2902150   2.9813002   7.3038282  )
        29           O1  tau(  29) = (   4.5938453   4.4726049   9.2879030  )
        30           O1  tau(  30) = (   1.9864658   4.4711199   9.2879459  )
        31           Ti1 tau(  31) = (   3.2891106   5.8743827   9.1763621  )
        32           Ti1 tau(  32) = (   0.0006254   4.4649316   9.2693709  )
        33           O1  tau(  33) = (   3.2977166   2.9913250  11.3287690  )
        34           O1  tau(  34) = (   0.0092240   2.9805883  10.6323155  )
        35           O1  tau(  35) = (   1.3008534   4.4801743  12.6308489  )
        36           O1  tau(  36) = (   5.2850400   4.4860598  12.6280017  )
        37           Ti1 tau(  37) = (   0.0409916   5.9178611  12.5441859  )
        38           Ti1 tau(  38) = (   3.3442415   4.4710906  12.4862270  )
        39           O1  tau(  39) = (   0.0109228   2.9791018  14.7123696  )
        40           O1  tau(  40) = (   3.2998940   2.9912248  13.9043662  )
        41           O1  tau(  41) = (   4.5474046   4.4713503  16.0779382  )
        42           O1  tau(  42) = (   2.0618872   4.4767818  16.0643778  )
        43           Ti1 tau(  43) = (   3.2722838   0.0128901  15.7174356  )
        44           Ti1 tau(  44) = (   6.5592075   4.4947239  16.1563676  )
        45           O1  tau(  45) = (   3.2900926   2.9813045   4.7018136  )
        46           O1  tau(  46) = (   1.3039711   4.4726057   6.0039043  )
        47           O1  tau(  47) = (   5.2763189   4.4711207   6.0039473  )
        48           C1  tau(  48) = (   0.0359503   3.0870652  17.8341721  )
        49           H1  tau(  49) = (   5.8142062   3.6010452  18.3763092  )
        50           H1  tau(  50) = (   6.4784518   2.0305676  18.0614951  )
        51           H1  tau(  51) = (   0.9863100   3.3782628  18.2908018  )
        52           N1  tau(  52) = (   4.7642638   1.7931862  21.6370373  )
        53           H1  tau(  53) = (   4.5527921   2.7808570  21.5386679  )
        54           H1  tau(  54) = (   4.1042548   1.2952780  21.0483319  )
        55           H1  tau(  55) = (   4.5435699   1.5432347  22.5953497  )

     number of k points=    10  Fermi-Dirac smearing, width (Ry)=  0.0073
                       cart. coord. in units 2pi/alat
        k(    1) = (   0.0000000   0.0000000   0.0000000), wk =   0.1250000
        k(    2) = (   0.0000000   0.0419351   0.0000000), wk =   0.2500000
        k(    3) = (   0.0000000  -0.0838702   0.0000000), wk =   0.1250000
        k(    4) = (   0.0379955   0.0000049   0.0000000), wk =   0.2500000
        k(    5) = (   0.0379955   0.0419400   0.0000000), wk =   0.2500000
        k(    6) = (   0.0379955  -0.0838652   0.0000000), wk =   0.2500000
        k(    7) = (   0.0379955  -0.0419301   0.0000000), wk =   0.2500000
        k(    8) = (  -0.0759910  -0.0000099   0.0000000), wk =   0.1250000
        k(    9) = (  -0.0759910   0.0419252   0.0000000), wk =   0.2500000
        k(   10) = (  -0.0759910  -0.0838800   0.0000000), wk =   0.1250000

     Initial potential from superposition of free atoms

     starting charge  376.99914, renormalised to  393.00000

     negative rho (up, down):  1.000E-02 0.000E+00

     %%%%%%%%%%%%%%%%%%%%%%%%%%%%%%%%%%%%%%%%%%%%%%%%%%%%%%%%%%%%%%%%%%%%%%%%
     %                                                                      %
     % You are using vdW-DF, which was implemented by the Thonhauser group. %
     % Please cite the following two papers that made this development      %
     % possible and the two reviews that describe the various versions:     %
     %                                                                      %
     %   T. Thonhauser et al., PRL 115, 136402 (2015).                      %
     %   T. Thonhauser et al., PRB 76, 125112 (2007).                       %
     %   K. Berland et al., Rep. Prog. Phys. 78, 066501 (2015).             %
     %   D.C. Langreth et al., J. Phys.: Condens. Matter 21, 084203 (2009). %
     %                                                                      %
     %                                                                      %
     % If you are calculating the stress with vdW-DF, please also cite:     %
     %                                                                      %
     %   R. Sabatini et al., J. Phys.: Condens. Matter 24, 424209 (2012).   %
     %                                                                      %
     %%%%%%%%%%%%%%%%%%%%%%%%%%%%%%%%%%%%%%%%%%%%%%%%%%%%%%%%%%%%%%%%%%%%%%%%

     Adding external electric field

     Computed dipole along edir(3) :
        Dipole               -9.0616 Ry au,        -23.0322 Debye
        Dipole field         -0.0171 Ry au,

        Potential amp.        1.5852 Ry
        Total length         46.3494 bohr

     Starting wfcs are  298 atomic wfcs
  @ DRIVER MODE: Message from server: STATUS
  @ DRIVER MODE: Message from server: POSDATA
  @ DRIVER MODE: Reading and sharing cell
  @ DRIVER MODE: Reading and sharing positions
  @ DRIVER MODE: Received positions

     Self-consistent Calculation

     iteration #  1     ecut=    29.40 Ry     beta= 0.05
     Davidson diagonalization with overlap
     ethr =  1.00E-02,  avg # of iterations =  2.2

[...]

     total energy              =   -2694.01200289 Ry
     estimated scf accuracy    <    2545.12796506 Ry

     iteration #  2     ecut=    29.40 Ry     beta= 0.05
     Davidson diagonalization with overlap
     c_bands:  5 eigenvalues not converged
     c_bands:  4 eigenvalues not converged
     ethr =  1.00E-02,  avg # of iterations = 21.4

[...]

     iteration # 61     ecut=    29.40 Ry     beta= 0.05
     Davidson diagonalization with overlap
     c_bands:  1 eigenvalues not converged
     ethr =  6.98E-10,  avg # of iterations = 12.1

[...]

     total energy              =   -2922.78956492 Ry
     estimated scf accuracy    <       0.00000008 Ry

     iteration # 68     ecut=    29.40 Ry     beta= 0.05
     Davidson diagonalization with overlap
     ethr =  1.91E-11,  avg # of iterations =  2.0

     negative rho (up, down):  1.131E-02 0.000E+00

     Adding external electric field

     Computed dipole along edir(3) :
        Dipole                0.5506 Ry au,          1.3995 Debye
        Dipole field          0.0010 Ry au,

        Potential amp.       -0.0963 Ry
        Total length         46.3494 bohr

     End of self-consistent calculation

          k = 0.0000 0.0000 0.0000 ( 18029 PWs)   bands (ev):

   -56.0340 -56.0302 -56.0000 -55.9938 -55.9016 -55.8668 -55.8666 -55.8420
   -55.8235 -55.8080 -55.8030 -55.7693 -55.5689 -55.4020 -55.0095 -54.9755
   -32.5886 -32.5160 -32.3611 -32.3553 -32.3413 -32.3402 -32.3271 -32.2937
   -32.2766 -32.2396 -32.2337 -32.2330 -32.2097 -32.1862 -32.1734 -32.1672
   -32.1379 -32.1354 -32.1214 -32.0912 -32.0812 -32.0703 -32.0387 -32.0338
   -32.0295 -32.0278 -32.0135 -32.0121 -32.0054 -31.9802 -31.9796 -31.9772
   -31.9721 -31.9714 -31.9562 -31.9469 -31.9153 -31.8477 -31.7831 -31.6896
   -31.6305 -31.5195 -31.4166 -31.3284 -31.3060 -31.2333 -31.1468 -31.0358
   -16.7686 -16.5053 -16.2732 -16.1827 -16.1328 -16.0462 -15.8689 -15.7524
   -15.7038 -15.6030 -15.5704 -15.5505 -15.5340 -15.5036 -15.4953 -15.4704
   -15.4591 -15.4527 -15.4181 -15.3902 -15.3651 -15.3504 -15.2304 -15.1782
   -15.1621 -15.1309 -15.0830 -15.0667 -14.6120 -13.6561 -13.5123 -13.3959
    -9.0485  -4.1432  -3.9631  -3.9378  -3.8894  -3.8476  -3.7148  -3.6974
    -3.6451  -3.5846  -3.2671  -3.2099  -3.2017  -3.1609  -3.1461  -2.9888
    -2.9244  -2.8506  -2.8341  -2.8285  -2.8031  -2.7978  -2.7931  -2.7505
    -2.7080  -2.6527  -2.6289  -2.5593  -2.5173  -2.4440  -2.3711  -2.3437
    -2.3015  -2.2986  -2.2623  -2.2502  -2.2421  -2.2319  -2.1963  -2.1810
    -2.0016  -1.9510  -1.8825  -1.8167  -1.8023  -1.6386  -1.5317  -1.4838
    -1.4653  -1.4583  -1.4399  -1.4231  -1.3274  -1.2093  -1.1764  -1.1268
    -1.0791  -1.0306  -1.0005  -0.9002  -0.8836  -0.7926  -0.7793  -0.7608
    -0.6496  -0.6254  -0.4914  -0.4699  -0.4641  -0.4039  -0.3883  -0.3155
    -0.2913  -0.2347  -0.1697  -0.1575  -0.0894  -0.0632  -0.0600  -0.0033
     0.0012   0.0465   0.0611   0.1707   0.2266   0.2759   0.3299   0.4364
     0.5161   0.6306   0.6774   0.7367   0.9384   1.0120   1.1215   1.1825
     1.2051   1.4658   1.5834   1.6289   3.1045   3.1895   3.2112   3.2370
     3.3445   3.3695   3.5550   3.5718   3.6061   3.6261

[...]

          k = 0.0380-0.0419 0.0000 ( 17876 PWs)   bands (ev):

[...]

          k =-0.0760-0.0000 0.0000 ( 17886 PWs)   bands (ev):

[...]

          k =-0.0760-0.0839 0.0000 ( 17948 PWs)   bands (ev):

   -56.0174 -56.0164 -56.0149 -56.0090 -55.8867 -55.8816 -55.8583 -55.8320
   -55.8256 -55.8238 -55.7874 -55.7850 -55.5674 -55.4034 -54.9926 -54.9923
   -32.3945 -32.3880 -32.3315 -32.3310 -32.3129 -32.3121 -32.2933 -32.2886
   -32.2223 -32.2214 -32.2183 -32.2075 -32.1672 -32.1662 -32.1470 -32.1426
   -32.1384 -32.1369 -32.1358 -32.1278 -32.1266 -32.1238 -32.0881 -32.0776
   -32.0731 -32.0508 -32.0466 -32.0328 -32.0239 -32.0230 -32.0191 -32.0172
   -32.0019 -32.0006 -31.9965 -31.9904 -31.9255 -31.8306 -31.7852 -31.6924
   -31.6748 -31.5637 -31.3188 -31.3186 -31.2295 -31.2293 -31.1901 -31.1901
   -16.2104 -16.1874 -15.9812 -15.9468 -15.9436 -15.9363 -15.8055 -15.7252
   -15.7247 -15.6988 -15.6378 -15.6264 -15.6046 -15.5660 -15.5417 -15.5393
   -15.5206 -15.5156 -15.4894 -15.4793 -15.4665 -15.4593 -15.3666 -15.3471
   -15.3432 -15.2935 -15.1483 -15.0018 -14.8927 -13.6554 -13.4979 -13.4976
    -9.0629  -3.7170  -3.7083  -3.5066  -3.4753  -3.2330  -3.1947  -3.1815
    -3.1126  -2.9561  -2.9165  -2.8985  -2.8908  -2.8465  -2.8388  -2.8336
    -2.8220  -2.7937  -2.7766  -2.7395  -2.7334  -2.7180  -2.7109  -2.6996
    -2.6825  -2.6525  -2.6439  -2.6132  -2.6084  -2.5878  -2.5716  -2.5437
    -2.5388  -2.4112  -2.2522  -2.2284  -2.1677  -2.1603  -2.1138  -2.1009
    -2.0944  -2.0670  -2.0379  -2.0108  -1.8515  -1.7406  -1.7260  -1.7093
    -1.6405  -1.6128  -1.5277  -1.4375  -1.3965  -1.3783  -1.3102  -1.3065
    -1.2564  -1.2318  -1.2110  -1.1437  -1.0871  -1.0500  -0.9929  -0.9868
    -0.9787  -0.9086  -0.8662  -0.7913  -0.7825  -0.7456  -0.7106  -0.6553
    -0.6211  -0.6098  -0.5197  -0.4873  -0.3750  -0.3262  -0.0678  -0.0196
     0.0335   0.0614   0.1268   0.1847   0.1890   0.2861   0.2899   0.3266
     0.4058   0.4272   0.4980   0.5173   0.5673   0.7291   1.2782   1.3761
     1.3769   1.4484   1.4488   1.4563   3.4024   3.4141   3.4213   3.4659
     3.6111   3.6158   3.6344   3.6360   3.7747   3.7929

     the Fermi energy is     3.1011 ev

!    total energy              =   -2922.78959030 Ry
     estimated scf accuracy    <       0.00000005 Ry
     smearing contrib. (-TS)   =      -0.02169583 Ry
     internal energy E=F+TS    =   -2922.76789447 Ry

     The total energy is F=E-TS. E is the sum of the following terms:
     one-electron contribution =  -23651.34492246 Ry
     hartree contribution      =   11909.88263013 Ry
     xc contribution           =    -482.26324761 Ry
     ewald contribution        =    9300.95707340 Ry
     electric field correction =       0.00057208 Ry

     convergence has been achieved in  68 iterations

     Forces acting on atoms (cartesian axes, Ry/au):

     atom    1 type  1   force =     0.00004767   -0.00022588    0.09684625
     atom    2 type  1   force =    -0.00017457   -0.00055104   -0.17514771
     atom    3 type  2   force =     0.00002246   -0.00005035   -0.02503363
     atom    4 type  2   force =     0.00002799   -0.00139877    0.05263973
     atom    5 type  2   force =    -0.01205921   -0.00050855    0.00330515
     atom    6 type  2   force =     0.01378579    0.00008739    0.00270438
     atom    7 type  1   force =    -0.00057877    0.00056775   -0.01156216
     atom    8 type  1   force =     0.00020537    0.01201051    0.02900665
     atom    9 type  2   force =    -0.00029645    0.00056982    0.00058180
     atom   10 type  2   force =    -0.00153442    0.00252289   -0.01947515
     atom   11 type  2   force =    -0.00018131   -0.00037590   -0.00014075
     atom   12 type  2   force =    -0.00090184    0.00003384   -0.00029260
     atom   13 type  1   force =     0.00054706   -0.00097191    0.00109684
     atom   14 type  1   force =     0.00145641    0.00057748   -0.00067010
     atom   15 type  2   force =    -0.00013939   -0.00105664    0.00040031
     atom   16 type  2   force =    -0.00020884   -0.00020211   -0.00146960
     atom   17 type  2   force =    -0.00066737    0.00074459   -0.00000781
     atom   18 type  2   force =     0.00049920    0.00092339    0.00002790
     atom   19 type  1   force =    -0.00019495   -0.00112609    0.00060474
     atom   20 type  1   force =    -0.00011438    0.00046729   -0.00008694
     atom   21 type  2   force =     0.00004762   -0.00003860    0.10322619
     atom   22 type  2   force =     0.00027239   -0.00030625    0.00091319
     atom   23 type  2   force =    -0.07155889   -0.00014062   -0.02769882
     atom   24 type  2   force =     0.07145268    0.00027365   -0.02773061
     atom   25 type  1   force =     0.00005447   -0.00028525    0.09643507
     atom   26 type  1   force =    -0.00019383   -0.00028865   -0.17537353
     atom   27 type  2   force =     0.00008690   -0.00017009   -0.02382519
     atom   28 type  2   force =     0.00004470   -0.00114014    0.05272005
     atom   29 type  2   force =    -0.01209871    0.00085346    0.00277151
     atom   30 type  2   force =     0.01374154    0.00124001    0.00218960
     atom   31 type  1   force =    -0.00046861    0.00303981   -0.01242244
     atom   32 type  1   force =     0.00018745   -0.01422903    0.02941695
     atom   33 type  2   force =    -0.00023165   -0.00062754    0.00043319
     atom   34 type  2   force =    -0.00098182    0.00176572   -0.02268470
     atom   35 type  2   force =    -0.00066895   -0.00060263   -0.00012043
     atom   36 type  2   force =     0.00002592   -0.00014616   -0.00033355
     atom   37 type  1   force =     0.00064904    0.00027454    0.00056451
     atom   38 type  1   force =     0.00150383    0.00018797   -0.00066994
     atom   39 type  2   force =     0.00006453    0.00013910   -0.00125754
     atom   40 type  2   force =    -0.00034815   -0.00010163    0.00175773
     atom   41 type  2   force =    -0.00077714   -0.00106183   -0.00011131
     atom   42 type  2   force =     0.00029063   -0.00146298    0.00027487
     atom   43 type  1   force =     0.00022441    0.00066935    0.00106712
     atom   44 type  1   force =     0.00044616   -0.00024877    0.00069111
     atom   45 type  2   force =     0.00005659   -0.00009477    0.10319239
     atom   46 type  2   force =    -0.07154421   -0.00011907   -0.02770539
     atom   47 type  2   force =     0.07145062    0.00031094   -0.02773753
     atom   48 type  3   force =     0.00030155    0.00086854   -0.00064776
     atom   49 type  4   force =    -0.00080474    0.00000859   -0.00048624
     atom   50 type  4   force =    -0.00031798   -0.00055966    0.00099076
     atom   51 type  4   force =    -0.00079515   -0.00013744   -0.00022745
     atom   52 type  5   force =    -0.00008995   -0.00018509   -0.00036964
     atom   53 type  4   force =     0.00064760   -0.00004461   -0.00036868
     atom   54 type  4   force =     0.00007116    0.00019651   -0.00010952
     atom   55 type  4   force =    -0.00028041    0.00012489   -0.00009125

     Total force =     0.368358     Total SCF correction =     0.000445
  @ DRIVER MODE: Message from server: STATUS
  @ DRIVER MODE: Message from server: GETFORCE
  @ DRIVER MODE: Returning v,forces,stress,ensemble

     Writing output data file ./calc.save/
  @ DRIVER MODE: Message from server: EXIT
  @ DRIVE MODE: Exiting

     General routines

     Parallel routines

   This run was terminated on:  12:21:42   2Aug2021

   JOB DONE.