     Program PWSCF v.6.7GPU starts on 23Sep2021 at 23:30:44

     R & G space division:  proc/nbgrp/npool/nimage =       8
     Reading input from /storage/home/hcoda1/3/ntian30/research/carbon/CxH_vib/H2O_calc/ads_slab/CH3NH2NHHO_c/out_0029/pw.inp
Warning: card &CELL ignored
Warning: card   CELL_DYNAMICS='IPI', ignored
Warning: card / ignored

     Current dimensions of program PWSCF are:
     Max number of different atomic species (ntypx) = 10
     Max number of k-points (npk) =  40000
     Max angular momentum in pseudopotentials (lmaxx) =  3
     Presently no symmetry can be used with electric field

     Message from routine cell_base_init:
     DEPRECATED: use true lattice parameter, not A to a.u. conversion factor

     IMPORTANT: XC functional enforced from input :
     Exchange-correlation= BEEF-VDW
                           (   1   4  43  14   2   0   0)
     Any further DFT definition will be discarded
     Please, verify this is what you really want

  @ DRIVER MODE: Connecting to
 qe_1139763_2947310.sched-torque.pace.gatech.eduhg2l7h2x_scratch
  using UNIX socket
  @ DRIVER MODE: Message from server: STATUS
  @ DRIVER MODE: Message from server: INIT
  @ DRIVER MODE: Receiving replica           0          -1
  @ DRIVER MODE: Receiving encoded integer          25
  @ DRIVER MODE:  SCF:  T  FORCE:  T  STRESS:  F  VC:  F  ENSEMBLE:  F
  @ DRIVER MODE:  SCF:  T  FORCE:  T  STRESS:  F  VC:  F  ENSEMBLE:  F

     Using Slab Decomposition

     bravais-lattice index     =            0
     lattice parameter (alat)  =       1.8897  a.u.
     unit-cell volume          =    6658.9804 (a.u.)^3
     number of atoms/cell      =           58
     number of atomic types    =            5
     number of electrons       =       405.00
     number of Kohn-Sham states=          212
     kinetic-energy cutoff     =      29.3995  Ry
     charge density cutoff     =     293.9946  Ry
     scf convergence threshold =      7.3E-08
     mixing beta               =       0.0500
     number of iterations used =            8  plain     mixing
     Exchange-correlation= BEEF-VDW
                           (   1   4  43  14   2   0   0)

     celldm(1)=   1.889726  celldm(2)=   0.000000  celldm(3)=   0.000000
     celldm(4)=   0.000000  celldm(5)=   0.000000  celldm(6)=   0.000000

     crystal axes: (cart. coord. in units of alat)
               a(1) = (   6.579727   0.000000   0.000000 )
               a(2) = (  -0.000775   5.961596   0.000000 )
               a(3) = (   0.000000   0.000000  25.155947 )

     reciprocal axes: (cart. coord. in units 2 pi/alat)
               b(1) = (  0.151982  0.000020  0.000000 )
               b(2) = (  0.000000  0.167740  0.000000 )
               b(3) = (  0.000000  0.000000  0.039752 )

     PseudoPot. # 1 for Ti read from file:
     /storage/coda1/p-amedford6/0/shared/rich_project_chbe-medford/medford-share/data/pseudos_module/espresso/nninc/pbe/van/Ti.UPF
     MD5 check sum: 8e4df49b7f0d34bbd5052bf3f5ea0213
     Pseudo is Ultrasoft, Zval = 12.0
     Generated by new atomic code, or converted to UPF format
     Using radial grid of  851 points,  6 beta functions with:
                l(1) =   0
                l(2) =   0
                l(3) =   1
                l(4) =   1
                l(5) =   2
                l(6) =   2
     Q(r) pseudized with  8 coefficients,  rinner =    1.000   1.000   1.000
                                                       1.000   1.000

     PseudoPot. # 2 for O  read from file:
     /storage/coda1/p-amedford6/0/shared/rich_project_chbe-medford/medford-share/data/pseudos_module/espresso/nninc/pbe/van/O.UPF
     MD5 check sum: 78c19812648e8988a0fe644b0f25305e
     Pseudo is Ultrasoft, Zval =  6.0
     Generated by new atomic code, or converted to UPF format
     Using radial grid of  737 points,  4 beta functions with:
                l(1) =   0
                l(2) =   0
                l(3) =   1
                l(4) =   1
     Q(r) pseudized with  8 coefficients,  rinner =    0.800   0.800   0.800

     PseudoPot. # 3 for N  read from file:
     /storage/coda1/p-amedford6/0/shared/rich_project_chbe-medford/medford-share/data/pseudos_module/espresso/nninc/pbe/van/N.UPF
     MD5 check sum: 90d10febe142ad51ac9d5be1deb811c4
     Pseudo is Ultrasoft, Zval =  5.0
     Generated by new atomic code, or converted to UPF format
     Using radial grid of  729 points,  4 beta functions with:
                l(1) =   0
                l(2) =   0
                l(3) =   1
                l(4) =   1
     Q(r) pseudized with  8 coefficients,  rinner =    0.800   0.800   0.800

     PseudoPot. # 4 for C  read from file:
     /storage/coda1/p-amedford6/0/shared/rich_project_chbe-medford/medford-share/data/pseudos_module/espresso/nninc/pbe/van/C.UPF
     MD5 check sum: 1a69bf6b8db32088f5b2163dbdb77a27
     Pseudo is Ultrasoft, Zval =  4.0
     Generated by new atomic code, or converted to UPF format
     Using radial grid of  721 points,  4 beta functions with:
                l(1) =   0
                l(2) =   0
                l(3) =   1
                l(4) =   1
     Q(r) pseudized with  8 coefficients,  rinner =    0.800   0.800   0.800

     PseudoPot. # 5 for H  read from file:
     /storage/coda1/p-amedford6/0/shared/rich_project_chbe-medford/medford-share/data/pseudos_module/espresso/nninc/pbe/van/H.UPF
     MD5 check sum: b5ee9d7bfd3a09ee7748110bda690ff7
     Pseudo is Ultrasoft, Zval =  1.0
     Generated by new atomic code, or converted to UPF format
     Using radial grid of  615 points,  1 beta functions with:
                l(1) =   0
     Q(r) pseudized with  8 coefficients,  rinner =    0.800

     atomic species   valence    mass     pseudopotential
        Ti1           12.00    47.86700     Ti( 1.00)
        O1             6.00    15.99900     O ( 1.00)
        N1             5.00    14.00700     N ( 1.00)
        C1             4.00    12.01100     C ( 1.00)
        H1             1.00     1.00800     H ( 1.00)

     No symmetry found

   Cartesian axes

     site n.     atom                  positions (alat units)
         1           Ti1 tau(   1) = (   0.0004258   2.9801865   6.0000000  )
         2           Ti1 tau(   2) = (   3.2906075   1.4906267   6.0002472  )
         3           O1  tau(   3) = (   0.0006271   0.0005054   7.9858123  )
         4           O1  tau(   4) = (   3.2906025   0.0005020   7.3038282  )
         5           O1  tau(   5) = (   4.5942328   1.4918067   9.2879030  )
         6           O1  tau(   6) = (   1.9868534   1.4903216   9.2879459  )
         7           Ti1 tau(   7) = (   3.2907910   2.8959150   9.1758416  )
         8           Ti1 tau(   8) = (   0.0015273   1.4827037   9.2680791  )
         9           O1  tau(   9) = (   3.2766908   5.9368450  11.3531397  )
        10           O1  tau(  10) = (   0.0116148   5.9584955  10.6183126  )
        11           O1  tau(  11) = (   1.2656210   1.4746568  12.6519442  )
        12           O1  tau(  12) = (   5.2821112   1.4671822  12.6528637  )
        13           Ti1 tau(  13) = (   0.0097886   3.0246942  12.5604876  )
        14           Ti1 tau(  14) = (   3.2716845   1.2919425  12.6923688  )
        15           O1  tau(  15) = (   6.5701288   5.9533353  14.7096902  )
        16           O1  tau(  16) = (   3.2612835   0.0684280  14.0222998  )
        17           O1  tau(  17) = (   4.5366247   1.5847279  16.0182572  )
        18           O1  tau(  18) = (   1.9973522   1.5932486  16.1410213  )
        19           Ti1 tau(  19) = (   3.3011230   3.0369928  15.6528835  )
        20           Ti1 tau(  20) = (   6.4616919   1.5442775  15.7581475  )
        21           O1  tau(  21) = (   3.2904802   0.0005063   4.7018136  )
        22           O1  tau(  22) = (   6.5264998   0.0144113  17.2942622  )
        23           O1  tau(  23) = (   1.3043587   1.4918075   6.0039043  )
        24           O1  tau(  24) = (   5.2767064   1.4903225   6.0039473  )
        25           Ti1 tau(  25) = (   0.0000382   5.9609847   6.0000000  )
        26           Ti1 tau(  26) = (   3.2902200   4.4714249   6.0002472  )
        27           O1  tau(  27) = (   0.0002396   2.9813036   7.9858123  )
        28           O1  tau(  28) = (   3.2902150   2.9813002   7.3038282  )
        29           O1  tau(  29) = (   4.5938453   4.4726049   9.2879030  )
        30           O1  tau(  30) = (   1.9864658   4.4711199   9.2879459  )
        31           Ti1 tau(  31) = (   3.2891106   5.8743827   9.1763621  )
        32           Ti1 tau(  32) = (   0.0006254   4.4649316   9.2693709  )
        33           O1  tau(  33) = (   3.2807216   2.9716845  11.3098041  )
        34           O1  tau(  34) = (   0.0092240   2.9805883  10.6323155  )
        35           O1  tau(  35) = (   1.2724369   4.4570745  12.6376724  )
        36           O1  tau(  36) = (   5.2808598   4.4590940  12.6336130  )
        37           Ti1 tau(  37) = (   6.5522345   0.0346224  12.5198063  )
        38           Ti1 tau(  38) = (   3.2841791   4.3624788  12.4156291  )
        39           O1  tau(  39) = (   6.5678423   2.9906399  14.7075790  )
        40           O1  tau(  40) = (   3.2630306   2.9991211  13.8878987  )
        41           O1  tau(  41) = (   4.5399391   4.4365880  16.1202346  )
        42           O1  tau(  42) = (   1.9952260   4.4486394  16.1468368  )
        43           Ti1 tau(  43) = (   3.1909378   0.0332154  16.1742435  )
        44           Ti1 tau(  44) = (   6.5525253   4.6749982  16.1158565  )
        45           O1  tau(  45) = (   3.2900926   2.9813045   4.7018136  )
        46           O1  tau(  46) = (   1.3039711   4.4726057   6.0039043  )
        47           O1  tau(  47) = (   5.2763189   4.4711207   6.0039473  )
        48           N1  tau(  48) = (   0.9351815   2.3805788  18.4294677  )
        49           N1  tau(  49) = (   6.5001775   2.8750743  17.5309975  )
        50           C1  tau(  50) = (   1.3386797   3.2909482  19.5301671  )
        51           H1  tau(  51) = (   0.4734699   3.4817333  20.1622224  )
        52           H1  tau(  52) = (   2.1262835   2.8019037  20.0942238  )
        53           H1  tau(  53) = (   1.7016266   4.2178517  19.0939426  )
        54           H1  tau(  54) = (   0.6429753   1.4474929  18.7566963  )
        55           H1  tau(  55) = (   5.6191021   2.8022447  18.0351622  )
        56           H1  tau(  56) = (   1.7303324   2.1440475  17.7969061  )
        57           O1  tau(  57) = (   3.3671931   0.1367260  18.0860582  )
        58           H1  tau(  58) = (   4.3009782   5.9598238  18.3144400  )

     number of k points=    10  Fermi-Dirac smearing, width (Ry)=  0.0073
                       cart. coord. in units 2pi/alat
        k(    1) = (   0.0000000   0.0000000   0.0000000), wk =   0.1250000
        k(    2) = (   0.0000000   0.0419351   0.0000000), wk =   0.2500000
        k(    3) = (   0.0000000  -0.0838702   0.0000000), wk =   0.1250000
        k(    4) = (   0.0379955   0.0000049   0.0000000), wk =   0.2500000
        k(    5) = (   0.0379955   0.0419400   0.0000000), wk =   0.2500000
        k(    6) = (   0.0379955  -0.0838652   0.0000000), wk =   0.2500000
        k(    7) = (   0.0379955  -0.0419301   0.0000000), wk =   0.2500000
        k(    8) = (  -0.0759910  -0.0000099   0.0000000), wk =   0.1250000
        k(    9) = (  -0.0759910   0.0419252   0.0000000), wk =   0.2500000
        k(   10) = (  -0.0759910  -0.0838800   0.0000000), wk =   0.1250000

     Initial potential from superposition of free atoms

     starting charge  388.99913, renormalised to  405.00000

     negative rho (up, down):  1.470E-02 0.000E+00

     %%%%%%%%%%%%%%%%%%%%%%%%%%%%%%%%%%%%%%%%%%%%%%%%%%%%%%%%%%%%%%%%%%%%%%%%
     %                                                                      %
     % You are using vdW-DF, which was implemented by the Thonhauser group. %
     % Please cite the following two papers that made this development      %
     % possible and the two reviews that describe the various versions:     %
     %                                                                      %
     %   T. Thonhauser et al., PRL 115, 136402 (2015).                      %
     %   T. Thonhauser et al., PRB 76, 125112 (2007).                       %
     %   K. Berland et al., Rep. Prog. Phys. 78, 066501 (2015).             %
     %   D.C. Langreth et al., J. Phys.: Condens. Matter 21, 084203 (2009). %
     %                                                                      %
     %                                                                      %
     % If you are calculating the stress with vdW-DF, please also cite:     %
     %                                                                      %
     %   R. Sabatini et al., J. Phys.: Condens. Matter 24, 424209 (2012).   %
     %                                                                      %
     %%%%%%%%%%%%%%%%%%%%%%%%%%%%%%%%%%%%%%%%%%%%%%%%%%%%%%%%%%%%%%%%%%%%%%%%

     Adding external electric field

     Computed dipole along edir(3) :
        Dipole              -13.9950 Ry au,        -35.5717 Debye
        Dipole field         -0.0264 Ry au,

        Potential amp.        2.4482 Ry
        Total length         46.3494 bohr

     Starting wfcs are  307 atomic wfcs
  @ DRIVER MODE: Message from server: STATUS
  @ DRIVER MODE: Message from server: POSDATA
  @ DRIVER MODE: Reading and sharing cell
  @ DRIVER MODE: Reading and sharing positions
  @ DRIVER MODE: Received positions

     Self-consistent Calculation

     iteration #  1     ecut=    29.40 Ry     beta= 0.05
     Davidson diagonalization with overlap
     c_bands:  5 eigenvalues not converged
     c_bands:  5 eigenvalues not converged
     c_bands:  1 eigenvalues not converged
     c_bands:  2 eigenvalues not converged
     c_bands:  3 eigenvalues not converged
     ethr =  1.00E-05,  avg # of iterations = 28.6

[...]

     total energy              =   -2225.11950103 Ry
     estimated scf accuracy    <    8520.69182626 Ry

     iteration #  2     ecut=    29.40 Ry     beta= 0.05
     Davidson diagonalization with overlap
     ethr =  1.00E-02,  avg # of iterations = 27.4

[...]

     iteration # 44     ecut=    29.40 Ry     beta= 0.05
     Davidson diagonalization with overlap
     c_bands:  1 eigenvalues not converged
     ethr =  2.06E-07,  avg # of iterations = 11.5

[...]

     total energy              =   -2976.49315538 Ry
     estimated scf accuracy    <       0.00000008 Ry

     iteration # 63     ecut=    29.40 Ry     beta= 0.05
     Davidson diagonalization with overlap
     ethr =  1.91E-11,  avg # of iterations = 11.2

     negative rho (up, down):  1.568E-02 0.000E+00

     Adding external electric field

     Computed dipole along edir(3) :
        Dipole                1.5001 Ry au,          3.8128 Debye
        Dipole field          0.0028 Ry au,

        Potential amp.       -0.2624 Ry
        Total length         46.3494 bohr

     End of self-consistent calculation

          k = 0.0000 0.0000 0.0000 ( 18029 PWs)   bands (ev):

   -55.2984 -55.1739 -55.1398 -55.0041 -54.9946 -54.9905 -54.9692 -54.9610
   -54.9311 -54.8823 -54.8497 -54.8135 -54.7919 -54.7510 -54.1376 -54.1036
   -31.6566 -31.6258 -31.5447 -31.4960 -31.4936 -31.4892 -31.4661 -31.4468
   -31.4195 -31.4151 -31.3701 -31.3346 -31.3261 -31.2786 -31.2659 -31.2584
   -31.2517 -31.2312 -31.2158 -31.1988 -31.1850 -31.1826 -31.1722 -31.1686
   -31.1498 -31.1268 -31.1245 -31.1210 -31.1111 -31.1033 -31.0973 -31.0770
   -31.0683 -31.0546 -31.0378 -31.0246 -31.0230 -31.0113 -31.0082 -31.0069
   -30.9804 -30.9410 -30.5433 -30.4580 -30.4355 -30.3608 -30.2745 -30.1627
   -18.8699 -16.0453 -15.8064 -15.6554 -15.4871 -15.3415 -15.2551 -15.0556
   -14.9398 -14.9008 -14.8820 -14.8080 -14.7056 -14.7049 -14.6611 -14.6338
   -14.6296 -14.6009 -14.5895 -14.5875 -14.5693 -14.5208 -14.5058 -14.4608
   -14.4546 -14.4154 -14.3031 -14.2337 -14.1891 -14.1166 -13.9991 -13.0911
   -12.6364 -12.5202 -10.7924  -7.5746  -6.2449  -5.5795  -3.7513  -3.6391
    -3.4452  -3.1661  -3.0998  -3.0716  -3.0446  -2.8913  -2.7661  -2.5856
    -2.4750  -2.4307  -2.3131  -2.2956  -2.2140  -2.1655  -2.1211  -2.0731
    -2.0431  -1.9777  -1.9604  -1.9559  -1.9278  -1.8611  -1.8334  -1.7181
    -1.6889  -1.6254  -1.5678  -1.4977  -1.4817  -1.4751  -1.4679  -1.4569
    -1.4283  -1.4131  -1.3815  -1.3411  -1.2609  -1.2072  -1.2000  -1.1599
    -1.0765  -0.8913  -0.7682  -0.7442  -0.6862  -0.6426  -0.5913  -0.5791
    -0.5557  -0.5172  -0.4110  -0.3979  -0.3345  -0.3057  -0.2423  -0.1921
    -0.1645  -0.1008  -0.0394   0.0482   0.0686   0.0866   0.1280   0.1749
     0.2462   0.2821   0.3215   0.3517   0.4402   0.4936   0.5537   0.5606
     0.5929   0.6655   0.7217   0.7690   0.7896   0.8089   0.8599   0.8758
     0.9192   0.9742   1.0150   1.0305   1.1012   1.1597   1.2069   1.2401
     1.3382   1.3549   1.5130   1.5682   1.8360   1.8885   1.9560   2.0820
     2.4549   2.4997   3.9346   4.0551   4.0663   4.0888   4.1677   4.2306
     4.3980   4.4048   4.5168   4.6171

[...]

          k = 0.0380-0.0419 0.0000 ( 17876 PWs)   bands (ev):

[...]

          k =-0.0760-0.0000 0.0000 ( 17886 PWs)   bands (ev):

[...]

          k =-0.0760-0.0839 0.0000 ( 17948 PWs)   bands (ev):

   -55.2976 -55.1573 -55.1562 -54.9910 -54.9881 -54.9851 -54.9786 -54.9767
   -54.9243 -54.8891 -54.8394 -54.8237 -54.7849 -54.7580 -54.1210 -54.1201
   -31.5591 -31.5360 -31.4905 -31.4723 -31.4716 -31.4520 -31.4510 -31.4137
   -31.3144 -31.3076 -31.3019 -31.3005 -31.2953 -31.2769 -31.2758 -31.2669
   -31.2665 -31.2457 -31.2438 -31.2149 -31.2018 -31.1980 -31.1970 -31.1909
   -31.1765 -31.1662 -31.1577 -31.1528 -31.1502 -31.1453 -31.1412 -31.1217
   -31.1104 -31.0884 -31.0733 -31.0670 -31.0323 -31.0300 -31.0182 -31.0157
   -31.0104 -30.9931 -30.4486 -30.4479 -30.3568 -30.3556 -30.3180 -30.3173
   -18.8658 -16.0110 -15.3739 -15.1699 -15.1073 -15.0839 -15.0692 -15.0327
   -15.0063 -14.9522 -14.9331 -14.8751 -14.8444 -14.8315 -14.7599 -14.7442
   -14.6887 -14.6594 -14.6468 -14.6071 -14.6026 -14.5802 -14.5479 -14.5394
   -14.4741 -14.4602 -14.4567 -14.3645 -14.3549 -14.2343 -14.1855 -13.1019
   -12.6225 -12.6218 -10.7946  -7.5855  -6.2309  -5.5693  -3.7010  -3.6484
    -3.4014  -2.5857  -2.4483  -2.4377  -2.3023  -2.2890  -2.1932  -2.1464
    -2.0933  -2.0751  -2.0527  -2.0340  -2.0032  -1.9703  -1.9539  -1.9466
    -1.9185  -1.8964  -1.8712  -1.8655  -1.8298  -1.8249  -1.8035  -1.7804
    -1.7701  -1.7351  -1.7217  -1.7176  -1.7034  -1.6501  -1.6313  -1.4686
    -1.4378  -1.3469  -1.3133  -1.2902  -1.2808  -1.2552  -1.2378  -1.2171
    -1.1619  -1.1089  -1.0481  -0.9212  -0.8762  -0.8118  -0.7760  -0.6983
    -0.6572  -0.6238  -0.5954  -0.5718  -0.5387  -0.4817  -0.4044  -0.3495
    -0.3038  -0.2625  -0.1649  -0.1457  -0.1232  -0.1118  -0.0782  -0.0193
    -0.0126   0.0435   0.0623   0.1255   0.1404   0.1560   0.1742   0.2574
     0.3519   0.4324   0.4562   0.5474   0.5652   0.6549   0.7017   0.8020
     0.9145   0.9601   0.9997   1.0095   1.0929   1.0986   1.1546   1.1774
     1.2602   1.3487   1.4131   1.4213   1.4412   1.4951   2.2513   2.2599
     2.3199   2.3202   4.1854   4.3480   4.4277   4.4393   4.4713   4.4824
     4.5147   4.5172   4.6031   4.6123

     the Fermi energy is     3.9538 ev

!    total energy              =   -2976.49321193 Ry
     estimated scf accuracy    <       0.00000007 Ry
     smearing contrib. (-TS)   =      -0.02056952 Ry
     internal energy E=F+TS    =   -2976.47264240 Ry

     The total energy is F=E-TS. E is the sum of the following terms:
     one-electron contribution =  -23617.50920209 Ry
     hartree contribution      =   11908.48726076 Ry
     xc contribution           =    -495.77072305 Ry
     ewald contribution        =    9228.31577564 Ry
     electric field correction =       0.00424634 Ry

     convergence has been achieved in  63 iterations

     Forces acting on atoms (cartesian axes, Ry/au):

     atom    1 type  1   force =     0.00014261   -0.00012509    0.09535734
     atom    2 type  1   force =    -0.00002877    0.00039943   -0.17474847
     atom    3 type  2   force =     0.00004241   -0.00018329   -0.02256049
     atom    4 type  2   force =     0.00001541   -0.00200508    0.05319427
     atom    5 type  2   force =    -0.00813721   -0.00302591    0.00227838
     atom    6 type  2   force =     0.00923451   -0.00232106    0.00057173
     atom    7 type  1   force =    -0.00079314   -0.00508501    0.00570681
     atom    8 type  1   force =     0.00084031    0.00656607    0.01469129
     atom    9 type  2   force =     0.00011686    0.00043265    0.00074758
     atom   10 type  2   force =    -0.00346588    0.00091672   -0.01237643
     atom   11 type  2   force =    -0.00000141   -0.00055583    0.00028141
     atom   12 type  2   force =     0.00006478   -0.00043309    0.00023282
     atom   13 type  1   force =     0.00091878    0.00086630    0.00011804
     atom   14 type  1   force =    -0.00019321    0.00013646   -0.00042780
     atom   15 type  2   force =     0.00015205   -0.00079027   -0.00072693
     atom   16 type  2   force =     0.00011623   -0.00013010    0.00093673
     atom   17 type  2   force =    -0.00005553    0.00012162   -0.00007124
     atom   18 type  2   force =    -0.00006380    0.00027651   -0.00000618
     atom   19 type  1   force =     0.00020535   -0.00005126   -0.00008762
     atom   20 type  1   force =     0.00007285    0.00010436   -0.00021271
     atom   21 type  2   force =     0.00009243    0.00000111    0.10303355
     atom   22 type  2   force =     0.00011261    0.00025056    0.00070450
     atom   23 type  2   force =    -0.07212862   -0.00022129   -0.02758898
     atom   24 type  2   force =     0.07208711    0.00026577   -0.02760797
     atom   25 type  1   force =     0.00016740   -0.00030006    0.09519805
     atom   26 type  1   force =     0.00001090   -0.00124219   -0.17523520
     atom   27 type  2   force =    -0.00000468    0.00008504   -0.02152821
     atom   28 type  2   force =     0.00005496   -0.00043706    0.04876954
     atom   29 type  2   force =    -0.00785731    0.00198288    0.00251891
     atom   30 type  2   force =     0.00888402    0.00234073    0.00069814
     atom   31 type  1   force =    -0.00069114    0.00834686   -0.00445357
     atom   32 type  1   force =     0.00106434   -0.00751597    0.01447008
     atom   33 type  2   force =     0.00012678    0.00022832    0.00000115
     atom   34 type  2   force =    -0.00269895   -0.00027625   -0.01825414
     atom   35 type  2   force =    -0.00055190    0.00026625    0.00008252
     atom   36 type  2   force =     0.00071890    0.00039489    0.00023685
     atom   37 type  1   force =     0.00018633   -0.00037637    0.00025692
     atom   38 type  1   force =    -0.00006337   -0.00006887   -0.00073285
     atom   39 type  2   force =     0.00029220    0.00032323   -0.00013195
     atom   40 type  2   force =     0.00023373    0.00000230    0.00068247
     atom   41 type  2   force =    -0.00019431   -0.00034514    0.00000983
     atom   42 type  2   force =     0.00043720   -0.00015705    0.00048512
     atom   43 type  1   force =     0.00001016    0.00019992   -0.00046300
     atom   44 type  1   force =     0.00030870   -0.00021640   -0.00008353
     atom   45 type  2   force =     0.00008883   -0.00010077    0.10284932
     atom   46 type  2   force =    -0.07217603   -0.00003963   -0.02761677
     atom   47 type  2   force =     0.07212051    0.00035708   -0.02762515
     atom   48 type  3   force =    -0.00044330    0.00063064   -0.00059527
     atom   49 type  3   force =    -0.00073702    0.00035603   -0.00049858
     atom   50 type  4   force =    -0.00338786    0.00289787   -0.00399086
     atom   51 type  5   force =     0.00074195    0.00012719    0.00021051
     atom   52 type  5   force =     0.00388865   -0.00262624    0.00429320
     atom   53 type  5   force =     0.00008810    0.00031828   -0.00044927
     atom   54 type  5   force =    -0.00016486   -0.00039542    0.00002972
     atom   55 type  5   force =    -0.00027017   -0.00033489   -0.00009971
     atom   56 type  5   force =    -0.00006013    0.00012572   -0.00049663
     atom   57 type  2   force =     0.00017434   -0.00051017   -0.00009515
     atom   58 type  5   force =     0.00035633    0.00054895    0.00011788

     Total force =     0.363649     Total SCF correction =     0.000495
  @ DRIVER MODE: Message from server: STATUS
  @ DRIVER MODE: Message from server: GETFORCE
  @ DRIVER MODE: Returning v,forces,stress,ensemble

     Writing output data file ./calc.save/
  @ DRIVER MODE: Message from server: EXIT
  @ DRIVE MODE: Exiting

     General routines

     Parallel routines

   This run was terminated on:  23:52:39  23Sep2021

   JOB DONE.