     Program PWSCF v.6.7GPU starts on 15Sep2021 at 17:22:34

     R & G space division:  proc/nbgrp/npool/nimage =      10
     Reading input from /storage/home/hcoda1/3/ntian30/research/carbon/CxH_vib/H2O_calc/ads_slab/CHOH2O_a/out_0006/pw.inp
Warning: card &CELL ignored
Warning: card   CELL_DYNAMICS='IPI', ignored
Warning: card / ignored

     Current dimensions of program PWSCF are:
     Max number of different atomic species (ntypx) = 10
     Max number of k-points (npk) =  40000
     Max angular momentum in pseudopotentials (lmaxx) =  3
     Presently no symmetry can be used with electric field

     Message from routine cell_base_init:
     DEPRECATED: use true lattice parameter, not A to a.u. conversion factor

     IMPORTANT: XC functional enforced from input :
     Exchange-correlation= BEEF-VDW
                           (   1   4  43  14   2   0   0)
     Any further DFT definition will be discarded
     Please, verify this is what you really want

  @ DRIVER MODE: Connecting to
 qe_1139763_2852631.sched-torque.pace.gatech.edut9k3csca_scratch
  using UNIX socket
  @ DRIVER MODE: Message from server: STATUS
  @ DRIVER MODE: Message from server: INIT
  @ DRIVER MODE: Receiving replica           0          -1
  @ DRIVER MODE: Receiving encoded integer          25
  @ DRIVER MODE:  SCF:  T  FORCE:  T  STRESS:  F  VC:  F  ENSEMBLE:  F
  @ DRIVER MODE:  SCF:  T  FORCE:  T  STRESS:  F  VC:  F  ENSEMBLE:  F

     Using Slab Decomposition

     bravais-lattice index     =            0
     lattice parameter (alat)  =       1.8897  a.u.
     unit-cell volume          =    6658.9804 (a.u.)^3
     number of atoms/cell      =           53
     number of atomic types    =            4
     number of electrons       =       397.00
     number of Kohn-Sham states=          208
     kinetic-energy cutoff     =      29.3995  Ry
     charge density cutoff     =     293.9946  Ry
     scf convergence threshold =      7.3E-08
     mixing beta               =       0.0500
     number of iterations used =            8  plain     mixing
     Exchange-correlation= BEEF-VDW
                           (   1   4  43  14   2   0   0)

     celldm(1)=   1.889726  celldm(2)=   0.000000  celldm(3)=   0.000000
     celldm(4)=   0.000000  celldm(5)=   0.000000  celldm(6)=   0.000000

     crystal axes: (cart. coord. in units of alat)
               a(1) = (   6.579727   0.000000   0.000000 )
               a(2) = (  -0.000775   5.961596   0.000000 )
               a(3) = (   0.000000   0.000000  25.155947 )

     reciprocal axes: (cart. coord. in units 2 pi/alat)
               b(1) = (  0.151982  0.000020  0.000000 )
               b(2) = (  0.000000  0.167740  0.000000 )
               b(3) = (  0.000000  0.000000  0.039752 )

     PseudoPot. # 1 for O  read from file:
     /storage/coda1/p-amedford6/0/shared/rich_project_chbe-medford/medford-share/data/pseudos_module/espresso/nninc/pbe/van/O.UPF
     MD5 check sum: 78c19812648e8988a0fe644b0f25305e
     Pseudo is Ultrasoft, Zval =  6.0
     Generated by new atomic code, or converted to UPF format
     Using radial grid of  737 points,  4 beta functions with:
                l(1) =   0
                l(2) =   0
                l(3) =   1
                l(4) =   1
     Q(r) pseudized with  8 coefficients,  rinner =    0.800   0.800   0.800

     PseudoPot. # 2 for Ti read from file:
     /storage/coda1/p-amedford6/0/shared/rich_project_chbe-medford/medford-share/data/pseudos_module/espresso/nninc/pbe/van/Ti.UPF
     MD5 check sum: 8e4df49b7f0d34bbd5052bf3f5ea0213
     Pseudo is Ultrasoft, Zval = 12.0
     Generated by new atomic code, or converted to UPF format
     Using radial grid of  851 points,  6 beta functions with:
                l(1) =   0
                l(2) =   0
                l(3) =   1
                l(4) =   1
                l(5) =   2
                l(6) =   2
     Q(r) pseudized with  8 coefficients,  rinner =    1.000   1.000   1.000
                                                       1.000   1.000

     PseudoPot. # 3 for C  read from file:
     /storage/coda1/p-amedford6/0/shared/rich_project_chbe-medford/medford-share/data/pseudos_module/espresso/nninc/pbe/van/C.UPF
     MD5 check sum: 1a69bf6b8db32088f5b2163dbdb77a27
     Pseudo is Ultrasoft, Zval =  4.0
     Generated by new atomic code, or converted to UPF format
     Using radial grid of  721 points,  4 beta functions with:
                l(1) =   0
                l(2) =   0
                l(3) =   1
                l(4) =   1
     Q(r) pseudized with  8 coefficients,  rinner =    0.800   0.800   0.800

     PseudoPot. # 4 for H  read from file:
     /storage/coda1/p-amedford6/0/shared/rich_project_chbe-medford/medford-share/data/pseudos_module/espresso/nninc/pbe/van/H.UPF
     MD5 check sum: b5ee9d7bfd3a09ee7748110bda690ff7
     Pseudo is Ultrasoft, Zval =  1.0
     Generated by new atomic code, or converted to UPF format
     Using radial grid of  615 points,  1 beta functions with:
                l(1) =   0
     Q(r) pseudized with  8 coefficients,  rinner =    0.800

     atomic species   valence    mass     pseudopotential
        O1             6.00    15.99900     O ( 1.00)
        Ti1           12.00    47.86700     Ti( 1.00)
        C1             4.00    12.01100     C ( 1.00)
        H1             1.00     1.00800     H ( 1.00)

     No symmetry found

   Cartesian axes

     site n.     atom                  positions (alat units)
         1           O1  tau(   1) = (   3.2904802   0.0005063   4.7018136  )
         2           O1  tau(   2) = (   3.2900926   2.9813045   4.7018136  )
         3           Ti1 tau(   3) = (   0.0004258   2.9801865   6.0000000  )
         4           Ti1 tau(   4) = (   0.0000382   5.9609847   6.0000000  )
         5           Ti1 tau(   5) = (   3.2906075   1.4906267   6.0002472  )
         6           Ti1 tau(   6) = (   3.2902200   4.4714249   6.0002472  )
         7           O1  tau(   7) = (   1.3043587   1.4918075   6.0039043  )
         8           O1  tau(   8) = (   1.3039711   4.4726057   6.0039043  )
         9           O1  tau(   9) = (   5.2767064   1.4903225   6.0039473  )
        10           O1  tau(  10) = (   5.2763189   4.4711207   6.0039473  )
        11           O1  tau(  11) = (   3.2906025   0.0005020   7.3038282  )
        12           O1  tau(  12) = (   3.2902150   2.9813002   7.3038282  )
        13           O1  tau(  13) = (   0.0006271   0.0005054   7.9858123  )
        14           O1  tau(  14) = (   0.0002396   2.9813036   7.9858123  )
        15           Ti1 tau(  15) = (   3.2898052   0.0549011   9.1556235  )
        16           Ti1 tau(  16) = (   3.3203827   3.0319468   9.1649589  )
        17           Ti1 tau(  17) = (   0.0233352   4.5284096   9.2575609  )
        18           Ti1 tau(  18) = (   0.0173867   1.6076536   9.3607995  )
        19           O1  tau(  19) = (   4.5942328   1.4918067   9.2879030  )
        20           O1  tau(  20) = (   4.5938453   4.4726049   9.2879030  )
        21           O1  tau(  21) = (   1.9868534   1.4903216   9.2879459  )
        22           O1  tau(  22) = (   1.9864658   4.4711199   9.2879459  )
        23           O1  tau(  23) = (   0.0034721   0.0125384  10.6021848  )
        24           O1  tau(  24) = (   0.0020335   2.9928551  10.5785608  )
        25           O1  tau(  25) = (   3.2937812   2.9995440  11.3622203  )
        26           O1  tau(  26) = (   3.2898347   0.0201518  11.3605052  )
        27           Ti1 tau(  27) = (   0.0300534   0.0302837  12.4945235  )
        28           Ti1 tau(  28) = (   3.3347356   4.5017157  12.5123549  )
        29           Ti1 tau(  29) = (   3.3349302   1.5071924  12.5110355  )
        30           Ti1 tau(  30) = (   0.0295963   3.0145660  12.7881340  )
        31           O1  tau(  31) = (   1.2797855   4.4923438  12.6426172  )
        32           O1  tau(  32) = (   1.2799313   1.5104473  12.6443552  )
        33           O1  tau(  33) = (   5.2866386   4.4922094  12.6434695  )
        34           O1  tau(  34) = (   5.2866683   1.5083124  12.6439979  )
        35           O1  tau(  35) = (   3.2814828   3.0070543  13.9178409  )
        36           O1  tau(  36) = (   3.2867003   0.0227894  13.9786966  )
        37           O1  tau(  37) = (   0.0021618   0.0175046  14.6784646  )
        38           O1  tau(  38) = (   0.0002945   3.0143855  14.7103493  )
        39           Ti1 tau(  39) = (   3.2869621   3.0144872  15.7052805  )
        40           Ti1 tau(  40) = (   3.3044863   0.0423327  15.8215216  )
        41           Ti1 tau(  41) = (   0.0135451   4.5796903  15.9522020  )
        42           Ti1 tau(  42) = (   0.0105102   1.3838334  15.9764479  )
        43           O1  tau(  43) = (   4.5519026   4.4709862  16.0573678  )
        44           O1  tau(  44) = (   4.5564327   1.5473262  16.0430495  )
        45           O1  tau(  45) = (   2.0152543   1.5518810  16.0555283  )
        46           O1  tau(  46) = (   2.0123771   4.4621050  16.0713562  )
        47           O1  tau(  47) = (   0.0008539   0.0298781  17.1953024  )
        48           O1  tau(  48) = (   6.5358978   3.0350243  17.4795059  )
        49           C1  tau(  49) = (   6.3916590   3.0774531  18.7359330  )
        50           H1  tau(  50) = (   6.4332689   2.0249999  19.1325638  )
        51           O1  tau(  51) = (   3.2941481   0.0813851  18.1811625  )
        52           H1  tau(  52) = (   4.0521942   5.5777154  18.5714528  )
        53           H1  tau(  53) = (   2.4879692   5.6555715  18.5615442  )

     number of k points=    10  Fermi-Dirac smearing, width (Ry)=  0.0073
                       cart. coord. in units 2pi/alat
        k(    1) = (   0.0000000   0.0000000   0.0000000), wk =   0.1250000
        k(    2) = (   0.0000000   0.0419351   0.0000000), wk =   0.2500000
        k(    3) = (   0.0000000  -0.0838702   0.0000000), wk =   0.1250000
        k(    4) = (   0.0379955   0.0000049   0.0000000), wk =   0.2500000
        k(    5) = (   0.0379955   0.0419400   0.0000000), wk =   0.2500000
        k(    6) = (   0.0379955  -0.0838652   0.0000000), wk =   0.2500000
        k(    7) = (   0.0379955  -0.0419301   0.0000000), wk =   0.2500000
        k(    8) = (  -0.0759910  -0.0000099   0.0000000), wk =   0.1250000
        k(    9) = (  -0.0759910   0.0419252   0.0000000), wk =   0.2500000
        k(   10) = (  -0.0759910  -0.0838800   0.0000000), wk =   0.1250000

     Initial potential from superposition of free atoms

     starting charge  380.99918, renormalised to  397.00000

     negative rho (up, down):  1.751E-02 0.000E+00

     %%%%%%%%%%%%%%%%%%%%%%%%%%%%%%%%%%%%%%%%%%%%%%%%%%%%%%%%%%%%%%%%%%%%%%%%
     %                                                                      %
     % You are using vdW-DF, which was implemented by the Thonhauser group. %
     % Please cite the following two papers that made this development      %
     % possible and the two reviews that describe the various versions:     %
     %                                                                      %
     %   T. Thonhauser et al., PRL 115, 136402 (2015).                      %
     %   T. Thonhauser et al., PRB 76, 125112 (2007).                       %
     %   K. Berland et al., Rep. Prog. Phys. 78, 066501 (2015).             %
     %   D.C. Langreth et al., J. Phys.: Condens. Matter 21, 084203 (2009). %
     %                                                                      %
     %                                                                      %
     % If you are calculating the stress with vdW-DF, please also cite:     %
     %                                                                      %
     %   R. Sabatini et al., J. Phys.: Condens. Matter 24, 424209 (2012).   %
     %                                                                      %
     %%%%%%%%%%%%%%%%%%%%%%%%%%%%%%%%%%%%%%%%%%%%%%%%%%%%%%%%%%%%%%%%%%%%%%%%

     Adding external electric field

     Computed dipole along edir(3) :
        Dipole               -8.9538 Ry au,        -22.7583 Debye
        Dipole field         -0.0169 Ry au,

        Potential amp.        1.5663 Ry
        Total length         46.3494 bohr

     Starting wfcs are  299 atomic wfcs
  @ DRIVER MODE: Message from server: STATUS
  @ DRIVER MODE: Message from server: POSDATA
  @ DRIVER MODE: Reading and sharing cell
  @ DRIVER MODE: Reading and sharing positions
  @ DRIVER MODE: Received positions

     Self-consistent Calculation

     iteration #  1     ecut=    29.40 Ry     beta= 0.05
     Davidson diagonalization with overlap
     c_bands:  1 eigenvalues not converged
     c_bands:  1 eigenvalues not converged
     c_bands:  1 eigenvalues not converged
     c_bands:  2 eigenvalues not converged
     ethr =  1.00E-05,  avg # of iterations = 19.1

[...]

     total energy              =   -2583.17833033 Ry
     estimated scf accuracy    <    4233.65007439 Ry

     iteration #  2     ecut=    29.40 Ry     beta= 0.05
     Davidson diagonalization with overlap
     ethr =  1.00E-02,  avg # of iterations = 23.5

[...]

     iteration # 80     ecut=    29.40 Ry     beta= 0.05
     Davidson diagonalization with overlap
     c_bands:  1 eigenvalues not converged
     ethr =  1.13E-10,  avg # of iterations = 10.8

[...]

     total energy              =   -2963.67518205 Ry
     estimated scf accuracy    <       0.00000022 Ry

     iteration # 82     ecut=    29.40 Ry     beta= 0.05
     Davidson diagonalization with overlap
     ethr =  5.55E-11,  avg # of iterations =  6.9

     negative rho (up, down):  1.623E-02 0.000E+00

     Adding external electric field

     Computed dipole along edir(3) :
        Dipole                0.4677 Ry au,          1.1889 Debye
        Dipole field          0.0009 Ry au,

        Potential amp.       -0.0818 Ry
        Total length         46.3494 bohr

     End of self-consistent calculation

          k = 0.0000 0.0000 0.0000 ( 18029 PWs)   bands (ev):

   -56.0094 -55.9727 -55.9725 -55.9518 -55.9366 -55.8929 -55.8586 -55.8258
   -55.7917 -55.7886 -55.7764 -55.7535 -55.7428 -55.6824 -55.0186 -54.9845
   -32.5260 -32.4802 -32.4057 -32.3697 -32.3610 -32.3052 -32.2855 -32.2749
   -32.2548 -32.2418 -32.2036 -32.1974 -32.1877 -32.1682 -32.1679 -32.1550
   -32.1290 -32.1149 -32.1021 -32.1012 -32.0817 -32.0726 -32.0675 -32.0606
   -32.0481 -32.0400 -32.0354 -32.0238 -32.0073 -31.9981 -31.9940 -31.9833
   -31.9642 -31.9565 -31.9516 -31.9515 -31.9208 -31.9027 -31.8958 -31.8818
   -31.8689 -31.8648 -31.4280 -31.3322 -31.3099 -31.2445 -31.1584 -31.0473
   -19.5735 -19.1211 -16.7315 -16.4703 -16.3135 -16.1917 -16.1428 -15.9260
   -15.8439 -15.7954 -15.7078 -15.6295 -15.5994 -15.5860 -15.5512 -15.5346
   -15.5281 -15.5119 -15.4555 -15.4391 -15.4162 -15.4110 -15.3991 -15.3804
   -15.2986 -15.2306 -15.1643 -15.1312 -15.0597 -15.0190 -14.9856 -13.5196
   -13.4017  -7.9089  -6.9277  -4.7100  -4.0895  -3.9498  -3.9280  -3.8980
    -3.8281  -3.6585  -3.6133  -3.4692  -3.3472  -3.3049  -3.1840  -3.1451
    -3.1263  -3.0621  -3.0362  -2.9781  -2.8506  -2.8331  -2.8210  -2.8042
    -2.7943  -2.7511  -2.7315  -2.6951  -2.6500  -2.5946  -2.5268  -2.4999
    -2.4127  -2.4088  -2.3699  -2.3132  -2.3103  -2.2871  -2.2702  -2.2428
    -2.1938  -2.1785  -2.1710  -2.0668  -1.9762  -1.8655  -1.7055  -1.6817
    -1.6769  -1.5558  -1.5029  -1.4504  -1.4156  -1.4134  -1.3633  -1.3156
    -1.2715  -1.2510  -1.1473  -1.0346  -1.0047  -0.9427  -0.9144  -0.7904
    -0.7382  -0.7318  -0.7248  -0.7196  -0.6951  -0.6262  -0.5079  -0.4361
    -0.4275  -0.3341  -0.3150  -0.2994  -0.2418  -0.2324  -0.2117  -0.1567
    -0.1140  -0.0631  -0.0468  -0.0157   0.0208   0.0262   0.1548   0.2035
     0.2325   0.2554   0.2931   0.4588   0.5061   0.6369   0.7401   0.9130
     1.0053   1.0696   1.1798   1.5908   1.6482   2.8613   3.1676   3.2113
     3.2249   3.2393   3.3028   3.4040   3.5493   3.6208   3.6353   3.6703

[...]

          k = 0.0380-0.0419 0.0000 ( 17876 PWs)   bands (ev):

[...]

          k =-0.0760-0.0000 0.0000 ( 17886 PWs)   bands (ev):

[...]

          k =-0.0760-0.0839 0.0000 ( 17948 PWs)   bands (ev):

   -55.9981 -55.9837 -55.9558 -55.9534 -55.9497 -55.8812 -55.8703 -55.8213
   -55.7904 -55.7884 -55.7615 -55.7580 -55.7578 -55.6851 -55.0021 -55.0009
   -32.3409 -32.3203 -32.3184 -32.3043 -32.2917 -32.2885 -32.2686 -32.2427
   -32.2339 -32.2226 -32.2129 -32.2056 -32.1645 -32.1546 -32.1471 -32.1352
   -32.1224 -32.1181 -32.1133 -32.1117 -32.1078 -32.1077 -32.0895 -32.0849
   -32.0840 -32.0773 -32.0710 -32.0455 -32.0291 -32.0226 -32.0155 -32.0116
   -32.0035 -31.9901 -31.9810 -31.9733 -31.9725 -31.9674 -31.9569 -31.9454
   -31.9094 -31.8788 -31.3233 -31.3218 -31.2414 -31.2404 -31.2020 -31.2010
   -19.5659 -19.1204 -16.1840 -16.0791 -16.0669 -15.8922 -15.8782 -15.8568
   -15.8144 -15.8059 -15.7118 -15.7092 -15.6651 -15.6536 -15.6276 -15.5936
   -15.5879 -15.5250 -15.5244 -15.5200 -15.4651 -15.4584 -15.4363 -15.4210
   -15.4037 -15.3897 -15.3440 -15.3325 -15.2692 -15.2058 -15.1876 -13.5042
   -13.5019  -7.9101  -6.9210  -4.6587  -3.7274  -3.4659  -3.3357  -3.3170
    -3.2272  -3.1287  -3.1024  -3.0638  -3.0176  -2.9767  -2.9265  -2.8695
    -2.8430  -2.8403  -2.8300  -2.8232  -2.8038  -2.7989  -2.7608  -2.7333
    -2.7032  -2.6736  -2.6536  -2.6312  -2.6261  -2.6193  -2.5876  -2.5713
    -2.5592  -2.5513  -2.4833  -2.4636  -2.3445  -2.3258  -2.2413  -2.2115
    -2.1468  -2.1416  -2.1166  -2.0741  -2.0655  -2.0500  -1.8774  -1.8590
    -1.7435  -1.7381  -1.7156  -1.6853  -1.6015  -1.5294  -1.4961  -1.4736
    -1.4210  -1.4065  -1.3332  -1.2666  -1.2092  -1.1712  -1.1028  -1.0712
    -1.0557  -0.9766  -0.9663  -0.9323  -0.9064  -0.8904  -0.7689  -0.7612
    -0.7271  -0.6900  -0.6596  -0.6111  -0.5597  -0.5430  -0.5079  -0.4553
    -0.3871  -0.3585  -0.1677   0.0150   0.0203   0.0494   0.1417   0.1783
     0.2988   0.3285   0.3337   0.3714   0.4122   0.5072   0.5300   0.5375
     0.6107   1.3656   1.3666   1.4530   1.4640   2.7259   3.3537   3.4162
     3.4793   3.5164   3.6215   3.6390   3.6536   3.6654   3.7006   3.8020

     the Fermi energy is     3.1413 ev

!    total energy              =   -2963.67518797 Ry
     estimated scf accuracy    <       0.00000006 Ry
     smearing contrib. (-TS)   =      -0.02618102 Ry
     internal energy E=F+TS    =   -2963.64900695 Ry

     The total energy is F=E-TS. E is the sum of the following terms:
     one-electron contribution =  -24419.95533747 Ry
     hartree contribution      =   12297.42007051 Ry
     xc contribution           =    -489.20010593 Ry
     ewald contribution        =    9648.08595308 Ry
     electric field correction =       0.00041286 Ry

     convergence has been achieved in  82 iterations

     Forces acting on atoms (cartesian axes, Ry/au):

     atom    1 type  1   force =    -0.00006480    0.00006794    0.10401996
     atom    2 type  1   force =    -0.00005630    0.00005601    0.10405332
     atom    3 type  2   force =    -0.00018212   -0.00195614    0.10277447
     atom    4 type  2   force =    -0.00007924    0.00160583    0.11465220
     atom    5 type  2   force =    -0.00026185    0.00156065   -0.17904312
     atom    6 type  2   force =    -0.00014280   -0.00104841   -0.17941870
     atom    7 type  1   force =    -0.06953258    0.00066551   -0.02929634
     atom    8 type  1   force =    -0.06907640   -0.00122572   -0.02934109
     atom    9 type  1   force =     0.06920906    0.00119401   -0.02935207
     atom   10 type  1   force =     0.06883824   -0.00085842   -0.02942344
     atom   11 type  1   force =     0.00005797    0.00064280    0.04737351
     atom   12 type  1   force =     0.00063779    0.00090328    0.04974143
     atom   13 type  1   force =     0.00021942   -0.00562310   -0.03309880
     atom   14 type  1   force =     0.00028211    0.00398605   -0.02651585
     atom   15 type  2   force =    -0.00015888   -0.00004199   -0.00072506
     atom   16 type  2   force =    -0.00020033   -0.00005342   -0.00077599
     atom   17 type  2   force =     0.00009277   -0.00093441   -0.00005926
     atom   18 type  2   force =     0.00011931    0.00108739   -0.00011024
     atom   19 type  1   force =    -0.01879881   -0.00005690    0.00453622
     atom   20 type  1   force =    -0.01689311    0.00164908    0.00399179
     atom   21 type  1   force =     0.01837962   -0.00109468    0.00452003
     atom   22 type  1   force =     0.01749016    0.00197740    0.00385022
     atom   23 type  1   force =     0.00018555    0.00006283   -0.00068869
     atom   24 type  1   force =     0.00011549   -0.00021470   -0.00018847
     atom   25 type  1   force =    -0.00031636    0.00016323   -0.00068481
     atom   26 type  1   force =    -0.00019623   -0.00004365   -0.00086135
     atom   27 type  2   force =    -0.00021909    0.00044534    0.00012311
     atom   28 type  2   force =     0.00025171    0.00065759    0.00070468
     atom   29 type  2   force =     0.00026525   -0.00011854    0.00088441
     atom   30 type  2   force =    -0.00020101   -0.00023474   -0.00024006
     atom   31 type  1   force =     0.00024125   -0.00010464   -0.00031099
     atom   32 type  1   force =     0.00002873    0.00015268   -0.00004040
     atom   33 type  1   force =    -0.00007139   -0.00019144   -0.00067266
     atom   34 type  1   force =     0.00006799    0.00014444   -0.00037355
     atom   35 type  1   force =     0.00010333   -0.00003163   -0.00103008
     atom   36 type  1   force =     0.00012774   -0.00053552    0.00048152
     atom   37 type  1   force =    -0.00017976    0.00012179    0.00072637
     atom   38 type  1   force =     0.00014360   -0.00008254    0.00055727
     atom   39 type  2   force =    -0.00013026   -0.00051067    0.00044335
     atom   40 type  2   force =    -0.00003119   -0.00077018   -0.00017790
     atom   41 type  2   force =     0.00024794   -0.00030171   -0.00101004
     atom   42 type  2   force =     0.00004082   -0.00026427   -0.00099676
     atom   43 type  1   force =    -0.00038361   -0.00070379    0.00044042
     atom   44 type  1   force =     0.00028449    0.00008097    0.00036510
     atom   45 type  1   force =    -0.00024105   -0.00012844    0.00043138
     atom   46 type  1   force =     0.00038316   -0.00034872    0.00034136
     atom   47 type  1   force =    -0.00032519    0.00046715    0.00077198
     atom   48 type  1   force =     0.00184452    0.00196833   -0.01847182
     atom   49 type  3   force =    -0.00161242   -0.00110015    0.01492572
     atom   50 type  4   force =    -0.00081568    0.00050060    0.00149433
     atom   51 type  1   force =    -0.00016616   -0.00007151   -0.00100343
     atom   52 type  4   force =     0.00090091   -0.00114253    0.00118657
     atom   53 type  4   force =    -0.00022229   -0.00036833    0.00052027

     Total force =     0.375135     Total SCF correction =     0.000713
  @ DRIVER MODE: Message from server: STATUS
  @ DRIVER MODE: Message from server: GETFORCE
  @ DRIVER MODE: Returning v,forces,stress,ensemble

     Writing output data file ./calc.save/
  @ DRIVER MODE: Message from server: EXIT
  @ DRIVE MODE: Exiting

     General routines

     Parallel routines

   This run was terminated on:  17:43:30  15Sep2021

   JOB DONE.