     Program PWSCF v.6.7GPU starts on  9Sep2021 at  6:46:56

     R & G space division:  proc/nbgrp/npool/nimage =      10
     Reading input from /storage/home/hcoda1/3/ntian30/research/carbon/CxH_vib/CH3_calc/ads_slab/CH3NHNH_a/out_0028/pw.inp
Warning: card &CELL ignored
Warning: card   CELL_DYNAMICS='IPI', ignored
Warning: card / ignored

     Current dimensions of program PWSCF are:
     Max number of different atomic species (ntypx) = 10
     Max number of k-points (npk) =  40000
     Max angular momentum in pseudopotentials (lmaxx) =  3
     Presently no symmetry can be used with electric field

     Message from routine cell_base_init:
     DEPRECATED: use true lattice parameter, not A to a.u. conversion factor

     IMPORTANT: XC functional enforced from input :
     Exchange-correlation= BEEF-VDW
                           (   1   4  43  14   2   0   0)
     Any further DFT definition will be discarded
     Please, verify this is what you really want

  @ DRIVER MODE: Connecting to
 qe_1139763_2767401.sched-torque.pace.gatech.eduzosb9529_scratch
  using UNIX socket
  @ DRIVER MODE: Message from server: STATUS
  @ DRIVER MODE: Message from server: INIT
  @ DRIVER MODE: Receiving replica           0          -1
  @ DRIVER MODE: Receiving encoded integer          25
  @ DRIVER MODE:  SCF:  T  FORCE:  T  STRESS:  F  VC:  F  ENSEMBLE:  F
  @ DRIVER MODE:  SCF:  T  FORCE:  T  STRESS:  F  VC:  F  ENSEMBLE:  F

     Using Slab Decomposition

     bravais-lattice index     =            0
     lattice parameter (alat)  =       1.8897  a.u.
     unit-cell volume          =    6658.9804 (a.u.)^3
     number of atoms/cell      =           55
     number of atomic types    =            5
     number of electrons       =       397.00
     number of Kohn-Sham states=          208
     kinetic-energy cutoff     =      29.3995  Ry
     charge density cutoff     =     293.9946  Ry
     scf convergence threshold =      7.3E-08
     mixing beta               =       0.0500
     number of iterations used =            8  plain     mixing
     Exchange-correlation= BEEF-VDW
                           (   1   4  43  14   2   0   0)

     celldm(1)=   1.889726  celldm(2)=   0.000000  celldm(3)=   0.000000
     celldm(4)=   0.000000  celldm(5)=   0.000000  celldm(6)=   0.000000

     crystal axes: (cart. coord. in units of alat)
               a(1) = (   6.579727   0.000000   0.000000 )
               a(2) = (  -0.000775   5.961596   0.000000 )
               a(3) = (   0.000000   0.000000  25.155947 )

     reciprocal axes: (cart. coord. in units 2 pi/alat)
               b(1) = (  0.151982  0.000020  0.000000 )
               b(2) = (  0.000000  0.167740  0.000000 )
               b(3) = (  0.000000  0.000000  0.039752 )

     PseudoPot. # 1 for Ti read from file:
     /storage/coda1/p-amedford6/0/shared/rich_project_chbe-medford/medford-share/data/pseudos_module/espresso/nninc/pbe/van/Ti.UPF
     MD5 check sum: 8e4df49b7f0d34bbd5052bf3f5ea0213
     Pseudo is Ultrasoft, Zval = 12.0
     Generated by new atomic code, or converted to UPF format
     Using radial grid of  851 points,  6 beta functions with:
                l(1) =   0
                l(2) =   0
                l(3) =   1
                l(4) =   1
                l(5) =   2
                l(6) =   2
     Q(r) pseudized with  8 coefficients,  rinner =    1.000   1.000   1.000
                                                       1.000   1.000

     PseudoPot. # 2 for O  read from file:
     /storage/coda1/p-amedford6/0/shared/rich_project_chbe-medford/medford-share/data/pseudos_module/espresso/nninc/pbe/van/O.UPF
     MD5 check sum: 78c19812648e8988a0fe644b0f25305e
     Pseudo is Ultrasoft, Zval =  6.0
     Generated by new atomic code, or converted to UPF format
     Using radial grid of  737 points,  4 beta functions with:
                l(1) =   0
                l(2) =   0
                l(3) =   1
                l(4) =   1
     Q(r) pseudized with  8 coefficients,  rinner =    0.800   0.800   0.800

     PseudoPot. # 3 for N  read from file:
     /storage/coda1/p-amedford6/0/shared/rich_project_chbe-medford/medford-share/data/pseudos_module/espresso/nninc/pbe/van/N.UPF
     MD5 check sum: 90d10febe142ad51ac9d5be1deb811c4
     Pseudo is Ultrasoft, Zval =  5.0
     Generated by new atomic code, or converted to UPF format
     Using radial grid of  729 points,  4 beta functions with:
                l(1) =   0
                l(2) =   0
                l(3) =   1
                l(4) =   1
     Q(r) pseudized with  8 coefficients,  rinner =    0.800   0.800   0.800

     PseudoPot. # 4 for C  read from file:
     /storage/coda1/p-amedford6/0/shared/rich_project_chbe-medford/medford-share/data/pseudos_module/espresso/nninc/pbe/van/C.UPF
     MD5 check sum: 1a69bf6b8db32088f5b2163dbdb77a27
     Pseudo is Ultrasoft, Zval =  4.0
     Generated by new atomic code, or converted to UPF format
     Using radial grid of  721 points,  4 beta functions with:
                l(1) =   0
                l(2) =   0
                l(3) =   1
                l(4) =   1
     Q(r) pseudized with  8 coefficients,  rinner =    0.800   0.800   0.800

     PseudoPot. # 5 for H  read from file:
     /storage/coda1/p-amedford6/0/shared/rich_project_chbe-medford/medford-share/data/pseudos_module/espresso/nninc/pbe/van/H.UPF
     MD5 check sum: b5ee9d7bfd3a09ee7748110bda690ff7
     Pseudo is Ultrasoft, Zval =  1.0
     Generated by new atomic code, or converted to UPF format
     Using radial grid of  615 points,  1 beta functions with:
                l(1) =   0
     Q(r) pseudized with  8 coefficients,  rinner =    0.800

     atomic species   valence    mass     pseudopotential
        Ti1           12.00    47.86700     Ti( 1.00)
        O1             6.00    15.99900     O ( 1.00)
        N1             5.00    14.00700     N ( 1.00)
        C1             4.00    12.01100     C ( 1.00)
        H1             1.00     1.00800     H ( 1.00)

     No symmetry found

   Cartesian axes

     site n.     atom                  positions (alat units)
         1           Ti1 tau(   1) = (   0.0004258   2.9801865   6.0000000  )
         2           Ti1 tau(   2) = (   3.2906075   1.4906267   6.0002472  )
         3           O1  tau(   3) = (   0.0006271   0.0005054   7.9858123  )
         4           O1  tau(   4) = (   3.2906025   0.0005020   7.3038282  )
         5           O1  tau(   5) = (   4.5942328   1.4918067   9.2879030  )
         6           O1  tau(   6) = (   1.9868534   1.4903216   9.2879459  )
         7           Ti1 tau(   7) = (   3.2907910   2.8959150   9.1758416  )
         8           Ti1 tau(   8) = (   0.0015273   1.4827037   9.2680791  )
         9           O1  tau(   9) = (   3.2830128   5.9597860  11.3344455  )
        10           O1  tau(  10) = (   0.0116148   5.9584955  10.6183126  )
        11           O1  tau(  11) = (   1.2885291   1.4855062  12.6376555  )
        12           O1  tau(  12) = (   5.2724004   1.4911608  12.5936499  )
        13           Ti1 tau(  13) = (   0.0410009   3.0319447  12.6084003  )
        14           Ti1 tau(  14) = (   3.3739341   1.4916561  12.4823474  )
        15           O1  tau(  15) = (   6.4862162   0.0153916  14.6455093  )
        16           O1  tau(  16) = (   3.3439542   5.9611638  13.9051029  )
        17           O1  tau(  17) = (   4.4933269   1.5483200  16.1231154  )
        18           O1  tau(  18) = (   1.9964937   1.4536654  15.9127221  )
        19           Ti1 tau(  19) = (   3.1412959   3.0017366  15.7441667  )
        20           Ti1 tau(  20) = (   6.4823597   1.5369342  15.8006069  )
        21           O1  tau(  21) = (   3.2904802   0.0005063   4.7018136  )
        22           O1  tau(  22) = (   6.5709111   0.0522475  17.2082838  )
        23           O1  tau(  23) = (   1.3043587   1.4918075   6.0039043  )
        24           O1  tau(  24) = (   5.2767064   1.4903225   6.0039473  )
        25           Ti1 tau(  25) = (   0.0000382   5.9609847   6.0000000  )
        26           Ti1 tau(  26) = (   3.2902200   4.4714249   6.0002472  )
        27           O1  tau(  27) = (   0.0002396   2.9813036   7.9858123  )
        28           O1  tau(  28) = (   3.2902150   2.9813002   7.3038282  )
        29           O1  tau(  29) = (   4.5938453   4.4726049   9.2879030  )
        30           O1  tau(  30) = (   1.9864658   4.4711199   9.2879459  )
        31           Ti1 tau(  31) = (   3.2891106   5.8743827   9.1763621  )
        32           Ti1 tau(  32) = (   0.0006254   4.4649316   9.2693709  )
        33           O1  tau(  33) = (   3.2833609   2.9822938  11.3349093  )
        34           O1  tau(  34) = (   0.0092240   2.9805883  10.6323155  )
        35           O1  tau(  35) = (   1.2838611   4.4860338  12.6468719  )
        36           O1  tau(  36) = (   5.2760156   4.4607002  12.6015494  )
        37           Ti1 tau(  37) = (   0.0673138   0.0440259  12.5461749  )
        38           Ti1 tau(  38) = (   3.3712377   4.4654930  12.4933830  )
        39           O1  tau(  39) = (   6.5217465   2.9589972  14.6412948  )
        40           O1  tau(  40) = (   3.2809526   2.9956502  13.9333893  )
        41           O1  tau(  41) = (   4.4911989   4.4583117  16.1637052  )
        42           O1  tau(  42) = (   1.9937212   4.5427850  15.9740970  )
        43           Ti1 tau(  43) = (   3.2955853   0.0167752  15.6963065  )
        44           Ti1 tau(  44) = (   6.5082246   4.6715011  16.1069148  )
        45           O1  tau(  45) = (   3.2900926   2.9813045   4.7018136  )
        46           O1  tau(  46) = (   1.3039711   4.4726057   6.0039043  )
        47           O1  tau(  47) = (   5.2763189   4.4711207   6.0039473  )
        48           N1  tau(  48) = (   1.3945086   2.8365607  18.1849301  )
        49           N1  tau(  49) = (   0.1777896   2.9650562  17.4211889  )
        50           C1  tau(  50) = (   1.4118813   3.7128676  19.3556819  )
        51           H1  tau(  51) = (   0.5171711   3.5996102  19.9880000  )
        52           H1  tau(  52) = (   2.2935099   3.4781107  19.9517681  )
        53           H1  tau(  53) = (   1.4703795   4.7520035  19.0319817  )
        54           H1  tau(  54) = (   1.4579882   1.8621926  18.4823179  )
        55           H1  tau(  55) = (   5.9558665   2.8747675  18.0551794  )

     number of k points=    10  Fermi-Dirac smearing, width (Ry)=  0.0073
                       cart. coord. in units 2pi/alat
        k(    1) = (   0.0000000   0.0000000   0.0000000), wk =   0.1250000
        k(    2) = (   0.0000000   0.0419351   0.0000000), wk =   0.2500000
        k(    3) = (   0.0000000  -0.0838702   0.0000000), wk =   0.1250000
        k(    4) = (   0.0379955   0.0000049   0.0000000), wk =   0.2500000
        k(    5) = (   0.0379955   0.0419400   0.0000000), wk =   0.2500000
        k(    6) = (   0.0379955  -0.0838652   0.0000000), wk =   0.2500000
        k(    7) = (   0.0379955  -0.0419301   0.0000000), wk =   0.2500000
        k(    8) = (  -0.0759910  -0.0000099   0.0000000), wk =   0.1250000
        k(    9) = (  -0.0759910   0.0419252   0.0000000), wk =   0.2500000
        k(   10) = (  -0.0759910  -0.0838800   0.0000000), wk =   0.1250000

     Initial potential from superposition of free atoms

     starting charge  380.99914, renormalised to  397.00000

     negative rho (up, down):  1.540E-02 0.000E+00

     %%%%%%%%%%%%%%%%%%%%%%%%%%%%%%%%%%%%%%%%%%%%%%%%%%%%%%%%%%%%%%%%%%%%%%%%
     %                                                                      %
     % You are using vdW-DF, which was implemented by the Thonhauser group. %
     % Please cite the following two papers that made this development      %
     % possible and the two reviews that describe the various versions:     %
     %                                                                      %
     %   T. Thonhauser et al., PRL 115, 136402 (2015).                      %
     %   T. Thonhauser et al., PRB 76, 125112 (2007).                       %
     %   K. Berland et al., Rep. Prog. Phys. 78, 066501 (2015).             %
     %   D.C. Langreth et al., J. Phys.: Condens. Matter 21, 084203 (2009). %
     %                                                                      %
     %                                                                      %
     % If you are calculating the stress with vdW-DF, please also cite:     %
     %                                                                      %
     %   R. Sabatini et al., J. Phys.: Condens. Matter 24, 424209 (2012).   %
     %                                                                      %
     %%%%%%%%%%%%%%%%%%%%%%%%%%%%%%%%%%%%%%%%%%%%%%%%%%%%%%%%%%%%%%%%%%%%%%%%

     Adding external electric field

     Computed dipole along edir(3) :
        Dipole               -9.6180 Ry au,        -24.4465 Debye
        Dipole field         -0.0182 Ry au,

        Potential amp.        1.6825 Ry
        Total length         46.3494 bohr

     Starting wfcs are  301 atomic wfcs
  @ DRIVER MODE: Message from server: STATUS
  @ DRIVER MODE: Message from server: POSDATA
  @ DRIVER MODE: Reading and sharing cell
  @ DRIVER MODE: Reading and sharing positions
  @ DRIVER MODE: Received positions

     Self-consistent Calculation

     iteration #  1     ecut=    29.40 Ry     beta= 0.05
     Davidson diagonalization with overlap
     c_bands:  1 eigenvalues not converged
     c_bands:  1 eigenvalues not converged
     c_bands:  1 eigenvalues not converged
     c_bands:  1 eigenvalues not converged
     c_bands:  1 eigenvalues not converged
     c_bands:  1 eigenvalues not converged
     c_bands:  2 eigenvalues not converged
     ethr =  1.00E-05,  avg # of iterations = 18.8

[...]

     total energy              =   -2533.47183366 Ry
     estimated scf accuracy    <    4540.41307674 Ry

     iteration #  2     ecut=    29.40 Ry     beta= 0.05
     Davidson diagonalization with overlap
     ethr =  1.00E-02,  avg # of iterations = 24.6

[...]

     iteration # 66     ecut=    29.40 Ry     beta= 0.05
     Davidson diagonalization with overlap
     c_bands:  2 eigenvalues not converged
     ethr =  9.00E-11,  avg # of iterations = 16.3

[...]

     total energy              =   -2941.66155999 Ry
     estimated scf accuracy    <       0.00000010 Ry

     iteration # 69     ecut=    29.40 Ry     beta= 0.05
     Davidson diagonalization with overlap
     ethr =  2.63E-11,  avg # of iterations =  5.5

     negative rho (up, down):  1.607E-02 0.000E+00

     Adding external electric field

     Computed dipole along edir(3) :
        Dipole                0.9417 Ry au,          2.3935 Debye
        Dipole field          0.0018 Ry au,

        Potential amp.       -0.1647 Ry
        Total length         46.3494 bohr

     End of self-consistent calculation

          k = 0.0000 0.0000 0.0000 ( 18029 PWs)   bands (ev):

   -55.6870 -55.6702 -55.6529 -55.6336 -55.5929 -55.5387 -55.5317 -55.5017
   -55.4957 -55.4677 -55.4655 -55.4314 -55.2590 -55.0346 -54.6673 -54.6333
   -32.2212 -32.1701 -32.0432 -32.0333 -31.9999 -31.9852 -31.9796 -31.9559
   -31.9309 -31.8993 -31.8970 -31.8907 -31.8477 -31.8392 -31.8255 -31.8239
   -31.8073 -31.7919 -31.7832 -31.7481 -31.7441 -31.7374 -31.7217 -31.7182
   -31.6952 -31.6908 -31.6882 -31.6805 -31.6661 -31.6641 -31.6565 -31.6473
   -31.6416 -31.6322 -31.6185 -31.6092 -31.5777 -31.5092 -31.4654 -31.3010
   -31.2915 -31.2373 -31.0745 -30.9859 -30.9635 -30.8913 -30.8048 -30.6937
   -16.7727 -16.4178 -16.1630 -15.9336 -15.8425 -15.8122 -15.6598 -15.5282
   -15.4188 -15.3371 -15.2522 -15.2331 -15.2257 -15.2150 -15.1889 -15.1831
   -15.1360 -15.1315 -15.1119 -15.0991 -15.0489 -15.0324 -15.0289 -14.9342
   -14.8703 -14.8350 -14.8202 -14.7855 -14.7482 -14.3340 -13.1698 -13.0533
   -11.8079  -8.9864  -5.4289  -4.3742  -3.8427  -3.7893  -3.6453  -3.5946
    -3.5344  -3.4973  -3.3181  -3.2154  -2.9427  -2.8855  -2.8561  -2.8470
    -2.7902  -2.7583  -2.6019  -2.5758  -2.5042  -2.4948  -2.4808  -2.4517
    -2.4428  -2.4369  -2.3922  -2.3755  -2.3478  -2.2436  -2.1034  -2.0945
    -2.0720  -2.0386  -2.0009  -1.9524  -1.9360  -1.9159  -1.8975  -1.8847
    -1.8722  -1.7375  -1.7023  -1.5860  -1.4965  -1.4501  -1.3709  -1.2991
    -1.2705  -1.1586  -1.1187  -1.1068  -1.0923  -1.0812  -0.9817  -0.8759
    -0.8588  -0.8209  -0.7655  -0.7099  -0.6393  -0.5944  -0.5434  -0.4912
    -0.4669  -0.4517  -0.4489  -0.4137  -0.3221  -0.1809  -0.1290  -0.0947
    -0.0725   0.0042   0.0393   0.0955   0.1200   0.1434   0.1792   0.2322
     0.2758   0.2823   0.2957   0.3102   0.3149   0.4892   0.5388   0.5805
     0.6138   0.6599   0.8210   0.8433   0.9650   1.0392   1.2014   1.2803
     1.3549   1.4328   1.5466   1.6208   1.9261   1.9718   3.4437   3.5309
     3.5758   3.5896   3.6849   3.7269   3.8964   3.9269   3.9414   4.0018

[...]

          k = 0.0380-0.0419 0.0000 ( 17876 PWs)   bands (ev):

[...]

          k =-0.0760-0.0000 0.0000 ( 17886 PWs)   bands (ev):

[...]

          k =-0.0760-0.0839 0.0000 ( 17948 PWs)   bands (ev):

   -55.6703 -55.6695 -55.6555 -55.6481 -55.5868 -55.5446 -55.5191 -55.5083
   -55.4852 -55.4837 -55.4514 -55.4457 -55.2578 -55.0357 -54.6503 -54.6502
   -32.0303 -32.0206 -31.9856 -31.9850 -31.9654 -31.9646 -31.9448 -31.9384
   -31.8856 -31.8850 -31.8747 -31.8695 -31.8525 -31.8346 -31.8100 -31.8053
   -31.8009 -31.7973 -31.7905 -31.7905 -31.7892 -31.7888 -31.7850 -31.7454
   -31.7371 -31.7256 -31.7174 -31.7062 -31.6855 -31.6845 -31.6824 -31.6757
   -31.6658 -31.6617 -31.6586 -31.6561 -31.6150 -31.5117 -31.4622 -31.3632
   -31.2936 -31.2632 -30.9763 -30.9762 -30.8873 -30.8872 -30.8481 -30.8481
   -16.7465 -15.8650 -15.8040 -15.6460 -15.6108 -15.5913 -15.5563 -15.4956
   -15.4124 -15.3851 -15.3805 -15.3335 -15.3078 -15.2750 -15.2368 -15.2225
   -15.2153 -15.1965 -15.1842 -15.1503 -15.1408 -15.1292 -15.1219 -15.0465
   -15.0088 -15.0044 -14.9990 -14.8954 -14.7689 -14.5017 -13.1551 -13.1550
   -11.8142  -9.0006  -5.4428  -4.3614  -3.7686  -3.1578  -3.0708  -2.8959
    -2.8405  -2.8117  -2.7959  -2.6290  -2.6187  -2.6038  -2.5560  -2.5365
    -2.5231  -2.5169  -2.5090  -2.4880  -2.4751  -2.4410  -2.4308  -2.3949
    -2.3803  -2.3633  -2.3464  -2.3295  -2.3096  -2.2948  -2.2785  -2.2381
    -2.2181  -2.2071  -2.1865  -2.1435  -1.9330  -1.8828  -1.8378  -1.8334
    -1.8224  -1.8026  -1.7479  -1.7430  -1.7093  -1.6584  -1.5792  -1.4344
    -1.3890  -1.3726  -1.2795  -1.2579  -1.2051  -1.1332  -1.0875  -1.0705
    -1.0356  -0.9716  -0.9348  -0.8979  -0.8315  -0.8067  -0.8010  -0.7073
    -0.6864  -0.6501  -0.6434  -0.5651  -0.5146  -0.4514  -0.4360  -0.4196
    -0.3880  -0.3545  -0.3364  -0.2688  -0.1765  -0.1754  -0.1526  -0.0432
     0.0473   0.2758   0.3385   0.3756   0.4203   0.5141   0.5824   0.6072
     0.6230   0.6446   0.6640   0.7123   0.8392   0.8493   0.8835   0.9964
     1.1002   1.6370   1.7183   1.7192   1.7916   1.7917   3.7452   3.7635
     3.7840   3.8304   3.9496   3.9565   3.9788   3.9809   4.1035   4.1167

     the Fermi energy is     3.4452 ev

!    total energy              =   -2941.66159451 Ry
     estimated scf accuracy    <       0.00000005 Ry
     smearing contrib. (-TS)   =      -0.02151627 Ry
     internal energy E=F+TS    =   -2941.64007824 Ry

     The total energy is F=E-TS. E is the sum of the following terms:
     one-electron contribution =  -24276.04147326 Ry
     hartree contribution      =   12228.47269195 Ry
     xc contribution           =    -486.87432394 Ry
     ewald contribution        =    9592.80135358 Ry
     electric field correction =       0.00167342 Ry

     convergence has been achieved in  69 iterations

     Forces acting on atoms (cartesian axes, Ry/au):

     atom    1 type  1   force =     0.00018338   -0.00011784    0.09637077
     atom    2 type  1   force =    -0.00021905   -0.00063614   -0.17550703
     atom    3 type  2   force =    -0.00004299   -0.00003421   -0.02418196
     atom    4 type  2   force =     0.00005005   -0.00143942    0.05290485
     atom    5 type  2   force =    -0.01181752   -0.00049203    0.00396340
     atom    6 type  2   force =     0.01313056    0.00023534    0.00229994
     atom    7 type  1   force =    -0.00140444    0.00080091   -0.01149870
     atom    8 type  1   force =     0.00053165    0.00921053    0.02521100
     atom    9 type  2   force =    -0.00010855    0.00017394    0.00039634
     atom   10 type  2   force =    -0.00086441    0.00148649   -0.01580287
     atom   11 type  2   force =    -0.00018745   -0.00049616    0.00039681
     atom   12 type  2   force =    -0.00013686   -0.00025937    0.00002995
     atom   13 type  1   force =     0.00054441   -0.00091580    0.00008338
     atom   14 type  1   force =    -0.00008269   -0.00040726    0.00025180
     atom   15 type  2   force =     0.00017387    0.00004972   -0.00030612
     atom   16 type  2   force =     0.00007154    0.00024593    0.00004639
     atom   17 type  2   force =    -0.00051428    0.00034989    0.00047827
     atom   18 type  2   force =     0.00011410    0.00010859    0.00026190
     atom   19 type  1   force =     0.00008448   -0.00055437    0.00023319
     atom   20 type  1   force =     0.00017098    0.00031090    0.00057254
     atom   21 type  2   force =     0.00007400   -0.00008314    0.10321304
     atom   22 type  2   force =    -0.00044229   -0.00024846    0.00021244
     atom   23 type  2   force =    -0.07147585   -0.00017924   -0.02770676
     atom   24 type  2   force =     0.07139461    0.00025210   -0.02770517
     atom   25 type  1   force =     0.00003657   -0.00026475    0.09583864
     atom   26 type  1   force =    -0.00014947   -0.00023195   -0.17566949
     atom   27 type  2   force =     0.00009207   -0.00012498   -0.02328597
     atom   28 type  2   force =     0.00007877   -0.00129549    0.05333144
     atom   29 type  2   force =    -0.01194977   -0.00005790    0.00375981
     atom   30 type  2   force =     0.01319975    0.00043068    0.00213721
     atom   31 type  1   force =    -0.00141760    0.00344511   -0.01083210
     atom   32 type  1   force =     0.00064236   -0.01010163    0.02562299
     atom   33 type  2   force =    -0.00038940    0.00005021    0.00005801
     atom   34 type  2   force =     0.00074903    0.00090008   -0.02307394
     atom   35 type  2   force =    -0.00010554    0.00029507   -0.00002228
     atom   36 type  2   force =    -0.00022699    0.00059951   -0.00028765
     atom   37 type  1   force =    -0.00082176   -0.00102361   -0.00013380
     atom   38 type  1   force =    -0.00003010   -0.00010245   -0.00003204
     atom   39 type  2   force =    -0.00035108    0.00004407    0.00056534
     atom   40 type  2   force =     0.00048651    0.00024997    0.00025897
     atom   41 type  2   force =     0.00004772    0.00050094    0.00026240
     atom   42 type  2   force =     0.00007690    0.00027935   -0.00020323
     atom   43 type  1   force =     0.00019219    0.00008790   -0.00023276
     atom   44 type  1   force =    -0.00024034   -0.00057439    0.00001484
     atom   45 type  2   force =     0.00006984   -0.00008837    0.10323992
     atom   46 type  2   force =    -0.07147596   -0.00017071   -0.02770302
     atom   47 type  2   force =     0.07140091    0.00030251   -0.02771235
     atom   48 type  3   force =     0.00006329   -0.00035034    0.00036495
     atom   49 type  3   force =     0.00051775   -0.00013334    0.00053600
     atom   50 type  4   force =    -0.00130050    0.00235851   -0.00028754
     atom   51 type  5   force =     0.00129954    0.00035773   -0.00054229
     atom   52 type  5   force =     0.00169586   -0.00163056    0.00045383
     atom   53 type  5   force =    -0.00116072   -0.00153062   -0.00000985
     atom   54 type  5   force =     0.00002826    0.00067622   -0.00048192
     atom   55 type  5   force =    -0.00028533   -0.00025769   -0.00015150

     Total force =     0.367335     Total SCF correction =     0.000729
  @ DRIVER MODE: Message from server: STATUS
  @ DRIVER MODE: Message from server: GETFORCE
  @ DRIVER MODE: Returning v,forces,stress,ensemble

     Writing output data file ./calc.save/
  @ DRIVER MODE: Message from server: EXIT
  @ DRIVE MODE: Exiting

     General routines

     Parallel routines

   This run was terminated on:   7: 5: 3   9Sep2021

   JOB DONE.