     Program PWSCF v.6.7GPU starts on 24Aug2021 at  7:16:47

     R & G space division:  proc/nbgrp/npool/nimage =       6
     Reading input from /storage/home/hcoda1/3/ntian30/research/carbon/CH2_vib/ads_slab/CH2NNHHH_a/out_0035/pw.inp
Warning: card &CELL ignored
Warning: card   CELL_DYNAMICS='IPI', ignored
Warning: card / ignored

     Current dimensions of program PWSCF are:
     Max number of different atomic species (ntypx) = 10
     Max number of k-points (npk) =  40000
     Max angular momentum in pseudopotentials (lmaxx) =  3
     Presently no symmetry can be used with electric field

     Message from routine cell_base_init:
     DEPRECATED: use true lattice parameter, not A to a.u. conversion factor

     IMPORTANT: XC functional enforced from input :
     Exchange-correlation= BEEF-VDW
                           (   1   4  43  14   2   0   0)
     Any further DFT definition will be discarded
     Please, verify this is what you really want

  @ DRIVER MODE: Connecting to
 qe_1139763_2632806.sched-torque.pace.gatech.edui8x613rm_scratch
  using UNIX socket
  @ DRIVER MODE: Message from server: STATUS
  @ DRIVER MODE: Message from server: INIT
  @ DRIVER MODE: Receiving replica           0          -1
  @ DRIVER MODE: Receiving encoded integer          25
  @ DRIVER MODE:  SCF:  T  FORCE:  T  STRESS:  F  VC:  F  ENSEMBLE:  F
  @ DRIVER MODE:  SCF:  T  FORCE:  T  STRESS:  F  VC:  F  ENSEMBLE:  F

     Using Slab Decomposition

     bravais-lattice index     =            0
     lattice parameter (alat)  =       1.8897  a.u.
     unit-cell volume          =    6658.9804 (a.u.)^3
     number of atoms/cell      =           55
     number of atomic types    =            5
     number of electrons       =       397.00
     number of Kohn-Sham states=          208
     kinetic-energy cutoff     =      29.3995  Ry
     charge density cutoff     =     293.9946  Ry
     scf convergence threshold =      7.3E-08
     mixing beta               =       0.0500
     number of iterations used =            8  plain     mixing
     Exchange-correlation= BEEF-VDW
                           (   1   4  43  14   2   0   0)

     celldm(1)=   1.889726  celldm(2)=   0.000000  celldm(3)=   0.000000
     celldm(4)=   0.000000  celldm(5)=   0.000000  celldm(6)=   0.000000

     crystal axes: (cart. coord. in units of alat)
               a(1) = (   6.579727   0.000000   0.000000 )
               a(2) = (  -0.000775   5.961596   0.000000 )
               a(3) = (   0.000000   0.000000  25.155947 )

     reciprocal axes: (cart. coord. in units 2 pi/alat)
               b(1) = (  0.151982  0.000020  0.000000 )
               b(2) = (  0.000000  0.167740  0.000000 )
               b(3) = (  0.000000  0.000000  0.039752 )

     PseudoPot. # 1 for Ti read from file:
     /storage/coda1/p-amedford6/0/shared/rich_project_chbe-medford/medford-share/data/pseudos_module/espresso/nninc/pbe/van/Ti.UPF
     MD5 check sum: 8e4df49b7f0d34bbd5052bf3f5ea0213
     Pseudo is Ultrasoft, Zval = 12.0
     Generated by new atomic code, or converted to UPF format
     Using radial grid of  851 points,  6 beta functions with:
                l(1) =   0
                l(2) =   0
                l(3) =   1
                l(4) =   1
                l(5) =   2
                l(6) =   2
     Q(r) pseudized with  8 coefficients,  rinner =    1.000   1.000   1.000
                                                       1.000   1.000

     PseudoPot. # 2 for O  read from file:
     /storage/coda1/p-amedford6/0/shared/rich_project_chbe-medford/medford-share/data/pseudos_module/espresso/nninc/pbe/van/O.UPF
     MD5 check sum: 78c19812648e8988a0fe644b0f25305e
     Pseudo is Ultrasoft, Zval =  6.0
     Generated by new atomic code, or converted to UPF format
     Using radial grid of  737 points,  4 beta functions with:
                l(1) =   0
                l(2) =   0
                l(3) =   1
                l(4) =   1
     Q(r) pseudized with  8 coefficients,  rinner =    0.800   0.800   0.800

     PseudoPot. # 3 for N  read from file:
     /storage/coda1/p-amedford6/0/shared/rich_project_chbe-medford/medford-share/data/pseudos_module/espresso/nninc/pbe/van/N.UPF
     MD5 check sum: 90d10febe142ad51ac9d5be1deb811c4
     Pseudo is Ultrasoft, Zval =  5.0
     Generated by new atomic code, or converted to UPF format
     Using radial grid of  729 points,  4 beta functions with:
                l(1) =   0
                l(2) =   0
                l(3) =   1
                l(4) =   1
     Q(r) pseudized with  8 coefficients,  rinner =    0.800   0.800   0.800

     PseudoPot. # 4 for C  read from file:
     /storage/coda1/p-amedford6/0/shared/rich_project_chbe-medford/medford-share/data/pseudos_module/espresso/nninc/pbe/van/C.UPF
     MD5 check sum: 1a69bf6b8db32088f5b2163dbdb77a27
     Pseudo is Ultrasoft, Zval =  4.0
     Generated by new atomic code, or converted to UPF format
     Using radial grid of  721 points,  4 beta functions with:
                l(1) =   0
                l(2) =   0
                l(3) =   1
                l(4) =   1
     Q(r) pseudized with  8 coefficients,  rinner =    0.800   0.800   0.800

     PseudoPot. # 5 for H  read from file:
     /storage/coda1/p-amedford6/0/shared/rich_project_chbe-medford/medford-share/data/pseudos_module/espresso/nninc/pbe/van/H.UPF
     MD5 check sum: b5ee9d7bfd3a09ee7748110bda690ff7
     Pseudo is Ultrasoft, Zval =  1.0
     Generated by new atomic code, or converted to UPF format
     Using radial grid of  615 points,  1 beta functions with:
                l(1) =   0
     Q(r) pseudized with  8 coefficients,  rinner =    0.800

     atomic species   valence    mass     pseudopotential
        Ti1           12.00    47.86700     Ti( 1.00)
        O1             6.00    15.99900     O ( 1.00)
        N1             5.00    14.00700     N ( 1.00)
        C1             4.00    12.01100     C ( 1.00)
        H1             1.00     1.00800     H ( 1.00)

     No symmetry found

   Cartesian axes

     site n.     atom                  positions (alat units)
         1           Ti1 tau(   1) = (   0.0004258   2.9801865   6.0000000  )
         2           Ti1 tau(   2) = (   3.2906075   1.4906267   6.0002472  )
         3           O1  tau(   3) = (   0.0006271   0.0005054   7.9858123  )
         4           O1  tau(   4) = (   3.2906025   0.0005020   7.3038282  )
         5           O1  tau(   5) = (   4.5942328   1.4918067   9.2879030  )
         6           O1  tau(   6) = (   1.9868534   1.4903216   9.2879459  )
         7           Ti1 tau(   7) = (   3.2907910   2.8959150   9.1758416  )
         8           Ti1 tau(   8) = (   0.0015273   1.4827037   9.2680791  )
         9           O1  tau(   9) = (   3.2797308   5.9473376  11.3602069  )
        10           O1  tau(  10) = (   0.0116148   5.9584955  10.6183126  )
        11           O1  tau(  11) = (   1.2902197   1.4970218  12.6485984  )
        12           O1  tau(  12) = (   5.2825647   1.4998509  12.6204812  )
        13           Ti1 tau(  13) = (   6.5707130   2.9731531  12.5352273  )
        14           Ti1 tau(  14) = (   3.2824754   1.4851695  12.4964603  )
        15           O1  tau(  15) = (   6.5335774   0.0914421  14.6722524  )
        16           O1  tau(  16) = (   3.3157438   0.0180770  13.9903400  )
        17           O1  tau(  17) = (   4.5084513   1.5196572  16.2619966  )
        18           O1  tau(  18) = (   2.0062152   1.4815140  16.1839734  )
        19           Ti1 tau(  19) = (   3.2259906   2.9465836  15.7211513  )
        20           Ti1 tau(  20) = (   6.5090593   1.4075841  16.1508600  )
        21           O1  tau(  21) = (   3.2904802   0.0005063   4.7018136  )
        22           O1  tau(  22) = (   6.5630310   5.8123487  17.2302531  )
        23           O1  tau(  23) = (   1.3043587   1.4918075   6.0039043  )
        24           O1  tau(  24) = (   5.2767064   1.4903225   6.0039473  )
        25           Ti1 tau(  25) = (   0.0000382   5.9609847   6.0000000  )
        26           Ti1 tau(  26) = (   3.2902200   4.4714249   6.0002472  )
        27           O1  tau(  27) = (   0.0002396   2.9813036   7.9858123  )
        28           O1  tau(  28) = (   3.2902150   2.9813002   7.3038282  )
        29           O1  tau(  29) = (   4.5938453   4.4726049   9.2879030  )
        30           O1  tau(  30) = (   1.9864658   4.4711199   9.2879459  )
        31           Ti1 tau(  31) = (   3.2891106   5.8743827   9.1763621  )
        32           Ti1 tau(  32) = (   0.0006254   4.4649316   9.2693709  )
        33           O1  tau(  33) = (   3.2783824   2.9878764  11.3535400  )
        34           O1  tau(  34) = (   0.0092240   2.9805883  10.6323155  )
        35           O1  tau(  35) = (   1.2857266   4.4729298  12.7006550  )
        36           O1  tau(  36) = (   5.2845514   4.4687958  12.6640455  )
        37           Ti1 tau(  37) = (   6.5734551   0.0101047  12.5124135  )
        38           Ti1 tau(  38) = (   3.2852174   4.4611384  12.5175569  )
        39           O1  tau(  39) = (   6.5279837   2.9480221  14.9030702  )
        40           O1  tau(  40) = (   3.2956390   2.9588503  13.9390168  )
        41           O1  tau(  41) = (   4.4992944   4.4159585  16.2207858  )
        42           O1  tau(  42) = (   2.0104883   4.4624356  16.0673450  )
        43           Ti1 tau(  43) = (   3.2790961   0.0058003  15.7788240  )
        44           Ti1 tau(  44) = (   0.0606790   4.6093333  15.7554573  )
        45           O1  tau(  45) = (   3.2900926   2.9813045   4.7018136  )
        46           O1  tau(  46) = (   1.3039711   4.4726057   6.0039043  )
        47           O1  tau(  47) = (   5.2763189   4.4711207   6.0039473  )
        48           N1  tau(  48) = (   0.0403274   2.7191540  18.0026804  )
        49           C1  tau(  49) = (   0.9398849   2.4944932  18.9664025  )
        50           H1  tau(  50) = (   0.9073005   3.0183022  19.9142263  )
        51           H1  tau(  51) = (   1.7098349   1.7704235  18.7615287  )
        52           N1  tau(  52) = (   5.5765855   3.6054979  18.4816711  )
        53           H1  tau(  53) = (   5.9881759   4.5320851  18.7047717  )
        54           H1  tau(  54) = (   4.9344470   3.8465857  17.6610935  )
        55           H1  tau(  55) = (   5.0674124   3.1947177  19.2767304  )

     number of k points=    10  Fermi-Dirac smearing, width (Ry)=  0.0073
                       cart. coord. in units 2pi/alat
        k(    1) = (   0.0000000   0.0000000   0.0000000), wk =   0.1250000
        k(    2) = (   0.0000000   0.0419351   0.0000000), wk =   0.2500000
        k(    3) = (   0.0000000  -0.0838702   0.0000000), wk =   0.1250000
        k(    4) = (   0.0379955   0.0000049   0.0000000), wk =   0.2500000
        k(    5) = (   0.0379955   0.0419400   0.0000000), wk =   0.2500000
        k(    6) = (   0.0379955  -0.0838652   0.0000000), wk =   0.2500000
        k(    7) = (   0.0379955  -0.0419301   0.0000000), wk =   0.2500000
        k(    8) = (  -0.0759910  -0.0000099   0.0000000), wk =   0.1250000
        k(    9) = (  -0.0759910   0.0419252   0.0000000), wk =   0.2500000
        k(   10) = (  -0.0759910  -0.0838800   0.0000000), wk =   0.1250000

     Initial potential from superposition of free atoms

     starting charge  380.99914, renormalised to  397.00000

     negative rho (up, down):  1.589E-02 0.000E+00

     %%%%%%%%%%%%%%%%%%%%%%%%%%%%%%%%%%%%%%%%%%%%%%%%%%%%%%%%%%%%%%%%%%%%%%%%
     %                                                                      %
     % You are using vdW-DF, which was implemented by the Thonhauser group. %
     % Please cite the following two papers that made this development      %
     % possible and the two reviews that describe the various versions:     %
     %                                                                      %
     %   T. Thonhauser et al., PRL 115, 136402 (2015).                      %
     %   T. Thonhauser et al., PRB 76, 125112 (2007).                       %
     %   K. Berland et al., Rep. Prog. Phys. 78, 066501 (2015).             %
     %   D.C. Langreth et al., J. Phys.: Condens. Matter 21, 084203 (2009). %
     %                                                                      %
     %                                                                      %
     % If you are calculating the stress with vdW-DF, please also cite:     %
     %                                                                      %
     %   R. Sabatini et al., J. Phys.: Condens. Matter 24, 424209 (2012).   %
     %                                                                      %
     %%%%%%%%%%%%%%%%%%%%%%%%%%%%%%%%%%%%%%%%%%%%%%%%%%%%%%%%%%%%%%%%%%%%%%%%

     Adding external electric field

     Computed dipole along edir(3) :
        Dipole              -10.3114 Ry au,        -26.2091 Debye
        Dipole field         -0.0195 Ry au,

        Potential amp.        1.8038 Ry
        Total length         46.3494 bohr

     Starting wfcs are  301 atomic wfcs
  @ DRIVER MODE: Message from server: STATUS
  @ DRIVER MODE: Message from server: POSDATA
  @ DRIVER MODE: Reading and sharing cell
  @ DRIVER MODE: Reading and sharing positions
  @ DRIVER MODE: Received positions

     Self-consistent Calculation

     iteration #  1     ecut=    29.40 Ry     beta= 0.05
     Davidson diagonalization with overlap
     c_bands:  3 eigenvalues not converged
     c_bands:  2 eigenvalues not converged
     c_bands:  3 eigenvalues not converged
     c_bands:  2 eigenvalues not converged
     c_bands:  3 eigenvalues not converged
     c_bands:  2 eigenvalues not converged
     c_bands:  3 eigenvalues not converged
     c_bands:  2 eigenvalues not converged
     c_bands:  2 eigenvalues not converged
     c_bands:  3 eigenvalues not converged
     ethr =  1.00E-05,  avg # of iterations = 20.0

[...]

     total energy              =   -2480.06300814 Ry
     estimated scf accuracy    <    5159.10751443 Ry

     iteration #  2     ecut=    29.40 Ry     beta= 0.05
     Davidson diagonalization with overlap
     ethr =  1.00E-02,  avg # of iterations = 22.2

[...]

     iteration #109     ecut=    29.40 Ry     beta= 0.05
     Davidson diagonalization with overlap
     ethr =  1.10E-10,  avg # of iterations =  7.3

[...]

     total energy              =   -2941.49089599 Ry
     estimated scf accuracy    <       0.00000013 Ry

     iteration #113     ecut=    29.40 Ry     beta= 0.05
     Davidson diagonalization with overlap
     c_bands:  1 eigenvalues not converged
     ethr =  2.53E-11,  avg # of iterations =  7.5

     negative rho (up, down):  1.345E-02 0.000E+00

     Adding external electric field

     Computed dipole along edir(3) :
        Dipole                1.3631 Ry au,          3.4647 Debye
        Dipole field          0.0026 Ry au,

        Potential amp.       -0.2385 Ry
        Total length         46.3494 bohr

     End of self-consistent calculation

          k = 0.0000 0.0000 0.0000 ( 18029 PWs)   bands (ev):

   -55.2843 -55.2454 -55.2452 -55.2112 -55.1598 -55.1578 -55.1212 -55.0945
   -55.0772 -55.0760 -55.0598 -55.0427 -54.9575 -54.7916 -54.2635 -54.2295
   -31.8565 -31.7360 -31.6462 -31.6112 -31.5843 -31.5818 -31.5792 -31.5350
   -31.5323 -31.4921 -31.4904 -31.4898 -31.4582 -31.4547 -31.4406 -31.4191
   -31.4039 -31.3990 -31.3946 -31.3935 -31.3575 -31.3522 -31.3386 -31.3251
   -31.3023 -31.2971 -31.2907 -31.2867 -31.2742 -31.2712 -31.2613 -31.2512
   -31.2445 -31.2399 -31.2095 -31.2050 -31.1981 -31.1858 -31.1489 -31.1060
   -31.0624 -30.9334 -30.6723 -30.5795 -30.5574 -30.4888 -30.4021 -30.2911
   -19.2312 -16.1260 -15.8640 -15.7360 -15.5444 -15.4781 -15.3826 -15.2451
   -15.1935 -15.1330 -15.0829 -15.0430 -15.0296 -14.9640 -14.9068 -14.8183
   -14.8166 -14.8001 -14.7899 -14.7788 -14.7744 -14.7121 -14.7099 -14.6823
   -14.6677 -14.6574 -14.5168 -14.4327 -14.3713 -14.2800 -14.0281 -12.7661
   -12.6488  -9.1422  -7.8284  -7.0557  -6.0004  -3.8230  -3.4637  -3.2908
    -3.2444  -3.2039  -3.1789  -3.0105  -2.9289  -2.6615  -2.5939  -2.5538
    -2.5063  -2.4950  -2.4695  -2.2975  -2.2669  -2.2276  -2.1908  -2.1667
    -2.1271  -2.0991  -2.0832  -2.0540  -2.0410  -2.0388  -1.8563  -1.7860
    -1.7634  -1.7024  -1.6858  -1.6691  -1.6116  -1.5824  -1.5695  -1.5671
    -1.5445  -1.5272  -1.5044  -1.4617  -1.3757  -1.2832  -1.2388  -1.2174
    -1.1044  -1.0398  -0.9156  -0.8735  -0.8592  -0.8318  -0.7600  -0.6939
    -0.6659  -0.6302  -0.4907  -0.4858  -0.4012  -0.3923  -0.3186  -0.3017
    -0.2615  -0.2167  -0.1042  -0.0708  -0.0493   0.0022   0.0656   0.0876
     0.1696   0.2238   0.2805   0.2945   0.3739   0.4133   0.4513   0.4733
     0.5598   0.6021   0.6616   0.6679   0.7049   0.7083   0.7330   0.8193
     0.8331   0.8529   0.8938   1.0631   1.2620   1.3155   1.3363   1.6690
     1.6884   1.7591   1.9444   2.3340   2.3815   3.8169   3.8824   3.9529
     3.9674   3.9776   4.0493   4.0944   4.2843   4.3134   4.3164   4.3378

[...]

          k = 0.0380-0.0419 0.0000 ( 17876 PWs)   bands (ev):

[...]

          k =-0.0760-0.0000 0.0000 ( 17886 PWs)   bands (ev):

[...]

          k =-0.0760-0.0839 0.0000 ( 17948 PWs)   bands (ev):

   -55.2722 -55.2571 -55.2283 -55.2282 -55.1560 -55.1460 -55.1330 -55.0808
   -55.0782 -55.0752 -55.0600 -55.0592 -54.9559 -54.7931 -54.2464 -54.2464
   -31.6660 -31.6529 -31.5791 -31.5512 -31.5511 -31.5475 -31.5204 -31.5204
   -31.4928 -31.4845 -31.4798 -31.4761 -31.4216 -31.4128 -31.4127 -31.4092
   -31.4072 -31.4030 -31.3964 -31.3815 -31.3691 -31.3584 -31.3542 -31.3476
   -31.3475 -31.3455 -31.3441 -31.3283 -31.3117 -31.3086 -31.2923 -31.2895
   -31.2848 -31.2830 -31.2829 -31.2526 -31.2403 -31.2389 -31.1663 -31.0929
   -31.0633 -31.0110 -30.5701 -30.5700 -30.4850 -30.4848 -30.4455 -30.4454
   -19.2274 -15.5912 -15.5147 -15.4592 -15.3692 -15.2908 -15.2709 -15.2610
   -15.2278 -15.1612 -15.1378 -15.0725 -15.0375 -14.9917 -14.9889 -14.9738
   -14.8891 -14.8699 -14.8548 -14.8506 -14.7895 -14.7881 -14.7611 -14.7387
   -14.7320 -14.7283 -14.6285 -14.6275 -14.4640 -14.4359 -14.2002 -12.7504
   -12.7504  -9.1292  -7.8382  -7.0399  -6.0109  -3.8463  -2.8524  -2.7658
    -2.6765  -2.5199  -2.4825  -2.4726  -2.4178  -2.3269  -2.3010  -2.2875
    -2.2672  -2.2599  -2.1870  -2.1818  -2.1378  -2.1162  -2.1053  -2.0994
    -2.0656  -2.0526  -2.0386  -2.0019  -1.9935  -1.9775  -1.9430  -1.9234
    -1.8990  -1.8710  -1.8569  -1.8278  -1.7045  -1.6757  -1.6312  -1.5695
    -1.5447  -1.4771  -1.4719  -1.3693  -1.3577  -1.3468  -1.3057  -1.2917
    -1.2734  -1.1092  -1.0647  -1.0290  -1.0172  -1.0115  -0.8557  -0.8393
    -0.7710  -0.7555  -0.7404  -0.6641  -0.6228  -0.6072  -0.5265  -0.4866
    -0.4568  -0.4360  -0.2936  -0.2812  -0.2557  -0.2409  -0.2344  -0.1419
    -0.1214  -0.0854  -0.0512  -0.0132   0.0032   0.0623   0.2159   0.2420
     0.2783   0.4222   0.4385   0.5233   0.5708   0.6982   0.7626   0.7652
     0.8466   0.9165   1.0184   1.0310   1.0489   1.1362   1.1824   1.1875
     1.1887   2.1172   2.1180   2.2015   2.2018   3.6939   3.9563   4.0787
     4.0850   4.1274   4.2500   4.3337   4.3572   4.3960   4.3973   4.4707

     the Fermi energy is     3.8719 ev

!    total energy              =   -2941.49089859 Ry
     estimated scf accuracy    <       0.00000006 Ry
     smearing contrib. (-TS)   =      -0.04233858 Ry
     internal energy E=F+TS    =   -2941.44856001 Ry

     The total energy is F=E-TS. E is the sum of the following terms:
     one-electron contribution =  -23922.50720452 Ry
     hartree contribution      =   12054.43216492 Ry
     xc contribution           =    -486.86182492 Ry
     ewald contribution        =    9413.48479799 Ry
     electric field correction =       0.00350653 Ry

     convergence has been achieved in 113 iterations

     Forces acting on atoms (cartesian axes, Ry/au):

     atom    1 type  1   force =     0.00016599   -0.00016390    0.09403352
     atom    2 type  1   force =    -0.00004970   -0.00043150   -0.17754870
     atom    3 type  2   force =     0.00006505   -0.00004728   -0.02100553
     atom    4 type  2   force =     0.00001782   -0.00180373    0.05733458
     atom    5 type  2   force =    -0.01086094   -0.00091028    0.00783060
     atom    6 type  2   force =     0.01207213   -0.00034213    0.00622536
     atom    7 type  1   force =    -0.00065035    0.00289741   -0.01528349
     atom    8 type  1   force =     0.00059699    0.00231865    0.00236959
     atom    9 type  2   force =    -0.00010390    0.00013480    0.00091436
     atom   10 type  2   force =    -0.00165372   -0.00050094   -0.00377470
     atom   11 type  2   force =    -0.00004645   -0.00023698    0.00020995
     atom   12 type  2   force =    -0.00019312   -0.00039806    0.00028014
     atom   13 type  1   force =     0.00042006    0.00108369    0.00059298
     atom   14 type  1   force =     0.00020249   -0.00062025    0.00035511
     atom   15 type  2   force =    -0.00018110    0.00034489    0.00053452
     atom   16 type  2   force =    -0.00016316   -0.00024459   -0.00118263
     atom   17 type  2   force =     0.00013536   -0.00026990    0.00016526
     atom   18 type  2   force =    -0.00083285   -0.00033642    0.00009869
     atom   19 type  1   force =    -0.00053304    0.00106216   -0.00044884
     atom   20 type  1   force =    -0.00034967    0.00148444   -0.00126668
     atom   21 type  2   force =     0.00010915   -0.00003884    0.10377942
     atom   22 type  2   force =    -0.00000173   -0.00005838    0.00087697
     atom   23 type  2   force =    -0.07063291   -0.00017517   -0.02707192
     atom   24 type  2   force =     0.07057566    0.00029803   -0.02710875
     atom   25 type  1   force =     0.00014614   -0.00024999    0.09335765
     atom   26 type  1   force =    -0.00000784   -0.00037350   -0.17777036
     atom   27 type  2   force =     0.00010836   -0.00039535   -0.02001960
     atom   28 type  2   force =     0.00003402   -0.00146535    0.05681415
     atom   29 type  2   force =    -0.01075529   -0.00066352    0.00674561
     atom   30 type  2   force =     0.01187439   -0.00016924    0.00510052
     atom   31 type  1   force =    -0.00063069    0.00410006   -0.01559684
     atom   32 type  1   force =     0.00067474   -0.00276816    0.00214633
     atom   33 type  2   force =     0.00015272   -0.00022388   -0.00059192
     atom   34 type  2   force =    -0.00109300    0.00272751   -0.00200911
     atom   35 type  2   force =     0.00009145    0.00020160    0.00010128
     atom   36 type  2   force =    -0.00033288    0.00034015   -0.00006915
     atom   37 type  1   force =     0.00046424   -0.00007830    0.00030065
     atom   38 type  1   force =     0.00009501    0.00089913    0.00014623
     atom   39 type  2   force =    -0.00005084   -0.00097971    0.00044063
     atom   40 type  2   force =    -0.00023497   -0.00043794    0.00062899
     atom   41 type  2   force =    -0.00022833   -0.00001625   -0.00016067
     atom   42 type  2   force =     0.00010312    0.00000884    0.00025123
     atom   43 type  1   force =    -0.00000317   -0.00143556    0.00087154
     atom   44 type  1   force =    -0.00003497   -0.00096816   -0.00163728
     atom   45 type  2   force =     0.00009685   -0.00008128    0.10375830
     atom   46 type  2   force =    -0.07064526   -0.00009785   -0.02707986
     atom   47 type  2   force =     0.07059550    0.00028498   -0.02711644
     atom   48 type  3   force =    -0.00061287   -0.00092027   -0.00018137
     atom   49 type  4   force =     0.00020755   -0.00054602    0.00126080
     atom   50 type  5   force =     0.00080986    0.00006983   -0.00103287
     atom   51 type  5   force =    -0.00020877    0.00058107   -0.00017284
     atom   52 type  3   force =    -0.00124635   -0.00178522   -0.00209002
     atom   53 type  5   force =     0.00146865    0.00129916    0.00192464
     atom   54 type  5   force =    -0.00000198   -0.00112940    0.00079453
     atom   55 type  5   force =     0.00105656    0.00122693   -0.00002456

     Total force =     0.365737     Total SCF correction =     0.000674
  @ DRIVER MODE: Message from server: STATUS
  @ DRIVER MODE: Message from server: GETFORCE
  @ DRIVER MODE: Returning v,forces,stress,ensemble

     Writing output data file ./calc.save/
  @ DRIVER MODE: Message from server: EXIT
  @ DRIVE MODE: Exiting

     General routines

     Parallel routines

   This run was terminated on:   8: 0:56  24Aug2021

   JOB DONE.