     Program PWSCF v.6.7GPU starts on  9Sep2021 at  5:18:29

     R & G space division:  proc/nbgrp/npool/nimage =      10
     Reading input from /storage/home/hcoda1/3/ntian30/research/carbon/CxH_vib/CH2_calc/ads_slab/CH2NH_a/out_0025/pw.inp
Warning: card &CELL ignored
Warning: card   CELL_DYNAMICS='IPI', ignored
Warning: card / ignored

     Current dimensions of program PWSCF are:
     Max number of different atomic species (ntypx) = 10
     Max number of k-points (npk) =  40000
     Max angular momentum in pseudopotentials (lmaxx) =  3
     Presently no symmetry can be used with electric field

     Message from routine cell_base_init:
     DEPRECATED: use true lattice parameter, not A to a.u. conversion factor

     IMPORTANT: XC functional enforced from input :
     Exchange-correlation= BEEF-VDW
                           (   1   4  43  14   2   0   0)
     Any further DFT definition will be discarded
     Please, verify this is what you really want

  @ DRIVER MODE: Connecting to
 qe_1139763_2767389.sched-torque.pace.gatech.eduhvlvygkb_scratch
  using UNIX socket
  @ DRIVER MODE: Message from server: STATUS
  @ DRIVER MODE: Message from server: INIT
  @ DRIVER MODE: Receiving replica           0          -1
  @ DRIVER MODE: Receiving encoded integer          25
  @ DRIVER MODE:  SCF:  T  FORCE:  T  STRESS:  F  VC:  F  ENSEMBLE:  F
  @ DRIVER MODE:  SCF:  T  FORCE:  T  STRESS:  F  VC:  F  ENSEMBLE:  F

     Using Slab Decomposition

     bravais-lattice index     =            0
     lattice parameter (alat)  =       1.8897  a.u.
     unit-cell volume          =    6658.9804 (a.u.)^3
     number of atoms/cell      =           52
     number of atomic types    =            5
     number of electrons       =       390.00
     number of Kohn-Sham states=          205
     kinetic-energy cutoff     =      29.3995  Ry
     charge density cutoff     =     293.9946  Ry
     scf convergence threshold =      7.3E-08
     mixing beta               =       0.0500
     number of iterations used =            8  plain     mixing
     Exchange-correlation= BEEF-VDW
                           (   1   4  43  14   2   0   0)

     celldm(1)=   1.889726  celldm(2)=   0.000000  celldm(3)=   0.000000
     celldm(4)=   0.000000  celldm(5)=   0.000000  celldm(6)=   0.000000

     crystal axes: (cart. coord. in units of alat)
               a(1) = (   6.579727   0.000000   0.000000 )
               a(2) = (  -0.000775   5.961596   0.000000 )
               a(3) = (   0.000000   0.000000  25.155947 )

     reciprocal axes: (cart. coord. in units 2 pi/alat)
               b(1) = (  0.151982  0.000020  0.000000 )
               b(2) = (  0.000000  0.167740  0.000000 )
               b(3) = (  0.000000  0.000000  0.039752 )

     PseudoPot. # 1 for Ti read from file:
     /storage/coda1/p-amedford6/0/shared/rich_project_chbe-medford/medford-share/data/pseudos_module/espresso/nninc/pbe/van/Ti.UPF
     MD5 check sum: 8e4df49b7f0d34bbd5052bf3f5ea0213
     Pseudo is Ultrasoft, Zval = 12.0
     Generated by new atomic code, or converted to UPF format
     Using radial grid of  851 points,  6 beta functions with:
                l(1) =   0
                l(2) =   0
                l(3) =   1
                l(4) =   1
                l(5) =   2
                l(6) =   2
     Q(r) pseudized with  8 coefficients,  rinner =    1.000   1.000   1.000
                                                       1.000   1.000

     PseudoPot. # 2 for O  read from file:
     /storage/coda1/p-amedford6/0/shared/rich_project_chbe-medford/medford-share/data/pseudos_module/espresso/nninc/pbe/van/O.UPF
     MD5 check sum: 78c19812648e8988a0fe644b0f25305e
     Pseudo is Ultrasoft, Zval =  6.0
     Generated by new atomic code, or converted to UPF format
     Using radial grid of  737 points,  4 beta functions with:
                l(1) =   0
                l(2) =   0
                l(3) =   1
                l(4) =   1
     Q(r) pseudized with  8 coefficients,  rinner =    0.800   0.800   0.800

     PseudoPot. # 3 for N  read from file:
     /storage/coda1/p-amedford6/0/shared/rich_project_chbe-medford/medford-share/data/pseudos_module/espresso/nninc/pbe/van/N.UPF
     MD5 check sum: 90d10febe142ad51ac9d5be1deb811c4
     Pseudo is Ultrasoft, Zval =  5.0
     Generated by new atomic code, or converted to UPF format
     Using radial grid of  729 points,  4 beta functions with:
                l(1) =   0
                l(2) =   0
                l(3) =   1
                l(4) =   1
     Q(r) pseudized with  8 coefficients,  rinner =    0.800   0.800   0.800

     PseudoPot. # 4 for C  read from file:
     /storage/coda1/p-amedford6/0/shared/rich_project_chbe-medford/medford-share/data/pseudos_module/espresso/nninc/pbe/van/C.UPF
     MD5 check sum: 1a69bf6b8db32088f5b2163dbdb77a27
     Pseudo is Ultrasoft, Zval =  4.0
     Generated by new atomic code, or converted to UPF format
     Using radial grid of  721 points,  4 beta functions with:
                l(1) =   0
                l(2) =   0
                l(3) =   1
                l(4) =   1
     Q(r) pseudized with  8 coefficients,  rinner =    0.800   0.800   0.800

     PseudoPot. # 5 for H  read from file:
     /storage/coda1/p-amedford6/0/shared/rich_project_chbe-medford/medford-share/data/pseudos_module/espresso/nninc/pbe/van/H.UPF
     MD5 check sum: b5ee9d7bfd3a09ee7748110bda690ff7
     Pseudo is Ultrasoft, Zval =  1.0
     Generated by new atomic code, or converted to UPF format
     Using radial grid of  615 points,  1 beta functions with:
                l(1) =   0
     Q(r) pseudized with  8 coefficients,  rinner =    0.800

     atomic species   valence    mass     pseudopotential
        Ti1           12.00    47.86700     Ti( 1.00)
        O1             6.00    15.99900     O ( 1.00)
        N1             5.00    14.00700     N ( 1.00)
        C1             4.00    12.01100     C ( 1.00)
        H1             1.00     1.00800     H ( 1.00)

     No symmetry found

   Cartesian axes

     site n.     atom                  positions (alat units)
         1           Ti1 tau(   1) = (   0.0004258   2.9801865   6.0000000  )
         2           Ti1 tau(   2) = (   3.2906075   1.4906267   6.0002472  )
         3           O1  tau(   3) = (   0.0006271   0.0005054   7.9858123  )
         4           O1  tau(   4) = (   3.2906025   0.0005020   7.3038282  )
         5           O1  tau(   5) = (   4.5942328   1.4918067   9.2879030  )
         6           O1  tau(   6) = (   1.9868534   1.4903216   9.2879459  )
         7           Ti1 tau(   7) = (   3.2907910   2.8959150   9.1758416  )
         8           Ti1 tau(   8) = (   0.0015273   1.4827037   9.2680791  )
         9           O1  tau(   9) = (   3.2859541   5.9290403  11.3715426  )
        10           O1  tau(  10) = (   0.0116148   5.9584955  10.6183126  )
        11           O1  tau(  11) = (   1.2917987   1.4688796  12.6526629  )
        12           O1  tau(  12) = (   5.2888266   1.4686376  12.6403033  )
        13           Ti1 tau(  13) = (   0.0074927   2.9495069  12.5376589  )
        14           Ti1 tau(  14) = (   3.2957121   1.4606513  12.5174744  )
        15           O1  tau(  15) = (   6.5702453   0.0264740  14.6787910  )
        16           O1  tau(  16) = (   3.3001739   5.9406727  13.9930656  )
        17           O1  tau(  17) = (   4.5367710   1.4643441  16.2106543  )
        18           O1  tau(  18) = (   2.0349547   1.4576396  16.1973481  )
        19           Ti1 tau(  19) = (   3.2821410   2.9383233  15.7467721  )
        20           Ti1 tau(  20) = (   6.5624771   1.3975196  16.0657228  )
        21           O1  tau(  21) = (   3.2904802   0.0005063   4.7018136  )
        22           O1  tau(  22) = (   0.0049924   5.8117904  17.2112648  )
        23           O1  tau(  23) = (   1.3043587   1.4918075   6.0039043  )
        24           O1  tau(  24) = (   5.2767064   1.4903225   6.0039473  )
        25           Ti1 tau(  25) = (   0.0000382   5.9609847   6.0000000  )
        26           Ti1 tau(  26) = (   3.2902200   4.4714249   6.0002472  )
        27           O1  tau(  27) = (   0.0002396   2.9813036   7.9858123  )
        28           O1  tau(  28) = (   3.2902150   2.9813002   7.3038282  )
        29           O1  tau(  29) = (   4.5938453   4.4726049   9.2879030  )
        30           O1  tau(  30) = (   1.9864658   4.4711199   9.2879459  )
        31           Ti1 tau(  31) = (   3.2891106   5.8743827   9.1763621  )
        32           Ti1 tau(  32) = (   0.0006254   4.4649316   9.2693709  )
        33           O1  tau(  33) = (   3.2878059   2.9597088  11.3652031  )
        34           O1  tau(  34) = (   0.0092240   2.9805883  10.6323155  )
        35           O1  tau(  35) = (   1.2887225   4.4431869  12.6829221  )
        36           O1  tau(  36) = (   5.2901277   4.4428847  12.6690855  )
        37           Ti1 tau(  37) = (   0.0035388   5.9380168  12.5099366  )
        38           Ti1 tau(  38) = (   3.2962120   4.4389810  12.5267566  )
        39           O1  tau(  39) = (   6.5655450   2.9014274  14.9049457  )
        40           O1  tau(  40) = (   3.2937888   2.9365130  13.9572806  )
        41           O1  tau(  41) = (   4.5374039   4.4072578  16.1608974  )
        42           O1  tau(  42) = (   2.0345115   4.4188705  16.1151926  )
        43           Ti1 tau(  43) = (   3.2925710   5.9161036  15.7896908  )
        44           Ti1 tau(  44) = (   0.0121651   4.6006060  15.8502786  )
        45           O1  tau(  45) = (   3.2900926   2.9813045   4.7018136  )
        46           O1  tau(  46) = (   1.3039711   4.4726057   6.0039043  )
        47           O1  tau(  47) = (   5.2763189   4.4711207   6.0039473  )
        48           N1  tau(  48) = (   6.5581919   2.6818180  17.9522317  )
        49           C1  tau(  49) = (   0.8403426   2.5546117  18.8965076  )
        50           H1  tau(  50) = (   0.6793733   2.9585088  19.8916666  )
        51           H1  tau(  51) = (   1.7584391   2.0155774  18.6961775  )
        52           H1  tau(  52) = (   5.7098555   3.1867788  18.2393814  )

     number of k points=    10  Fermi-Dirac smearing, width (Ry)=  0.0073
                       cart. coord. in units 2pi/alat
        k(    1) = (   0.0000000   0.0000000   0.0000000), wk =   0.1250000
        k(    2) = (   0.0000000   0.0419351   0.0000000), wk =   0.2500000
        k(    3) = (   0.0000000  -0.0838702   0.0000000), wk =   0.1250000
        k(    4) = (   0.0379955   0.0000049   0.0000000), wk =   0.2500000
        k(    5) = (   0.0379955   0.0419400   0.0000000), wk =   0.2500000
        k(    6) = (   0.0379955  -0.0838652   0.0000000), wk =   0.2500000
        k(    7) = (   0.0379955  -0.0419301   0.0000000), wk =   0.2500000
        k(    8) = (  -0.0759910  -0.0000099   0.0000000), wk =   0.1250000
        k(    9) = (  -0.0759910   0.0419252   0.0000000), wk =   0.2500000
        k(   10) = (  -0.0759910  -0.0838800   0.0000000), wk =   0.1250000

     Initial potential from superposition of free atoms

     starting charge  373.99917, renormalised to  390.00000

     negative rho (up, down):  1.699E-02 0.000E+00

     %%%%%%%%%%%%%%%%%%%%%%%%%%%%%%%%%%%%%%%%%%%%%%%%%%%%%%%%%%%%%%%%%%%%%%%%
     %                                                                      %
     % You are using vdW-DF, which was implemented by the Thonhauser group. %
     % Please cite the following two papers that made this development      %
     % possible and the two reviews that describe the various versions:     %
     %                                                                      %
     %   T. Thonhauser et al., PRL 115, 136402 (2015).                      %
     %   T. Thonhauser et al., PRB 76, 125112 (2007).                       %
     %   K. Berland et al., Rep. Prog. Phys. 78, 066501 (2015).             %
     %   D.C. Langreth et al., J. Phys.: Condens. Matter 21, 084203 (2009). %
     %                                                                      %
     %                                                                      %
     % If you are calculating the stress with vdW-DF, please also cite:     %
     %                                                                      %
     %   R. Sabatini et al., J. Phys.: Condens. Matter 24, 424209 (2012).   %
     %                                                                      %
     %%%%%%%%%%%%%%%%%%%%%%%%%%%%%%%%%%%%%%%%%%%%%%%%%%%%%%%%%%%%%%%%%%%%%%%%

     Adding external electric field

     Computed dipole along edir(3) :
        Dipole               -6.0480 Ry au,        -15.3725 Debye
        Dipole field         -0.0114 Ry au,

        Potential amp.        1.0580 Ry
        Total length         46.3494 bohr

     Starting wfcs are  295 atomic wfcs
  @ DRIVER MODE: Message from server: STATUS
  @ DRIVER MODE: Message from server: POSDATA
  @ DRIVER MODE: Reading and sharing cell
  @ DRIVER MODE: Reading and sharing positions
  @ DRIVER MODE: Received positions

     Self-consistent Calculation

     iteration #  1     ecut=    29.40 Ry     beta= 0.05
     Davidson diagonalization with overlap
     c_bands:  1 eigenvalues not converged
     c_bands:  1 eigenvalues not converged
     ethr =  1.00E-05,  avg # of iterations = 16.8

[...]

     total energy              =   -2758.77145990 Ry
     estimated scf accuracy    <    1760.56307715 Ry

     iteration #  2     ecut=    29.40 Ry     beta= 0.05
     Davidson diagonalization with overlap
     ethr =  1.00E-02,  avg # of iterations = 18.4

[...]

     iteration # 63     ecut=    29.40 Ry     beta= 0.05
     Davidson diagonalization with overlap
     c_bands:  1 eigenvalues not converged
     ethr =  1.44E-10,  avg # of iterations = 12.6

[...]

     total energy              =   -2919.11577561 Ry
     estimated scf accuracy    <       0.00000009 Ry

     iteration # 67     ecut=    29.40 Ry     beta= 0.05
     Davidson diagonalization with overlap
     ethr =  2.39E-11,  avg # of iterations =  4.5

     negative rho (up, down):  1.721E-02 0.000E+00

     Adding external electric field

     Computed dipole along edir(3) :
        Dipole                1.2609 Ry au,          3.2049 Debye
        Dipole field          0.0024 Ry au,

        Potential amp.       -0.2206 Ry
        Total length         46.3494 bohr

     End of self-consistent calculation

          k = 0.0000 0.0000 0.0000 ( 18029 PWs)   bands (ev):

   -55.5451 -55.5084 -55.5067 -55.4725 -55.4373 -55.4205 -55.3830 -55.3604
   -55.3601 -55.3352 -55.3255 -55.3118 -55.3018 -55.1294 -54.5276 -54.4935
   -32.1117 -31.9976 -31.9080 -31.8665 -31.8600 -31.8493 -31.8399 -31.8350
   -31.7963 -31.7849 -31.7533 -31.7516 -31.7513 -31.7160 -31.6984 -31.6804
   -31.6752 -31.6672 -31.6611 -31.6571 -31.6191 -31.6158 -31.6006 -31.5901
   -31.5637 -31.5620 -31.5604 -31.5521 -31.5473 -31.5417 -31.5315 -31.5233
   -31.5134 -31.5126 -31.5090 -31.4815 -31.4743 -31.4679 -31.4637 -31.4449
   -31.3531 -31.2705 -30.9365 -30.8434 -30.8213 -30.7530 -30.6663 -30.5553
   -16.5267 -16.3402 -16.0746 -15.8978 -15.7944 -15.7341 -15.5979 -15.5217
   -15.4441 -15.3416 -15.2512 -15.1845 -15.1686 -15.1483 -15.1433 -15.0821
   -15.0785 -15.0541 -15.0370 -15.0355 -14.9811 -14.9736 -14.9419 -14.9298
   -14.9189 -14.8466 -14.7625 -14.6935 -14.6334 -14.2059 -13.0301 -12.9128
    -9.2848  -6.2557  -4.6884  -3.6997  -3.5464  -3.4521  -3.4410  -3.4194
    -3.2708  -3.1330  -2.9268  -2.8460  -2.7998  -2.7506  -2.7226  -2.7049
    -2.6195  -2.5196  -2.4445  -2.4003  -2.3751  -2.3620  -2.3511  -2.3239
    -2.3118  -2.2787  -2.2396  -2.1970  -2.0934  -2.0056  -1.9640  -1.9297
    -1.8728  -1.8611  -1.8349  -1.8288  -1.8222  -1.8006  -1.7622  -1.7524
    -1.7049  -1.5649  -1.5524  -1.4349  -1.3972  -1.2820  -1.1815  -1.1792
    -1.0927  -1.0894  -1.0208  -0.9677  -0.9365  -0.9282  -0.8776  -0.8289
    -0.7398  -0.6466  -0.5852  -0.5431  -0.5083  -0.4795  -0.4119  -0.3209
    -0.3158  -0.3052  -0.2025  -0.1240  -0.1015  -0.0490  -0.0165   0.0269
     0.0429   0.1533   0.1963   0.2377   0.2555   0.3348   0.3563   0.4119
     0.4171   0.4522   0.4613   0.5275   0.5747   0.5942   0.6440   0.6629
     0.8212   1.0739   1.0809   1.1284   1.4041   1.4342   1.4951   1.6800
     2.0704   2.1181   3.5546   3.6269   3.6921   3.7049   3.7462   3.7914
     3.9590   4.0392   4.0558   4.0600   4.0915

[...]

          k = 0.0380-0.0419 0.0000 ( 17876 PWs)   bands (ev):

[...]

          k =-0.0760-0.0000 0.0000 ( 17886 PWs)   bands (ev):

[...]

          k =-0.0760-0.0839 0.0000 ( 17948 PWs)   bands (ev):

   -55.5305 -55.5228 -55.4896 -55.4895 -55.4333 -55.4093 -55.3942 -55.3642
   -55.3439 -55.3411 -55.3190 -55.3183 -55.3102 -55.1310 -54.5105 -54.5105
   -31.9182 -31.9130 -31.8291 -31.8128 -31.8126 -31.8044 -31.7817 -31.7817
   -31.7580 -31.7517 -31.7445 -31.7427 -31.7375 -31.6993 -31.6775 -31.6741
   -31.6701 -31.6658 -31.6620 -31.6572 -31.6526 -31.6334 -31.6193 -31.6187
   -31.6090 -31.6090 -31.6064 -31.5894 -31.5767 -31.5735 -31.5633 -31.5572
   -31.5543 -31.5532 -31.5437 -31.5433 -31.5105 -31.4985 -31.4977 -31.4857
   -31.3578 -31.3520 -30.8339 -30.8339 -30.7491 -30.7490 -30.7097 -30.7097
   -16.5019 -15.7797 -15.7456 -15.7301 -15.5263 -15.5180 -15.5103 -15.4924
   -15.3319 -15.3186 -15.2919 -15.2755 -15.2438 -15.2403 -15.2104 -15.1775
   -15.1242 -15.1198 -15.1115 -15.1092 -15.0492 -15.0450 -15.0248 -14.9962
   -14.9942 -14.9880 -14.8932 -14.8913 -14.7191 -14.5259 -13.0144 -13.0143
    -9.2892  -6.2515  -4.6704  -3.0546  -2.9933  -2.9327  -2.7357  -2.7324
    -2.7015  -2.6192  -2.5497  -2.5388  -2.5114  -2.4831  -2.4807  -2.4323
    -2.3880  -2.3783  -2.3671  -2.3596  -2.3414  -2.3274  -2.2985  -2.2616
    -2.2527  -2.2223  -2.2082  -2.1836  -2.1818  -2.1452  -2.1216  -2.1071
    -2.0956  -2.0307  -1.9321  -1.8803  -1.7943  -1.7664  -1.7387  -1.7327
    -1.6493  -1.6239  -1.5967  -1.5560  -1.5438  -1.5100  -1.3068  -1.2768
    -1.2674  -1.2536  -1.2298  -1.0800  -1.0703  -1.0204  -0.9893  -0.9417
    -0.8844  -0.8485  -0.8336  -0.7517  -0.7209  -0.6763  -0.6372  -0.5139
    -0.5104  -0.5033  -0.5016  -0.4839  -0.3972  -0.3852  -0.3423  -0.3089
    -0.2678  -0.2535  -0.1886  -0.0065   0.0103   0.0763   0.1833   0.2781
     0.3718   0.4511   0.4711   0.5219   0.5650   0.5853   0.6644   0.7575
     0.7694   0.8375   0.8836   0.9249   0.9291   0.9341   1.8529   1.8536
     1.9381   1.9382   3.6780   3.8025   3.8230   3.8610   3.8792   4.0279
     4.0742   4.1116   4.1340   4.1362   4.2176

     the Fermi energy is     3.6099 ev

!    total energy              =   -2919.11579664 Ry
     estimated scf accuracy    <       0.00000007 Ry
     smearing contrib. (-TS)   =      -0.03732234 Ry
     internal energy E=F+TS    =   -2919.07847430 Ry

     The total energy is F=E-TS. E is the sum of the following terms:
     one-electron contribution =  -24307.18197137 Ry
     hartree contribution      =   12241.00412286 Ry
     xc contribution           =    -480.00857323 Ry
     ewald contribution        =    9627.10494716 Ry
     electric field correction =       0.00300027 Ry

     convergence has been achieved in  67 iterations

     Forces acting on atoms (cartesian axes, Ry/au):

     atom    1 type  1   force =     0.00005139   -0.00015480    0.09379561
     atom    2 type  1   force =    -0.00018025   -0.00018222   -0.17778281
     atom    3 type  2   force =     0.00002683   -0.00021991   -0.02114969
     atom    4 type  2   force =    -0.00001598   -0.00198769    0.05774671
     atom    5 type  2   force =    -0.01107433   -0.00164796    0.00749875
     atom    6 type  2   force =     0.01243636   -0.00098216    0.00638147
     atom    7 type  1   force =    -0.00048107    0.00246707   -0.01334672
     atom    8 type  1   force =     0.00030098    0.00294561    0.00275711
     atom    9 type  2   force =     0.00007583   -0.00007940    0.00011995
     atom   10 type  2   force =    -0.00176268   -0.00227106   -0.00366951
     atom   11 type  2   force =     0.00016510    0.00059522   -0.00027796
     atom   12 type  2   force =     0.00044581    0.00053218   -0.00009676
     atom   13 type  1   force =    -0.00072152   -0.00095224   -0.00030949
     atom   14 type  1   force =     0.00082500    0.00027177   -0.00050782
     atom   15 type  2   force =     0.00025340    0.00018489   -0.00005911
     atom   16 type  2   force =    -0.00008003    0.00034297   -0.00062167
     atom   17 type  2   force =     0.00003992    0.00012452    0.00032645
     atom   18 type  2   force =     0.00052734    0.00002156    0.00020849
     atom   19 type  1   force =     0.00019626   -0.00096265    0.00028755
     atom   20 type  1   force =    -0.00006039    0.00051450    0.00038174
     atom   21 type  2   force =     0.00004471   -0.00002281    0.10384727
     atom   22 type  2   force =     0.00001768   -0.00062276    0.00004079
     atom   23 type  2   force =    -0.07057879   -0.00014634   -0.02707038
     atom   24 type  2   force =     0.07045777    0.00031802   -0.02711562
     atom   25 type  1   force =     0.00008587   -0.00018597    0.09359240
     atom   26 type  1   force =    -0.00009415   -0.00027679   -0.17781943
     atom   27 type  2   force =     0.00008406   -0.00045520   -0.02018322
     atom   28 type  2   force =     0.00002611   -0.00169109    0.05723440
     atom   29 type  2   force =    -0.01116600   -0.00114844    0.00695978
     atom   30 type  2   force =     0.01241766   -0.00080636    0.00582216
     atom   31 type  1   force =    -0.00039177    0.00468065   -0.01442473
     atom   32 type  1   force =     0.00037040   -0.00362428    0.00246713
     atom   33 type  2   force =    -0.00000497    0.00057591    0.00037387
     atom   34 type  2   force =    -0.00117695   -0.00059247   -0.00103811
     atom   35 type  2   force =     0.00039300    0.00025745    0.00021447
     atom   36 type  2   force =     0.00014141    0.00032921    0.00018419
     atom   37 type  1   force =    -0.00053339    0.00131679    0.00009598
     atom   38 type  1   force =     0.00086846    0.00007072   -0.00086641
     atom   39 type  2   force =     0.00012815    0.00047085    0.00028627
     atom   40 type  2   force =     0.00018117    0.00020069   -0.00052181
     atom   41 type  2   force =     0.00022566    0.00007091   -0.00067945
     atom   42 type  2   force =    -0.00008687    0.00004624   -0.00073686
     atom   43 type  1   force =    -0.00002048    0.00105926    0.00009292
     atom   44 type  1   force =    -0.00013299    0.00028305   -0.00056325
     atom   45 type  2   force =     0.00004489   -0.00003916    0.10382622
     atom   46 type  2   force =    -0.07059728   -0.00006794   -0.02706654
     atom   47 type  2   force =     0.07047187    0.00035013   -0.02709435
     atom   48 type  3   force =    -0.01086224    0.00456010    0.00142631
     atom   49 type  4   force =    -0.00228511    0.00098675    0.00016945
     atom   50 type  5   force =    -0.00019465    0.00110793    0.00039646
     atom   51 type  5   force =    -0.00003868    0.00018767    0.00016264
     atom   52 type  5   force =     0.01123747   -0.00575294   -0.00369483

     Total force =     0.366337     Total SCF correction =     0.000383
  @ DRIVER MODE: Message from server: STATUS
  @ DRIVER MODE: Message from server: GETFORCE
  @ DRIVER MODE: Returning v,forces,stress,ensemble

     Writing output data file ./calc.save/
  @ DRIVER MODE: Message from server: EXIT
  @ DRIVE MODE: Exiting

     General routines

     Parallel routines

   This run was terminated on:   5:34:57   9Sep2021

   JOB DONE.