     Program PWSCF v.6.7GPU starts on  9Sep2021 at  1:38: 4

     R & G space division:  proc/nbgrp/npool/nimage =      10
     Reading input from /storage/home/hcoda1/3/ntian30/research/carbon/CxH_vib/CH_calc/ads_slab/CHNNHH_a/out_0011/pw.inp
Warning: card &CELL ignored
Warning: card   CELL_DYNAMICS='IPI', ignored
Warning: card / ignored

     Current dimensions of program PWSCF are:
     Max number of different atomic species (ntypx) = 10
     Max number of k-points (npk) =  40000
     Max angular momentum in pseudopotentials (lmaxx) =  3
     Presently no symmetry can be used with electric field

     Message from routine cell_base_init:
     DEPRECATED: use true lattice parameter, not A to a.u. conversion factor

     IMPORTANT: XC functional enforced from input :
     Exchange-correlation= BEEF-VDW
                           (   1   4  43  14   2   0   0)
     Any further DFT definition will be discarded
     Please, verify this is what you really want

  @ DRIVER MODE: Connecting to
 qe_1139763_2767382.sched-torque.pace.gatech.eduywq7t_bi_scratch
  using UNIX socket
  @ DRIVER MODE: Message from server: STATUS
  @ DRIVER MODE: Message from server: INIT
  @ DRIVER MODE: Receiving replica           0          -1
  @ DRIVER MODE: Receiving encoded integer          25
  @ DRIVER MODE:  SCF:  T  FORCE:  T  STRESS:  F  VC:  F  ENSEMBLE:  F
  @ DRIVER MODE:  SCF:  T  FORCE:  T  STRESS:  F  VC:  F  ENSEMBLE:  F

     Using Slab Decomposition

     bravais-lattice index     =            0
     lattice parameter (alat)  =       1.8897  a.u.
     unit-cell volume          =    6658.9804 (a.u.)^3
     number of atoms/cell      =           53
     number of atomic types    =            5
     number of electrons       =       395.00
     number of Kohn-Sham states=          207
     kinetic-energy cutoff     =      29.3995  Ry
     charge density cutoff     =     293.9946  Ry
     scf convergence threshold =      7.3E-08
     mixing beta               =       0.0500
     number of iterations used =            8  plain     mixing
     Exchange-correlation= BEEF-VDW
                           (   1   4  43  14   2   0   0)

     celldm(1)=   1.889726  celldm(2)=   0.000000  celldm(3)=   0.000000
     celldm(4)=   0.000000  celldm(5)=   0.000000  celldm(6)=   0.000000

     crystal axes: (cart. coord. in units of alat)
               a(1) = (   6.579727   0.000000   0.000000 )
               a(2) = (  -0.000775   5.961596   0.000000 )
               a(3) = (   0.000000   0.000000  25.155947 )

     reciprocal axes: (cart. coord. in units 2 pi/alat)
               b(1) = (  0.151982  0.000020  0.000000 )
               b(2) = (  0.000000  0.167740  0.000000 )
               b(3) = (  0.000000  0.000000  0.039752 )

     PseudoPot. # 1 for Ti read from file:
     /storage/coda1/p-amedford6/0/shared/rich_project_chbe-medford/medford-share/data/pseudos_module/espresso/nninc/pbe/van/Ti.UPF
     MD5 check sum: 8e4df49b7f0d34bbd5052bf3f5ea0213
     Pseudo is Ultrasoft, Zval = 12.0
     Generated by new atomic code, or converted to UPF format
     Using radial grid of  851 points,  6 beta functions with:
                l(1) =   0
                l(2) =   0
                l(3) =   1
                l(4) =   1
                l(5) =   2
                l(6) =   2
     Q(r) pseudized with  8 coefficients,  rinner =    1.000   1.000   1.000
                                                       1.000   1.000

     PseudoPot. # 2 for O  read from file:
     /storage/coda1/p-amedford6/0/shared/rich_project_chbe-medford/medford-share/data/pseudos_module/espresso/nninc/pbe/van/O.UPF
     MD5 check sum: 78c19812648e8988a0fe644b0f25305e
     Pseudo is Ultrasoft, Zval =  6.0
     Generated by new atomic code, or converted to UPF format
     Using radial grid of  737 points,  4 beta functions with:
                l(1) =   0
                l(2) =   0
                l(3) =   1
                l(4) =   1
     Q(r) pseudized with  8 coefficients,  rinner =    0.800   0.800   0.800

     PseudoPot. # 3 for N  read from file:
     /storage/coda1/p-amedford6/0/shared/rich_project_chbe-medford/medford-share/data/pseudos_module/espresso/nninc/pbe/van/N.UPF
     MD5 check sum: 90d10febe142ad51ac9d5be1deb811c4
     Pseudo is Ultrasoft, Zval =  5.0
     Generated by new atomic code, or converted to UPF format
     Using radial grid of  729 points,  4 beta functions with:
                l(1) =   0
                l(2) =   0
                l(3) =   1
                l(4) =   1
     Q(r) pseudized with  8 coefficients,  rinner =    0.800   0.800   0.800

     PseudoPot. # 4 for C  read from file:
     /storage/coda1/p-amedford6/0/shared/rich_project_chbe-medford/medford-share/data/pseudos_module/espresso/nninc/pbe/van/C.UPF
     MD5 check sum: 1a69bf6b8db32088f5b2163dbdb77a27
     Pseudo is Ultrasoft, Zval =  4.0
     Generated by new atomic code, or converted to UPF format
     Using radial grid of  721 points,  4 beta functions with:
                l(1) =   0
                l(2) =   0
                l(3) =   1
                l(4) =   1
     Q(r) pseudized with  8 coefficients,  rinner =    0.800   0.800   0.800

     PseudoPot. # 5 for H  read from file:
     /storage/coda1/p-amedford6/0/shared/rich_project_chbe-medford/medford-share/data/pseudos_module/espresso/nninc/pbe/van/H.UPF
     MD5 check sum: b5ee9d7bfd3a09ee7748110bda690ff7
     Pseudo is Ultrasoft, Zval =  1.0
     Generated by new atomic code, or converted to UPF format
     Using radial grid of  615 points,  1 beta functions with:
                l(1) =   0
     Q(r) pseudized with  8 coefficients,  rinner =    0.800

     atomic species   valence    mass     pseudopotential
        Ti1           12.00    47.86700     Ti( 1.00)
        O1             6.00    15.99900     O ( 1.00)
        N1             5.00    14.00700     N ( 1.00)
        C1             4.00    12.01100     C ( 1.00)
        H1             1.00     1.00800     H ( 1.00)

     No symmetry found

   Cartesian axes

     site n.     atom                  positions (alat units)
         1           Ti1 tau(   1) = (   0.0004258   2.9801865   6.0000000  )
         2           Ti1 tau(   2) = (   3.2906075   1.4906267   6.0002472  )
         3           O1  tau(   3) = (   0.0006271   0.0005054   7.9858123  )
         4           O1  tau(   4) = (   3.2906025   0.0005020   7.3038282  )
         5           O1  tau(   5) = (   4.5942328   1.4918067   9.2879030  )
         6           O1  tau(   6) = (   1.9868534   1.4903216   9.2879459  )
         7           Ti1 tau(   7) = (   3.2907910   2.8959150   9.1758416  )
         8           Ti1 tau(   8) = (   0.0015273   1.4827037   9.2680791  )
         9           O1  tau(   9) = (   3.2912281   5.9459940  11.3193265  )
        10           O1  tau(  10) = (   0.0116148   5.9584955  10.6183126  )
        11           O1  tau(  11) = (   1.3103257   1.4650607  12.6442557  )
        12           O1  tau(  12) = (   5.3047449   1.4806448  12.6312737  )
        13           Ti1 tau(  13) = (   6.5337005   3.0128982  12.6900614  )
        14           Ti1 tau(  14) = (   3.2207025   1.4698770  12.4715817  )
        15           O1  tau(  15) = (   6.5518216   5.9146589  14.6704082  )
        16           O1  tau(  16) = (   3.3240203   5.9583723  13.8895330  )
        17           O1  tau(  17) = (   4.5456974   1.5225049  16.1264218  )
        18           O1  tau(  18) = (   2.0489736   1.4727210  15.9535721  )
        19           Ti1 tau(  19) = (   3.2591190   2.9927146  15.6788090  )
        20           Ti1 tau(  20) = (   0.0289511   1.3544711  15.7732889  )
        21           O1  tau(  21) = (   3.2904802   0.0005063   4.7018136  )
        22           O1  tau(  22) = (   0.0559926   0.0451390  17.2112278  )
        23           O1  tau(  23) = (   1.3043587   1.4918075   6.0039043  )
        24           O1  tau(  24) = (   5.2767064   1.4903225   6.0039473  )
        25           Ti1 tau(  25) = (   0.0000382   5.9609847   6.0000000  )
        26           Ti1 tau(  26) = (   3.2902200   4.4714249   6.0002472  )
        27           O1  tau(  27) = (   0.0002396   2.9813036   7.9858123  )
        28           O1  tau(  28) = (   3.2902150   2.9813002   7.3038282  )
        29           O1  tau(  29) = (   4.5938453   4.4726049   9.2879030  )
        30           O1  tau(  30) = (   1.9864658   4.4711199   9.2879459  )
        31           Ti1 tau(  31) = (   3.2891106   5.8743827   9.1763621  )
        32           Ti1 tau(  32) = (   0.0006254   4.4649316   9.2693709  )
        33           O1  tau(  33) = (   3.2889932   2.9698301  11.3211337  )
        34           O1  tau(  34) = (   0.0092240   2.9805883  10.6323155  )
        35           O1  tau(  35) = (   1.3069247   4.4567274  12.6410950  )
        36           O1  tau(  36) = (   5.3013738   4.4587240  12.6283471  )
        37           Ti1 tau(  37) = (   6.5339814   0.0202798  12.5235249  )
        38           Ti1 tau(  38) = (   3.2191325   4.4512509  12.4750946  )
        39           O1  tau(  39) = (   6.5688456   2.9522374  14.7547250  )
        40           O1  tau(  40) = (   3.3031296   2.9710333  13.8824388  )
        41           O1  tau(  41) = (   4.5425837   4.4734130  15.9989242  )
        42           O1  tau(  42) = (   2.0771424   4.4889556  16.0364895  )
        43           Ti1 tau(  43) = (   3.3121389   0.0026565  15.6888161  )
        44           Ti1 tau(  44) = (   6.5128106   4.4989306  16.3061806  )
        45           O1  tau(  45) = (   3.2900926   2.9813045   4.7018136  )
        46           O1  tau(  46) = (   1.3039711   4.4726057   6.0039043  )
        47           O1  tau(  47) = (   5.2763189   4.4711207   6.0039473  )
        48           N1  tau(  48) = (   0.4628824   2.9849886  17.7976856  )
        49           C1  tau(  49) = (   1.4182946   2.9518240  18.6600831  )
        50           H1  tau(  50) = (   2.3503500   2.6458988  18.1556329  )
        51           N1  tau(  51) = (   5.7893717   3.5482605  18.2279111  )
        52           H1  tau(  52) = (   5.8942619   4.0012392  19.1365464  )
        53           H1  tau(  53) = (   5.0734348   2.8266848  18.2415795  )

     number of k points=    10  Fermi-Dirac smearing, width (Ry)=  0.0073
                       cart. coord. in units 2pi/alat
        k(    1) = (   0.0000000   0.0000000   0.0000000), wk =   0.1250000
        k(    2) = (   0.0000000   0.0419351   0.0000000), wk =   0.2500000
        k(    3) = (   0.0000000  -0.0838702   0.0000000), wk =   0.1250000
        k(    4) = (   0.0379955   0.0000049   0.0000000), wk =   0.2500000
        k(    5) = (   0.0379955   0.0419400   0.0000000), wk =   0.2500000
        k(    6) = (   0.0379955  -0.0838652   0.0000000), wk =   0.2500000
        k(    7) = (   0.0379955  -0.0419301   0.0000000), wk =   0.2500000
        k(    8) = (  -0.0759910  -0.0000099   0.0000000), wk =   0.1250000
        k(    9) = (  -0.0759910   0.0419252   0.0000000), wk =   0.2500000
        k(   10) = (  -0.0759910  -0.0838800   0.0000000), wk =   0.1250000

     Initial potential from superposition of free atoms

     starting charge  378.99916, renormalised to  395.00000

     negative rho (up, down):  1.776E-02 0.000E+00

     %%%%%%%%%%%%%%%%%%%%%%%%%%%%%%%%%%%%%%%%%%%%%%%%%%%%%%%%%%%%%%%%%%%%%%%%
     %                                                                      %
     % You are using vdW-DF, which was implemented by the Thonhauser group. %
     % Please cite the following two papers that made this development      %
     % possible and the two reviews that describe the various versions:     %
     %                                                                      %
     %   T. Thonhauser et al., PRL 115, 136402 (2015).                      %
     %   T. Thonhauser et al., PRB 76, 125112 (2007).                       %
     %   K. Berland et al., Rep. Prog. Phys. 78, 066501 (2015).             %
     %   D.C. Langreth et al., J. Phys.: Condens. Matter 21, 084203 (2009). %
     %                                                                      %
     %                                                                      %
     % If you are calculating the stress with vdW-DF, please also cite:     %
     %                                                                      %
     %   R. Sabatini et al., J. Phys.: Condens. Matter 24, 424209 (2012).   %
     %                                                                      %
     %%%%%%%%%%%%%%%%%%%%%%%%%%%%%%%%%%%%%%%%%%%%%%%%%%%%%%%%%%%%%%%%%%%%%%%%

     Adding external electric field

     Computed dipole along edir(3) :
        Dipole               -8.0588 Ry au,        -20.4833 Debye
        Dipole field         -0.0152 Ry au,

        Potential amp.        1.4098 Ry
        Total length         46.3494 bohr

     Starting wfcs are  299 atomic wfcs
  @ DRIVER MODE: Message from server: STATUS
  @ DRIVER MODE: Message from server: POSDATA
  @ DRIVER MODE: Reading and sharing cell
  @ DRIVER MODE: Reading and sharing positions
  @ DRIVER MODE: Received positions

     Self-consistent Calculation

     iteration #  1     ecut=    29.40 Ry     beta= 0.05
     Davidson diagonalization with overlap
     c_bands:  1 eigenvalues not converged
     c_bands:  1 eigenvalues not converged
     c_bands:  2 eigenvalues not converged
     c_bands:  3 eigenvalues not converged
     c_bands:  3 eigenvalues not converged
     c_bands:  2 eigenvalues not converged
     c_bands:  1 eigenvalues not converged
     ethr =  1.00E-05,  avg # of iterations = 19.3

[...]

     total energy              =   -2614.85052746 Ry
     estimated scf accuracy    <    3583.76272724 Ry

[...]

     iteration #  3     ecut=    29.40 Ry     beta= 0.05
     Davidson diagonalization with overlap
     ethr =  1.00E-02,  avg # of iterations = 14.1

[...]

     iteration # 68     ecut=    29.40 Ry     beta= 0.05
     Davidson diagonalization with overlap
     c_bands:  2 eigenvalues not converged
     ethr =  1.52E-10,  avg # of iterations = 13.1

[...]

     total energy              =   -2939.00596148 Ry
     estimated scf accuracy    <       0.00000018 Ry

     iteration # 72     ecut=    29.40 Ry     beta= 0.05
     Davidson diagonalization with overlap
     ethr =  4.68E-11,  avg # of iterations = 11.3

     negative rho (up, down):  1.646E-02 0.000E+00

     Adding external electric field

     Computed dipole along edir(3) :
        Dipole                0.3109 Ry au,          0.7902 Debye
        Dipole field          0.0006 Ry au,

        Potential amp.       -0.0544 Ry
        Total length         46.3494 bohr

     End of self-consistent calculation

          k = 0.0000 0.0000 0.0000 ( 18029 PWs)   bands (ev):

   -56.1026 -56.1002 -56.0685 -56.0639 -55.9906 -55.9572 -55.9503 -55.9164
   -55.9000 -55.8658 -55.8646 -55.8304 -55.6436 -55.5820 -55.0722 -55.0382
   -32.6593 -32.5837 -32.4822 -32.4232 -32.4080 -32.4037 -32.3950 -32.3558
   -32.3426 -32.3279 -32.3029 -32.2808 -32.2754 -32.2549 -32.2478 -32.2411
   -32.2057 -32.1935 -32.1898 -32.1853 -32.1814 -32.1599 -32.1540 -32.1376
   -32.1126 -32.0986 -32.0974 -32.0973 -32.0915 -32.0880 -32.0668 -32.0400
   -32.0394 -32.0259 -32.0178 -31.9980 -31.9766 -31.9493 -31.8719 -31.8430
   -31.7978 -31.7334 -31.4789 -31.3916 -31.3691 -31.2959 -31.2094 -31.0981
   -18.0029 -16.8690 -16.5791 -16.3653 -16.2582 -16.2427 -16.1366 -15.9511
   -15.8176 -15.7896 -15.6827 -15.6765 -15.6348 -15.6239 -15.5937 -15.5713
   -15.5633 -15.5357 -15.5335 -15.5162 -15.4722 -15.4488 -15.4297 -15.3342
   -15.2937 -15.2328 -15.2134 -15.1499 -15.0277 -14.7940 -13.5744 -13.4581
   -13.3620  -8.0638  -6.3728  -4.4026  -4.2431  -4.0663  -4.0052  -3.9711
    -3.9597  -3.7153  -3.6830  -3.3236  -3.2913  -3.2729  -3.2613  -3.2499
    -3.1477  -3.0152  -2.9605  -2.9175  -2.9070  -2.8966  -2.8890  -2.8764
    -2.8504  -2.8280  -2.7269  -2.6834  -2.6497  -2.5404  -2.5206  -2.4387
    -2.4127  -2.4029  -2.3682  -2.3475  -2.3384  -2.3124  -2.3009  -2.2791
    -2.1908  -2.1413  -2.0255  -1.9686  -1.8854  -1.8500  -1.6991  -1.6573
    -1.5702  -1.5634  -1.5436  -1.5205  -1.4873  -1.4013  -1.3321  -1.2382
    -1.1977  -1.1588  -1.1228  -1.0794  -0.9993  -0.9790  -0.9616  -0.8652
    -0.8609  -0.8515  -0.8100  -0.6082  -0.5868  -0.5491  -0.5361  -0.4610
    -0.4000  -0.3853  -0.3629  -0.3156  -0.2544  -0.1916  -0.1459  -0.1305
    -0.1189  -0.1153  -0.0824  -0.0556   0.0873   0.0977   0.1916   0.2042
     0.2259   0.3513   0.5273   0.5667   0.5812   0.7039   0.8808   0.9502
     1.0515   1.1431   1.5204   1.5657   2.4331   3.0353   3.1214   3.1551
     3.1746   3.2799   3.3116   3.4827   3.4979   3.5330   3.5523

[...]

          k = 0.0380-0.0419 0.0000 ( 17876 PWs)   bands (ev):

[...]

          k =-0.0760-0.0000 0.0000 ( 17886 PWs)   bands (ev):

[...]

          k =-0.0760-0.0839 0.0000 ( 17948 PWs)   bands (ev):

   -56.0866 -56.0843 -56.0839 -56.0799 -55.9814 -55.9594 -55.9475 -55.9259
   -55.8847 -55.8805 -55.8510 -55.8443 -55.6403 -55.5851 -55.0552 -55.0551
   -32.4628 -32.4584 -32.3997 -32.3983 -32.3814 -32.3797 -32.3619 -32.3495
   -32.3302 -32.3107 -32.2880 -32.2718 -32.2450 -32.2357 -32.2352 -32.2172
   -32.2160 -32.2063 -32.2038 -32.1982 -32.1972 -32.1895 -32.1837 -32.1691
   -32.1643 -32.1470 -32.1308 -32.1274 -32.0844 -32.0825 -32.0808 -32.0768
   -32.0680 -32.0658 -32.0621 -32.0605 -32.0563 -31.9672 -31.8836 -31.8362
   -31.8011 -31.7898 -31.3819 -31.3818 -31.2918 -31.2915 -31.2527 -31.2526
   -17.9931 -16.3049 -16.2889 -16.0721 -16.0279 -16.0238 -16.0025 -15.9144
   -15.8248 -15.8056 -15.7906 -15.7737 -15.7589 -15.6785 -15.6523 -15.6300
   -15.6261 -15.6145 -15.5588 -15.5538 -15.5506 -15.5445 -15.5247 -15.4916
   -15.4090 -15.4040 -15.3943 -15.1558 -15.0908 -15.0183 -13.5602 -13.5597
   -13.3748  -8.0211  -6.3109  -4.4279  -3.5979  -3.5790  -3.3568  -3.3187
    -3.2803  -3.2711  -3.1557  -3.0539  -3.0232  -3.0105  -2.9723  -2.9537
    -2.9422  -2.9294  -2.9162  -2.8969  -2.8710  -2.8386  -2.8333  -2.7880
    -2.7695  -2.7484  -2.7309  -2.7093  -2.7083  -2.6678  -2.6626  -2.6235
    -2.5854  -2.5421  -2.4342  -2.3768  -2.3464  -2.2935  -2.2319  -2.2219
    -2.2127  -2.1579  -2.1527  -2.1217  -2.0351  -1.9594  -1.8238  -1.8010
    -1.7681  -1.7292  -1.6946  -1.5990  -1.5548  -1.5049  -1.4522  -1.3972
    -1.3847  -1.3425  -1.3058  -1.2386  -1.2215  -1.1822  -1.1613  -1.0989
    -1.0559  -1.0519  -0.9895  -0.9224  -0.8646  -0.8622  -0.8422  -0.8244
    -0.7677  -0.7194  -0.6527  -0.6034  -0.5616  -0.4663  -0.4083  -0.2948
    -0.1835  -0.0653   0.0070   0.0101   0.0660   0.1430   0.1877   0.2242
     0.2326   0.2492   0.3440   0.4148   0.4351   0.4473   0.5058   0.7019
     1.3149   1.3161   1.3850   1.3858   2.4305   3.3232   3.3609   3.3756
     3.4061   3.5518   3.5545   3.5668   3.5706   3.6887   3.7223

     the Fermi energy is     3.0323 ev

!    total energy              =   -2939.00598997 Ry
     estimated scf accuracy    <       0.00000006 Ry
     smearing contrib. (-TS)   =      -0.02207878 Ry
     internal energy E=F+TS    =   -2938.98391120 Ry

     The total energy is F=E-TS. E is the sum of the following terms:
     one-electron contribution =  -24454.90700042 Ry
     hartree contribution      =   12312.55682356 Ry
     xc contribution           =    -485.14077442 Ry
     ewald contribution        =    9688.50685768 Ry
     electric field correction =       0.00018241 Ry

     convergence has been achieved in  72 iterations

     Forces acting on atoms (cartesian axes, Ry/au):

     atom    1 type  1   force =     0.00018781   -0.00028402    0.09688719
     atom    2 type  1   force =     0.00006598   -0.00078865   -0.17500080
     atom    3 type  2   force =     0.00014650   -0.00008819   -0.02552634
     atom    4 type  2   force =    -0.00003276   -0.00142597    0.05154870
     atom    5 type  2   force =    -0.01205834   -0.00173737    0.00279549
     atom    6 type  2   force =     0.01347833   -0.00134572    0.00223481
     atom    7 type  1   force =     0.00040484    0.00016032   -0.01208143
     atom    8 type  1   force =     0.00019292    0.02418695    0.02899518
     atom    9 type  2   force =    -0.00004276    0.00052480   -0.00006678
     atom   10 type  2   force =    -0.00266133    0.00014378   -0.01164234
     atom   11 type  2   force =    -0.00002548    0.00027234    0.00006409
     atom   12 type  2   force =    -0.00025436   -0.00001039    0.00016013
     atom   13 type  1   force =    -0.00012075    0.00114524   -0.00016684
     atom   14 type  1   force =    -0.00000501    0.00050468   -0.00000057
     atom   15 type  2   force =     0.00011207   -0.00018306   -0.00010624
     atom   16 type  2   force =    -0.00020813    0.00023099   -0.00020247
     atom   17 type  2   force =     0.00032076    0.00019214   -0.00026205
     atom   18 type  2   force =    -0.00030399    0.00008577   -0.00005598
     atom   19 type  1   force =    -0.00007726   -0.00025380   -0.00086087
     atom   20 type  1   force =     0.00007257    0.00002215   -0.00044390
     atom   21 type  2   force =     0.00006851   -0.00007115    0.10298170
     atom   22 type  2   force =     0.00010081   -0.00005536   -0.00014252
     atom   23 type  2   force =    -0.07167687   -0.00016815   -0.02792633
     atom   24 type  2   force =     0.07158093    0.00028974   -0.02796732
     atom   25 type  1   force =     0.00003166   -0.00025235    0.09678542
     atom   26 type  1   force =    -0.00000542   -0.00018068   -0.17517225
     atom   27 type  2   force =     0.00015628   -0.00026777   -0.02419180
     atom   28 type  2   force =     0.00001387   -0.00117997    0.05210079
     atom   29 type  2   force =    -0.01221402    0.00077609    0.00247214
     atom   30 type  2   force =     0.01351764    0.00125930    0.00188278
     atom   31 type  1   force =     0.00044676    0.00287448   -0.01397283
     atom   32 type  1   force =     0.00039082   -0.02517492    0.03049304
     atom   33 type  2   force =     0.00004231   -0.00008173   -0.00017346
     atom   34 type  2   force =    -0.00184239   -0.00049947   -0.02071224
     atom   35 type  2   force =    -0.00000087    0.00021585   -0.00003811
     atom   36 type  2   force =     0.00016442    0.00032451    0.00018033
     atom   37 type  1   force =    -0.00020263   -0.00086234   -0.00002001
     atom   38 type  1   force =     0.00008377    0.00012102   -0.00025745
     atom   39 type  2   force =     0.00008642    0.00032170   -0.00018707
     atom   40 type  2   force =    -0.00007536    0.00009043    0.00049513
     atom   41 type  2   force =     0.00060056    0.00002116   -0.00001677
     atom   42 type  2   force =    -0.00042155   -0.00010408   -0.00008223
     atom   43 type  1   force =    -0.00034339    0.00037479   -0.00008434
     atom   44 type  1   force =    -0.00023728    0.00027289   -0.00080969
     atom   45 type  2   force =     0.00005319   -0.00006704    0.10300415
     atom   46 type  2   force =    -0.07170572   -0.00012085   -0.02792964
     atom   47 type  2   force =     0.07159315    0.00025479   -0.02795454
     atom   48 type  3   force =    -0.00611812   -0.00028205   -0.00866381
     atom   49 type  4   force =     0.00359459    0.00121120    0.01162558
     atom   50 type  5   force =     0.00324302   -0.00052428   -0.00315485
     atom   51 type  3   force =    -0.00032671    0.00039547    0.00088727
     atom   52 type  5   force =     0.00007585   -0.00010876    0.00007427
     atom   53 type  5   force =     0.00013411   -0.00015449    0.00020569

     Total force =     0.369377     Total SCF correction =     0.000526
  @ DRIVER MODE: Message from server: STATUS
  @ DRIVER MODE: Message from server: GETFORCE
  @ DRIVER MODE: Returning v,forces,stress,ensemble

     Writing output data file ./calc.save/
  @ DRIVER MODE: Message from server: EXIT
  @ DRIVE MODE: Exiting

     General routines

     Parallel routines

   This run was terminated on:   2: 2:45   9Sep2021

   JOB DONE.