     Program PWSCF v.6.7GPU starts on 22Jul2021 at 23:29:33

     R & G space division:  proc/nbgrp/npool/nimage =      16
     Reading input from /storage/home/hcoda1/3/ntian30/research/carbon/1Jul_vib/slab/rutile_O_br_vacant/out_0019/pw.inp
Warning: card &CELL ignored
Warning: card   CELL_DYNAMICS='IPI', ignored
Warning: card / ignored

     Current dimensions of program PWSCF are:
     Max number of different atomic species (ntypx) = 10
     Max number of k-points (npk) =  40000
     Max angular momentum in pseudopotentials (lmaxx) =  3
     Presently no symmetry can be used with electric field

     Message from routine cell_base_init:
     DEPRECATED: use true lattice parameter, not A to a.u. conversion factor

     IMPORTANT: XC functional enforced from input :
     Exchange-correlation= BEEF-VDW
                           (   1   4  43  14   2   0   0)
     Any further DFT definition will be discarded
     Please, verify this is what you really want

  @ DRIVER MODE: Connecting to
 qe_1139763_2402406.sched-torque.pace.gatech.edu0n_1ts1b_scratch
  using UNIX socket
  @ DRIVER MODE: Message from server: STATUS
  @ DRIVER MODE: Message from server: INIT
  @ DRIVER MODE: Receiving replica           0          -1
  @ DRIVER MODE: Receiving encoded integer          25
  @ DRIVER MODE:  SCF:  T  FORCE:  T  STRESS:  F  VC:  F  ENSEMBLE:  F
  @ DRIVER MODE:  SCF:  T  FORCE:  T  STRESS:  F  VC:  F  ENSEMBLE:  F

     Using Slab Decomposition

     bravais-lattice index     =            0
     lattice parameter (alat)  =       1.8897  a.u.
     unit-cell volume          =    6658.9804 (a.u.)^3
     number of atoms/cell      =           47
     number of atomic types    =            2
     number of electrons       =       378.00
     number of Kohn-Sham states=          199
     kinetic-energy cutoff     =      29.3995  Ry
     charge density cutoff     =     293.9946  Ry
     scf convergence threshold =      7.3E-08
     mixing beta               =       0.0500
     number of iterations used =            8  plain     mixing
     Exchange-correlation= BEEF-VDW
                           (   1   4  43  14   2   0   0)

     celldm(1)=   1.889726  celldm(2)=   0.000000  celldm(3)=   0.000000
     celldm(4)=   0.000000  celldm(5)=   0.000000  celldm(6)=   0.000000

     crystal axes: (cart. coord. in units of alat)
               a(1) = (   6.579727   0.000000   0.000000 )
               a(2) = (  -0.000775   5.961596   0.000000 )
               a(3) = (   0.000000   0.000000  25.155947 )

     reciprocal axes: (cart. coord. in units 2 pi/alat)
               b(1) = (  0.151982  0.000020  0.000000 )
               b(2) = (  0.000000  0.167740  0.000000 )
               b(3) = (  0.000000  0.000000  0.039752 )

     PseudoPot. # 1 for Ti read from file:
     /storage/coda1/p-amedford6/0/shared/rich_project_chbe-medford/medford-share/data/pseudos_module/espresso/nninc/pbe/van/Ti.UPF
     MD5 check sum: 8e4df49b7f0d34bbd5052bf3f5ea0213
     Pseudo is Ultrasoft, Zval = 12.0
     Generated by new atomic code, or converted to UPF format
     Using radial grid of  851 points,  6 beta functions with:
                l(1) =   0
                l(2) =   0
                l(3) =   1
                l(4) =   1
                l(5) =   2
                l(6) =   2
     Q(r) pseudized with  8 coefficients,  rinner =    1.000   1.000   1.000
                                                       1.000   1.000

     PseudoPot. # 2 for O  read from file:
     /storage/coda1/p-amedford6/0/shared/rich_project_chbe-medford/medford-share/data/pseudos_module/espresso/nninc/pbe/van/O.UPF
     MD5 check sum: 78c19812648e8988a0fe644b0f25305e
     Pseudo is Ultrasoft, Zval =  6.0
     Generated by new atomic code, or converted to UPF format
     Using radial grid of  737 points,  4 beta functions with:
                l(1) =   0
                l(2) =   0
                l(3) =   1
                l(4) =   1
     Q(r) pseudized with  8 coefficients,  rinner =    0.800   0.800   0.800

     atomic species   valence    mass     pseudopotential
        Ti1           12.00    47.86700     Ti( 1.00)
        O1             6.00    15.99900     O ( 1.00)

     Starting magnetic structure
     atomic species   magnetization
        Ti1          0.000
        O1           0.000

     No symmetry found

   Cartesian axes

     site n.     atom                  positions (alat units)
         1           Ti1 tau(   1) = (   0.0004258   2.9801865   6.0000000  )
         2           Ti1 tau(   2) = (   3.2906075   1.4906267   6.0002472  )
         3           O1  tau(   3) = (   0.0006271   0.0005054   7.9858123  )
         4           O1  tau(   4) = (   3.2906025   0.0005020   7.3038282  )
         5           O1  tau(   5) = (   4.5942328   1.4918067   9.2879030  )
         6           O1  tau(   6) = (   1.9868534   1.4903216   9.2879459  )
         7           Ti1 tau(   7) = (   3.2895655   2.9803496   9.1561551  )
         8           Ti1 tau(   8) = (   6.5792279   1.4901203   9.2542590  )
         9           O1  tau(   9) = (   3.2908496   0.0003861  11.3974292  )
        10           O1  tau(  10) = (   0.0009741   0.0005107  10.6121890  )
        11           O1  tau(  11) = (   1.2851668   1.4970119  12.6717501  )
        12           O1  tau(  12) = (   5.2960956   1.4969944  12.6716611  )
        13           Ti1 tau(  13) = (   0.0014209   2.9817635  12.4865077  )
        14           Ti1 tau(  14) = (   3.2920103   1.4923710  12.5431595  )
        15           O1  tau(  15) = (   0.0005111   0.0003601  14.6908606  )
        16           O1  tau(  16) = (   3.2907661   0.0003422  14.0280135  )
        17           O1  tau(  17) = (   4.5563287   1.5043111  16.1972802  )
        18           O1  tau(  18) = (   2.0238984   1.5042417  16.1969189  )
        19           Ti1 tau(  19) = (   3.2900530   2.9812534  15.7923096  )
        20           Ti1 tau(  20) = (   0.0002900   1.3462356  15.9516996  )
        21           O1  tau(  21) = (   3.2904802   0.0005063   4.7018136  )
        22           O1  tau(  22) = (   0.0005067   0.0002908  17.2230471  )
        23           O1  tau(  23) = (   1.3043587   1.4918075   6.0039043  )
        24           O1  tau(  24) = (   5.2767064   1.4903225   6.0039473  )
        25           Ti1 tau(  25) = (   0.0000382   5.9609847   6.0000000  )
        26           Ti1 tau(  26) = (   3.2902200   4.4714249   6.0002472  )
        27           O1  tau(  27) = (   0.0002396   2.9813036   7.9858123  )
        28           O1  tau(  28) = (   3.2902150   2.9813002   7.3038282  )
        29           O1  tau(  29) = (   4.5938453   4.4726049   9.2879030  )
        30           O1  tau(  30) = (   1.9864658   4.4711199   9.2879459  )
        31           Ti1 tau(  31) = (   3.2890184   5.9611387   9.1545655  )
        32           Ti1 tau(  32) = (   6.5788211   4.4731772   9.2541010  )
        33           O1  tau(  33) = (   3.2904314   2.9811918  11.3932170  )
        34           O1  tau(  34) = (   0.0006808   2.9813391  10.6259032  )
        35           O1  tau(  35) = (   1.2847872   4.4655815  12.6717948  )
        36           O1  tau(  36) = (   5.2956760   4.4653813  12.6716352  )
        37           Ti1 tau(  37) = (   0.0020938   0.0010105  12.4782417  )
        38           Ti1 tau(  38) = (   3.2917349   4.4701355  12.5431901  )
        39           O1  tau(  39) = (   0.0000992   2.9811129  15.0245885  )
        40           O1  tau(  40) = (   3.2903432   2.9811263  13.9978513  )
        41           O1  tau(  41) = (   4.5559250   4.4580163  16.1971803  )
        42           O1  tau(  42) = (   2.0234811   4.4579909  16.1969720  )
        43           Ti1 tau(  43) = (   3.2904469   0.0004528  15.8318627  )
        44           Ti1 tau(  44) = (   0.0000435   4.6159127  15.9515978  )
        45           O1  tau(  45) = (   3.2800926   2.9813045   4.7018136  )
        46           O1  tau(  46) = (   1.3039711   4.4726057   6.0039043  )
        47           O1  tau(  47) = (   5.2763189   4.4711207   6.0039473  )

     number of k points=    10  Fermi-Dirac smearing, width (Ry)=  0.0073
                       cart. coord. in units 2pi/alat
        k(    1) = (   0.0000000   0.0000000   0.0000000), wk =   0.0625000
        k(    2) = (   0.0000000   0.0419351   0.0000000), wk =   0.1250000
        k(    3) = (   0.0000000  -0.0838702   0.0000000), wk =   0.0625000
        k(    4) = (   0.0379955   0.0000049   0.0000000), wk =   0.1250000
        k(    5) = (   0.0379955   0.0419400   0.0000000), wk =   0.1250000
        k(    6) = (   0.0379955  -0.0838652   0.0000000), wk =   0.1250000
        k(    7) = (   0.0379955  -0.0419301   0.0000000), wk =   0.1250000
        k(    8) = (  -0.0759910  -0.0000099   0.0000000), wk =   0.0625000
        k(    9) = (  -0.0759910   0.0419252   0.0000000), wk =   0.1250000
        k(   10) = (  -0.0759910  -0.0838800   0.0000000), wk =   0.0625000

     Initial potential from superposition of free atoms

     starting charge  361.99925, renormalised to  378.00000

     negative rho (up, down):  1.184E-02 1.184E-02

     %%%%%%%%%%%%%%%%%%%%%%%%%%%%%%%%%%%%%%%%%%%%%%%%%%%%%%%%%%%%%%%%%%%%%%%%
     %                                                                      %
     % You are using vdW-DF, which was implemented by the Thonhauser group. %
     % Please cite the following two papers that made this development      %
     % possible and the two reviews that describe the various versions:     %
     %                                                                      %
     %   T. Thonhauser et al., PRL 115, 136402 (2015).                      %
     %   T. Thonhauser et al., PRB 76, 125112 (2007).                       %
     %   K. Berland et al., Rep. Prog. Phys. 78, 066501 (2015).             %
     %   D.C. Langreth et al., J. Phys.: Condens. Matter 21, 084203 (2009). %
     %                                                                      %
     %                                                                      %
     % If you are calculating the stress with vdW-DF, please also cite:     %
     %                                                                      %
     %   R. Sabatini et al., J. Phys.: Condens. Matter 24, 424209 (2012).   %
     %                                                                      %
     %%%%%%%%%%%%%%%%%%%%%%%%%%%%%%%%%%%%%%%%%%%%%%%%%%%%%%%%%%%%%%%%%%%%%%%%

     Adding external electric field

     Computed dipole along edir(3) :
        Dipole                1.1416 Ry au,          2.9015 Debye
        Dipole field          0.0022 Ry au,

        Potential amp.       -0.1997 Ry
        Total length         46.3494 bohr

[...]

     Starting wfcs are  284 atomic wfcs
  @ DRIVER MODE: Message from server: STATUS
  @ DRIVER MODE: Message from server: POSDATA
  @ DRIVER MODE: Reading and sharing cell
  @ DRIVER MODE: Reading and sharing positions
  @ DRIVER MODE: Received positions

     Self-consistent Calculation

     iteration #  1     ecut=    29.40 Ry     beta= 0.05
     Davidson diagonalization with overlap
     c_bands:  2 eigenvalues not converged
     c_bands:  3 eigenvalues not converged
     c_bands:  2 eigenvalues not converged
     c_bands:  3 eigenvalues not converged
     c_bands:  1 eigenvalues not converged
     c_bands:  2 eigenvalues not converged
     c_bands:  1 eigenvalues not converged
     c_bands:  1 eigenvalues not converged
     c_bands:  3 eigenvalues not converged
     c_bands:  2 eigenvalues not converged
     c_bands:  2 eigenvalues not converged
     c_bands:  3 eigenvalues not converged
     c_bands:  2 eigenvalues not converged
     c_bands:  3 eigenvalues not converged
     c_bands:  1 eigenvalues not converged
     c_bands:  2 eigenvalues not converged
     c_bands:  1 eigenvalues not converged
     c_bands:  1 eigenvalues not converged
     c_bands:  3 eigenvalues not converged
     c_bands:  2 eigenvalues not converged
     ethr =  1.00E-05,  avg # of iterations = 20.0

[...]

     total energy              =   -2885.09648700 Ry
     estimated scf accuracy    <      12.51174276 Ry

     total magnetization       =    -0.00 Bohr mag/cell
     absolute magnetization    =     0.00 Bohr mag/cell

     iteration #  2     ecut=    29.40 Ry     beta= 0.05
     Davidson diagonalization with overlap
     ethr =  3.31E-03,  avg # of iterations =  1.0

[...]

     iteration # 53     ecut=    29.40 Ry     beta= 0.05
     Davidson diagonalization with overlap
     c_bands:  1 eigenvalues not converged
     c_bands:  1 eigenvalues not converged
     ethr =  3.57E-11,  avg # of iterations = 11.6

[...]

     total energy              =   -2883.85321533 Ry
     estimated scf accuracy    <       0.00000009 Ry

[...]

     iteration # 54     ecut=    29.40 Ry     beta= 0.05
     Davidson diagonalization with overlap
     ethr =  2.45E-11,  avg # of iterations =  2.8

     negative rho (up, down):  1.072E-02 1.072E-02

[...]

     Adding external electric field

     Computed dipole along edir(3) :
        Dipole                0.5582 Ry au,          1.4187 Debye
        Dipole field          0.0011 Ry au,

        Potential amp.       -0.0976 Ry
        Total length         46.3494 bohr

     Magnetic moment per site  (integrated on atomic sphere of radius R)
     atom   1 (R=0.740)  charge=  8.0666  magn= -0.0000
     atom   2 (R=0.740)  charge=  8.0461  magn=  0.0000
     atom   3 (R=0.740)  charge=  5.0351  magn=  0.0000
     atom   4 (R=0.740)  charge=  5.0740  magn= -0.0000
     atom   5 (R=0.740)  charge=  5.0337  magn= -0.0000
     atom   6 (R=0.740)  charge=  5.0338  magn=  0.0000
     atom   7 (R=0.740)  charge=  8.0460  magn= -0.0000
     atom   8 (R=0.740)  charge=  8.0494  magn= -0.0000
     atom   9 (R=0.740)  charge=  5.0395  magn= -0.0000
     atom  10 (R=0.740)  charge=  5.0477  magn= -0.0000
     atom  11 (R=0.740)  charge=  5.0325  magn=  0.0000
     atom  12 (R=0.740)  charge=  5.0326  magn=  0.0000
     atom  13 (R=0.740)  charge=  8.0562  magn= -0.0000
     atom  14 (R=0.740)  charge=  8.0499  magn= -0.0000
     atom  15 (R=0.740)  charge=  5.0483  magn=  0.0000
     atom  16 (R=0.740)  charge=  5.0335  magn=  0.0000
     atom  17 (R=0.740)  charge=  5.0152  magn= -0.0000
     atom  18 (R=0.740)  charge=  5.0151  magn=  0.0000
     atom  19 (R=0.740)  charge=  8.0777  magn= -0.0000
     atom  20 (R=0.740)  charge=  8.0902  magn= -0.0000
     atom  21 (R=0.740)  charge=  4.9132  magn=  0.0000
     atom  22 (R=0.740)  charge=  4.9955  magn=  0.0000
     atom  23 (R=0.740)  charge=  5.0273  magn=  0.0000
     atom  24 (R=0.740)  charge=  5.0275  magn= -0.0000
     atom  25 (R=0.740)  charge=  8.0667  magn= -0.0000
     atom  26 (R=0.740)  charge=  8.0461  magn= -0.0000
     atom  27 (R=0.740)  charge=  5.0346  magn=  0.0000
     atom  28 (R=0.740)  charge=  5.0735  magn= -0.0000
     atom  29 (R=0.740)  charge=  5.0338  magn=  0.0000
     atom  30 (R=0.740)  charge=  5.0338  magn=  0.0000
     atom  31 (R=0.740)  charge=  8.0465  magn= -0.0000
     atom  32 (R=0.740)  charge=  8.0494  magn= -0.0000
     atom  33 (R=0.740)  charge=  5.0395  magn=  0.0000
     atom  34 (R=0.740)  charge=  5.0426  magn=  0.0000
     atom  35 (R=0.740)  charge=  5.0324  magn=  0.0000
     atom  36 (R=0.740)  charge=  5.0325  magn= -0.0000
     atom  37 (R=0.740)  charge=  8.0520  magn= -0.0000
     atom  38 (R=0.740)  charge=  8.0499  magn=  0.0000
     atom  39 (R=0.740)  charge=  5.0310  magn= -0.0000
     atom  40 (R=0.740)  charge=  5.0467  magn=  0.0000
     atom  41 (R=0.740)  charge=  5.0152  magn=  0.0000
     atom  42 (R=0.740)  charge=  5.0151  magn=  0.0000
     atom  43 (R=0.740)  charge=  8.0771  magn= -0.0000
     atom  44 (R=0.740)  charge=  8.0902  magn= -0.0000
     atom  45 (R=0.740)  charge=  4.9130  magn= -0.0000
     atom  46 (R=0.740)  charge=  5.0273  magn= -0.0000
     atom  47 (R=0.740)  charge=  5.0275  magn= -0.0000

     End of self-consistent calculation

 ------ SPIN UP ------------

          k = 0.0000 0.0000 0.0000 ( 18029 PWs)   bands (ev):

   -56.2749 -56.2391 -56.2238 -56.1895 -56.1550 -56.1416 -56.1126 -56.1070
   -56.0891 -56.0801 -56.0785 -56.0523 -56.0251 -56.0183 -55.3380 -55.3039
   -32.8371 -32.7910 -32.7261 -32.6266 -32.5854 -32.5802 -32.5771 -32.5669
   -32.5139 -32.5008 -32.4801 -32.4737 -32.4688 -32.4453 -32.4440 -32.4248
   -32.4119 -32.4109 -32.3978 -32.3883 -32.3759 -32.3752 -32.3721 -32.3708
   -32.3465 -32.3440 -32.3222 -32.2787 -32.2722 -32.2630 -32.2623 -32.2563
   -32.2500 -32.2409 -32.2402 -32.2352 -32.2308 -32.2097 -32.2009 -32.1852
   -32.1677 -32.1074 -31.7507 -31.6461 -31.6247 -31.5667 -31.4803 -31.3695
   -17.1058 -16.8832 -16.7408 -16.6044 -16.5025 -16.3992 -16.2756 -16.2249
   -16.1715 -16.0245 -15.9652 -15.9400 -15.9003 -15.8764 -15.8685 -15.8537
   -15.8307 -15.8145 -15.7938 -15.7857 -15.7697 -15.7691 -15.7208 -15.6685
   -15.5750 -15.5075 -15.4369 -15.3797 -15.0544 -13.8388 -13.7190  -4.4262
    -4.2911  -4.2167  -4.2018  -4.1503  -4.0401  -3.8197  -3.7958  -3.7302
    -3.5742  -3.5261  -3.4688  -3.4091  -3.3394  -3.2822  -3.2719  -3.1704
    -3.1456  -3.1412  -3.1352  -3.0532  -3.0508  -3.0286  -3.0019  -2.9633
    -2.8716  -2.7519  -2.7076  -2.6735  -2.6525  -2.6443  -2.6219  -2.5927
    -2.5606  -2.5265  -2.5251  -2.4897  -2.4476  -2.3239  -2.1767  -2.1327
    -2.0629  -1.9710  -1.8997  -1.8344  -1.7940  -1.7561  -1.7316  -1.6822
    -1.6510  -1.6188  -1.5412  -1.4521  -1.4102  -1.3065  -1.2903  -1.2225
    -1.1871  -1.1140  -1.0709  -1.0698  -1.0267  -0.9384  -0.9114  -0.7879
    -0.7604  -0.7525  -0.7399  -0.7303  -0.6201  -0.5170  -0.4862  -0.4786
    -0.4769  -0.3921  -0.3420  -0.3349  -0.3202  -0.3128  -0.2632  -0.1877
    -0.1471  -0.0962   0.0466   0.2732   0.2735   0.3389   0.5714   0.6420
     0.6882   0.8452   1.2741   1.3276   2.8234   2.8890   2.9202   2.9535
     2.9816   3.0297   3.3200   3.3336   3.3572   3.3852   3.4029

[...]

          k =-0.0760-0.0000 0.0000 ( 17886 PWs)   bands (ev):

[...]

 ------ SPIN DOWN ----------

[...]

          k = 0.0380-0.0419 0.0000 ( 17876 PWs)   bands (ev):

[...]

          k =-0.0760-0.0839 0.0000 ( 17948 PWs)   bands (ev):

   -56.2572 -56.2566 -56.2067 -56.2065 -56.1508 -56.1265 -56.1220 -56.0962
   -56.0946 -56.0842 -56.0825 -56.0355 -56.0351 -56.0315 -55.3209 -55.3209
   -32.7145 -32.6427 -32.6398 -32.5410 -32.5407 -32.5402 -32.5258 -32.4992
   -32.4990 -32.4724 -32.4686 -32.4684 -32.4621 -32.4195 -32.4171 -32.4163
   -32.4108 -32.4100 -32.3961 -32.3906 -32.3893 -32.3854 -32.3741 -32.3586
   -32.3550 -32.3527 -32.3509 -32.3464 -32.3244 -32.3242 -32.3192 -32.3147
   -32.2919 -32.2906 -32.2655 -32.2653 -32.2649 -32.2640 -32.2341 -32.2211
   -32.2208 -32.2122 -31.6373 -31.6373 -31.5634 -31.5632 -31.5235 -31.5235
   -16.8132 -16.4589 -16.4203 -16.3347 -16.3272 -16.2279 -16.2081 -16.1191
   -16.0777 -16.0536 -16.0530 -16.0001 -15.9805 -15.9601 -15.9571 -15.8949
   -15.8793 -15.8506 -15.8478 -15.7935 -15.7909 -15.7891 -15.7877 -15.7521
   -15.7491 -15.7104 -15.7071 -15.6049 -15.4380 -13.8199 -13.8198  -3.8299
    -3.7282  -3.6736  -3.5577  -3.4834  -3.4479  -3.4016  -3.3921  -3.3182
    -3.2747  -3.2702  -3.1879  -3.1765  -3.1764  -3.1633  -3.1011  -3.0866
    -3.0622  -3.0371  -3.0112  -2.9833  -2.9712  -2.9695  -2.9491  -2.9403
    -2.9205  -2.9184  -2.8889  -2.8640  -2.8421  -2.8258  -2.6657  -2.6615
    -2.5754  -2.5159  -2.5145  -2.4351  -2.4269  -2.3827  -2.3490  -2.2926
    -2.2534  -2.0973  -2.0758  -2.0736  -2.0073  -1.9808  -1.9124  -1.8542
    -1.8390  -1.7915  -1.7342  -1.6168  -1.5982  -1.5736  -1.4672  -1.4665
    -1.3920  -1.3174  -1.2735  -1.2681  -1.2648  -1.2360  -1.2313  -1.2292
    -1.1191  -1.0668  -1.0199  -1.0125  -0.9993  -0.7959  -0.7360  -0.7228
    -0.6099  -0.5567  -0.3728  -0.3668  -0.3255  -0.2110  -0.2084  -0.2080
    -0.1566  -0.0321  -0.0203   0.0473   0.0899   0.1030   0.1421   0.1437
     1.0367   1.0377   1.1456   1.1458   2.9943   3.0765   3.0821   3.1313
     3.2717   3.3230   3.3283   3.3741   3.3752   3.3790   3.4570

     the Fermi energy is     2.8889 ev

!    total energy              =   -2883.85327932 Ry
     estimated scf accuracy    <       0.00000007 Ry
     smearing contrib. (-TS)   =      -0.03660763 Ry
     internal energy E=F+TS    =   -2883.81667169 Ry

     The total energy is F=E-TS. E is the sum of the following terms:
     one-electron contribution =  -24914.68168399 Ry
     hartree contribution      =   12532.19376561 Ry
     xc contribution           =    -468.94623832 Ry
     ewald contribution        =    9967.61689707 Ry
     electric field correction =       0.00058794 Ry

     total magnetization       =    -0.00 Bohr mag/cell
     absolute magnetization    =     0.00 Bohr mag/cell

     convergence has been achieved in  54 iterations

     Forces acting on atoms (cartesian axes, Ry/au):

     atom    1 type  1   force =     0.00061806    0.00000261    0.08985272
     atom    2 type  1   force =    -0.00062418    0.00031587   -0.18452838
     atom    3 type  2   force =    -0.00000623   -0.00000634   -0.02423519
     atom    4 type  2   force =    -0.00021702   -0.00002177    0.05192074
     atom    5 type  2   force =    -0.01337103   -0.00028127    0.00585759
     atom    6 type  2   force =     0.01334038    0.00020530    0.00583489
     atom    7 type  1   force =    -0.00004150    0.00002361    0.00045564
     atom    8 type  1   force =     0.00002680    0.00043909    0.00042013
     atom    9 type  2   force =     0.00001061    0.00001549    0.00085815
     atom   10 type  2   force =    -0.00000444    0.00000623   -0.00043120
     atom   11 type  2   force =     0.00016903   -0.00024045    0.00048965
     atom   12 type  2   force =    -0.00019274   -0.00025378    0.00049078
     atom   13 type  1   force =    -0.00000238   -0.00000276   -0.00076872
     atom   14 type  1   force =     0.00004140   -0.00074485    0.00050949
     atom   15 type  2   force =    -0.00000187   -0.00001481   -0.00068440
     atom   16 type  2   force =     0.00001932    0.00001195    0.00014468
     atom   17 type  2   force =    -0.00004793    0.00022046   -0.00000174
     atom   18 type  2   force =     0.00006477    0.00022011    0.00000448
     atom   19 type  1   force =    -0.00002024   -0.00000766   -0.00078710
     atom   20 type  1   force =     0.00002353    0.00012819   -0.00004001
     atom   21 type  2   force =     0.00018677    0.00007461    0.10529400
     atom   22 type  2   force =    -0.00001414   -0.00000369    0.00046581
     atom   23 type  2   force =    -0.06802689   -0.00061233   -0.02572103
     atom   24 type  2   force =     0.06699969    0.00049435   -0.02628538
     atom   25 type  1   force =     0.00057871    0.00000695    0.08893234
     atom   26 type  1   force =    -0.00065495   -0.00040261   -0.18453506
     atom   27 type  2   force =     0.00001307   -0.00002085   -0.02318381
     atom   28 type  2   force =     0.00022436   -0.00002120    0.05196149
     atom   29 type  2   force =    -0.01337795   -0.00026349    0.00585417
     atom   30 type  2   force =     0.01334227    0.00022943    0.00583213
     atom   31 type  1   force =    -0.00004201    0.00001751    0.00079233
     atom   32 type  1   force =     0.00001345   -0.00043533    0.00044049
     atom   33 type  2   force =     0.00002297    0.00001162   -0.00029692
     atom   34 type  2   force =    -0.00001632    0.00000384    0.00008302
     atom   35 type  2   force =     0.00016120    0.00026255    0.00049163
     atom   36 type  2   force =    -0.00018739    0.00025654    0.00049364
     atom   37 type  1   force =     0.00000150   -0.00002041    0.00080742
     atom   38 type  1   force =     0.00002896    0.00076149    0.00050546
     atom   39 type  2   force =    -0.00001656    0.00000012   -0.00042897
     atom   40 type  2   force =     0.00001682    0.00001302   -0.00048959
     atom   41 type  2   force =    -0.00004604   -0.00021022   -0.00000340
     atom   42 type  2   force =     0.00007027   -0.00021658    0.00000228
     atom   43 type  1   force =    -0.00000981   -0.00000482    0.00041570
     atom   44 type  1   force =    -0.00003914   -0.00011917   -0.00003542
     atom   45 type  2   force =     0.00201387    0.00007818    0.10525236
     atom   46 type  2   force =    -0.06802578    0.00016993   -0.02571679
     atom   47 type  2   force =     0.06699873   -0.00006466   -0.02629011

     Total force =     0.366846     Total SCF correction =     0.000960
  @ DRIVER MODE: Message from server: STATUS
  @ DRIVER MODE: Message from server: GETFORCE
  @ DRIVER MODE: Returning v,forces,stress,ensemble

     Writing output data file ./calc.save/
  @ DRIVER MODE: Message from server: EXIT
  @ DRIVE MODE: Exiting

     General routines

     Parallel routines

   This run was terminated on:  23:52: 0  22Jul2021

   JOB DONE.