     Program PWSCF v.6.7GPU starts on 22Sep2021 at 17: 3: 9

     R & G space division:  proc/nbgrp/npool/nimage =      10
     Reading input from /storage/home/hcoda1/3/ntian30/research/carbon/CxH_vib/H2O_calc/ads_slab/CHNNHHHO_a/out_0003/pw.inp
Warning: card &CELL ignored
Warning: card   CELL_DYNAMICS='IPI', ignored
Warning: card / ignored

     Current dimensions of program PWSCF are:
     Max number of different atomic species (ntypx) = 10
     Max number of k-points (npk) =  40000
     Max angular momentum in pseudopotentials (lmaxx) =  3
     Presently no symmetry can be used with electric field

     Message from routine cell_base_init:
     DEPRECATED: use true lattice parameter, not A to a.u. conversion factor

     IMPORTANT: XC functional enforced from input :
     Exchange-correlation= BEEF-VDW
                           (   1   4  43  14   2   0   0)
     Any further DFT definition will be discarded
     Please, verify this is what you really want

  @ DRIVER MODE: Connecting to
 qe_1139763_2937315.sched-torque.pace.gatech.eduhm4vmm7x_scratch
  using UNIX socket
  @ DRIVER MODE: Message from server: STATUS
  @ DRIVER MODE: Message from server: INIT
  @ DRIVER MODE: Receiving replica           0          -1
  @ DRIVER MODE: Receiving encoded integer          25
  @ DRIVER MODE:  SCF:  T  FORCE:  T  STRESS:  F  VC:  F  ENSEMBLE:  F
  @ DRIVER MODE:  SCF:  T  FORCE:  T  STRESS:  F  VC:  F  ENSEMBLE:  F

     Using Slab Decomposition

     bravais-lattice index     =            0
     lattice parameter (alat)  =       1.8897  a.u.
     unit-cell volume          =    6658.9804 (a.u.)^3
     number of atoms/cell      =           55
     number of atomic types    =            5
     number of electrons       =       402.00
     number of Kohn-Sham states=          211
     kinetic-energy cutoff     =      29.3995  Ry
     charge density cutoff     =     293.9946  Ry
     scf convergence threshold =      7.3E-08
     mixing beta               =       0.0500
     number of iterations used =            8  plain     mixing
     Exchange-correlation= BEEF-VDW
                           (   1   4  43  14   2   0   0)

     celldm(1)=   1.889726  celldm(2)=   0.000000  celldm(3)=   0.000000
     celldm(4)=   0.000000  celldm(5)=   0.000000  celldm(6)=   0.000000

     crystal axes: (cart. coord. in units of alat)
               a(1) = (   6.579727   0.000000   0.000000 )
               a(2) = (  -0.000775   5.961596   0.000000 )
               a(3) = (   0.000000   0.000000  25.155947 )

     reciprocal axes: (cart. coord. in units 2 pi/alat)
               b(1) = (  0.151982  0.000020  0.000000 )
               b(2) = (  0.000000  0.167740  0.000000 )
               b(3) = (  0.000000  0.000000  0.039752 )

     PseudoPot. # 1 for Ti read from file:
     /storage/coda1/p-amedford6/0/shared/rich_project_chbe-medford/medford-share/data/pseudos_module/espresso/nninc/pbe/van/Ti.UPF
     MD5 check sum: 8e4df49b7f0d34bbd5052bf3f5ea0213
     Pseudo is Ultrasoft, Zval = 12.0
     Generated by new atomic code, or converted to UPF format
     Using radial grid of  851 points,  6 beta functions with:
                l(1) =   0
                l(2) =   0
                l(3) =   1
                l(4) =   1
                l(5) =   2
                l(6) =   2
     Q(r) pseudized with  8 coefficients,  rinner =    1.000   1.000   1.000
                                                       1.000   1.000

     PseudoPot. # 2 for O  read from file:
     /storage/coda1/p-amedford6/0/shared/rich_project_chbe-medford/medford-share/data/pseudos_module/espresso/nninc/pbe/van/O.UPF
     MD5 check sum: 78c19812648e8988a0fe644b0f25305e
     Pseudo is Ultrasoft, Zval =  6.0
     Generated by new atomic code, or converted to UPF format
     Using radial grid of  737 points,  4 beta functions with:
                l(1) =   0
                l(2) =   0
                l(3) =   1
                l(4) =   1
     Q(r) pseudized with  8 coefficients,  rinner =    0.800   0.800   0.800

     PseudoPot. # 3 for N  read from file:
     /storage/coda1/p-amedford6/0/shared/rich_project_chbe-medford/medford-share/data/pseudos_module/espresso/nninc/pbe/van/N.UPF
     MD5 check sum: 90d10febe142ad51ac9d5be1deb811c4
     Pseudo is Ultrasoft, Zval =  5.0
     Generated by new atomic code, or converted to UPF format
     Using radial grid of  729 points,  4 beta functions with:
                l(1) =   0
                l(2) =   0
                l(3) =   1
                l(4) =   1
     Q(r) pseudized with  8 coefficients,  rinner =    0.800   0.800   0.800

     PseudoPot. # 4 for C  read from file:
     /storage/coda1/p-amedford6/0/shared/rich_project_chbe-medford/medford-share/data/pseudos_module/espresso/nninc/pbe/van/C.UPF
     MD5 check sum: 1a69bf6b8db32088f5b2163dbdb77a27
     Pseudo is Ultrasoft, Zval =  4.0
     Generated by new atomic code, or converted to UPF format
     Using radial grid of  721 points,  4 beta functions with:
                l(1) =   0
                l(2) =   0
                l(3) =   1
                l(4) =   1
     Q(r) pseudized with  8 coefficients,  rinner =    0.800   0.800   0.800

     PseudoPot. # 5 for H  read from file:
     /storage/coda1/p-amedford6/0/shared/rich_project_chbe-medford/medford-share/data/pseudos_module/espresso/nninc/pbe/van/H.UPF
     MD5 check sum: b5ee9d7bfd3a09ee7748110bda690ff7
     Pseudo is Ultrasoft, Zval =  1.0
     Generated by new atomic code, or converted to UPF format
     Using radial grid of  615 points,  1 beta functions with:
                l(1) =   0
     Q(r) pseudized with  8 coefficients,  rinner =    0.800

     atomic species   valence    mass     pseudopotential
        Ti1           12.00    47.86700     Ti( 1.00)
        O1             6.00    15.99900     O ( 1.00)
        N1             5.00    14.00700     N ( 1.00)
        C1             4.00    12.01100     C ( 1.00)
        H1             1.00     1.00800     H ( 1.00)

     No symmetry found

   Cartesian axes

     site n.     atom                  positions (alat units)
         1           Ti1 tau(   1) = (   0.0004258   2.9801865   6.0000000  )
         2           Ti1 tau(   2) = (   3.2906075   1.4906267   6.0002472  )
         3           O1  tau(   3) = (   0.0006271   0.0005054   7.9858123  )
         4           O1  tau(   4) = (   3.2906025   0.0005020   7.3038282  )
         5           O1  tau(   5) = (   4.5942328   1.4918067   9.2879030  )
         6           O1  tau(   6) = (   1.9868534   1.4903216   9.2879459  )
         7           Ti1 tau(   7) = (   3.2907910   2.8959150   9.1758416  )
         8           Ti1 tau(   8) = (   0.0015273   1.4827037   9.2680791  )
         9           O1  tau(   9) = (   3.3019041   5.9340972  11.2780832  )
        10           O1  tau(  10) = (   0.0116148   5.9584955  10.6183126  )
        11           O1  tau(  11) = (   1.2869077   1.4717189  12.6473688  )
        12           O1  tau(  12) = (   5.3188397   1.4655789  12.6430575  )
        13           Ti1 tau(  13) = (   0.0521173   3.0639968  12.7333969  )
        14           Ti1 tau(  14) = (   3.2906581   1.3001642  12.6471297  )
        15           O1  tau(  15) = (   0.0021475   5.9326859  14.6872502  )
        16           O1  tau(  16) = (   3.3040199   0.0265785  13.8678754  )
        17           O1  tau(  17) = (   4.6240569   1.6264218  16.1080407  )
        18           O1  tau(  18) = (   2.0715169   1.5429601  15.9546445  )
        19           Ti1 tau(  19) = (   3.3363059   2.9874148  15.6109769  )
        20           Ti1 tau(  20) = (   0.0492893   1.4028208  15.7974426  )
        21           O1  tau(  21) = (   3.2904802   0.0005063   4.7018136  )
        22           O1  tau(  22) = (   0.0944532   0.0627470  17.1934044  )
        23           O1  tau(  23) = (   1.3043587   1.4918075   6.0039043  )
        24           O1  tau(  24) = (   5.2767064   1.4903225   6.0039473  )
        25           Ti1 tau(  25) = (   0.0000382   5.9609847   6.0000000  )
        26           Ti1 tau(  26) = (   3.2902200   4.4714249   6.0002472  )
        27           O1  tau(  27) = (   0.0002396   2.9813036   7.9858123  )
        28           O1  tau(  28) = (   3.2902150   2.9813002   7.3038282  )
        29           O1  tau(  29) = (   4.5938453   4.4726049   9.2879030  )
        30           O1  tau(  30) = (   1.9864658   4.4711199   9.2879459  )
        31           Ti1 tau(  31) = (   3.2891106   5.8743827   9.1763621  )
        32           Ti1 tau(  32) = (   0.0006254   4.4649316   9.2693709  )
        33           O1  tau(  33) = (   3.3033179   3.0104581  11.2528581  )
        34           O1  tau(  34) = (   0.0092240   2.9805883  10.6323155  )
        35           O1  tau(  35) = (   1.3074756   4.4469578  12.6382572  )
        36           O1  tau(  36) = (   5.3202433   4.4545580  12.6357595  )
        37           Ti1 tau(  37) = (   6.5572640   0.0741000  12.5519234  )
        38           Ti1 tau(  38) = (   3.3179412   4.3950854  12.4030220  )
        39           O1  tau(  39) = (   0.0383827   2.9948909  14.7437145  )
        40           O1  tau(  40) = (   3.3238341   2.9662938  13.8354460  )
        41           O1  tau(  41) = (   4.5722604   4.5101538  15.9256862  )
        42           O1  tau(  42) = (   2.0839069   4.4665637  16.0501180  )
        43           Ti1 tau(  43) = (   3.2507700   5.9423238  16.2547716  )
        44           Ti1 tau(  44) = (   6.5063516   4.5631136  16.2071476  )
        45           O1  tau(  45) = (   3.2900926   2.9813045   4.7018136  )
        46           O1  tau(  46) = (   1.3039711   4.4726057   6.0039043  )
        47           O1  tau(  47) = (   5.2763189   4.4711207   6.0039473  )
        48           N1  tau(  48) = (   0.4124544   2.9187237  17.8391456  )
        49           C1  tau(  49) = (   1.3780350   3.0145335  18.6736463  )
        50           H1  tau(  50) = (   2.3027514   2.5668077  18.2879847  )
        51           N1  tau(  51) = (   5.7762606   3.6115528  18.1636368  )
        52           H1  tau(  52) = (   5.8537390   4.1179332  19.0469945  )
        53           H1  tau(  53) = (   5.0130290   2.9392956  18.1702355  )
        54           O1  tau(  54) = (   3.2882145   0.0116813  18.0866318  )
        55           H1  tau(  55) = (   2.5950809   5.5738040  18.6371346  )

     number of k points=    10  Fermi-Dirac smearing, width (Ry)=  0.0073
                       cart. coord. in units 2pi/alat
        k(    1) = (   0.0000000   0.0000000   0.0000000), wk =   0.1250000
        k(    2) = (   0.0000000   0.0419351   0.0000000), wk =   0.2500000
        k(    3) = (   0.0000000  -0.0838702   0.0000000), wk =   0.1250000
        k(    4) = (   0.0379955   0.0000049   0.0000000), wk =   0.2500000
        k(    5) = (   0.0379955   0.0419400   0.0000000), wk =   0.2500000
        k(    6) = (   0.0379955  -0.0838652   0.0000000), wk =   0.2500000
        k(    7) = (   0.0379955  -0.0419301   0.0000000), wk =   0.2500000
        k(    8) = (  -0.0759910  -0.0000099   0.0000000), wk =   0.1250000
        k(    9) = (  -0.0759910   0.0419252   0.0000000), wk =   0.2500000
        k(   10) = (  -0.0759910  -0.0838800   0.0000000), wk =   0.1250000

     Initial potential from superposition of free atoms

     starting charge  385.99915, renormalised to  402.00000

     negative rho (up, down):  1.703E-02 0.000E+00

     %%%%%%%%%%%%%%%%%%%%%%%%%%%%%%%%%%%%%%%%%%%%%%%%%%%%%%%%%%%%%%%%%%%%%%%%
     %                                                                      %
     % You are using vdW-DF, which was implemented by the Thonhauser group. %
     % Please cite the following two papers that made this development      %
     % possible and the two reviews that describe the various versions:     %
     %                                                                      %
     %   T. Thonhauser et al., PRL 115, 136402 (2015).                      %
     %   T. Thonhauser et al., PRB 76, 125112 (2007).                       %
     %   K. Berland et al., Rep. Prog. Phys. 78, 066501 (2015).             %
     %   D.C. Langreth et al., J. Phys.: Condens. Matter 21, 084203 (2009). %
     %                                                                      %
     %                                                                      %
     % If you are calculating the stress with vdW-DF, please also cite:     %
     %                                                                      %
     %   R. Sabatini et al., J. Phys.: Condens. Matter 24, 424209 (2012).   %
     %                                                                      %
     %%%%%%%%%%%%%%%%%%%%%%%%%%%%%%%%%%%%%%%%%%%%%%%%%%%%%%%%%%%%%%%%%%%%%%%%

     Adding external electric field

     Computed dipole along edir(3) :
        Dipole              -11.1544 Ry au,        -28.3516 Debye
        Dipole field         -0.0210 Ry au,

        Potential amp.        1.9513 Ry
        Total length         46.3494 bohr

     Starting wfcs are  304 atomic wfcs
  @ DRIVER MODE: Message from server: STATUS
  @ DRIVER MODE: Message from server: POSDATA
  @ DRIVER MODE: Reading and sharing cell
  @ DRIVER MODE: Reading and sharing positions
  @ DRIVER MODE: Received positions

     Self-consistent Calculation

     iteration #  1     ecut=    29.40 Ry     beta= 0.05
     Davidson diagonalization with overlap
     c_bands:  2 eigenvalues not converged
     c_bands:  3 eigenvalues not converged
     c_bands:  1 eigenvalues not converged
     c_bands:  5 eigenvalues not converged
     c_bands:  1 eigenvalues not converged
     c_bands:  5 eigenvalues not converged
     c_bands:  3 eigenvalues not converged
     ethr =  1.00E-05,  avg # of iterations = 27.6

[...]

     total energy              =   -2400.33444673 Ry
     estimated scf accuracy    <    6416.13675203 Ry

     iteration #  2     ecut=    29.40 Ry     beta= 0.05
     Davidson diagonalization with overlap
     ethr =  1.00E-02,  avg # of iterations = 24.6

[...]

     iteration # 39     ecut=    29.40 Ry     beta= 0.05
     Davidson diagonalization with overlap
     c_bands:  1 eigenvalues not converged
     ethr =  3.15E-06,  avg # of iterations =  6.6

[...]

     total energy              =   -2972.60994528 Ry
     estimated scf accuracy    <       0.00000016 Ry

     iteration # 83     ecut=    29.40 Ry     beta= 0.05
     Davidson diagonalization with overlap
     ethr =  2.08E-11,  avg # of iterations =  3.2

     negative rho (up, down):  1.639E-02 0.000E+00

     Adding external electric field

     Computed dipole along edir(3) :
        Dipole                0.2186 Ry au,          0.5556 Debye
        Dipole field          0.0004 Ry au,

        Potential amp.       -0.0382 Ry
        Total length         46.3494 bohr

     End of self-consistent calculation

          k = 0.0000 0.0000 0.0000 ( 18029 PWs)   bands (ev):

   -56.4686 -56.4349 -56.0116 -55.9757 -55.7600 -55.7055 -55.6470 -55.6367
   -55.6050 -55.5197 -55.5067 -55.4517 -55.4065 -55.2835 -55.2126 -55.1787
   -32.9151 -32.7600 -32.7327 -32.6285 -32.5396 -32.5362 -32.4932 -32.2433
   -32.2293 -32.2073 -32.1605 -32.1555 -32.1294 -32.1102 -32.0287 -32.0118
   -31.9944 -31.9812 -31.9630 -31.9247 -31.9182 -31.9110 -31.9079 -31.8845
   -31.8664 -31.8641 -31.8589 -31.8070 -31.7918 -31.7716 -31.7479 -31.7245
   -31.7114 -31.6961 -31.6808 -31.6733 -31.6461 -31.6078 -31.5959 -31.5789
   -31.5484 -31.5477 -31.5239 -31.5151 -31.4917 -31.4269 -31.3426 -31.2305
   -17.8592 -16.7402 -16.4721 -16.4033 -16.2041 -16.0144 -15.9213 -15.9045
   -15.8865 -15.7653 -15.7652 -15.6142 -15.5337 -15.4785 -15.4158 -15.4036
   -15.3352 -15.3184 -15.2545 -15.2269 -15.2139 -15.1881 -15.1387 -15.0776
   -15.0669 -15.0410 -14.8526 -14.8292 -14.8129 -14.6283 -14.5352 -13.7101
   -13.5984 -13.2061  -7.8055  -6.1498  -4.2573  -4.2386  -4.1260  -3.9351
    -3.7357  -3.6739  -3.5735  -3.4360  -3.4048  -3.1630  -3.1479  -3.1063
    -3.0175  -2.9795  -2.9610  -2.9023  -2.8445  -2.8242  -2.7611  -2.6871
    -2.6851  -2.6751  -2.6436  -2.6196  -2.5171  -2.4729  -2.4123  -2.3753
    -2.3491  -2.3380  -2.2991  -2.2445  -2.2162  -2.1642  -2.1458  -2.0648
    -2.0390  -1.9483  -1.8887  -1.8713  -1.8181  -1.7607  -1.7556  -1.6993
    -1.5686  -1.4587  -1.3922  -1.3500  -1.2958  -1.2405  -1.2105  -1.1556
    -1.0908  -1.0672  -1.0442  -1.0069  -0.9465  -0.9175  -0.8715  -0.8163
    -0.7393  -0.6724  -0.6271  -0.6042  -0.5009  -0.4354  -0.3963  -0.3813
    -0.3446  -0.2886  -0.2352  -0.1950  -0.1847  -0.1616  -0.1013   0.0228
     0.0334   0.0925   0.1473   0.1809   0.1933   0.2084   0.2706   0.3382
     0.4115   0.4545   0.4674   0.5249   0.5901   0.6285   0.7432   0.8118
     0.8370   0.8791   0.9554   1.0300   1.0464   1.3531   1.3667   1.3956
     2.5139   2.7666   2.8974   3.0768   3.1976   3.3328   3.6519   3.6685
     3.6801   3.7023   3.7549

[...]

          k = 0.0380-0.0419 0.0000 ( 17876 PWs)   bands (ev):

[...]

          k =-0.0760-0.0000 0.0000 ( 17886 PWs)   bands (ev):

[...]

          k =-0.0760-0.0839 0.0000 ( 17948 PWs)   bands (ev):

   -56.4519 -56.4514 -56.0000 -55.9872 -55.7540 -55.7113 -55.6384 -55.6351
   -55.6134 -55.5176 -55.5080 -55.4500 -55.4084 -55.2851 -55.1961 -55.1950
   -32.7458 -32.7453 -32.7313 -32.7311 -32.5811 -32.5802 -32.3220 -32.3109
   -32.1919 -32.1856 -32.1774 -32.1758 -32.0619 -32.0294 -31.9829 -31.9758
   -31.9625 -31.9576 -31.9504 -31.9404 -31.9378 -31.9299 -31.9081 -31.8709
   -31.8643 -31.8574 -31.8558 -31.8411 -31.8218 -31.7980 -31.7831 -31.7737
   -31.7285 -31.7098 -31.7023 -31.6854 -31.6519 -31.6329 -31.6311 -31.6002
   -31.5506 -31.5372 -31.5365 -31.4957 -31.4234 -31.4221 -31.3853 -31.3844
   -17.8495 -16.4524 -16.1459 -16.1350 -16.0173 -16.0117 -15.8584 -15.8392
   -15.8211 -15.7471 -15.6825 -15.6617 -15.5135 -15.5010 -15.4645 -15.4291
   -15.4008 -15.3637 -15.3591 -15.3356 -15.3015 -15.2371 -15.2155 -15.1904
   -15.1803 -15.1024 -14.9238 -14.9003 -14.8978 -14.8236 -14.6846 -13.7021
   -13.7012 -13.2171  -7.7702  -6.0781  -4.3571  -4.0739  -3.3164  -3.2524
    -3.1764  -3.1375  -3.1190  -3.0576  -3.0416  -2.9279  -2.8994  -2.8610
    -2.8345  -2.8236  -2.8034  -2.7530  -2.7296  -2.6859  -2.6691  -2.6673
    -2.6356  -2.5952  -2.5753  -2.5521  -2.5414  -2.4714  -2.4417  -2.3991
    -2.3827  -2.3707  -2.3230  -2.2614  -2.2401  -2.1865  -2.1761  -2.1430
    -2.1065  -2.0467  -2.0056  -1.9646  -1.8665  -1.8472  -1.7769  -1.6596
    -1.6386  -1.5531  -1.5263  -1.5048  -1.4823  -1.4053  -1.3721  -1.3394
    -1.2522  -1.2256  -1.2174  -1.1909  -1.1566  -1.1318  -1.0750  -1.0131
    -0.9184  -0.8551  -0.8429  -0.8244  -0.7849  -0.7585  -0.7174  -0.6254
    -0.6041  -0.5691  -0.5592  -0.5172  -0.4055  -0.3778  -0.2294  -0.1914
    -0.1026  -0.0750  -0.0556  -0.0140   0.1078   0.1351   0.1853   0.2055
     0.2646   0.3096   0.3607   0.4519   0.5527   0.5649   0.6960   0.7233
     0.7437   0.8171   0.9492   0.9913   1.2061   1.2108   1.2124   1.2146
     2.4925   3.3193   3.3218   3.3551   3.3674   3.5705   3.5906   3.7169
     3.8010   3.8089   3.8296

     the Fermi energy is     2.6932 ev

!    total energy              =   -2972.60995241 Ry
     estimated scf accuracy    <       0.00000007 Ry
     smearing contrib. (-TS)   =      -0.01174539 Ry
     internal energy E=F+TS    =   -2972.59820701 Ry

     The total energy is F=E-TS. E is the sum of the following terms:
     one-electron contribution =  -24036.42753623 Ry
     hartree contribution      =   12109.60933027 Ry
     xc contribution           =    -493.07108292 Ry
     ewald contribution        =    9447.29099171 Ry
     electric field correction =       0.00009016 Ry

     convergence has been achieved in  83 iterations

     Forces acting on atoms (cartesian axes, Ry/au):

     atom    1 type  1   force =    -0.00003947   -0.00046837    0.10841204
     atom    2 type  1   force =     0.00001772    0.00008297   -0.16407435
     atom    3 type  2   force =     0.00013328    0.00046867   -0.04119279
     atom    4 type  2   force =     0.00009517   -0.00056701    0.03215161
     atom    5 type  2   force =    -0.00379900   -0.00332702   -0.00776504
     atom    6 type  2   force =     0.00586053   -0.00273592   -0.00758994
     atom    7 type  1   force =     0.00017687   -0.00551900    0.03634785
     atom    8 type  1   force =     0.00013287    0.02543785    0.06351311
     atom    9 type  2   force =     0.00013965    0.00040388    0.00010586
     atom   10 type  2   force =    -0.00195169    0.00076217   -0.03777901
     atom   11 type  2   force =     0.00009456   -0.00015347   -0.00017900
     atom   12 type  2   force =    -0.00073483    0.00021350   -0.00019127
     atom   13 type  1   force =     0.00044588    0.00044835    0.00084903
     atom   14 type  1   force =    -0.00056202   -0.00025511    0.00016055
     atom   15 type  2   force =    -0.00017943   -0.00031445    0.00081288
     atom   16 type  2   force =    -0.00012787    0.00029511   -0.00016557
     atom   17 type  2   force =    -0.00113695    0.00045802   -0.00010838
     atom   18 type  2   force =     0.00073422   -0.00011870   -0.00045716
     atom   19 type  1   force =     0.00033599   -0.00095760    0.00010301
     atom   20 type  1   force =    -0.00049509    0.00030267    0.00023563
     atom   21 type  2   force =     0.00009580    0.00018751    0.10011876
     atom   22 type  2   force =    -0.00016362   -0.00110640    0.00014077
     atom   23 type  2   force =    -0.07741439    0.00001635   -0.03032485
     atom   24 type  2   force =     0.07740836    0.00043394   -0.03036622
     atom   25 type  1   force =    -0.00000528   -0.00032208    0.10858343
     atom   26 type  1   force =    -0.00004058   -0.00110878   -0.16410332
     atom   27 type  2   force =     0.00011683   -0.00017689   -0.03920231
     atom   28 type  2   force =     0.00011742    0.00118124    0.02836741
     atom   29 type  2   force =    -0.00230159    0.00468082   -0.01049648
     atom   30 type  2   force =     0.00437938    0.00496402   -0.01045620
     atom   31 type  1   force =     0.00005738    0.00318200    0.01917855
     atom   32 type  1   force =     0.00036889   -0.02765984    0.06525074
     atom   33 type  2   force =    -0.00003307   -0.00079593   -0.00043347
     atom   34 type  2   force =    -0.00062639    0.00085863   -0.05567191
     atom   35 type  2   force =    -0.00035892   -0.00024200   -0.00027382
     atom   36 type  2   force =    -0.00005732   -0.00004654   -0.00020128
     atom   37 type  1   force =     0.00028276   -0.00052638    0.00012185
     atom   38 type  1   force =    -0.00036917   -0.00016035    0.00027928
     atom   39 type  2   force =    -0.00014139    0.00041505   -0.00003702
     atom   40 type  2   force =    -0.00016638   -0.00025481   -0.00035342
     atom   41 type  2   force =    -0.00010359    0.00017316    0.00004772
     atom   42 type  2   force =    -0.00075033   -0.00012427    0.00023209
     atom   43 type  1   force =     0.00033896    0.00053158    0.00019774
     atom   44 type  1   force =    -0.00044573    0.00063062   -0.00051469
     atom   45 type  2   force =     0.00010406    0.00001404    0.09993183
     atom   46 type  2   force =    -0.07744770   -0.00001284   -0.03033412
     atom   47 type  2   force =     0.07746930    0.00041795   -0.03037172
     atom   48 type  3   force =    -0.00190453    0.00467876    0.00300843
     atom   49 type  4   force =    -0.00032107   -0.00064099   -0.00270745
     atom   50 type  5   force =     0.00010252   -0.00068093    0.00038853
     atom   51 type  3   force =     0.00253611   -0.00404437   -0.00228584
     atom   52 type  5   force =     0.00103601   -0.00012820   -0.00045808
     atom   53 type  5   force =    -0.00047654    0.00126436    0.00027379
     atom   54 type  2   force =     0.00080352    0.00069448   -0.00151925
     atom   55 type  5   force =    -0.00123009   -0.00074947    0.00080144

     Total force =     0.382993     Total SCF correction =     0.001028
  @ DRIVER MODE: Message from server: STATUS
  @ DRIVER MODE: Message from server: GETFORCE
  @ DRIVER MODE: Returning v,forces,stress,ensemble

     Writing output data file ./calc.save/
  @ DRIVER MODE: Message from server: EXIT
  @ DRIVE MODE: Exiting

     General routines

     Parallel routines

   This run was terminated on:  17:25: 8  22Sep2021

   JOB DONE.