     Program PWSCF v.6.7GPU starts on  9Sep2021 at  0: 7:30

     R & G space division:  proc/nbgrp/npool/nimage =      10
     Reading input from /storage/home/hcoda1/3/ntian30/research/carbon/CxH_vib/C_calc/ads_slab/CN_a/out_0007/pw.inp
Warning: card &CELL ignored
Warning: card   CELL_DYNAMICS='IPI', ignored
Warning: card / ignored

     Current dimensions of program PWSCF are:
     Max number of different atomic species (ntypx) = 10
     Max number of k-points (npk) =  40000
     Max angular momentum in pseudopotentials (lmaxx) =  3
     Presently no symmetry can be used with electric field

     Message from routine cell_base_init:
     DEPRECATED: use true lattice parameter, not A to a.u. conversion factor

     IMPORTANT: XC functional enforced from input :
     Exchange-correlation= BEEF-VDW
                           (   1   4  43  14   2   0   0)
     Any further DFT definition will be discarded
     Please, verify this is what you really want

  @ DRIVER MODE: Connecting to
 qe_1139763_2767374.sched-torque.pace.gatech.edudsc7mjhq_scratch
  using UNIX socket
  @ DRIVER MODE: Message from server: STATUS
  @ DRIVER MODE: Message from server: INIT
  @ DRIVER MODE: Receiving replica           0          -1
  @ DRIVER MODE: Receiving encoded integer          25
  @ DRIVER MODE:  SCF:  T  FORCE:  T  STRESS:  F  VC:  F  ENSEMBLE:  F
  @ DRIVER MODE:  SCF:  T  FORCE:  T  STRESS:  F  VC:  F  ENSEMBLE:  F

     Using Slab Decomposition

     bravais-lattice index     =            0
     lattice parameter (alat)  =       1.8897  a.u.
     unit-cell volume          =    6658.9804 (a.u.)^3
     number of atoms/cell      =           49
     number of atomic types    =            4
     number of electrons       =       387.00
     number of Kohn-Sham states=          203
     kinetic-energy cutoff     =      29.3995  Ry
     charge density cutoff     =     293.9946  Ry
     scf convergence threshold =      7.3E-08
     mixing beta               =       0.0500
     number of iterations used =            8  plain     mixing
     Exchange-correlation= BEEF-VDW
                           (   1   4  43  14   2   0   0)

     celldm(1)=   1.889726  celldm(2)=   0.000000  celldm(3)=   0.000000
     celldm(4)=   0.000000  celldm(5)=   0.000000  celldm(6)=   0.000000

     crystal axes: (cart. coord. in units of alat)
               a(1) = (   6.579727   0.000000   0.000000 )
               a(2) = (  -0.000775   5.961596   0.000000 )
               a(3) = (   0.000000   0.000000  25.155947 )

     reciprocal axes: (cart. coord. in units 2 pi/alat)
               b(1) = (  0.151982  0.000020  0.000000 )
               b(2) = (  0.000000  0.167740  0.000000 )
               b(3) = (  0.000000  0.000000  0.039752 )

     PseudoPot. # 1 for Ti read from file:
     /storage/coda1/p-amedford6/0/shared/rich_project_chbe-medford/medford-share/data/pseudos_module/espresso/nninc/pbe/van/Ti.UPF
     MD5 check sum: 8e4df49b7f0d34bbd5052bf3f5ea0213
     Pseudo is Ultrasoft, Zval = 12.0
     Generated by new atomic code, or converted to UPF format
     Using radial grid of  851 points,  6 beta functions with:
                l(1) =   0
                l(2) =   0
                l(3) =   1
                l(4) =   1
                l(5) =   2
                l(6) =   2
     Q(r) pseudized with  8 coefficients,  rinner =    1.000   1.000   1.000
                                                       1.000   1.000

     PseudoPot. # 2 for O  read from file:
     /storage/coda1/p-amedford6/0/shared/rich_project_chbe-medford/medford-share/data/pseudos_module/espresso/nninc/pbe/van/O.UPF
     MD5 check sum: 78c19812648e8988a0fe644b0f25305e
     Pseudo is Ultrasoft, Zval =  6.0
     Generated by new atomic code, or converted to UPF format
     Using radial grid of  737 points,  4 beta functions with:
                l(1) =   0
                l(2) =   0
                l(3) =   1
                l(4) =   1
     Q(r) pseudized with  8 coefficients,  rinner =    0.800   0.800   0.800

     PseudoPot. # 3 for N  read from file:
     /storage/coda1/p-amedford6/0/shared/rich_project_chbe-medford/medford-share/data/pseudos_module/espresso/nninc/pbe/van/N.UPF
     MD5 check sum: 90d10febe142ad51ac9d5be1deb811c4
     Pseudo is Ultrasoft, Zval =  5.0
     Generated by new atomic code, or converted to UPF format
     Using radial grid of  729 points,  4 beta functions with:
                l(1) =   0
                l(2) =   0
                l(3) =   1
                l(4) =   1
     Q(r) pseudized with  8 coefficients,  rinner =    0.800   0.800   0.800

     PseudoPot. # 4 for C  read from file:
     /storage/coda1/p-amedford6/0/shared/rich_project_chbe-medford/medford-share/data/pseudos_module/espresso/nninc/pbe/van/C.UPF
     MD5 check sum: 1a69bf6b8db32088f5b2163dbdb77a27
     Pseudo is Ultrasoft, Zval =  4.0
     Generated by new atomic code, or converted to UPF format
     Using radial grid of  721 points,  4 beta functions with:
                l(1) =   0
                l(2) =   0
                l(3) =   1
                l(4) =   1
     Q(r) pseudized with  8 coefficients,  rinner =    0.800   0.800   0.800

     atomic species   valence    mass     pseudopotential
        Ti1           12.00    47.86700     Ti( 1.00)
        O1             6.00    15.99900     O ( 1.00)
        N1             5.00    14.00700     N ( 1.00)
        C1             4.00    12.01100     C ( 1.00)

     No symmetry found

   Cartesian axes

     site n.     atom                  positions (alat units)
         1           Ti1 tau(   1) = (   0.0004258   2.9801865   6.0000000  )
         2           Ti1 tau(   2) = (   3.2906075   1.4906267   6.0002472  )
         3           O1  tau(   3) = (   0.0006271   0.0005054   7.9858123  )
         4           O1  tau(   4) = (   3.2906025   0.0005020   7.3038282  )
         5           O1  tau(   5) = (   4.5942328   1.4918067   9.2879030  )
         6           O1  tau(   6) = (   1.9868534   1.4903216   9.2879459  )
         7           Ti1 tau(   7) = (   3.2907910   2.8959150   9.1758416  )
         8           Ti1 tau(   8) = (   0.0015273   1.4827037   9.2680791  )
         9           O1  tau(   9) = (   3.2906544   5.9526486  11.3360365  )
        10           O1  tau(  10) = (   0.0116148   5.9584955  10.6183126  )
        11           O1  tau(  11) = (   1.2859751   1.4766153  12.6250921  )
        12           O1  tau(  12) = (   5.2747213   1.4793106  12.6166009  )
        13           Ti1 tau(  13) = (   0.0603843   2.9584451  12.6427671  )
        14           Ti1 tau(  14) = (   3.3778536   1.4756059  12.4863933  )
        15           O1  tau(  15) = (   6.5752277   0.0194043  14.6532461  )
        16           O1  tau(  16) = (   3.2875826   0.0023437  13.9196692  )
        17           O1  tau(  17) = (   4.5326611   1.5140167  16.0393429  )
        18           O1  tau(  18) = (   2.0377802   1.5105360  16.0392308  )
        19           Ti1 tau(  19) = (   3.2776205   2.9998382  15.7112304  )
        20           Ti1 tau(  20) = (   6.5636215   1.4772787  15.8536107  )
        21           O1  tau(  21) = (   3.2904802   0.0005063   4.7018136  )
        22           O1  tau(  22) = (   6.5677839   0.0282815  17.1640259  )
        23           O1  tau(  23) = (   1.3043587   1.4918075   6.0039043  )
        24           O1  tau(  24) = (   5.2767064   1.4903225   6.0039473  )
        25           Ti1 tau(  25) = (   0.0000382   5.9609847   6.0000000  )
        26           Ti1 tau(  26) = (   3.2902200   4.4714249   6.0002472  )
        27           O1  tau(  27) = (   0.0002396   2.9813036   7.9858123  )
        28           O1  tau(  28) = (   3.2902150   2.9813002   7.3038282  )
        29           O1  tau(  29) = (   4.5938453   4.4726049   9.2879030  )
        30           O1  tau(  30) = (   1.9864658   4.4711199   9.2879459  )
        31           Ti1 tau(  31) = (   3.2891106   5.8743827   9.1763621  )
        32           Ti1 tau(  32) = (   0.0006254   4.4649316   9.2693709  )
        33           O1  tau(  33) = (   3.2934253   2.9766276  11.3360394  )
        34           O1  tau(  34) = (   0.0092240   2.9805883  10.6323155  )
        35           O1  tau(  35) = (   1.2837843   4.4682058  12.6378402  )
        36           O1  tau(  36) = (   5.2794199   4.4724371  12.6287280  )
        37           Ti1 tau(  37) = (   0.0629162   5.9364049  12.5278104  )
        38           Ti1 tau(  38) = (   3.3790601   4.4565194  12.4925032  )
        39           O1  tau(  39) = (   6.5767340   2.9373485  14.6650829  )
        40           O1  tau(  40) = (   3.2863475   2.9847055  13.9098935  )
        41           O1  tau(  41) = (   4.5306188   4.4848726  16.0532295  )
        42           O1  tau(  42) = (   2.0355158   4.4881816  16.0516428  )
        43           Ti1 tau(  43) = (   3.2786155   0.0182257  15.7221571  )
        44           Ti1 tau(  44) = (   6.5667443   4.6373684  16.0773964  )
        45           O1  tau(  45) = (   3.2900926   2.9813045   4.7018136  )
        46           O1  tau(  46) = (   1.3039711   4.4726057   6.0039043  )
        47           O1  tau(  47) = (   5.2763189   4.4711207   6.0039473  )
        48           N1  tau(  48) = (   0.0024438   2.9903893  17.4749376  )
        49           C1  tau(  49) = (   0.0164708   2.9368645  18.6621426  )

     number of k points=    10  Fermi-Dirac smearing, width (Ry)=  0.0073
                       cart. coord. in units 2pi/alat
        k(    1) = (   0.0000000   0.0000000   0.0000000), wk =   0.1250000
        k(    2) = (   0.0000000   0.0419351   0.0000000), wk =   0.2500000
        k(    3) = (   0.0000000  -0.0838702   0.0000000), wk =   0.1250000
        k(    4) = (   0.0379955   0.0000049   0.0000000), wk =   0.2500000
        k(    5) = (   0.0379955   0.0419400   0.0000000), wk =   0.2500000
        k(    6) = (   0.0379955  -0.0838652   0.0000000), wk =   0.2500000
        k(    7) = (   0.0379955  -0.0419301   0.0000000), wk =   0.2500000
        k(    8) = (  -0.0759910  -0.0000099   0.0000000), wk =   0.1250000
        k(    9) = (  -0.0759910   0.0419252   0.0000000), wk =   0.2500000
        k(   10) = (  -0.0759910  -0.0838800   0.0000000), wk =   0.1250000

     Initial potential from superposition of free atoms

     starting charge  370.99920, renormalised to  387.00000

     negative rho (up, down):  2.000E-02 0.000E+00

     %%%%%%%%%%%%%%%%%%%%%%%%%%%%%%%%%%%%%%%%%%%%%%%%%%%%%%%%%%%%%%%%%%%%%%%%
     %                                                                      %
     % You are using vdW-DF, which was implemented by the Thonhauser group. %
     % Please cite the following two papers that made this development      %
     % possible and the two reviews that describe the various versions:     %
     %                                                                      %
     %   T. Thonhauser et al., PRL 115, 136402 (2015).                      %
     %   T. Thonhauser et al., PRB 76, 125112 (2007).                       %
     %   K. Berland et al., Rep. Prog. Phys. 78, 066501 (2015).             %
     %   D.C. Langreth et al., J. Phys.: Condens. Matter 21, 084203 (2009). %
     %                                                                      %
     %                                                                      %
     % If you are calculating the stress with vdW-DF, please also cite:     %
     %                                                                      %
     %   R. Sabatini et al., J. Phys.: Condens. Matter 24, 424209 (2012).   %
     %                                                                      %
     %%%%%%%%%%%%%%%%%%%%%%%%%%%%%%%%%%%%%%%%%%%%%%%%%%%%%%%%%%%%%%%%%%%%%%%%

     Adding external electric field

     Computed dipole along edir(3) :
        Dipole               -3.3355 Ry au,         -8.4779 Debye
        Dipole field         -0.0063 Ry au,

        Potential amp.        0.5835 Ry
        Total length         46.3494 bohr

     Starting wfcs are  292 atomic wfcs
  @ DRIVER MODE: Message from server: STATUS
  @ DRIVER MODE: Message from server: POSDATA
  @ DRIVER MODE: Reading and sharing cell
  @ DRIVER MODE: Reading and sharing positions
  @ DRIVER MODE: Received positions

     Self-consistent Calculation

     iteration #  1     ecut=    29.40 Ry     beta= 0.05
     Davidson diagonalization with overlap
     c_bands:  2 eigenvalues not converged
     c_bands:  3 eigenvalues not converged
     c_bands:  1 eigenvalues not converged
     c_bands:  5 eigenvalues not converged
     c_bands:  1 eigenvalues not converged
     c_bands:  4 eigenvalues not converged
     ethr =  1.00E-05,  avg # of iterations = 18.7

[...]

     total energy              =   -2906.87650141 Ry
     estimated scf accuracy    <     123.17893158 Ry

[...]

     iteration #  4     ecut=    29.40 Ry     beta= 0.05
     Davidson diagonalization with overlap
     ethr =  1.00E-02,  avg # of iterations =  3.8

[...]

     iteration # 47     ecut=    29.40 Ry     beta= 0.05
     Davidson diagonalization with overlap
     c_bands:  1 eigenvalues not converged
     ethr =  9.63E-09,  avg # of iterations = 11.5

[...]

     total energy              =   -2915.40629196 Ry
     estimated scf accuracy    <       0.00000023 Ry

     iteration # 61     ecut=    29.40 Ry     beta= 0.05
     Davidson diagonalization with overlap
     ethr =  3.26E-11,  avg # of iterations =  6.9

     negative rho (up, down):  1.872E-02 0.000E+00

     Adding external electric field

     Computed dipole along edir(3) :
        Dipole               -0.2920 Ry au,         -0.7423 Debye
        Dipole field         -0.0006 Ry au,

        Potential amp.        0.0511 Ry
        Total length         46.3494 bohr

     End of self-consistent calculation

          k = 0.0000 0.0000 0.0000 ( 18029 PWs)   bands (ev):

   -56.6728 -56.6606 -56.6387 -56.6242 -56.5386 -56.5269 -56.5038 -56.4916
   -56.4826 -56.4507 -56.4485 -56.4168 -56.4146 -56.1992 -55.6523 -55.6183
   -33.2117 -33.1557 -33.0267 -32.9997 -32.9823 -32.9679 -32.9655 -32.9410
   -32.9159 -32.8868 -32.8835 -32.8659 -32.8601 -32.8391 -32.8250 -32.8133
   -32.7977 -32.7826 -32.7776 -32.7662 -32.7435 -32.7307 -32.7299 -32.6820
   -32.6817 -32.6751 -32.6747 -32.6719 -32.6698 -32.6518 -32.6407 -32.6323
   -32.6247 -32.6174 -32.6151 -32.6094 -32.6035 -32.5858 -32.5623 -32.4447
   -32.4236 -32.4056 -32.0595 -31.9710 -31.9486 -31.8763 -31.7898 -31.6786
   -17.4116 -17.1505 -16.9182 -16.8298 -16.8037 -16.6588 -16.5224 -16.4043
   -16.3287 -16.2797 -16.2327 -16.2219 -16.2102 -16.1757 -16.1370 -16.1199
   -16.1129 -16.0921 -16.0611 -16.0507 -16.0339 -16.0132 -15.9723 -15.8469
   -15.8083 -15.7572 -15.7324 -15.7023 -15.4071 -15.3159 -14.1549 -14.0384
    -5.3010  -4.7788  -4.6320  -4.5798  -4.5220  -4.4447  -4.2913  -4.2014
    -3.9301  -3.8602  -3.8387  -3.8214  -3.7773  -3.5967  -3.5731  -3.4896
    -3.4753  -3.4724  -3.4519  -3.4342  -3.4286  -3.3751  -3.2858  -3.2306
    -3.2206  -3.1146  -3.0730  -3.0612  -2.9971  -2.9863  -2.9644  -2.9292
    -2.9110  -2.9096  -2.8887  -2.8561  -2.7489  -2.7318  -2.6439  -2.5521
    -2.4752  -2.4146  -2.2829  -2.1541  -2.1411  -2.1043  -2.0843  -2.0660
    -2.0036  -1.9705  -1.9208  -1.8418  -1.8364  -1.7880  -1.7293  -1.6580
    -1.6258  -1.5532  -1.4876  -1.4361  -1.4340  -1.4200  -1.3489  -1.1603
    -1.1176  -1.0952  -1.0530  -0.9941  -0.9467  -0.9407  -0.8797  -0.8555
    -0.8127  -0.7614  -0.7261  -0.7054  -0.6966  -0.6755  -0.6672  -0.6285
    -0.5785  -0.4736  -0.4400  -0.3996  -0.3644  -0.2557  -0.1239  -0.0457
    -0.0173   0.0987   0.2954   0.3697   0.4623   0.5109   0.5615   0.9411
     0.9868   2.4587   2.5475   2.5913   2.6076   2.6929   2.7101   2.9139
     2.9415   2.9515   3.0114

[...]

          k = 0.0380-0.0419 0.0000 ( 17876 PWs)   bands (ev):

[...]

          k =-0.0760-0.0000 0.0000 ( 17886 PWs)   bands (ev):

[...]

          k =-0.0760-0.0839 0.0000 ( 17948 PWs)   bands (ev):

   -56.6566 -56.6548 -56.6453 -56.6393 -56.5230 -56.5192 -56.5136 -56.5049
   -56.4668 -56.4638 -56.4361 -56.4316 -56.4134 -56.2004 -55.6353 -55.6352
   -33.0179 -33.0122 -32.9716 -32.9704 -32.9516 -32.9502 -32.9209 -32.9164
   -32.8744 -32.8683 -32.8515 -32.8477 -32.8094 -32.8067 -32.8053 -32.8001
   -32.7939 -32.7879 -32.7789 -32.7763 -32.7743 -32.7736 -32.7697 -32.7318
   -32.7239 -32.7175 -32.7161 -32.7134 -32.6863 -32.6680 -32.6667 -32.6652
   -32.6624 -32.6504 -32.6481 -32.6471 -32.6388 -32.6277 -32.6223 -32.4873
   -32.4507 -32.4262 -31.9613 -31.9612 -31.8723 -31.8721 -31.8331 -31.8330
   -16.8280 -16.8145 -16.6531 -16.5878 -16.5651 -16.5578 -16.5182 -16.3778
   -16.3643 -16.3632 -16.2894 -16.2540 -16.2435 -16.2141 -16.1990 -16.1956
   -16.1841 -16.1734 -16.1338 -16.1281 -16.1170 -16.1059 -16.0729 -16.0412
   -15.9933 -15.9888 -15.8106 -15.6923 -15.5846 -15.4023 -14.1404 -14.1400
    -5.1958  -4.1168  -4.0993  -3.9256  -3.8168  -3.8066  -3.7572  -3.6259
    -3.5738  -3.5663  -3.5337  -3.5159  -3.5027  -3.4952  -3.4858  -3.4568
    -3.4271  -3.3923  -3.3772  -3.3595  -3.3472  -3.3283  -3.3115  -3.3022
    -3.2859  -3.2635  -3.2306  -3.2170  -3.2012  -3.1717  -3.0389  -2.9297
    -2.8667  -2.8176  -2.8054  -2.7941  -2.7498  -2.7389  -2.7276  -2.6885
    -2.5474  -2.5105  -2.3794  -2.3773  -2.3315  -2.2765  -2.2706  -2.1322
    -2.1050  -2.0937  -2.0735  -2.0095  -1.9782  -1.9037  -1.8762  -1.8236
    -1.7981  -1.7527  -1.6802  -1.6697  -1.6421  -1.6323  -1.6240  -1.5482
    -1.5038  -1.4378  -1.4319  -1.4112  -1.3505  -1.3193  -1.2664  -1.1877
    -1.1510  -1.0181  -0.9566  -0.7720  -0.7583  -0.6577  -0.6000  -0.5825
    -0.5365  -0.4995  -0.3760  -0.3624  -0.3554  -0.2837  -0.2723  -0.2571
    -0.1479  -0.1377  -0.1176   0.0663   0.4972   0.7331   0.7340   0.8063
     0.8069   2.7684   2.7748   2.8114   2.8305   2.9629   2.9723   2.9937
     2.9954   3.1039   3.1252

     the Fermi energy is     2.4604 ev

!    total energy              =   -2915.40632500 Ry
     estimated scf accuracy    <       0.00000006 Ry
     smearing contrib. (-TS)   =      -0.02159340 Ry
     internal energy E=F+TS    =   -2915.38473160 Ry

     The total energy is F=E-TS. E is the sum of the following terms:
     one-electron contribution =  -24972.15787385 Ry
     hartree contribution      =   12561.25926700 Ry
     xc contribution           =    -477.44804281 Ry
     ewald contribution        =    9972.96175713 Ry
     electric field correction =       0.00016093 Ry

     convergence has been achieved in  61 iterations

     Forces acting on atoms (cartesian axes, Ry/au):

     atom    1 type  1   force =     0.00015260   -0.00020123    0.09633604
     atom    2 type  1   force =    -0.00010854   -0.00060253   -0.17548095
     atom    3 type  2   force =     0.00003101   -0.00003270   -0.02459080
     atom    4 type  2   force =     0.00008529   -0.00145629    0.05305109
     atom    5 type  2   force =    -0.01197523   -0.00120035    0.00380696
     atom    6 type  2   force =     0.01363031   -0.00046626    0.00268826
     atom    7 type  1   force =    -0.00106834    0.00059364   -0.01036722
     atom    8 type  1   force =     0.00049094    0.01692734    0.02650018
     atom    9 type  2   force =    -0.00005189   -0.00011269   -0.00059708
     atom   10 type  2   force =    -0.00123879    0.00038060   -0.01550842
     atom   11 type  2   force =     0.00008008    0.00022056   -0.00017348
     atom   12 type  2   force =     0.00009463    0.00034318   -0.00033661
     atom   13 type  1   force =    -0.00014880   -0.00004954    0.00007769
     atom   14 type  1   force =     0.00002533    0.00029720   -0.00030372
     atom   15 type  2   force =    -0.00012145   -0.00016253    0.00089613
     atom   16 type  2   force =    -0.00005729    0.00039453    0.00010837
     atom   17 type  2   force =     0.00005508    0.00001155    0.00008610
     atom   18 type  2   force =    -0.00020063    0.00020142    0.00025639
     atom   19 type  1   force =     0.00022057   -0.00016675    0.00018322
     atom   20 type  1   force =    -0.00014311    0.00011626   -0.00016973
     atom   21 type  2   force =     0.00010017   -0.00000933    0.10331089
     atom   22 type  2   force =     0.00056903    0.00034232    0.00025311
     atom   23 type  2   force =    -0.07143353   -0.00008433   -0.02762725
     atom   24 type  2   force =     0.07143587    0.00034001   -0.02764071
     atom   25 type  1   force =     0.00005590   -0.00022383    0.09625800
     atom   26 type  1   force =    -0.00018103   -0.00016326   -0.17558546
     atom   27 type  2   force =     0.00009681   -0.00023098   -0.02351638
     atom   28 type  2   force =     0.00011523   -0.00123548    0.05334091
     atom   29 type  2   force =    -0.01213325    0.00067592    0.00352413
     atom   30 type  2   force =     0.01370573    0.00102935    0.00241223
     atom   31 type  1   force =    -0.00092140    0.00338120   -0.01149388
     atom   32 type  1   force =     0.00066594   -0.01868513    0.02687913
     atom   33 type  2   force =    -0.00014967    0.00029498   -0.00003509
     atom   34 type  2   force =    -0.00097546    0.00039231   -0.02321022
     atom   35 type  2   force =     0.00018738    0.00000573   -0.00006554
     atom   36 type  2   force =    -0.00017633    0.00003473   -0.00020913
     atom   37 type  1   force =    -0.00022142   -0.00019112   -0.00029538
     atom   38 type  1   force =    -0.00003986    0.00028692   -0.00042101
     atom   39 type  2   force =     0.00016790   -0.00056111    0.00004710
     atom   40 type  2   force =    -0.00005298    0.00015984    0.00052734
     atom   41 type  2   force =     0.00038532   -0.00039168   -0.00007792
     atom   42 type  2   force =    -0.00043656   -0.00058680   -0.00017627
     atom   43 type  1   force =     0.00014887   -0.00004362   -0.00038878
     atom   44 type  1   force =    -0.00029259   -0.00069631    0.00034374
     atom   45 type  2   force =     0.00009678   -0.00002864    0.10331899
     atom   46 type  2   force =    -0.07144908   -0.00005198   -0.02764239
     atom   47 type  2   force =     0.07146073    0.00038675   -0.02766013
     atom   48 type  3   force =    -0.00043730    0.00035993   -0.00172412
     atom   49 type  4   force =    -0.00004297    0.00045816    0.00109167

     Total force =     0.368277     Total SCF correction =     0.000698
  @ DRIVER MODE: Message from server: STATUS
  @ DRIVER MODE: Message from server: GETFORCE
  @ DRIVER MODE: Returning v,forces,stress,ensemble

     Writing output data file ./calc.save/
  @ DRIVER MODE: Message from server: EXIT
  @ DRIVE MODE: Exiting

     General routines

     Parallel routines

   This run was terminated on:   0:25:44   9Sep2021

   JOB DONE.