     Program PWSCF v.6.7GPU starts on 19Oct2021 at  0:32:42

     R & G space division:  proc/nbgrp/npool/nimage =       8
     Reading input from /storage/home/hcoda1/3/ntian30/research/carbon/CxH_vib/Thiel_calc/ads_slab/NH3NH3_perslab/out_0028/pw.inp
Warning: card &CELL ignored
Warning: card   CELL_DYNAMICS='IPI', ignored
Warning: card / ignored

     Current dimensions of program PWSCF are:
     Max number of different atomic species (ntypx) = 10
     Max number of k-points (npk) =  40000
     Max angular momentum in pseudopotentials (lmaxx) =  3
     Presently no symmetry can be used with electric field

     Message from routine cell_base_init:
     DEPRECATED: use true lattice parameter, not A to a.u. conversion factor

     IMPORTANT: XC functional enforced from input :
     Exchange-correlation= BEEF-VDW
                           (   1   4  43  14   2   0   0)
     Any further DFT definition will be discarded
     Please, verify this is what you really want

  @ DRIVER MODE: Connecting to
 qe_1139763_3255140.sched-torque.pace.gatech.edu6p0we2ol_scratch
  using UNIX socket
  @ DRIVER MODE: Message from server: STATUS
  @ DRIVER MODE: Message from server: INIT
  @ DRIVER MODE: Receiving replica           0          -1
  @ DRIVER MODE: Receiving encoded integer          25
  @ DRIVER MODE:  SCF:  T  FORCE:  T  STRESS:  F  VC:  F  ENSEMBLE:  F
  @ DRIVER MODE:  SCF:  T  FORCE:  T  STRESS:  F  VC:  F  ENSEMBLE:  F

     Using Slab Decomposition

     bravais-lattice index     =            0
     lattice parameter (alat)  =       1.8897  a.u.
     unit-cell volume          =    9988.4706 (a.u.)^3
     number of atoms/cell      =           61
     number of atomic types    =            4
     number of electrons       =       442.00
     number of Kohn-Sham states=          231
     kinetic-energy cutoff     =      29.3995  Ry
     charge density cutoff     =     293.9946  Ry
     scf convergence threshold =      7.3E-08
     mixing beta               =       0.0500
     number of iterations used =            8  plain     mixing
     Exchange-correlation= BEEF-VDW
                           (   1   4  43  14   2   0   0)

     celldm(1)=   1.889726  celldm(2)=   0.000000  celldm(3)=   0.000000
     celldm(4)=   0.000000  celldm(5)=   0.000000  celldm(6)=   0.000000

     crystal axes: (cart. coord. in units of alat)
               a(1) = (   6.579727   0.000000   0.000000 )
               a(2) = (  -0.001163   8.942395   0.000000 )
               a(3) = (   0.000000   0.000000  25.155947 )

     reciprocal axes: (cart. coord. in units 2 pi/alat)
               b(1) = (  0.151982  0.000020  0.000000 )
               b(2) = (  0.000000  0.111827  0.000000 )
               b(3) = (  0.000000  0.000000  0.039752 )

     PseudoPot. # 1 for O  read from file:
     /storage/coda1/p-amedford6/0/shared/rich_project_chbe-medford/medford-share/data/pseudos_module/espresso/nninc/pbe/van/O.UPF
     MD5 check sum: 78c19812648e8988a0fe644b0f25305e
     Pseudo is Ultrasoft, Zval =  6.0
     Generated by new atomic code, or converted to UPF format
     Using radial grid of  737 points,  4 beta functions with:
                l(1) =   0
                l(2) =   0
                l(3) =   1
                l(4) =   1
     Q(r) pseudized with  8 coefficients,  rinner =    0.800   0.800   0.800

     PseudoPot. # 2 for Ti read from file:
     /storage/coda1/p-amedford6/0/shared/rich_project_chbe-medford/medford-share/data/pseudos_module/espresso/nninc/pbe/van/Ti.UPF
     MD5 check sum: 8e4df49b7f0d34bbd5052bf3f5ea0213
     Pseudo is Ultrasoft, Zval = 12.0
     Generated by new atomic code, or converted to UPF format
     Using radial grid of  851 points,  6 beta functions with:
                l(1) =   0
                l(2) =   0
                l(3) =   1
                l(4) =   1
                l(5) =   2
                l(6) =   2
     Q(r) pseudized with  8 coefficients,  rinner =    1.000   1.000   1.000
                                                       1.000   1.000

     PseudoPot. # 3 for N  read from file:
     /storage/coda1/p-amedford6/0/shared/rich_project_chbe-medford/medford-share/data/pseudos_module/espresso/nninc/pbe/van/N.UPF
     MD5 check sum: 90d10febe142ad51ac9d5be1deb811c4
     Pseudo is Ultrasoft, Zval =  5.0
     Generated by new atomic code, or converted to UPF format
     Using radial grid of  729 points,  4 beta functions with:
                l(1) =   0
                l(2) =   0
                l(3) =   1
                l(4) =   1
     Q(r) pseudized with  8 coefficients,  rinner =    0.800   0.800   0.800

     PseudoPot. # 4 for H  read from file:
     /storage/coda1/p-amedford6/0/shared/rich_project_chbe-medford/medford-share/data/pseudos_module/espresso/nninc/pbe/van/H.UPF
     MD5 check sum: b5ee9d7bfd3a09ee7748110bda690ff7
     Pseudo is Ultrasoft, Zval =  1.0
     Generated by new atomic code, or converted to UPF format
     Using radial grid of  615 points,  1 beta functions with:
                l(1) =   0
     Q(r) pseudized with  8 coefficients,  rinner =    0.800

     atomic species   valence    mass     pseudopotential
        O1             6.00    15.99900     O ( 1.00)
        Ti1           12.00    47.86700     Ti( 1.00)
        N1             5.00    14.00700     N ( 1.00)
        H1             1.00     1.00800     H ( 1.00)

     No symmetry found

   Cartesian axes

     site n.     atom                  positions (alat units)
         1           O1  tau(   1) = (   0.0007354   0.0005023  10.5931620  )
         2           O1  tau(   2) = (   3.2905679   0.0262843  13.8966672  )
         3           O1  tau(   3) = (   0.0007290   0.0579300  17.2579193  )
         4           O1  tau(   4) = (   0.0006271   0.0005054   7.9858123  )
         5           O1  tau(   5) = (   3.2893100   8.9214726  11.1892856  )
         6           O1  tau(   6) = (   0.0005199   0.0455907  14.6396817  )
         7           O1  tau(   7) = (   1.9868534   1.4903216   9.2879459  )
         8           O1  tau(   8) = (   5.2380180   1.6024468  12.5713634  )
         9           O1  tau(   9) = (   2.0277759   1.4975965  16.1012153  )
        10           Ti1 tau(  10) = (   0.0007404   1.4906270   9.2895810  )
        11           Ti1 tau(  11) = (   3.2903786   1.3551844  12.4711573  )
        12           Ti1 tau(  12) = (   0.0003174   1.4440192  15.7330511  )
        13           O1  tau(  13) = (   4.5942328   1.4918067   9.2879030  )
        14           O1  tau(  14) = (   1.3426987   1.6023923  12.5713351  )
        15           O1  tau(  15) = (   4.5529958   1.4977110  16.1013444  )
        16           Ti1 tau(  16) = (   3.2902859   2.9801868   9.2893338  )
        17           Ti1 tau(  17) = (   0.0005333   2.8255407  12.4640987  )
        18           Ti1 tau(  18) = (   3.2895849   3.0341113  15.6952405  )
        19           O1  tau(  19) = (   0.0003479   2.9813005  10.5931620  )
        20           O1  tau(  20) = (   3.2900438   2.9627632  13.8881152  )
        21           O1  tau(  21) = (   0.0002396   2.9813036   7.9858123  )
        22           O1  tau(  22) = (   3.2902621   2.9759438  11.1922459  )
        23           O1  tau(  23) = (   0.0002943   2.9805036  14.7119039  )
        24           O1  tau(  24) = (   1.9864658   4.4711199   9.2879459  )
        25           O1  tau(  25) = (   5.2407125   4.5787950  12.5855407  )
        26           O1  tau(  26) = (   1.9842138   4.3634165  16.0604883  )
        27           Ti1 tau(  27) = (   0.0003529   4.4714252   9.2895810  )
        28           Ti1 tau(  28) = (   3.2904166   4.3402611  12.5252975  )
        29           Ti1 tau(  29) = (  -0.0003584   4.7219071  15.7914592  )
        30           O1  tau(  30) = (   4.5938453   4.4726049   9.2879030  )
        31           O1  tau(  31) = (   1.3394863   4.5787101  12.5854501  )
        32           O1  tau(  32) = (   4.5953883   4.3633133  16.0606172  )
        33           Ti1 tau(  33) = (   3.2898983   5.9609850   9.2893338  )
        34           Ti1 tau(  34) = (   0.0004309   5.8055675  12.4642027  )
        35           Ti1 tau(  35) = (   3.2895961   6.0676247  15.8182862  )
        36           O1  tau(  36) = (  -0.0000397   5.9620987  10.5931620  )
        37           O1  tau(  37) = (   3.2897974   5.9491097  13.9522666  )
        38           O1  tau(  38) = (  -0.0001005   5.9419674  17.2168411  )
        39           O1  tau(  39) = (  -0.0001480   5.9621018   7.9858123  )
        40           O1  tau(  40) = (   3.2898294   5.9516608  11.2068290  )
        41           O1  tau(  41) = (  -0.0002620   6.0093330  14.6024556  )
        42           O1  tau(  42) = (   1.9860782   7.4519181   9.2879459  )
        43           O1  tau(  43) = (   5.2335766   7.5615516  12.5803788  )
        44           O1  tau(  44) = (   2.0229086   7.4656171  16.0362607  )
        45           Ti1 tau(  45) = (  -0.0000347   7.4522234   9.2895810  )
        46           Ti1 tau(  46) = (   3.2895523   7.2794780  12.5477951  )
        47           Ti1 tau(  47) = (  -0.0001499   7.5569733  16.2601047  )
        48           O1  tau(  48) = (   4.5934577   7.4534031   9.2879030  )
        49           O1  tau(  49) = (   1.3453152   7.5613653  12.5804751  )
        50           O1  tau(  50) = (   4.5562564   7.4656138  16.0364310  )
        51           Ti1 tau(  51) = (   3.2895107   8.9417832   9.2893338  )
        52           Ti1 tau(  52) = (  -0.0004710   8.7769229  12.4586551  )
        53           Ti1 tau(  53) = (   3.2909234   0.0582169  15.6986445  )
        54           N1  tau(  54) = (   3.2892347   5.9685454  18.1810142  )
        55           H1  tau(  55) = (   3.2893406   5.0219839  18.5418895  )
        56           H1  tau(  56) = (   2.4590131   6.4368771  18.5304692  )
        57           H1  tau(  57) = (   4.1190552   6.4372901  18.5310312  )
        58           N1  tau(  58) = (  -0.0003436   2.9115831  17.9177722  )
        59           H1  tau(  59) = (   6.5794260   1.9611702  18.3102355  )
        60           H1  tau(  60) = (   5.7593157   3.3919262  18.2600543  )
        61           H1  tau(  61) = (   0.8192290   3.3923488  18.2608005  )

     number of k points=    10  Fermi-Dirac smearing, width (Ry)=  0.0073
                       cart. coord. in units 2pi/alat
        k(    1) = (   0.0000000   0.0000000   0.0000000), wk =   0.1250000
        k(    2) = (   0.0000000   0.0279567   0.0000000), wk =   0.2500000
        k(    3) = (   0.0000000  -0.0559134   0.0000000), wk =   0.1250000
        k(    4) = (   0.0379955   0.0000049   0.0000000), wk =   0.2500000
        k(    5) = (   0.0379955   0.0279617   0.0000000), wk =   0.2500000
        k(    6) = (   0.0379955  -0.0559085   0.0000000), wk =   0.2500000
        k(    7) = (   0.0379955  -0.0279518   0.0000000), wk =   0.2500000
        k(    8) = (  -0.0759910  -0.0000099   0.0000000), wk =   0.1250000
        k(    9) = (  -0.0759910   0.0279468   0.0000000), wk =   0.2500000
        k(   10) = (  -0.0759910  -0.0559233   0.0000000), wk =   0.1250000

     Initial potential from superposition of free atoms

     starting charge  423.99908, renormalised to  442.00000

     negative rho (up, down):  3.645E-02 0.000E+00

     %%%%%%%%%%%%%%%%%%%%%%%%%%%%%%%%%%%%%%%%%%%%%%%%%%%%%%%%%%%%%%%%%%%%%%%%
     %                                                                      %
     % You are using vdW-DF, which was implemented by the Thonhauser group. %
     % Please cite the following two papers that made this development      %
     % possible and the two reviews that describe the various versions:     %
     %                                                                      %
     %   T. Thonhauser et al., PRL 115, 136402 (2015).                      %
     %   T. Thonhauser et al., PRB 76, 125112 (2007).                       %
     %   K. Berland et al., Rep. Prog. Phys. 78, 066501 (2015).             %
     %   D.C. Langreth et al., J. Phys.: Condens. Matter 21, 084203 (2009). %
     %                                                                      %
     %                                                                      %
     % If you are calculating the stress with vdW-DF, please also cite:     %
     %                                                                      %
     %   R. Sabatini et al., J. Phys.: Condens. Matter 24, 424209 (2012).   %
     %                                                                      %
     %%%%%%%%%%%%%%%%%%%%%%%%%%%%%%%%%%%%%%%%%%%%%%%%%%%%%%%%%%%%%%%%%%%%%%%%

     Adding external electric field

     Computed dipole along edir(3) :
        Dipole               -6.4271 Ry au,        -16.3360 Debye
        Dipole field         -0.0081 Ry au,

        Potential amp.        0.7495 Ry
        Total length         46.3494 bohr

     Starting wfcs are  334 atomic wfcs
  @ DRIVER MODE: Message from server: STATUS
  @ DRIVER MODE: Message from server: POSDATA
  @ DRIVER MODE: Reading and sharing cell
  @ DRIVER MODE: Reading and sharing positions
  @ DRIVER MODE: Received positions

     Self-consistent Calculation

     iteration #  1     ecut=    29.40 Ry     beta= 0.05
     Davidson diagonalization with overlap
     c_bands:  1 eigenvalues not converged
     c_bands:  2 eigenvalues not converged
     c_bands:  2 eigenvalues not converged
     c_bands:  1 eigenvalues not converged
     c_bands:  3 eigenvalues not converged
     c_bands:  5 eigenvalues not converged
     c_bands:  3 eigenvalues not converged
     c_bands:  2 eigenvalues not converged
     c_bands:  3 eigenvalues not converged
     ethr =  1.00E-05,  avg # of iterations = 19.8

[...]

     total energy              =   -3273.09720837 Ry
     estimated scf accuracy    <     292.50160298 Ry

[...]

     iteration #  3     ecut=    29.40 Ry     beta= 0.05
     Davidson diagonalization with overlap
     ethr =  1.00E-02,  avg # of iterations = 12.6

[...]

     iteration # 57     ecut=    29.40 Ry     beta= 0.05
     Davidson diagonalization with overlap
     c_bands:  1 eigenvalues not converged
     ethr =  1.99E-11,  avg # of iterations = 16.3

[...]

     total energy              =   -3295.91257444 Ry
     estimated scf accuracy    <       0.00000009 Ry

     iteration # 59     ecut=    29.40 Ry     beta= 0.05
     Davidson diagonalization with overlap
     ethr =  1.99E-11,  avg # of iterations =  7.8

     negative rho (up, down):  3.471E-02 0.000E+00

     Adding external electric field

     Computed dipole along edir(3) :
        Dipole                1.8683 Ry au,          4.7487 Debye
        Dipole field          0.0024 Ry au,

        Potential amp.       -0.2179 Ry
        Total length         46.3494 bohr

     End of self-consistent calculation

          k = 0.0000 0.0000 0.0000 ( 26871 PWs)   bands (ev):

   -57.5943 -57.5542 -57.5306 -57.5246 -57.4947 -57.3951 -57.3873 -57.3667
   -57.3521 -57.3270 -57.3006 -57.2817 -57.2200 -57.1570 -57.0623 -56.5660
   -56.5408 -56.5399 -33.9753 -33.9356 -33.9312 -33.9053 -33.8870 -33.8684
   -33.8663 -33.8569 -33.8302 -33.8199 -33.8090 -33.7938 -33.7773 -33.7594
   -33.7492 -33.7355 -33.7212 -33.6887 -33.6806 -33.6789 -33.6675 -33.6527
   -33.6475 -33.6447 -33.6373 -33.6074 -33.5885 -33.5853 -33.5751 -33.5609
   -33.5580 -33.5519 -33.5383 -33.5365 -33.5333 -33.5192 -33.5150 -33.5014
   -33.4998 -33.4700 -33.4137 -33.3654 -33.3388 -33.3334 -33.2392 -32.8813
   -32.8789 -32.8775 -32.8647 -32.8637 -32.7918 -32.7278 -32.7268 -32.5916
   -18.3898 -18.0516 -17.8390 -17.7848 -17.7617 -17.6887 -17.6391 -17.6219
   -17.5542 -17.4898 -17.3654 -17.3273 -17.3221 -17.3087 -17.2993 -17.2360
   -17.2231 -17.2063 -17.2035 -17.1866 -17.1825 -17.1394 -17.0665 -17.0570
   -17.0164 -17.0024 -16.9817 -16.9791 -16.9312 -16.8785 -16.8683 -16.6745
   -16.6338 -16.4839 -15.0330 -14.9759 -14.9736  -7.7429  -7.7275  -7.5147
    -7.4521  -5.7136  -5.5311  -5.4660  -5.3716  -4.9993  -4.9416  -4.9274
    -4.9013  -4.8594  -4.8184  -4.8035  -4.7782  -4.7770  -4.7337  -4.6897
    -4.6645  -4.6451  -4.5456  -4.5083  -4.4702  -4.4400  -4.4334  -4.3823
    -4.3666  -4.3267  -4.3265  -4.2782  -4.2377  -4.2271  -4.2061  -4.1387
    -4.1202  -4.0163  -3.9276  -3.8704  -3.8632  -3.8221  -3.8090  -3.7634
    -3.7408  -3.7027  -3.6815  -3.6352  -3.6110  -3.5430  -3.4910  -3.3903
    -3.2945  -3.2678  -3.2414  -3.2192  -3.1741  -3.1215  -3.0023  -2.9620
    -2.9288  -2.9067  -2.8176  -2.8097  -2.7271  -2.7131  -2.6963  -2.6522
    -2.5994  -2.5864  -2.5526  -2.4357  -2.4149  -2.3229  -2.3131  -2.3112
    -2.2815  -2.2199  -2.2083  -2.1844  -2.1626  -2.1344  -2.1206  -2.0821
    -2.0785  -1.9797  -1.9579  -1.9020  -1.8793  -1.8792  -1.7812  -1.7636
    -1.7377  -1.7250  -1.6570  -1.5738  -1.4635  -1.4129  -1.3876  -1.3846
    -1.2853  -1.2570  -1.2139  -1.1336  -0.7977  -0.6011  -0.3140  -0.2698
    -0.2694  -0.0069  -0.0053   0.1233   1.4460   1.6611   1.6825   1.8746
     1.8969   1.9407   2.0273   2.0352   2.0973   2.1969   2.3239

[...]

          k = 0.0380-0.0280 0.0000 ( 26873 PWs)   bands (ev):

[...]

          k =-0.0760-0.0000 0.0000 ( 26902 PWs)   bands (ev):

[...]

          k =-0.0760-0.0559 0.0000 ( 26868 PWs)   bands (ev):

   -57.5942 -57.5479 -57.5426 -57.5187 -57.4949 -57.3928 -57.3872 -57.3716
   -57.3492 -57.3249 -57.3050 -57.2795 -57.2198 -57.1573 -57.0621 -56.5579
   -56.5569 -56.5319 -34.0267 -34.0147 -33.9184 -33.8931 -33.8831 -33.8784
   -33.8768 -33.8552 -33.8266 -33.8135 -33.7784 -33.7441 -33.7388 -33.7358
   -33.7250 -33.6969 -33.6933 -33.6886 -33.6833 -33.6802 -33.6425 -33.6365
   -33.6336 -33.6265 -33.6080 -33.6078 -33.6053 -33.6031 -33.5993 -33.5866
   -33.5790 -33.5712 -33.5697 -33.5606 -33.5398 -33.5280 -33.5234 -33.5154
   -33.4997 -33.4250 -33.4201 -33.3709 -33.3393 -33.3352 -33.2721 -32.9699
   -32.8804 -32.8794 -32.8556 -32.7709 -32.7699 -32.7057 -32.6892 -32.6879
   -18.0797 -18.0162 -17.7602 -17.7061 -17.6896 -17.6535 -17.6386 -17.5613
   -17.5412 -17.5255 -17.5046 -17.4403 -17.3861 -17.3372 -17.3354 -17.3286
   -17.2585 -17.2532 -17.2458 -17.2412 -17.1952 -17.1809 -17.1585 -17.1149
   -17.0374 -16.9675 -16.9544 -16.9476 -16.9089 -16.8938 -16.8425 -16.7083
   -16.6994 -16.4102 -15.0315 -15.0290 -14.9125  -7.7593  -7.7076  -7.5113
    -7.4608  -5.3364  -5.3062  -5.2766  -5.2123  -5.0217  -4.8618  -4.8310
    -4.8242  -4.7870  -4.7373  -4.7102  -4.7031  -4.6945  -4.6772  -4.6624
    -4.6146  -4.6101  -4.5847  -4.5121  -4.4709  -4.4661  -4.4471  -4.4330
    -4.4270  -4.3588  -4.2842  -4.2168  -4.1708  -4.1558  -4.1400  -4.0919
    -4.0551  -4.0250  -3.9827  -3.9727  -3.9034  -3.7956  -3.7121  -3.6722
    -3.6716  -3.6310  -3.5822  -3.5811  -3.4797  -3.4182  -3.3427  -3.2111
    -3.2056  -3.1931  -3.1682  -3.1542  -3.1143  -3.1045  -3.0800  -3.0288
    -3.0187  -2.9972  -2.9363  -2.8706  -2.7849  -2.7575  -2.7229  -2.7177
    -2.6926  -2.6818  -2.6539  -2.6508  -2.6172  -2.6074  -2.5543  -2.5271
    -2.4750  -2.4479  -2.4048  -2.3194  -2.3036  -2.2816  -2.1883  -2.1280
    -2.1089  -2.1055  -2.0764  -2.0304  -1.9325  -1.8380  -1.8027  -1.7581
    -1.6468  -1.6462  -1.6424  -1.6267  -1.5525  -1.5388  -1.3350  -1.3228
    -1.2635  -1.1882  -1.1487  -1.1129  -1.1105  -0.8932  -0.4828  -0.1993
    -0.1862  -0.1626  -0.0099  -0.0049   1.5922   1.6740   1.7088   1.7586
     1.7943   1.7976   1.8035   1.8674   1.9310   1.9408   2.1815

     the Fermi energy is     1.5302 ev

!    total energy              =   -3295.91261823 Ry
     estimated scf accuracy    <       0.00000005 Ry
     smearing contrib. (-TS)   =      -0.03396782 Ry
     internal energy E=F+TS    =   -3295.87865041 Ry

     The total energy is F=E-TS. E is the sum of the following terms:
     one-electron contribution =  -34427.49011047 Ry
     hartree contribution      =   17282.25478206 Ry
     xc contribution           =    -543.75714406 Ry
     ewald contribution        =   14393.10943077 Ry
     electric field correction =       0.00439129 Ry

     convergence has been achieved in  59 iterations

     Forces acting on atoms (cartesian axes, Ry/au):

     atom    1 type  1   force =     0.00001587    0.00450633    0.05617694
     atom    2 type  1   force =     0.00000033   -0.00094837   -0.00070938
     atom    3 type  1   force =    -0.00000987    0.00198176    0.00001232
     atom    4 type  1   force =     0.00005784    0.00031534    0.10698123
     atom    5 type  1   force =     0.00000245    0.00081361    0.00981170
     atom    6 type  1   force =     0.00000584   -0.00244092    0.00112591
     atom    7 type  1   force =     0.06728997   -0.00022856   -0.02910783
     atom    8 type  1   force =     0.00475096   -0.02828553    0.00257479
     atom    9 type  1   force =     0.00720019   -0.00154514   -0.00293327
     atom   10 type  2   force =    -0.00005384   -0.00148120   -0.18423846
     atom   11 type  2   force =     0.00004009    0.02164903   -0.00780014
     atom   12 type  2   force =     0.00003181   -0.00262059    0.01196350
     atom   13 type  1   force =    -0.06739197   -0.00068999   -0.02907265
     atom   14 type  1   force =    -0.00477818   -0.02828696    0.00257514
     atom   15 type  1   force =    -0.00722127   -0.00154530   -0.00294880
     atom   16 type  2   force =     0.00009633    0.00013260    0.06631195
     atom   17 type  2   force =    -0.00001112    0.03587182    0.00370950
     atom   18 type  2   force =     0.00002299   -0.01035944   -0.00437962
     atom   19 type  1   force =     0.00001907    0.00443537    0.05988793
     atom   20 type  1   force =    -0.00000238    0.00081729   -0.00597446
     atom   21 type  1   force =     0.00005898    0.00018466    0.10722007
     atom   22 type  1   force =    -0.00000114   -0.00066748    0.00885828
     atom   23 type  1   force =    -0.00000553    0.00487103    0.00308268
     atom   24 type  1   force =     0.06803894    0.00050994   -0.02900626
     atom   25 type  1   force =     0.00341549   -0.02997669    0.00208294
     atom   26 type  1   force =     0.01028747    0.02031197    0.00194578
     atom   27 type  2   force =    -0.00005549    0.00002988   -0.18364923
     atom   28 type  2   force =     0.00003524    0.02158358   -0.00595300
     atom   29 type  2   force =     0.00000920   -0.02208527   -0.00540171
     atom   30 type  1   force =    -0.06813849    0.00006245   -0.02897484
     atom   31 type  1   force =    -0.00344837   -0.02996407    0.00208988
     atom   32 type  1   force =    -0.01031542    0.02031786    0.00194194
     atom   33 type  2   force =     0.00010553   -0.00026416    0.06932034
     atom   34 type  2   force =    -0.00001793    0.03688220    0.00377175
     atom   35 type  2   force =     0.00000311   -0.02937144    0.01040614
     atom   36 type  1   force =     0.00002565    0.00482443    0.05628840
     atom   37 type  1   force =    -0.00001121    0.00205942   -0.00520647
     atom   38 type  1   force =    -0.00000478    0.00460233   -0.00021662
     atom   39 type  1   force =     0.00005638    0.00002659    0.10680384
     atom   40 type  1   force =    -0.00000594   -0.00060287    0.00812837
     atom   41 type  1   force =     0.00000303    0.00089974    0.00233566
     atom   42 type  1   force =     0.06806232   -0.00121016   -0.02960067
     atom   43 type  1   force =     0.00353208   -0.02803647    0.00205398
     atom   44 type  1   force =     0.01051881    0.01136742    0.00281655
     atom   45 type  2   force =    -0.00005930   -0.00196831   -0.18352047
     atom   46 type  2   force =     0.00003557    0.01958953   -0.00654941
     atom   47 type  2   force =    -0.00000169   -0.01071428   -0.01270129
     atom   48 type  1   force =    -0.06815766   -0.00164996   -0.02956296
     atom   49 type  1   force =    -0.00354870   -0.02803716    0.00205089
     atom   50 type  1   force =    -0.01053835    0.01137000    0.00280386
     atom   51 type  2   force =     0.00009526   -0.00307926    0.06759629
     atom   52 type  2   force =    -0.00001984    0.03493945    0.00622282
     atom   53 type  2   force =    -0.00000366    0.00502222    0.00128554
     atom   54 type  3   force =     0.00007691    0.00063738   -0.00247284
     atom   55 type  4   force =    -0.00000666   -0.00142627   -0.00038989
     atom   56 type  4   force =    -0.00130684    0.00056201    0.00022964
     atom   57 type  4   force =     0.00120764    0.00052147    0.00019210
     atom   58 type  3   force =     0.00011166   -0.02521297    0.00115429
     atom   59 type  4   force =    -0.00000396    0.01232901   -0.00583926
     atom   60 type  4   force =    -0.00445401    0.00435609    0.00220625
     atom   61 type  4   force =     0.00436056    0.00431502    0.00219031

     Total force =     0.455778     Total SCF correction =     0.000509
  @ DRIVER MODE: Message from server: STATUS
  @ DRIVER MODE: Message from server: GETFORCE
  @ DRIVER MODE: Returning v,forces,stress,ensemble

     Writing output data file ./calc.save/
  @ DRIVER MODE: Message from server: EXIT
  @ DRIVE MODE: Exiting

     General routines

     Parallel routines

   This run was terminated on:   1: 2:54  19Oct2021

   JOB DONE.