     Program PWSCF v.6.7GPU starts on 16Sep2021 at  8:31:10

     R & G space division:  proc/nbgrp/npool/nimage =      10
     Reading input from /storage/home/hcoda1/3/ntian30/research/carbon/CxH_vib/H2O_calc/ads_slab/CH3NH2NHH2O_c/out_0047/pw.inp
Warning: card &CELL ignored
Warning: card   CELL_DYNAMICS='IPI', ignored
Warning: card / ignored

     Current dimensions of program PWSCF are:
     Max number of different atomic species (ntypx) = 10
     Max number of k-points (npk) =  40000
     Max angular momentum in pseudopotentials (lmaxx) =  3
     Presently no symmetry can be used with electric field

     Message from routine cell_base_init:
     DEPRECATED: use true lattice parameter, not A to a.u. conversion factor

     IMPORTANT: XC functional enforced from input :
     Exchange-correlation= BEEF-VDW
                           (   1   4  43  14   2   0   0)
     Any further DFT definition will be discarded
     Please, verify this is what you really want

  @ DRIVER MODE: Connecting to
 qe_1139763_2852614.sched-torque.pace.gatech.edu1wameqg7_scratch
  using UNIX socket
  @ DRIVER MODE: Message from server: STATUS
  @ DRIVER MODE: Message from server: INIT
  @ DRIVER MODE: Receiving replica           0          -1
  @ DRIVER MODE: Receiving encoded integer          25
  @ DRIVER MODE:  SCF:  T  FORCE:  T  STRESS:  F  VC:  F  ENSEMBLE:  F
  @ DRIVER MODE:  SCF:  T  FORCE:  T  STRESS:  F  VC:  F  ENSEMBLE:  F

     Using Slab Decomposition

     bravais-lattice index     =            0
     lattice parameter (alat)  =       1.8897  a.u.
     unit-cell volume          =    6658.9804 (a.u.)^3
     number of atoms/cell      =           59
     number of atomic types    =            5
     number of electrons       =       406.00
     number of Kohn-Sham states=          213
     kinetic-energy cutoff     =      29.3995  Ry
     charge density cutoff     =     293.9946  Ry
     scf convergence threshold =      7.3E-08
     mixing beta               =       0.0500
     number of iterations used =            8  plain     mixing
     Exchange-correlation= BEEF-VDW
                           (   1   4  43  14   2   0   0)

     celldm(1)=   1.889726  celldm(2)=   0.000000  celldm(3)=   0.000000
     celldm(4)=   0.000000  celldm(5)=   0.000000  celldm(6)=   0.000000

     crystal axes: (cart. coord. in units of alat)
               a(1) = (   6.579727   0.000000   0.000000 )
               a(2) = (  -0.000775   5.961596   0.000000 )
               a(3) = (   0.000000   0.000000  25.155947 )

     reciprocal axes: (cart. coord. in units 2 pi/alat)
               b(1) = (  0.151982  0.000020  0.000000 )
               b(2) = (  0.000000  0.167740  0.000000 )
               b(3) = (  0.000000  0.000000  0.039752 )

     PseudoPot. # 1 for Ti read from file:
     /storage/coda1/p-amedford6/0/shared/rich_project_chbe-medford/medford-share/data/pseudos_module/espresso/nninc/pbe/van/Ti.UPF
     MD5 check sum: 8e4df49b7f0d34bbd5052bf3f5ea0213
     Pseudo is Ultrasoft, Zval = 12.0
     Generated by new atomic code, or converted to UPF format
     Using radial grid of  851 points,  6 beta functions with:
                l(1) =   0
                l(2) =   0
                l(3) =   1
                l(4) =   1
                l(5) =   2
                l(6) =   2
     Q(r) pseudized with  8 coefficients,  rinner =    1.000   1.000   1.000
                                                       1.000   1.000

     PseudoPot. # 2 for O  read from file:
     /storage/coda1/p-amedford6/0/shared/rich_project_chbe-medford/medford-share/data/pseudos_module/espresso/nninc/pbe/van/O.UPF
     MD5 check sum: 78c19812648e8988a0fe644b0f25305e
     Pseudo is Ultrasoft, Zval =  6.0
     Generated by new atomic code, or converted to UPF format
     Using radial grid of  737 points,  4 beta functions with:
                l(1) =   0
                l(2) =   0
                l(3) =   1
                l(4) =   1
     Q(r) pseudized with  8 coefficients,  rinner =    0.800   0.800   0.800

     PseudoPot. # 3 for N  read from file:
     /storage/coda1/p-amedford6/0/shared/rich_project_chbe-medford/medford-share/data/pseudos_module/espresso/nninc/pbe/van/N.UPF
     MD5 check sum: 90d10febe142ad51ac9d5be1deb811c4
     Pseudo is Ultrasoft, Zval =  5.0
     Generated by new atomic code, or converted to UPF format
     Using radial grid of  729 points,  4 beta functions with:
                l(1) =   0
                l(2) =   0
                l(3) =   1
                l(4) =   1
     Q(r) pseudized with  8 coefficients,  rinner =    0.800   0.800   0.800

     PseudoPot. # 4 for C  read from file:
     /storage/coda1/p-amedford6/0/shared/rich_project_chbe-medford/medford-share/data/pseudos_module/espresso/nninc/pbe/van/C.UPF
     MD5 check sum: 1a69bf6b8db32088f5b2163dbdb77a27
     Pseudo is Ultrasoft, Zval =  4.0
     Generated by new atomic code, or converted to UPF format
     Using radial grid of  721 points,  4 beta functions with:
                l(1) =   0
                l(2) =   0
                l(3) =   1
                l(4) =   1
     Q(r) pseudized with  8 coefficients,  rinner =    0.800   0.800   0.800

     PseudoPot. # 5 for H  read from file:
     /storage/coda1/p-amedford6/0/shared/rich_project_chbe-medford/medford-share/data/pseudos_module/espresso/nninc/pbe/van/H.UPF
     MD5 check sum: b5ee9d7bfd3a09ee7748110bda690ff7
     Pseudo is Ultrasoft, Zval =  1.0
     Generated by new atomic code, or converted to UPF format
     Using radial grid of  615 points,  1 beta functions with:
                l(1) =   0
     Q(r) pseudized with  8 coefficients,  rinner =    0.800

     atomic species   valence    mass     pseudopotential
        Ti1           12.00    47.86700     Ti( 1.00)
        O1             6.00    15.99900     O ( 1.00)
        N1             5.00    14.00700     N ( 1.00)
        C1             4.00    12.01100     C ( 1.00)
        H1             1.00     1.00800     H ( 1.00)

     No symmetry found

   Cartesian axes

     site n.     atom                  positions (alat units)
         1           Ti1 tau(   1) = (   0.0004258   2.9801865   6.0000000  )
         2           Ti1 tau(   2) = (   3.2906075   1.4906267   6.0002472  )
         3           O1  tau(   3) = (   0.0006271   0.0005054   7.9858123  )
         4           O1  tau(   4) = (   3.2906025   0.0005020   7.3038282  )
         5           O1  tau(   5) = (   4.5942328   1.4918067   9.2879030  )
         6           O1  tau(   6) = (   1.9868534   1.4903216   9.2879459  )
         7           Ti1 tau(   7) = (   3.2907910   2.8959150   9.1758416  )
         8           Ti1 tau(   8) = (   0.0015273   1.4827037   9.2680791  )
         9           O1  tau(   9) = (   3.2795193   0.0050042  11.3600746  )
        10           O1  tau(  10) = (   0.0116148   5.9584955  10.6183126  )
        11           O1  tau(  11) = (   1.2764768   1.4833402  12.6625751  )
        12           O1  tau(  12) = (   5.2691860   1.4824858  12.6730715  )
        13           Ti1 tau(  13) = (   6.5785005   2.9712200  12.5432933  )
        14           Ti1 tau(  14) = (   3.2815129   1.4861921  12.5133659  )
        15           O1  tau(  15) = (   0.0084525   5.9333602  14.7514412  )
        16           O1  tau(  16) = (   3.2474592   5.9449689  14.0025778  )
        17           O1  tau(  17) = (   4.5272503   1.5270814  16.0535473  )
        18           O1  tau(  18) = (   2.0088677   1.5398698  16.1918835  )
        19           Ti1 tau(  19) = (   3.2695027   3.0127370  15.7044713  )
        20           Ti1 tau(  20) = (   6.4897317   1.5391078  15.7731133  )
        21           O1  tau(  21) = (   3.2904802   0.0005063   4.7018136  )
        22           O1  tau(  22) = (   6.4943121   0.0104379  17.3746616  )
        23           O1  tau(  23) = (   1.3043587   1.4918075   6.0039043  )
        24           O1  tau(  24) = (   5.2767064   1.4903225   6.0039473  )
        25           Ti1 tau(  25) = (   0.0000382   5.9609847   6.0000000  )
        26           Ti1 tau(  26) = (   3.2902200   4.4714249   6.0002472  )
        27           O1  tau(  27) = (   0.0002396   2.9813036   7.9858123  )
        28           O1  tau(  28) = (   3.2902150   2.9813002   7.3038282  )
        29           O1  tau(  29) = (   4.5938453   4.4726049   9.2879030  )
        30           O1  tau(  30) = (   1.9864658   4.4711199   9.2879459  )
        31           Ti1 tau(  31) = (   3.2891106   5.8743827   9.1763621  )
        32           Ti1 tau(  32) = (   0.0006254   4.4649316   9.2693709  )
        33           O1  tau(  33) = (   3.2806081   2.9711243  11.3509633  )
        34           O1  tau(  34) = (   0.0092240   2.9805883  10.6323155  )
        35           O1  tau(  35) = (   1.2760424   4.4718827  12.6381679  )
        36           O1  tau(  36) = (   5.2690016   4.4731519  12.6446470  )
        37           Ti1 tau(  37) = (   6.5708669   5.9382087  12.5160675  )
        38           Ti1 tau(  38) = (   3.2845625   4.4656782  12.4980923  )
        39           O1  tau(  39) = (   6.5779858   3.0049062  14.7590937  )
        40           O1  tau(  40) = (   3.2501146   3.0001303  13.9242794  )
        41           O1  tau(  41) = (   4.5300198   4.4412671  16.1793791  )
        42           O1  tau(  42) = (   2.0030354   4.4482434  16.2507355  )
        43           Ti1 tau(  43) = (   3.2558399   0.0045369  15.7947069  )
        44           Ti1 tau(  44) = (   0.0024851   4.6597080  16.1671864  )
        45           O1  tau(  45) = (   3.2900926   2.9813045   4.7018136  )
        46           O1  tau(  46) = (   1.3039711   4.4726057   6.0039043  )
        47           O1  tau(  47) = (   5.2763189   4.4711207   6.0039473  )
        48           N1  tau(  48) = (   0.8610865   2.3037131  18.4629187  )
        49           N1  tau(  49) = (   6.4642385   2.8627238  17.5618644  )
        50           C1  tau(  50) = (   1.1134797   3.0572184  19.7121060  )
        51           H1  tau(  51) = (   0.2160447   3.0254214  20.3281890  )
        52           H1  tau(  52) = (   1.9467850   2.5864873  20.2353232  )
        53           H1  tau(  53) = (   1.3463996   4.0866186  19.4485780  )
        54           H1  tau(  54) = (   0.5832711   1.3114681  18.6183785  )
        55           H1  tau(  55) = (   5.5643591   2.7461405  18.0138738  )
        56           H1  tau(  56) = (   1.7079168   2.1891883  17.8702682  )
        57           O1  tau(  57) = (   4.0734316   0.3075885  18.7765601  )
        58           H1  tau(  58) = (   4.9241673   0.1787741  18.2816895  )
        59           H1  tau(  59) = (   3.8734322   5.3936830  19.1372508  )

     number of k points=    10  Fermi-Dirac smearing, width (Ry)=  0.0073
                       cart. coord. in units 2pi/alat
        k(    1) = (   0.0000000   0.0000000   0.0000000), wk =   0.1250000
        k(    2) = (   0.0000000   0.0419351   0.0000000), wk =   0.2500000
        k(    3) = (   0.0000000  -0.0838702   0.0000000), wk =   0.1250000
        k(    4) = (   0.0379955   0.0000049   0.0000000), wk =   0.2500000
        k(    5) = (   0.0379955   0.0419400   0.0000000), wk =   0.2500000
        k(    6) = (   0.0379955  -0.0838652   0.0000000), wk =   0.2500000
        k(    7) = (   0.0379955  -0.0419301   0.0000000), wk =   0.2500000
        k(    8) = (  -0.0759910  -0.0000099   0.0000000), wk =   0.1250000
        k(    9) = (  -0.0759910   0.0419252   0.0000000), wk =   0.2500000
        k(   10) = (  -0.0759910  -0.0838800   0.0000000), wk =   0.1250000

     Initial potential from superposition of free atoms

     starting charge  389.99912, renormalised to  406.00000

     negative rho (up, down):  1.392E-02 0.000E+00

     %%%%%%%%%%%%%%%%%%%%%%%%%%%%%%%%%%%%%%%%%%%%%%%%%%%%%%%%%%%%%%%%%%%%%%%%
     %                                                                      %
     % You are using vdW-DF, which was implemented by the Thonhauser group. %
     % Please cite the following two papers that made this development      %
     % possible and the two reviews that describe the various versions:     %
     %                                                                      %
     %   T. Thonhauser et al., PRL 115, 136402 (2015).                      %
     %   T. Thonhauser et al., PRB 76, 125112 (2007).                       %
     %   K. Berland et al., Rep. Prog. Phys. 78, 066501 (2015).             %
     %   D.C. Langreth et al., J. Phys.: Condens. Matter 21, 084203 (2009). %
     %                                                                      %
     %                                                                      %
     % If you are calculating the stress with vdW-DF, please also cite:     %
     %                                                                      %
     %   R. Sabatini et al., J. Phys.: Condens. Matter 24, 424209 (2012).   %
     %                                                                      %
     %%%%%%%%%%%%%%%%%%%%%%%%%%%%%%%%%%%%%%%%%%%%%%%%%%%%%%%%%%%%%%%%%%%%%%%%

     Adding external electric field

     Computed dipole along edir(3) :
        Dipole              -15.6801 Ry au,        -39.8548 Debye
        Dipole field         -0.0296 Ry au,

        Potential amp.        2.7430 Ry
        Total length         46.3494 bohr

     Starting wfcs are  308 atomic wfcs
  @ DRIVER MODE: Message from server: STATUS
  @ DRIVER MODE: Message from server: POSDATA
  @ DRIVER MODE: Reading and sharing cell
  @ DRIVER MODE: Reading and sharing positions
  @ DRIVER MODE: Received positions

     Self-consistent Calculation

     iteration #  1     ecut=    29.40 Ry     beta= 0.05
     Davidson diagonalization with overlap
     c_bands:  2 eigenvalues not converged
     c_bands:  5 eigenvalues not converged
     c_bands:  2 eigenvalues not converged
     c_bands:  4 eigenvalues not converged
     c_bands:  4 eigenvalues not converged
     c_bands:  5 eigenvalues not converged
     c_bands:  5 eigenvalues not converged
     c_bands:  1 eigenvalues not converged
     ethr =  1.00E-05,  avg # of iterations = 22.5

[...]

     total energy              =   -2140.12096460 Ry
     estimated scf accuracy    <    9575.41975246 Ry

     iteration #  2     ecut=    29.40 Ry     beta= 0.05
     Davidson diagonalization with overlap
     ethr =  1.00E-02,  avg # of iterations = 32.0

[...]

     iteration # 67     ecut=    29.40 Ry     beta= 0.05
     Davidson diagonalization with overlap
     c_bands:  1 eigenvalues not converged
     c_bands:  1 eigenvalues not converged
     c_bands:  1 eigenvalues not converged
     ethr =  7.06E-11,  avg # of iterations = 14.7

[...]

     total energy              =   -2977.68488530 Ry
     estimated scf accuracy    <       0.00000016 Ry

     iteration # 69     ecut=    29.40 Ry     beta= 0.05
     Davidson diagonalization with overlap
     ethr =  3.86E-11,  avg # of iterations = 12.0

     negative rho (up, down):  1.244E-02 0.000E+00

     Adding external electric field

     Computed dipole along edir(3) :
        Dipole                1.6072 Ry au,          4.0851 Debye
        Dipole field          0.0030 Ry au,

        Potential amp.       -0.2812 Ry
        Total length         46.3494 bohr

     End of self-consistent calculation

          k = 0.0000 0.0000 0.0000 ( 18029 PWs)   bands (ev):

   -54.9541 -54.9175 -54.9147 -54.8834 -54.8439 -54.8338 -54.7937 -54.7619
   -54.7578 -54.7467 -54.7268 -54.7220 -54.7135 -54.6603 -53.9326 -53.8985
   -31.5261 -31.4076 -31.3204 -31.2819 -31.2651 -31.2514 -31.2490 -31.2440
   -31.2095 -31.2073 -31.1629 -31.1625 -31.1573 -31.1268 -31.1081 -31.0882
   -31.0778 -31.0721 -31.0706 -31.0632 -31.0291 -31.0248 -31.0185 -31.0124
   -30.9924 -30.9745 -30.9638 -30.9630 -30.9557 -30.9554 -30.9450 -30.9365
   -30.9209 -30.9199 -30.9113 -30.9105 -30.8846 -30.8775 -30.8756 -30.8754
   -30.8564 -30.8557 -30.3413 -30.2488 -30.2267 -30.1578 -30.0711 -29.9601
   -18.9634 -18.2095 -15.7895 -15.5219 -15.3967 -15.1963 -15.1429 -15.0382
   -14.8782 -14.8177 -14.7528 -14.7289 -14.7220 -14.6950 -14.6224 -14.5669
   -14.5380 -14.4854 -14.4849 -14.4488 -14.4416 -14.4377 -14.3822 -14.3782
   -14.3417 -14.3280 -14.3204 -14.1774 -14.0987 -14.0514 -14.0400 -13.2101
   -12.4353 -12.3181 -10.9909  -7.5889  -6.4049  -5.9745  -5.7777  -4.0129
    -3.8483  -3.1332  -2.9627  -2.9508  -2.8728  -2.8491  -2.6782  -2.6186
    -2.5103  -2.3905  -2.3181  -2.2206  -2.1768  -2.1587  -2.1449  -2.0316
    -1.9460  -1.9088  -1.8691  -1.8307  -1.8136  -1.7681  -1.7468  -1.7368
    -1.7041  -1.6792  -1.5256  -1.4504  -1.4137  -1.3786  -1.3403  -1.2830
    -1.2612  -1.2452  -1.2398  -1.2318  -1.2157  -1.1916  -1.1555  -1.1234
    -1.0556  -0.9719  -0.9620  -0.8507  -0.7671  -0.6344  -0.5805  -0.5229
    -0.4925  -0.4259  -0.3842  -0.3364  -0.3007  -0.2942  -0.2481  -0.1606
    -0.1479  -0.0901  -0.0716   0.0133   0.0589   0.0651   0.0763   0.2526
     0.2631   0.2809   0.3833   0.4643   0.5035   0.5200   0.5774   0.6401
     0.6428   0.6807   0.7027   0.7330   0.8164   0.9199   0.9449   0.9833
     0.9977   1.0232   1.0402   1.0668   1.1063   1.1876   1.1937   1.2707
     1.3618   1.3738   1.6373   1.6697   2.0005   2.0272   2.0899   2.2757
     2.6643   2.7118   4.1478   4.2098   4.2550   4.2808   4.2989   4.3805
     4.4003   4.6157   4.6420   4.6431   4.6523

[...]

          k = 0.0380-0.0419 0.0000 ( 17876 PWs)   bands (ev):

[...]

          k =-0.0760-0.0000 0.0000 ( 17886 PWs)   bands (ev):

[...]

          k =-0.0760-0.0839 0.0000 ( 17948 PWs)   bands (ev):

   -54.9422 -54.9264 -54.9004 -54.9003 -54.8414 -54.8242 -54.8032 -54.7553
   -54.7466 -54.7412 -54.7319 -54.7290 -54.7243 -54.6627 -53.9156 -53.9153
   -31.3348 -31.3234 -31.2576 -31.2228 -31.2226 -31.2166 -31.1928 -31.1928
   -31.1679 -31.1653 -31.1562 -31.1525 -31.1446 -31.0946 -31.0808 -31.0802
   -31.0759 -31.0747 -31.0715 -31.0687 -31.0418 -31.0316 -31.0294 -31.0229
   -31.0219 -31.0199 -31.0198 -31.0188 -30.9978 -30.9801 -30.9741 -30.9678
   -30.9609 -30.9553 -30.9538 -30.9498 -30.9496 -30.9229 -30.9157 -30.9122
   -30.9077 -30.8982 -30.2394 -30.2392 -30.1540 -30.1538 -30.1145 -30.1144
   -18.9584 -18.2101 -15.2802 -15.1533 -15.0547 -14.9992 -14.9521 -14.9362
   -14.9187 -14.8658 -14.8354 -14.7755 -14.7522 -14.7038 -14.6592 -14.6553
   -14.6277 -14.5481 -14.5328 -14.5204 -14.5129 -14.4619 -14.4479 -14.4251
   -14.4025 -14.3985 -14.3800 -14.3075 -14.2977 -14.2935 -14.2552 -13.2195
   -12.4198 -12.4196 -10.9914  -7.6000  -6.3951  -5.9738  -5.7627  -3.9915
    -3.8424  -2.5620  -2.5401  -2.4047  -2.3860  -2.2797  -2.1875  -2.1368
    -2.1314  -1.9927  -1.9598  -1.9441  -1.9285  -1.9160  -1.8674  -1.8449
    -1.8086  -1.7906  -1.7811  -1.7714  -1.7557  -1.7353  -1.6835  -1.6792
    -1.6684  -1.6540  -1.6100  -1.5944  -1.5634  -1.5527  -1.5243  -1.5017
    -1.4350  -1.3404  -1.2929  -1.2498  -1.1950  -1.1424  -1.1364  -1.0583
    -1.0401  -1.0083  -0.9774  -0.9525  -0.8574  -0.7838  -0.6887  -0.6861
    -0.6827  -0.5632  -0.5229  -0.5059  -0.4930  -0.4624  -0.3783  -0.3682
    -0.3086  -0.2341  -0.2071  -0.2027  -0.1772  -0.0580  -0.0324   0.0279
     0.0578   0.0906   0.0928   0.1714   0.1848   0.2440   0.2588   0.2722
     0.3171   0.3348   0.4330   0.5230   0.5584   0.6616   0.7543   0.7838
     0.8786   0.9366   1.0403   1.0611   1.0854   1.1818   1.1898   1.2253
     1.3544   1.3612   1.4772   1.5169   1.5269   1.5295   2.4480   2.4494
     2.5318   2.5319   4.2743   4.3971   4.4127   4.4588   4.5135   4.6546
     4.6780   4.7251   4.7268   4.8012   4.8111

     the Fermi energy is     4.2001 ev

!    total energy              =   -2977.68490804 Ry
     estimated scf accuracy    <       0.00000007 Ry
     smearing contrib. (-TS)   =      -0.03700185 Ry
     internal energy E=F+TS    =   -2977.64790619 Ry

     The total energy is F=E-TS. E is the sum of the following terms:
     one-electron contribution =  -23306.27316039 Ry
     hartree contribution      =   11754.13163788 Ry
     xc contribution           =    -496.61192932 Ry
     ewald contribution        =    9071.10067088 Ry
     electric field correction =       0.00487476 Ry

     convergence has been achieved in  69 iterations

     Forces acting on atoms (cartesian axes, Ry/au):

     atom    1 type  1   force =     0.00008604   -0.00025635    0.09411141
     atom    2 type  1   force =    -0.00008386   -0.00046128   -0.17747600
     atom    3 type  2   force =     0.00006254   -0.00033399   -0.02123935
     atom    4 type  2   force =     0.00003731   -0.00179345    0.05730469
     atom    5 type  2   force =    -0.01079160   -0.00102300    0.00668473
     atom    6 type  2   force =     0.01199147   -0.00033835    0.00503758
     atom    7 type  1   force =    -0.00060403    0.00106345   -0.01459814
     atom    8 type  1   force =     0.00086241    0.00331726    0.00460570
     atom    9 type  2   force =     0.00000985   -0.00005339    0.00012804
     atom   10 type  2   force =    -0.00368666    0.00210729   -0.00164986
     atom   11 type  2   force =    -0.00016675    0.00061730   -0.00009217
     atom   12 type  2   force =     0.00018438    0.00028332   -0.00020866
     atom   13 type  1   force =    -0.00019694   -0.00026973    0.00010665
     atom   14 type  1   force =     0.00024684   -0.00022104   -0.00039153
     atom   15 type  2   force =     0.00020272    0.00032612   -0.00012742
     atom   16 type  2   force =    -0.00011554    0.00025341   -0.00019151
     atom   17 type  2   force =    -0.00000373   -0.00021895    0.00043813
     atom   18 type  2   force =     0.00020781    0.00001853    0.00001326
     atom   19 type  1   force =    -0.00014153    0.00025532   -0.00051248
     atom   20 type  1   force =     0.00066711    0.00004282   -0.00023279
     atom   21 type  2   force =     0.00011943   -0.00008243    0.10377058
     atom   22 type  2   force =     0.00054002   -0.00023272   -0.00064262
     atom   23 type  2   force =    -0.07067958   -0.00015691   -0.02713558
     atom   24 type  2   force =     0.07064538    0.00031763   -0.02714080
     atom   25 type  1   force =     0.00010808   -0.00016981    0.09372326
     atom   26 type  1   force =    -0.00006289   -0.00053148   -0.17770242
     atom   27 type  2   force =     0.00006819   -0.00005130   -0.02033591
     atom   28 type  2   force =     0.00006621   -0.00146121    0.05630658
     atom   29 type  2   force =    -0.01129594   -0.00040028    0.00736661
     atom   30 type  2   force =     0.01240995   -0.00000290    0.00575657
     atom   31 type  1   force =    -0.00074607    0.00574280   -0.01563333
     atom   32 type  1   force =     0.00081719   -0.00459718    0.00434981
     atom   33 type  2   force =     0.00002206    0.00015066    0.00027820
     atom   34 type  2   force =    -0.00321195   -0.00103085   -0.00519806
     atom   35 type  2   force =    -0.00010826   -0.00039796    0.00008569
     atom   36 type  2   force =     0.00020914   -0.00006820   -0.00008868
     atom   37 type  1   force =    -0.00012641    0.00043245   -0.00012037
     atom   38 type  1   force =     0.00008620    0.00015214   -0.00014682
     atom   39 type  2   force =    -0.00048054   -0.00031872   -0.00021175
     atom   40 type  2   force =     0.00013238   -0.00008606    0.00028552
     atom   41 type  2   force =     0.00004142    0.00015836   -0.00010435
     atom   42 type  2   force =     0.00047078    0.00011596   -0.00028990
     atom   43 type  1   force =    -0.00024856   -0.00005151   -0.00011583
     atom   44 type  1   force =     0.00049335    0.00025286    0.00029612
     atom   45 type  2   force =     0.00010611   -0.00006530    0.10375087
     atom   46 type  2   force =    -0.07067482   -0.00007012   -0.02711186
     atom   47 type  2   force =     0.07065286    0.00033865   -0.02713490
     atom   48 type  3   force =    -0.00094752   -0.00064023    0.00126752
     atom   49 type  3   force =     0.00649362    0.00086844   -0.00429561
     atom   50 type  4   force =     0.00027865    0.00041042   -0.00012846
     atom   51 type  5   force =     0.00065277    0.00079472   -0.00030685
     atom   52 type  5   force =    -0.00007803    0.00033404    0.00019551
     atom   53 type  5   force =     0.00014067   -0.00054176   -0.00050154
     atom   54 type  5   force =     0.00041118   -0.00014192    0.00022212
     atom   55 type  5   force =    -0.00506013   -0.00198997    0.00466447
     atom   56 type  5   force =     0.00010602   -0.00010471    0.00025367
     atom   57 type  2   force =    -0.00085088    0.00081411    0.00145407
     atom   58 type  5   force =     0.00033364   -0.00064278   -0.00102505
     atom   59 type  5   force =     0.00039842   -0.00036219   -0.00036675

     Total force =     0.365988     Total SCF correction =     0.000624
  @ DRIVER MODE: Message from server: STATUS
  @ DRIVER MODE: Message from server: GETFORCE
  @ DRIVER MODE: Returning v,forces,stress,ensemble

     Writing output data file ./calc.save/
  @ DRIVER MODE: Message from server: EXIT
  @ DRIVE MODE: Exiting

     General routines

     Parallel routines

   This run was terminated on:   8:51:33  16Sep2021

   JOB DONE.