     Program PWSCF v.6.7GPU starts on 23Sep2021 at 18:55:51

     R & G space division:  proc/nbgrp/npool/nimage =       8
     Reading input from /storage/home/hcoda1/3/ntian30/research/carbon/CxH_vib/H2O_calc/ads_slab/CH3NHNHHO_a/out_0053/pw.inp
Warning: card &CELL ignored
Warning: card   CELL_DYNAMICS='IPI', ignored
Warning: card / ignored

     Current dimensions of program PWSCF are:
     Max number of different atomic species (ntypx) = 10
     Max number of k-points (npk) =  40000
     Max angular momentum in pseudopotentials (lmaxx) =  3
     Presently no symmetry can be used with electric field

     Message from routine cell_base_init:
     DEPRECATED: use true lattice parameter, not A to a.u. conversion factor

     IMPORTANT: XC functional enforced from input :
     Exchange-correlation= BEEF-VDW
                           (   1   4  43  14   2   0   0)
     Any further DFT definition will be discarded
     Please, verify this is what you really want

  @ DRIVER MODE: Connecting to
 qe_1139763_2941006.sched-torque.pace.gatech.edup_calnvu_scratch
  using UNIX socket
  @ DRIVER MODE: Message from server: STATUS
  @ DRIVER MODE: Message from server: INIT
  @ DRIVER MODE: Receiving replica           0          -1
  @ DRIVER MODE: Receiving encoded integer          25
  @ DRIVER MODE:  SCF:  T  FORCE:  T  STRESS:  F  VC:  F  ENSEMBLE:  F
  @ DRIVER MODE:  SCF:  T  FORCE:  T  STRESS:  F  VC:  F  ENSEMBLE:  F

     Using Slab Decomposition

     bravais-lattice index     =            0
     lattice parameter (alat)  =       1.8897  a.u.
     unit-cell volume          =    6658.9804 (a.u.)^3
     number of atoms/cell      =           57
     number of atomic types    =            5
     number of electrons       =       404.00
     number of Kohn-Sham states=          212
     kinetic-energy cutoff     =      29.3995  Ry
     charge density cutoff     =     293.9946  Ry
     scf convergence threshold =      7.3E-08
     mixing beta               =       0.0500
     number of iterations used =            8  plain     mixing
     Exchange-correlation= BEEF-VDW
                           (   1   4  43  14   2   0   0)

     celldm(1)=   1.889726  celldm(2)=   0.000000  celldm(3)=   0.000000
     celldm(4)=   0.000000  celldm(5)=   0.000000  celldm(6)=   0.000000

     crystal axes: (cart. coord. in units of alat)
               a(1) = (   6.579727   0.000000   0.000000 )
               a(2) = (  -0.000775   5.961596   0.000000 )
               a(3) = (   0.000000   0.000000  25.155947 )

     reciprocal axes: (cart. coord. in units 2 pi/alat)
               b(1) = (  0.151982  0.000020  0.000000 )
               b(2) = (  0.000000  0.167740  0.000000 )
               b(3) = (  0.000000  0.000000  0.039752 )

     PseudoPot. # 1 for Ti read from file:
     /storage/coda1/p-amedford6/0/shared/rich_project_chbe-medford/medford-share/data/pseudos_module/espresso/nninc/pbe/van/Ti.UPF
     MD5 check sum: 8e4df49b7f0d34bbd5052bf3f5ea0213
     Pseudo is Ultrasoft, Zval = 12.0
     Generated by new atomic code, or converted to UPF format
     Using radial grid of  851 points,  6 beta functions with:
                l(1) =   0
                l(2) =   0
                l(3) =   1
                l(4) =   1
                l(5) =   2
                l(6) =   2
     Q(r) pseudized with  8 coefficients,  rinner =    1.000   1.000   1.000
                                                       1.000   1.000

     PseudoPot. # 2 for O  read from file:
     /storage/coda1/p-amedford6/0/shared/rich_project_chbe-medford/medford-share/data/pseudos_module/espresso/nninc/pbe/van/O.UPF
     MD5 check sum: 78c19812648e8988a0fe644b0f25305e
     Pseudo is Ultrasoft, Zval =  6.0
     Generated by new atomic code, or converted to UPF format
     Using radial grid of  737 points,  4 beta functions with:
                l(1) =   0
                l(2) =   0
                l(3) =   1
                l(4) =   1
     Q(r) pseudized with  8 coefficients,  rinner =    0.800   0.800   0.800

     PseudoPot. # 3 for N  read from file:
     /storage/coda1/p-amedford6/0/shared/rich_project_chbe-medford/medford-share/data/pseudos_module/espresso/nninc/pbe/van/N.UPF
     MD5 check sum: 90d10febe142ad51ac9d5be1deb811c4
     Pseudo is Ultrasoft, Zval =  5.0
     Generated by new atomic code, or converted to UPF format
     Using radial grid of  729 points,  4 beta functions with:
                l(1) =   0
                l(2) =   0
                l(3) =   1
                l(4) =   1
     Q(r) pseudized with  8 coefficients,  rinner =    0.800   0.800   0.800

     PseudoPot. # 4 for C  read from file:
     /storage/coda1/p-amedford6/0/shared/rich_project_chbe-medford/medford-share/data/pseudos_module/espresso/nninc/pbe/van/C.UPF
     MD5 check sum: 1a69bf6b8db32088f5b2163dbdb77a27
     Pseudo is Ultrasoft, Zval =  4.0
     Generated by new atomic code, or converted to UPF format
     Using radial grid of  721 points,  4 beta functions with:
                l(1) =   0
                l(2) =   0
                l(3) =   1
                l(4) =   1
     Q(r) pseudized with  8 coefficients,  rinner =    0.800   0.800   0.800

     PseudoPot. # 5 for H  read from file:
     /storage/coda1/p-amedford6/0/shared/rich_project_chbe-medford/medford-share/data/pseudos_module/espresso/nninc/pbe/van/H.UPF
     MD5 check sum: b5ee9d7bfd3a09ee7748110bda690ff7
     Pseudo is Ultrasoft, Zval =  1.0
     Generated by new atomic code, or converted to UPF format
     Using radial grid of  615 points,  1 beta functions with:
                l(1) =   0
     Q(r) pseudized with  8 coefficients,  rinner =    0.800

     atomic species   valence    mass     pseudopotential
        Ti1           12.00    47.86700     Ti( 1.00)
        O1             6.00    15.99900     O ( 1.00)
        N1             5.00    14.00700     N ( 1.00)
        C1             4.00    12.01100     C ( 1.00)
        H1             1.00     1.00800     H ( 1.00)

     No symmetry found

   Cartesian axes

     site n.     atom                  positions (alat units)
         1           Ti1 tau(   1) = (   0.0004258   2.9801865   6.0000000  )
         2           Ti1 tau(   2) = (   3.2906075   1.4906267   6.0002472  )
         3           O1  tau(   3) = (   0.0006271   0.0005054   7.9858123  )
         4           O1  tau(   4) = (   3.2906025   0.0005020   7.3038282  )
         5           O1  tau(   5) = (   4.5942328   1.4918067   9.2879030  )
         6           O1  tau(   6) = (   1.9868534   1.4903216   9.2879459  )
         7           Ti1 tau(   7) = (   3.2907910   2.8959150   9.1758416  )
         8           Ti1 tau(   8) = (   0.0015273   1.4827037   9.2680791  )
         9           O1  tau(   9) = (   3.2953096   5.9421394  11.2884464  )
        10           O1  tau(  10) = (   0.0116148   5.9584955  10.6183126  )
        11           O1  tau(  11) = (   1.3041449   1.4755329  12.6321863  )
        12           O1  tau(  12) = (   5.3089623   1.4871430  12.6059879  )
        13           Ti1 tau(  13) = (   6.5683417   3.1096339  12.6902584  )
        14           Ti1 tau(  14) = (   3.3171551   1.3050273  12.6602886  )
        15           O1  tau(  15) = (   6.5441980   0.0188234  14.6400653  )
        16           O1  tau(  16) = (   3.3305379   0.0354930  13.9003223  )
        17           O1  tau(  17) = (   4.5569828   1.5958521  16.0354584  )
        18           O1  tau(  18) = (   2.0254723   1.5302355  15.9749146  )
        19           Ti1 tau(  19) = (   3.2479256   3.0467527  15.6517507  )
        20           Ti1 tau(  20) = (   6.4631478   1.5268535  15.8454044  )
        21           O1  tau(  21) = (   3.2904802   0.0005063   4.7018136  )
        22           O1  tau(  22) = (   6.5640117   0.0389496  17.1838934  )
        23           O1  tau(  23) = (   1.3043587   1.4918075   6.0039043  )
        24           O1  tau(  24) = (   5.2767064   1.4903225   6.0039473  )
        25           Ti1 tau(  25) = (   0.0000382   5.9609847   6.0000000  )
        26           Ti1 tau(  26) = (   3.2902200   4.4714249   6.0002472  )
        27           O1  tau(  27) = (   0.0002396   2.9813036   7.9858123  )
        28           O1  tau(  28) = (   3.2902150   2.9813002   7.3038282  )
        29           O1  tau(  29) = (   4.5938453   4.4726049   9.2879030  )
        30           O1  tau(  30) = (   1.9864658   4.4711199   9.2879459  )
        31           Ti1 tau(  31) = (   3.2891106   5.8743827   9.1763621  )
        32           Ti1 tau(  32) = (   0.0006254   4.4649316   9.2693709  )
        33           O1  tau(  33) = (   3.2909858   3.0116154  11.2527998  )
        34           O1  tau(  34) = (   0.0092240   2.9805883  10.6323155  )
        35           O1  tau(  35) = (   1.2990260   4.4726261  12.6330189  )
        36           O1  tau(  36) = (   5.2946483   4.4606482  12.6134978  )
        37           Ti1 tau(  37) = (   0.0333947   0.1262769  12.6104238  )
        38           Ti1 tau(  38) = (   3.2900473   4.3917186  12.4086616  )
        39           O1  tau(  39) = (   6.5591047   2.9728048  14.6463482  )
        40           O1  tau(  40) = (   3.3071982   2.9909887  13.8663713  )
        41           O1  tau(  41) = (   4.5374868   4.4330245  16.1128471  )
        42           O1  tau(  42) = (   2.0037144   4.4952966  15.9584979  )
        43           Ti1 tau(  43) = (   3.1911318   0.0573200  16.2061952  )
        44           Ti1 tau(  44) = (   6.5299348   4.6473693  16.0672121  )
        45           O1  tau(  45) = (   3.2900926   2.9813045   4.7018136  )
        46           O1  tau(  46) = (   1.3039711   4.4726057   6.0039043  )
        47           O1  tau(  47) = (   5.2763189   4.4711207   6.0039473  )
        48           N1  tau(  48) = (   1.2509970   2.8552009  18.3001485  )
        49           N1  tau(  49) = (   0.1090600   2.9410495  17.4585617  )
        50           C1  tau(  50) = (   1.1117997   3.5424446  19.5707766  )
        51           H1  tau(  51) = (   0.2696121   3.1616043  20.1716506  )
        52           H1  tau(  52) = (   2.0314425   3.4001925  20.1392599  )
        53           H1  tau(  53) = (   0.9679189   4.6079482  19.3970517  )
        54           H1  tau(  54) = (   1.5306055   1.8840965  18.4148701  )
        55           H1  tau(  55) = (   5.8389999   2.9001924  18.0325661  )
        56           O1  tau(  56) = (   3.2424369   0.1001929  18.0479484  )
        57           H1  tau(  57) = (   3.9792659   5.6040190  18.4897823  )

     number of k points=    10  Fermi-Dirac smearing, width (Ry)=  0.0073
                       cart. coord. in units 2pi/alat
        k(    1) = (   0.0000000   0.0000000   0.0000000), wk =   0.1250000
        k(    2) = (   0.0000000   0.0419351   0.0000000), wk =   0.2500000
        k(    3) = (   0.0000000  -0.0838702   0.0000000), wk =   0.1250000
        k(    4) = (   0.0379955   0.0000049   0.0000000), wk =   0.2500000
        k(    5) = (   0.0379955   0.0419400   0.0000000), wk =   0.2500000
        k(    6) = (   0.0379955  -0.0838652   0.0000000), wk =   0.2500000
        k(    7) = (   0.0379955  -0.0419301   0.0000000), wk =   0.2500000
        k(    8) = (  -0.0759910  -0.0000099   0.0000000), wk =   0.1250000
        k(    9) = (  -0.0759910   0.0419252   0.0000000), wk =   0.2500000
        k(   10) = (  -0.0759910  -0.0838800   0.0000000), wk =   0.1250000

     Initial potential from superposition of free atoms

     starting charge  387.99913, renormalised to  404.00000

     negative rho (up, down):  1.467E-02 0.000E+00

     %%%%%%%%%%%%%%%%%%%%%%%%%%%%%%%%%%%%%%%%%%%%%%%%%%%%%%%%%%%%%%%%%%%%%%%%
     %                                                                      %
     % You are using vdW-DF, which was implemented by the Thonhauser group. %
     % Please cite the following two papers that made this development      %
     % possible and the two reviews that describe the various versions:     %
     %                                                                      %
     %   T. Thonhauser et al., PRL 115, 136402 (2015).                      %
     %   T. Thonhauser et al., PRB 76, 125112 (2007).                       %
     %   K. Berland et al., Rep. Prog. Phys. 78, 066501 (2015).             %
     %   D.C. Langreth et al., J. Phys.: Condens. Matter 21, 084203 (2009). %
     %                                                                      %
     %                                                                      %
     % If you are calculating the stress with vdW-DF, please also cite:     %
     %                                                                      %
     %   R. Sabatini et al., J. Phys.: Condens. Matter 24, 424209 (2012).   %
     %                                                                      %
     %%%%%%%%%%%%%%%%%%%%%%%%%%%%%%%%%%%%%%%%%%%%%%%%%%%%%%%%%%%%%%%%%%%%%%%%

     Adding external electric field

     Computed dipole along edir(3) :
        Dipole              -12.7268 Ry au,        -32.3483 Debye
        Dipole field         -0.0240 Ry au,

        Potential amp.        2.2264 Ry
        Total length         46.3494 bohr

     Starting wfcs are  306 atomic wfcs
  @ DRIVER MODE: Message from server: STATUS
  @ DRIVER MODE: Message from server: POSDATA
  @ DRIVER MODE: Reading and sharing cell
  @ DRIVER MODE: Reading and sharing positions
  @ DRIVER MODE: Received positions

     Self-consistent Calculation

     iteration #  1     ecut=    29.40 Ry     beta= 0.05
     Davidson diagonalization with overlap
     c_bands:  4 eigenvalues not converged
     c_bands:  5 eigenvalues not converged
     c_bands:  5 eigenvalues not converged
     c_bands:  5 eigenvalues not converged
     c_bands:  1 eigenvalues not converged
     c_bands:  3 eigenvalues not converged
     c_bands:  4 eigenvalues not converged
     c_bands:  4 eigenvalues not converged
     ethr =  1.00E-05,  avg # of iterations = 24.4

[...]

     total energy              =   -2345.43293501 Ry
     estimated scf accuracy    <    7121.35874765 Ry

     iteration #  2     ecut=    29.40 Ry     beta= 0.05
     Davidson diagonalization with overlap
     ethr =  1.00E-02,  avg # of iterations = 23.6

[...]

     iteration # 55     ecut=    29.40 Ry     beta= 0.05
     Davidson diagonalization with overlap
     c_bands:  1 eigenvalues not converged
     ethr =  2.30E-07,  avg # of iterations =  9.7

[...]

     total energy              =   -2975.25028950 Ry
     estimated scf accuracy    <       0.00000013 Ry

     iteration # 81     ecut=    29.40 Ry     beta= 0.05
     Davidson diagonalization with overlap
     ethr =  2.30E-11,  avg # of iterations =  5.5

     negative rho (up, down):  1.542E-02 0.000E+00

     Adding external electric field

     Computed dipole along edir(3) :
        Dipole                0.5464 Ry au,          1.3889 Debye
        Dipole field          0.0010 Ry au,

        Potential amp.       -0.0956 Ry
        Total length         46.3494 bohr

     End of self-consistent calculation

          k = 0.0000 0.0000 0.0000 ( 18029 PWs)   bands (ev):

   -56.4235 -56.3898 -55.7652 -55.7303 -55.5332 -55.4721 -55.3468 -55.1985
   -55.1982 -55.1298 -55.0941 -55.0851 -55.0512 -55.0412 -54.9743 -54.8568
   -32.8564 -32.7078 -32.6798 -32.5912 -32.4999 -32.4820 -32.2453 -32.0114
   -31.9846 -31.9617 -31.9088 -31.9034 -31.8738 -31.7612 -31.7493 -31.7287
   -31.6981 -31.6869 -31.6744 -31.6341 -31.6165 -31.6132 -31.5649 -31.5437
   -31.5053 -31.4754 -31.4734 -31.4250 -31.4045 -31.4015 -31.4009 -31.3712
   -31.3573 -31.3566 -31.3205 -31.3021 -31.2957 -31.2953 -31.2727 -31.2285
   -31.2242 -31.2125 -31.1947 -31.1743 -31.1046 -31.1008 -31.1008 -31.0499
   -16.6123 -16.5676 -16.1956 -16.1695 -15.8571 -15.7967 -15.7689 -15.7355
   -15.6749 -15.5449 -15.4323 -15.3882 -15.3763 -15.3292 -15.1706 -15.0734
   -14.9755 -14.9022 -14.8947 -14.8488 -14.8412 -14.8088 -14.8010 -14.7948
   -14.7267 -14.6915 -14.5854 -14.5350 -14.4422 -14.2459 -14.1706 -13.5827
   -13.4729 -11.5368  -8.6647  -5.0351  -4.2589  -4.1633  -3.8198  -3.6870
    -3.5184  -3.4431  -3.2844  -3.2566  -3.1663  -3.0647  -3.0067  -2.9485
    -2.9373  -2.8326  -2.6832  -2.6315  -2.6255  -2.6056  -2.5965  -2.5086
    -2.4368  -2.4035  -2.3352  -2.2654  -2.2323  -2.1493  -2.1440  -2.1182
    -2.0970  -2.0657  -2.0203  -1.9743  -1.9477  -1.9302  -1.8120  -1.7736
    -1.7464  -1.7024  -1.6737  -1.5979  -1.5612  -1.5139  -1.4350  -1.3744
    -1.2540  -1.2276  -1.1607  -1.1474  -1.1194  -0.9952  -0.9568  -0.9221
    -0.8574  -0.8270  -0.7623  -0.7387  -0.7056  -0.6725  -0.6553  -0.6183
    -0.5111  -0.4901  -0.3554  -0.3403  -0.2831  -0.2208  -0.2059  -0.1520
    -0.1300  -0.0924  -0.0488  -0.0103   0.0286   0.0971   0.1388   0.2270
     0.2683   0.3261   0.4286   0.4576   0.4779   0.5408   0.5583   0.5933
     0.6384   0.7303   0.7404   0.8008   0.8747   0.9223   0.9378   1.0023
     1.0589   1.0800   1.1771   1.2059   1.2184   1.2725   1.4778   1.5182
     1.6996   2.4495   2.8413   2.9882   3.2740   3.3068   3.5678   3.8011
     3.8304   3.8326   3.9174   4.0266

[...]

          k = 0.0380-0.0419 0.0000 ( 17876 PWs)   bands (ev):

[...]

          k =-0.0760-0.0000 0.0000 ( 17886 PWs)   bands (ev):

[...]

          k =-0.0760-0.0839 0.0000 ( 17948 PWs)   bands (ev):

   -56.4068 -56.4064 -55.7524 -55.7428 -55.5281 -55.4772 -55.3453 -55.1997
   -55.1935 -55.1342 -55.0919 -55.0687 -55.0675 -55.0397 -54.9765 -54.8581
   -32.6936 -32.6932 -32.6734 -32.6727 -32.5441 -32.5439 -32.0704 -32.0620
   -31.9465 -31.9390 -31.9353 -31.9329 -31.8313 -31.7924 -31.7553 -31.7471
   -31.7027 -31.6974 -31.6464 -31.5986 -31.5713 -31.5492 -31.5307 -31.4879
   -31.4782 -31.4743 -31.4249 -31.4230 -31.4143 -31.4135 -31.4044 -31.3871
   -31.3734 -31.3470 -31.3261 -31.3127 -31.2998 -31.2931 -31.2918 -31.2873
   -31.2547 -31.2537 -31.2311 -31.2259 -31.1813 -31.1672 -31.1057 -31.0814
   -16.5428 -16.1856 -15.9928 -15.9889 -15.9097 -15.9071 -15.6986 -15.6930
   -15.5208 -15.4912 -15.4137 -15.2979 -15.2470 -15.1902 -15.1808 -15.1405
   -15.0828 -15.0637 -15.0189 -15.0023 -14.9395 -14.8962 -14.8490 -14.8035
   -14.7845 -14.7454 -14.6253 -14.5764 -14.5695 -14.3795 -14.3519 -13.5769
   -13.5762 -11.5434  -8.6714  -5.0433  -4.2571  -3.7925  -3.4059  -3.0943
    -3.0763  -3.0315  -3.0226  -2.8064  -2.7861  -2.7572  -2.6863  -2.6729
    -2.6235  -2.6159  -2.5233  -2.4821  -2.4408  -2.4267  -2.4123  -2.3557
    -2.3281  -2.2872  -2.2836  -2.2440  -2.2094  -2.1748  -2.1523  -2.1121
    -2.0827  -2.0709  -2.0327  -2.0007  -1.9740  -1.9259  -1.9049  -1.8753
    -1.8636  -1.8413  -1.6856  -1.6276  -1.5730  -1.5322  -1.5011  -1.4347
    -1.4261  -1.3704  -1.3119  -1.2783  -1.2509  -1.2302  -1.1452  -1.1151
    -1.0987  -1.0616  -1.0181  -0.9589  -0.8993  -0.8510  -0.7779  -0.6802
    -0.6518  -0.6346  -0.6074  -0.6054  -0.5654  -0.5075  -0.4189  -0.3667
    -0.3146  -0.2995  -0.2541  -0.2476  -0.2191  -0.1803  -0.1103   0.0107
     0.0772   0.1126   0.1693   0.2268   0.2840   0.3443   0.3857   0.4674
     0.5442   0.5676   0.6478   0.6900   0.8154   0.8576   0.9733   1.0131
     1.0484   1.0957   1.1660   1.2632   1.2870   1.3289   1.3307   1.3479
     1.3629   2.4750   3.4083   3.4113   3.4619   3.4693   3.7443   3.7525
     3.8853   3.8872   4.0140   4.0264

     the Fermi energy is     2.7218 ev

!    total energy              =   -2975.25029529 Ry
     estimated scf accuracy    <       0.00000003 Ry
     smearing contrib. (-TS)   =      -0.00749743 Ry
     internal energy E=F+TS    =   -2975.24279785 Ry

     The total energy is F=E-TS. E is the sum of the following terms:
     one-electron contribution =  -23777.01106557 Ry
     hartree contribution      =   11984.22352527 Ry
     xc contribution           =    -494.81134477 Ry
     ewald contribution        =    9312.35552370 Ry
     electric field correction =       0.00056351 Ry

     convergence has been achieved in  81 iterations

     Forces acting on atoms (cartesian axes, Ry/au):

     atom    1 type  1   force =     0.00002111   -0.00034831    0.11627851
     atom    2 type  1   force =    -0.00014525    0.00032020   -0.16017397
     atom    3 type  2   force =     0.00004546    0.00032469   -0.05330308
     atom    4 type  2   force =     0.00007103   -0.00041260    0.02641571
     atom    5 type  2   force =    -0.00500149   -0.00226180   -0.01005702
     atom    6 type  2   force =     0.00668416   -0.00183440   -0.01078906
     atom    7 type  1   force =    -0.00038634   -0.00640341    0.04587379
     atom    8 type  1   force =     0.00056958    0.01079185    0.08198062
     atom    9 type  2   force =    -0.00001913    0.00033188   -0.00031536
     atom   10 type  2   force =    -0.00140146    0.00154423   -0.05468622
     atom   11 type  2   force =     0.00068092    0.00027407   -0.00027000
     atom   12 type  2   force =    -0.00109691    0.00020403    0.00015351
     atom   13 type  1   force =    -0.00023184   -0.00092608    0.00054636
     atom   14 type  1   force =     0.00046425    0.00115731    0.00001699
     atom   15 type  2   force =    -0.00001771   -0.00052019    0.00043892
     atom   16 type  2   force =    -0.00026787    0.00065803    0.00049893
     atom   17 type  2   force =    -0.00036503   -0.00016417    0.00011122
     atom   18 type  2   force =     0.00037151    0.00033082   -0.00000585
     atom   19 type  1   force =    -0.00076174   -0.00059074   -0.00050958
     atom   20 type  1   force =     0.00042484   -0.00037207   -0.00051637
     atom   21 type  2   force =     0.00007501    0.00015185    0.09915667
     atom   22 type  2   force =     0.00025576   -0.00037304    0.00107757
     atom   23 type  2   force =    -0.07951859   -0.00002325   -0.03164329
     atom   24 type  2   force =     0.07943691    0.00040644   -0.03167817
     atom   25 type  1   force =     0.00017920   -0.00036371    0.11655918
     atom   26 type  1   force =    -0.00008392   -0.00141938   -0.16030174
     atom   27 type  2   force =     0.00013447   -0.00011856   -0.05168648
     atom   28 type  2   force =     0.00003084    0.00130123    0.02160690
     atom   29 type  2   force =    -0.00381794    0.00422728   -0.01245609
     atom   30 type  2   force =     0.00540210    0.00483926   -0.01304846
     atom   31 type  1   force =    -0.00015734    0.00313002    0.03084832
     atom   32 type  1   force =     0.00051476   -0.01301717    0.08284953
     atom   33 type  2   force =     0.00018016   -0.00053916    0.00007497
     atom   34 type  2   force =    -0.00049682    0.00168227   -0.06804001
     atom   35 type  2   force =    -0.00047238   -0.00064410   -0.00012879
     atom   36 type  2   force =     0.00009706   -0.00003037   -0.00004738
     atom   37 type  1   force =    -0.00012218   -0.00118845   -0.00002860
     atom   38 type  1   force =     0.00047680   -0.00027530    0.00035166
     atom   39 type  2   force =     0.00014597    0.00034913   -0.00003268
     atom   40 type  2   force =    -0.00011144   -0.00021088    0.00003841
     atom   41 type  2   force =     0.00147032   -0.00032857    0.00013479
     atom   42 type  2   force =    -0.00138288   -0.00081125    0.00013417
     atom   43 type  1   force =     0.00003514   -0.00092648   -0.00608295
     atom   44 type  1   force =     0.00045343    0.00051956   -0.00073602
     atom   45 type  2   force =     0.00007512   -0.00002907    0.09897739
     atom   46 type  2   force =    -0.07953193   -0.00001330   -0.03165756
     atom   47 type  2   force =     0.07946810    0.00043159   -0.03167942
     atom   48 type  3   force =    -0.00059336    0.00043318   -0.00059083
     atom   49 type  3   force =    -0.00109937    0.00036626    0.00000153
     atom   50 type  4   force =    -0.00050310    0.00066431   -0.00021619
     atom   51 type  5   force =    -0.00115646    0.00023957   -0.00012932
     atom   52 type  5   force =     0.00000974   -0.00044677    0.00024902
     atom   53 type  5   force =     0.00046534    0.00024797   -0.00059640
     atom   54 type  5   force =    -0.00022400   -0.00160947    0.00009232
     atom   55 type  5   force =    -0.00049917    0.00006030    0.00030583
     atom   56 type  2   force =     0.00796437   -0.00429739    0.01128730
     atom   57 type  5   force =    -0.00673784    0.00551212   -0.00465328

     Total force =     0.399672     Total SCF correction =     0.000432
  @ DRIVER MODE: Message from server: STATUS
  @ DRIVER MODE: Message from server: GETFORCE
  @ DRIVER MODE: Returning v,forces,stress,ensemble

     Writing output data file ./calc.save/
  @ DRIVER MODE: Message from server: EXIT
  @ DRIVE MODE: Exiting

     General routines

     Parallel routines

   This run was terminated on:  19:27:50  23Sep2021

   JOB DONE.