     Program PWSCF v.6.7GPU starts on  9Sep2021 at  3:16: 0

     R & G space division:  proc/nbgrp/npool/nimage =      10
     Reading input from /storage/home/hcoda1/3/ntian30/research/carbon/CxH_vib/CH_calc/ads_slab/CHNNHH_a/out_0015/pw.inp
Warning: card &CELL ignored
Warning: card   CELL_DYNAMICS='IPI', ignored
Warning: card / ignored

     Current dimensions of program PWSCF are:
     Max number of different atomic species (ntypx) = 10
     Max number of k-points (npk) =  40000
     Max angular momentum in pseudopotentials (lmaxx) =  3
     Presently no symmetry can be used with electric field

     Message from routine cell_base_init:
     DEPRECATED: use true lattice parameter, not A to a.u. conversion factor

     IMPORTANT: XC functional enforced from input :
     Exchange-correlation= BEEF-VDW
                           (   1   4  43  14   2   0   0)
     Any further DFT definition will be discarded
     Please, verify this is what you really want

  @ DRIVER MODE: Connecting to
 qe_1139763_2767382.sched-torque.pace.gatech.edulak72ve8_scratch
  using UNIX socket
  @ DRIVER MODE: Message from server: STATUS
  @ DRIVER MODE: Message from server: INIT
  @ DRIVER MODE: Receiving replica           0          -1
  @ DRIVER MODE: Receiving encoded integer          25
  @ DRIVER MODE:  SCF:  T  FORCE:  T  STRESS:  F  VC:  F  ENSEMBLE:  F
  @ DRIVER MODE:  SCF:  T  FORCE:  T  STRESS:  F  VC:  F  ENSEMBLE:  F

     Using Slab Decomposition

     bravais-lattice index     =            0
     lattice parameter (alat)  =       1.8897  a.u.
     unit-cell volume          =    6658.9804 (a.u.)^3
     number of atoms/cell      =           53
     number of atomic types    =            5
     number of electrons       =       395.00
     number of Kohn-Sham states=          207
     kinetic-energy cutoff     =      29.3995  Ry
     charge density cutoff     =     293.9946  Ry
     scf convergence threshold =      7.3E-08
     mixing beta               =       0.0500
     number of iterations used =            8  plain     mixing
     Exchange-correlation= BEEF-VDW
                           (   1   4  43  14   2   0   0)

     celldm(1)=   1.889726  celldm(2)=   0.000000  celldm(3)=   0.000000
     celldm(4)=   0.000000  celldm(5)=   0.000000  celldm(6)=   0.000000

     crystal axes: (cart. coord. in units of alat)
               a(1) = (   6.579727   0.000000   0.000000 )
               a(2) = (  -0.000775   5.961596   0.000000 )
               a(3) = (   0.000000   0.000000  25.155947 )

     reciprocal axes: (cart. coord. in units 2 pi/alat)
               b(1) = (  0.151982  0.000020  0.000000 )
               b(2) = (  0.000000  0.167740  0.000000 )
               b(3) = (  0.000000  0.000000  0.039752 )

     PseudoPot. # 1 for Ti read from file:
     /storage/coda1/p-amedford6/0/shared/rich_project_chbe-medford/medford-share/data/pseudos_module/espresso/nninc/pbe/van/Ti.UPF
     MD5 check sum: 8e4df49b7f0d34bbd5052bf3f5ea0213
     Pseudo is Ultrasoft, Zval = 12.0
     Generated by new atomic code, or converted to UPF format
     Using radial grid of  851 points,  6 beta functions with:
                l(1) =   0
                l(2) =   0
                l(3) =   1
                l(4) =   1
                l(5) =   2
                l(6) =   2
     Q(r) pseudized with  8 coefficients,  rinner =    1.000   1.000   1.000
                                                       1.000   1.000

     PseudoPot. # 2 for O  read from file:
     /storage/coda1/p-amedford6/0/shared/rich_project_chbe-medford/medford-share/data/pseudos_module/espresso/nninc/pbe/van/O.UPF
     MD5 check sum: 78c19812648e8988a0fe644b0f25305e
     Pseudo is Ultrasoft, Zval =  6.0
     Generated by new atomic code, or converted to UPF format
     Using radial grid of  737 points,  4 beta functions with:
                l(1) =   0
                l(2) =   0
                l(3) =   1
                l(4) =   1
     Q(r) pseudized with  8 coefficients,  rinner =    0.800   0.800   0.800

     PseudoPot. # 3 for N  read from file:
     /storage/coda1/p-amedford6/0/shared/rich_project_chbe-medford/medford-share/data/pseudos_module/espresso/nninc/pbe/van/N.UPF
     MD5 check sum: 90d10febe142ad51ac9d5be1deb811c4
     Pseudo is Ultrasoft, Zval =  5.0
     Generated by new atomic code, or converted to UPF format
     Using radial grid of  729 points,  4 beta functions with:
                l(1) =   0
                l(2) =   0
                l(3) =   1
                l(4) =   1
     Q(r) pseudized with  8 coefficients,  rinner =    0.800   0.800   0.800

     PseudoPot. # 4 for C  read from file:
     /storage/coda1/p-amedford6/0/shared/rich_project_chbe-medford/medford-share/data/pseudos_module/espresso/nninc/pbe/van/C.UPF
     MD5 check sum: 1a69bf6b8db32088f5b2163dbdb77a27
     Pseudo is Ultrasoft, Zval =  4.0
     Generated by new atomic code, or converted to UPF format
     Using radial grid of  721 points,  4 beta functions with:
                l(1) =   0
                l(2) =   0
                l(3) =   1
                l(4) =   1
     Q(r) pseudized with  8 coefficients,  rinner =    0.800   0.800   0.800

     PseudoPot. # 5 for H  read from file:
     /storage/coda1/p-amedford6/0/shared/rich_project_chbe-medford/medford-share/data/pseudos_module/espresso/nninc/pbe/van/H.UPF
     MD5 check sum: b5ee9d7bfd3a09ee7748110bda690ff7
     Pseudo is Ultrasoft, Zval =  1.0
     Generated by new atomic code, or converted to UPF format
     Using radial grid of  615 points,  1 beta functions with:
                l(1) =   0
     Q(r) pseudized with  8 coefficients,  rinner =    0.800

     atomic species   valence    mass     pseudopotential
        Ti1           12.00    47.86700     Ti( 1.00)
        O1             6.00    15.99900     O ( 1.00)
        N1             5.00    14.00700     N ( 1.00)
        C1             4.00    12.01100     C ( 1.00)
        H1             1.00     1.00800     H ( 1.00)

     No symmetry found

   Cartesian axes

     site n.     atom                  positions (alat units)
         1           Ti1 tau(   1) = (   0.0004258   2.9801865   6.0000000  )
         2           Ti1 tau(   2) = (   3.2906075   1.4906267   6.0002472  )
         3           O1  tau(   3) = (   0.0006271   0.0005054   7.9858123  )
         4           O1  tau(   4) = (   3.2906025   0.0005020   7.3038282  )
         5           O1  tau(   5) = (   4.5942328   1.4918067   9.2879030  )
         6           O1  tau(   6) = (   1.9868534   1.4903216   9.2879459  )
         7           Ti1 tau(   7) = (   3.2907910   2.8959150   9.1758416  )
         8           Ti1 tau(   8) = (   0.0015273   1.4827037   9.2680791  )
         9           O1  tau(   9) = (   3.2912281   5.9459940  11.3193265  )
        10           O1  tau(  10) = (   0.0116148   5.9584955  10.6183126  )
        11           O1  tau(  11) = (   1.3103257   1.4650607  12.6442557  )
        12           O1  tau(  12) = (   5.3047449   1.4806448  12.6312737  )
        13           Ti1 tau(  13) = (   6.5337005   3.0128982  12.6900614  )
        14           Ti1 tau(  14) = (   3.2207025   1.4698770  12.4715817  )
        15           O1  tau(  15) = (   6.5518216   5.9146589  14.6704082  )
        16           O1  tau(  16) = (   3.3240203   5.9583723  13.8895330  )
        17           O1  tau(  17) = (   4.5456974   1.5225049  16.1264218  )
        18           O1  tau(  18) = (   2.0489736   1.4727210  15.9535721  )
        19           Ti1 tau(  19) = (   3.2591190   2.9927146  15.6788090  )
        20           Ti1 tau(  20) = (   0.0289511   1.3544711  15.7732889  )
        21           O1  tau(  21) = (   3.2904802   0.0005063   4.7018136  )
        22           O1  tau(  22) = (   0.0559926   0.0451390  17.2112278  )
        23           O1  tau(  23) = (   1.3043587   1.4918075   6.0039043  )
        24           O1  tau(  24) = (   5.2767064   1.4903225   6.0039473  )
        25           Ti1 tau(  25) = (   0.0000382   5.9609847   6.0000000  )
        26           Ti1 tau(  26) = (   3.2902200   4.4714249   6.0002472  )
        27           O1  tau(  27) = (   0.0002396   2.9813036   7.9858123  )
        28           O1  tau(  28) = (   3.2902150   2.9813002   7.3038282  )
        29           O1  tau(  29) = (   4.5938453   4.4726049   9.2879030  )
        30           O1  tau(  30) = (   1.9864658   4.4711199   9.2879459  )
        31           Ti1 tau(  31) = (   3.2891106   5.8743827   9.1763621  )
        32           Ti1 tau(  32) = (   0.0006254   4.4649316   9.2693709  )
        33           O1  tau(  33) = (   3.2889932   2.9698301  11.3211337  )
        34           O1  tau(  34) = (   0.0092240   2.9805883  10.6323155  )
        35           O1  tau(  35) = (   1.3069247   4.4567274  12.6410950  )
        36           O1  tau(  36) = (   5.3013738   4.4587240  12.6283471  )
        37           Ti1 tau(  37) = (   6.5339814   0.0202798  12.5235249  )
        38           Ti1 tau(  38) = (   3.2191325   4.4512509  12.4750946  )
        39           O1  tau(  39) = (   6.5688456   2.9522374  14.7547250  )
        40           O1  tau(  40) = (   3.3031296   2.9710333  13.8824388  )
        41           O1  tau(  41) = (   4.5425837   4.4734130  15.9989242  )
        42           O1  tau(  42) = (   2.0771424   4.4889556  16.0364895  )
        43           Ti1 tau(  43) = (   3.3121389   0.0026565  15.6888161  )
        44           Ti1 tau(  44) = (   6.5128106   4.4989306  16.3061806  )
        45           O1  tau(  45) = (   3.2900926   2.9813045   4.7018136  )
        46           O1  tau(  46) = (   1.3039711   4.4726057   6.0039043  )
        47           O1  tau(  47) = (   5.2763189   4.4711207   6.0039473  )
        48           N1  tau(  48) = (   0.4628824   2.9849886  17.7976856  )
        49           C1  tau(  49) = (   1.4182946   2.9518240  18.6700831  )
        50           H1  tau(  50) = (   2.3503500   2.6358988  18.1556329  )
        51           N1  tau(  51) = (   5.7893717   3.5482605  18.2279111  )
        52           H1  tau(  52) = (   5.8942619   4.0012392  19.1365464  )
        53           H1  tau(  53) = (   5.0734348   2.8266848  18.2415795  )

     number of k points=    10  Fermi-Dirac smearing, width (Ry)=  0.0073
                       cart. coord. in units 2pi/alat
        k(    1) = (   0.0000000   0.0000000   0.0000000), wk =   0.1250000
        k(    2) = (   0.0000000   0.0419351   0.0000000), wk =   0.2500000
        k(    3) = (   0.0000000  -0.0838702   0.0000000), wk =   0.1250000
        k(    4) = (   0.0379955   0.0000049   0.0000000), wk =   0.2500000
        k(    5) = (   0.0379955   0.0419400   0.0000000), wk =   0.2500000
        k(    6) = (   0.0379955  -0.0838652   0.0000000), wk =   0.2500000
        k(    7) = (   0.0379955  -0.0419301   0.0000000), wk =   0.2500000
        k(    8) = (  -0.0759910  -0.0000099   0.0000000), wk =   0.1250000
        k(    9) = (  -0.0759910   0.0419252   0.0000000), wk =   0.2500000
        k(   10) = (  -0.0759910  -0.0838800   0.0000000), wk =   0.1250000

     Initial potential from superposition of free atoms

     starting charge  378.99916, renormalised to  395.00000

     negative rho (up, down):  1.775E-02 0.000E+00

     %%%%%%%%%%%%%%%%%%%%%%%%%%%%%%%%%%%%%%%%%%%%%%%%%%%%%%%%%%%%%%%%%%%%%%%%
     %                                                                      %
     % You are using vdW-DF, which was implemented by the Thonhauser group. %
     % Please cite the following two papers that made this development      %
     % possible and the two reviews that describe the various versions:     %
     %                                                                      %
     %   T. Thonhauser et al., PRL 115, 136402 (2015).                      %
     %   T. Thonhauser et al., PRB 76, 125112 (2007).                       %
     %   K. Berland et al., Rep. Prog. Phys. 78, 066501 (2015).             %
     %   D.C. Langreth et al., J. Phys.: Condens. Matter 21, 084203 (2009). %
     %                                                                      %
     %                                                                      %
     % If you are calculating the stress with vdW-DF, please also cite:     %
     %                                                                      %
     %   R. Sabatini et al., J. Phys.: Condens. Matter 24, 424209 (2012).   %
     %                                                                      %
     %%%%%%%%%%%%%%%%%%%%%%%%%%%%%%%%%%%%%%%%%%%%%%%%%%%%%%%%%%%%%%%%%%%%%%%%

     Adding external electric field

     Computed dipole along edir(3) :
        Dipole               -8.0620 Ry au,        -20.4914 Debye
        Dipole field         -0.0152 Ry au,

        Potential amp.        1.4103 Ry
        Total length         46.3494 bohr

     Starting wfcs are  299 atomic wfcs
  @ DRIVER MODE: Message from server: STATUS
  @ DRIVER MODE: Message from server: POSDATA
  @ DRIVER MODE: Reading and sharing cell
  @ DRIVER MODE: Reading and sharing positions
  @ DRIVER MODE: Received positions

     Self-consistent Calculation

     iteration #  1     ecut=    29.40 Ry     beta= 0.05
     Davidson diagonalization with overlap
     c_bands:  1 eigenvalues not converged
     c_bands:  1 eigenvalues not converged
     c_bands:  2 eigenvalues not converged
     c_bands:  3 eigenvalues not converged
     c_bands:  3 eigenvalues not converged
     c_bands:  2 eigenvalues not converged
     c_bands:  1 eigenvalues not converged
     ethr =  1.00E-05,  avg # of iterations = 19.3

[...]

     total energy              =   -2614.87394867 Ry
     estimated scf accuracy    <    3583.89044618 Ry

[...]

     iteration #  3     ecut=    29.40 Ry     beta= 0.05
     Davidson diagonalization with overlap
     ethr =  1.00E-02,  avg # of iterations = 14.8

[...]

     iteration # 89     ecut=    29.40 Ry     beta= 0.05
     Davidson diagonalization with overlap
     c_bands:  1 eigenvalues not converged
     c_bands:  1 eigenvalues not converged
     ethr =  2.59E-11,  avg # of iterations = 16.4

[...]

     total energy              =   -2939.00606870 Ry
     estimated scf accuracy    <       0.00000012 Ry

     iteration # 90     ecut=    29.40 Ry     beta= 0.05
     Davidson diagonalization with overlap
     ethr =  2.59E-11,  avg # of iterations =  9.1

     negative rho (up, down):  1.647E-02 0.000E+00

     Adding external electric field

     Computed dipole along edir(3) :
        Dipole                0.3061 Ry au,          0.7781 Debye
        Dipole field          0.0006 Ry au,

        Potential amp.       -0.0536 Ry
        Total length         46.3494 bohr

     End of self-consistent calculation

          k = 0.0000 0.0000 0.0000 ( 18029 PWs)   bands (ev):

   -56.1068 -56.1041 -56.0727 -56.0678 -55.9944 -55.9601 -55.9542 -55.9191
   -55.9038 -55.8696 -55.8680 -55.8337 -55.6485 -55.5851 -55.0766 -55.0425
   -32.6632 -32.5881 -32.4861 -32.4258 -32.4116 -32.4077 -32.3993 -32.3591
   -32.3467 -32.3318 -32.3060 -32.2846 -32.2782 -32.2591 -32.2517 -32.2450
   -32.2100 -32.1963 -32.1937 -32.1892 -32.1850 -32.1641 -32.1581 -32.1416
   -32.1166 -32.1023 -32.1012 -32.1002 -32.0952 -32.0918 -32.0703 -32.0435
   -32.0432 -32.0286 -32.0211 -32.0018 -31.9800 -31.9527 -31.8757 -31.8474
   -31.8007 -31.7376 -31.4832 -31.3960 -31.3735 -31.3002 -31.2137 -31.1025
   -17.9767 -16.8723 -16.5827 -16.3674 -16.2618 -16.2463 -16.1398 -15.9546
   -15.8214 -15.7930 -15.6864 -15.6798 -15.6390 -15.6263 -15.5975 -15.5739
   -15.5653 -15.5390 -15.5364 -15.5203 -15.4757 -15.4526 -15.4333 -15.3370
   -15.2973 -15.2369 -15.2146 -15.1535 -15.0313 -14.7964 -13.5787 -13.4625
   -13.3108  -8.0446  -6.3607  -4.3504  -4.2463  -4.0699  -4.0094  -3.9666
    -3.9598  -3.7190  -3.6860  -3.3272  -3.2948  -3.2748  -3.2646  -3.2532
    -3.1368  -3.0184  -2.9627  -2.9208  -2.9106  -2.8999  -2.8925  -2.8799
    -2.8538  -2.8318  -2.7279  -2.6836  -2.6528  -2.5426  -2.5244  -2.4338
    -2.4167  -2.4055  -2.3708  -2.3506  -2.3417  -2.3156  -2.3044  -2.2777
    -2.1929  -2.1440  -2.0288  -1.9644  -1.8857  -1.8506  -1.7031  -1.6592
    -1.5714  -1.5652  -1.5464  -1.5243  -1.4912  -1.4051  -1.3306  -1.2414
    -1.1993  -1.1615  -1.1259  -1.0825  -1.0010  -0.9821  -0.9646  -0.8685
    -0.8645  -0.8553  -0.8121  -0.6107  -0.5860  -0.5520  -0.5393  -0.4620
    -0.4036  -0.3867  -0.3660  -0.3180  -0.2578  -0.1947  -0.1488  -0.1338
    -0.1224  -0.1192  -0.0846  -0.0587   0.0842   0.0947   0.1888   0.2007
     0.2240   0.3509   0.5250   0.5626   0.5844   0.7049   0.8766   0.9458
     1.0480   1.1388   1.5162   1.5615   2.4087   3.0312   3.1176   3.1514
     3.1708   3.2763   3.3091   3.4786   3.4943   3.5294   3.5486

[...]

          k = 0.0380-0.0419 0.0000 ( 17876 PWs)   bands (ev):

[...]

          k =-0.0760-0.0000 0.0000 ( 17886 PWs)   bands (ev):

[...]

          k =-0.0760-0.0839 0.0000 ( 17948 PWs)   bands (ev):

   -56.0908 -56.0886 -56.0878 -56.0839 -55.9852 -55.9634 -55.9505 -55.9285
   -55.8887 -55.8843 -55.8543 -55.8476 -55.6453 -55.5881 -55.0595 -55.0594
   -32.4667 -32.4622 -32.4041 -32.4027 -32.3857 -32.3840 -32.3653 -32.3530
   -32.3340 -32.3147 -32.2912 -32.2747 -32.2489 -32.2392 -32.2385 -32.2199
   -32.2198 -32.2105 -32.2080 -32.2021 -32.2010 -32.1929 -32.1871 -32.1731
   -32.1682 -32.1500 -32.1337 -32.1310 -32.0881 -32.0861 -32.0844 -32.0804
   -32.0721 -32.0692 -32.0659 -32.0639 -32.0602 -31.9706 -31.8875 -31.8406
   -31.8040 -31.7938 -31.3862 -31.3862 -31.2961 -31.2959 -31.2570 -31.2570
   -17.9668 -16.3080 -16.2921 -16.0758 -16.0311 -16.0269 -16.0063 -15.9178
   -15.8276 -15.8085 -15.7944 -15.7768 -15.7617 -15.6816 -15.6560 -15.6338
   -15.6298 -15.6171 -15.5623 -15.5565 -15.5533 -15.5484 -15.5284 -15.4951
   -15.4128 -15.4078 -15.3968 -15.1587 -15.0932 -15.0214 -13.5645 -13.5641
   -13.3237  -8.0026  -6.2991  -4.3646  -3.6010  -3.5822  -3.3559  -3.3089
    -3.2831  -3.2740  -3.1591  -3.0567  -3.0266  -3.0141  -2.9755  -2.9573
    -2.9449  -2.9324  -2.9197  -2.9005  -2.8748  -2.8410  -2.8356  -2.7897
    -2.7729  -2.7519  -2.7346  -2.7130  -2.7119  -2.6713  -2.6655  -2.6267
    -2.5886  -2.5431  -2.4334  -2.3799  -2.3411  -2.2911  -2.2353  -2.2243
    -2.2153  -2.1618  -2.1566  -2.1225  -2.0374  -1.9618  -1.8264  -1.8046
    -1.7716  -1.7306  -1.6975  -1.6004  -1.5565  -1.5071  -1.4554  -1.3993
    -1.3875  -1.3448  -1.3079  -1.2415  -1.2247  -1.1850  -1.1637  -1.1015
    -1.0601  -1.0559  -0.9922  -0.9248  -0.8671  -0.8640  -0.8435  -0.8279
    -0.7707  -0.7227  -0.6561  -0.6070  -0.5653  -0.4682  -0.4113  -0.2950
    -0.1867  -0.0676   0.0032   0.0073   0.0628   0.1403   0.1857   0.2203
     0.2310   0.2492   0.3409   0.4126   0.4316   0.4454   0.5139   0.6982
     1.3105   1.3117   1.3807   1.3816   2.4058   3.3196   3.3578   3.3721
     3.4033   3.5482   3.5509   3.5628   3.5665   3.6854   3.7340

     the Fermi energy is     3.0285 ev

!    total energy              =   -2939.00607692 Ry
     estimated scf accuracy    <       0.00000005 Ry
     smearing contrib. (-TS)   =      -0.02201115 Ry
     internal energy E=F+TS    =   -2938.98406576 Ry

     The total energy is F=E-TS. E is the sum of the following terms:
     one-electron contribution =  -24452.71289797 Ry
     hartree contribution      =   12311.42621802 Ry
     xc contribution           =    -485.12748268 Ry
     ewald contribution        =    9687.42992000 Ry
     electric field correction =       0.00017686 Ry

     convergence has been achieved in  90 iterations

     Forces acting on atoms (cartesian axes, Ry/au):

     atom    1 type  1   force =     0.00018513   -0.00028131    0.09689406
     atom    2 type  1   force =     0.00006170   -0.00078570   -0.17498542
     atom    3 type  2   force =     0.00014838   -0.00008793   -0.02554413
     atom    4 type  2   force =    -0.00003145   -0.00142321    0.05152874
     atom    5 type  2   force =    -0.01203248   -0.00173319    0.00279715
     atom    6 type  2   force =     0.01345564   -0.00134086    0.00223814
     atom    7 type  1   force =     0.00040610    0.00015637   -0.01206013
     atom    8 type  1   force =     0.00018671    0.02418681    0.02899331
     atom    9 type  2   force =    -0.00004382    0.00051783   -0.00006131
     atom   10 type  2   force =    -0.00266137    0.00014592   -0.01162504
     atom   11 type  2   force =    -0.00002437    0.00026580    0.00004332
     atom   12 type  2   force =    -0.00024837   -0.00001639    0.00013946
     atom   13 type  1   force =    -0.00012505    0.00115237   -0.00014741
     atom   14 type  1   force =    -0.00000244    0.00049636    0.00004682
     atom   15 type  2   force =     0.00008005   -0.00020325   -0.00006466
     atom   16 type  2   force =    -0.00020938    0.00022758   -0.00031438
     atom   17 type  2   force =     0.00033827    0.00017303   -0.00037235
     atom   18 type  2   force =    -0.00027964    0.00005799   -0.00020237
     atom   19 type  1   force =    -0.00017924   -0.00017742   -0.00048624
     atom   20 type  1   force =     0.00017673    0.00008699   -0.00010791
     atom   21 type  2   force =     0.00006811   -0.00007495    0.10294971
     atom   22 type  2   force =     0.00002034   -0.00024854   -0.00041777
     atom   23 type  2   force =    -0.07171134   -0.00016930   -0.02790620
     atom   24 type  2   force =     0.07161727    0.00028607   -0.02793826
     atom   25 type  1   force =     0.00003350   -0.00026002    0.09679366
     atom   26 type  1   force =    -0.00001157   -0.00017419   -0.17515245
     atom   27 type  2   force =     0.00015942   -0.00026893   -0.02421052
     atom   28 type  2   force =     0.00001588   -0.00118154    0.05208077
     atom   29 type  2   force =    -0.01218699    0.00078225    0.00247890
     atom   30 type  2   force =     0.01349530    0.00126612    0.00189085
     atom   31 type  1   force =     0.00045035    0.00286226   -0.01394608
     atom   32 type  1   force =     0.00038378   -0.02518544    0.03048532
     atom   33 type  2   force =     0.00004440   -0.00008309   -0.00016269
     atom   34 type  2   force =    -0.00183661   -0.00050444   -0.02069955
     atom   35 type  2   force =     0.00000328    0.00021772   -0.00005708
     atom   36 type  2   force =     0.00016958    0.00032758    0.00016063
     atom   37 type  1   force =    -0.00021520   -0.00085610   -0.00002574
     atom   38 type  1   force =     0.00008539    0.00013102   -0.00021385
     atom   39 type  2   force =     0.00008799    0.00035045   -0.00024032
     atom   40 type  2   force =    -0.00005982    0.00008405    0.00043116
     atom   41 type  2   force =     0.00048916    0.00004563   -0.00015242
     atom   42 type  2   force =    -0.00026615   -0.00005037   -0.00025891
     atom   43 type  1   force =    -0.00037478    0.00032389    0.00008034
     atom   44 type  1   force =     0.00011080    0.00013575    0.00012028
     atom   45 type  2   force =     0.00005400   -0.00006510    0.10296603
     atom   46 type  2   force =    -0.07174527   -0.00011518   -0.02789713
     atom   47 type  2   force =     0.07163610    0.00025496   -0.02792176
     atom   48 type  3   force =    -0.00001600   -0.00032573   -0.00021732
     atom   49 type  4   force =     0.00201531   -0.00134203   -0.00110304
     atom   50 type  5   force =    -0.00207130    0.00206833    0.00098753
     atom   51 type  3   force =     0.00027087    0.00053586    0.00014262
     atom   52 type  5   force =     0.00000260   -0.00009086   -0.00001996
     atom   53 type  5   force =     0.00008050   -0.00009394    0.00026358

     Total force =     0.368993     Total SCF correction =     0.000722
  @ DRIVER MODE: Message from server: STATUS
  @ DRIVER MODE: Message from server: GETFORCE
  @ DRIVER MODE: Returning v,forces,stress,ensemble

     Writing output data file ./calc.save/
  @ DRIVER MODE: Message from server: EXIT
  @ DRIVE MODE: Exiting

     General routines

     Parallel routines

   This run was terminated on:   3:48: 0   9Sep2021

   JOB DONE.