     Program PWSCF v.6.7GPU starts on 22Sep2021 at 20:14: 9

     R & G space division:  proc/nbgrp/npool/nimage =      10
     Reading input from /storage/home/hcoda1/3/ntian30/research/carbon/CxH_vib/H2O_calc/ads_slab/CH2NHO_a/out_0013/pw.inp
Warning: card &CELL ignored
Warning: card   CELL_DYNAMICS='IPI', ignored
Warning: card / ignored

     Current dimensions of program PWSCF are:
     Max number of different atomic species (ntypx) = 10
     Max number of k-points (npk) =  40000
     Max angular momentum in pseudopotentials (lmaxx) =  3
     Presently no symmetry can be used with electric field

     Message from routine cell_base_init:
     DEPRECATED: use true lattice parameter, not A to a.u. conversion factor

     IMPORTANT: XC functional enforced from input :
     Exchange-correlation= BEEF-VDW
                           (   1   4  43  14   2   0   0)
     Any further DFT definition will be discarded
     Please, verify this is what you really want

  @ DRIVER MODE: Connecting to
 qe_1139763_2937321.sched-torque.pace.gatech.edu8dnwhjh8_scratch
  using UNIX socket
  @ DRIVER MODE: Message from server: STATUS
  @ DRIVER MODE: Message from server: INIT
  @ DRIVER MODE: Receiving replica           0          -1
  @ DRIVER MODE: Receiving encoded integer          25
  @ DRIVER MODE:  SCF:  T  FORCE:  T  STRESS:  F  VC:  F  ENSEMBLE:  F
  @ DRIVER MODE:  SCF:  T  FORCE:  T  STRESS:  F  VC:  F  ENSEMBLE:  F

     Using Slab Decomposition

     bravais-lattice index     =            0
     lattice parameter (alat)  =       1.8897  a.u.
     unit-cell volume          =    6658.9804 (a.u.)^3
     number of atoms/cell      =           53
     number of atomic types    =            5
     number of electrons       =       396.00
     number of Kohn-Sham states=          208
     kinetic-energy cutoff     =      29.3995  Ry
     charge density cutoff     =     293.9946  Ry
     scf convergence threshold =      7.3E-08
     mixing beta               =       0.0500
     number of iterations used =            8  plain     mixing
     Exchange-correlation= BEEF-VDW
                           (   1   4  43  14   2   0   0)

     celldm(1)=   1.889726  celldm(2)=   0.000000  celldm(3)=   0.000000
     celldm(4)=   0.000000  celldm(5)=   0.000000  celldm(6)=   0.000000

     crystal axes: (cart. coord. in units of alat)
               a(1) = (   6.579727   0.000000   0.000000 )
               a(2) = (  -0.000775   5.961596   0.000000 )
               a(3) = (   0.000000   0.000000  25.155947 )

     reciprocal axes: (cart. coord. in units 2 pi/alat)
               b(1) = (  0.151982  0.000020  0.000000 )
               b(2) = (  0.000000  0.167740  0.000000 )
               b(3) = (  0.000000  0.000000  0.039752 )

     PseudoPot. # 1 for Ti read from file:
     /storage/coda1/p-amedford6/0/shared/rich_project_chbe-medford/medford-share/data/pseudos_module/espresso/nninc/pbe/van/Ti.UPF
     MD5 check sum: 8e4df49b7f0d34bbd5052bf3f5ea0213
     Pseudo is Ultrasoft, Zval = 12.0
     Generated by new atomic code, or converted to UPF format
     Using radial grid of  851 points,  6 beta functions with:
                l(1) =   0
                l(2) =   0
                l(3) =   1
                l(4) =   1
                l(5) =   2
                l(6) =   2
     Q(r) pseudized with  8 coefficients,  rinner =    1.000   1.000   1.000
                                                       1.000   1.000

     PseudoPot. # 2 for O  read from file:
     /storage/coda1/p-amedford6/0/shared/rich_project_chbe-medford/medford-share/data/pseudos_module/espresso/nninc/pbe/van/O.UPF
     MD5 check sum: 78c19812648e8988a0fe644b0f25305e
     Pseudo is Ultrasoft, Zval =  6.0
     Generated by new atomic code, or converted to UPF format
     Using radial grid of  737 points,  4 beta functions with:
                l(1) =   0
                l(2) =   0
                l(3) =   1
                l(4) =   1
     Q(r) pseudized with  8 coefficients,  rinner =    0.800   0.800   0.800

     PseudoPot. # 3 for N  read from file:
     /storage/coda1/p-amedford6/0/shared/rich_project_chbe-medford/medford-share/data/pseudos_module/espresso/nninc/pbe/van/N.UPF
     MD5 check sum: 90d10febe142ad51ac9d5be1deb811c4
     Pseudo is Ultrasoft, Zval =  5.0
     Generated by new atomic code, or converted to UPF format
     Using radial grid of  729 points,  4 beta functions with:
                l(1) =   0
                l(2) =   0
                l(3) =   1
                l(4) =   1
     Q(r) pseudized with  8 coefficients,  rinner =    0.800   0.800   0.800

     PseudoPot. # 4 for C  read from file:
     /storage/coda1/p-amedford6/0/shared/rich_project_chbe-medford/medford-share/data/pseudos_module/espresso/nninc/pbe/van/C.UPF
     MD5 check sum: 1a69bf6b8db32088f5b2163dbdb77a27
     Pseudo is Ultrasoft, Zval =  4.0
     Generated by new atomic code, or converted to UPF format
     Using radial grid of  721 points,  4 beta functions with:
                l(1) =   0
                l(2) =   0
                l(3) =   1
                l(4) =   1
     Q(r) pseudized with  8 coefficients,  rinner =    0.800   0.800   0.800

     PseudoPot. # 5 for H  read from file:
     /storage/coda1/p-amedford6/0/shared/rich_project_chbe-medford/medford-share/data/pseudos_module/espresso/nninc/pbe/van/H.UPF
     MD5 check sum: b5ee9d7bfd3a09ee7748110bda690ff7
     Pseudo is Ultrasoft, Zval =  1.0
     Generated by new atomic code, or converted to UPF format
     Using radial grid of  615 points,  1 beta functions with:
                l(1) =   0
     Q(r) pseudized with  8 coefficients,  rinner =    0.800

     atomic species   valence    mass     pseudopotential
        Ti1           12.00    47.86700     Ti( 1.00)
        O1             6.00    15.99900     O ( 1.00)
        N1             5.00    14.00700     N ( 1.00)
        C1             4.00    12.01100     C ( 1.00)
        H1             1.00     1.00800     H ( 1.00)

     No symmetry found

   Cartesian axes

     site n.     atom                  positions (alat units)
         1           Ti1 tau(   1) = (   0.0004258   2.9801865   6.0000000  )
         2           Ti1 tau(   2) = (   3.2906075   1.4906267   6.0002472  )
         3           O1  tau(   3) = (   0.0006271   0.0005054   7.9858123  )
         4           O1  tau(   4) = (   3.2906025   0.0005020   7.3038282  )
         5           O1  tau(   5) = (   4.5942328   1.4918067   9.2879030  )
         6           O1  tau(   6) = (   1.9868534   1.4903216   9.2879459  )
         7           Ti1 tau(   7) = (   3.2907910   2.8959150   9.1758416  )
         8           Ti1 tau(   8) = (   0.0015273   1.4827037   9.2680791  )
         9           O1  tau(   9) = (   3.3049783   5.9490022  11.2668993  )
        10           O1  tau(  10) = (   0.0116148   5.9584955  10.6183126  )
        11           O1  tau(  11) = (   1.3054562   1.4902858  12.6165390  )
        12           O1  tau(  12) = (   5.3128925   1.4966897  12.6222362  )
        13           Ti1 tau(  13) = (   0.0227526   2.8513963  12.7011302  )
        14           Ti1 tau(  14) = (   3.3146314   1.3157910  12.6511296  )
        15           O1  tau(  15) = (   0.0292331   0.0037381  14.6451560  )
        16           O1  tau(  16) = (   3.3105559   0.0332628  13.8611824  )
        17           O1  tau(  17) = (   4.5798417   1.5533887  16.0574704  )
        18           O1  tau(  18) = (   2.0659959   1.5620864  16.0379710  )
        19           Ti1 tau(  19) = (   3.3199680   3.0150018  15.6455324  )
        20           Ti1 tau(  20) = (   6.5662113   1.5085715  15.8767718  )
        21           O1  tau(  21) = (   3.2904802   0.0005063   4.7018136  )
        22           O1  tau(  22) = (   0.0336757   0.0283057  17.1922241  )
        23           O1  tau(  23) = (   1.3043587   1.4918075   6.0039043  )
        24           O1  tau(  24) = (   5.2767064   1.4903225   6.0039473  )
        25           Ti1 tau(  25) = (   0.0000382   5.9609847   6.0000000  )
        26           Ti1 tau(  26) = (   3.2902200   4.4714249   6.0002472  )
        27           O1  tau(  27) = (   0.0002396   2.9813036   7.9858123  )
        28           O1  tau(  28) = (   3.2902150   2.9813002   7.3038282  )
        29           O1  tau(  29) = (   4.5938453   4.4726049   9.2879030  )
        30           O1  tau(  30) = (   1.9864658   4.4711199   9.2879459  )
        31           Ti1 tau(  31) = (   3.2891106   5.8743827   9.1763621  )
        32           Ti1 tau(  32) = (   0.0006254   4.4649316   9.2693709  )
        33           O1  tau(  33) = (   3.3044035   3.0314990  11.2389097  )
        34           O1  tau(  34) = (   0.0092240   2.9805883  10.6323155  )
        35           O1  tau(  35) = (   1.3090660   4.4724101  12.6204063  )
        36           O1  tau(  36) = (   5.3093727   4.4739031  12.6240458  )
        37           Ti1 tau(  37) = (   0.0315986   5.8296340  12.6341251  )
        38           Ti1 tau(  38) = (   3.3217628   4.4127071  12.4104736  )
        39           O1  tau(  39) = (   0.0286309   2.9529265  14.6620113  )
        40           O1  tau(  40) = (   3.3111648   2.9942334  13.8608864  )
        41           O1  tau(  41) = (   4.5850423   4.4544105  16.0703757  )
        42           O1  tau(  42) = (   2.0817017   4.4739285  16.0881885  )
        43           Ti1 tau(  43) = (   3.2564312   0.0343949  16.3346327  )
        44           Ti1 tau(  44) = (   6.5491996   4.6347227  16.0815441  )
        45           O1  tau(  45) = (   3.2900926   2.9813045   4.7018136  )
        46           O1  tau(  46) = (   1.3039711   4.4726057   6.0039043  )
        47           O1  tau(  47) = (   5.2763189   4.4711207   6.0039473  )
        48           N1  tau(  48) = (   0.0476609   2.9608057  17.4046342  )
        49           C1  tau(  49) = (   0.0744360   2.8714357  18.6596517  )
        50           H1  tau(  50) = (   0.0710575   3.7616739  19.3027278  )
        51           H1  tau(  51) = (   0.0872865   1.8968143  19.1621030  )
        52           O1  tau(  52) = (   3.2917830   0.0572188  18.1605702  )
        53           H1  tau(  53) = (   2.8914424   5.3141097  18.6896264  )

     number of k points=    10  Fermi-Dirac smearing, width (Ry)=  0.0073
                       cart. coord. in units 2pi/alat
        k(    1) = (   0.0000000   0.0000000   0.0000000), wk =   0.1250000
        k(    2) = (   0.0000000   0.0419351   0.0000000), wk =   0.2500000
        k(    3) = (   0.0000000  -0.0838702   0.0000000), wk =   0.1250000
        k(    4) = (   0.0379955   0.0000049   0.0000000), wk =   0.2500000
        k(    5) = (   0.0379955   0.0419400   0.0000000), wk =   0.2500000
        k(    6) = (   0.0379955  -0.0838652   0.0000000), wk =   0.2500000
        k(    7) = (   0.0379955  -0.0419301   0.0000000), wk =   0.2500000
        k(    8) = (  -0.0759910  -0.0000099   0.0000000), wk =   0.1250000
        k(    9) = (  -0.0759910   0.0419252   0.0000000), wk =   0.2500000
        k(   10) = (  -0.0759910  -0.0838800   0.0000000), wk =   0.1250000

     Initial potential from superposition of free atoms

     starting charge  379.99917, renormalised to  396.00000

     negative rho (up, down):  1.694E-02 0.000E+00

     %%%%%%%%%%%%%%%%%%%%%%%%%%%%%%%%%%%%%%%%%%%%%%%%%%%%%%%%%%%%%%%%%%%%%%%%
     %                                                                      %
     % You are using vdW-DF, which was implemented by the Thonhauser group. %
     % Please cite the following two papers that made this development      %
     % possible and the two reviews that describe the various versions:     %
     %                                                                      %
     %   T. Thonhauser et al., PRL 115, 136402 (2015).                      %
     %   T. Thonhauser et al., PRB 76, 125112 (2007).                       %
     %   K. Berland et al., Rep. Prog. Phys. 78, 066501 (2015).             %
     %   D.C. Langreth et al., J. Phys.: Condens. Matter 21, 084203 (2009). %
     %                                                                      %
     %                                                                      %
     % If you are calculating the stress with vdW-DF, please also cite:     %
     %                                                                      %
     %   R. Sabatini et al., J. Phys.: Condens. Matter 24, 424209 (2012).   %
     %                                                                      %
     %%%%%%%%%%%%%%%%%%%%%%%%%%%%%%%%%%%%%%%%%%%%%%%%%%%%%%%%%%%%%%%%%%%%%%%%

     Adding external electric field

     Computed dipole along edir(3) :
        Dipole               -7.7051 Ry au,        -19.5845 Debye
        Dipole field         -0.0145 Ry au,

        Potential amp.        1.3479 Ry
        Total length         46.3494 bohr

     Starting wfcs are  299 atomic wfcs
  @ DRIVER MODE: Message from server: STATUS
  @ DRIVER MODE: Message from server: POSDATA
  @ DRIVER MODE: Reading and sharing cell
  @ DRIVER MODE: Reading and sharing positions
  @ DRIVER MODE: Received positions

     Self-consistent Calculation

     iteration #  1     ecut=    29.40 Ry     beta= 0.05
     Davidson diagonalization with overlap
     c_bands:  1 eigenvalues not converged
     c_bands:  4 eigenvalues not converged
     c_bands:  2 eigenvalues not converged
     c_bands:  3 eigenvalues not converged
     c_bands:  2 eigenvalues not converged
     c_bands:  3 eigenvalues not converged
     c_bands:  2 eigenvalues not converged
     ethr =  1.00E-05,  avg # of iterations = 19.5

[...]

     total energy              =   -2658.46555931 Ry
     estimated scf accuracy    <    3232.59173314 Ry

     iteration #  2     ecut=    29.40 Ry     beta= 0.05
     Davidson diagonalization with overlap
     ethr =  1.00E-02,  avg # of iterations = 21.1

[...]

     iteration # 53     ecut=    29.40 Ry     beta= 0.05
     Davidson diagonalization with overlap
     c_bands:  1 eigenvalues not converged
     c_bands:  1 eigenvalues not converged
     c_bands:  1 eigenvalues not converged
     c_bands:  2 eigenvalues not converged
     ethr =  2.18E-06,  avg # of iterations = 13.4

[...]

     total energy              =   -2951.50544088 Ry
     estimated scf accuracy    <       0.00000033 Ry

     iteration # 80     ecut=    29.40 Ry     beta= 0.05
     Davidson diagonalization with overlap
     ethr =  4.31E-11,  avg # of iterations =  4.5

     negative rho (up, down):  1.700E-02 0.000E+00

     Adding external electric field

     Computed dipole along edir(3) :
        Dipole                0.3621 Ry au,          0.9204 Debye
        Dipole field          0.0007 Ry au,

        Potential amp.       -0.0633 Ry
        Total length         46.3494 bohr

     End of self-consistent calculation

          k = 0.0000 0.0000 0.0000 ( 18029 PWs)   bands (ev):

   -56.8873 -56.8537 -56.0106 -55.9747 -55.7624 -55.6985 -55.5443 -55.4458
   -55.4119 -55.3929 -55.3295 -55.3060 -55.2770 -55.2585 -55.0759 -55.0136
   -33.3073 -33.1607 -33.1326 -33.0647 -32.9744 -32.9342 -32.4937 -32.2400
   -32.2311 -32.2027 -32.1508 -32.1484 -32.1218 -31.9955 -31.9805 -31.9315
   -31.9029 -31.8929 -31.8704 -31.8621 -31.8250 -31.7925 -31.7924 -31.7680
   -31.7648 -31.7600 -31.7186 -31.6909 -31.6597 -31.6504 -31.5943 -31.5698
   -31.5467 -31.5291 -31.5251 -31.5201 -31.5028 -31.4822 -31.4746 -31.4687
   -31.4582 -31.4284 -31.3386 -31.3172 -31.2824 -31.2763 -31.2541 -31.2156
   -16.9992 -16.4623 -16.4521 -16.2089 -16.1014 -16.0865 -16.0592 -15.9851
   -15.8000 -15.7291 -15.7015 -15.6508 -15.5267 -15.4034 -15.3068 -15.1598
   -15.0758 -15.0305 -15.0292 -15.0122 -14.9763 -14.9621 -14.9404 -14.8772
   -14.8571 -14.7863 -14.6485 -14.6099 -14.6026 -14.3334 -14.3242 -13.9432
   -13.8360  -7.2036  -4.5714  -4.1482  -3.9732  -3.9322  -3.7669  -3.5948
    -3.5822  -3.4443  -3.4106  -3.2692  -3.2649  -3.2507  -3.1658  -3.1510
    -3.0305  -2.9637  -2.9492  -2.8482  -2.8073  -2.6555  -2.6175  -2.5273
    -2.4747  -2.4538  -2.3910  -2.3417  -2.3148  -2.2908  -2.2656  -2.2094
    -2.1892  -2.1552  -2.0895  -2.0530  -1.9671  -1.9290  -1.9182  -1.9119
    -1.7985  -1.7714  -1.7311  -1.5918  -1.5329  -1.5145  -1.4921  -1.4396
    -1.3803  -1.3567  -1.3064  -1.2057  -1.1286  -1.1135  -1.0465  -1.0294
    -1.0163  -0.8922  -0.8379  -0.7450  -0.7358  -0.7198  -0.6532  -0.5947
    -0.5568  -0.4726  -0.3973  -0.3880  -0.3743  -0.3382  -0.3140  -0.2572
    -0.1470  -0.1047  -0.0569   0.0163   0.0383   0.1264   0.2210   0.2555
     0.2693   0.3136   0.3423   0.3634   0.4213   0.4852   0.4987   0.5677
     0.5757   0.5797   0.6654   0.7561   0.7940   0.8450   0.8690   0.8800
     1.0022   1.0882   1.1125   1.1577   1.5265   1.7503   2.4036   2.5730
     2.8491   3.0036   3.3268   3.3898   3.4028   3.4060   3.6734   3.8027

[...]

          k = 0.0380-0.0419 0.0000 ( 17876 PWs)   bands (ev):

[...]

          k =-0.0760-0.0000 0.0000 ( 17886 PWs)   bands (ev):

[...]

          k =-0.0760-0.0839 0.0000 ( 17948 PWs)   bands (ev):

   -56.8711 -56.8698 -55.9989 -55.9862 -55.7576 -55.7033 -55.5434 -55.4293
   -55.4282 -55.3892 -55.3301 -55.3094 -55.2756 -55.2573 -55.0772 -55.0146
   -33.1471 -33.1457 -33.1252 -33.1238 -33.0187 -33.0176 -32.3193 -32.3084
   -32.1935 -32.1811 -32.1806 -32.1725 -32.0631 -32.0203 -31.9887 -31.9775
   -31.9306 -31.9261 -31.8388 -31.7907 -31.7815 -31.7807 -31.7468 -31.7199
   -31.6990 -31.6514 -31.6497 -31.6495 -31.6471 -31.6363 -31.6157 -31.6109
   -31.6098 -31.6085 -31.5864 -31.5456 -31.5377 -31.5180 -31.5062 -31.4844
   -31.4770 -31.4261 -31.4245 -31.3477 -31.3402 -31.2864 -31.2562 -31.2355
   -16.4463 -16.3620 -16.3598 -16.3095 -16.3079 -16.0591 -16.0542 -15.8035
   -15.7725 -15.5884 -15.5115 -15.4795 -15.4294 -15.3884 -15.3538 -15.2522
   -15.2391 -15.1421 -15.1138 -15.1044 -15.0570 -15.0133 -14.9703 -14.9407
   -14.9015 -14.8109 -14.7517 -14.7161 -14.6131 -14.5169 -14.4672 -13.9406
   -13.9400  -7.1987  -4.1470  -3.9646  -3.4306  -3.4258  -3.4158  -3.4077
    -3.3527  -3.1839  -3.1761  -2.9905  -2.9629  -2.9604  -2.8895  -2.8831
    -2.7762  -2.7109  -2.7051  -2.7041  -2.6696  -2.6423  -2.6361  -2.5792
    -2.4723  -2.4212  -2.3964  -2.3745  -2.3454  -2.3170  -2.2631  -2.1736
    -2.1658  -2.1563  -2.1262  -2.1061  -2.0807  -2.0755  -1.9375  -1.8360
    -1.7645  -1.7156  -1.7057  -1.6906  -1.6639  -1.6282  -1.5976  -1.5841
    -1.5381  -1.4793  -1.4539  -1.3982  -1.3489  -1.3011  -1.2191  -1.1582
    -1.0905  -1.0696  -0.9368  -0.9214  -0.9019  -0.8634  -0.8302  -0.8206
    -0.7458  -0.6718  -0.6133  -0.5976  -0.5369  -0.5138  -0.4795  -0.4412
    -0.4317  -0.3766  -0.3546  -0.3056  -0.2908  -0.1699  -0.0868   0.0352
     0.0668   0.0850   0.1429   0.1750   0.3121   0.3213   0.3717   0.4859
     0.5224   0.6644   0.6818   0.7841   0.8333   0.8958   0.9523   0.9560
     0.9565   0.9826   1.0166   1.0376   1.1138   1.6881   2.9937   2.9966
     3.0536   3.0593   3.3661   3.3702   3.4747   3.4803   3.7847   3.7913

     the Fermi energy is     2.1412 ev

!    total energy              =   -2951.50544887 Ry
     estimated scf accuracy    <       0.00000002 Ry
     smearing contrib. (-TS)   =      -0.00232644 Ry
     internal energy E=F+TS    =   -2951.50312243 Ry

     The total energy is F=E-TS. E is the sum of the following terms:
     one-electron contribution =  -24181.77157462 Ry
     hartree contribution      =   12180.37977137 Ry
     xc contribution           =    -487.03845607 Ry
     ewald contribution        =    9536.92688946 Ry
     electric field correction =       0.00024744 Ry

     convergence has been achieved in  80 iterations

     Forces acting on atoms (cartesian axes, Ry/au):

     atom    1 type  1   force =     0.00001094   -0.00050891    0.12457750
     atom    2 type  1   force =    -0.00009430    0.00034764   -0.15487582
     atom    3 type  2   force =     0.00004521   -0.00012368   -0.06537845
     atom    4 type  2   force =     0.00007372    0.00024335    0.01705980
     atom    5 type  2   force =    -0.00338385   -0.00145113   -0.01348216
     atom    6 type  2   force =     0.00542356   -0.00094251   -0.01319710
     atom    7 type  1   force =     0.00030128   -0.00647967    0.05888288
     atom    8 type  1   force =     0.00011315    0.00855144    0.09584692
     atom    9 type  2   force =     0.00026754   -0.00010833    0.00025637
     atom   10 type  2   force =    -0.00166679    0.00093245   -0.05964476
     atom   11 type  2   force =     0.00079087   -0.00033700   -0.00033821
     atom   12 type  2   force =    -0.00102172   -0.00073325   -0.00008490
     atom   13 type  1   force =    -0.00020032   -0.00075118    0.00005437
     atom   14 type  1   force =     0.00003621   -0.00065977   -0.00012339
     atom   15 type  2   force =     0.00008405   -0.00024757   -0.00010105
     atom   16 type  2   force =    -0.00008668    0.00001787   -0.00042538
     atom   17 type  2   force =     0.00028126   -0.00010617   -0.00012241
     atom   18 type  2   force =    -0.00032404   -0.00022759   -0.00018489
     atom   19 type  1   force =    -0.00020613   -0.00138755    0.00014327
     atom   20 type  1   force =    -0.00007868   -0.00006117   -0.00018405
     atom   21 type  2   force =     0.00002327    0.00021596    0.09785870
     atom   22 type  2   force =    -0.00029533   -0.00035758    0.00022332
     atom   23 type  2   force =    -0.08253912    0.00005326   -0.03294627
     atom   24 type  2   force =     0.08242416    0.00049345   -0.03300052
     atom   25 type  1   force =     0.00002543   -0.00057573    0.12481351
     atom   26 type  1   force =    -0.00019675   -0.00146832   -0.15526246
     atom   27 type  2   force =     0.00011610   -0.00079830   -0.06369300
     atom   28 type  2   force =     0.00005570    0.00198348    0.01251859
     atom   29 type  2   force =    -0.00155787    0.00507877   -0.01679587
     atom   30 type  2   force =     0.00370463    0.00540197   -0.01640779
     atom   31 type  1   force =     0.00000629    0.00178721    0.04176547
     atom   32 type  1   force =     0.00011614   -0.01183772    0.09591164
     atom   33 type  2   force =     0.00001453   -0.00022328   -0.00028101
     atom   34 type  2   force =    -0.00105242    0.00154103   -0.07415674
     atom   35 type  2   force =    -0.00040766    0.00017986    0.00008751
     atom   36 type  2   force =     0.00111971    0.00044310    0.00016396
     atom   37 type  1   force =    -0.00029948    0.00059919    0.00026186
     atom   38 type  1   force =     0.00020117   -0.00054139    0.00002315
     atom   39 type  2   force =     0.00015744    0.00024522    0.00011256
     atom   40 type  2   force =    -0.00004919   -0.00049720   -0.00059542
     atom   41 type  2   force =     0.00049238    0.00010516   -0.00023786
     atom   42 type  2   force =    -0.00079748   -0.00009750    0.00007615
     atom   43 type  1   force =    -0.00000239    0.00106125   -0.00067345
     atom   44 type  1   force =    -0.00004397    0.00004029   -0.00048877
     atom   45 type  2   force =     0.00003811    0.00001875    0.09768654
     atom   46 type  2   force =    -0.08259819    0.00001356   -0.03295477
     atom   47 type  2   force =     0.08247503    0.00044439   -0.03300504
     atom   48 type  3   force =     0.00029185   -0.00010031    0.00008592
     atom   49 type  4   force =    -0.00184075   -0.00008157    0.00019376
     atom   50 type  5   force =     0.00064721    0.00000092   -0.00009404
     atom   51 type  5   force =     0.00031395    0.00003076    0.00014189
     atom   52 type  2   force =     0.00016023    0.00056846    0.00008606
     atom   53 type  5   force =    -0.00106802    0.00030563   -0.00009609

     Total force =     0.415497     Total SCF correction =     0.000263
  @ DRIVER MODE: Message from server: STATUS
  @ DRIVER MODE: Message from server: GETFORCE
  @ DRIVER MODE: Returning v,forces,stress,ensemble

     Writing output data file ./calc.save/
  @ DRIVER MODE: Message from server: EXIT
  @ DRIVE MODE: Exiting

     General routines

     Parallel routines

   This run was terminated on:  20:33:54  22Sep2021

   JOB DONE.