     Program PWSCF v.6.7GPU starts on 18Oct2021 at 17:41:45

     R & G space division:  proc/nbgrp/npool/nimage =       8
     Reading input from /storage/home/hcoda1/3/ntian30/research/carbon/CxH_vib/Thiel_calc/ads_slab/H2O_perslab/out_0013/pw.inp
Warning: card &CELL ignored
Warning: card   CELL_DYNAMICS='IPI', ignored
Warning: card / ignored

     Current dimensions of program PWSCF are:
     Max number of different atomic species (ntypx) = 10
     Max number of k-points (npk) =  40000
     Max angular momentum in pseudopotentials (lmaxx) =  3
     Presently no symmetry can be used with electric field

     Message from routine cell_base_init:
     DEPRECATED: use true lattice parameter, not A to a.u. conversion factor

     IMPORTANT: XC functional enforced from input :
     Exchange-correlation= BEEF-VDW
                           (   1   4  43  14   2   0   0)
     Any further DFT definition will be discarded
     Please, verify this is what you really want

  @ DRIVER MODE: Connecting to
 qe_1139763_3255129.sched-torque.pace.gatech.edufpcguumz_scratch
  using UNIX socket
  @ DRIVER MODE: Message from server: STATUS
  @ DRIVER MODE: Message from server: INIT
  @ DRIVER MODE: Receiving replica           0          -1
  @ DRIVER MODE: Receiving encoded integer          25
  @ DRIVER MODE:  SCF:  T  FORCE:  T  STRESS:  F  VC:  F  ENSEMBLE:  F
  @ DRIVER MODE:  SCF:  T  FORCE:  T  STRESS:  F  VC:  F  ENSEMBLE:  F

     Using Slab Decomposition

     bravais-lattice index     =            0
     lattice parameter (alat)  =       1.8897  a.u.
     unit-cell volume          =    9988.4706 (a.u.)^3
     number of atoms/cell      =           56
     number of atomic types    =            3
     number of electrons       =       434.00
     number of Kohn-Sham states=          227
     kinetic-energy cutoff     =      29.3995  Ry
     charge density cutoff     =     293.9946  Ry
     scf convergence threshold =      7.3E-08
     mixing beta               =       0.0500
     number of iterations used =            8  plain     mixing
     Exchange-correlation= BEEF-VDW
                           (   1   4  43  14   2   0   0)

     celldm(1)=   1.889726  celldm(2)=   0.000000  celldm(3)=   0.000000
     celldm(4)=   0.000000  celldm(5)=   0.000000  celldm(6)=   0.000000

     crystal axes: (cart. coord. in units of alat)
               a(1) = (   6.579727   0.000000   0.000000 )
               a(2) = (  -0.001163   8.942395   0.000000 )
               a(3) = (   0.000000   0.000000  25.155947 )

     reciprocal axes: (cart. coord. in units 2 pi/alat)
               b(1) = (  0.151982  0.000020  0.000000 )
               b(2) = (  0.000000  0.111827  0.000000 )
               b(3) = (  0.000000  0.000000  0.039752 )

     PseudoPot. # 1 for O  read from file:
     /storage/coda1/p-amedford6/0/shared/rich_project_chbe-medford/medford-share/data/pseudos_module/espresso/nninc/pbe/van/O.UPF
     MD5 check sum: 78c19812648e8988a0fe644b0f25305e
     Pseudo is Ultrasoft, Zval =  6.0
     Generated by new atomic code, or converted to UPF format
     Using radial grid of  737 points,  4 beta functions with:
                l(1) =   0
                l(2) =   0
                l(3) =   1
                l(4) =   1
     Q(r) pseudized with  8 coefficients,  rinner =    0.800   0.800   0.800

     PseudoPot. # 2 for Ti read from file:
     /storage/coda1/p-amedford6/0/shared/rich_project_chbe-medford/medford-share/data/pseudos_module/espresso/nninc/pbe/van/Ti.UPF
     MD5 check sum: 8e4df49b7f0d34bbd5052bf3f5ea0213
     Pseudo is Ultrasoft, Zval = 12.0
     Generated by new atomic code, or converted to UPF format
     Using radial grid of  851 points,  6 beta functions with:
                l(1) =   0
                l(2) =   0
                l(3) =   1
                l(4) =   1
                l(5) =   2
                l(6) =   2
     Q(r) pseudized with  8 coefficients,  rinner =    1.000   1.000   1.000
                                                       1.000   1.000

     PseudoPot. # 3 for H  read from file:
     /storage/coda1/p-amedford6/0/shared/rich_project_chbe-medford/medford-share/data/pseudos_module/espresso/nninc/pbe/van/H.UPF
     MD5 check sum: b5ee9d7bfd3a09ee7748110bda690ff7
     Pseudo is Ultrasoft, Zval =  1.0
     Generated by new atomic code, or converted to UPF format
     Using radial grid of  615 points,  1 beta functions with:
                l(1) =   0
     Q(r) pseudized with  8 coefficients,  rinner =    0.800

     atomic species   valence    mass     pseudopotential
        O1             6.00    15.99900     O ( 1.00)
        Ti1           12.00    47.86700     Ti( 1.00)
        H1             1.00     1.00800     H ( 1.00)

     No symmetry found

   Cartesian axes

     site n.     atom                  positions (alat units)
         1           O1  tau(   1) = (   0.0007354   0.0005023  10.5931620  )
         2           O1  tau(   2) = (   3.2893612   8.9201916  13.9062151  )
         3           O1  tau(   3) = (   0.0002691   0.0790924  17.2227650  )
         4           O1  tau(   4) = (   0.0006271   0.0005054   7.9858123  )
         5           O1  tau(   5) = (   3.2896170   8.9270158  11.1935980  )
         6           O1  tau(   6) = (   0.0007608   0.0261718  14.5986889  )
         7           O1  tau(   7) = (   1.9868534   1.4903216   9.2879459  )
         8           O1  tau(   8) = (   5.2355617   1.6099344  12.5867606  )
         9           O1  tau(   9) = (   2.0124575   1.5675184  16.0571645  )
        10           Ti1 tau(  10) = (   0.0007404   1.4906270   9.2895810  )
        11           Ti1 tau(  11) = (   3.2907640   1.3491771  12.5100009  )
        12           Ti1 tau(  12) = (   0.0006031   1.2961793  15.7979744  )
        13           O1  tau(  13) = (   4.5942328   1.4918067   9.2879030  )
        14           O1  tau(  14) = (   1.3450460   1.6097215  12.5866593  )
        15           O1  tau(  15) = (   4.5676758   1.5673980  16.0573758  )
        16           Ti1 tau(  16) = (   3.2902859   2.9801868   9.2893338  )
        17           Ti1 tau(  17) = (   0.0004777   2.8281306  12.4679355  )
        18           Ti1 tau(  18) = (   3.2902893   2.9338596  15.7282337  )
        19           O1  tau(  19) = (   0.0003479   2.9813005  10.5931620  )
        20           O1  tau(  20) = (   3.2902216   2.9696935  13.9120052  )
        21           O1  tau(  21) = (   0.0002396   2.9813036   7.9858123  )
        22           O1  tau(  22) = (   3.2903426   2.9637443  11.1940942  )
        23           O1  tau(  23) = (   0.0000089   3.0257264  14.7503890  )
        24           O1  tau(  24) = (   1.9864658   4.4711199   9.2879459  )
        25           O1  tau(  25) = (   5.2380434   4.5829059  12.5871764  )
        26           O1  tau(  26) = (   2.0235919   4.4928291  16.0795284  )
        27           Ti1 tau(  27) = (   0.0003529   4.4714252   9.2895810  )
        28           Ti1 tau(  28) = (   3.2907575   4.3192581  12.5172651  )
        29           Ti1 tau(  29) = (   0.0001526   4.6228845  15.7176810  )
        30           O1  tau(  30) = (   4.5938453   4.4726049   9.2879030  )
        31           O1  tau(  31) = (   1.3423985   4.5827316  12.5869633  )
        32           O1  tau(  32) = (   4.5556179   4.4928061  16.0795667  )
        33           Ti1 tau(  33) = (   3.2898983   5.9609850   9.2893338  )
        34           Ti1 tau(  34) = (   0.0006865   5.8113799  12.4503846  )
        35           Ti1 tau(  35) = (   3.2896120   5.9162390  15.7228808  )
        36           O1  tau(  36) = (  -0.0000397   5.9620987  10.5931620  )
        37           O1  tau(  37) = (   3.2898440   5.9521707  13.9141460  )
        38           O1  tau(  38) = (  -0.0005676   5.9070897  17.2365434  )
        39           O1  tau(  39) = (  -0.0001480   5.9621018   7.9858123  )
        40           O1  tau(  40) = (   3.2901216   5.9393065  11.1928121  )
        41           O1  tau(  41) = (  -0.0000075   6.0145546  14.6353165  )
        42           O1  tau(  42) = (   1.9860782   7.4519181   9.2879459  )
        43           O1  tau(  43) = (   5.2378119   7.5541029  12.5659338  )
        44           O1  tau(  44) = (   2.0283766   7.4974489  16.0624789  )
        45           Ti1 tau(  45) = (  -0.0000347   7.4522234   9.2895810  )
        46           Ti1 tau(  46) = (   3.2905324   7.3023941  12.5037744  )
        47           Ti1 tau(  47) = (  -0.0004371   7.4148098  16.3042026  )
        48           O1  tau(  48) = (   4.5934577   7.4534031   9.2879030  )
        49           O1  tau(  49) = (   1.3417460   7.5537513  12.5656965  )
        50           O1  tau(  50) = (   4.5502908   7.4974792  16.0621795  )
        51           Ti1 tau(  51) = (   3.2895107   8.9417832   9.2893338  )
        52           Ti1 tau(  52) = (   0.0002358   8.7760030  12.4676047  )
        53           Ti1 tau(  53) = (   3.2893608   8.8775079  15.7094031  )
        54           O1  tau(  54) = (   0.0008562   2.9808021  17.9281668  )
        55           H1  tau(  55) = (   6.5781910   2.2037314  18.5062466  )
        56           H1  tau(  56) = (   6.5686456   3.7766572  18.4802172  )

     number of k points=    10  Fermi-Dirac smearing, width (Ry)=  0.0073
                       cart. coord. in units 2pi/alat
        k(    1) = (   0.0000000   0.0000000   0.0000000), wk =   0.1250000
        k(    2) = (   0.0000000   0.0279567   0.0000000), wk =   0.2500000
        k(    3) = (   0.0000000  -0.0559134   0.0000000), wk =   0.1250000
        k(    4) = (   0.0379955   0.0000049   0.0000000), wk =   0.2500000
        k(    5) = (   0.0379955   0.0279617   0.0000000), wk =   0.2500000
        k(    6) = (   0.0379955  -0.0559085   0.0000000), wk =   0.2500000
        k(    7) = (   0.0379955  -0.0279518   0.0000000), wk =   0.2500000
        k(    8) = (  -0.0759910  -0.0000099   0.0000000), wk =   0.1250000
        k(    9) = (  -0.0759910   0.0279468   0.0000000), wk =   0.2500000
        k(   10) = (  -0.0759910  -0.0559233   0.0000000), wk =   0.1250000

     Initial potential from superposition of free atoms

     starting charge  415.99913, renormalised to  434.00000

     negative rho (up, down):  3.976E-02 0.000E+00

     %%%%%%%%%%%%%%%%%%%%%%%%%%%%%%%%%%%%%%%%%%%%%%%%%%%%%%%%%%%%%%%%%%%%%%%%
     %                                                                      %
     % You are using vdW-DF, which was implemented by the Thonhauser group. %
     % Please cite the following two papers that made this development      %
     % possible and the two reviews that describe the various versions:     %
     %                                                                      %
     %   T. Thonhauser et al., PRL 115, 136402 (2015).                      %
     %   T. Thonhauser et al., PRB 76, 125112 (2007).                       %
     %   K. Berland et al., Rep. Prog. Phys. 78, 066501 (2015).             %
     %   D.C. Langreth et al., J. Phys.: Condens. Matter 21, 084203 (2009). %
     %                                                                      %
     %                                                                      %
     % If you are calculating the stress with vdW-DF, please also cite:     %
     %                                                                      %
     %   R. Sabatini et al., J. Phys.: Condens. Matter 24, 424209 (2012).   %
     %                                                                      %
     %%%%%%%%%%%%%%%%%%%%%%%%%%%%%%%%%%%%%%%%%%%%%%%%%%%%%%%%%%%%%%%%%%%%%%%%

     Adding external electric field

     Computed dipole along edir(3) :
        Dipole               -2.8181 Ry au,         -7.1630 Debye
        Dipole field         -0.0035 Ry au,

        Potential amp.        0.3287 Ry
        Total length         46.3494 bohr

     Starting wfcs are  326 atomic wfcs
  @ DRIVER MODE: Message from server: STATUS
  @ DRIVER MODE: Message from server: POSDATA
  @ DRIVER MODE: Reading and sharing cell
  @ DRIVER MODE: Reading and sharing positions
  @ DRIVER MODE: Received positions

     Self-consistent Calculation

     iteration #  1     ecut=    29.40 Ry     beta= 0.05
     Davidson diagonalization with overlap
     c_bands:  2 eigenvalues not converged
     c_bands:  2 eigenvalues not converged
     c_bands:  1 eigenvalues not converged
     c_bands:  2 eigenvalues not converged
     c_bands:  2 eigenvalues not converged
     c_bands:  5 eigenvalues not converged
     c_bands:  2 eigenvalues not converged
     c_bands:  1 eigenvalues not converged
     c_bands:  1 eigenvalues not converged
     c_bands:  2 eigenvalues not converged
     ethr =  1.00E-05,  avg # of iterations = 20.0

[...]

     total energy              =   -3284.59297844 Ry
     estimated scf accuracy    <      14.39927205 Ry

     iteration #  2     ecut=    29.40 Ry     beta= 0.05
     Davidson diagonalization with overlap
     ethr =  3.32E-03,  avg # of iterations =  1.0

[...]

     iteration # 43     ecut=    29.40 Ry     beta= 0.05
     Davidson diagonalization with overlap
     c_bands:  1 eigenvalues not converged
     ethr =  1.09E-09,  avg # of iterations = 11.2

[...]

     total energy              =   -3283.10402810 Ry
     estimated scf accuracy    <       0.00000016 Ry

     iteration # 50     ecut=    29.40 Ry     beta= 0.05
     Davidson diagonalization with overlap
     ethr =  3.61E-11,  avg # of iterations =  8.8

     negative rho (up, down):  3.723E-02 0.000E+00

     Adding external electric field

     Computed dipole along edir(3) :
        Dipole                1.2777 Ry au,          3.2475 Debye
        Dipole field          0.0016 Ry au,

        Potential amp.       -0.1490 Ry
        Total length         46.3494 bohr

     End of self-consistent calculation

          k = 0.0000 0.0000 0.0000 ( 26871 PWs)   bands (ev):

   -58.0032 -57.9912 -57.9779 -57.9772 -57.9681 -57.8974 -57.8254 -57.8021
   -57.7974 -57.7892 -57.7667 -57.7426 -57.6146 -57.5751 -57.5056 -57.0241
   -57.0008 -56.9939 -34.3893 -34.3842 -34.3838 -34.3624 -34.3559 -34.3348
   -34.3167 -34.3145 -34.3136 -34.2814 -34.2540 -34.2394 -34.2130 -34.1989
   -34.1957 -34.1866 -34.1706 -34.1522 -34.1276 -34.1209 -34.1126 -34.1000
   -34.0992 -34.0958 -34.0946 -34.0700 -34.0529 -34.0357 -34.0295 -34.0178
   -34.0108 -33.9984 -33.9981 -33.9854 -33.9792 -33.9783 -33.9668 -33.9419
   -33.9380 -33.8732 -33.8159 -33.7855 -33.7743 -33.7689 -33.6465 -33.3398
   -33.3388 -33.3324 -33.3235 -33.3172 -33.2500 -33.1887 -33.1811 -33.0492
   -21.2504 -18.8503 -18.4157 -18.2705 -18.2457 -18.2176 -18.2051 -18.0920
   -18.0888 -17.8262 -17.8065 -17.7924 -17.7841 -17.7129 -17.6855 -17.6832
   -17.6717 -17.6447 -17.6377 -17.6099 -17.6010 -17.5192 -17.5117 -17.4688
   -17.4661 -17.4332 -17.4310 -17.3841 -17.2948 -17.2940 -17.1261 -16.9756
   -16.9083 -15.4897 -15.4332 -15.4289  -9.2630  -6.1819  -6.0158  -5.9187
    -5.8300  -5.7151  -5.4531  -5.4401  -5.3643  -5.3543  -5.3305  -5.2696
    -5.2545  -5.2495  -5.2153  -5.2020  -5.1204  -5.1152  -5.0361  -4.9436
    -4.9393  -4.9360  -4.9098  -4.8662  -4.8304  -4.8118  -4.7888  -4.7657
    -4.7364  -4.6977  -4.6637  -4.6302  -4.6219  -4.4928  -4.3475  -4.3204
    -4.2992  -4.2976  -4.2752  -4.2333  -4.2051  -4.1349  -4.0803  -4.0673
    -4.0447  -3.9966  -3.9418  -3.9194  -3.7814  -3.7503  -3.7209  -3.6971
    -3.5922  -3.5609  -3.5142  -3.3983  -3.3360  -3.3281  -3.2952  -3.2772
    -3.2043  -3.1849  -3.1365  -3.0869  -3.0771  -2.9762  -2.9749  -2.9248
    -2.8759  -2.8018  -2.7686  -2.7626  -2.7510  -2.6946  -2.6862  -2.6590
    -2.6305  -2.6011  -2.5425  -2.5332  -2.4618  -2.4244  -2.4170  -2.3717
    -2.3709  -2.3152  -2.2417  -2.2052  -2.1844  -2.1820  -2.0811  -2.0258
    -1.8594  -1.8547  -1.8425  -1.8301  -1.7495  -1.7036  -1.6367  -1.4633
    -1.2399  -1.0627  -0.7728  -0.7278  -0.7262  -0.4642  -0.4588  -0.3302
     0.9759   1.2248   1.2714   1.4414   1.4431   1.5398   1.5755   1.5909
     1.6740   1.7030   1.7408

[...]

          k = 0.0380-0.0280 0.0000 ( 26873 PWs)   bands (ev):

[...]

          k =-0.0760-0.0000 0.0000 ( 26902 PWs)   bands (ev):

[...]

          k =-0.0760-0.0559 0.0000 ( 26868 PWs)   bands (ev):

   -57.9949 -57.9943 -57.9899 -57.9697 -57.9690 -57.8970 -57.8184 -57.8148
   -57.7911 -57.7870 -57.7711 -57.7409 -57.6142 -57.5758 -57.5054 -57.0182
   -57.0121 -56.9884 -34.4776 -34.4415 -34.3779 -34.3668 -34.3435 -34.3322
   -34.3275 -34.3260 -34.2845 -34.2474 -34.1974 -34.1932 -34.1924 -34.1709
   -34.1648 -34.1503 -34.1442 -34.1437 -34.1370 -34.1315 -34.1310 -34.0845
   -34.0829 -34.0806 -34.0761 -34.0677 -34.0638 -34.0505 -34.0436 -34.0354
   -34.0274 -34.0175 -34.0127 -34.0123 -34.0018 -33.9941 -33.9668 -33.9645
   -33.9402 -33.8234 -33.8212 -33.7915 -33.7740 -33.7674 -33.6826 -33.4278
   -33.3396 -33.3342 -33.3115 -33.2321 -33.2248 -33.1633 -33.1496 -33.1427
   -21.2501 -18.5297 -18.5070 -18.2003 -18.1423 -18.0981 -18.0878 -18.0761
   -18.0249 -17.9222 -17.8665 -17.8645 -17.8137 -17.7846 -17.7799 -17.7275
   -17.7259 -17.7145 -17.7023 -17.6720 -17.6444 -17.6428 -17.5674 -17.4675
   -17.4295 -17.4023 -17.3845 -17.3716 -17.3318 -17.2385 -17.1598 -17.1114
   -16.7922 -15.4892 -15.4843 -15.3689  -9.2663  -5.8327  -5.7862  -5.7682
    -5.7675  -5.6947  -5.3934  -5.2852  -5.2849  -5.2729  -5.1757  -5.1649
    -5.1617  -5.1462  -5.1421  -5.1190  -5.1088  -5.0779  -5.0622  -5.0256
    -5.0105  -4.9453  -4.9255  -4.9172  -4.9037  -4.8797  -4.7463  -4.7431
    -4.6407  -4.6154  -4.5273  -4.5184  -4.5005  -4.4818  -4.4323  -4.3848
    -4.3552  -4.3408  -4.1661  -4.1525  -4.1411  -4.0765  -4.0343  -3.9779
    -3.9738  -3.8793  -3.6771  -3.6535  -3.6515  -3.6450  -3.6298  -3.6281
    -3.5919  -3.5492  -3.5026  -3.4824  -3.4458  -3.4409  -3.4379  -3.3893
    -3.3450  -3.2462  -3.1905  -3.1884  -3.1669  -3.1142  -3.1093  -3.0936
    -3.0740  -3.0536  -3.0259  -2.9428  -2.9110  -2.8895  -2.8473  -2.8371
    -2.7827  -2.7710  -2.7053  -2.5676  -2.5419  -2.5329  -2.5290  -2.4933
    -2.4016  -2.2557  -2.2394  -2.2380  -2.0896  -2.0848  -2.0142  -2.0071
    -1.9762  -1.9590  -1.7874  -1.7772  -1.6930  -1.6458  -1.5951  -1.5771
    -1.5677  -1.3490  -0.9391  -0.6605  -0.6424  -0.6185  -0.4633  -0.4605
     1.1447   1.2149   1.2241   1.3198   1.3255   1.3306   1.3851   1.4538
     1.4990   1.5428   1.7016

     the Fermi energy is     1.0795 ev

!    total energy              =   -3283.10413818 Ry
     estimated scf accuracy    <       0.00000005 Ry
     smearing contrib. (-TS)   =      -0.03226424 Ry
     internal energy E=F+TS    =   -3283.07187394 Ry

     The total energy is F=E-TS. E is the sum of the following terms:
     one-electron contribution =  -34306.61856185 Ry
     hartree contribution      =   17213.52628295 Ry
     xc contribution           =    -537.35207338 Ry
     ewald contribution        =   14347.37042455 Ry
     electric field correction =       0.00205378 Ry

     convergence has been achieved in  50 iterations

     Forces acting on atoms (cartesian axes, Ry/au):

     atom    1 type  1   force =     0.00002516    0.00631066    0.05654992
     atom    2 type  1   force =    -0.00000233    0.00183641   -0.00349471
     atom    3 type  1   force =     0.00001530   -0.00384722   -0.00158659
     atom    4 type  1   force =     0.00005567   -0.00038763    0.10676769
     atom    5 type  1   force =    -0.00001293   -0.00065506    0.00908691
     atom    6 type  1   force =    -0.00002267   -0.00081863    0.00312736
     atom    7 type  1   force =     0.06774773   -0.00026281   -0.02938395
     atom    8 type  1   force =     0.00478118   -0.02831099    0.00275771
     atom    9 type  1   force =     0.01032024   -0.02000976    0.00026867
     atom   10 type  2   force =    -0.00006418   -0.00358006   -0.18212239
     atom   11 type  2   force =    -0.00008406    0.02093547   -0.00709841
     atom   12 type  2   force =    -0.00003941    0.01990192   -0.00376646
     atom   13 type  1   force =    -0.06784047   -0.00071175   -0.02937189
     atom   14 type  1   force =    -0.00477520   -0.02829262    0.00275852
     atom   15 type  1   force =    -0.01033587   -0.02002765    0.00025325
     atom   16 type  2   force =     0.00012791   -0.00160694    0.06617879
     atom   17 type  2   force =     0.00006773    0.03606577    0.00427333
     atom   18 type  2   force =    -0.00009138    0.01082440   -0.00273114
     atom   19 type  1   force =     0.00000381    0.00419312    0.06377040
     atom   20 type  1   force =     0.00000477    0.00140747   -0.00554446
     atom   21 type  1   force =     0.00005440    0.00123208    0.10738489
     atom   22 type  1   force =    -0.00000415   -0.00033711    0.00888405
     atom   23 type  1   force =    -0.00001118   -0.00545093    0.00286675
     atom   24 type  1   force =     0.06713239   -0.00042834   -0.02926629
     atom   25 type  1   force =     0.00491254   -0.02900307    0.00284017
     atom   26 type  1   force =     0.00933235    0.00320363   -0.00397783
     atom   27 type  2   force =    -0.00007965   -0.00328528   -0.18660513
     atom   28 type  2   force =    -0.00006165    0.02032785   -0.00730764
     atom   29 type  2   force =     0.00009815   -0.00159334    0.01307738
     atom   30 type  1   force =    -0.06722043   -0.00088931   -0.02925563
     atom   31 type  1   force =    -0.00492242   -0.02897994    0.00284453
     atom   32 type  1   force =    -0.00920451    0.00315875   -0.00383762
     atom   33 type  2   force =     0.00012780   -0.00176118    0.06630877
     atom   34 type  2   force =     0.00008240    0.03629815    0.00442269
     atom   35 type  2   force =    -0.00008635   -0.00236372    0.00335101
     atom   36 type  1   force =     0.00002119    0.00318558    0.05468863
     atom   37 type  1   force =     0.00000148    0.00044525   -0.00161671
     atom   38 type  1   force =    -0.00007134   -0.00172771   -0.00081478
     atom   39 type  1   force =     0.00005252   -0.00027828    0.10748901
     atom   40 type  1   force =    -0.00000976   -0.00006932    0.00864292
     atom   41 type  1   force =    -0.00001926    0.00331121    0.00091342
     atom   42 type  1   force =     0.06735834   -0.00085306   -0.02899580
     atom   43 type  1   force =     0.00316542   -0.02860670    0.00231929
     atom   44 type  1   force =     0.01106429   -0.01051710    0.00424760
     atom   45 type  2   force =    -0.00009421    0.00336561   -0.18453135
     atom   46 type  2   force =    -0.00007917    0.02070424   -0.00745880
     atom   47 type  2   force =     0.00001368    0.00954844   -0.01313162
     atom   48 type  1   force =    -0.06745055   -0.00130119   -0.02898863
     atom   49 type  1   force =    -0.00316752   -0.02857791    0.00232546
     atom   50 type  1   force =    -0.01102657   -0.01053498    0.00427175
     atom   51 type  2   force =     0.00012716   -0.00089548    0.06685641
     atom   52 type  2   force =     0.00007329    0.03408272    0.00445185
     atom   53 type  2   force =    -0.00002570    0.02443113    0.00628210
     atom   54 type  1   force =     0.00013007    0.00051936   -0.00004202
     atom   55 type  3   force =    -0.00007152   -0.00049500    0.00050313
     atom   56 type  3   force =    -0.00002251    0.00117083    0.00016548

     Total force =     0.454592     Total SCF correction =     0.000583
  @ DRIVER MODE: Message from server: STATUS
  @ DRIVER MODE: Message from server: GETFORCE
  @ DRIVER MODE: Returning v,forces,stress,ensemble

     Writing output data file ./calc.save/
  @ DRIVER MODE: Message from server: EXIT
  @ DRIVE MODE: Exiting

     General routines

     Parallel routines

   This run was terminated on:  18: 7:14  18Oct2021

   JOB DONE.