     Program PWSCF v.6.7GPU starts on  9Sep2021 at  2:21:49

     R & G space division:  proc/nbgrp/npool/nimage =      10
     Reading input from /storage/home/hcoda1/3/ntian30/research/carbon/CxH_vib/CH_calc/ads_slab/CHOH_a/out_0013/pw.inp
Warning: card &CELL ignored
Warning: card   CELL_DYNAMICS='IPI', ignored
Warning: card / ignored

     Current dimensions of program PWSCF are:
     Max number of different atomic species (ntypx) = 10
     Max number of k-points (npk) =  40000
     Max angular momentum in pseudopotentials (lmaxx) =  3
     Presently no symmetry can be used with electric field

     Message from routine cell_base_init:
     DEPRECATED: use true lattice parameter, not A to a.u. conversion factor

     IMPORTANT: XC functional enforced from input :
     Exchange-correlation= BEEF-VDW
                           (   1   4  43  14   2   0   0)
     Any further DFT definition will be discarded
     Please, verify this is what you really want

  @ DRIVER MODE: Connecting to
 qe_1139763_2767384.sched-torque.pace.gatech.eduj6jswbww_scratch
  using UNIX socket
  @ DRIVER MODE: Message from server: STATUS
  @ DRIVER MODE: Message from server: INIT
  @ DRIVER MODE: Receiving replica           0          -1
  @ DRIVER MODE: Receiving encoded integer          25
  @ DRIVER MODE:  SCF:  T  FORCE:  T  STRESS:  F  VC:  F  ENSEMBLE:  F
  @ DRIVER MODE:  SCF:  T  FORCE:  T  STRESS:  F  VC:  F  ENSEMBLE:  F

     Using Slab Decomposition

     bravais-lattice index     =            0
     lattice parameter (alat)  =       1.8897  a.u.
     unit-cell volume          =    6658.9804 (a.u.)^3
     number of atoms/cell      =           51
     number of atomic types    =            4
     number of electrons       =       390.00
     number of Kohn-Sham states=          205
     kinetic-energy cutoff     =      29.3995  Ry
     charge density cutoff     =     293.9946  Ry
     scf convergence threshold =      7.3E-08
     mixing beta               =       0.0500
     number of iterations used =            8  plain     mixing
     Exchange-correlation= BEEF-VDW
                           (   1   4  43  14   2   0   0)

     celldm(1)=   1.889726  celldm(2)=   0.000000  celldm(3)=   0.000000
     celldm(4)=   0.000000  celldm(5)=   0.000000  celldm(6)=   0.000000

     crystal axes: (cart. coord. in units of alat)
               a(1) = (   6.579727   0.000000   0.000000 )
               a(2) = (  -0.000775   5.961596   0.000000 )
               a(3) = (   0.000000   0.000000  25.155947 )

     reciprocal axes: (cart. coord. in units 2 pi/alat)
               b(1) = (  0.151982  0.000020  0.000000 )
               b(2) = (  0.000000  0.167740  0.000000 )
               b(3) = (  0.000000  0.000000  0.039752 )

     PseudoPot. # 1 for Ti read from file:
     /storage/coda1/p-amedford6/0/shared/rich_project_chbe-medford/medford-share/data/pseudos_module/espresso/nninc/pbe/van/Ti.UPF
     MD5 check sum: 8e4df49b7f0d34bbd5052bf3f5ea0213
     Pseudo is Ultrasoft, Zval = 12.0
     Generated by new atomic code, or converted to UPF format
     Using radial grid of  851 points,  6 beta functions with:
                l(1) =   0
                l(2) =   0
                l(3) =   1
                l(4) =   1
                l(5) =   2
                l(6) =   2
     Q(r) pseudized with  8 coefficients,  rinner =    1.000   1.000   1.000
                                                       1.000   1.000

     PseudoPot. # 2 for O  read from file:
     /storage/coda1/p-amedford6/0/shared/rich_project_chbe-medford/medford-share/data/pseudos_module/espresso/nninc/pbe/van/O.UPF
     MD5 check sum: 78c19812648e8988a0fe644b0f25305e
     Pseudo is Ultrasoft, Zval =  6.0
     Generated by new atomic code, or converted to UPF format
     Using radial grid of  737 points,  4 beta functions with:
                l(1) =   0
                l(2) =   0
                l(3) =   1
                l(4) =   1
     Q(r) pseudized with  8 coefficients,  rinner =    0.800   0.800   0.800

     PseudoPot. # 3 for C  read from file:
     /storage/coda1/p-amedford6/0/shared/rich_project_chbe-medford/medford-share/data/pseudos_module/espresso/nninc/pbe/van/C.UPF
     MD5 check sum: 1a69bf6b8db32088f5b2163dbdb77a27
     Pseudo is Ultrasoft, Zval =  4.0
     Generated by new atomic code, or converted to UPF format
     Using radial grid of  721 points,  4 beta functions with:
                l(1) =   0
                l(2) =   0
                l(3) =   1
                l(4) =   1
     Q(r) pseudized with  8 coefficients,  rinner =    0.800   0.800   0.800

     PseudoPot. # 4 for H  read from file:
     /storage/coda1/p-amedford6/0/shared/rich_project_chbe-medford/medford-share/data/pseudos_module/espresso/nninc/pbe/van/H.UPF
     MD5 check sum: b5ee9d7bfd3a09ee7748110bda690ff7
     Pseudo is Ultrasoft, Zval =  1.0
     Generated by new atomic code, or converted to UPF format
     Using radial grid of  615 points,  1 beta functions with:
                l(1) =   0
     Q(r) pseudized with  8 coefficients,  rinner =    0.800

     atomic species   valence    mass     pseudopotential
        Ti1           12.00    47.86700     Ti( 1.00)
        O1             6.00    15.99900     O ( 1.00)
        C1             4.00    12.01100     C ( 1.00)
        H1             1.00     1.00800     H ( 1.00)

     No symmetry found

   Cartesian axes

     site n.     atom                  positions (alat units)
         1           Ti1 tau(   1) = (   0.0004258   2.9801865   6.0000000  )
         2           Ti1 tau(   2) = (   3.2906075   1.4906267   6.0002472  )
         3           O1  tau(   3) = (   0.0006271   0.0005054   7.9858123  )
         4           O1  tau(   4) = (   3.2906025   0.0005020   7.3038282  )
         5           O1  tau(   5) = (   4.5942328   1.4918067   9.2879030  )
         6           O1  tau(   6) = (   1.9868534   1.4903216   9.2879459  )
         7           Ti1 tau(   7) = (   3.3189338   3.0017716   9.1565052  )
         8           Ti1 tau(   8) = (   0.0346667   1.4969860   9.2640968  )
         9           O1  tau(   9) = (   3.3073125   0.0088267  11.3792119  )
        10           O1  tau(  10) = (   0.0062670   0.0029933  10.6068016  )
        11           O1  tau(  11) = (   1.3062705   1.5014067  12.6543524  )
        12           O1  tau(  12) = (   5.3087205   1.4988994  12.6673500  )
        13           Ti1 tau(  13) = (   0.0213988   2.9921491  12.5260324  )
        14           Ti1 tau(  14) = (   3.3097092   1.5009918  12.5223738  )
        15           O1  tau(  15) = (   0.0424616   0.0075488  14.6717754  )
        16           O1  tau(  16) = (   3.3005110   0.0073529  14.0105724  )
        17           O1  tau(  17) = (   4.5952227   1.5195780  16.1612446  )
        18           O1  tau(  18) = (   2.0693493   1.5297702  16.1935428  )
        19           Ti1 tau(  19) = (   3.3356741   2.9939547  15.7500326  )
        20           Ti1 tau(  20) = (   0.0335386   1.3679084  15.9371528  )
        21           O1  tau(  21) = (   3.2904802   0.0005063   4.7018136  )
        22           O1  tau(  22) = (   0.0353059   0.0153350  17.1923242  )
        23           O1  tau(  23) = (   1.3043587   1.4918075   6.0039043  )
        24           O1  tau(  24) = (   5.2767064   1.4903225   6.0039473  )
        25           Ti1 tau(  25) = (   0.0000382   5.9609847   6.0000000  )
        26           Ti1 tau(  26) = (   3.2902200   4.4714249   6.0002472  )
        27           O1  tau(  27) = (   0.0002396   2.9813036   7.9858123  )
        28           O1  tau(  28) = (   3.2902150   2.9813002   7.3038282  )
        29           O1  tau(  29) = (   4.5938453   4.4726049   9.2879030  )
        30           O1  tau(  30) = (   1.9864658   4.4711199   9.2879459  )
        31           Ti1 tau(  31) = (   3.3154861   0.0215470   9.1550440  )
        32           Ti1 tau(  32) = (   0.0344056   4.4691587   9.2644328  )
        33           O1  tau(  33) = (   3.3078462   2.9871797  11.3713074  )
        34           O1  tau(  34) = (   0.0058747   2.9832696  10.6292865  )
        35           O1  tau(  35) = (   1.3058732   4.4754499  12.6504552  )
        36           O1  tau(  36) = (   5.3084772   4.4777640  12.6640448  )
        37           Ti1 tau(  37) = (   0.0171148   0.0128214  12.4806662  )
        38           Ti1 tau(  38) = (   3.3088916   4.4784539  12.5193958  )
        39           O1  tau(  39) = (   0.0434956   2.9958159  14.9132474  )
        40           O1  tau(  40) = (   3.3089563   2.9921379  13.9620076  )
        41           O1  tau(  41) = (   4.5951427   4.4669482  16.1652122  )
        42           O1  tau(  42) = (   2.0688924   4.4538916  16.2081353  )
        43           Ti1 tau(  43) = (   3.3160161   0.0142155  15.8078792  )
        44           Ti1 tau(  44) = (   0.0219142   4.6036306  15.9252304  )
        45           O1  tau(  45) = (   3.2900926   2.9813045   4.7018136  )
        46           O1  tau(  46) = (   1.3039711   4.4726057   6.0039043  )
        47           O1  tau(  47) = (   5.2763189   4.4711207   6.0039473  )
        48           C1  tau(  48) = (   6.0523360   2.9466228  19.1488008  )
        49           O1  tau(  49) = (   0.1918362   3.0047394  18.0201065  )
        50           H1  tau(  50) = (   5.0052694   2.8496317  18.7632286  )
        51           H1  tau(  51) = (   1.1393832   3.0938607  18.2382470  )

     number of k points=    10  Fermi-Dirac smearing, width (Ry)=  0.0073
                       cart. coord. in units 2pi/alat
        k(    1) = (   0.0000000   0.0000000   0.0000000), wk =   0.1250000
        k(    2) = (   0.0000000   0.0419351   0.0000000), wk =   0.2500000
        k(    3) = (   0.0000000  -0.0838702   0.0000000), wk =   0.1250000
        k(    4) = (   0.0379955   0.0000049   0.0000000), wk =   0.2500000
        k(    5) = (   0.0379955   0.0419400   0.0000000), wk =   0.2500000
        k(    6) = (   0.0379955  -0.0838652   0.0000000), wk =   0.2500000
        k(    7) = (   0.0379955  -0.0419301   0.0000000), wk =   0.2500000
        k(    8) = (  -0.0759910  -0.0000099   0.0000000), wk =   0.1250000
        k(    9) = (  -0.0759910   0.0419252   0.0000000), wk =   0.2500000
        k(   10) = (  -0.0759910  -0.0838800   0.0000000), wk =   0.1250000

     Initial potential from superposition of free atoms

     starting charge  373.99919, renormalised to  390.00000

     negative rho (up, down):  1.784E-02 0.000E+00

     %%%%%%%%%%%%%%%%%%%%%%%%%%%%%%%%%%%%%%%%%%%%%%%%%%%%%%%%%%%%%%%%%%%%%%%%
     %                                                                      %
     % You are using vdW-DF, which was implemented by the Thonhauser group. %
     % Please cite the following two papers that made this development      %
     % possible and the two reviews that describe the various versions:     %
     %                                                                      %
     %   T. Thonhauser et al., PRL 115, 136402 (2015).                      %
     %   T. Thonhauser et al., PRB 76, 125112 (2007).                       %
     %   K. Berland et al., Rep. Prog. Phys. 78, 066501 (2015).             %
     %   D.C. Langreth et al., J. Phys.: Condens. Matter 21, 084203 (2009). %
     %                                                                      %
     %                                                                      %
     % If you are calculating the stress with vdW-DF, please also cite:     %
     %                                                                      %
     %   R. Sabatini et al., J. Phys.: Condens. Matter 24, 424209 (2012).   %
     %                                                                      %
     %%%%%%%%%%%%%%%%%%%%%%%%%%%%%%%%%%%%%%%%%%%%%%%%%%%%%%%%%%%%%%%%%%%%%%%%

     Adding external electric field

     Computed dipole along edir(3) :
        Dipole               -6.1554 Ry au,        -15.6454 Debye
        Dipole field         -0.0116 Ry au,

        Potential amp.        1.0768 Ry
        Total length         46.3494 bohr

     Starting wfcs are  294 atomic wfcs
  @ DRIVER MODE: Message from server: STATUS
  @ DRIVER MODE: Message from server: POSDATA
  @ DRIVER MODE: Reading and sharing cell
  @ DRIVER MODE: Reading and sharing positions
  @ DRIVER MODE: Received positions

     Self-consistent Calculation

     iteration #  1     ecut=    29.40 Ry     beta= 0.05
     Davidson diagonalization with overlap
     c_bands:  1 eigenvalues not converged
     c_bands:  1 eigenvalues not converged
     c_bands:  1 eigenvalues not converged
     ethr =  1.00E-05,  avg # of iterations = 16.7

[...]

     total energy              =   -2756.81005735 Ry
     estimated scf accuracy    <    1910.62576339 Ry

[...]

     iteration #  3     ecut=    29.40 Ry     beta= 0.05
     Davidson diagonalization with overlap
     ethr =  1.00E-02,  avg # of iterations = 15.2

[...]

     iteration # 96     ecut=    29.40 Ry     beta= 0.05
     Davidson diagonalization with overlap
     c_bands:  1 eigenvalues not converged
     ethr =  1.92E-10,  avg # of iterations = 16.5

[...]

     total energy              =   -2929.94098168 Ry
     estimated scf accuracy    <       0.00000011 Ry

     iteration #102     ecut=    29.40 Ry     beta= 0.05
     Davidson diagonalization with overlap
     ethr =  2.91E-11,  avg # of iterations = 10.2

     negative rho (up, down):  1.676E-02 0.000E+00

     Adding external electric field

     Computed dipole along edir(3) :
        Dipole                0.3852 Ry au,          0.9790 Debye
        Dipole field          0.0007 Ry au,

        Potential amp.       -0.0674 Ry
        Total length         46.3494 bohr

     End of self-consistent calculation

          k = 0.0000 0.0000 0.0000 ( 18029 PWs)   bands (ev):

   -56.0179 -55.9818 -55.9807 -55.9465 -55.9091 -55.8985 -55.8642 -55.8573
   -55.8547 -55.8203 -55.8067 -55.8056 -55.7996 -55.7657 -55.0778 -55.0437
   -32.5871 -32.5152 -32.4783 -32.3834 -32.3337 -32.3304 -32.3197 -32.3106
   -32.2700 -32.2635 -32.2264 -32.2246 -32.2160 -32.1925 -32.1866 -32.1712
   -32.1539 -32.1530 -32.1451 -32.1354 -32.1314 -32.1247 -32.1114 -32.1073
   -32.0991 -32.0831 -32.0757 -32.0372 -32.0320 -32.0239 -32.0207 -32.0080
   -32.0036 -31.9986 -31.9946 -31.9852 -31.9714 -31.9541 -31.9365 -31.9338
   -31.9123 -31.8836 -31.4902 -31.3871 -31.3656 -31.3065 -31.2201 -31.1090
   -21.6114 -16.8501 -16.5990 -16.4620 -16.3574 -16.2393 -16.1222 -16.0600
   -15.9618 -15.8564 -15.7425 -15.6949 -15.6710 -15.6690 -15.6496 -15.6402
   -15.6326 -15.5738 -15.5463 -15.5241 -15.5100 -15.5080 -15.4625 -15.4422
   -15.4091 -15.3742 -15.2494 -15.1792 -15.1213 -14.7881 -13.5786 -13.4591
   -10.7110  -5.9963  -5.0102  -4.3354  -4.1781  -4.0282  -3.9527  -3.9429
    -3.8962  -3.7791  -3.6036  -3.4485  -3.4411  -3.3140  -3.2708  -3.2246
    -3.1818  -3.0532  -2.9988  -2.9863  -2.9118  -2.9076  -2.8932  -2.8828
    -2.7955  -2.7844  -2.7670  -2.7548  -2.6475  -2.6060  -2.4861  -2.4536
    -2.4063  -2.3666  -2.3583  -2.3445  -2.3393  -2.2950  -2.2832  -2.2595
    -2.2048  -2.1483  -2.0529  -1.9223  -1.9135  -1.7960  -1.7626  -1.5968
    -1.5814  -1.5445  -1.5187  -1.4685  -1.4247  -1.4183  -1.3744  -1.2697
    -1.1906  -1.1388  -1.0619  -1.0266  -0.9588  -0.9185  -0.8434  -0.8112
    -0.8073  -0.7778  -0.6799  -0.6107  -0.5507  -0.5102  -0.4925  -0.4687
    -0.3846  -0.3584  -0.2621  -0.2495  -0.2095  -0.2006  -0.0889  -0.0806
    -0.0733  -0.0564  -0.0484   0.0394   0.1136   0.1273   0.1553   0.3101
     0.5270   0.5386   0.5789   0.8346   0.9227   0.9481   1.1073   1.2858
     1.5342   1.5885   3.0784   3.1463   3.1841   3.2059   3.2292   3.2868
     3.5685   3.5839   3.5905   3.6070   3.6338

[...]

          k = 0.0380-0.0419 0.0000 ( 17876 PWs)   bands (ev):

[...]

          k =-0.0760-0.0000 0.0000 ( 17886 PWs)   bands (ev):

[...]

          k =-0.0760-0.0839 0.0000 ( 17948 PWs)   bands (ev):

   -56.0009 -55.9986 -55.9649 -55.9622 -55.9060 -55.8893 -55.8666 -55.8575
   -55.8392 -55.8355 -55.8133 -55.8084 -55.7832 -55.7821 -55.0607 -55.0607
   -32.4401 -32.3917 -32.3888 -32.3066 -32.2944 -32.2920 -32.2731 -32.2579
   -32.2528 -32.2280 -32.2189 -32.2160 -32.2085 -32.1668 -32.1563 -32.1554
   -32.1539 -32.1496 -32.1450 -32.1424 -32.1373 -32.1301 -32.1105 -32.0993
   -32.0990 -32.0973 -32.0931 -32.0894 -32.0852 -32.0835 -32.0817 -32.0578
   -32.0376 -32.0373 -32.0360 -32.0192 -32.0104 -32.0093 -31.9997 -31.9774
   -31.9687 -31.9678 -31.3782 -31.3781 -31.3029 -31.3028 -31.2633 -31.2633
   -21.6106 -16.4702 -16.2548 -16.1923 -16.0380 -16.0331 -16.0027 -15.9749
   -15.8456 -15.8229 -15.8092 -15.7891 -15.7648 -15.7477 -15.7401 -15.7253
   -15.6197 -15.6125 -15.6017 -15.5957 -15.5365 -15.5330 -15.5230 -15.5100
   -15.4772 -15.4745 -15.4474 -15.4440 -15.2969 -15.1593 -13.5603 -13.5598
   -10.7142  -5.9991  -4.9867  -4.2851  -3.5314  -3.5298  -3.4512  -3.2573
    -3.2192  -3.1853  -3.1733  -3.0978  -3.0223  -3.0146  -3.0077  -2.9256
    -2.9191  -2.9161  -2.9138  -2.8518  -2.8452  -2.8081  -2.8035  -2.7535
    -2.7232  -2.7182  -2.7091  -2.6857  -2.6828  -2.6672  -2.6490  -2.6289
    -2.6164  -2.5334  -2.4885  -2.3883  -2.3568  -2.3258  -2.2494  -2.2404
    -2.1566  -2.1271  -2.1067  -2.0687  -2.0236  -2.0070  -1.8477  -1.8147
    -1.8100  -1.7472  -1.6775  -1.6530  -1.6219  -1.5664  -1.5030  -1.4942
    -1.4049  -1.3491  -1.3460  -1.2213  -1.2109  -1.1588  -1.0527  -1.0207
    -1.0121  -1.0084  -0.9996  -0.9366  -0.9258  -0.8610  -0.8111  -0.7634
    -0.7457  -0.7331  -0.5377  -0.4962  -0.4418  -0.3413  -0.3012  -0.1096
    -0.0954  -0.0809   0.0025   0.0400   0.0553   0.1284   0.2482   0.2528
     0.3048   0.3609   0.4033   0.4105   0.4276   1.2945   1.2990   1.2999
     1.4040   1.4060   3.2382   3.2959   3.3235   3.4012   3.4761   3.4998
     3.5873   3.6055   3.6334   3.6383   3.7365

     the Fermi energy is     3.1378 ev

!    total energy              =   -2929.94098268 Ry
     estimated scf accuracy    <       0.00000005 Ry
     smearing contrib. (-TS)   =      -0.03724098 Ry
     internal energy E=F+TS    =   -2929.90374170 Ry

     The total energy is F=E-TS. E is the sum of the following terms:
     one-electron contribution =  -24334.56225249 Ry
     hartree contribution      =   12249.88809026 Ry
     xc contribution           =    -481.17341357 Ry
     ewald contribution        =    9635.94355415 Ry
     electric field correction =       0.00027994 Ry

     convergence has been achieved in 102 iterations

     Forces acting on atoms (cartesian axes, Ry/au):

     atom    1 type  1   force =    -0.00041042   -0.00001721    0.09181391
     atom    2 type  1   force =    -0.00028700    0.00032280   -0.18374697
     atom    3 type  2   force =     0.00041034    0.00008356   -0.02349665
     atom    4 type  2   force =     0.00072391    0.00037585    0.05121099
     atom    5 type  2   force =    -0.01350598    0.00018888    0.00468635
     atom    6 type  2   force =     0.01515136   -0.00002557    0.00541226
     atom    7 type  1   force =    -0.00053632    0.00016000   -0.00021566
     atom    8 type  1   force =     0.00025456    0.00019484    0.00007226
     atom    9 type  2   force =     0.00004486   -0.00004359   -0.00014774
     atom   10 type  2   force =    -0.00021235    0.00004906    0.00040209
     atom   11 type  2   force =     0.00004802   -0.00014490   -0.00013446
     atom   12 type  2   force =     0.00010539   -0.00001517   -0.00007974
     atom   13 type  1   force =    -0.00023488    0.00083625   -0.00046302
     atom   14 type  1   force =     0.00015916    0.00000473    0.00014538
     atom   15 type  2   force =     0.00000912    0.00033729    0.00037626
     atom   16 type  2   force =    -0.00000800    0.00008856    0.00057055
     atom   17 type  2   force =    -0.00027927   -0.00029873    0.00005020
     atom   18 type  2   force =    -0.00032341   -0.00035289    0.00032739
     atom   19 type  1   force =    -0.00003461    0.00011202    0.00026934
     atom   20 type  1   force =    -0.00041867    0.00031172    0.00015842
     atom   21 type  2   force =    -0.00007983    0.00001197    0.10506836
     atom   22 type  2   force =    -0.00005299   -0.00036703   -0.00006904
     atom   23 type  2   force =    -0.06789999   -0.00014420   -0.02654360
     atom   24 type  2   force =     0.06761893    0.00029819   -0.02662635
     atom   25 type  1   force =    -0.00034515   -0.00000521    0.09416883
     atom   26 type  1   force =    -0.00028919   -0.00041517   -0.18376051
     atom   27 type  2   force =     0.00036009    0.00013520   -0.02227979
     atom   28 type  2   force =     0.00077635    0.00030443    0.05092861
     atom   29 type  2   force =    -0.01349470    0.00044288    0.00481353
     atom   30 type  2   force =     0.01515976    0.00023439    0.00551679
     atom   31 type  1   force =    -0.00061030   -0.00030197   -0.00029223
     atom   32 type  1   force =     0.00026227   -0.00007756    0.00004281
     atom   33 type  2   force =     0.00000583    0.00003131   -0.00003973
     atom   34 type  2   force =    -0.00007128   -0.00005810    0.00010220
     atom   35 type  2   force =     0.00009236    0.00007989    0.00010889
     atom   36 type  2   force =     0.00005411   -0.00005801    0.00014246
     atom   37 type  1   force =    -0.00024469   -0.00076176   -0.00022235
     atom   38 type  1   force =     0.00021075    0.00007654    0.00068491
     atom   39 type  2   force =    -0.00005793   -0.00065040    0.00050604
     atom   40 type  2   force =    -0.00037832   -0.00017454   -0.00014340
     atom   41 type  2   force =    -0.00016568    0.00014076   -0.00019270
     atom   42 type  2   force =    -0.00036225    0.00001246    0.00018270
     atom   43 type  1   force =     0.00017907   -0.00018469   -0.00035548
     atom   44 type  1   force =    -0.00048243   -0.00014003    0.00002197
     atom   45 type  2   force =    -0.00004589    0.00002267    0.10505148
     atom   46 type  2   force =    -0.06790723   -0.00050946   -0.02656174
     atom   47 type  2   force =     0.06762790   -0.00006252   -0.02664207
     atom   48 type  3   force =    -0.00802064   -0.00074175   -0.00215339
     atom   49 type  2   force =    -0.00261800   -0.00014416   -0.00097552
     atom   50 type  4   force =     0.00926849    0.00084842    0.00162179
     atom   51 type  4   force =     0.00085476   -0.00001009    0.00068540

     Total force =     0.368064     Total SCF correction =     0.000509
  @ DRIVER MODE: Message from server: STATUS
  @ DRIVER MODE: Message from server: GETFORCE
  @ DRIVER MODE: Returning v,forces,stress,ensemble

     Writing output data file ./calc.save/
  @ DRIVER MODE: Message from server: EXIT
  @ DRIVE MODE: Exiting

     General routines

     Parallel routines

   This run was terminated on:   2:48: 2   9Sep2021

   JOB DONE.