     Program PWSCF v.6.7GPU starts on 24Aug2021 at  2:14:30

     R & G space division:  proc/nbgrp/npool/nimage =       6
     Reading input from /storage/home/hcoda1/3/ntian30/research/carbon/CH_vib/ads_slab/CHNNHHH_a/out_0025/pw.inp
Warning: card &CELL ignored
Warning: card   CELL_DYNAMICS='IPI', ignored
Warning: card / ignored

     Current dimensions of program PWSCF are:
     Max number of different atomic species (ntypx) = 10
     Max number of k-points (npk) =  40000
     Max angular momentum in pseudopotentials (lmaxx) =  3
     Presently no symmetry can be used with electric field

     Message from routine cell_base_init:
     DEPRECATED: use true lattice parameter, not A to a.u. conversion factor

     IMPORTANT: XC functional enforced from input :
     Exchange-correlation= BEEF-VDW
                           (   1   4  43  14   2   0   0)
     Any further DFT definition will be discarded
     Please, verify this is what you really want

  @ DRIVER MODE: Connecting to
 qe_1139763_2632795.sched-torque.pace.gatech.edufiimub6c_scratch
  using UNIX socket
  @ DRIVER MODE: Message from server: STATUS
  @ DRIVER MODE: Message from server: INIT
  @ DRIVER MODE: Receiving replica           0          -1
  @ DRIVER MODE: Receiving encoded integer          25
  @ DRIVER MODE:  SCF:  T  FORCE:  T  STRESS:  F  VC:  F  ENSEMBLE:  F
  @ DRIVER MODE:  SCF:  T  FORCE:  T  STRESS:  F  VC:  F  ENSEMBLE:  F

     Using Slab Decomposition

     bravais-lattice index     =            0
     lattice parameter (alat)  =       1.8897  a.u.
     unit-cell volume          =    6658.9804 (a.u.)^3
     number of atoms/cell      =           54
     number of atomic types    =            5
     number of electrons       =       396.00
     number of Kohn-Sham states=          208
     kinetic-energy cutoff     =      29.3995  Ry
     charge density cutoff     =     293.9946  Ry
     scf convergence threshold =      7.3E-08
     mixing beta               =       0.0500
     number of iterations used =            8  plain     mixing
     Exchange-correlation= BEEF-VDW
                           (   1   4  43  14   2   0   0)

     celldm(1)=   1.889726  celldm(2)=   0.000000  celldm(3)=   0.000000
     celldm(4)=   0.000000  celldm(5)=   0.000000  celldm(6)=   0.000000

     crystal axes: (cart. coord. in units of alat)
               a(1) = (   6.579727   0.000000   0.000000 )
               a(2) = (  -0.000775   5.961596   0.000000 )
               a(3) = (   0.000000   0.000000  25.155947 )

     reciprocal axes: (cart. coord. in units 2 pi/alat)
               b(1) = (  0.151982  0.000020  0.000000 )
               b(2) = (  0.000000  0.167740  0.000000 )
               b(3) = (  0.000000  0.000000  0.039752 )

     PseudoPot. # 1 for Ti read from file:
     /storage/coda1/p-amedford6/0/shared/rich_project_chbe-medford/medford-share/data/pseudos_module/espresso/nninc/pbe/van/Ti.UPF
     MD5 check sum: 8e4df49b7f0d34bbd5052bf3f5ea0213
     Pseudo is Ultrasoft, Zval = 12.0
     Generated by new atomic code, or converted to UPF format
     Using radial grid of  851 points,  6 beta functions with:
                l(1) =   0
                l(2) =   0
                l(3) =   1
                l(4) =   1
                l(5) =   2
                l(6) =   2
     Q(r) pseudized with  8 coefficients,  rinner =    1.000   1.000   1.000
                                                       1.000   1.000

     PseudoPot. # 2 for O  read from file:
     /storage/coda1/p-amedford6/0/shared/rich_project_chbe-medford/medford-share/data/pseudos_module/espresso/nninc/pbe/van/O.UPF
     MD5 check sum: 78c19812648e8988a0fe644b0f25305e
     Pseudo is Ultrasoft, Zval =  6.0
     Generated by new atomic code, or converted to UPF format
     Using radial grid of  737 points,  4 beta functions with:
                l(1) =   0
                l(2) =   0
                l(3) =   1
                l(4) =   1
     Q(r) pseudized with  8 coefficients,  rinner =    0.800   0.800   0.800

     PseudoPot. # 3 for N  read from file:
     /storage/coda1/p-amedford6/0/shared/rich_project_chbe-medford/medford-share/data/pseudos_module/espresso/nninc/pbe/van/N.UPF
     MD5 check sum: 90d10febe142ad51ac9d5be1deb811c4
     Pseudo is Ultrasoft, Zval =  5.0
     Generated by new atomic code, or converted to UPF format
     Using radial grid of  729 points,  4 beta functions with:
                l(1) =   0
                l(2) =   0
                l(3) =   1
                l(4) =   1
     Q(r) pseudized with  8 coefficients,  rinner =    0.800   0.800   0.800

     PseudoPot. # 4 for C  read from file:
     /storage/coda1/p-amedford6/0/shared/rich_project_chbe-medford/medford-share/data/pseudos_module/espresso/nninc/pbe/van/C.UPF
     MD5 check sum: 1a69bf6b8db32088f5b2163dbdb77a27
     Pseudo is Ultrasoft, Zval =  4.0
     Generated by new atomic code, or converted to UPF format
     Using radial grid of  721 points,  4 beta functions with:
                l(1) =   0
                l(2) =   0
                l(3) =   1
                l(4) =   1
     Q(r) pseudized with  8 coefficients,  rinner =    0.800   0.800   0.800

     PseudoPot. # 5 for H  read from file:
     /storage/coda1/p-amedford6/0/shared/rich_project_chbe-medford/medford-share/data/pseudos_module/espresso/nninc/pbe/van/H.UPF
     MD5 check sum: b5ee9d7bfd3a09ee7748110bda690ff7
     Pseudo is Ultrasoft, Zval =  1.0
     Generated by new atomic code, or converted to UPF format
     Using radial grid of  615 points,  1 beta functions with:
                l(1) =   0
     Q(r) pseudized with  8 coefficients,  rinner =    0.800

     atomic species   valence    mass     pseudopotential
        Ti1           12.00    47.86700     Ti( 1.00)
        O1             6.00    15.99900     O ( 1.00)
        N1             5.00    14.00700     N ( 1.00)
        C1             4.00    12.01100     C ( 1.00)
        H1             1.00     1.00800     H ( 1.00)

     No symmetry found

   Cartesian axes

     site n.     atom                  positions (alat units)
         1           Ti1 tau(   1) = (   0.0004258   2.9801865   6.0000000  )
         2           Ti1 tau(   2) = (   3.2906075   1.4906267   6.0002472  )
         3           O1  tau(   3) = (   0.0006271   0.0005054   7.9858123  )
         4           O1  tau(   4) = (   3.2906025   0.0005020   7.3038282  )
         5           O1  tau(   5) = (   4.5942328   1.4918067   9.2879030  )
         6           O1  tau(   6) = (   1.9868534   1.4903216   9.2879459  )
         7           Ti1 tau(   7) = (   3.2907910   2.8959150   9.1758416  )
         8           Ti1 tau(   8) = (   0.0015273   1.4827037   9.2680791  )
         9           O1  tau(   9) = (   3.3116888   5.9365513  11.3741315  )
        10           O1  tau(  10) = (   0.0116148   5.9584955  10.6183126  )
        11           O1  tau(  11) = (   1.3152863   1.4773744  12.6583839  )
        12           O1  tau(  12) = (   5.3185463   1.4781915  12.6604289  )
        13           Ti1 tau(  13) = (   0.0312267   2.9553392  12.5172039  )
        14           Ti1 tau(  14) = (   3.3247105   1.4628205  12.5237724  )
        15           O1  tau(  15) = (   0.0176705   0.0150782  14.7085838  )
        16           O1  tau(  16) = (   3.3263678   5.9469243  13.9928752  )
        17           O1  tau(  17) = (   4.5829619   1.4750097  16.2211409  )
        18           O1  tau(  18) = (   2.0801478   1.4636096  16.1819230  )
        19           Ti1 tau(  19) = (   3.3264833   2.9461821  15.7545810  )
        20           Ti1 tau(  20) = (   0.0064452   1.3478264  16.0581623  )
        21           O1  tau(  21) = (   3.2904802   0.0005063   4.7018136  )
        22           O1  tau(  22) = (   0.0393124   5.8647722  17.2449945  )
        23           O1  tau(  23) = (   1.3043587   1.4918075   6.0039043  )
        24           O1  tau(  24) = (   5.2767064   1.4903225   6.0039473  )
        25           Ti1 tau(  25) = (   0.0000382   5.9609847   6.0000000  )
        26           Ti1 tau(  26) = (   3.2902200   4.4714249   6.0002472  )
        27           O1  tau(  27) = (   0.0002396   2.9813036   7.9858123  )
        28           O1  tau(  28) = (   3.2902150   2.9813002   7.3038282  )
        29           O1  tau(  29) = (   4.5938453   4.4726049   9.2879030  )
        30           O1  tau(  30) = (   1.9864658   4.4711199   9.2879459  )
        31           Ti1 tau(  31) = (   3.2891106   5.8743827   9.1763621  )
        32           Ti1 tau(  32) = (   0.0006254   4.4649316   9.2693709  )
        33           O1  tau(  33) = (   3.3126387   2.9639063  11.3704323  )
        34           O1  tau(  34) = (   0.0092240   2.9805883  10.6323155  )
        35           O1  tau(  35) = (   1.3140505   4.4512041  12.6779488  )
        36           O1  tau(  36) = (   5.3186431   4.4503656  12.6784002  )
        37           Ti1 tau(  37) = (   0.0306983   5.9434578  12.5012515  )
        38           Ti1 tau(  38) = (   3.3249252   4.4426326  12.5284913  )
        39           O1  tau(  39) = (   0.0332616   2.9308952  14.9693926  )
        40           O1  tau(  40) = (   3.3269026   2.9510973  13.9662216  )
        41           O1  tau(  41) = (   4.5816979   4.4256876  16.1885362  )
        42           O1  tau(  42) = (   2.0739833   4.4348339  16.1471384  )
        43           Ti1 tau(  43) = (   3.3139036   5.9323143  15.7909994  )
        44           Ti1 tau(  44) = (   0.0257917   4.5791344  15.8913375  )
        45           O1  tau(  45) = (   3.2900926   2.9813045   4.7018136  )
        46           O1  tau(  46) = (   1.3039711   4.4726057   6.0039043  )
        47           O1  tau(  47) = (   5.2763189   4.4711207   6.0039473  )
        48           N1  tau(  48) = (   0.2611162   2.7486399  18.0384573  )
        49           C1  tau(  49) = (   1.0666652   3.1333113  18.7681872  )
        50           H1  tau(  50) = (   1.9496291   3.4674532  19.3170853  )
        51           N1  tau(  51) = (   3.9312863   3.7371558  19.5917579  )
        52           H1  tau(  52) = (   4.2537485   4.0673035  20.4913501  )
        53           H1  tau(  53) = (   4.3024207   4.3757745  18.8906580  )
        54           H1  tau(  54) = (   4.4024832   2.8518033  19.4177320  )

     number of k points=    10  Fermi-Dirac smearing, width (Ry)=  0.0073
                       cart. coord. in units 2pi/alat
        k(    1) = (   0.0000000   0.0000000   0.0000000), wk =   0.1250000
        k(    2) = (   0.0000000   0.0419351   0.0000000), wk =   0.2500000
        k(    3) = (   0.0000000  -0.0838702   0.0000000), wk =   0.1250000
        k(    4) = (   0.0379955   0.0000049   0.0000000), wk =   0.2500000
        k(    5) = (   0.0379955   0.0419400   0.0000000), wk =   0.2500000
        k(    6) = (   0.0379955  -0.0838652   0.0000000), wk =   0.2500000
        k(    7) = (   0.0379955  -0.0419301   0.0000000), wk =   0.2500000
        k(    8) = (  -0.0759910  -0.0000099   0.0000000), wk =   0.1250000
        k(    9) = (  -0.0759910   0.0419252   0.0000000), wk =   0.2500000
        k(   10) = (  -0.0759910  -0.0838800   0.0000000), wk =   0.1250000

     Initial potential from superposition of free atoms

     starting charge  379.99915, renormalised to  396.00000

     negative rho (up, down):  1.480E-02 0.000E+00

     %%%%%%%%%%%%%%%%%%%%%%%%%%%%%%%%%%%%%%%%%%%%%%%%%%%%%%%%%%%%%%%%%%%%%%%%
     %                                                                      %
     % You are using vdW-DF, which was implemented by the Thonhauser group. %
     % Please cite the following two papers that made this development      %
     % possible and the two reviews that describe the various versions:     %
     %                                                                      %
     %   T. Thonhauser et al., PRL 115, 136402 (2015).                      %
     %   T. Thonhauser et al., PRB 76, 125112 (2007).                       %
     %   K. Berland et al., Rep. Prog. Phys. 78, 066501 (2015).             %
     %   D.C. Langreth et al., J. Phys.: Condens. Matter 21, 084203 (2009). %
     %                                                                      %
     %                                                                      %
     % If you are calculating the stress with vdW-DF, please also cite:     %
     %                                                                      %
     %   R. Sabatini et al., J. Phys.: Condens. Matter 24, 424209 (2012).   %
     %                                                                      %
     %%%%%%%%%%%%%%%%%%%%%%%%%%%%%%%%%%%%%%%%%%%%%%%%%%%%%%%%%%%%%%%%%%%%%%%%

     Adding external electric field

     Computed dipole along edir(3) :
        Dipole              -10.3171 Ry au,        -26.2235 Debye
        Dipole field         -0.0195 Ry au,

        Potential amp.        1.8048 Ry
        Total length         46.3494 bohr

     Starting wfcs are  300 atomic wfcs
  @ DRIVER MODE: Message from server: STATUS
  @ DRIVER MODE: Message from server: POSDATA
  @ DRIVER MODE: Reading and sharing cell
  @ DRIVER MODE: Reading and sharing positions
  @ DRIVER MODE: Received positions

     Self-consistent Calculation

     iteration #  1     ecut=    29.40 Ry     beta= 0.05
     Davidson diagonalization with overlap
     c_bands:  1 eigenvalues not converged
     c_bands:  2 eigenvalues not converged
     c_bands:  2 eigenvalues not converged
     c_bands:  1 eigenvalues not converged
     c_bands:  3 eigenvalues not converged
     c_bands:  2 eigenvalues not converged
     c_bands:  3 eigenvalues not converged
     c_bands:  2 eigenvalues not converged
     c_bands:  2 eigenvalues not converged
     c_bands:  2 eigenvalues not converged
     ethr =  1.00E-05,  avg # of iterations = 20.0

[...]

     total energy              =   -2525.40851001 Ry
     estimated scf accuracy    <    4644.96795125 Ry

     iteration #  2     ecut=    29.40 Ry     beta= 0.05
     Davidson diagonalization with overlap
     ethr =  1.00E-02,  avg # of iterations = 23.6

[...]

     iteration # 52     ecut=    29.40 Ry     beta= 0.05
     Davidson diagonalization with overlap
     c_bands:  1 eigenvalues not converged
     c_bands:  1 eigenvalues not converged
     c_bands:  2 eigenvalues not converged
     c_bands:  1 eigenvalues not converged
     c_bands:  2 eigenvalues not converged
     c_bands:  1 eigenvalues not converged
     ethr =  6.04E-10,  avg # of iterations = 18.9

[...]

     total energy              =   -2940.41305615 Ry
     estimated scf accuracy    <       0.00000008 Ry

     iteration # 60     ecut=    29.40 Ry     beta= 0.05
     Davidson diagonalization with overlap
     ethr =  2.00E-11,  avg # of iterations =  8.8

     negative rho (up, down):  1.579E-02 0.000E+00

     Adding external electric field

     Computed dipole along edir(3) :
        Dipole                1.4902 Ry au,          3.7878 Debye
        Dipole field          0.0028 Ry au,

        Potential amp.       -0.2607 Ry
        Total length         46.3494 bohr

     End of self-consistent calculation

          k = 0.0000 0.0000 0.0000 ( 18029 PWs)   bands (ev):

   -55.2540 -55.2181 -55.2054 -55.1713 -55.1311 -55.1230 -55.0990 -55.0958
   -55.0716 -55.0523 -55.0372 -55.0344 -55.0008 -54.9840 -54.2333 -54.1993
   -31.8226 -31.7022 -31.6978 -31.6188 -31.5633 -31.5611 -31.5526 -31.5398
   -31.4943 -31.4817 -31.4627 -31.4594 -31.4499 -31.4252 -31.4092 -31.4046
   -31.3903 -31.3787 -31.3697 -31.3684 -31.3579 -31.3455 -31.3192 -31.3168
   -31.3089 -31.3022 -31.2741 -31.2724 -31.2626 -31.2612 -31.2527 -31.2338
   -31.2328 -31.2246 -31.2208 -31.2192 -31.1855 -31.1855 -31.1676 -31.1624
   -31.1454 -31.0939 -30.6426 -30.5486 -30.5265 -30.4590 -30.3723 -30.2613
   -16.7724 -16.0789 -15.8092 -15.6668 -15.5608 -15.4495 -15.3347 -15.3144
   -15.1775 -15.1548 -15.0889 -14.9702 -14.9194 -14.9010 -14.8864 -14.8725
   -14.8660 -14.7947 -14.7895 -14.7663 -14.7458 -14.7332 -14.6903 -14.6884
   -14.6479 -14.6270 -14.5808 -14.4917 -14.4088 -14.3395 -14.0174 -12.7359
   -12.6185  -7.9748  -5.2806  -5.0404  -4.0121  -3.4178  -3.2674  -3.1715
    -3.1451  -3.1294  -2.9998  -2.8527  -2.8431  -2.7476  -2.6382  -2.5870
    -2.5044  -2.4557  -2.4434  -2.4251  -2.2419  -2.2250  -2.1720  -2.1239
    -2.0940  -2.0581  -2.0377  -2.0186  -2.0014  -1.9921  -1.9280  -1.8142
    -1.7787  -1.7265  -1.6751  -1.6498  -1.5958  -1.5752  -1.5391  -1.5331
    -1.5326  -1.4845  -1.4584  -1.4351  -1.3581  -1.2721  -1.1576  -1.1063
    -0.9513  -0.8889  -0.8327  -0.8204  -0.7567  -0.7369  -0.7068  -0.6308
    -0.6231  -0.5903  -0.4716  -0.3769  -0.3374  -0.3219  -0.2704  -0.2343
    -0.2070  -0.1598  -0.0638  -0.0317  -0.0148  -0.0103   0.1397   0.1535
     0.2226   0.2700   0.2917   0.2923   0.4054   0.4219   0.4942   0.5313
     0.5672   0.6406   0.6805   0.6964   0.6990   0.7326   0.7366   0.8275
     0.8496   0.8580   0.9302   1.0797   1.3062   1.3542   1.3620   1.6958
     1.6974   1.7895   1.9731   2.3653   2.4135   3.8447   3.9162   3.9903
     3.9970   4.0226   4.0828   4.3243   4.3347   4.3472   4.3504   4.3917

[...]

          k = 0.0380-0.0419 0.0000 ( 17876 PWs)   bands (ev):

[...]

          k =-0.0760-0.0000 0.0000 ( 17886 PWs)   bands (ev):

[...]

          k =-0.0760-0.0839 0.0000 ( 17948 PWs)   bands (ev):

   -55.2361 -55.2358 -55.1883 -55.1882 -55.1182 -55.1174 -55.1094 -55.0963
   -55.0566 -55.0553 -55.0530 -55.0178 -55.0175 -54.9869 -54.2163 -54.2162
   -31.6264 -31.6259 -31.6253 -31.5249 -31.5129 -31.5128 -31.5123 -31.4796
   -31.4795 -31.4612 -31.4540 -31.4484 -31.4440 -31.3932 -31.3884 -31.3864
   -31.3851 -31.3851 -31.3796 -31.3739 -31.3500 -31.3465 -31.3359 -31.3268
   -31.3259 -31.3197 -31.3110 -31.3080 -31.3079 -31.3015 -31.2885 -31.2859
   -31.2809 -31.2684 -31.2659 -31.2489 -31.2479 -31.2438 -31.1985 -31.1983
   -31.1926 -31.1861 -30.5392 -30.5392 -30.4551 -30.4550 -30.4157 -30.4156
   -16.7636 -15.6114 -15.4949 -15.4538 -15.2661 -15.2576 -15.2273 -15.2147
   -15.1605 -15.0636 -15.0372 -15.0268 -15.0133 -14.9617 -14.9554 -14.9502
   -14.9286 -14.8575 -14.8490 -14.8471 -14.8300 -14.7639 -14.7591 -14.7548
   -14.7439 -14.7008 -14.6979 -14.6036 -14.6015 -14.5077 -14.3841 -12.7200
   -12.7200  -7.9714  -5.2762  -5.0510  -3.9985  -2.7968  -2.7691  -2.7222
    -2.7132  -2.6967  -2.4775  -2.4548  -2.4177  -2.3678  -2.3063  -2.2551
    -2.2467  -2.2301  -2.1630  -2.1242  -2.1077  -2.0941  -2.0758  -2.0602
    -2.0458  -2.0203  -1.9778  -1.9703  -1.9492  -1.9287  -1.8989  -1.8905
    -1.8593  -1.8384  -1.8232  -1.8058  -1.6912  -1.6675  -1.6089  -1.5698
    -1.5284  -1.4560  -1.4508  -1.3537  -1.3463  -1.2920  -1.2802  -1.2542
    -1.1612  -1.0622  -1.0001  -0.9935  -0.9871  -0.8611  -0.8228  -0.7985
    -0.7617  -0.7335  -0.6742  -0.5961  -0.5746  -0.5400  -0.4558  -0.4476
    -0.3906  -0.3077  -0.2760  -0.2457  -0.2158  -0.2085  -0.1987  -0.1455
    -0.1391  -0.0679  -0.0179   0.0154   0.0266   0.0606   0.2653   0.2820
     0.3349   0.4332   0.5059   0.6261   0.6839   0.7051   0.7764   0.8166
     0.8605   0.9230   1.0254   1.0558   1.0587   1.1334   1.1651   1.2071
     1.2111   2.1465   2.1468   2.2334   2.2336   3.9887   4.0825   4.1047
     4.1529   4.2442   4.2791   4.3624   4.3804   4.4301   4.4320   4.5020

     the Fermi energy is     3.9077 ev

!    total energy              =   -2940.41309819 Ry
     estimated scf accuracy    <       0.00000004 Ry
     smearing contrib. (-TS)   =      -0.03731607 Ry
     internal energy E=F+TS    =   -2940.37578212 Ry

     The total energy is F=E-TS. E is the sum of the following terms:
     one-electron contribution =  -23553.22347698 Ry
     hartree contribution      =   11869.30820104 Ry
     xc contribution           =    -485.97130182 Ry
     ewald contribution        =    9229.50660461 Ry
     electric field correction =       0.00419102 Ry

     convergence has been achieved in  60 iterations

     Forces acting on atoms (cartesian axes, Ry/au):

     atom    1 type  1   force =    -0.00002509   -0.00018157    0.09332347
     atom    2 type  1   force =    -0.00015038   -0.00022248   -0.17810664
     atom    3 type  2   force =     0.00006251   -0.00019717   -0.02048048
     atom    4 type  2   force =     0.00000290   -0.00195019    0.05845766
     atom    5 type  2   force =    -0.01028962   -0.00134660    0.00735957
     atom    6 type  2   force =     0.01228529   -0.00075101    0.00785184
     atom    7 type  1   force =     0.00036267    0.00279077   -0.01406567
     atom    8 type  1   force =    -0.00055453    0.00107115   -0.00336264
     atom    9 type  2   force =     0.00003456    0.00049963   -0.00007076
     atom   10 type  2   force =    -0.00055477   -0.00102578   -0.00005800
     atom   11 type  2   force =     0.00008556    0.00011102    0.00004312
     atom   12 type  2   force =    -0.00025218    0.00016494   -0.00006801
     atom   13 type  1   force =    -0.00002371    0.00090771   -0.00029486
     atom   14 type  1   force =     0.00009965    0.00024071   -0.00018093
     atom   15 type  2   force =    -0.00013636    0.00011444    0.00098832
     atom   16 type  2   force =     0.00004368    0.00011332   -0.00003463
     atom   17 type  2   force =     0.00026744   -0.00031569    0.00002577
     atom   18 type  2   force =    -0.00020771   -0.00047506   -0.00048190
     atom   19 type  1   force =    -0.00064126   -0.00020444    0.00010457
     atom   20 type  1   force =    -0.00022337    0.00070416    0.00004156
     atom   21 type  2   force =    -0.00001928    0.00000541    0.10388387
     atom   22 type  2   force =    -0.00028393   -0.00066410   -0.00105277
     atom   23 type  2   force =    -0.07044914   -0.00008074   -0.02689415
     atom   24 type  2   force =     0.07028860    0.00035271   -0.02694943
     atom   25 type  1   force =     0.00004520   -0.00005411    0.09294175
     atom   26 type  1   force =    -0.00017098   -0.00019007   -0.17814591
     atom   27 type  2   force =     0.00012405   -0.00034356   -0.01949513
     atom   28 type  2   force =     0.00003250   -0.00168048    0.05803450
     atom   29 type  2   force =    -0.01041142   -0.00125073    0.00692913
     atom   30 type  2   force =     0.01229679   -0.00092167    0.00744112
     atom   31 type  1   force =     0.00034889    0.00516498   -0.01508351
     atom   32 type  1   force =    -0.00046722   -0.00162811   -0.00358689
     atom   33 type  2   force =    -0.00019199   -0.00021776   -0.00017928
     atom   34 type  2   force =     0.00028954   -0.00053549    0.00104632
     atom   35 type  2   force =    -0.00040916    0.00005636    0.00023560
     atom   36 type  2   force =     0.00034140   -0.00002910    0.00029598
     atom   37 type  1   force =    -0.00011885   -0.00042911   -0.00005436
     atom   38 type  1   force =     0.00013140    0.00034571   -0.00030527
     atom   39 type  2   force =    -0.00034690   -0.00043339    0.00117715
     atom   40 type  2   force =     0.00006683    0.00007176   -0.00016659
     atom   41 type  2   force =    -0.00003068    0.00024515   -0.00031406
     atom   42 type  2   force =    -0.00012641    0.00002152   -0.00041743
     atom   43 type  1   force =    -0.00081551   -0.00015873    0.00009716
     atom   44 type  1   force =     0.00010586    0.00049144    0.00000827
     atom   45 type  2   force =    -0.00001146    0.00000965    0.10386775
     atom   46 type  2   force =    -0.07047600   -0.00005082   -0.02689868
     atom   47 type  2   force =     0.07030024    0.00038862   -0.02696885
     atom   48 type  3   force =     0.00003578   -0.00081629    0.00015776
     atom   49 type  4   force =    -0.00084304    0.00054872   -0.00059133
     atom   50 type  5   force =     0.00019920   -0.00005849    0.00068670
     atom   51 type  3   force =    -0.00221440   -0.00293830   -0.00640333
     atom   52 type  5   force =     0.00293072    0.00230380    0.00506740
     atom   53 type  5   force =     0.00018137    0.00062769    0.00005265
     atom   54 type  5   force =    -0.00051729    0.00179966    0.00059253

     Total force =     0.366106     Total SCF correction =     0.000550
  @ DRIVER MODE: Message from server: STATUS
  @ DRIVER MODE: Message from server: GETFORCE
  @ DRIVER MODE: Returning v,forces,stress,ensemble

     Writing output data file ./calc.save/
  @ DRIVER MODE: Message from server: EXIT
  @ DRIVE MODE: Exiting

     General routines

     Parallel routines

   This run was terminated on:   2:40:58  24Aug2021

   JOB DONE.