     Program PWSCF v.6.7GPU starts on 15Sep2021 at 21:42:33

     R & G space division:  proc/nbgrp/npool/nimage =      10
     Reading input from /storage/home/hcoda1/3/ntian30/research/carbon/CxH_vib/H2O_calc/ads_slab/CHH2O_a/out_0026/pw.inp
Warning: card &CELL ignored
Warning: card   CELL_DYNAMICS='IPI', ignored
Warning: card / ignored

     Current dimensions of program PWSCF are:
     Max number of different atomic species (ntypx) = 10
     Max number of k-points (npk) =  40000
     Max angular momentum in pseudopotentials (lmaxx) =  3
     Presently no symmetry can be used with electric field

     Message from routine cell_base_init:
     DEPRECATED: use true lattice parameter, not A to a.u. conversion factor

     IMPORTANT: XC functional enforced from input :
     Exchange-correlation= BEEF-VDW
                           (   1   4  43  14   2   0   0)
     Any further DFT definition will be discarded
     Please, verify this is what you really want

  @ DRIVER MODE: Connecting to
 qe_1139763_2852624.sched-torque.pace.gatech.eduqw8r7j5__scratch
  using UNIX socket
  @ DRIVER MODE: Message from server: STATUS
  @ DRIVER MODE: Message from server: INIT
  @ DRIVER MODE: Receiving replica           0          -1
  @ DRIVER MODE: Receiving encoded integer          25
  @ DRIVER MODE:  SCF:  T  FORCE:  T  STRESS:  F  VC:  F  ENSEMBLE:  F
  @ DRIVER MODE:  SCF:  T  FORCE:  T  STRESS:  F  VC:  F  ENSEMBLE:  F

     Using Slab Decomposition

     bravais-lattice index     =            0
     lattice parameter (alat)  =       1.8897  a.u.
     unit-cell volume          =    6658.9804 (a.u.)^3
     number of atoms/cell      =           52
     number of atomic types    =            4
     number of electrons       =       391.00
     number of Kohn-Sham states=          205
     kinetic-energy cutoff     =      29.3995  Ry
     charge density cutoff     =     293.9946  Ry
     scf convergence threshold =      7.3E-08
     mixing beta               =       0.0500
     number of iterations used =            8  plain     mixing
     Exchange-correlation= BEEF-VDW
                           (   1   4  43  14   2   0   0)

     celldm(1)=   1.889726  celldm(2)=   0.000000  celldm(3)=   0.000000
     celldm(4)=   0.000000  celldm(5)=   0.000000  celldm(6)=   0.000000

     crystal axes: (cart. coord. in units of alat)
               a(1) = (   6.579727   0.000000   0.000000 )
               a(2) = (  -0.000775   5.961596   0.000000 )
               a(3) = (   0.000000   0.000000  25.155947 )

     reciprocal axes: (cart. coord. in units 2 pi/alat)
               b(1) = (  0.151982  0.000020  0.000000 )
               b(2) = (  0.000000  0.167740  0.000000 )
               b(3) = (  0.000000  0.000000  0.039752 )

     PseudoPot. # 1 for Ti read from file:
     /storage/coda1/p-amedford6/0/shared/rich_project_chbe-medford/medford-share/data/pseudos_module/espresso/nninc/pbe/van/Ti.UPF
     MD5 check sum: 8e4df49b7f0d34bbd5052bf3f5ea0213
     Pseudo is Ultrasoft, Zval = 12.0
     Generated by new atomic code, or converted to UPF format
     Using radial grid of  851 points,  6 beta functions with:
                l(1) =   0
                l(2) =   0
                l(3) =   1
                l(4) =   1
                l(5) =   2
                l(6) =   2
     Q(r) pseudized with  8 coefficients,  rinner =    1.000   1.000   1.000
                                                       1.000   1.000

     PseudoPot. # 2 for O  read from file:
     /storage/coda1/p-amedford6/0/shared/rich_project_chbe-medford/medford-share/data/pseudos_module/espresso/nninc/pbe/van/O.UPF
     MD5 check sum: 78c19812648e8988a0fe644b0f25305e
     Pseudo is Ultrasoft, Zval =  6.0
     Generated by new atomic code, or converted to UPF format
     Using radial grid of  737 points,  4 beta functions with:
                l(1) =   0
                l(2) =   0
                l(3) =   1
                l(4) =   1
     Q(r) pseudized with  8 coefficients,  rinner =    0.800   0.800   0.800

     PseudoPot. # 3 for C  read from file:
     /storage/coda1/p-amedford6/0/shared/rich_project_chbe-medford/medford-share/data/pseudos_module/espresso/nninc/pbe/van/C.UPF
     MD5 check sum: 1a69bf6b8db32088f5b2163dbdb77a27
     Pseudo is Ultrasoft, Zval =  4.0
     Generated by new atomic code, or converted to UPF format
     Using radial grid of  721 points,  4 beta functions with:
                l(1) =   0
                l(2) =   0
                l(3) =   1
                l(4) =   1
     Q(r) pseudized with  8 coefficients,  rinner =    0.800   0.800   0.800

     PseudoPot. # 4 for H  read from file:
     /storage/coda1/p-amedford6/0/shared/rich_project_chbe-medford/medford-share/data/pseudos_module/espresso/nninc/pbe/van/H.UPF
     MD5 check sum: b5ee9d7bfd3a09ee7748110bda690ff7
     Pseudo is Ultrasoft, Zval =  1.0
     Generated by new atomic code, or converted to UPF format
     Using radial grid of  615 points,  1 beta functions with:
                l(1) =   0
     Q(r) pseudized with  8 coefficients,  rinner =    0.800

     atomic species   valence    mass     pseudopotential
        Ti1           12.00    47.86700     Ti( 1.00)
        O1             6.00    15.99900     O ( 1.00)
        C1             4.00    12.01100     C ( 1.00)
        H1             1.00     1.00800     H ( 1.00)

     No symmetry found

   Cartesian axes

     site n.     atom                  positions (alat units)
         1           Ti1 tau(   1) = (   0.0004258   2.9801865   6.0000000  )
         2           Ti1 tau(   2) = (   3.2906075   1.4906267   6.0002472  )
         3           O1  tau(   3) = (   0.0006271   0.0005054   7.9858123  )
         4           O1  tau(   4) = (   3.2906025   0.0005020   7.3038282  )
         5           O1  tau(   5) = (   4.5942328   1.4918067   9.2879030  )
         6           O1  tau(   6) = (   1.9868534   1.4903216   9.2879459  )
         7           Ti1 tau(   7) = (   3.2871774   2.8648350   9.1721854  )
         8           Ti1 tau(   8) = (  -0.0000353   1.4301884   9.3769680  )
         9           O1  tau(   9) = (   3.2813214   0.0053726  11.3480220  )
        10           O1  tau(  10) = (  -0.0004909   5.9494466  10.5591019  )
        11           O1  tau(  11) = (   1.2709337   1.5062281  12.6398922  )
        12           O1  tau(  12) = (   5.2659652   1.5004022  12.6256763  )
        13           Ti1 tau(  13) = (   0.0747037   2.9811850  12.8215060  )
        14           Ti1 tau(  14) = (   3.3904977   1.4744036  12.5039750  )
        15           O1  tau(  15) = (   6.5763451   5.9564350  14.6046450  )
        16           O1  tau(  16) = (   3.2806839   0.0238217  13.9603601  )
        17           O1  tau(  17) = (   4.5226094   1.5694261  16.0518702  )
        18           O1  tau(  18) = (   2.0202940   1.5641231  16.0352509  )
        19           Ti1 tau(  19) = (   3.2640091   3.0260151  15.6942499  )
        20           Ti1 tau(  20) = (   6.5358820   1.5903963  16.1090211  )
        21           O1  tau(  21) = (   3.2904802   0.0005063   4.7018136  )
        22           O1  tau(  22) = (   6.5569505   0.0478586  17.2430089  )
        23           O1  tau(  23) = (   1.3043587   1.4918075   6.0039043  )
        24           O1  tau(  24) = (   5.2767064   1.4903225   6.0039473  )
        25           Ti1 tau(  25) = (   0.0000382   5.9609847   6.0000000  )
        26           Ti1 tau(  26) = (   3.2902200   4.4714249   6.0002472  )
        27           O1  tau(  27) = (   0.0002396   2.9813036   7.9858123  )
        28           O1  tau(  28) = (   3.2902150   2.9813002   7.3038282  )
        29           O1  tau(  29) = (   4.5938453   4.4726049   9.2879030  )
        30           O1  tau(  30) = (   1.9864658   4.4711199   9.2879459  )
        31           Ti1 tau(  31) = (   3.2859829   5.8469316   9.1661464  )
        32           Ti1 tau(  32) = (  -0.0001559   4.4089299   9.3799519  )
        33           O1  tau(  33) = (   3.2865236   2.9807090  11.3458169  )
        34           O1  tau(  34) = (   6.5781283   2.9667683  10.5610256  )
        35           O1  tau(  35) = (   1.2712900   4.4620179  12.6345536  )
        36           O1  tau(  36) = (   5.2651022   4.4720110  12.6184623  )
        37           Ti1 tau(  37) = (   0.0601624   5.9591143  12.7910897  )
        38           Ti1 tau(  38) = (   3.3902089   4.4660181  12.4873354  )
        39           O1  tau(  39) = (   6.5660314   2.9936061  14.6787526  )
        40           O1  tau(  40) = (   3.2777068   3.0094971  13.9036223  )
        41           O1  tau(  41) = (   4.5190982   4.4944638  16.0861991  )
        42           O1  tau(  42) = (   2.0255100   4.4980322  16.0740450  )
        43           Ti1 tau(  43) = (   3.2415938   0.0554625  15.8014791  )
        44           Ti1 tau(  44) = (   6.5310484   4.6110724  16.1360643  )
        45           O1  tau(  45) = (   3.2900926   2.9813045   4.7018136  )
        46           O1  tau(  46) = (   1.3039711   4.4726057   6.0039043  )
        47           O1  tau(  47) = (   5.2763189   4.4711207   6.0039473  )
        48           C1  tau(  48) = (   0.0160176   3.0093394  17.4896075  )
        49           H1  tau(  49) = (   0.0793418   3.1169436  18.5737113  )
        50           O1  tau(  50) = (   3.2580281   0.1500328  18.1801156  )
        51           H1  tau(  51) = (   4.0450954   5.6463884  18.5036456  )
        52           H1  tau(  52) = (   2.4870123   5.6427573  18.5175526  )

     number of k points=    10  Fermi-Dirac smearing, width (Ry)=  0.0073
                       cart. coord. in units 2pi/alat
        k(    1) = (   0.0000000   0.0000000   0.0000000), wk =   0.1250000
        k(    2) = (   0.0000000   0.0419351   0.0000000), wk =   0.2500000
        k(    3) = (   0.0000000  -0.0838702   0.0000000), wk =   0.1250000
        k(    4) = (   0.0379955   0.0000049   0.0000000), wk =   0.2500000
        k(    5) = (   0.0379955   0.0419400   0.0000000), wk =   0.2500000
        k(    6) = (   0.0379955  -0.0838652   0.0000000), wk =   0.2500000
        k(    7) = (   0.0379955  -0.0419301   0.0000000), wk =   0.2500000
        k(    8) = (  -0.0759910  -0.0000099   0.0000000), wk =   0.1250000
        k(    9) = (  -0.0759910   0.0419252   0.0000000), wk =   0.2500000
        k(   10) = (  -0.0759910  -0.0838800   0.0000000), wk =   0.1250000

     Initial potential from superposition of free atoms

     starting charge  374.99918, renormalised to  391.00000

     negative rho (up, down):  1.887E-02 0.000E+00

     %%%%%%%%%%%%%%%%%%%%%%%%%%%%%%%%%%%%%%%%%%%%%%%%%%%%%%%%%%%%%%%%%%%%%%%%
     %                                                                      %
     % You are using vdW-DF, which was implemented by the Thonhauser group. %
     % Please cite the following two papers that made this development      %
     % possible and the two reviews that describe the various versions:     %
     %                                                                      %
     %   T. Thonhauser et al., PRL 115, 136402 (2015).                      %
     %   T. Thonhauser et al., PRB 76, 125112 (2007).                       %
     %   K. Berland et al., Rep. Prog. Phys. 78, 066501 (2015).             %
     %   D.C. Langreth et al., J. Phys.: Condens. Matter 21, 084203 (2009). %
     %                                                                      %
     %                                                                      %
     % If you are calculating the stress with vdW-DF, please also cite:     %
     %                                                                      %
     %   R. Sabatini et al., J. Phys.: Condens. Matter 24, 424209 (2012).   %
     %                                                                      %
     %%%%%%%%%%%%%%%%%%%%%%%%%%%%%%%%%%%%%%%%%%%%%%%%%%%%%%%%%%%%%%%%%%%%%%%%

     Adding external electric field

     Computed dipole along edir(3) :
        Dipole               -4.6207 Ry au,        -11.7446 Debye
        Dipole field         -0.0087 Ry au,

        Potential amp.        0.8083 Ry
        Total length         46.3494 bohr

     Starting wfcs are  295 atomic wfcs
  @ DRIVER MODE: Message from server: STATUS
  @ DRIVER MODE: Message from server: POSDATA
  @ DRIVER MODE: Reading and sharing cell
  @ DRIVER MODE: Reading and sharing positions
  @ DRIVER MODE: Received positions

     Self-consistent Calculation

     iteration #  1     ecut=    29.40 Ry     beta= 0.05
     Davidson diagonalization with overlap
     c_bands:  4 eigenvalues not converged
     c_bands:  1 eigenvalues not converged
     c_bands:  1 eigenvalues not converged
     c_bands:  1 eigenvalues not converged
     c_bands:  2 eigenvalues not converged
     c_bands:  1 eigenvalues not converged
     c_bands:  3 eigenvalues not converged
     c_bands:  1 eigenvalues not converged
     ethr =  1.00E-05,  avg # of iterations = 19.4

[...]

     total energy              =   -2877.73042903 Ry
     estimated scf accuracy    <     609.99984794 Ry

     iteration #  2     ecut=    29.40 Ry     beta= 0.05
     Davidson diagonalization with overlap
     ethr =  1.00E-02,  avg # of iterations = 14.3

[...]

     iteration # 39     ecut=    29.40 Ry     beta= 0.05
     Davidson diagonalization with overlap
     c_bands:  1 eigenvalues not converged
     ethr =  3.77E-07,  avg # of iterations =  9.4

[...]

     total energy              =   -2931.21616682 Ry
     estimated scf accuracy    <       0.00000014 Ry

     iteration # 61     ecut=    29.40 Ry     beta= 0.05
     Davidson diagonalization with overlap
     ethr =  3.51E-11,  avg # of iterations =  5.0

     negative rho (up, down):  1.827E-02 0.000E+00

     Adding external electric field

     Computed dipole along edir(3) :
        Dipole                0.7875 Ry au,          2.0017 Debye
        Dipole field          0.0015 Ry au,

        Potential amp.       -0.1378 Ry
        Total length         46.3494 bohr

     End of self-consistent calculation

          k = 0.0000 0.0000 0.0000 ( 18029 PWs)   bands (ev):

   -56.2770 -56.2433 -55.9069 -55.8885 -55.8683 -55.7082 -55.6565 -55.6495
   -55.6154 -55.5700 -55.5664 -55.5346 -55.0493 -55.0255 -55.0153 -54.9666
   -32.7039 -32.5251 -32.4970 -32.4681 -32.4430 -32.3770 -32.3308 -32.3005
   -32.2078 -32.1398 -32.1326 -32.1311 -32.1179 -32.1134 -32.0889 -32.0753
   -32.0721 -32.0638 -32.0286 -31.9241 -31.9034 -31.8928 -31.8868 -31.8819
   -31.8751 -31.8624 -31.8203 -31.8069 -31.7957 -31.7864 -31.7651 -31.7491
   -31.7450 -31.7338 -31.7278 -31.6738 -31.5615 -31.4488 -31.3765 -31.3527
   -31.2949 -31.2669 -31.2618 -31.2584 -31.1820 -31.1671 -31.0703 -31.0358
   -19.2897 -16.5781 -16.4278 -16.1897 -16.0540 -15.9596 -15.7842 -15.6414
   -15.6141 -15.5206 -15.5167 -15.4317 -15.4222 -15.3799 -15.3734 -15.3697
   -15.3534 -15.3232 -15.2837 -15.2744 -15.2673 -15.2360 -15.1747 -15.0822
   -15.0553 -15.0084 -14.9044 -14.8923 -14.8596 -14.6806 -13.5433 -13.4300
    -7.5477  -7.0866  -4.0217  -3.9401  -3.8230  -3.7792  -3.6961  -3.5973
    -3.3566  -3.3461  -3.0733  -3.0365  -2.9821  -2.9548  -2.9412  -2.8744
    -2.8003  -2.7572  -2.7191  -2.6999  -2.6812  -2.6579  -2.6531  -2.5879
    -2.5459  -2.4902  -2.4791  -2.4595  -2.3735  -2.3043  -2.2491  -2.2201
    -2.2129  -2.1734  -2.0959  -2.0784  -2.0649  -2.0128  -1.8980  -1.8171
    -1.7468  -1.7134  -1.6461  -1.6121  -1.5324  -1.4356  -1.3854  -1.3082
    -1.2895  -1.2847  -1.2223  -1.2047  -1.1285  -1.0387  -0.9798  -0.9268
    -0.8379  -0.8161  -0.7880  -0.7402  -0.7234  -0.6855  -0.6574  -0.6215
    -0.5670  -0.5559  -0.4712  -0.3232  -0.3062  -0.2811  -0.2651  -0.2235
    -0.1890  -0.1283  -0.1059  -0.0573  -0.0370   0.0065   0.0191   0.0579
     0.0867   0.1458   0.2626   0.2828   0.3014   0.3767   0.4908   0.5376
     0.5900   0.6921   0.7044   0.9057   0.9294   0.9780   1.1930   1.2342
     1.5632   1.6359   1.8907   2.6363   2.9950   3.1784   3.4674   3.4830
     3.5158   3.5886   3.7158   3.7499   3.8169

[...]

          k = 0.0380-0.0419 0.0000 ( 17876 PWs)   bands (ev):

[...]

          k =-0.0760-0.0000 0.0000 ( 17886 PWs)   bands (ev):

[...]

          k =-0.0760-0.0839 0.0000 ( 17948 PWs)   bands (ev):

   -56.2617 -56.2585 -55.8949 -55.8868 -55.8802 -55.7098 -55.6530 -55.6338
   -55.6308 -55.5699 -55.5546 -55.5500 -55.0322 -55.0322 -55.0201 -54.9719
   -32.5228 -32.5200 -32.5124 -32.5087 -32.4221 -32.4196 -32.2580 -32.2388
   -32.1775 -32.1680 -32.1519 -32.1041 -32.1031 -32.0956 -32.0835 -32.0589
   -32.0165 -31.9692 -31.9625 -31.9608 -31.9115 -31.9012 -31.8920 -31.8874
   -31.8815 -31.8711 -31.8691 -31.8609 -31.8441 -31.8414 -31.8108 -31.8036
   -31.7696 -31.7645 -31.7604 -31.7559 -31.4508 -31.3656 -31.3655 -31.3236
   -31.2911 -31.2647 -31.2631 -31.2628 -31.2246 -31.2245 -31.1820 -31.0754
   -19.2888 -16.0563 -15.9564 -15.8150 -15.7812 -15.7434 -15.7424 -15.6967
   -15.6629 -15.6336 -15.6292 -15.5414 -15.5115 -15.4867 -15.4818 -15.4160
   -15.4091 -15.4031 -15.3995 -15.3296 -15.3241 -15.2261 -15.2171 -15.1361
   -15.1288 -15.0938 -15.0752 -15.0317 -15.0293 -14.8263 -13.5325 -13.5322
    -7.5530  -7.0783  -3.6762  -3.3495  -3.1589  -3.0261  -2.9845  -2.8961
    -2.8708  -2.8615  -2.8610  -2.7980  -2.7539  -2.7432  -2.7029  -2.6766
    -2.6704  -2.6480  -2.6437  -2.6127  -2.6107  -2.6054  -2.6032  -2.5904
    -2.5552  -2.5059  -2.5031  -2.4911  -2.4840  -2.4359  -2.3667  -2.3310
    -2.2553  -2.1614  -2.1603  -2.0880  -2.0526  -1.9792  -1.9695  -1.9638
    -1.9450  -1.9196  -1.7806  -1.6736  -1.6506  -1.6333  -1.5837  -1.5742
    -1.5197  -1.3273  -1.3091  -1.2499  -1.1826  -1.1591  -1.1199  -1.1096
    -1.0477  -1.0435  -1.0232  -0.9878  -0.9799  -0.9339  -0.9059  -0.8187
    -0.7964  -0.7685  -0.7486  -0.6805  -0.6535  -0.6128  -0.5743  -0.5469
    -0.5287  -0.5054  -0.4334  -0.3906  -0.3250  -0.2812  -0.2161   0.0255
     0.0332   0.2226   0.2991   0.3893   0.4547   0.4750   0.4890   0.5512
     0.6202   0.6269   0.6428   0.6640   0.7385   0.7432   1.3641   1.3666
     1.4176   1.4180   2.1060   2.5295   3.5399   3.5447   3.5594   3.5803
     3.5882   3.6332   3.6488   3.6824   3.9498

     the Fermi energy is     2.4981 ev

!    total energy              =   -2931.21620399 Ry
     estimated scf accuracy    <       0.00000007 Ry
     smearing contrib. (-TS)   =      -0.01054140 Ry
     internal energy E=F+TS    =   -2931.20566259 Ry

     The total energy is F=E-TS. E is the sum of the following terms:
     one-electron contribution =  -24525.90917504 Ry
     hartree contribution      =   12349.43650956 Ry
     xc contribution           =    -481.85651588 Ry
     ewald contribution        =    9727.12234842 Ry
     electric field correction =       0.00117035 Ry

     convergence has been achieved in  61 iterations

     Forces acting on atoms (cartesian axes, Ry/au):

     atom    1 type  1   force =     0.00016779   -0.00009160    0.14782351
     atom    2 type  1   force =     0.00001119    0.00055338   -0.16849979
     atom    3 type  2   force =     0.00012250    0.00257545   -0.06041932
     atom    4 type  2   force =    -0.00023280   -0.00139558    0.04035623
     atom    5 type  2   force =    -0.02183398    0.00008439    0.00385011
     atom    6 type  2   force =     0.02068050   -0.00004457    0.00305847
     atom    7 type  1   force =     0.00105516    0.00044022    0.00000460
     atom    8 type  1   force =    -0.00060094    0.00112547   -0.00047422
     atom    9 type  2   force =    -0.00007441    0.00015606   -0.00039063
     atom   10 type  2   force =     0.00022721   -0.00015740    0.00048435
     atom   11 type  2   force =     0.00011621   -0.00022939    0.00008952
     atom   12 type  2   force =    -0.00028165   -0.00027077   -0.00006994
     atom   13 type  1   force =     0.00016492   -0.00046216   -0.00052914
     atom   14 type  1   force =     0.00022412   -0.00024213    0.00054291
     atom   15 type  2   force =     0.00005374   -0.00021987    0.00018513
     atom   16 type  2   force =    -0.00003672    0.00011569    0.00002737
     atom   17 type  2   force =    -0.00020225    0.00014789   -0.00038721
     atom   18 type  2   force =    -0.00031472   -0.00012208   -0.00001737
     atom   19 type  1   force =     0.00051121    0.00086480   -0.00018650
     atom   20 type  1   force =    -0.00042714   -0.00073388    0.00124704
     atom   21 type  2   force =     0.00009045   -0.00009895    0.10204006
     atom   22 type  2   force =    -0.00007453    0.00036895   -0.00036412
     atom   23 type  2   force =    -0.07528156    0.00018030   -0.03469748
     atom   24 type  2   force =     0.07530694    0.00061835   -0.03478920
     atom   25 type  1   force =    -0.00003032   -0.00011164    0.14836932
     atom   26 type  1   force =     0.00006360   -0.00186676   -0.16842054
     atom   27 type  2   force =     0.00016084    0.00246279   -0.05952715
     atom   28 type  2   force =    -0.00017012   -0.00144520    0.04096414
     atom   29 type  2   force =    -0.02193977    0.00144270    0.00421314
     atom   30 type  2   force =     0.02063787    0.00072794    0.00339340
     atom   31 type  1   force =     0.00110144   -0.00045441    0.00002102
     atom   32 type  1   force =    -0.00066542   -0.00066565   -0.00043435
     atom   33 type  2   force =     0.00011465   -0.00014152   -0.00061747
     atom   34 type  2   force =     0.00021779    0.00062480   -0.00050218
     atom   35 type  2   force =    -0.00013674    0.00015683   -0.00016102
     atom   36 type  2   force =     0.00052605   -0.00031038   -0.00012874
     atom   37 type  1   force =     0.00007133    0.00047935    0.00009389
     atom   38 type  1   force =    -0.00006482    0.00034512    0.00042359
     atom   39 type  2   force =     0.00001228   -0.00057532    0.00048334
     atom   40 type  2   force =    -0.00006366   -0.00042866    0.00044648
     atom   41 type  2   force =    -0.00065997   -0.00091741   -0.00019463
     atom   42 type  2   force =     0.00047231   -0.00058522    0.00015637
     atom   43 type  1   force =     0.00084361   -0.00100173   -0.00037166
     atom   44 type  1   force =    -0.00052884   -0.00010294    0.00022811
     atom   45 type  2   force =     0.00008503   -0.00009113    0.10195923
     atom   46 type  2   force =    -0.07529957    0.00010464   -0.03471028
     atom   47 type  2   force =     0.07533050    0.00054281   -0.03480996
     atom   48 type  3   force =    -0.00001765   -0.00088678   -0.00044408
     atom   49 type  4   force =     0.00028394   -0.00013949    0.00024592
     atom   50 type  2   force =     0.01256242    0.00628940   -0.00384850
     atom   51 type  4   force =     0.00120463    0.00047618   -0.00045251
     atom   52 type  4   force =    -0.01348265   -0.00709089    0.00474075

     Total force =     0.402272     Total SCF correction =     0.000633
  @ DRIVER MODE: Message from server: STATUS
  @ DRIVER MODE: Message from server: GETFORCE
  @ DRIVER MODE: Returning v,forces,stress,ensemble

     Writing output data file ./calc.save/
  @ DRIVER MODE: Message from server: EXIT
  @ DRIVE MODE: Exiting

     General routines

     Parallel routines

   This run was terminated on:  21:57: 1  15Sep2021

   JOB DONE.